
units lj                  # Use reduced LJ style units
atom_style atomic         # Uncharged point particles
atom_modify map hash      # Needed for indexing of clusters etc
                          # Used to be able to find where atoms are in relation to each other.

lattice fcc 1.0 spacing 1 1 1
Lattice spacing in x,y,z = 1.5874011 1.5874011 1.5874011
region box block 0 10 0 10 0 10 units lattice
create_box 2 box
Created orthogonal box = (0.0000000 0.0000000 0.0000000) to (15.874011 15.874011 15.874011)
  3 by 4 by 4 MPI processor grid
create_atoms 1 box
Created 4000 atoms
  using lattice units in orthogonal box = (0.0000000 0.0000000 0.0000000) to (15.874011 15.874011 15.874011)
  create_atoms CPU = 0.002 seconds
set type 1 type/fraction 2 0.33 78393
Setting atom values ...
  1342 settings made for type/fraction
mass 1 1.0
mass 2 1.0
pair_style lj/cut  3.5
pair_modify tail  yes
pair_coeff 1  1  1.0  1.0   # Intearaction between 1 and 1 set with epsilon = 1 and sigma = 1
pair_coeff 1  2  1.5  0.8
pair_coeff 2  2  0.5  0.88

write_data data.0
System init for write_data ...
Neighbor list info ...
  update every 1 steps, delay 10 steps, check yes
  max neighbors/atom: 2000, page size: 100000
  master list distance cutoff = 3.8
  ghost atom cutoff = 3.8
  binsize = 1.9, bins = 9 9 9
  1 neighbor lists, perpetual/occasional/extra = 1 0 0
  (1) pair lj/cut, perpetual
      attributes: half, newton on
      pair build: half/bin/atomonly/newton
      stencil: half/bin/3d
      bin: standard
WARNING: Not all mixed pair coeffs generated from mixing. Use write_data with 'pair ij' option to store all pair coeffs. (../write_data.cpp:312)


#############################
#   M E L T   S Y S T E M   #
#############################

velocity all create 2.4 2750902 mom yes dist gaussian # Assign velocities
                                                    # Temperature 2.4, random number seed, zero linear momentum
                                                                                # Gaussian distribution

timestep 0.002   # simulation timestep
thermo 1000       # output thermodynamic data every 1000 steps bf 100

# Define a fix  in this case with index 1 applied to all
# particles in the simulation. This fix is for simulations
# in the anisotropic NPT ensemble. Note that we use the MTK
# correction.
fix 1 all npt temp 2.4 2.4 0.1 iso 5.68 5.68 0.5 mtk yes tchain 5 pchain 5 # Use NPT ensemble
                                                                         # Set temperature and pressure and damping
                                                                         # Numbers of thermostats in chain and in barostat
run 10000          # run for 10000 steps
Per MPI rank memory allocation (min/avg/max) = 3.642 | 3.644 | 3.648 Mbytes
Step Temp E_pair E_mol TotEng Press Volume 
       0          2.4   -6.2616635            0   -2.6625635   -4.0519521         4000 
    1000    2.3912237   -5.0315974            0   -1.4456585     5.908882    4043.6339 
    2000    2.3639554   -5.0149426            0   -1.4698959    5.6493837    4067.6729 
    3000    2.3946512   -4.9792289            0   -1.3881501    5.7953713    4075.2344 
    4000    2.3808873   -4.9360811            0    -1.365643    5.7194788    4101.0902 
    5000    2.3928825   -5.0074985            0   -1.4190721    5.9364864    4047.3356 
    6000    2.4021109   -5.0392048            0   -1.4369393    5.5112664    4068.4333 
    7000    2.3579538    -5.012246            0   -1.4761995    5.7328086    4056.2171 
    8000    2.4004573   -5.0879419            0   -1.4881561     5.739375    4026.0524 
    9000    2.4108727   -5.0150692            0   -1.3996643    5.6512013    4076.2408 
   10000    2.3951201   -4.9934269            0   -1.4016449    5.8621859     4057.409 
Loop time of 2.45273 on 48 procs for 10000 steps with 4000 atoms

Performance: 704521.344 tau/day, 4077.091 timesteps/s
99.6% CPU use with 48 MPI tasks x no OpenMP threads

MPI task timing breakdown:
Section |  min time  |  avg time  |  max time  |%varavg| %total
---------------------------------------------------------------
Pair    | 1.0615     | 1.1338     | 1.1971     |   3.0 | 46.23
Neigh   | 0.20668    | 0.21383    | 0.22398    |   1.0 |  8.72
Comm    | 0.76063    | 0.83117    | 0.89816    |   3.7 | 33.89
Output  | 0.00024767 | 0.00025256 | 0.0003198  |   0.0 |  0.01
Modify  | 0.23214    | 0.25871    | 0.28819    |   2.8 | 10.55
Other   |            | 0.01499    |            |       |  0.61

Nlocal:        83.3333 ave          94 max          77 min
Histogram: 7 7 8 4 9 3 5 2 2 1
Nghost:        1627.75 ave        1656 max        1607 min
Histogram: 3 3 9 10 8 4 6 2 2 1
Neighs:        9400.02 ave       10881 max        8417 min
Histogram: 3 8 10 8 4 4 4 5 0 2

Total # of neighbors = 451201
Ave neighs/atom = 112.80025
Neighbor list builds = 910
Dangerous builds = 221

# Equilibrate just above the melting temperature to avoid step fn in T

fix 1 all npt temp 1.25 1.25 0.1 iso 5.68 5.68 0.5 mtk yes tchain 5 pchain 5
run 2000
Per MPI rank memory allocation (min/avg/max) = 3.643 | 3.645 | 3.649 Mbytes
Step Temp E_pair E_mol TotEng Press Volume 
   10000    2.3951201   -4.9934269            0   -1.4016449    5.8621859     4057.409 
   11000    1.2228581   -6.8951778            0   -5.0613492    5.6663204    3265.9561 
   12000    1.2434112   -6.9468771            0   -5.0822267    5.4089775    3269.0193 
Loop time of 0.575533 on 48 procs for 2000 steps with 4000 atoms

Performance: 600487.322 tau/day, 3475.042 timesteps/s
99.6% CPU use with 48 MPI tasks x no OpenMP threads

MPI task timing breakdown:
Section |  min time  |  avg time  |  max time  |%varavg| %total
---------------------------------------------------------------
Pair    | 0.24789    | 0.27845    | 0.29795    |   2.0 | 48.38
Neigh   | 0.037398   | 0.03979    | 0.042728   |   0.6 |  6.91
Comm    | 0.18552    | 0.20824    | 0.24       |   2.5 | 36.18
Output  | 5.2172e-05 | 5.3743e-05 | 7.6719e-05 |   0.0 |  0.01
Modify  | 0.040635   | 0.044187   | 0.048243   |   1.0 |  7.68
Other   |            | 0.004807   |            |       |  0.84

Nlocal:        83.3333 ave          90 max          74 min
Histogram: 3 2 3 4 3 5 9 7 9 3
Nghost:        1880.54 ave        1912 max        1858 min
Histogram: 6 6 6 9 5 4 2 3 4 3
Neighs:        11707.9 ave       12808 max        9854 min
Histogram: 3 1 2 4 4 7 3 7 9 8

Total # of neighbors = 561981
Ave neighs/atom = 140.49525
Neighbor list builds = 141
Dangerous builds = 9

#############################
# L I N E A R  Q U E N C H  #
#############################

# Define solid atoms. This closely follows ten Wolde  Ruiz-Montero and Frenkel  Faraday Discuss  1996  104  93-110
# Compute components of the per-atom q6 vector
compute q6 all orientorder/atom degrees 1 6 components 6 nnn NULL cutoff 1.3 # compute the Q6 parameter.
                                                                             # Use all neighbours within 1.3 unit cell.

# get number of connections
compute coord_number all coord/atom orientorder q6 0.5

# An atom is solid if it has 8 or more connections (of a possible 14)
variable is_solid atom c_coord_number>=8
group solid dynamic all var is_solid    # Must be dynamic to update
dynamic group solid defined

# do clustering
compute cluster solid cluster/atom 1.3 # Create a cluster where all atoms within are solid and max 1.3 units from another member

# define chunks one chunk per cluster
compute clus_chunks solid chunk/atom c_cluster nchunk every compress yes  # Says which atoms are in which chunk

# count the size of each chunk
compute size_chunks solid property/chunk clus_chunks count


# Find the maximum entry in the vector of chunk sizes
variable max_n equal max(c_size_chunks)


# Thermo style which includes this variable
# thermo_style custom step temp pe vol v_max_n

thermo ${N}  # Print the thermo information every 100 steps
thermo 1000  

# Reset the npt fix at a lower temperature (below freezing)
fix 1  all npt temp  ${temp} ${temp}  0.1  iso  5.68  5.68  0.5  mtk yes tchain  5  pchain  5
fix 1  all npt temp  0.45 ${temp}  0.1  iso  5.68  5.68  0.5  mtk yes tchain  5  pchain  5
fix 1  all npt temp  0.45 0.45  0.1  iso  5.68  5.68  0.5  mtk yes tchain  5  pchain  5

dump dmp2 all dcd ${N} traj.dcd
dump dmp2 all dcd 1000 traj.dcd


compute msd all msd com yes
variable twopoint equal c_msd[4]/6/(step*dt+1.0e-6)
fix 9 all vector 10 c_msd[4]
variable fit equal slope(f_9)/6/(10*dt)
thermo_style custom step temp pe c_msd[4] v_twopoint v_fit v_max_n

fix 1 all npt temp 1.25 ${temp} 0.1 iso 5.68 5.68 0.5 mtk yes tchain 5 pchain 5
fix 1 all npt temp 1.25 0.45 0.1 iso 5.68 5.68 0.5 mtk yes tchain 5 pchain 5
run 5000000 # 5000000  # Run for this many steps
Neighbor list info ...
  update every 1 steps, delay 10 steps, check yes
  max neighbors/atom: 2000, page size: 100000
  master list distance cutoff = 3.8
  ghost atom cutoff = 3.8
  binsize = 1.9, bins = 8 8 8
  4 neighbor lists, perpetual/occasional/extra = 1 3 0
  (1) pair lj/cut, perpetual
      attributes: half, newton on
      pair build: half/bin/atomonly/newton
      stencil: half/bin/3d
      bin: standard
  (2) compute orientorder/atom, occasional
      attributes: full, newton on
      pair build: full/bin/atomonly
      stencil: full/bin/3d
      bin: standard
  (3) compute coord/atom, occasional
      attributes: full, newton on
      pair build: full/bin/atomonly
      stencil: full/bin/3d
      bin: standard
  (4) compute cluster/atom, occasional
      attributes: full, newton on
      pair build: full/bin/atomonly
      stencil: full/bin/3d
      bin: standard
Per MPI rank memory allocation (min/avg/max) = 9.812 | 9.818 | 9.826 Mbytes
Step Temp PotEng c_msd[4] v_twopoint v_fit v_max_n 
   12000    1.2434112   -6.9468771 2.8872309e-30 2.0050214e-32 8.3333333e+20            2 
   13000    1.2148058    -6.956882   0.50914233 0.0032637327  0.040756723            2 
   14000    1.2384515   -6.9590582   0.96525437 0.0057455615  0.039411287            1 
   15000     1.252717   -6.9404656    1.4656635 0.0081425746  0.040036263            1 
   16000    1.2527067   -6.9187568    1.8888087  0.009837545  0.039346286            1 
   17000    1.2459841   -6.9887117    2.3705108  0.011620151  0.038893484            4 
   18000    1.2607304   -6.9751432    2.9060505  0.013453937  0.039234884            2 
   19000    1.2222021   -6.9655158    3.3302671  0.014606434  0.039566516            2 
   20000    1.2618016   -6.9459913    3.7875015  0.015781256  0.039430353            2 
   21000    1.2494345   -6.9218847    4.2323961  0.016795222   0.03919592            1 
   22000    1.2105933   -6.9623978     4.830734  0.018298235  0.039256377            2 
   23000    1.2391829   -6.9917266    5.3188413  0.019271164  0.039662025            2 
   24000    1.2566394   -6.9556852    5.7582452  0.019993907  0.039823161            1 
   25000    1.2551722   -6.9793433    6.0612372  0.020204124  0.039582064            2 
   26000    1.2532555   -6.9640642    6.4450428  0.020657188  0.039111541            2 
   27000    1.2631722   -6.9228594    6.8744014  0.021217288  0.038693237            1 
   28000    1.2255485    -6.977518    7.2685652  0.021632634  0.038296229            1 
   29000    1.2110427   -6.9602435    7.7022698  0.022132959  0.038013148            1 
   30000    1.2560788   -6.9261881    8.1057299  0.022515916  0.037688078            1 
   31000     1.221593   -6.9515886    8.5737371   0.02304768  0.037467215            3 
   32000    1.2414546    -6.946128    9.0130365  0.023471449  0.037354313            1 
   33000     1.220052   -6.9523209    9.4230268  0.023795522  0.037228216            2 
   34000    1.2470147   -6.9914583    9.8682722  0.024186941  0.037084598            1 
   35000    1.2442338   -6.9353796     10.29924     0.024522  0.036995544            1 
   36000    1.2590143   -6.9853284    10.795506  0.024989597  0.036935094       -1e+20 
   37000    1.2587024   -7.0031107    11.230561  0.025294056  0.036962005            2 
   38000    1.2466493   -6.9703445    11.801659  0.025880831  0.036978404            1 
   39000    1.2456313   -6.9412818    12.209828  0.026089377  0.037011971            2 
   40000    1.2414559   -6.9226462    12.642276  0.026338075  0.037045334            1 
   41000    1.2452852   -6.9635224    13.263093  0.026957506  0.037093707            1 
   42000    1.2552269   -6.9250335     13.88739  0.027554345   0.03725025            1 
   43000    1.2301275   -6.9356434    14.471259  0.028045075  0.037440583            2 
   44000    1.2476798   -6.9429831    15.002137  0.028413138  0.037631997            1 
   45000    1.2496683   -6.9796525    15.501646  0.028706752  0.037830116            1 
   46000    1.2497365   -7.0014137    15.833796  0.028684412  0.037967804            2 
   47000    1.2160559   -6.9577632    16.320817  0.028937619  0.038087373            3 
   48000    1.2444342   -6.9577952    16.846418  0.029247253  0.038212438            1 
   49000    1.2227403   -6.9897129     17.35349  0.029512738  0.038313576            1 
   50000    1.2620603   -6.9807719    17.671802  0.029453003  0.038391541            2 
   51000    1.2590341   -6.9900384    18.144335  0.029647606  0.038453946            1 
   52000    1.2242554   -6.9500605    18.744647  0.030039498  0.038524234            2 
   53000    1.2156055   -6.9567536    19.234373  0.030242725  0.038596144            3 
   54000    1.2259599    -6.979082     19.79897  0.030553965  0.038682613            2 
   55000    1.2482927   -7.0150869    20.167001  0.030556062  0.038747389            1 
   56000    1.2361459   -6.9556908    20.641359  0.030716307  0.038803248            2 
   57000    1.2160676   -6.9593145     20.98464  0.030679299  0.038836381            1 
   58000    1.2352245   -6.9768655    21.624208  0.031069264  0.038875129            1 
   59000    1.2310709   -6.9763997     21.84442  0.030853701  0.038902375            1 
   60000    1.2383555   -6.9786679    22.252097   0.03090569  0.038906837            2 
   61000    1.2493546   -6.9761164    22.772575  0.031110075  0.038908353            1 
   62000    1.2547919    -6.919111    23.278875   0.03128881  0.038901329            1 
   63000    1.2294788   -7.0040995    23.836503  0.031529766  0.038903846            1 
   64000    1.2549656   -6.9863409     24.16195  0.031460872  0.038903732            1 
   65000    1.2378622   -6.9934127    24.509765  0.031422775  0.038889021            1 
   66000    1.2541785   -7.0181558    24.852892  0.031379914  0.038857017            1 
   67000    1.2386021   -6.9957521    25.397301  0.031588683  0.038835159            2 
   68000    1.2791724   -7.0496459    25.576352  0.031343568  0.038808629            2 
   69000    1.2172941   -6.9550229    26.143433  0.031574194  0.038748362            1 
   70000    1.2545837   -6.9773691    26.571471  0.031632704  0.038693573            1 
   71000     1.238792   -6.9734941    26.855084  0.031520052  0.038624754            2 
   72000    1.2454275   -7.0095907    27.516934  0.031848302  0.038564977            1 
   73000    1.2270438   -6.9463396    27.936465  0.031890941  0.038524535            1 
   74000    1.2413986   -6.9652261    28.409705  0.031992911  0.038489311            2 
   75000    1.2195988   -7.0013196    28.843804  0.032048671  0.038462024            1 
   76000    1.2583282   -6.9783667    29.362986  0.032196256  0.038434995            2 
   77000    1.2369134   -6.9360193    29.745721  0.032192338   0.03840445            1 
   78000    1.2140047   -6.9774368    30.230854  0.032297921   0.03837134            2 
   79000    1.2507617   -6.9642292    30.680921  0.032363841   0.03834247            2 
   80000    1.2468438   -6.9581028    31.140541  0.032438063  0.038319403            1 
   81000     1.227651    -7.013447    31.659819   0.03257183  0.038299316            1 
   82000    1.2486834   -6.9710203    31.909948  0.032428808  0.038270613            2 
   83000     1.243017   -6.9870188    32.105468  0.032234405  0.038231335            2 
   84000    1.2720468   -6.9687073    32.797101  0.032536806  0.038192119            1 
   85000     1.234454   -6.9821187     33.23669   0.03258499   0.03815612            2 
   86000    1.2212835   -6.9826748     33.48437  0.032446095  0.038124718            1 
   87000    1.2364483   -7.0446712    33.886361    0.0324582  0.038089037            2 
   88000    1.2488419   -6.9472624     34.47052  0.032642538  0.038057146            1 
   89000    1.2563505   -6.9810959    34.696837  0.032487675  0.038025177            2 
   90000    1.2508778   -7.0949382    34.970022   0.03237965  0.037972891            1 
   91000    1.2357864   -7.0048042    35.502389  0.032511346  0.037923515            2 
   92000    1.2498904    -7.028075    35.929063  0.032544441   0.03787666            5 
   93000    1.2468659   -7.0128976    36.399716  0.032616233  0.037830422            2 
   94000    1.2172779    -7.003647    36.834444  0.032654649   0.03779003            2 
   95000    1.2515757   -7.0076144    37.234259  0.032661631  0.037747206            1 
   96000    1.2608954   -6.9386855    37.816063  0.032826443  0.037709453            1 
   97000    1.2280246   -6.9680268    38.383189  0.032975248  0.037683386            1 
   98000    1.2352033   -6.9487516     38.96012  0.033129354  0.037663875            1 
   99000    1.2254582   -6.9604987    39.300061   0.03308086  0.037645847            2 
  100000    1.2456108   -6.9815231    39.833929  0.033194941  0.037630233            1 
  101000     1.232657    -6.998887    40.158898  0.033134404  0.037619009            1 
  102000    1.2426173   -6.9529671    40.459896   0.03305547   0.03759711            1 
  103000    1.2421392   -6.9904379    40.687613   0.03291878  0.037563407            1 
  104000    1.2322377   -6.9708361     41.20983  0.033020697  0.037529707            1 
  105000    1.2342198   -6.9825068    41.786768  0.033164102  0.037501141            1 
  106000    1.2509602   -7.0043248    42.134843  0.033124877  0.037477576            1 
  107000    1.2336552   -6.9317269    42.756404   0.03329938  0.037460199            2 
  108000    1.2304392   -7.0268913    42.966145   0.03315289  0.037440476            1 
  109000     1.223557   -6.9821114    43.826464  0.033506471  0.037424899            2 
  110000    1.2353134    -7.013454    44.130319  0.033432059   0.03741378            1 
  111000    1.2615657    -6.991243    44.622806  0.033500605  0.037401316            1 
  112000    1.2423841   -6.9677146    45.136912  0.033584011  0.037387483            2 
  113000    1.1978412   -7.0231982    45.371092  0.033459507  0.037380759            3 
  114000    1.2312809   -6.9588912    45.931542  0.033575688  0.037371208            3 
  115000    1.2351804   -6.9912673     46.37352     0.033604  0.037365711            1 
  116000    1.2438643   -6.9754891     46.93537  0.033717938  0.037363292            1 
  117000    1.2219838   -6.9992981    47.272311  0.033669737  0.037358867            2 
  118000    1.2138695   -6.9998077    47.758854  0.033728004  0.037350809            1 
  119000    1.2223502   -6.9938052    47.998911  0.033612683  0.037341729            2 
  120000    1.2297825   -6.9678698    48.613913  0.033759661  0.037334007            2 
  121000    1.2425377   -6.9972089    49.080547   0.03380203  0.037330509            1 
  122000    1.2409829   -6.9814754    49.454804  0.033780603  0.037325322            1 
  123000     1.228831   -6.9933022    49.673054   0.03365383  0.037312183            1 
  124000    1.2336402   -6.9649766     50.18846  0.033728804  0.037296173            1 
  125000    1.2317532   -6.9567686    50.582461   0.03372164  0.037278788            2 
  126000    1.2170615    -6.940575    51.097602   0.03379471  0.037260643            1 
  127000    1.2309042   -7.0203546    51.582828     0.033847  0.037249807            1 
  128000    1.2176362   -6.9810806    52.133807  0.033941281  0.037242236            1 
  129000    1.2320905   -7.0146975    52.379645   0.03383698   0.03723182            1 
  130000    1.2642454    -6.994673    52.798337  0.033845088  0.037218271            1 
  131000    1.2193927   -7.0044927    53.101667  0.033779686  0.037200756            3 
  132000    1.2376896   -6.9906267     53.61763  0.033849514  0.037182125            2 
  133000    1.2453061   -6.9756033    53.858779  0.033746102  0.037162938            2 
  134000    1.2457745   -7.0078733    53.976464  0.033567453  0.037140336            2 
  135000    1.2393332   -7.0273495    54.423049  0.033594475  0.037112221            1 
  136000    1.2202976   -6.9899806    55.018243  0.033712159  0.037084539            3 
  137000    1.2653518   -7.0329638    55.224388  0.033591477  0.037059162            1 
  138000    1.2292745   -7.0255553    55.446417  0.033482136  0.037029984            1 
  139000    1.2523019   -7.0156036    56.151469   0.03366395  0.037002634            1 
  140000    1.2397901   -7.0412343    56.706982  0.033754156  0.036979955            1 
  141000      1.23004   -7.0028327    56.947856  0.033657125  0.036957476            1 
  142000    1.2615551   -7.0137704    57.399611  0.033685217  0.036935607            1 
  143000    1.2253897   -6.9915088    58.040594   0.03382319  0.036911995            3 
  144000    1.2133539   -6.9966437    58.244506  0.033706311  0.036889441            2 
  145000    1.2214941   -7.0176771    58.477547  0.033607785  0.036867774            2 
  146000     1.231151   -7.0199909    58.792971  0.033557632  0.036841786            3 
  147000    1.2218392   -7.0367709    58.912843  0.033397303  0.036811535            1 
  148000    1.2149848   -7.0034014    59.598759   0.03355786  0.036780783            1 
  149000    1.2287618   -6.9837912    60.152077  0.033642101  0.036752887            2 
  150000    1.2591029   -7.0348861    60.314508   0.03350806  0.036724041            2 
  151000    1.2215544   -7.0365871    60.796105  0.033551934   0.03669556            2 
  152000    1.2261761   -7.0246259    61.162413  0.033532024  0.036670042            2 
  153000    1.1857664   -7.0240483    61.594739  0.033548333  0.036643359            2 
  154000    1.2159352   -7.0257849    61.613465   0.03334062  0.036613501            2 
  155000    1.2175771   -6.9737172     62.37026  0.033532398   0.03658126            2 
  156000     1.209677    -7.053672    62.855582    0.0335767  0.036554363            2 
  157000    1.2477417   -6.9849431    63.578237   0.03374641  0.036532535            2 
  158000    1.2287026   -6.9883874    64.100021  0.033808028  0.036514744            2 
  159000    1.2182044   -6.9991027    64.490096  0.033799841   0.03649487            1 
  160000    1.2518839    -6.950367    65.205145  0.033961013  0.036479433            1 
  161000    1.2072146   -7.0297634    65.475239  0.033889875  0.036467707            1 
  162000     1.214101   -7.0059034    66.043092  0.033972784  0.036458683            2 
  163000    1.2430326   -7.0137618    66.168134  0.033828289  0.036446347            1 
  164000    1.2322608   -6.9780282    67.005385  0.034047451  0.036437768            2 
  165000    1.2337954   -6.9913767    67.074725  0.033876124  0.036427008            2 
  166000    1.2297156   -6.9958331    67.578407  0.033924903   0.03641278            1 
  167000    1.1973595    -7.009486    67.772951  0.033818838  0.036397688            1 
  168000    1.2265491   -6.9875378    68.305151  0.033881523  0.036382477            2 
  169000     1.229827   -6.9988443    68.917626   0.03398305  0.036366565            2 
  170000    1.2634928   -7.0160407    69.095691  0.033870437  0.036353784            2 
  171000    1.2201696   -7.0391694    69.557077  0.033897211  0.036341768            1 
  172000    1.2095289   -7.0666769    69.705068  0.033771835  0.036328439            3 
  173000     1.214381   -7.0158224    70.518213   0.03396831   0.03631569            2 
  174000    1.2540624   -7.0315809    71.151394  0.034076338  0.036305635            1 
  175000    1.2243133    -7.004948    71.754129  0.034168633  0.036297648            1 
  176000    1.2093517   -7.0088198    72.227665  0.034198705  0.036293263            2 
  177000    1.2331936   -6.9805673    72.648418  0.034203587   0.03629218            1 
  178000    1.2075664   -7.0406362    73.255522  0.034295656  0.036292979            1 
  179000    1.2160389   -6.9965868    73.666589  0.034295432  0.036291156            2 
  180000    1.2045292   -7.0681016    74.042157  0.034278776  0.036289399            2 
  181000    1.2349176   -7.0113541    74.086434  0.034109776  0.036284542            1 
  182000    1.2395496   -7.0289435    74.373469  0.034053786  0.036277361            1 
  183000    1.2164567   -6.9922492    74.886606  0.034101369  0.036270486            1 
  184000    1.2278204   -7.0063458    75.568889   0.03422504  0.036265185            1 
  185000    1.2350964   -7.0138775    75.929999  0.034202702  0.036260787            2 
  186000    1.2403809   -6.9896489     76.54191   0.03429297  0.036257056            1 
  187000    1.2460684   -7.0412848    76.701948  0.034180903  0.036252681            4 
  188000     1.226853   -7.0489897    77.022765  0.034141296  0.036245612            1 
  189000    1.2181715   -7.0282406    77.265487  0.034067675  0.036236787            1 
  190000    1.2038825   -7.0232315    77.620492  0.034044075  0.036228608            2 
  191000    1.2159827   -6.9834552    77.914981   0.03399432  0.036218725            2 
  192000    1.2225781   -7.0356901    78.615088  0.034121132  0.036210245            3 
  193000    1.2050126   -7.0053128    78.793701   0.03402146  0.036199665            1 
  194000    1.1886141   -6.9903017    79.603217  0.034193822  0.036186578            1 
  195000    1.2272195   -7.0021749    79.480739  0.033966128  0.036172376            1 
  196000    1.2217866   -6.9748925    79.859137  0.033953715  0.036158231            2 
  197000    1.2315072   -6.9958076    80.237528  0.033941424  0.036144311            1 
  198000    1.2009771   -7.0818782    80.915052  0.034055157  0.036133182            1 
  199000    1.2007079   -6.9595736    81.708502  0.034216291  0.036121196            1 
  200000    1.2236066    -7.053059    81.736483  0.034056868  0.036110093            2 
  201000    1.2270263   -7.0481912    82.161705  0.034063725  0.036097343            1 
  202000    1.2204866   -6.9798564    82.428703   0.03400524  0.036084975            1 
  203000    1.2210724   -7.0145869    82.948436  0.034051082  0.036073907            1 
  204000    1.2094523   -6.9576518     83.32759  0.034039048  0.036061098            2 
  205000    1.2092814   -7.0324084    83.579586  0.033975442  0.036046978            1 
  206000    1.1891733   -7.0269428    83.984901  0.033974474  0.036032708            2 
  207000    1.2175976   -7.0381381    84.486145  0.034012135  0.036019372            2 
  208000    1.1824667   -7.0328062    84.902539   0.03401544  0.036004858            2 
  209000    1.2487208   -7.0378838    85.254373  0.033992972  0.035991045            1 
  210000    1.1968854   -7.0615103    85.799831  0.034047552  0.035980611            2 
  211000      1.22364   -7.0232986    86.363778  0.034108917  0.035970975            1 
  212000    1.2056595    -7.013951    86.726344  0.034090544  0.035961508            1 
  213000    1.2286289   -7.0045551     87.01543  0.034043595  0.035951052            1 
  214000    1.2289459   -7.0036819    87.144163  0.033934643  0.035940021            2 
  215000    1.2356683   -7.0694797    87.512615  0.033919618  0.035927702            1 
  216000    1.1753076    -7.037762    88.295036  0.034064443  0.035915389            1 
  217000     1.215391   -6.9838788    88.962547  0.034163805   0.03590466            1 
  218000    1.2262827   -7.0052397    89.246129  0.034115493  0.035897372            3 
  219000    1.2074844   -7.0210624    89.721122  0.034140457  0.035889827            1 
  220000    1.2207325   -7.0423434    90.536331  0.034294065  0.035883405       -1e+20 
  221000    1.2203918    -7.041407     90.36009  0.034072432  0.035876126            2 
  222000     1.211188   -6.9991333    91.388928  0.034305153  0.035871626            2 
  223000     1.224371   -7.0245495    91.627091  0.034240318  0.035867346            1 
  224000    1.2083038   -6.9963628    92.220814  0.034308338  0.035862101            2 
  225000    1.2230498   -7.0026198    92.647864  0.034314024  0.035858465            1 
  226000    1.2142127   -7.0339014    93.598558  0.034512743  0.035856066            2 
  227000    1.2108473   -7.0533075     93.52999  0.034335532  0.035856716            1 
  228000    1.2327007   -7.0277664    94.389639  0.034499137   0.03585679            2 
  229000    1.2518435   -7.0424604    94.441653  0.034367414  0.035857635            2 
  230000    1.1957089   -6.9832438     95.03871  0.034434315  0.035855266            1 
  231000    1.2348822     -7.06012    95.029717  0.034282005  0.035852042            1 
  232000     1.189377   -7.0426157    95.124868  0.034168415  0.035846397            1 
  233000    1.2153504   -7.0598308     95.98494  0.034329378  0.035841795            2 
  234000    1.1997528    -7.020312    96.731657  0.034448596  0.035836282            1 
  235000    1.1938109   -7.0570158    96.701156   0.03429119  0.035831994            2 
  236000    1.2219671   -7.0178076    97.079858  0.034279611  0.035827002            1 
  237000    1.2310147   -7.0195488    97.393191  0.034245145  0.035822409            1 
  238000    1.2378374   -7.0443679    97.805169  0.034245507  0.035816795            3 
  239000    1.2045421   -7.0326309    98.285758   0.03426979  0.035811224            2 
  240000    1.2440504     -7.04296    98.918307  0.034346634  0.035806267            2 
  241000    1.2352137   -7.0161582    99.375156  0.034362087  0.035802023            1 
  242000    1.1988263   -7.0432799    99.537037  0.034275839  0.035797186            2 
  243000    1.2123221   -7.0178271    99.834674  0.034236857  0.035789487            1 
  244000    1.2251618   -7.0117542    100.59013  0.034354552  0.035782788            1 
  245000    1.1918061   -7.0911307    100.74937  0.034268494  0.035777427            6 
  246000    1.2065737   -7.0891649     100.7125  0.034116699  0.035769957            2 
  247000     1.201448   -7.0408924    101.32266  0.034184434  0.035762718            2 
  248000    1.1909267   -6.9899281    102.20775  0.034344003  0.035756422            2 
  249000    1.1937293   -7.0534549    102.11692  0.034175675  0.035751393            1 
  250000    1.1945984    -7.069559    103.22785  0.034409284   0.03574543            3 
  251000    1.2398615   -7.0352357    103.29102  0.034293166  0.035740731            1 
  252000    1.2219197   -7.0304748    103.51997  0.034232796  0.035735722            2 
  253000    1.2123699   -7.0564195     104.2301  0.034331389   0.03573039            3 
  254000    1.2156843   -7.0111988    104.62978  0.034327356   0.03572612            2 
  255000    1.2092793   -7.0156451    104.96289  0.034301599  0.035721068            1 
  256000    1.1985414   -7.0507134    105.24821  0.034260484  0.035716104            3 
  257000    1.2069595   -7.0387595    105.91087  0.034342047   0.03571133            1 
  258000    1.2243371   -7.0392808    106.24099  0.034315566   0.03570773            1 
  259000    1.2044192   -7.0696627    106.82937  0.034372383  0.035704153            2 
  260000    1.2237076   -7.0432721    107.44588  0.034437781  0.035701908            3 
  261000    1.2238358   -7.0464775    108.13016  0.034524317  0.035701938            2 
  262000    1.1918335   -7.0673288    108.49104  0.034507329  0.035702373            2 
  263000    1.2171334   -7.0583807    108.77692  0.034466704  0.035703658            2 
  264000    1.2157472   -7.0360198    109.96718  0.034711862  0.035706945            4 
  265000    1.1884932   -7.0390399    110.29313  0.034683373  0.035709285            1 
  266000    1.1912363   -6.9897658    111.32344  0.034875764  0.035714856            1 
  267000    1.2369798   -7.0522011    111.28197    0.0347322  0.035720635            1 
  268000      1.22849   -7.0418222    111.69993  0.034732564  0.035724243            2 
  269000      1.21743   -7.0567666    111.69164  0.034600881  0.035728398            3 
  270000    1.2226034   -7.0348051    112.78136  0.034809063   0.03573299            1 
  271000    1.1951742   -7.0437927    113.21135  0.034812838  0.035738391            1 
  272000    1.2178883   -7.0340603    113.95235   0.03491187  0.035744384            3 
  273000    1.2133576   -7.0364645    114.16157  0.034847855  0.035751879            1 
  274000    1.2218583   -7.0420565     114.8125  0.034918644  0.035758319            2 
  275000    1.2202131   -7.0482357    115.08192  0.034873308  0.035764287            2 
  276000    1.1912115   -7.0333189    115.19381   0.03478074  0.035768641            1 
  277000    1.1890204   -7.0857436    115.26192  0.034675668  0.035772434            1 
  278000    1.1737364   -7.0623921    115.51369  0.034626405   0.03577509            2 
  279000    1.2106974   -7.0272367    116.16182  0.034695885  0.035777891            1 
  280000    1.2232858   -7.0442731    116.92382  0.034798755  0.035778364            1 
  281000    1.2280495   -7.0189141    116.96664  0.034687617  0.035779367            1 
  282000    1.2375814   -7.0245063    117.31974  0.034668954  0.035779276            2 
  283000    1.2102349   -7.0524833    117.42742  0.034578156  0.035779272            2 
  284000    1.2060197   -7.0503506    117.64867  0.034521323  0.035778604            2 
  285000    1.1923799    -7.068053    118.13368   0.03454201  0.035776288            2 
  286000    1.1961495   -7.0533382    118.62928  0.034565642   0.03577477            1 
  287000    1.2084138   -7.0259031    119.82092  0.034791207   0.03577402            2 
  288000    1.2087272   -7.0425986    119.34557  0.034532862  0.035771839            1 
  289000    1.1981522   -7.0641972    119.99223  0.034599836    0.0357695            1 
  290000    1.2067913   -7.0319043    120.37687  0.034591055  0.035765769            2 
  291000    1.1942915   -7.0653757    120.27066  0.034441769  0.035762234            2 
  292000      1.20345   -7.0537459    121.43626  0.034656467  0.035759351            1 
  293000    1.2030042   -7.0753668    121.55382  0.034571621  0.035756117            2 
  294000    1.2098167   -7.0337316    121.99295  0.034578499  0.035753637            2 
  295000    1.2141164   -7.0411185    122.30176   0.03454852  0.035750136            1 
  296000    1.2145101   -7.0611381    122.79396  0.034570371  0.035747693            1 
  297000    1.2015463    -7.067385    123.34794   0.03460941  0.035744146            1 
  298000    1.2219025   -7.0554861     123.8128  0.034623266  0.035741117            1 
  299000    1.2243369   -7.0181438    124.06851  0.034578739  0.035739184            1 
  300000    1.1921725   -7.0616875    124.76418  0.034656717  0.035737022            1 
  301000    1.2177856    -7.086796    124.61973  0.034501587  0.035734425            1 
  302000    1.1873829   -7.0569447    125.57518  0.034650987   0.03573269            4 
  303000    1.1916142   -7.0689825    125.64283  0.034555233  0.035728965            1 
  304000    1.2172789    -7.051551    126.21269  0.034597778  0.035726343            1 
  305000     1.184761    -7.039756    127.21332  0.034757737  0.035724292            3 
  306000    1.2121368   -7.0682447    126.99988  0.034586024  0.035722525            2 
  307000    1.1957532   -7.0448383    127.29554  0.034553622  0.035721899            1 
  308000    1.1911765   -7.0578673    128.12567  0.034666035  0.035720356            1 
  309000    1.2197189   -7.0532798    128.34325  0.034612527  0.035716755            1 
  310000    1.1963718   -7.0653588    128.71872  0.034601805  0.035713089            1 
  311000    1.2048251   -7.0532702    128.39863  0.034404777  0.035708708            1 
  312000    1.2050729   -7.0476565    129.18595  0.034504795  0.035704297            1 
  313000    1.2123463   -7.0910497    129.24119  0.034409263  0.035700123            1 
  314000    1.1837575   -7.0569347    129.74383  0.034433077  0.035696253            2 
  315000    1.1973032   -7.0146372    131.17737  0.034703008  0.035692315            2 
  316000    1.1856537   -7.0473329    131.47973  0.034672926  0.035689324            3 
  317000    1.1999191   -7.1144292    130.84915  0.034397779  0.035685258            2 
  318000    1.1803667   -7.0932242    131.67074  0.034504911  0.035680861            2 
  319000    1.1831236   -7.1319027    131.85941  0.034446031  0.035676962            2 
  320000    1.2229902   -7.0086834    133.07027  0.034653715  0.035673286            1 
  321000    1.2015373   -7.1143866    132.98942  0.034524772  0.035671605            1 
  322000    1.1843803   -7.0682821    133.46927  0.034541736  0.035667793            2 
  323000    1.1908892   -7.0654136    134.33063  0.034657025  0.035665875            2 
  324000    1.1872218   -7.0254878    134.99329  0.034720496  0.035663896            1 
  325000    1.2096888   -7.0501728    135.20393  0.034667675  0.035662482            2 
  326000    1.1944845   -7.0605695    135.58377  0.034658427  0.035660449            1 
  327000     1.231746   -7.0499052    136.18318  0.034705193  0.035658729            2 
  328000    1.2086747    -7.057628    136.01251  0.034556025  0.035655754            1 
  329000    1.1918192   -7.0641404     136.4134  0.034552534  0.035650881            5 
  330000     1.189133   -7.0745137     136.7547  0.034534015     0.035647            1 
  331000    1.2192282   -7.0590888    136.89305  0.034464513   0.03564334            2 
  332000    1.1957345    -7.057251    137.74853  0.034575435  0.035639825            1 
  333000    1.2227415   -7.0178035    138.22317  0.034590383  0.035636111            1 
  334000    1.1757206   -7.0767496     138.5799  0.034575823  0.035631622            2 
  335000    1.2192043   -7.0490424    138.79344  0.034525732    0.0356264            3 
  336000    1.1897068   -7.0657482    139.01828   0.03447874  0.035620946            1 
  337000    1.1863208   -7.0630589    139.32585  0.034452485  0.035614749            1 
  338000    1.2185663   -7.0518418    139.70216  0.034443334  0.035608581            2 
  339000    1.1848694   -7.0732671    140.41126  0.034516042  0.035603396            1 
  340000    1.2090584   -7.1014344    140.01343  0.034317017  0.035597463       -1e+20 
  341000    1.2035128   -7.0837842    140.15334  0.034250573  0.035590158            1 
  342000    1.2383361   -7.0683682    140.52044  0.034239873  0.035581698            1 
  343000    1.1996076   -7.0666788    140.95859  0.034246498  0.035572461            2 
  344000    1.1997796   -7.0766797    140.98442  0.034153203  0.035562609            1 
  345000    1.1793008   -7.0517517    141.96966  0.034292188  0.035552534            1 
  346000    1.1973223    -7.103703    141.50498  0.034081161  0.035543159            2 
  347000    1.1945582   -7.1181206    142.13783  0.034134926  0.035532537            1 
  348000    1.1934384    -7.065035    142.91532  0.034223017   0.03552282            2 
  349000    1.2017351   -7.1024502    143.32788  0.034223468   0.03551409            3 
  350000    1.2017772   -7.0902427    143.41556  0.034146562  0.035505432            2 
  351000    1.1989787   -7.0791885    143.57487  0.034087102  0.035496355            2 
  352000    1.1952884   -7.0771938    144.07177    0.0341079  0.035486626            1 
  353000    1.2094575   -7.0862379    144.05966  0.034008417  0.035476366            1 
  354000    1.2139738   -7.0788352    144.68756  0.034060161  0.035465829            2 
  355000    1.1851999   -7.1130124    145.85859  0.034239105  0.035457041            1 
  356000    1.2038857   -7.0159759    146.53936  0.034302284  0.035448809            1 
  357000    1.2047795   -7.0824578    146.69723  0.034243051  0.035439666            1 
  358000    1.2013804   -7.0505934    146.74619  0.034158796   0.03543107            3 
  359000    1.1948296   -7.0678552    146.93231   0.03410685  0.035421947            1 
  360000    1.2161384   -7.0500239    147.94345  0.034246169  0.035413249            1 
  361000    1.1928414   -7.0848288    148.39486  0.034255507  0.035405598            2 
  362000    1.1972929   -7.0811514      148.888  0.034274402   0.03539823            1 
  363000    1.1911847    -7.114063    148.89954  0.034182631  0.035390895            2 
  364000    1.1914579   -7.0558998     149.5114  0.034228801   0.03538267            1 
  365000    1.2026309   -7.0616468    149.87579  0.034218216  0.035374774            2 
  366000    1.1921514   -7.0466556    150.62326  0.034294914  0.035367465            2 
  367000    1.2156125   -7.0748065    150.62962  0.034202911  0.035359583            1 
  368000    1.2207459   -7.1131784    150.46218  0.034072051  0.035351273            3 
  369000     1.157043   -7.0862405    151.33346  0.034176481  0.035343287            1 
  370000    1.2060973   -7.0799867    151.17524  0.034048478  0.035334673            2 
  371000     1.173564   -7.0581495    151.63861  0.034060784  0.035324988            2 
  372000     1.189824   -7.1034654    152.03215   0.03405738  0.035314967            1 
  373000    1.2107576   -7.0790122    152.17098  0.033997091  0.035304518            2 
  374000    1.1843056   -7.0612175    152.26421  0.033926963   0.03529397            1 
  375000    1.2066977   -7.0694216     153.1186  0.034026356  0.035283426            1 
  376000    1.1702262   -7.0418404    153.11027  0.033934013  0.035271667            1 
  377000    1.2151794   -7.0565635    153.38734  0.033905247  0.035260938            3 
  378000    1.1887369   -7.0526979    153.95134  0.033939889  0.035249987            1 
  379000    1.1644458   -7.1064406    154.16773  0.033897917  0.035239252            1 
  380000    1.1807165   -7.0731979    154.79435  0.033946129  0.035228471            2 
  381000    1.2016936   -7.1157591    155.27711  0.033962622  0.035217285            1 
  382000    1.1752065   -7.1183434    155.26463  0.033870992  0.035206159            1 
  383000    1.1922548   -7.0835669    155.23629  0.033776389  0.035194941            3 
  384000    1.1804314   -7.1009714    156.09429   0.03387463  0.035183873            1 
  385000    1.2048719   -7.0682356    157.02428  0.033987939  0.035173476            2 
  386000    1.2036908   -7.0310211    157.65423  0.034035887  0.035163307            1 
  387000    1.1883648   -7.1003023    156.93961  0.033794058   0.03515282            4 
  388000    1.2079977   -7.0585965    157.59077  0.033846814  0.035141356            1 
  389000    1.2207608   -7.0821612     158.1695  0.033883784  0.035130211            1 
  390000    1.1801212   -7.0997884     159.0375  0.033982372  0.035119179            1 
  391000    1.2046193   -7.0771419     159.3642  0.033965089  0.035109149            3 
  392000    1.1937657   -7.0793472    159.32817  0.033870784  0.035098774            2 
  393000    1.1860731   -7.0947559    159.77585  0.033879526  0.035088427       -1e+20 
  394000      1.19548   -7.0717293    159.72776  0.033783367  0.035078846            2 
  395000    1.2058991   -7.1072618    160.83323  0.033931061  0.035069066            2 
  396000     1.217142      -7.0428    161.27518   0.03393838  0.035059303            8 
  397000    1.1814668   -7.0625432     161.0998   0.03381608   0.03504968            1 
  398000    1.1949659   -7.1118652    161.16682  0.033745148  0.035040452            1 
  399000      1.21786   -7.0946542    162.84311  0.034010675   0.03503129            2 
  400000    1.2008075   -7.1055084    163.18394  0.033996654  0.035022474            2 
  401000    1.2209815   -7.0565545    163.32814  0.033941841  0.035013429            3 
  402000    1.1758605   -7.1186992    162.65986  0.033718876  0.035004533            2 
  403000    1.2149755   -7.0708277    163.48043  0.033804887  0.034994689            2 
  404000    1.2056593   -7.0885845    164.01506  0.033831488  0.034985391            2 
  405000     1.206092   -7.1294237     164.1815  0.033782203  0.034976221            3 
  406000    1.1714273   -7.0824313    166.02244  0.034076856   0.03496825            1 
  407000    1.1864251   -7.1039917    165.58346  0.033903248  0.034960008            1 
  408000    1.2147176   -7.1095069    165.61624  0.033826846  0.034951836            1 
  409000    1.2059332   -7.0804333    166.29414  0.033882261   0.03494335            3 
  410000    1.2162878   -7.1334912    166.52122  0.033845777  0.034934886            1 
  411000    1.1728852   -7.1381625    167.25732  0.033912677  0.034926106            2 
  412000    1.1881264   -7.0653059    167.84776  0.033949789  0.034918333            1 
  413000    1.2152717   -7.1006207      167.977  0.033893664  0.034911371            1 
  414000    1.1820783   -7.1621198     168.4056  0.033898068  0.034903443            1 
  415000    1.1844344   -7.1217227    168.82837  0.033901279   0.03489521            2 
  416000    1.2190368   -7.0812509    169.34689  0.033923656  0.034886999            2 
  417000    1.1883704   -7.0808181    169.29883    0.0338327  0.034878738            1 
  418000    1.1842868   -7.1049639     170.2892  0.033949203  0.034871171            2 
  419000    1.1864783   -7.0443935    171.38276  0.034085671  0.034864336            2 
  420000     1.160017   -7.0764234    171.31452  0.033990976  0.034857887            1 
  421000    1.1944827   -7.1045369    171.58658   0.03396409   0.03485124            1 
  422000    1.1541122   -7.1095927    172.06982  0.033979033  0.034844541            1 
  423000     1.164158   -7.1173875    172.53115  0.033989587  0.034838442            1 
  424000    1.2034747   -7.0476896    172.70208  0.033943019  0.034831671            1 
  425000    1.1665133   -7.0737633    172.94429  0.033910645  0.034826282            2 
  426000    1.1868102    -7.101811    173.98837  0.034035285  0.034820263            3 
  427000    1.1777672   -7.1160844    174.64518  0.034083759  0.034814838            3 
  428000    1.1912971    -7.102445    174.33356  0.033943449  0.034808544            3 
  429000    1.1393987   -7.1479078    174.83273  0.033961292  0.034803091            2 
  430000    1.1907644   -7.1082158    175.31047  0.033974896  0.034797917            3 
  431000    1.1792616    -7.101469    175.76319  0.033983602   0.03479244            4 
  432000    1.1937431   -7.1339697    175.32483  0.033820377  0.034787145            1 
  433000     1.163575   -7.1287339    176.28019  0.033926134   0.03478147            1 
  434000     1.178895   -7.0806674    177.35693   0.03405471  0.034775931            2 
  435000    1.1823995   -7.1315455     176.9033  0.033889522    0.0347703            1 
  436000    1.1864794   -7.0814295    178.29038  0.034076907  0.034764982            1 
  437000    1.1903806   -7.1199522    177.59175  0.033865703  0.034759731            1 
  438000    1.1586479   -7.0810667    178.29227  0.033921665  0.034754611            4 
  439000    1.1810956   -7.0948501    178.26009  0.033838285  0.034749216            1 
  440000    1.1896377   -7.0990318     179.0971  0.033919906  0.034743097            1 
  441000    1.2080677   -7.1459638    179.08263  0.033840255  0.034738005            1 
  442000    1.1778799   -7.1241677    179.74037  0.033887702  0.034732732            3 
  443000    1.1847127   -7.1092875    180.72123  0.033995717  0.034727367            1 
  444000    1.1784681   -7.0572423     181.7652  0.034115091  0.034722027            1 
  445000    1.1876588   -7.0908858     181.8001  0.034044962  0.034718433            1 
  446000    1.1693264   -7.1026937     181.9226  0.033991516  0.034714584            2 
  447000    1.1829249   -7.1154668    182.45427  0.034014592  0.034710138            2 
  448000    1.1858774   -7.1366994    182.28388  0.033906973  0.034705132            1 
  449000    1.1724413    -7.178351    182.75939  0.033919708  0.034700344            1 
  450000    1.1630833   -7.0592798     183.9478  0.034064408  0.034696462            1 
  451000    1.1599155   -7.1175229    184.44533  0.034080807  0.034692673            3 
  452000    1.1687632   -7.1164424    184.52163  0.034019474  0.034688815            2 
  453000    1.1968871   -7.1026902    184.88736  0.034011656  0.034684625            1 
  454000    1.1693062   -7.1078029    184.62269  0.033888159  0.034679349            3 
  455000    1.1921001   -7.1111069     185.5915  0.033991117  0.034674095            2 
  456000    1.1691439   -7.1417057    185.31535  0.033866109  0.034668988            2 
  457000    1.1704276   -7.0838562    185.92696  0.033903531   0.03466387            1 
  458000    1.1873146   -7.0474057    186.27899  0.033893557   0.03465929            1 
  459000    1.1545796   -7.1351888    186.65639  0.033888233  0.034653994            1 
  460000    1.1766742   -7.1035433    186.79999  0.033840578   0.03464799            5 
  461000    1.1699483   -7.0875108    186.96566  0.033797118  0.034642149            2 
  462000    1.2243869   -7.0919157    187.49918  0.033820198  0.034636185            2 
  463000    1.1880639   -7.0954598    187.61362   0.03376775  0.034630251            3 
  464000    1.1980073   -7.1560379     187.9048   0.03374727  0.034624811            2 
  465000    1.1687372   -7.1395887    188.96411  0.033864536  0.034619133            1 
  466000    1.1897949   -7.0920881    189.24284  0.033841709  0.034613614            2 
  467000     1.150091   -7.0920474    190.36198  0.033968947   0.03460866            2 
  468000     1.190175   -7.0978459     190.1037  0.033850374  0.034604125            1 
  469000    1.1587894   -7.1106763    190.90294   0.03392021  0.034599807            1 
  470000    1.2165168   -7.1201847    190.85246  0.033839089  0.034595478            2 
  471000    1.1625396   -7.1025021    191.91729  0.033955642  0.034590761            2 
  472000    1.1724178   -7.1343882    191.76348  0.033856547  0.034584964            1 
  473000     1.196121   -7.1460703     191.6441  0.033763937  0.034578855            1 
  474000    1.1619218   -7.1455061    191.80315  0.033720667  0.034571912            3 
  475000    1.1666417   -7.1355939    192.55558  0.033781681  0.034565193            2 
  476000    1.1751454   -7.1262383    192.93156  0.033776533  0.034558552            1 
  477000    1.1772257   -7.1066068    193.37663  0.033783478  0.034551916            1 
  478000    1.1964487   -7.0833425    194.05846   0.03383167   0.03454584            1 
  479000    1.1524718    -7.124493    194.13826  0.033774924  0.034539958            1 
  480000    1.1812449   -7.1033547    195.29062  0.033904622  0.034534172            1 
  481000    1.1871405   -7.1238898    195.41965  0.033856489  0.034528405            2 
  482000    1.1935147   -7.1368345    195.30587  0.033766575  0.034522274            2 
  483000    1.1747795   -7.0838537    196.43542  0.033891549   0.03451698            2 
  484000    1.1574805   -7.1040933    196.41755  0.033818449  0.034511014            1 
  485000    1.1782411   -7.1405548    195.94334   0.03366724  0.034504846            1 
  486000    1.1660934   -7.1136283    196.79607  0.033744182  0.034499218            2 
  487000    1.1665121   -7.0945143     197.5009    0.0337955  0.034493325            3 
  488000    1.1555715   -7.0876738    197.98857  0.033809524  0.034487331            1 
  489000    1.1699536   -7.1272607    196.69331   0.03351965  0.034481612            2 
  490000    1.1871944   -7.1323605    197.76323  0.033633203  0.034474569            1 
  491000    1.1649301   -7.0775608    199.17996  0.033805153  0.034468262            1 
  492000    1.1729028     -7.10588    198.76974  0.033666961  0.034462268            2 
  493000    1.1823387   -7.1749347    198.83073  0.033608981  0.034455865            2 
  494000     1.155948   -7.0729602     200.6485  0.033847588  0.034449469            3 
  495000    1.1557628   -7.0980917    200.63306   0.03377661  0.034443423            1 
  496000    1.1812627    -7.151409    200.22875  0.033640582  0.034437334            2 
  497000     1.154585   -7.1167019    201.08873   0.03371709  0.034431674            3 
  498000    1.1637372   -7.1311641    200.57958  0.033564186  0.034424914            1 
  499000    1.1733524   -7.1534167    200.51841  0.033486708   0.03441724            2 
  500000     1.160889   -7.0921774    201.93048  0.033655081  0.034409689            1 
  501000    1.1431719   -7.1446022    201.76282  0.033560016   0.03440164            6 
  502000    1.1493623   -7.1263092    200.34426  0.033257679  0.034392262            2 
  503000    1.1748808   -7.1092052    201.68681  0.033413984  0.034383211            3 
  504000    1.1701461   -7.1517653    202.88721  0.033546165  0.034374549            2 
  505000    1.1657007   -7.1413977    202.43981  0.033405909  0.034365844            1 
  506000     1.166298   -7.1310568    203.57802  0.033527341  0.034357727            2 
  507000      1.15245   -7.1026986    203.70216  0.033481618  0.034349552            1 
  508000     1.158792   -7.0982157    203.04644  0.033308143  0.034340516            1 
  509000    1.1649062    -7.162007    203.44026   0.03330718  0.034331189            1 
  510000    1.1489735   -7.1000726    204.36807  0.033393475  0.034321729            1 
  511000    1.1672478   -7.1147883    204.21343  0.033302907   0.03431224            2 
  512000    1.1701909   -7.1004301    204.41746  0.033271071   0.03430195            1 
  513000    1.1748364   -7.1051611     205.2699  0.033344688  0.034291707            2 
  514000    1.1643475   -7.1560387    204.96757  0.033230799  0.034281529            2 
  515000    1.1551889   -7.0751019    206.71964   0.03344978  0.034271518            2 
  516000    1.1382961   -7.1441836    205.73822  0.033226457  0.034261861            1 
  517000    1.1790662   -7.1394386    206.04804  0.033212128   0.03425172            2 
  518000    1.1629241   -7.1138527    206.67183  0.033248364  0.034241586            1 
  519000    1.1715023    -7.121204    207.00066    0.0332371  0.034231314            1 
  520000    1.1424157   -7.1688172    206.27009  0.033056104  0.034220436            2 
  521000    1.1601174   -7.1462516    207.67554  0.033217457  0.034210224            2 
  522000    1.1673949   -7.1382741    207.88955  0.033187987  0.034199675            2 
  523000    1.1627733   -7.1527219    208.28342  0.033187288  0.034189262            2 
  524000    1.1449133   -7.1280387    208.50238  0.033158775  0.034178706            1 
  525000      1.16793    -7.131545     208.5063  0.033096239   0.03416832            3 
  526000    1.1740642   -7.1279471     209.0905  0.033125871  0.034157932            2 
  527000    1.1778009   -7.1322698     209.7464  0.033166729  0.034148185            2 
  528000    1.1785844   -7.1632576    209.34171  0.033040043  0.034138088            1 
  529000    1.1701917   -7.0837698    211.80658  0.033365876  0.034128718            2 
  530000    1.1710802   -7.0929051    211.02479  0.033179998  0.034118975            1 
  531000    1.1490422   -7.1277928    210.69653  0.033065997  0.034108056            2 
  532000    1.1615992    -7.145526    210.01036   0.03289636  0.034096543            1 
  533000    1.1758429    -7.140777    210.95517  0.032982359  0.034085019            4 
  534000    1.1466847   -7.1420175    210.80431  0.032897052   0.03407329            1 
  535000    1.1560423   -7.1611142    211.19859  0.032896976  0.034061567            2 
  536000    1.1554987   -7.1671431    211.57315  0.032893836  0.034049865            2 
  537000    1.1644611   -7.1879016    212.21764  0.032932595  0.034038407            3 
  538000    1.1663011   -7.1359064    213.09372  0.033007081  0.034027225            1 
  539000    1.1614924   -7.1515566    212.74136  0.032891367  0.034015717            2 
  540000    1.1790806   -7.1313854    213.30853  0.032917984  0.034004172            2 
  541000    1.1761841    -7.141197      213.268  0.032850894  0.033992314            1 
  542000    1.1444888   -7.1597322    213.65908  0.032850411  0.033980102            2 
  543000    1.1796964   -7.1246111    214.80327  0.032965511  0.033967842            2 
  544000    1.2010902   -7.1080273    214.47163   0.03285411  0.033955805            1 
  545000    1.1674966   -7.1408402    213.80501  0.032691898  0.033943316            1 
  546000    1.1544215   -7.1501685    214.82644  0.032787919  0.033930909            2 
  547000    1.1197202   -7.1692179    214.64317  0.032700056  0.033918295            1 
  548000    1.1535664   -7.1123519    215.37746  0.032752048  0.033905614            1 
  549000    1.1523508   -7.1071684    216.78134  0.032905486  0.033893001            2 
  550000    1.1529271   -7.1648445    215.99016  0.032725781  0.033880989            1 
  551000    1.1770657   -7.1596735     216.9737  0.032815139  0.033869015            3 
  552000    1.1591809   -7.1343075    217.90795  0.032896731   0.03385715            2 
  553000    1.1718108   -7.1443696    217.27398  0.032741708  0.033844925            3 
  554000    1.1562007   -7.1476753    219.01678  0.032944762  0.033834202            1 
  555000    1.1588405   -7.1100549    218.86306  0.032862322  0.033823528            1 
  556000    1.1676284   -7.1214498    219.09332  0.032837727  0.033812668            1 
  557000    1.1646743   -7.1382311    219.44509  0.032831403  0.033801779            1 
  558000    1.1462726   -7.1220339    220.12418  0.032873981  0.033791048            1 
  559000    1.1754581   -7.1439776    219.73554  0.032757236  0.033780418            1 
  560000    1.1521939   -7.1304029    220.70365  0.032842805  0.033769715            3 
  561000    1.1397858   -7.1215248    220.84972   0.03280596  0.033759359            1 
  562000    1.1492348   -7.1175702    221.65245  0.032866615  0.033749188            2 
  563000    1.1625583   -7.1404379    221.95021  0.032852311  0.033739013            3 
  564000    1.1772784    -7.161754    222.24851  0.032838136  0.033728731            1 
  565000    1.1531322   -7.1557718    222.57237  0.032827784  0.033718192            2 
  566000    1.1429908   -7.1414588    223.48069  0.032903518  0.033708493            2 
  567000    1.1754473   -7.1395652    223.34346  0.032825317  0.033698982            1 
  568000     1.163782    -7.145194    223.96391  0.032858555  0.033689571            2 
  569000    1.1523692   -7.1358798    224.30534  0.032850812  0.033680641            1 
  570000    1.1479791   -7.1219786    224.57456  0.032832538   0.03367195            1 
  571000    1.1672068   -7.1347335    225.41954  0.032898356  0.033662533            1 
  572000     1.180874     -7.11913    225.84037  0.032902152  0.033653747            1 
  573000    1.1856257   -7.1498022    225.26014  0.032760346  0.033644686            2 
  574000    1.1654279   -7.1572645    225.59842  0.032752383  0.033635096            1 
  575000    1.1825507   -7.1564751    225.85215  0.032732196  0.033625923            5 
  576000    1.1322716   -7.1453666    227.24302  0.032876594   0.03361663            1 
  577000    1.1765848   -7.1469442    226.64852  0.032733755  0.033607656            3 
  578000    1.1503351   -7.2052281    226.30355  0.032627386  0.033598329            1 
  579000     1.133798   -7.1645078    227.99011  0.032813775  0.033589122            1 
  580000    1.1642174   -7.2144692    228.18061   0.03278457   0.03357958            2 
  581000    1.1558641   -7.1585684    228.97554  0.032842161  0.033570159            2 
  582000    1.1519646   -7.1525825    228.50801  0.032718788  0.033561333            1 
  583000    1.1631994   -7.1744848    228.92944  0.032722905  0.033552732            2 
  584000    1.1848275   -7.1670126    230.15199  0.032841322  0.033543665            1 
  585000    1.1745049   -7.1606484    230.29759  0.032805924  0.033535341            1 
  586000    1.1668821   -7.1243904    230.09104  0.032720569  0.033526779            3 
  587000    1.1476376   -7.1205496    231.64926  0.032886039  0.033517871            1 
  588000    1.1585637   -7.1606777    231.05874   0.03274642  0.033509035            2 
  589000     1.160594   -7.1637049    230.82523  0.032657786   0.03349992            3 
  590000    1.1339423   -7.1463407    231.91245  0.032755995  0.033491039            1 
  591000    1.1654262   -7.1808239    231.54788  0.032649165  0.033481957            2 
  592000     1.133222   -7.1505326    232.67376    0.0327525  0.033473024            2 
  593000    1.1562374   -7.1215913    232.48969  0.032671401  0.033463725            1 
  594000    1.1904239   -7.1757309    232.35288  0.032597205  0.033454767            1 
  595000    1.1524471   -7.1457523    233.97334  0.032769376  0.033445727            2 
  596000      1.16616    -7.131556    234.07879  0.032729137  0.033436502            1 
  597000    1.1360248   -7.1244378    235.03569  0.032807885  0.033428347            2 
  598000    1.1722782   -7.1409509    233.87124  0.032590753  0.033419875            2 
  599000    1.1600983   -7.1553377    234.39028  0.032608553  0.033410969            4 
  600000    1.1574866   -7.1435878    234.70783  0.032598309  0.033402327            2 
  601000    1.1598022   -7.1226883    235.75141   0.03268877    0.0333935            1 
  602000    1.1295025   -7.1466105    236.42564  0.032727801  0.033385239            2 
  603000    1.1542456   -7.1164636     237.0976   0.03276639  0.033377298            2 
  604000    1.1706092   -7.1706881    236.81674  0.032673391   0.03336925            1 
  605000    1.1726098   -7.1753334    237.02129   0.03264756  0.033360787            1 
  606000    1.1686785   -7.2147659    236.70641  0.032550386  0.033352155            1 
  607000    1.1476593   -7.1421778    237.79927  0.032646797   0.03334341            1 
  608000    1.1581676   -7.1585685    238.16966  0.032643868  0.033335026            1 
  609000    1.1612622   -7.1668079    238.13707  0.032585806  0.033326095            1 
  610000    1.1539528   -7.1978679    237.96833  0.032509334  0.033317395            2 
  611000     1.148046   -7.1738282    239.10285  0.032610863  0.033308186            1 
  612000    1.1595395   -7.1856037     237.7343  0.032371228  0.033298768            4 
  613000     1.159151   -7.1668381    239.50305   0.03255887  0.033289342            1 
  614000    1.1443634   -7.1682818    239.41428  0.032493795  0.033280396            1 
  615000    1.1351031    -7.160335    239.97932  0.032517523  0.033270906            2 
  616000    1.1707055    -7.125195     240.4843  0.032533049  0.033261676            2 
  617000     1.152144   -7.1677672    239.35199  0.032327389  0.033252086            1 
  618000    1.1496968   -7.1764987    241.00401  0.032497844  0.033241928            2 
  619000    1.1520067   -7.2175123    239.84056  0.032288712  0.033231219            1 
  620000    1.1796927   -7.1861044    240.75002  0.032358874  0.033220554            2 
  621000    1.1716201   -7.1428372    241.49181  0.032406309  0.033210125            1 
  622000    1.1808334   -7.1646947      241.464  0.032350482  0.033199845            2 
  623000    1.1517265   -7.1881034    241.66431  0.032325349  0.033189556            2 
  624000    1.1697381   -7.1741314    242.09493  0.032331054  0.033179158            2 
  625000    1.1450077   -7.1406599    243.10743  0.032414323  0.033168539            3 
  626000    1.1672462   -7.2033047    241.82805  0.032192232  0.033158277            2 
  627000    1.1432324   -7.1933396     242.9151  0.032285366  0.033147652            1 
  628000    1.1574242    -7.171334    243.05887  0.032253035  0.033137255            1 
  629000    1.1739218   -7.1859848    243.01215  0.032195568  0.033126746            1 
  630000    1.1328183   -7.1735434    243.78872  0.032247185  0.033116337            2 
  631000    1.1387219   -7.1623649    243.86491  0.032206142  0.033105793            1 
  632000    1.1317116   -7.1863016    243.59382  0.032119438  0.033094833            1 
  633000    1.1672254   -7.2120675    243.86866  0.032104879  0.033083781            3 
  634000    1.1582886   -7.1639411    244.38822  0.032122531  0.033072692            1 
  635000    1.1354522     -7.16571    245.94635  0.032276424  0.033061611            6 
  636000    1.1415213   -7.1673169     245.8142  0.032208359  0.033050507            1 
  637000    1.1548224   -7.1911559    245.62353  0.032132853  0.033039689            1 
  638000    1.1486305   -7.2269278    245.00075  0.032001143  0.033028645            2 
  639000    1.1304695   -7.1753488    246.83303  0.032190015  0.033017915            1 
  640000    1.1392938    -7.181991    246.72112  0.032125146  0.033007252            3 
  641000    1.1536339    -7.165235    247.19125  0.032136147  0.032996673            1 
  642000    1.1329539   -7.1742994     247.1631  0.032082438  0.032986299            2 
  643000    1.1361378   -7.1768597    248.13359  0.032158319  0.032975803            3 
  644000    1.1810808    -7.185094    248.70562  0.032182404  0.032965322            2 
  645000    1.1610049   -7.1636619     249.4997  0.032235104  0.032955437            1 
  646000     1.154537   -7.1526697    250.05856  0.032257296  0.032945937            4 
  647000    1.1656591   -7.1473972    250.19683  0.032225249  0.032936375            3 
  648000    1.1420813   -7.1710438    250.33172  0.032192865  0.032927017            3 
  649000    1.1278896    -7.203447    251.03557  0.032233637  0.032917886            1 
  650000    1.1543619   -7.1835429    251.18238   0.03220287  0.032908787            1 
  651000    1.1367756   -7.1794741    251.99712  0.032257696  0.032900467            1 
  652000    1.1623569   -7.1733694     253.0721  0.032345616   0.03289268            2 
  653000    1.1378155   -7.1640211    252.95355  0.032280954  0.032884409            2 
  654000    1.1663098   -7.2087654    252.88678  0.032223086  0.032875831            1 
  655000    1.1544754   -7.1379803    253.97705  0.032312602   0.03286728            3 
  656000    1.1382582   -7.1828092    254.00809  0.032267288  0.032858246            3 
  657000    1.1600785   -7.1401184    253.28977  0.032127063  0.032849146            1 
  658000    1.1499055   -7.1899467    254.79609  0.032269008  0.032839932            2 
  659000     1.139949   -7.1999771     253.8761  0.032103705  0.032830706            1 
  660000     1.141141   -7.2070787    254.78871  0.032170291  0.032821445            4 
  661000    1.1471374   -7.2068759    254.43809   0.03207742  0.032812329            1 
  662000    1.1426406   -7.1905261    255.40114  0.032150194  0.032803375            2 
  663000    1.1620721   -7.2315938    254.74453  0.032019172  0.032794014            2 
  664000    1.1250286   -7.1976456    255.78077     0.032101  0.032784746            1 
  665000    1.1401002   -7.2068749    256.26081  0.032112883  0.032775104            2 
  666000    1.1391995   -7.1491775    257.01356  0.032158853  0.032766013            2 
  667000    1.1545484   -7.2092395    256.85985  0.032091435  0.032757286            3 
  668000    1.1307371   -7.2074904     256.8422  0.032041193   0.03274815            4 
  669000    1.1823127   -7.1678895    258.29999  0.032174887  0.032739234            2 
  670000    1.1269495    -7.160744     258.6942  0.032175896  0.032730674            2 
  671000    1.1359723   -7.2105027    258.22661  0.032069873  0.032721899            1 
  672000    1.1398739   -7.1753797    259.84632  0.032223005  0.032713707            2 
  673000    1.1347635   -7.1614455    259.67663  0.032154115  0.032705521            2 
  674000    1.1606287   -7.1967155    259.76474  0.032117302  0.032697258            2 
  675000    1.1708567   -7.1793429    260.02099  0.032101357  0.032688755            2 
  676000     1.148165    -7.167216    261.58826  0.032247073  0.032680428            4 
  677000    1.1285367    -7.231046     259.9122  0.031993132  0.032672221            1 
  678000    1.1308713   -7.1815061    261.63636  0.032157861  0.032663969            2 
  679000    1.1433007   -7.1906264    261.78436  0.032128665  0.032655858            1 
  680000    1.1425236   -7.2118811    262.16914  0.032128571  0.032647773            1 
  681000    1.1381039   -7.1397335    262.93668  0.032175316  0.032639969            1 
  682000    1.1507393   -7.2219032     262.4644   0.03207043  0.032632147            6 
  683000    1.1292424   -7.2017442    262.21187  0.031992664  0.032623949            2 
  684000    1.1389183   -7.1836329    263.09386  0.032053346  0.032615444       -1e+20 
  685000    1.1395543   -7.1909962    263.11925  0.032009641  0.032607183            1 
  686000    1.1512567   -7.1749856    264.87611  0.032176398  0.032598825            1 
  687000    1.1372377    -7.175572    263.70755  0.031987815  0.032590848            1 
  688000    1.1308571   -7.1847599    265.20576  0.032122791  0.032582973            1 
  689000    1.1371258   -7.1900358     265.5723    0.0321205   0.03257506            1 
  690000    1.1586545   -7.2286707    265.80427  0.032101966  0.032567755            2 
  691000    1.1309707   -7.1845795    266.27105    0.0321118  0.032560569            1 
  692000     1.166176   -7.1973545    266.18995   0.03205563  0.032552784            2 
  693000    1.1293083   -7.2461654    266.50767   0.03204758   0.03254528            2 
  694000    1.1269898   -7.2008392    266.30989  0.031977653   0.03253775            1 
  695000     1.134482   -7.2017224    267.31151   0.03205174  0.032529874            2 
  696000    1.1243623   -7.1899134    266.94253   0.03196151   0.03252186            1 
  697000    1.1312607   -7.2174418    266.74664  0.031892234  0.032513606            1 
  698000    1.1315525   -7.2175207    267.89914  0.031984138  0.032505586            1 
  699000    1.1500357   -7.1985521    268.06815   0.03195853   0.03249727            2 
  700000     1.141484   -7.1879804    269.20387   0.03204808   0.03248939            1 
  701000    1.1296503   -7.1908564    269.18197  0.031999758  0.032481862            1 
  702000    1.1622659    -7.178833    269.70477  0.032016235  0.032474347            2 
  703000     1.147624   -7.1904762    269.85542  0.031988551   0.03246677            2 
  704000    1.1428826   -7.1860682    270.28186  0.031993591  0.032459026            1 
  705000    1.1220705   -7.1701499     270.9372  0.032025674  0.032451487            1 
  706000    1.1470289   -7.2028495    271.30325  0.032023518  0.032443903            2 
  707000    1.1628508   -7.2233003    270.35509  0.031866465  0.032436087            2 
  708000    1.1178183   -7.1926848    272.20173   0.03203881  0.032428291            1 
  709000    1.1278315   -7.2398203    272.32487  0.032008095  0.032420515            4 
  710000    1.1513478   -7.2053842    271.56525  0.031873855  0.032412816            2 
  711000    1.1224276   -7.1984212    271.97064   0.03187654   0.03240462            1 
  712000    1.1260005   -7.1825206     272.3059  0.031871009  0.032396562            1 
  713000     1.142406   -7.1704037    272.96647  0.031903514  0.032388725            1 
  714000    1.1467248   -7.2496048    272.68409  0.031825874  0.032380717            3 
  715000    1.1285206    -7.229357    272.44402  0.031753382  0.032372592            1 
  716000     1.150794    -7.185902    274.19587  0.031912927  0.032364649            1 
  717000     1.147927   -7.1888107    273.94944  0.031839777  0.032356629            1 
  718000    1.1373954   -7.2135509    274.53944  0.031863909  0.032348942            3 
  719000     1.100339   -7.2219081    274.36197  0.031799023  0.032341357            2 
  720000    1.1227097    -7.222835    274.44484  0.031764449  0.032333271            1 
  721000    1.1187088   -7.2369265    274.69767  0.031749615   0.03232506            1 
  722000    1.1312938   -7.1848034    275.76696  0.031829059  0.032316837            1 
  723000    1.1314418   -7.2249699    275.21503  0.031721419   0.03230847            1 
  724000    1.1325941   -7.1682056    276.76532  0.031856045  0.032299917            2 
  725000    1.1414994   -7.1731306    276.91132  0.031828887  0.032291887            2 
  726000    1.1311851    -7.171939    276.81799  0.031774333   0.03228352            1 
  727000      1.15131    -7.232865    276.71239  0.031718523  0.032275098            2 
  728000    1.1508442   -7.2195552     276.6334  0.031665911   0.03226633            2 
  729000    1.1534403    -7.177352    277.52243    0.0317241  0.032257786            1 
  730000    1.1277326   -7.2276615    277.85624  0.031718749  0.032249277            1 
  731000    1.1240173   -7.2152822    278.66698  0.031767782   0.03224104            1 
  732000    1.1321666   -7.1512918    280.01696  0.031878069  0.032233317            1 
  733000    1.1290006   -7.1569079    279.93329  0.031825067  0.032225721            2 
  734000    1.1552917   -7.1832588    278.75845  0.031648325  0.032217769            2 
  735000    1.1462378   -7.2012025    279.91806  0.031736742  0.032209389            2 
  736000    1.1182597   -7.2047941    279.21259  0.031613745  0.032201255            1 
  737000    1.1208536   -7.2277518    280.13444  0.031675084  0.032192954            1 
  738000    1.1624125   -7.2064136    280.93863  0.031722971    0.0321849            1 
  739000    1.1433554    -7.225147    281.06245  0.031694007  0.032177294            3 
  740000    1.1204264   -7.2095678    281.85089  0.031739965  0.032169929            2 
  741000    1.1151354   -7.1982434    282.68671  0.031791128  0.032162476            2 
  742000    1.1382698   -7.1943376     282.9655  0.031779593  0.032154672            2 
  743000    1.1396369   -7.2234538     282.9465  0.031734691  0.032147084            3 
  744000    1.1365807   -7.1645262    284.80222   0.03189989  0.032139647            2 
  745000    1.1425631   -7.1767095    283.53735  0.031715588  0.032132445            2 
  746000    1.1113438   -7.1999724    284.23921  0.031751476  0.032124602            2 
  747000    1.1493143    -7.191744    283.60444  0.031638157  0.032117032            1 
  748000    1.1161012   -7.2371785    284.36623  0.031680729  0.032109327            2 
  749000    1.1354582   -7.2026307    284.49088  0.031652301   0.03210147            3 
  750000    1.1665541   -7.1875213    284.83349  0.031648166  0.032093385            2 
  751000    1.1340413   -7.2284951    284.37301  0.031554928  0.032085197            2 
  752000    1.1309739   -7.2059502     284.6852  0.031547562  0.032077005            1 
  753000    1.1450763   -7.2002856     286.3298  0.031687672  0.032069889            1 
  754000    1.1360614   -7.2098283    285.87333  0.031595196  0.032062391            1 
  755000    1.1173077   -7.2244594    286.32767  0.031603495  0.032054674            1 
  756000    1.1607557    -7.224126    286.20595  0.031548275  0.032046811            4 
  757000    1.1009531   -7.1979775    287.43808  0.031642236  0.032038982            1 
  758000    1.1373655   -7.2196582    287.19069  0.031573294  0.032031176            3 
  759000    1.1111795   -7.2107791    286.88009  0.031497594  0.032023046            1 
  760000    1.1458003   -7.2241593    287.75267  0.031551828  0.032014942            2 
  761000    1.0668903   -7.2100617    288.09871   0.03154826  0.032006758            2 
  762000    1.1427452   -7.2430278    287.73511  0.031467094  0.031998278            4 
  763000    1.1319747   -7.2020631    287.64465  0.031415973  0.031990217            3 
  764000    1.1261377   -7.2153432    288.86974  0.031508479  0.031982045            3 
  765000    1.1229614   -7.2295647    289.15116  0.031497948  0.031973751            2 
  766000    1.1223676   -7.2303203    289.70611  0.031517201  0.031965517            1 
  767000    1.1094805   -7.2134379    289.83793  0.031490431  0.031957544            2 
  768000    1.1347303   -7.2170619    290.04751  0.031472169  0.031949615            1 
  769000    1.1045908   -7.2432484    290.70575  0.031502574  0.031941483            2 
  770000    1.1662594   -7.2524486    289.69014  0.031351746  0.031933052            1 
  771000    1.1230264    -7.238109    292.01386  0.031562242  0.031924782            2 
  772000    1.1543722   -7.2162616    291.55542  0.031471872   0.03191675            2 
  773000    1.1267675   -7.2140196    291.14045  0.031386422  0.031908698            2 
  774000    1.1419031   -7.1997611    292.07787  0.031446799  0.031900737            2 
  775000    1.1109906   -7.2396217    291.60204  0.031355058  0.031892691            2 
  776000    1.1304128   -7.2181527    292.90278  0.031454337  0.031884595            1 
  777000    1.1612577   -7.1961627    294.45372  0.031580193  0.031876942            1 
  778000    1.1148763   -7.1870013    293.37905  0.031424491  0.031869319            1 
  779000    1.1321162   -7.2313841    293.88681  0.031438469  0.031861608            1 
  780000    1.1217705    -7.249044    294.40473  0.031453496  0.031853997            3 
  781000    1.1244551   -7.2002436    295.56612  0.031537145  0.031846324            3 
  782000    1.1455467   -7.2365139    295.14731  0.031452186  0.031838562            4 
  783000    1.1451931   -7.2017146    296.31958  0.031536779  0.031831127            1 
  784000      1.12007   -7.2321084    295.39772  0.031398567  0.031823649            2 
  785000    1.1356765   -7.2081224    295.85782  0.031407412  0.031816419            1 
  786000    1.1424789   -7.2413917     295.3221  0.031310655  0.031808889            2 
  787000    1.1252947   -7.2063866     296.0303   0.03134586   0.03180121            3 
  788000    1.1287304   -7.2447853    296.09374  0.031312789  0.031793497            2 
  789000    1.1459169   -7.2571927     296.6846  0.031335509  0.031785643            1 
  790000    1.1217062   -7.2410592    297.76687  0.031410007  0.031777957            2 
  791000    1.1351281   -7.2612532    298.07047  0.031402283  0.031770128            2 
  792000    1.1229189    -7.221135     298.8758   0.03144737  0.031762497            2 
  793000    1.1428399   -7.2097875    298.64939   0.03138392   0.03175487            1 
  794000    1.1157154    -7.244654    298.89083  0.031369734  0.031747678            2 
  795000    1.1220238   -7.2125076    300.32026  0.031480111  0.031740162            2 
  796000    1.1364057   -7.2430334    300.20803  0.031428814  0.031732529            2 
  797000    1.1204814    -7.252075    299.65479  0.031331534  0.031725465            2 
  798000    1.1090676   -7.2128484    300.50362  0.031380912  0.031718353            2 
  799000    1.1474644    -7.236764    301.27286  0.031421867  0.031711363            2 
  800000    1.1196203   -7.2112076    300.85527  0.031339091  0.031704244            2 
  801000    1.1275334   -7.2661199     301.5807  0.031375437   0.03169744            2 
  802000    1.1469001   -7.2380116    301.94711  0.031374388  0.031690806            1 
  803000    1.1431181     -7.25296    302.04882  0.031345872  0.031683999            2 
  804000    1.1375977   -7.1902226    303.91936  0.031500763   0.03167726            1 
  805000    1.1235129   -7.2441014    302.82611  0.031348458  0.031670516            1 
  806000    1.1133925   -7.2571721    303.00415  0.031327972  0.031663659            4 
  807000    1.1313863   -7.2164267    303.96565   0.03138844  0.031656533            4 
  808000     1.104179   -7.2486767    303.79833  0.031332336  0.031649493            2 
  809000    1.1392845   -7.2496488    304.48971  0.031364823  0.031642466            2 
  810000    1.1436441   -7.2434894    304.61197   0.03133868  0.031635781            2 
  811000    1.1117454   -7.2174513    305.41959  0.031383024  0.031629219            2 
  812000     1.129375   -7.2470087    305.51272  0.031353932  0.031622621            2 
  813000    1.1290461   -7.2251948    306.02781  0.031368164  0.031616009            1 
  814000    1.1095783   -7.2160454    306.01994  0.031328823  0.031609577            1 
  815000    1.1194074   -7.2226667     306.3097   0.03132001  0.031602782            2 
  816000    1.1294523   -7.2046625    307.52247  0.031405481  0.031596224            2 
  817000    1.1009942   -7.2027109    306.80467  0.031293826  0.031589748            1 
  818000    1.1150839   -7.2346921    307.72124  0.031348945  0.031582776            2 
  819000    1.1020735   -7.2558676     308.0667  0.031345818  0.031576049            2 
  820000    1.1028739   -7.2310272    308.39969  0.031341432  0.031569603            1 
  821000    1.1056082   -7.2711073    308.79131  0.031343008  0.031563249            1 
  822000    1.1405734   -7.2317311    308.72233  0.031297885   0.03155671            1 
  823000    1.1094071    -7.293168    309.15418  0.031303582  0.031550284            1 
  824000     1.104133   -7.2840312    309.47274   0.03129781   0.03154384            1 
  825000    1.1346512   -7.2101496    309.63621  0.031276385  0.031537668            2 
  826000    1.1246589   -7.2688507    310.43716  0.031319326  0.031531418            2 
  827000    1.1155363   -7.2888401    310.57009   0.03129485  0.031525123            2 
  828000    1.1382533   -7.2497382    311.75805  0.031376615  0.031518713            2 
  829000    1.1117766   -7.2467238    310.20359  0.031182508   0.03151237            2 
  830000    1.1261989   -7.2385603    311.47064  0.031272153  0.031505787            2 
  831000    1.1458331   -7.2215252     312.3504  0.031322744  0.031499517            1 
  832000    1.1313282   -7.2583873    311.60427  0.031210363  0.031493192            2 
  833000     1.124932   -7.2718352    312.95252  0.031307775  0.031486957            2 
  834000    1.1156207   -7.2662479    312.66843   0.03124185  0.031480902            1 
  835000     1.115714   -7.2703844    313.06484  0.031243996  0.031474558            1 
  836000    1.0972127   -7.2805709    313.17542  0.031217645   0.03146808            2 
  837000    1.1323724   -7.2277364    314.60163  0.031322344  0.031461755            1 
  838000    1.1060327   -7.2546052     313.2085   0.03114643  0.031455575            2 
  839000    1.1332354   -7.2249808    314.63436   0.03125093  0.031449178            2 
  840000       1.1253   -7.2444359    314.44004  0.031194448  0.031442711            1 
  841000    1.1395531   -7.2596295    315.97174   0.03130913  0.031436305            5 
  842000    1.1310524   -7.2206199    316.37922  0.031312274  0.031430157            1 
  843000     1.133368   -7.2328088    315.59357  0.031197466  0.031423962            2 
  844000    1.1124637   -7.2439122    315.49691  0.031150958  0.031417482            1 
  845000    1.0990079   -7.2697826    316.25108   0.03118847  0.031410964            1 
  846000    1.1126428   -7.2419134    315.42458  0.031070191   0.03140429            1 
  847000    1.1401108   -7.2176118    317.20839  0.031209011  0.031397821            1 
  848000    1.0868722   -7.2557384    316.98375  0.031150133  0.031391551            1 
  849000    1.1067786   -7.2578074    317.12726  0.031127529  0.031384945            2 
  850000    1.1105871   -7.2508277     318.2613  0.031202089  0.031378154            1 
  851000    1.1117494   -7.2740298    317.36916  0.031078061  0.031371078            1 
  852000    1.1287203   -7.2310524    318.00534  0.031103809  0.031363996            2 
  853000    1.0961779   -7.2385729    318.25619  0.031091851  0.031356872            1 
  854000    1.0951533   -7.2423369     317.7463  0.031005688  0.031349412            2 
  855000     1.103126   -7.2311256    317.89847  0.030984257  0.031341919            3 
  856000    1.1163422   -7.2295332    318.09549   0.03096724  0.031334412            2 
  857000      1.12111   -7.2781556     317.4371  0.030867085  0.031326671            3 
  858000    1.1031375   -7.3019503    318.01301  0.030887044  0.031318978            2 
  859000    1.1140332   -7.2325151    318.90349  0.030937474  0.031311317            2 
  860000     1.086427   -7.2528973    318.96589  0.030907547  0.031303898            2 
  861000    1.1111298   -7.2703072    318.68857  0.030844809  0.031296516            1 
  862000    1.1265796   -7.2344328    319.64558  0.030901545  0.031289014            2 
  863000     1.117232   -7.2338049    320.13169  0.030912677  0.031281923            2 
  864000    1.0931459   -7.2593383    320.39695  0.030902483  0.031274629            3 
  865000    1.1020477   -7.2675256    321.11452  0.030935888   0.03126731            2 
  866000    1.1319007   -7.2498506    321.07603  0.030896462  0.031259904            2 
  867000    1.1379958   -7.2780462    322.43412  0.030991361  0.031252424            1 
  868000    1.1129714   -7.2591345    322.08176  0.030921828  0.031245125            1 
  869000    1.1359477   -7.2694809    322.74345  0.030949698  0.031237885            1 
  870000    1.1303724   -7.2340245    322.37052  0.030878402  0.031230819            1 
  871000    1.0952945   -7.2638311     322.9664  0.030899962  0.031223291            1 
  872000    1.1166204   -7.2566321    323.71373  0.030935945  0.031216085            1 
  873000    1.1033689    -7.261072    323.60676  0.030890298  0.031208627            3 
  874000    1.1075983   -7.2675327    324.01614  0.030893987  0.031201418            2 
  875000    1.1159495   -7.2591218    324.54125   0.03090869  0.031194696            1 
  876000    1.1189491   -7.2557244    326.45769  0.031055716  0.031187888            1 
  877000    1.1214504    -7.285538    325.62298  0.030940991  0.031181233            1 
  878000    1.1148148   -7.2479182    326.16888  0.030957563  0.031174337            3 
  879000    1.1064011   -7.2536721    326.16333  0.030921817  0.031167822            2 
  880000    1.1158241   -7.2556597    326.49802  0.030918373  0.031160905            3 
  881000    1.0891343   -7.2480744    325.63201  0.030801363  0.031154149            1 
  882000    1.1015586   -7.2241244    327.54206  0.030946907  0.031147506            2 
  883000    1.1221937   -7.2718223    327.18587  0.030878244   0.03114089            2 
  884000    1.0954513   -7.2589946    328.31783  0.030950022  0.031134467            2 
  885000    1.1128214   -7.2906934      328.496  0.030931826  0.031128095            1 
  886000     1.103142   -7.2085598    328.66317  0.030912638  0.031122037            1 
  887000    1.1035172   -7.2702777    329.61862  0.030967552  0.031115821            2 
  888000     1.097274   -7.2936618    329.77884  0.030947714  0.031109525            2 
  889000    1.1260216   -7.2620774    330.88554  0.031016642  0.031103571            2 
  890000    1.1178442   -7.2814912    330.43923  0.030940002  0.031097504            1 
  891000     1.109768   -7.2596493     330.6331   0.03092341  0.031091158            2 
  892000    1.1032838   -7.2888966    331.33634  0.030954441  0.031085079            1 
  893000    1.1111688    -7.279097    331.58201  0.030942704  0.031078782            1 
  894000    1.0877215   -7.2724149    332.23932  0.030969363  0.031072707            2 
  895000    1.1399504   -7.2595789    332.43624  0.030953095  0.031066452            1 
  896000    1.0949645   -7.2420731    333.09295  0.030979627  0.031060184            2 
  897000    1.1148797   -7.2519793    332.29961  0.030871387  0.031053803            1 
  898000    1.0935435   -7.2622014    333.66968   0.03096415  0.031047682            3 
  899000    1.1011856   -7.2951586    332.94753  0.030862767  0.031041669            1 
  900000    1.1122487   -7.2655568    332.83003  0.030817596  0.031034975            2 
  901000    1.0939028   -7.2481661    333.29238  0.030826154  0.031028546            3 
  902000    1.1158364   -7.2845538    333.78398  0.030837396  0.031021998            1 
  903000    1.1169636   -7.2666903    334.57762  0.030876488  0.031015605            2 
  904000    1.0983578   -7.2652311     333.8186  0.030772364  0.031009079            2 
  905000    1.0887734   -7.2504333    334.46708  0.030798074  0.031002633            1 
  906000    1.1102695   -7.2388511    336.03725  0.030908503  0.030996147            1 
  907000    1.1308097   -7.3031373    333.98691  0.030686044  0.030989562            1 
  908000    1.0871176   -7.2849798    335.11786  0.030756044  0.030982866            1 
  909000     1.095957   -7.2449695     336.5774  0.030856014  0.030976293            3 
  910000    1.1169685   -7.3247025    335.23573  0.030699243  0.030969751            3 
  911000    1.0787126   -7.2692395    336.17443  0.030751411  0.030963034            1 
  912000    1.0970876   -7.2715488    336.27076  0.030726495  0.030956117            1 
  913000    1.1155629   -7.2640252    336.66957  0.030729241  0.030949494            1 
  914000    1.1113715   -7.2300617    338.04559  0.030821079  0.030942987            1 
  915000     1.095479   -7.2923017    336.90978  0.030683951  0.030936345            2 
  916000     1.093714   -7.2510754    338.01085  0.030750624  0.030929645            2 
  917000    1.1060016   -7.2746815    337.60887  0.030680559  0.030922956            1 
  918000    1.1057983   -7.2606622    339.16812  0.030788682  0.030916468            2 
  919000    1.0783484   -7.2913372    337.77414  0.030628776  0.030909773            1 
  920000    1.1028392   -7.2736318    338.38973  0.030651244  0.030902982            2 
  921000    1.0990777   -7.3193951    337.58948  0.030545556  0.030896226            4 
  922000     1.094987   -7.3178663    339.23769  0.030661396  0.030889409            1 
  923000    1.0986174   -7.2492726    339.50631   0.03065243  0.030882607            2 
  924000    1.1077374    -7.260083    340.27823  0.030688874  0.030876211            1 
  925000    1.1364404   -7.2425946    341.11474  0.030731057  0.030869944            1 
  926000    1.1122605   -7.2357779    341.57972  0.030739715  0.030863531            2 
  927000    1.0984556   -7.2588768    342.03311  0.030747313  0.030857163            1 
  928000    1.1268061   -7.2443419    342.77215  0.030780545  0.030850858            4 
  929000    1.1169331   -7.2871888    341.16741  0.030603464  0.030844517            2 
  930000    1.0790188   -7.2975268    341.15541  0.030569482     0.030838            1 
  931000    1.1034892   -7.2891001    341.96097  0.030608752  0.030831397            2 
  932000    1.0972461   -7.2332853     343.2396  0.030690236  0.030824821            2 
  933000    1.1186337   -7.2913594    341.69877  0.030519719  0.030818126            2 
  934000    1.1110351   -7.2726215    343.43912  0.030642319  0.030811588            2 
  935000    1.0884093   -7.3103905    343.14415  0.030583257  0.030804973            1 
  936000    1.1100208   -7.2894416     343.5083  0.030583004  0.030798443            3 
  937000    1.1087375   -7.3474621    342.96856  0.030502362  0.030791663            1 
  938000    1.1054244   -7.2609984    344.60747  0.030615447  0.030784821            2 
  939000    1.0925575   -7.3146121    343.76195  0.030507806   0.03077799            2 
  940000    1.0978406   -7.3299848    344.65558  0.030554573  0.030771302            1 
  941000    1.0977483   -7.3092672    345.32683  0.030581547  0.030764666            3 
  942000    1.0722883   -7.3531727    345.54997  0.030568822  0.030758262            2 
  943000    1.1100536   -7.3359749    345.22144  0.030507373  0.030751975            2 
  944000    1.1114212   -7.2612322     346.7178   0.03060715   0.03074568            3 
  945000    1.1120528   -7.3056718    345.58907  0.030475226  0.030739204            2 
  946000    1.0701878   -7.2800165    347.50313  0.030611622   0.03073275            1 
  947000     1.116241    -7.275922    346.53363  0.030493984  0.030726395            4 
  948000    1.0757047   -7.2588218    347.07216  0.030509156  0.030719778            2 
  949000    1.1166586   -7.3031357     346.7216  0.030446224  0.030713169            1 
  950000    1.1034499   -7.3165503    346.69499  0.030411842  0.030706696            3 
  951000    1.1217266   -7.2874808    347.66269  0.030464659  0.030700065            1 
  952000    1.1015977   -7.3207078    348.17039    0.0304771  0.030693497            2 
  953000    1.1081774   -7.2806136    349.53422  0.030564378  0.030687161            2 
  954000    1.0904586   -7.2431814    349.43671  0.030523821  0.030680794            2 
  955000    1.1069002    -7.307189    349.06922  0.030459792  0.030674465            3 
  956000    1.0766574    -7.320247    349.46414  0.030462355  0.030668022            1 
  957000    1.1186609   -7.3010718     350.2589   0.03049973  0.030661516            2 
  958000    1.1172566   -7.2893056    350.78376  0.030513549  0.030655362            1 
  959000    1.1073265   -7.3005215    350.48414  0.030455695  0.030649164            1 
  960000    1.1059954   -7.2507748    352.84612  0.030629003  0.030643018            2 
  961000    1.0908107   -7.2784558    352.06857  0.030529706  0.030636854            1 
  962000    1.0753238   -7.2807898    351.76708  0.030471854  0.030630411            3 
  963000    1.1039634   -7.2966652    352.13502   0.03047205  0.030624346            4 
  964000      1.09255   -7.3047402     351.2421  0.030363252    0.0306181            1 
  965000    1.1115561   -7.2828788    352.93309  0.030477814  0.030612044            1 
  966000     1.116392   -7.2771444     353.6841  0.030511051  0.030605941            2 
  967000    1.0930996   -7.2819107    353.28561  0.030445157  0.030599955            1 
  968000    1.0854512    -7.305697    354.96771  0.030558515  0.030594097            5 
  969000       1.0887   -7.2853072    354.61989  0.030497067  0.030588141            1 
  970000    1.1075596   -7.2850877    355.78251  0.030565508  0.030582448            2 
  971000    1.1030135   -7.2547659    356.60429  0.030604557  0.030576853            1 
  972000    1.0881966   -7.3216458    356.19995  0.030538405  0.030571233            2 
  973000    1.0961349   -7.2445086    357.90679  0.030653203  0.030566117            1 
  974000     1.102563   -7.3376829    356.25712  0.030480588  0.030561015            1 
  975000    1.1227072   -7.2880193    357.63867  0.030567408  0.030555855            1 
  976000    1.1072591   -7.3396413    357.97874  0.030565125  0.030550598            5 
  977000    1.1205031   -7.3159517    357.35224  0.030480402  0.030545269            2 
  978000    1.1154181   -7.2925608    359.18692  0.030605566  0.030539942            3 
  979000    1.0698526   -7.3280907    358.20971  0.030491122  0.030534729            3 
  980000    1.0956306   -7.2775023    360.82988  0.030682813  0.030529834            2 
  981000    1.0899939        -7.29    360.25379  0.030602598  0.030524993            1 
  982000    1.0958952   -7.2754165    359.53609  0.030510531  0.030519946            1 
  983000    1.0835658   -7.2981562    358.92082  0.030427333  0.030514675            2 
  984000     1.107015   -7.2959642    361.07132  0.030578533  0.030509261            1 
  985000    1.0805812   -7.2962191    360.97911  0.030539687  0.030503965            1 
  986000    1.1063747   -7.3047117    360.70976   0.03048595  0.030498707            1 
  987000    1.0992951   -7.2922757    360.41376  0.030430071   0.03049332            1 
  988000    1.0925296   -7.2691848    361.42541  0.030484599  0.030487747            2 
  989000    1.0882732   -7.3325517    360.96613  0.030415077  0.030482344            2 
  990000     1.094041   -7.2790995    362.95216  0.030551528  0.030477021            2 
  991000    1.1019618   -7.3048247    363.51662  0.030568165   0.03047204            2 
  992000    1.1014415   -7.2973191    362.89313  0.030484974  0.030466934            4 
  993000     1.091389   -7.2917056    364.22078  0.030565692   0.03046188            3 
  994000    1.0945514   -7.3066974    363.27882  0.030455971  0.030456736            1 
  995000    1.0702823   -7.2596076    364.53648  0.030530694  0.030451561            2 
  996000    1.1231601    -7.298984    363.38213  0.030403458  0.030446379            2 
  997000    1.1063101   -7.3236957    363.91638  0.030417618  0.030440933            2 
  998000    1.0889025   -7.2679033    364.75899  0.030457498  0.030435643            1 
  999000    1.1107106   -7.2931242    363.28308  0.030303894  0.030430474            1 
 1000000    1.1255341    -7.299656    365.62384  0.030468653  0.030425099            4 
 1001000    1.1099559   -7.3040519    364.38929  0.030335439  0.030419456            1 
 1002000    1.0842611   -7.3055997     364.9745  0.030353834  0.030413733            3 
 1003000    1.0719705   -7.2697609    365.62914  0.030377961  0.030408025            2 
 1004000    1.0830124   -7.2771541     365.5077  0.030337624  0.030402359            2 
 1005000    1.0781503   -7.3410014    364.16095  0.030195767  0.030396704            2 
 1006000    1.0937907   -7.3327633     365.2673  0.030257397  0.030390777            1 
 1007000    1.1092281   -7.2928785    365.20571  0.030222253  0.030384837            1 
 1008000    1.0904831   -7.3061722    365.47901  0.030214865  0.030378655            1 
 1009000    1.0935417    -7.316946    365.08676  0.030152524  0.030372302            4 
 1010000    1.0653785   -7.3004748    365.90276  0.030189997  0.030366056            1 
 1011000    1.1050667   -7.2835863    366.52951  0.030211796  0.030359471            1 
 1012000    1.0793491   -7.2939381    367.28891  0.030244475  0.030353255            1 
 1013000    1.0784553   -7.3183893    366.77111  0.030172023  0.030347048            1 
 1014000    1.1054496    -7.339804    367.33981  0.030189005  0.030340542            2 
 1015000     1.083569   -7.3064133    367.68656  0.030187731  0.030334135            2 
 1016000    1.0852235   -7.3038848    369.28543  0.030289159  0.030328015            2 
 1017000    1.0799747   -7.2960582    368.89139  0.030227088  0.030321794       -1e+20 
 1018000    1.0894949   -7.3375592    369.67537  0.030261573  0.030315537            3 
 1019000    1.0853391   -7.3194396    368.17967  0.030109558  0.030309275            1 
 1020000     1.083507   -7.3073246    368.65251  0.030118669  0.030303074            2 
 1021000    1.1042706   -7.2968924    369.66611  0.030171899  0.030296782            1 
 1022000    1.0941421    -7.301188    370.58894  0.030217624  0.030290439            2 
 1023000    1.0691234   -7.3334396    369.88091   0.03013041  0.030284111            1 
 1024000    1.0977458    -7.298283    369.62993  0.030080561  0.030277687            1 
 1025000     1.082676   -7.3052263    370.67598  0.030136258  0.030271303            2 
 1026000     1.106818    -7.356108    368.87352  0.029960488  0.030264655            3 
 1027000    1.0828109   -7.2951826    370.49901   0.03006321  0.030258017            3 
 1028000    1.1022082   -7.3141206    371.52582  0.030117204  0.030251591            2 
 1029000    1.1013417   -7.3326667    370.35653  0.029993241  0.030245139            1 
 1030000    1.0875322   -7.3101183    371.30383  0.030040763  0.030238702            6 
 1031000    1.0767108   -7.2792399    372.75102  0.030128599  0.030232278            1 
 1032000    1.0862103   -7.3128808    371.80521  0.030023031  0.030225749            2 
 1033000    1.1354609   -7.3224758    371.80194  0.029993703  0.030219061            3 
 1034000    1.0868799   -7.3053722     373.2642  0.030082543  0.030212441            1 
 1035000    1.0691508   -7.2850674    373.06578  0.030037502  0.030205798            5 
 1036000    1.0824074   -7.3392261    372.49456  0.029962561  0.030198852            3 
 1037000    1.0863048   -7.2814976    373.80626  0.030039076  0.030191876            1 
 1038000    1.0933189   -7.3301703    372.05806  0.029869787   0.03018495            1 
 1039000      1.08543   -7.3325152    373.49507  0.029956294  0.030178063       -1e+20 
 1040000    1.0997698   -7.2739781    374.28854  0.029991069   0.03017121            1 
 1041000    1.0708149   -7.3521271     374.0189  0.029940674  0.030164381            4 
 1042000     1.083923   -7.2934372    374.09199  0.029917785  0.030157675            2 
 1043000    1.0923968   -7.3362234    373.17044  0.029815471  0.030150969            1 
 1044000    1.1016233   -7.3155983     374.8692   0.02992251  0.030143985            2 
 1045000    1.0606373   -7.3275602    374.30487  0.029848873  0.030137076            1 
 1046000    1.0924687   -7.2971475    374.94629  0.029871438  0.030129974            1 
 1047000    1.0932918   -7.3511777    374.61605  0.029816623  0.030122867            1 
 1048000     1.081563   -7.3198701    376.47749  0.029936187  0.030115768            2 
 1049000    1.1218294   -7.2974657    376.23024  0.029888007   0.03010889            1 
 1050000    1.0840308   -7.3030673    376.45794  0.029877614  0.030102047            3 
 1051000    1.0704223   -7.3598473    376.32255  0.029838452  0.030095169            1 
 1052000    1.0844347   -7.3244799    377.34701   0.02989124  0.030088362            2 
 1053000     1.066875   -7.3543663    376.09083   0.02976344  0.030081514            2 
 1054000     1.073478   -7.3391509    377.56454  0.029851719  0.030074609            1 
 1055000    1.0957993    -7.295402    377.07716  0.029784926  0.030067685            1 
 1056000    1.0849822   -7.3014031    377.56955  0.029795577  0.030060662            1 
 1057000    1.0886069   -7.3707871    376.72265  0.029700619  0.030053645            2 
 1058000    1.0811827   -7.3193928    378.25237  0.029793035  0.030046773            1 
 1059000    1.0623156   -7.3313589    378.72997  0.029802484  0.030039806            3 
 1060000    1.0856505   -7.2875263    379.57705  0.029840963  0.030032873            2 
 1061000    1.0934096   -7.3065973    379.10112  0.029775457  0.030026151            2 
 1062000    1.0569612   -7.3080596     379.4824  0.029777339  0.030019502            1 
 1063000    1.0530006   -7.3111825    378.73628  0.029690834  0.030012707            3 
 1064000    1.0695734    -7.339162    380.41571  0.029794463  0.030005901            1 
 1065000    1.0783298   -7.2965215    379.51691  0.029696159  0.029999021            1 
 1066000    1.0506467   -7.3144622    381.87847  0.029852913  0.029992517            3 
 1067000     1.057114   -7.3377898    381.82221  0.029820541  0.029985904            2 
 1068000    1.0765376   -7.2983825    381.77436  0.029788886  0.029979065            2 
 1069000    1.0774759   -7.3357229    381.90801  0.029771438  0.029972337            1 
 1070000    1.1062995   -7.3640108    381.58099  0.029718145  0.029965608            1 
 1071000    1.0614266   -7.3071082    382.98016  0.029799265  0.029958919            1 
 1072000    1.0846172   -7.3123011     384.0022  0.029850917  0.029952228            1 
 1073000      1.08415   -7.3495942    381.78337  0.029650774  0.029945553            1 
 1074000    1.0557474   -7.3301668    382.94474  0.029713279  0.029938681            2 
 1075000    1.0575953   -7.3325839    383.18674  0.029704398  0.029931714            3 
 1076000    1.0807686   -7.3079845     383.4703  0.029698753  0.029925048            3 
 1077000    1.1054377   -7.3566365    381.79049  0.029541202  0.029918067            2 
 1078000    1.0744907   -7.3505047    383.72989   0.02966372  0.029911184            1 
 1079000    1.1139788    -7.361331    383.16589   0.02959267   0.02990447            2 
 1080000     1.079069   -7.3590121    385.30266  0.029730144  0.029897778            1 
 1081000    1.0867763   -7.3567458    385.63136   0.02972798  0.029891057            1 
 1082000    1.0766419   -7.3530263     384.3603  0.029602611  0.029884169            3 
 1083000    1.0768925   -7.3570254    384.84269  0.029612396  0.029877152            2 
 1084000    1.1051428   -7.3309474    385.92608  0.029668364  0.029870228            4 
 1085000     1.059344   -7.3761657    385.69608  0.029623355   0.02986325            3 
 1086000    1.0911957   -7.3404783    386.81653  0.029682055  0.029856564            4 
 1087000    1.0619753   -7.3271253    387.19836   0.02968402  0.029850086            2 
 1088000    1.0908921   -7.3281974    388.33924  0.029744121  0.029843363            1 
 1089000    1.0976679   -7.3297623    388.36455  0.029718744  0.029836694            2 
 1090000    1.0683026   -7.3735047    386.09592  0.029518037  0.029829775            2 
 1091000    1.0755879   -7.3502786    388.62561  0.029684205  0.029823048            1 
 1092000    1.0812938   -7.3675701    387.51793  0.029572491  0.029816464            2 
 1093000    1.0898409   -7.3169643    387.98367  0.029580944  0.029809805            1 
 1094000    1.0844654   -7.3491274    388.12806  0.029564904  0.029803341            2 
 1095000    1.0700639   -7.3679822     388.4432  0.029561887  0.029796533            3 
 1096000    1.0865839   -7.3265474     389.5197  0.029616765  0.029789758            1 
 1097000    1.0780755   -7.3244844    390.18547  0.029640343  0.029782984            1 
 1098000    1.0990694   -7.4041548    389.06041  0.029527961  0.029776163            1 
 1099000     1.071677   -7.3336869    390.36072  0.029599691  0.029769299            1 
 1100000    1.0858365   -7.3110305     389.3727  0.029497932  0.029762443            1 
 1101000    1.0523234   -7.3600475    389.80383  0.029503772   0.02975547            1 
 1102000    1.0783822   -7.3371173    390.28749  0.029513573  0.029748608            3 
 1103000    1.0845688   -7.3920517    388.88221  0.029380644  0.029741809            3 
 1104000    1.0756843   -7.3704984    390.61692  0.029484973    0.0297347            1 
 1105000    1.0754089   -7.3373284    391.15615  0.029498955  0.029727703            1 
 1106000    1.0741633   -7.3089205    392.82345  0.029597909  0.029720977            3 
 1107000    1.0701962   -7.3352362    391.57087  0.029476879  0.029714114            2 
 1108000    1.0994462   -7.3174333    391.63907  0.029455405  0.029707326            2 
 1109000    1.0662003   -7.2999258    393.36419  0.029558476  0.029700557            1 
 1110000    1.0780472   -7.3429884    393.40349  0.029534797  0.029693804            1 
 1111000    1.0943287   -7.3468481    393.71072  0.029531257  0.029687124            1 
 1112000    1.0916661   -7.3046936    395.32558  0.029625718  0.029680514            1 
 1113000    1.0604607   -7.3659593    393.83103  0.029487199  0.029673711            1 
 1114000    1.0557066   -7.3320012    394.03398  0.029475911   0.02966702            1 
 1115000    1.0568719    -7.363915    393.54416  0.029412867  0.029660479            1 
 1116000    1.0824208   -7.3472236    393.32294  0.029369993  0.029653805            3 
 1117000    1.0729523   -7.3458251    394.16271   0.02940635  0.029646954            1 
 1118000    1.0561987   -7.3508985    396.26652   0.02953686  0.029640157            1 
 1119000    1.0854309   -7.3567043    395.26313  0.029435741   0.02963347            1 
 1120000    1.0848684   -7.3441151    397.02906  0.029540853  0.029626904            2 
 1121000    1.0628121   -7.3585035    396.11071  0.029446232  0.029620369            1 
 1122000    1.0822337   -7.3408302     395.3068  0.029360279  0.029613628            2 
 1123000    1.0693584   -7.3445706     396.1915  0.029399785  0.029606829            3 
 1124000    1.0482478   -7.3024213    398.10947  0.029515827  0.029600056            1 
 1125000    1.0806939    -7.342099    397.58044  0.029450403   0.02959346            2 
 1126000     1.075256   -7.3735993    396.31611  0.029330677  0.029586726            1 
 1127000    1.0616849   -7.3437912    398.25197  0.029447794  0.029580026            3 
 1128000    1.0734351   -7.3129124    398.72573  0.029456688  0.029573388            2 
 1129000    1.0647152   -7.3410242    398.43686  0.029409275  0.029566829            2 
 1130000    1.0517572   -7.3726412    398.68464  0.029401522  0.029560187            2 
 1131000    1.0690892     -7.34542    399.24647  0.029416922  0.029553625            2 
 1132000     1.058151   -7.3914137    397.55775  0.029266619   0.02954688            1 
 1133000     1.074642   -7.3422667     398.9029  0.029339725  0.029540126            3 
 1134000    1.0701782   -7.3405908    399.48252  0.029356446  0.029533296            1 
 1135000     1.081655   -7.3443818    400.02273  0.029370245  0.029526439            4 
 1136000    1.0877888   -7.3746989    398.11428  0.029204393  0.029519479            1 
 1137000     1.063685   -7.3311803    399.02469  0.029245433  0.029512279            1 
 1138000    1.0920387   -7.3655827    398.36219   0.02917122   0.02950509            3 
 1139000    1.0783583   -7.3542553     399.9163  0.029259314  0.029497953            3 
 1140000    1.0567417   -7.3937699    400.02679  0.029241725  0.029490777            4 
 1141000    1.0710259    -7.360139    400.83524  0.029275142  0.029483773            2 
 1142000    1.0846972    -7.360686    400.03865  0.029191378  0.029476794            4 
 1143000    1.0813357   -7.3460184    400.61233  0.029207665  0.029469444            2 
 1144000    1.0645377   -7.3664398    400.95574  0.029207149  0.029462099            2 
 1145000    1.0723142   -7.3566113    401.06319   0.02918946  0.029455111            1 
 1146000    1.0823842   -7.3970129    400.62997  0.029132488  0.029447993            1 
 1147000    1.0602737   -7.3227963    402.28183  0.029227102  0.029440853            1 
 1148000     1.058377     -7.37146    401.50332  0.029145131  0.029433608            1 
 1149000    1.0534131   -7.3666856    400.62839  0.029056309  0.029426077            3 
 1150000     1.085879   -7.3692353    401.25032   0.02907611  0.029418626            1 
 1151000    1.0317944   -7.3661832    401.48029  0.029067498  0.029410982            2 
 1152000    1.0668306   -7.3889238    401.28918  0.029028442  0.029403131            1 
 1153000    1.0751539   -7.3481728    402.28406  0.029075171  0.029395595            2 
 1154000    1.0796916   -7.3435346     402.8015  0.029087341  0.029388137            3 
 1155000    1.0674486   -7.3386202    404.19234  0.029162506   0.02938086            2 
 1156000     1.057452   -7.3582136    404.17946  0.029136351  0.029373516            4 
 1157000    1.0612521   -7.3493158    403.67527  0.029074854  0.029366336            1 
 1158000    1.0727379    -7.344415    404.98909  0.029144292  0.029359261            2 
 1159000    1.0777865   -7.3967747    404.96005  0.029117059  0.029352233            3 
 1160000    1.0783961   -7.3183446    405.55143  0.029134442  0.029345289            2 
 1161000    1.0576645   -7.3857018    404.83297  0.029057778  0.029338207            2 
 1162000    1.0718261   -7.3551489    405.21745  0.029060345  0.029331169            1 
 1163000    1.0834581   -7.4068236    405.26471  0.029038744  0.029324124            3 
 1164000    1.0530969   -7.3455546    406.25253  0.029084517  0.029317191            1 
 1165000    1.0882227   -7.3878308    407.20707  0.029127831  0.029310294            2 
 1166000    1.0557151   -7.3583107    406.95015  0.029084487    0.0293034            1 
 1167000    1.0536312   -7.3953305    407.39525  0.029091349  0.029296472            2 
 1168000    1.0567997   -7.3804128    407.74005  0.029091042  0.029289758            2 
 1169000    1.0323391   -7.3749416    407.07901  0.029019034  0.029282723            3 
 1170000    1.0643075   -7.3642709    408.01823  0.029061127  0.029275719            2 
 1171000    1.0616813     -7.37776    408.11809  0.029043417  0.029268774            1 
 1172000    1.0509029   -7.3523995    409.50969  0.029117583   0.02926186            1 
 1173000    1.0941589   -7.3880239    407.80884  0.028971927  0.029254897            2 
 1174000    1.0718032   -7.4155491    407.52093  0.028926813  0.029248012            1 
 1175000    1.0583173   -7.3426789     410.9239  0.029143539  0.029241035            1 
 1176000    1.0384789   -7.3894643     410.3867   0.02908069   0.02923407            2 
 1177000    1.0546718    -7.374199    410.27556  0.029048114    0.0292273            2 
 1178000    1.0602341   -7.3505177    410.94378  0.029070726  0.029220565            2 
 1179000    1.0540876   -7.3714031    411.70426   0.02909982  0.029214008            2 
 1180000    1.0734885   -7.3899549    410.90272  0.029018554  0.029207329            2 
 1181000    1.0733201   -7.3724535    410.06854  0.028935122  0.029200522            2 
 1182000    1.0599726   -7.3905175    410.78108  0.028960877  0.029193769            2 
 1183000    1.0672023   -7.3625971     412.3651  0.029047978  0.029186954            1 
 1184000     1.049228   -7.3251914    413.00784  0.029068683  0.029180223            2 
 1185000    1.0362687   -7.3576896    412.76422   0.02902702  0.029173385            2 
 1186000    1.0765008   -7.3634387    411.86691  0.028939496  0.029166666            2 
 1187000    1.0603719   -7.4037129    412.60269  0.028966771  0.029159894            1 
 1188000    1.0559161    -7.366629    412.51937  0.028936544  0.029153242            1 
 1189000    1.0675241   -7.3642864    414.12496  0.029024738  0.029146676            1 
 1190000    1.0608397   -7.3545228    414.92537  0.029056399  0.029140459            1 
 1191000    1.0516324   -7.3494696    414.60395  0.029009513     0.029134            1 
 1192000     1.087875   -7.3978817    415.02948  0.029014924  0.029127637            2 
 1193000    1.0545715   -7.3725913    415.90759  0.029051941   0.02912119            3 
 1194000    1.0453469   -7.4137569    416.70002  0.029082916  0.029114734            2 
 1195000     1.091687   -7.3734971    415.38586  0.028966936  0.029108268            2 
 1196000    1.0771871   -7.3658589    415.93082  0.028980687  0.029101788            2 
 1197000    1.0732308   -7.3624693    415.56416  0.028930949  0.029095296            1 
 1198000    1.0588569   -7.4086562    416.34078  0.028960822  0.029088937            1 
 1199000    1.0597052   -7.3681323    417.04079  0.028985321  0.029082652            2 
 1200000    1.0958744   -7.4119023     417.4287  0.028988104  0.029076323            4 
 1201000    1.0877598   -7.3768442    417.98321  0.029002443  0.029070163            2 
 1202000    1.0770368   -7.4145059    417.92771  0.028974467  0.029063934            1 
 1203000    1.0580956   -7.3634023    417.33538  0.028909351  0.029057673            1 
 1204000    1.0465783   -7.3346698    419.25205  0.029017999  0.029051539            1 
 1205000    1.0764197   -7.3859778    419.45032   0.02900763  0.029045291            1 
 1206000    1.0588707   -7.4103211    418.53885  0.028920595  0.029038676            1 
 1207000    1.0455801    -7.355768    419.67583  0.028975133  0.029032016            1 
 1208000    1.0721597    -7.361795    419.22701  0.028920186    0.0290255            2 
 1209000      1.06237   -7.3893594     419.8489   0.02893913  0.029019229            2 
 1210000    1.0872747   -7.3504813     419.9415  0.028921591  0.029013047            2 
 1211000    1.0533851   -7.3791761    420.90446  0.028963973   0.02900677            2 
 1212000    1.0502339   -7.4102357    420.01691  0.028879051  0.029000695            1 
 1213000    1.0476844   -7.3756669    421.91871  0.028985897  0.028994563            2 
 1214000    1.0444768   -7.3431709    421.59791  0.028939999  0.028988403            3 
 1215000    1.0556242   -7.4021646    421.08665  0.028881115  0.028982125            1 
 1216000    1.0417046   -7.3678123    423.15036  0.028998791  0.028976004            1 
 1217000    1.0444571   -7.4066331    421.33318  0.028850533  0.028969927            2 
 1218000    1.0405505   -7.3845183    422.82214  0.028928718  0.028963784            1 
 1219000    1.0388086   -7.3754431    423.19685  0.028930602  0.028957729            1 
 1220000    1.0518057   -7.4109873    423.25515  0.028910871  0.028951612            3 
 1221000    1.0390601   -7.4140226    422.61433  0.028843457  0.028945463            2 
 1222000    1.0603733    -7.433408    423.24695  0.028862995  0.028939456            2 
 1223000    1.0504941   -7.3951385    423.99563  0.028890408    0.0289335            2 
 1224000    1.0772393   -7.3588741    425.66439  0.028980419   0.02892752            1 
 1225000    1.0711173   -7.3480391    425.56621  0.028950082  0.028921575            1 
 1226000    1.0493882   -7.3901326    424.34006  0.028843125  0.028915662            2 
 1227000    1.0661682   -7.4216366    425.44721  0.028894812  0.028909637            1 
 1228000    1.0379439   -7.3809833    425.59041  0.028880999  0.028903624            4 
 1229000    1.0725031   -7.4019089    425.76162  0.028869109  0.028897667            3 
 1230000    1.0551564   -7.4193002    425.83115  0.028850349  0.028891783            2 
 1231000    1.0340056    -7.404305    427.34486  0.028929384  0.028886016            2 
 1232000    1.0452237   -7.4397675    426.00638  0.028815367  0.028880054            1 
 1233000    1.0713899   -7.3736656    426.42607  0.028820362  0.028874178            1 
 1234000    1.0431512   -7.3943318    426.66735    0.0288133  0.028868114            1 
 1235000    1.0584366   -7.3791871    428.42349  0.028908467  0.028861914            2 
 1236000    1.0651719   -7.3986099    425.96431  0.028719276  0.028855732            2 
 1237000    1.0561359   -7.3782412    427.15899  0.028776542  0.028849452            3 
 1238000    1.0627591   -7.4076521    426.93383  0.028738141  0.028843286            3 
 1239000     1.048744   -7.3813661    428.42078  0.028814957  0.028836983            2 
 1240000    1.0736868   -7.3806757    429.15256  0.028840898  0.028830945            2 
 1241000     1.031617   -7.3951447    429.27298  0.028825744  0.028824948            2 
 1242000    1.0568938   -7.3904854    429.54015  0.028820461  0.028819003            2 
 1243000    1.0287479   -7.4044997    428.95699  0.028758178  0.028812898            2 
 1244000    1.0413633   -7.3733602    430.27374  0.028823267  0.028806812            2 
 1245000    1.0441831   -7.4065338    428.08972  0.028653931  0.028800674            3 
 1246000    1.0806107   -7.3888075    429.84521  0.028748342  0.028794422            1 
 1247000    1.0345013    -7.411692    429.37317  0.028693743  0.028788289            1 
 1248000    1.0597174   -7.3840607      430.378  0.028737848  0.028782146            1 
 1249000     1.040563   -7.3853381    430.31813  0.028710844   0.02877591            2 
 1250000    1.0500049   -7.3886751    430.00152  0.028666768  0.028769585            1 
 1251000    1.0336236   -7.4029738    430.45573  0.028674109  0.028763267            4 
 1252000    1.0514709   -7.4290672    430.03745  0.028623366  0.028756942            1 
 1253000    1.0469751   -7.3709951    430.96229   0.02866203  0.028750611            1 
 1254000    1.0537253   -7.3905178    431.24984  0.028658283  0.028744236            1 
 1255000    1.0356199   -7.3937549    431.42052  0.028646781  0.028737915            1 
 1256000    1.0723819   -7.4093339    430.23257  0.028545155  0.028731336            1 
 1257000    1.0571507   -7.3681988    431.87414  0.028631274  0.028724869            2 
 1258000    1.0377048   -7.3876452    431.47278  0.028581928   0.02871848            1 
 1259000    1.0206788   -7.3737692    431.94608  0.028590553  0.028711971            1 
 1260000    1.0366001   -7.4196644    432.38955  0.028597193  0.028705417            2 
 1261000    1.0463211   -7.3971799    431.34869  0.028505729  0.028698756            2 
 1262000    1.0329075   -7.4479283    430.93229  0.028455645  0.028691988            3 
 1263000     1.065785   -7.4609669    431.46205  0.028468069  0.028685113            2 
 1264000    1.0611591   -7.4135651    432.44537  0.028510375   0.02867809            1 
 1265000    1.0653752   -7.3996562    432.45446  0.028488436  0.028671217            2 
 1266000    1.0718853   -7.3778192    433.38616  0.028527262  0.028664381            4 
 1267000    1.0585048   -7.4412705    432.04425  0.028416486  0.028657454            3 
 1268000    1.0517089   -7.4114831    433.14137  0.028466178  0.028650537            3 
 1269000    1.0581444   -7.4189292     432.5393  0.028404209  0.028643857            1 
 1270000    1.0388385    -7.450507    433.76767  0.028462446  0.028637007            2 
 1271000    1.0417023   -7.4470082    434.07498  0.028460201  0.028630283            2 
 1272000    1.0287906   -7.4258597    433.33791  0.028389538  0.028623593            1 
 1273000    1.0572811   -7.4184058    434.97367  0.028474317  0.028616858            2 
 1274000     1.052907   -7.4075716    433.49491   0.02835524   0.02861006            2 
 1275000    1.0468207   -7.4012779    435.89064  0.028489584  0.028603348            6 
 1276000    1.0325589   -7.3829858    435.31875  0.028429908  0.028596434            2 
 1277000    1.0618485   -7.4161644    435.61824  0.028427188  0.028589469            1 
 1278000    1.0457385   -7.3963208    435.36964  0.028388735  0.028582639            1 
 1279000    1.0458928   -7.4046815    435.61952   0.02838282  0.028575658            2 
 1280000    1.0471062   -7.4079919    435.06192  0.028324344  0.028568688            2 
 1281000     1.046457   -7.4172869    434.86669  0.028289532  0.028561745            2 
 1282000    1.0653748    -7.392957    436.90366  0.028399874  0.028554906            1 
 1283000    1.0413655   -7.3870881    438.15727  0.028459163    0.0285483            2 
 1284000    1.0359448   -7.4360056    436.02639  0.028298701  0.028541416            1 
 1285000    1.0394306   -7.3909936    438.07647  0.028409628   0.02853457            2 
 1286000    1.0521352   -7.4184579    437.40639  0.028344115  0.028527839            2 
 1287000    1.0458823   -7.3909616    438.04739  0.028363597  0.028521098            1 
 1288000    1.0400295   -7.4326799    438.11206  0.028345759  0.028514294            3 
 1289000    1.0672708   -7.3763647    438.95133  0.028378028  0.028507579            1 
 1290000    1.0337048   -7.4084636    437.89845  0.028288014  0.028500977            2 
 1291000    1.0537136   -7.4217882    439.14067  0.028346287  0.028494286            2 
 1292000    1.0227174   -7.4292718     439.4805  0.028346265  0.028487507            2 
 1293000    1.0411725    -7.376328    438.91066  0.028287617  0.028480598            2 
 1294000    1.0361417   -7.3963277    439.15702  0.028281621  0.028473729            2 
 1295000    1.0664959   -7.4248395    439.10162  0.028256218  0.028466942            1 
 1296000    1.0511582   -7.4237484    438.62015  0.028203456  0.028460093            1 
 1297000    1.0779583   -7.4390416    439.73428  0.028253295  0.028453137            1 
 1298000    1.0640364   -7.4480206    439.86745  0.028240077   0.02844626            1 
 1299000    1.0321783   -7.4303394    440.79069  0.028277565  0.028439313            1 
 1300000    1.0535777   -7.4045676    438.70802  0.028122309  0.028432449            2 
 1301000    1.0250617   -7.4672553    439.64088  0.028160446  0.028425456            2 
 1302000    1.0583795   -7.4597342    440.37302  0.028185677    0.0284185            4 
 1303000    1.0350344   -7.4150862    441.07372  0.028208859  0.028411692            1 
 1304000    1.0431412   -7.4037315    442.43605  0.028274287  0.028405009            2 
 1305000    1.0468122    -7.410457     442.4267  0.028252024  0.028398147            3 
 1306000      1.05487    -7.421825    442.83904  0.028256702  0.028391349            1 
 1307000    1.0437096   -7.4535353    441.56831  0.028154062  0.028384508            3 
 1308000    1.0543749   -7.3781039    442.62923  0.028200129  0.028377632            2 
 1309000    1.0388693   -7.3689122    443.84891  0.028256233  0.028370834            1 
 1310000    1.0128966   -7.4402545    441.26225  0.028070118  0.028363826            3 
 1311000    1.0219938   -7.4056738    442.91957  0.028154053   0.02835697            2 
 1312000    1.0488897   -7.4349504    443.08723  0.028143244  0.028350046            4 
 1313000     1.041718   -7.4469148    442.49849  0.028084443  0.028343111            3 
 1314000    1.0758988   -7.4182683    442.95071   0.02809175  0.028336092            1 
 1315000    1.0740375   -7.4050526    442.98313  0.028072441  0.028329255            3 
 1316000    1.0503305   -7.4364348    443.00541  0.028052521  0.028322338            2 
 1317000    1.0585953   -7.3929216    445.32425  0.028177945  0.028315525            1 
 1318000    1.0419434   -7.4340098    445.57547   0.02817245  0.028308626            4 
 1319000    1.0601664   -7.4483727    444.34351  0.028073257  0.028301753            3 
 1320000    1.0194503   -7.4263366    445.47523  0.028123436   0.02829456            2 
 1321000    1.0251053   -7.4477897    444.28788  0.028027244  0.028287682            1 
 1322000    1.0549887   -7.4389195    445.21429  0.028064441  0.028280711            1 
 1323000    1.0183666   -7.4203762    446.76352  0.028140811  0.028273651            2 
 1324000    1.0347149   -7.4407787    445.16483  0.028018935  0.028266704            2 
 1325000    1.0497658   -7.4693194    445.43234  0.028014612  0.028259688            1 
 1326000    1.0548931   -7.4122767    447.10568  0.028098648  0.028252936            2 
 1327000    1.0244449   -7.3791366    448.19873  0.028146115  0.028245961            2 
 1328000    1.0443769   -7.4095405    446.73431  0.028033027  0.028238941            3 
 1329000    1.0366154    -7.456756    446.99827  0.028028484   0.02823196            2 
 1330000    1.0154449   -7.4015116    446.52165  0.027977547  0.028224991            3 
 1331000    1.0521212   -7.4360051    445.78766  0.027910572  0.028217919            2 
 1332000    1.0339092   -7.4430503    445.92694  0.027898332  0.028210765            1 
 1333000    1.0532205   -7.4457523    447.75869  0.027991916  0.028203581            1 
 1334000    1.0549632   -7.4304081    447.95362  0.027983109  0.028196399            2 
 1335000    1.0520369   -7.3855985    447.98095  0.027963855  0.028189345            1 
 1336000    1.0560926   -7.4000007    448.01574  0.027945093  0.028182277            1 
 1337000     1.039508   -7.3993135    448.97153  0.027983765  0.028175181            5 
 1338000    1.0201201   -7.4073606    448.82153  0.027953509  0.028168082            4 
 1339000    1.0324203    -7.467385    448.38333  0.027905361  0.028161001            2 
 1340000    1.0526044   -7.4229872    448.50211  0.027891922  0.028153955            2 
 1341000    1.0242133    -7.408872    448.96528  0.027899906  0.028146889            2 
 1342000    1.0300445   -7.4459638    450.42491  0.027969753  0.028139816            1 
 1343000    1.0370743   -7.4108361    450.56245  0.027957461  0.028132832            1 
 1344000    1.0542746   -7.4168851    449.72819  0.027884932   0.02812579            4 
 1345000   0.99991588   -7.4190044     450.8738   0.02793518  0.028118706            1 
 1346000    1.0422331   -7.4384717    451.26597  0.027938705  0.028111635            1 
 1347000    1.0212021   -7.4398166    449.61761  0.027815987  0.028104547            3 
 1348000    1.0222015    -7.416639    450.16725  0.027829331   0.02809742            1 
 1349000    1.0520792   -7.4478284    451.63609  0.027899437  0.028090405            1 
 1350000    1.0238092    -7.443579    453.27432  0.027979897  0.028083465            4 
 1351000    1.0277538     -7.43174    451.59329  0.027855495  0.028076422            1 
 1352000    1.0461882   -7.4593905    452.47395  0.027889173  0.028069455            2 
 1353000    1.0382563   -7.4487831    452.92369  0.027896261  0.028062527            2 
 1354000    1.0346489   -7.4097186    453.11052  0.027887156   0.02805591            2 
 1355000    1.0629864   -7.4141972    453.95259  0.027918364  0.028049285            1 
 1356000    1.0466404   -7.4443868    453.71911  0.027883426  0.028042754            3 
 1357000    1.0381749   -7.4422219    453.95385  0.027877294  0.028036259            4 
 1358000    1.0351362   -7.4454904     454.9907  0.027920391  0.028029583            1 
 1359000    1.0420065   -7.4423638    452.28686  0.027734049   0.02802276            2 
 1360000    1.0397363   -7.4997256    454.09371  0.027824369  0.028015729            3 
 1361000    1.0431132   -7.4451698    455.54351  0.027892696  0.028008873            2 
 1362000    1.0541106   -7.4455306    453.59095   0.02775275  0.028001886            4 
 1363000    1.0033627   -7.4314923     454.3189  0.027776895  0.027994926            1 
 1364000    1.0124221   -7.4759759    454.27437   0.02775381  0.027987879            1 
 1365000    1.0393115   -7.4066922    456.27392  0.027855551  0.027980995            2 
 1366000    1.0257031   -7.3962936    456.33964  0.027839168  0.027974179            2 
 1367000      1.01194   -7.4225219      455.224  0.027750792  0.027967371            1 
 1368000    1.0200511   -7.4383133    456.77746  0.027825138  0.027960443            2 
 1369000    1.0388691   -7.4229692    456.64687  0.027796863  0.027953609            1 
 1370000    1.0308184   -7.4674733    456.23591  0.027751576  0.027946652            1 
 1371000     1.038521    -7.434481    457.03762  0.027780065  0.027939771            1 
 1372000    1.0300965   -7.4660584    456.48371  0.027726173  0.027932823            1 
 1373000    1.0179898   -7.4294659    457.27551  0.027754037  0.027925973            1 
 1374000    1.0314438   -7.4821052    457.53093  0.027749329  0.027919156            1 
 1375000    1.0597994   -7.4527214    456.54878  0.027669623  0.027912325            3 
 1376000     1.021783   -7.4405735    457.60796  0.027713661  0.027905486            2 
 1377000    1.0301456   -7.4784299     456.8753  0.027649195  0.027898503            2 
 1378000     1.025502   -7.4740764    457.40772  0.027661328   0.02789153            2 
 1379000    1.0425974   -7.4495754    459.17807  0.027748252  0.027884572            1 
 1380000    1.0231229   -7.4448592    459.23814  0.027731772  0.027877639            2 
 1381000    1.0524056   -7.4446633    458.76356  0.027683053   0.02787066            2 
 1382000    1.0117943   -7.4437104     458.4634  0.027644923  0.027863613            2 
 1383000    1.0173602   -7.4362634    458.55218  0.027630283  0.027856513            5 
 1384000     1.031762   -7.4756732    457.93191  0.027572971  0.027849366            2 
 1385000    1.0376192   -7.4592688    459.06296  0.027621117  0.027842347            1 
 1386000    1.0157344   -7.4200911     460.6654  0.027697535  0.027835573            3 
 1387000    1.0454777   -7.5058953    459.92025  0.027632796  0.027828719            2 
 1388000    1.0600386   -7.4249075    460.88711  0.027670936  0.027821882            1 
 1389000    1.0231265   -7.4714057    460.44453  0.027624462  0.027814999            2 
 1390000    1.0240691   -7.4610428    461.25392  0.027653113  0.027808195            2 
 1391000    1.0397887   -7.4092499    462.03528  0.027680043  0.027801257            1 
 1392000    1.0330184   -7.4229935    460.70311  0.027580406   0.02779443            1 
 1393000    1.0244583     -7.44772    461.15584  0.027587691  0.027787573            2 
 1394000     1.042198   -7.4574365    461.80237   0.02760655  0.027780568            2 
 1395000    1.0197791   -7.4775265    460.45969  0.027506552  0.027773562            2 
 1396000    1.0326149   -7.4540916    461.57317  0.027553317  0.027766539            3 
 1397000    1.0048162   -7.4844765    462.02958  0.027560819  0.027759621            2 
 1398000    1.0265602    -7.456601    462.63769  0.027577354  0.027752606            2 
 1399000    1.0340824   -7.4989302    461.67057  0.027500034  0.027745686            3 
 1400000    1.0429684   -7.4504811    463.22708   0.02757304  0.027738774            3 
 1401000    1.0378144   -7.4707245    462.98662  0.027539057  0.027731981            1 
 1402000    1.0151802   -7.4473975    464.28441  0.027596553  0.027725119            2 
 1403000    1.0258028   -7.4324343    464.09868  0.027565852  0.027718341            4 
 1404000    1.0282478   -7.4213287    464.09125  0.027545777   0.02771153            2 
 1405000    1.0054628   -7.4567665    466.10008  0.027645319  0.027704797            2 
 1406000    1.0319098   -7.4463396    465.84298  0.027610418  0.027698178            2 
 1407000    1.0239208   -7.4426275      466.994  0.027658967  0.027691682            2 
 1408000    1.0292298   -7.4454034    465.97503  0.027579015  0.027685172            4 
 1409000    1.0336198   -7.4748289    466.10382  0.027567058  0.027678662            2 
 1410000    1.0388194   -7.4489219    466.15717   0.02755066  0.027672203            2 
 1411000    1.0372926   -7.4159449    467.46075  0.027608124  0.027665677            4 
 1412000    1.0183202   -7.4522034    466.39998  0.027525966  0.027659186            1 
 1413000    1.0146949   -7.4457952    467.59806  0.027577145  0.027652749            2 
 1414000    1.0278149   -7.4474867    467.85053  0.027572521  0.027646275            2 
 1415000    1.0261558   -7.4681742    468.58572  0.027596332  0.027639643            2 
 1416000    1.0131086   -7.4563153    466.66694  0.027463921  0.027633009            3 
 1417000    1.0401589   -7.4580488    466.18036  0.027415923  0.027626319            2 
 1418000    1.0206096   -7.4515938    468.57205  0.027537145  0.027619774            2 
 1419000    1.0177405   -7.4618641    468.33776  0.027503979  0.027613185            2 
 1420000     1.028619   -7.4353761    467.86478  0.027456853   0.02760651            1 
 1421000    1.0233503   -7.4585377    468.33086  0.027464864  0.027599972            3 
 1422000     1.030522   -7.4780681     468.1941  0.027437535  0.027593298            1 
 1423000    1.0176231   -7.4715698    467.78973  0.027394573  0.027586621            1 
 1424000    1.0303088   -7.4685562    468.92473  0.027441756  0.027579945            2 
 1425000    1.0253774   -7.4741142    470.31967  0.027504074  0.027573201            2 
 1426000     1.044695   -7.4465618    469.18371  0.027418403  0.027566558            1 
 1427000    1.0185402   -7.4799467     469.4054  0.027412135  0.027559972            3 
 1428000    1.0196856   -7.4616432    469.32073  0.027387998  0.027553279            2 
 1429000    1.0149898   -7.4467501    469.84084  0.027399163  0.027546646            2 
 1430000    1.0408445   -7.4192163    471.34454  0.027467631  0.027540011            2 
 1431000    1.0176288   -7.4605375    471.41262    0.0274524  0.027533389            2 
 1432000     1.009237   -7.4542561    470.32505   0.02736994   0.02752674            4 
 1433000    1.0279787   -7.4790595    471.63984  0.027427299  0.027520334            2 
 1434000      1.02924   -7.4987582    471.17407  0.027381106  0.027513881            1 
 1435000    1.0065369   -7.4308841    472.19316  0.027421205  0.027507396            4 
 1436000    1.0355007   -7.4477778    472.40893  0.027414631  0.027500818            3 
 1437000    1.0070109   -7.4605197    472.52434  0.027402246  0.027494366            1 
 1438000    1.0120051   -7.4261191    472.14076  0.027360962  0.027487828            2 
 1439000    1.0189316   -7.4305547    473.36264  0.027412708  0.027481402            2 
 1440000    1.0051256    -7.451819    473.82651  0.027420516  0.027474955            2 
 1441000    1.0236908   -7.4418255    472.86818  0.027346066  0.027468483            2 
 1442000    1.0381361   -7.4258813    474.70627  0.027433326  0.027462052            1 
 1443000    1.0310548   -7.4649039    474.77828  0.027418473  0.027455543            1 
 1444000    1.0291981   -7.4504979    476.36402  0.027490998  0.027449051            1 
 1445000      1.03331     -7.47286    474.61665  0.027371203  0.027442545            2 
 1446000    1.0354811   -7.4461363    473.41538  0.027283044  0.027435933            2 
 1447000   0.99780545   -7.4698274    474.49031  0.027326095  0.027429264            1 
 1448000    1.0184485   -7.4985343    474.41435  0.027302852  0.027422565            3 
 1449000    1.0199716   -7.4893192    474.46255  0.027286781  0.027415906            2 
 1450000    1.0028959   -7.4824865    474.06318   0.02724501  0.027409068            2 
 1451000    1.0013484   -7.4391357    474.64422  0.027259604  0.027402219            3 
 1452000    1.0282198   -7.4856768    473.55547  0.027178344  0.027395459            2 
 1453000    1.0410283   -7.4643285     474.5731  0.027218003  0.027388625            2 
 1454000    1.0086392   -7.4624433    475.99612  0.027280841  0.027381812            1 
 1455000    1.0391536   -7.4856599    474.13379  0.027155429  0.027374899            2 
 1456000    1.0107882   -7.4585307    476.78993  0.027288801   0.02736817            3 
 1457000    1.0094267   -7.5060566    474.93757  0.027164126  0.027361344            2 
 1458000    1.0172829   -7.4427987    477.82461  0.027310506  0.027354523            1 
 1459000    1.0120994   -7.4606585    476.47107  0.027214477   0.02734781            1 
 1460000    1.0335776   -7.4931096    477.35962  0.027246554  0.027340943            1 
 1461000    1.0148384    -7.482811    475.06484  0.027097014  0.027334102            2 
 1462000    1.0241508   -7.4872788     476.1924   0.02714275  0.027327256            2 
 1463000    1.0228702    -7.482374    477.98743  0.027226443  0.027320456            2 
 1464000    1.0305474    -7.476335    477.48788   0.02717941  0.027313701            1 
 1465000    1.0037242   -7.4646273    477.14389  0.027141291  0.027306899            2 
 1466000   0.99948353   -7.4613699    477.72343   0.02715572  0.027300095            1 
 1467000    1.0146586   -7.4889305    477.48954  0.027123923  0.027293413            1 
 1468000    1.0258394   -7.4581802    477.57207  0.027110131   0.02728676            1 
 1469000    1.0111678   -7.4956534    478.62184  0.027151227  0.027280112            1 
 1470000    1.0114184   -7.4792364    478.48304  0.027124889   0.02727343            4 
 1471000    1.0019718   -7.4833036    479.45067  0.027161266  0.027266693            2 
 1472000    1.0175846   -7.4975779    478.89401    0.0271113  0.027259837            1 
 1473000    1.0399299   -7.5022327    478.37474  0.027063518  0.027252995            3 
 1474000    1.0225763   -7.4890412    478.40771  0.027047021  0.027246062            3 
 1475000    1.0199509   -7.5083129    478.20573  0.027017273  0.027239025            1 
 1476000    1.0269171   -7.4960565    478.55681   0.02701879  0.027232106            2 
 1477000    1.0462762   -7.4440169    480.08063  0.027086472  0.027225276            2 
 1478000    1.0059534    -7.460433    481.06962  0.027123907  0.027218517            2 
 1479000   0.99914353    -7.468213    480.76441  0.027088371  0.027211698            2 
 1480000     1.021131   -7.5222538    480.55479  0.027058265  0.027204806            2 
 1481000    1.0289483   -7.4669449    480.25053  0.027022875  0.027198002            2 
 1482000    1.0412617   -7.4853883    480.17658  0.027000483  0.027191146            2 
 1483000    1.0327806   -7.4955525    481.90125  0.027079189  0.027184344            3 
 1484000    1.0022748   -7.4564816    482.66191  0.027103656  0.027177766            1 
 1485000   0.98408807   -7.4591873    482.42856   0.02707231  0.027171181            1 
 1486000     1.015281   -7.4277928    483.51556  0.027115049   0.02716442            1 
 1487000     1.016374   -7.4602391    482.23393  0.027024991  0.027157908            1 
 1488000   0.99705178    -7.432097    481.51263  0.026966433   0.02715121            2 
 1489000   0.98719954   -7.4783317    481.22661  0.026932315  0.027144367            4 
 1490000   0.99901781   -7.4912203    482.27566  0.026972911   0.02713759            1 
 1491000   0.99285522   -7.4925757    482.49455  0.026967055  0.027130839            3 
 1492000    1.0090327   -7.5082103    482.95604  0.026974756  0.027123929            1 
 1493000   0.97782642   -7.4552953    481.98646  0.026902571  0.027116943            3 
 1494000    1.0041918   -7.5030405    482.76591   0.02692804  0.027110065            1 
 1495000    1.0172959   -7.5061828    482.81826  0.026912947  0.027103216            1 
 1496000    1.0149882   -7.4648181    482.83128  0.026895682  0.027096333            2 
 1497000    1.0245113   -7.4808546    484.00474  0.026943038  0.027089494            2 
 1498000    1.0028379   -7.4665592      483.439   0.02689358  0.027082614            2 
 1499000    1.0085957   -7.4841766     484.4135  0.026929814  0.027075744            1 
 1500000    1.0164924   -7.4979321    484.55184  0.026919547  0.027068754            4 
 1501000    1.0181199   -7.4792626    484.69416  0.026909514  0.027061891            1 
 1502000    1.0173078   -7.5043661    483.37356  0.026818329  0.027054942            2 
 1503000    1.0012189   -7.4542913    486.35264   0.02696566   0.02704807            1 
 1504000    1.0338682   -7.4906895    485.26442  0.026887435  0.027041242            2 
 1505000    1.0110911   -7.4748265    485.53319  0.026884451   0.02703441            1 
 1506000    1.0103592   -7.4734768    485.77396  0.026879923  0.027027672            4 
 1507000    1.0220689   -7.5058906    485.52276  0.026848195  0.027020788            2 
 1508000    1.0070059   -7.5044193    485.49973  0.026829118  0.027013883            1 
 1509000    1.0115869   -7.4814076    486.78616  0.026882381  0.027007069            3 
 1510000   0.99250676   -7.4801431    486.28099  0.026836699  0.027000324            1 
 1511000     1.033171   -7.4849616    486.84386  0.026849981  0.026993409            1 
 1512000    1.0254838   -7.5316629    485.64717  0.026766268  0.026986439            2 
 1513000    1.0017734   -7.5076673    486.62943  0.026802678  0.026979496            2 
 1514000      1.02932   -7.5131255    486.62118  0.026784521  0.026972605            2 
 1515000    1.0036385   -7.4937171    487.17949  0.026797552  0.026965617            3 
 1516000    1.0261025   -7.4997432    486.41224    0.0267377  0.026958624            1 
 1517000   0.99593253   -7.4749705    487.17341  0.026761888  0.026951681            2 
 1518000    1.0180932   -7.5021089    486.48949  0.026706713  0.026944679            1 
 1519000   0.99978226   -7.5316414     487.8565  0.026764127  0.026937588            2 
 1520000    1.0119891   -7.4896112    486.64692  0.026680204  0.026930423            3 
 1521000    1.0273176   -7.5008356    486.37474   0.02664775  0.026923244            1 
 1522000    1.0148053   -7.5367334    485.16926  0.026564239     0.026916            2 
 1523000   0.99876682    -7.531825    487.54287  0.026676673  0.026908738            2 
 1524000    1.0047644   -7.5283851     486.5947  0.026607322  0.026901459            1 
 1525000    1.0151183   -7.4812927    486.84122  0.026603345  0.026894232            1 
 1526000   0.98042847   -7.5523258    488.51897  0.026677532  0.026886922            1 
 1527000    1.0331124   -7.4769478    488.47879  0.026657869   0.02687967            3 
 1528000   0.99855097   -7.5005396    489.13163  0.026676027  0.026872492            2 
 1529000    1.0010002   -7.4845056      489.658  0.026687269  0.026865388            1 
 1530000   0.99725813   -7.4843624    488.90308  0.026628708  0.026858255            2 
 1531000    1.0098565      -7.5004    489.61431  0.026650028  0.026851119            3 
 1532000    1.0098946   -7.4915777    489.90066  0.026648208  0.026844067            1 
 1533000    1.0135115   -7.5334404    489.07422    0.0265859  0.026837001            1 
 1534000   0.98787242   -7.4830863    490.43564  0.026642527  0.026829852            1 
 1535000    1.0181405   -7.4862657    490.39963  0.026623216    0.0268229            1 
 1536000    1.0049736   -7.5110585    490.66739  0.026620409   0.02681579            1 
 1537000    1.0179171   -7.5129932    490.98628   0.02662038  0.026808799            3 
 1538000    1.0138419   -7.5129905    489.72567  0.026534767  0.026801772            3 
 1539000   0.99813014   -7.5113519    492.25397  0.026654428  0.026794685            5 
 1540000    1.0174066   -7.5210174    490.32285  0.026532622  0.026787598            2 
 1541000    1.0036393   -7.5245154    492.26351   0.02662035  0.026780594            5 
 1542000   0.99102243   -7.4994279    492.34783  0.026607643  0.026773409            2 
 1543000    1.0121218   -7.5092071    490.80003  0.026506806    0.0267662            4 
 1544000    1.0154739   -7.4941979    491.93191  0.026550729  0.026759093            2 
 1545000     1.010661   -7.5243942    491.64913  0.026518292  0.026751987            1 
 1546000    1.0147323   -7.4804397    492.51596  0.026547863  0.026744898            3 
 1547000    1.0035049   -7.4759309    493.33128  0.026574622   0.02673777            3 
 1548000    1.0045873   -7.4834282    493.25177  0.026553175  0.026730711            1 
 1549000    1.0118986   -7.4995412    493.75723  0.026563225  0.026723675            2 
 1550000    1.0023626   -7.5117343    494.13235  0.026566255  0.026716638            1 
 1551000    1.0014086   -7.4832903    494.84698  0.026587523  0.026709651            4 
 1552000   0.99874693   -7.5213942    494.85183  0.026570653  0.026702702            1 
 1553000    1.0021415    -7.521584    494.53951  0.026536784  0.026695763            1 
 1554000   0.99878009   -7.5121718    495.53784  0.026573243  0.026688906            2 
 1555000    1.0287984   -7.4641319    497.42531  0.026657305  0.026682235            1 
 1556000   0.98775211     -7.46513    496.13577   0.02657111  0.026675563            1 
 1557000   0.99535336   -7.4868889    495.42365  0.026515931  0.026668797            1 
 1558000    1.0179219   -7.5345166    495.62479   0.02650967  0.026661964            3 
 1559000   0.99307169   -7.5204031    496.63144  0.026546474  0.026655195            5 
 1560000     1.016639   -7.5079559    496.20998  0.026506943  0.026648428            2 
 1561000    1.0223124   -7.5202746    495.85618  0.026471075  0.026641582            3 
 1562000   0.99230554   -7.5445057    496.00865  0.026462262   0.02663475            1 
 1563000    1.0098483   -7.5333712     497.4213  0.026520649  0.026627909            1 
 1564000    1.0149923   -7.4843582    496.26341  0.026441998  0.026621142            2 
 1565000    1.0214339   -7.4944037    498.88683  0.026564794  0.026614418            3 
 1566000   0.99449115   -7.4949098     498.9488  0.026551128  0.026607648            2 
 1567000    1.0109119   -7.5221763    498.09579  0.026488821  0.026600946            1 
 1568000    1.0011036    -7.519608     497.3547  0.026432542  0.026594218            5 
 1569000   0.98465697   -7.4845841    500.10026  0.026561518  0.026587606       -1e+20 
 1570000    1.0082366   -7.4997121    498.89341  0.026480542  0.026580889            1 
 1571000   0.98334157   -7.5430758    498.08254  0.026420674  0.026574072            1 
 1572000   0.99492185   -7.5270772    496.51139  0.026320578  0.026567111            1 
 1573000    1.0027687   -7.5091075    499.46408  0.026460271   0.02656038            4 
 1574000   0.98243324   -7.4854627    499.19184  0.026429047   0.02655365            6 
 1575000   0.98581693    -7.522478    497.22069  0.026307973  0.026546852            2 
 1576000    1.0009025   -7.5275448    500.13946  0.026445614  0.026539908            1 
 1577000    1.0021087   -7.4920446    499.54315  0.026397334  0.026532998            1 
 1578000   0.98480622   -7.5062022    500.21999  0.026416349  0.026526144            1 
 1579000   0.97269121   -7.4798684     498.9656  0.026333418  0.026519277            1 
 1580000   0.98756363   -7.4889349    499.76099  0.026358702  0.026512406            2 
 1581000    1.0058162   -7.5148277    499.08182  0.026306231  0.026505374            2 
 1582000   0.98624666   -7.4855494    501.22203   0.02640234  0.026498526            3 
 1583000    1.0027954   -7.4822047    500.05008  0.026323967  0.026491694            3 
 1584000   0.99088691   -7.5147424    499.77397  0.026292822  0.026484778            1 
 1585000    1.0047473   -7.5245295    500.09286     0.026293  0.026477852            2 
 1586000   0.98546842   -7.4985864    501.35639  0.026342811  0.026470783            6 
 1587000   0.98199832    -7.535895    500.38244   0.02627507   0.02646379            1 
 1588000   0.98735075    -7.526104     500.1134  0.026244406  0.026456787            2 
 1589000    1.0035262   -7.5041144    502.36468  0.026345956   0.02644976            2 
 1590000    1.0278732   -7.5265656     501.1486   0.02626565  0.026442648            1 
 1591000   0.98956554   -7.5258518    500.34298  0.026206944  0.026435527            1 
 1592000   0.98638416   -7.5257639     502.3971  0.026298006   0.02642837            1 
 1593000    1.0040978   -7.4983143    500.96828  0.026206753  0.026421214            1 
 1594000   0.98526373   -7.5372428    500.63405  0.026172838  0.026414056            2 
 1595000   0.99017889   -7.4932529    502.45775  0.026251711  0.026406871            2 
 1596000    1.0146827   -7.5495152    500.87992  0.026152878  0.026399727            2 
 1597000   0.99891697   -7.5199915    501.34145  0.026160585  0.026392534            2 
 1598000   0.99937338   -7.5074497    499.74367  0.026060892  0.026385258            3 
 1599000   0.99053285   -7.5186657    501.19398  0.026120178  0.026378055            2 
 1600000   0.99358876    -7.520812    502.46401      0.02617  0.026370941            2 
 1601000    1.0134865   -7.5539325    501.01647  0.026078309  0.026363761            1 
 1602000   0.99949195   -7.5286619    501.95912  0.026111065  0.026356468       -1e+20 
 1603000   0.99418212    -7.487082    502.66564  0.026131505  0.026349328            2 
 1604000   0.99772371   -7.5487494    501.94749  0.026077904  0.026342107            3 
 1605000   0.99713009   -7.4942923     504.7666  0.026208027  0.026334937            2 
 1606000   0.98964958   -7.5021656    503.70786  0.026136772  0.026327796            3 
 1607000   0.97603243   -7.5242426    502.85884   0.02607648  0.026320616            1 
 1608000    1.0011776   -7.5303411    503.04694  0.026070012  0.026313489            2 
 1609000   0.99928819   -7.5106462    504.86037   0.02614773  0.026306303            1 
 1610000    1.0122918   -7.5386045    502.24094  0.025995908  0.026299126            3 
 1611000   0.98279474   -7.5498973    504.15573  0.026078819   0.02629201            2 
 1612000   0.97896934   -7.5309967    504.84585  0.026098317  0.026284896            1 
 1613000   0.99428189   -7.5631603     504.0952  0.026043356   0.02627776            2 
 1614000   0.99862701   -7.5608475    504.82904   0.02606511  0.026270601            2 
 1615000   0.99288564   -7.5589622    504.74972  0.026044877  0.026263534            2 
 1616000    1.0130645   -7.5452543    504.99088  0.026041196  0.026256478            2 
 1617000    1.0038478   -7.5794839    505.18968  0.026035337  0.026249343            4 
 1618000   0.99010143     -7.53848    506.21335  0.026071969  0.026242276            1 
 1619000   0.98300076   -7.5460175    506.27131  0.026058849   0.02623525            1 
 1620000    1.0050534   -7.5334832    505.75539  0.026016224  0.026228309            1 
 1621000   0.98919759   -7.4846703    509.13379  0.026173853   0.02622139            1 
 1622000   0.97846185   -7.5463966    507.70509  0.026084314  0.026214413            1 
 1623000   0.97801837   -7.5429909    507.94993  0.026080814  0.026207437            2 
 1624000   0.97418945   -7.5361982    506.58392  0.025994659  0.026200471            4 
 1625000    1.0201398   -7.5408697     508.0249  0.026052559  0.026193469            3 
 1626000    1.0085184   -7.5570925    507.38969  0.026003982  0.026186508            1 
 1627000    1.0187332    -7.545849     508.2815  0.026033676  0.026179573            3 
 1628000   0.99517939   -7.5773783    507.02688  0.025953464  0.026172608            2 
 1629000   0.99848207   -7.5446256    509.48098  0.026063075  0.026165691            1 
 1630000   0.98525401   -7.5187832    509.82508  0.026064677  0.026158797            1 
 1631000   0.99023644   -7.5041642    509.67511  0.026041034  0.026151909            3 
 1632000    1.0135537   -7.5406546    509.80802  0.026031864  0.026145048            1 
 1633000   0.99610963   -7.5567404    510.11349  0.026031511  0.026138205            3 
 1634000     1.000959   -7.5570341     510.6178  0.026041299  0.026131448            3 
 1635000   0.97844446   -7.5414772    510.42511  0.026015551  0.026124646            2 
 1636000    1.0049683   -7.5245541    510.01556  0.025978788  0.026117838            4 
 1637000    1.0024146   -7.5618565    510.51399  0.025988291  0.026111077            1 
 1638000   0.99185152    -7.542721    510.65331  0.025979513  0.026104186            2 
 1639000   0.99667957   -7.5739316    509.04454  0.025881866  0.026097439            1 
 1640000    0.9727161   -7.5316687     511.4715  0.025989405  0.026090702            1 
 1641000   0.99117748   -7.5640389    513.03064  0.026052744  0.026083933       -1e+20 
 1642000   0.98661663   -7.5379003    512.78819  0.026024573  0.026077279            1 
 1643000    0.9944038   -7.5220565     512.4329  0.025990713  0.026070642            4 
 1644000   0.95394846   -7.5717163    511.50415  0.025927826  0.026064064            4 
 1645000   0.98817646   -7.5303216    515.16861  0.026097701  0.026057484            1 
 1646000   0.99134293   -7.5065535    514.22576  0.026034111  0.026051002            1 
 1647000    1.0008719   -7.5218674    513.08259  0.025960463  0.026044433            2 
 1648000   0.98446543   -7.5428116    513.58681  0.025970207  0.026037848            2 
 1649000    1.0079385   -7.4881049    514.64714  0.026008042  0.026031231            2 
 1650000   0.96745625   -7.5516705    513.46403  0.025932527  0.026024562            2 
 1651000   0.97513491   -7.4837737     515.1712  0.026002988   0.02601784            2 
 1652000     1.002229   -7.5225243    514.09439  0.025932929  0.026011269            3 
 1653000   0.97676782   -7.5673549    513.63412  0.025894037  0.026004602            1 
 1654000   0.98965178   -7.5537453    513.31543  0.025862325  0.025997902            1 
 1655000   0.96766036   -7.5358528    516.05622  0.025984704  0.025991227            3 
 1656000   0.97876401   -7.5278941    515.18538   0.02592519  0.025984447            4 
 1657000   0.97203375   -7.5219385    515.63746   0.02593228  0.025977791            2 
 1658000    0.9830729   -7.5322981    513.96866  0.025832763  0.025971062            2 
 1659000   0.99800707   -7.5390514    514.43102  0.025840417  0.025964247            1 
 1660000    1.0159332   -7.5219884    515.42241  0.025874619  0.025957518            1 
 1661000   0.99584844   -7.5621518    514.92678  0.025834175  0.025950757            2 
 1662000   0.98938029   -7.5017132    515.37665  0.025841188  0.025943944            2 
 1663000   0.97690825   -7.5239706    515.08907  0.025811238  0.025937199            1 
 1664000   0.98596751   -7.5263755    516.78441   0.02588063  0.025930537            2 
 1665000   0.99435552   -7.5811976    515.16515  0.025784042  0.025923843            2 
 1666000   0.98435576   -7.5142395    515.72634  0.025796635  0.025917068            2 
 1667000   0.98244026   -7.5619654    515.64858  0.025777273  0.025910285            3 
 1668000   0.97683931   -7.5289296    519.11734  0.025935119  0.025903597            2 
 1669000   0.96328836   -7.5103952     517.2087  0.025824281  0.025896969            1 
 1670000    0.9930462   -7.5549083    516.81606  0.025789224  0.025890332            2 
 1671000   0.97202335   -7.5454269    516.45035  0.025755553  0.025883611            1 
 1672000   0.99256507   -7.5623791    515.90203  0.025712821  0.025876839            1 
 1673000   0.97601922   -7.5830015    517.95735  0.025799828  0.025870088            1 
 1674000   0.98878228   -7.5697437    515.76282   0.02567517  0.025863315            2 
 1675000   0.96747755   -7.5668389    517.54304   0.02574841  0.025856507            2 
 1676000    0.9914594   -7.5599682    516.42793  0.025677602  0.025849609            2 
 1677000    0.9940019   -7.5619546    517.69942  0.025725473  0.025842774            3 
 1678000   0.96008784   -7.5525952    517.04414    0.0256776  0.025835868            1 
 1679000   0.98431084   -7.5252275     519.0255  0.025760646  0.025829048            3 
 1680000   0.98601017   -7.5458422    518.64317  0.025726348  0.025822244            1 
 1681000   0.98808122    -7.548887    517.95516  0.025676936  0.025815387            1 
 1682000   0.97323223    -7.552672    519.17663  0.025722187  0.025808475            2 
 1683000   0.98857913   -7.5330761     518.6599  0.025681318  0.025801659            2 
 1684000   0.97406081   -7.5585431    519.37311  0.025701361  0.025794895            1 
 1685000   0.99692355   -7.5713174    519.23061  0.025679061  0.025788111            2 
 1686000     0.971662   -7.5656552    519.62484  0.025683316   0.02578129            1 
 1687000    0.9961501    -7.563106    519.70648  0.025672124  0.025774355            1 
 1688000    0.9798294   -7.5598592    518.45147  0.025594958  0.025767432            2 
 1689000   0.99921547   -7.5720139    519.33578  0.025623435   0.02576052            3 
 1690000   0.96077534   -7.5780126    519.20358  0.025601755  0.025753665            3 
 1691000    1.0015926   -7.5708653    520.55067  0.025652999  0.025746796            1 
 1692000   0.98545394   -7.5596298    519.42713  0.025582503  0.025740033            1 
 1693000    0.9777823   -7.5393005    520.71378  0.025630724  0.025733151            1 
 1694000   0.98869171   -7.5255344     522.2915  0.025693206  0.025726365            2 
 1695000    0.9963864   -7.6215594    521.33926  0.025631232  0.025719489            1 
 1696000   0.97594946   -7.5692903    520.47116  0.025573465   0.02571257            2 
 1697000   0.99219548   -7.6070257    521.76174  0.025621771  0.025705712            2 
 1698000   0.95620974   -7.5930852    520.94227  0.025566464  0.025698881            4 
 1699000   0.98347994   -7.6023988    520.32769  0.025521272  0.025692094            1 
 1700000   0.98698396   -7.6089252    521.57464  0.025567384  0.025685283            1 
 1701000   0.96116565    -7.544702    522.94739  0.025619605  0.025678566            4 
 1702000   0.98523401   -7.5486279    523.17655  0.025615773  0.025671879            2 
 1703000   0.97557824   -7.5703904    523.13508  0.025598702  0.025665229            3 
 1704000   0.96090495   -7.5973472    521.67304  0.025512179  0.025658518            1 
 1705000   0.96745552   -7.5421018    524.32234  0.025626703  0.025651873            2 
 1706000   0.98769745   -7.5303854    525.27763  0.025658344  0.025645284            3 
 1707000    0.9774971   -7.5669383    523.54242  0.025558603   0.02563854            1 
 1708000   0.97574828   -7.5606591    523.14807  0.025524398  0.025631776            2 
 1709000    0.9988052    -7.569235    523.00767  0.025502617  0.025625092            2 
 1710000   0.96119275   -7.5586202     523.3728  0.025505497  0.025618458            1 
 1711000   0.95551113   -7.5560399    523.84758  0.025513714   0.02561185            1 
 1712000   0.99475319   -7.5839445    524.95112  0.025552527  0.025605266            2 
 1713000   0.97182544   -7.5488313     524.9531  0.025537707  0.025598638            2 
 1714000    1.0065423   -7.5873307    524.16301  0.025484394  0.025591999            2 
 1715000   0.97718808   -7.5749738    524.96021  0.025508271  0.025585365            1 
 1716000   0.95954859   -7.5531174    525.81342   0.02553484  0.025578728            3 
 1717000   0.99353251   -7.5911686    523.69947  0.025417369  0.025572048            2 
 1718000   0.99339144   -7.5566978    526.23864  0.025525739   0.02556538            4 
 1719000   0.99297623   -7.5586033    526.69424  0.025532976  0.025558717            4 
 1720000   0.98087673   -7.5725021    526.83527  0.025524965  0.025552088            2 
 1721000   0.98274082   -7.5556467    526.64697  0.025501016  0.025545398            2 
 1722000   0.98386131   -7.6162152    525.17173  0.025414815   0.02553874            2 
 1723000   0.96200122   -7.5711623    525.91176  0.025435856  0.025532147            1 
 1724000    0.9795892   -7.5918529    528.52701  0.025547516  0.025525513            3 
 1725000    0.9446214   -7.5441324    525.49673  0.025386315  0.025518728            2 
 1726000   0.97760217   -7.5604844    526.50568  0.025420321  0.025512003            2 
 1727000   0.97807219    -7.584974    525.74171  0.025368737  0.025505341            3 
 1728000   0.98143623   -7.5717557    526.67045  0.025398845  0.025498632            1 
 1729000   0.99591852   -7.5641949    528.67991  0.025481006  0.025491965            6 
 1730000   0.96833343   -7.6009067    527.95542  0.025431379  0.025485251            1 
 1731000   0.97744181   -7.5883964    528.02819   0.02542019  0.025478465            1 
 1732000   0.98960714   -7.5557163    528.61535  0.025433764  0.025471836            1 
 1733000   0.96727695   -7.5450529    528.62919  0.025419753  0.025465195            2 
 1734000   0.96973594   -7.5730009    528.58278  0.025402863  0.025458515            2 
 1735000   0.97533771   -7.5886069    528.62575  0.025390286    0.0254519            3 
 1736000    0.9695028   -7.5609245    529.63648  0.025424178    0.0254452            2 
 1737000   0.95417276   -7.5891183    528.53646  0.025356767  0.025438527            2 
 1738000   0.97573104   -7.5865509    529.59437  0.025392902  0.025431745            3 
 1739000   0.98825777   -7.5809809    530.44147  0.025418893   0.02542507            2 
 1740000   0.96474743    -7.581598    528.51361  0.025311955  0.025418391            3 
 1741000   0.96891414   -7.5878736    528.37808  0.025290929  0.025411689            1 
 1742000   0.95743519   -7.6026242    529.81185  0.025344999  0.025404974            3 
 1743000   0.98413391   -7.5681395    528.43961  0.025264851  0.025398273            1 
 1744000   0.97288733   -7.6077022     529.1617  0.025284867   0.02539165            2 
 1745000   0.97008795   -7.5979754      530.146  0.025317383  0.025384963            2 
 1746000   0.97978905   -7.5835602    528.75493  0.025236489  0.025378278            1 
 1747000    0.9545503   -7.6062269    529.23071  0.025244739  0.025371525            1 
 1748000   0.98100656   -7.5980457     529.9365  0.025263945  0.025364654            1 
 1749000   0.97009371   -7.5905031    530.19353  0.025261746  0.025357812            1 
 1750000    0.9821128   -7.5568972    530.20284  0.025247754  0.025351011            1 
 1751000   0.98293063   -7.5674868    529.96556  0.025222042  0.025344207            1 
 1752000   0.96365369   -7.5663136    530.97504  0.025255662  0.025337402            1 
 1753000   0.96250831   -7.5430707    531.05205  0.025244916  0.025330579            1 
 1754000   0.98032063   -7.6250808    531.27179  0.025240963  0.025323797            1 
 1755000   0.98730211   -7.5851657    529.63195  0.025148715  0.025316919            1 
 1756000   0.97371843   -7.5805657    531.77638  0.025236161  0.025310067            2 
 1757000    0.9716734   -7.6188661    530.46591  0.025159643  0.025303195            1 
 1758000   0.96378846   -7.5772832    531.32829   0.02518621  0.025296382            1 
 1759000    0.9972438   -7.5574796    532.17741  0.025212119  0.025289626            2 
 1760000   0.97512873   -7.5783512     530.2819  0.025108044  0.025282861            1 
 1761000   0.96567852   -7.5834949    530.92615  0.025124274  0.025275991            2 
 1762000   0.96318383   -7.5867573    530.53635  0.025091579  0.025269124            2 
 1763000   0.96333032   -7.6069214    531.06431  0.025102302  0.025262238            2 
 1764000   0.96119114   -7.6032528      531.977  0.025131189  0.025255374            4 
 1765000    0.9635059   -7.5998184    530.36744  0.025040956  0.025248442            3 
 1766000   0.95689877   -7.6081044    532.06047  0.025106666  0.025241596            3 
 1767000   0.97451912   -7.6012527     531.8838  0.025084126   0.02523477            3 
 1768000    0.9716961   -7.6066956     532.1474  0.025082363  0.025227976            1 
 1769000   0.96485221   -7.5885821    532.64314  0.025091537   0.02522118            3 
 1770000   0.95047628   -7.5637228    535.06873   0.02519156  0.025214477            2 
 1771000   0.97607843   -7.5129368    535.77791  0.025210705  0.025207957            1 
 1772000   0.96042698   -7.5941617    534.96064  0.025158044  0.025201368            2 
 1773000   0.94959498   -7.5765779    535.34831  0.025162075    0.0251947            2 
 1774000    0.9602397   -7.6022033    533.48199  0.025060221  0.025187945            2 
 1775000   0.98703471   -7.6337789    533.12201  0.025029202  0.025181145            2 
 1776000    0.9581891    -7.615202    533.90274  0.025051743   0.02517434            1 
 1777000   0.95961136   -7.6022727    532.66138  0.024979431  0.025167527            2 
 1778000   0.98234725   -7.5857893    534.75142   0.02506334  0.025160742            2 
 1779000   0.95009574   -7.5717289    535.12294  0.025066654  0.025154034            3 
 1780000   0.97001353   -7.6120709    534.97421  0.025045609  0.025147273            1 
 1781000   0.94880895   -7.5452239    537.01115  0.025126855  0.025140552            1 
 1782000   0.96870145   -7.5830161     535.5242  0.025043219  0.025133906            2 
 1783000    0.9682871    -7.619601    535.03785  0.025006443  0.025127213            2 
 1784000   0.94847228   -7.5853522    536.47451  0.025059534  0.025120445            4 
 1785000   0.95799857   -7.5803807    536.91637  0.025066124  0.025113724            2 
 1786000   0.95454546   -7.5822119    535.49286  0.024985669  0.025107089            3 
 1787000   0.98365828   -7.6342828    537.38221  0.025059793  0.025100314            2 
 1788000   0.98037514   -7.6072221    537.03766  0.025029719   0.02509362            2 
 1789000   0.95782752   -7.5803018    536.81535  0.025005373  0.025086888            1 
 1790000   0.95640805   -7.5864996    537.07158  0.025003332  0.025080175            1 
 1791000   0.98942327   -7.6430377    536.95123  0.024983772  0.025073437            2 
 1792000   0.93729295   -7.6044591    536.44928  0.024946488  0.025066707            2 
 1793000   0.96462657   -7.5947041    538.36961  0.025021826  0.025060043            1 
 1794000   0.97595568   -7.6439636    537.18416  0.024952813  0.025053353            1 
 1795000   0.97662419    -7.655568     535.9462  0.024881439   0.02504663            3 
 1796000   0.97440026    -7.620703    538.79827   0.02499992  0.025039852            3 
 1797000   0.97777072   -7.5752046     538.2956  0.024962697  0.025033209            1 
 1798000   0.97324638   -7.5846952    539.41474  0.025000683  0.025026546            1 
 1799000   0.95659011   -7.5855801    539.51089   0.02499124  0.025019896            2 
 1800000      0.95722   -7.6088613    538.79735  0.024944322  0.025013344            4 
 1801000   0.94172333   -7.5589134    539.65345  0.024970084  0.025006712            2 
 1802000    0.9748215   -7.6398609    539.19756  0.024935144  0.025000126            5 
 1803000   0.96988551    -7.622573     539.4938  0.024935007  0.024993438            2 
 1804000    0.9426701   -7.6371288    540.03401  0.024946139  0.024986769            1 
 1805000   0.97882575   -7.5918712    540.36354  0.024947532  0.024980136            1 
 1806000   0.97860001   -7.6262798    540.33667  0.024932478  0.024973539            2 
 1807000    0.9767553   -7.6233793    538.36879  0.024827928   0.02496683            2 
 1808000   0.97484373   -7.6027239    539.93235  0.024886263  0.024960165            1 
 1809000   0.97005617   -7.6133414     539.9858  0.024874968  0.024953538            3 
 1810000   0.95926229   -7.6023815    540.36596  0.024878727  0.024946803            2 
 1811000   0.98092806   -7.6217851    539.96662  0.024846614  0.024940074            3 
 1812000   0.94932169   -7.6480219    539.50815  0.024811817  0.024933335            2 
 1813000   0.95596668   -7.6074416    540.49361  0.024843427  0.024926626            2 
 1814000   0.96435224   -7.5982555    540.83486  0.024845409  0.024919922            3 
 1815000   0.95207697   -7.6460762    541.17435  0.024847307  0.024913092            2 
 1816000   0.97589345    -7.575808    543.03118  0.024918832  0.024906358            1 
 1817000   0.96553887   -7.5786475    542.45581  0.024878729  0.024899667            1 
 1818000   0.96602559   -7.5873655    541.74741  0.024832573  0.024893064            1 
 1819000   0.97073721   -7.5998369    540.67167  0.024769639   0.02488632            3 
 1820000   0.98239387   -7.5923236    543.05147  0.024864994   0.02487953            1 
 1821000   0.96222225   -7.6450818    540.65191   0.02474153  0.024872754            1 
 1822000   0.94633035   -7.6174311    541.36989  0.024760789  0.024865836            2 
 1823000   0.96259213   -7.6386793    540.99464  0.024730053  0.024858951            2 
 1824000   0.97458021   -7.6270118    540.07603  0.024674526  0.024851995            1 
 1825000   0.95119316    -7.616713     540.2492  0.024668913  0.024845105            1 
 1826000   0.92990471   -7.6265862    542.08129  0.024739015  0.024838192            2 
 1827000   0.96255439   -7.6061323     541.3343  0.024691402    0.0248313            2 
 1828000   0.93703781   -7.6263259     541.4845  0.024684742  0.024824434            1 
 1829000   0.96437319   -7.6408158     541.8474   0.02468778  0.024817497            3 
 1830000   0.96938754   -7.6184672    543.22031  0.024736808  0.024810631            2 
 1831000   0.96875997   -7.6458176    541.41942  0.024641335  0.024803765            3 
 1832000   0.94042527   -7.5781267    544.03288  0.024746765  0.024796936            2 
 1833000   0.96412701   -7.6087751    542.82411   0.02467831  0.024790075            3 
 1834000   0.98867372   -7.6285179    543.31402  0.024687114  0.024783257            1 
 1835000   0.95293226   -7.6510325    542.75322  0.024648193  0.024776441            1 
 1836000   0.95809125   -7.5951272    544.16511  0.024698852  0.024769653            2 
 1837000   0.95847279   -7.6384033    542.05471  0.024589671  0.024762918            2 
 1838000   0.94496415   -7.6159772    543.60347  0.024646512   0.02475609            2 
 1839000    0.9527477   -7.6344379    544.86487   0.02469027  0.024749319            3 
 1840000   0.95296438   -7.6352511    544.38745  0.024655229  0.024742574            2 
 1841000   0.97149808   -7.5861811    545.53806  0.024693919  0.024735898            2 
 1842000   0.97714913   -7.6156074      545.137  0.024662369  0.024729184            3 
 1843000   0.94612485   -7.6499896    543.51746  0.024575758  0.024722411            3 
 1844000   0.95007516   -7.6268055    544.33714  0.024599473  0.024715567            1 
 1845000   0.93807592   -7.6268703    544.64725  0.024600147  0.024708743            3 
 1846000   0.96465874   -7.6306364    545.64393  0.024631813  0.024701941            2 
 1847000   0.93483206   -7.6241838    545.81804  0.024626333  0.024695234            2 
 1848000   0.94794693   -7.6302877    544.76608   0.02456557  0.024688483            3 
 1849000   0.94869612    -7.617968     546.6762  0.024638372  0.024681786            2 
 1850000   0.94230797    -7.578816    546.05482  0.024597064  0.024675044            1 
 1851000   0.94779166   -7.5760807     547.0499  0.024628575  0.024668336            2 
 1852000   0.95859844   -7.6476081    544.94164  0.024520412   0.02466163            1 
 1853000   0.94833227   -7.6261352    545.76385  0.024544156  0.024654908            1 
 1854000   0.95051682   -7.6049171    545.98982  0.024541074  0.024648108            2 
 1855000   0.95225988   -7.6288658    548.00874  0.024618542  0.024641313            1 
 1856000    0.9783066   -7.6304898    546.62499  0.024543148  0.024634523            2 
 1857000   0.94936499   -7.6428961    544.60071  0.024439091  0.024627649            1 
 1858000   0.94389575   -7.6590066    547.16448  0.024540926  0.024620783            1 
 1859000   0.96153381   -7.5888573    546.85018  0.024513635  0.024613956            3 
 1860000   0.96579879   -7.6308376    548.34061  0.024567232  0.024607267            3 
 1861000   0.97494942   -7.5935484    548.85371  0.024577007  0.024600562            2 
 1862000   0.97104397   -7.6250462    548.10316  0.024530217  0.024593923            2 
 1863000   0.93110321    -7.630214     549.6344  0.024585543  0.024587172            1 
 1864000   0.96067666   -7.6695314    547.15989  0.024461726  0.024580476            1 
 1865000   0.94695119   -7.6818328     547.1798    0.0244495   0.02457366            2 
 1866000   0.92143885   -7.6527853     548.0104  0.024473491   0.02456688            2 
 1867000   0.95869629    -7.613445    548.75465  0.024493602  0.024560119       -1e+20 
 1868000   0.95457414   -7.5989921    551.20303  0.024589714  0.024553469            4 
 1869000   0.95015971   -7.6299569    549.16692  0.024485773  0.024546913            2 
 1870000   0.93320472   -7.6240131    549.29039  0.024478181  0.024540293            2 
 1871000   0.95802609   -7.6500647    550.03204  0.024498131  0.024533656            2 
 1872000   0.94713562    -7.643791    549.25369  0.024450396   0.02452697            2 
 1873000   0.96440701   -7.6460598    549.22668   0.02443614  0.024520206            2 
 1874000   0.94064021   -7.6215802    549.83965  0.024450358  0.024513367            1 
 1875000   0.93856594   -7.6232442    550.60503  0.024471335  0.024506649            1 
 1876000    0.9514953   -7.6390296    549.23477  0.024397422  0.024499989            2 
 1877000   0.98503474   -7.6342971    551.05632  0.024465296  0.024493315            2 
 1878000   0.95116244   -7.6329456    551.27889  0.024462145  0.024486729            1 
 1879000   0.94382188   -7.5988109    552.73327  0.024513627  0.024480105            2 
 1880000   0.94465456   -7.6445981    552.27509  0.024480279  0.024473586            2 
 1881000   0.96340567   -7.6793745    549.88859  0.024361536  0.024467043            1 
 1882000   0.95107475   -7.6153459    552.24446  0.024452907  0.024460452            1 
 1883000   0.94538883   -7.6411723    552.69792  0.024459989  0.024453759            3 
 1884000   0.95634504   -7.6460858    550.60337   0.02435436  0.024447048            1 
 1885000   0.95561951   -7.6345613    551.97402  0.024402034   0.02444031            1 
 1886000   0.94758068   -7.6311061    551.62263   0.02437357  0.024433647            2 
 1887000   0.97341013   -7.6506188    551.16985  0.024340657  0.024426888            1 
 1888000   0.95267289   -7.6066279    553.13519  0.024414512   0.02442018            1 
 1889000    0.9573942    -7.641752    552.73553  0.024383957   0.02441355            4 
 1890000   0.94959006   -7.6671342    553.48746  0.024404209  0.024406883            2 
 1891000   0.93975058   -7.6178843    552.07621  0.024329112  0.024400165            1 
 1892000   0.95672118   -7.6554568    553.38064  0.024373707  0.024393512            2 
 1893000   0.96881593   -7.6120429    552.02086  0.024300971  0.024386858            1 
 1894000   0.97183921   -7.6513286    552.36938  0.024303475  0.024380247            3 
 1895000   0.95155986   -7.6347571    552.61204  0.024301321  0.024373459            2 
 1896000   0.95575371   -7.5969881    552.83885  0.024298473  0.024366764            2 
 1897000   0.95117048    -7.649984    554.92284  0.024377211  0.024360185            1 
 1898000   0.93314134   -7.6004088    554.08913  0.024327763  0.024353564            4 
 1899000   0.96279955    -7.655156    552.63102  0.024250966  0.024347002            3 
 1900000   0.94800533   -7.6765588    554.41339  0.024316377  0.024340387            1 
 1901000   0.93506491   -7.6394731    554.69958  0.024316131  0.024333846            4 
 1902000   0.95108824   -7.6481591    554.41104  0.024290704  0.024327275            1 
 1903000   0.98448746   -7.6568843    553.87547  0.024254487  0.024320644            1 
 1904000    0.9335313   -7.6845502    553.41214   0.02422147  0.024313984            2 
 1905000   0.94670541    -7.637761    555.03469  0.024279733  0.024307354            1 
 1906000   0.94336553   -7.6098281      557.021  0.024353839  0.024300858            4 
 1907000   0.96164951   -7.6267243    555.03467  0.024254268  0.024294259            2 
 1908000   0.95005897   -7.6720213    555.11694  0.024245149  0.024287661            2 
 1909000   0.91642638   -7.6670111    555.42296  0.024245808  0.024281134            4 
 1910000   0.92870759   -7.6060935    556.07875  0.024261726  0.024274629            3 
 1911000   0.95052953   -7.6355181    557.45302  0.024308958  0.024268094            2 
 1912000   0.93178973   -7.6427194    556.53431  0.024256202  0.024261609            1 
 1913000   0.93861325   -7.6424929    555.86993  0.024214581  0.024255225            2 
 1914000   0.95878121   -7.6507522    556.37066  0.024223731  0.024248763            6 
 1915000   0.93857793   -7.6101992    555.96324  0.024193352  0.024242347            1 
 1916000    0.9355059   -7.6233815    558.63204  0.024296801  0.024235902            2 
 1917000   0.96173801   -7.6186209    558.19186  0.024264991  0.024229528            3 
 1918000   0.94272362    -7.641721    557.71037   0.02423142  0.024223145            1 
 1919000   0.93296581   -7.6624778    559.58331  0.024300126    0.0242167            2 
 1920000   0.96338378   -7.6428015     558.8155  0.024254145  0.024210278            2 
 1921000   0.95227716   -7.6183238    559.52449  0.024272275  0.024203887            2 
 1922000   0.93988686   -7.6313366    558.08479  0.024197225  0.024197468            2 
 1923000   0.94020876    -7.664342    557.87091  0.024175373  0.024191112            2 
 1924000   0.94949221   -7.6275151    559.31553  0.024225378  0.024184746            1 
 1925000   0.95634307   -7.6400173    559.57062  0.024223836  0.024178324            1 
 1926000   0.90775698   -7.6536801    558.66918  0.024172256  0.024171956            4 
 1927000   0.94079134   -7.6290251     560.1263  0.024222725   0.02416551            2 
 1928000   0.94083368    -7.637108     562.0981  0.024295388  0.024159161            1 
 1929000    0.9527393    -7.636647    560.89355  0.024230756    0.0241528            3 
 1930000   0.94708688   -7.6381918    560.54957  0.024203349  0.024146477            1 
 1931000   0.93092596   -7.6608928    559.60625  0.024150106  0.024140119            2 
 1932000   0.94001501   -7.6293918    562.04362  0.024242737  0.024133725            1 
 1933000   0.93514742   -7.6702057    561.21438  0.024194447  0.024127398            2 
 1934000   0.96445889   -7.6506507    561.21451  0.024181942  0.024121039            2 
 1935000   0.93672493   -7.6370208     561.9373  0.024200573  0.024114691            1 
 1936000     0.938702    -7.644023     561.8972  0.024186347  0.024108383            2 
 1937000   0.94572678   -7.6551221    561.28626  0.024147576   0.02410204            2 
 1938000   0.92881458     -7.67044    561.44743  0.024142046   0.02409565            3 
 1939000   0.93212817   -7.6594337    561.72729  0.024141623  0.024089268            1 
 1940000    0.9502748   -7.6414105    562.44602  0.024160052  0.024082943            1 
 1941000   0.94765582   -7.6625677    561.79705  0.024119743  0.024076715            2 
 1942000   0.92791281    -7.664423    563.16476  0.024166013  0.024070403            2 
 1943000   0.96084976    -7.654836    563.50812  0.024168301  0.024064054            3 
 1944000   0.93978158   -7.6761652     561.9046  0.024087131  0.024057773            3 
 1945000   0.92092625   -7.6820859    563.93112  0.024161573  0.024051416            2 
 1946000   0.93238173   -7.6532432    563.14844  0.024115641  0.024045127            2 
 1947000   0.93518741   -7.6544963    564.23714  0.024149852   0.02403889            2 
 1948000   0.93041759   -7.6579595    565.14563  0.024176319  0.024032674            2 
 1949000   0.92368617   -7.6988879    561.82446  0.024021911  0.024026396            3 
 1950000   0.92584938   -7.6714141     564.2974  0.024115273  0.024020134            1 
 1951000   0.92290869   -7.6497463     564.0877  0.024093956  0.024013917            8 
 1952000   0.93734473   -7.6768528    563.17613  0.024042697  0.024007762            2 
 1953000   0.93498464   -7.6501309     565.0533  0.024110484  0.024001572            1 
 1954000   0.92885346   -7.6813712    564.98601  0.024095275  0.023995327            2 
 1955000   0.93241323   -7.7057708    564.82445  0.024076064  0.023989071            1 
 1956000   0.93705641   -7.6442935    565.00748  0.024071552  0.023982899            2 
 1957000   0.94577106   -7.6524415    564.61381  0.024042489  0.023976756            2 
 1958000   0.92591237   -7.6481838    566.68865  0.024118516  0.023970642            1 
 1959000   0.92739937   -7.6467174    566.83132  0.024112273  0.023964594            2 
 1960000   0.91615241   -7.6366459    567.05225  0.024109364    0.0239585            1 
 1961000    0.9213363   -7.6666146    564.99422  0.024009613  0.023952384            3 
 1962000   0.94933199   -7.6958586    567.33378  0.024096746  0.023946224            2 
 1963000   0.94636888   -7.6663427    566.62371  0.024054326  0.023940087            4 
 1964000   0.95124607   -7.6940601    567.26199  0.024069161  0.023933917            2 
 1965000   0.93988594   -7.6994166    567.20295  0.024054409  0.023927787            5 
 1966000   0.93645641   -7.6919583    565.37227  0.023964576  0.023921584            2 
 1967000   0.93457383   -7.7073593    565.80588  0.023970763  0.023915359            2 
 1968000   0.94147218   -7.6761965    567.90964  0.024047664  0.023909113            1 
 1969000   0.91416378   -7.6890967    566.40013  0.023971565  0.023902929            1 
 1970000   0.93026288   -7.6929588    565.60404  0.023925721  0.023896654            7 
 1971000   0.93956359   -7.6812173    566.32886  0.023944227  0.023890354            3 
 1972000   0.92960661   -7.6865366    566.20538  0.023926867   0.02388408            3 
 1973000   0.93228161   -7.6434141    568.15844  0.023997231  0.023877822            4 
 1974000   0.94046779   -7.6301509    568.56626  0.024002291  0.023871628            1 
 1975000   0.93397434   -7.6664046    567.05786  0.023926492  0.023865431            2 
 1976000   0.94213806   -7.6781169    567.54139  0.023934775  0.023859226            3 
 1977000    0.9249705   -7.6456539    568.37408  0.023957768  0.023852951            2 
 1978000   0.94359566   -7.6721935    568.33831  0.023944149  0.023846666            2 
 1979000      0.94895   -7.6742137    567.85354  0.023911636  0.023840389            2 
 1980000   0.93868003   -7.6968548    568.35756  0.023920773  0.023834182            2 
 1981000   0.93265532   -7.6780025    567.15201  0.023857985  0.023827894            1 
 1982000    0.9179264   -7.6474452    568.14782  0.023887816  0.023821591            2 
 1983000   0.94600949   -7.7010438    567.99216  0.023869228  0.023815223            2 
 1984000   0.94644342   -7.6608867     567.5462  0.023838466  0.023808891            2 
 1985000   0.92892992   -7.6880201    569.48788  0.023907971  0.023802634            2 
 1986000   0.92464438   -7.6929529    567.20313  0.023800064  0.023796295            2 
 1987000   0.91574908   -7.6868349    569.75471  0.023895098   0.02379004            1 
 1988000   0.92580878   -7.7052364    567.77571  0.023800122  0.023783748            1 
 1989000   0.94912207   -7.6398665    569.75024  0.023870883  0.023777568            2 
 1990000   0.95066094   -7.6844184    569.18442  0.023835193  0.023771398            2 
 1991000   0.93078432   -7.6823174    570.85881  0.023893304  0.023765176            1 
 1992000   0.93441923   -7.6807899    572.17337  0.023936302  0.023758992            1 
 1993000   0.94036511   -7.6723369    570.22543  0.023842843  0.023752807            2 
 1994000   0.91963368   -7.6793629    570.33521  0.023835474  0.023746632            3 
 1995000   0.92959504   -7.7076301    569.97252  0.023808376   0.02374049            1 
 1996000   0.91955389   -7.6722525    570.87481  0.023834119  0.023734272            2 
 1997000   0.92640521   -7.6456955      571.075  0.023830537  0.023728132            1 
 1998000   0.94914377   -7.6898364    571.83055  0.023850123  0.023721987            7 
 1999000   0.92388676   -7.6886031     572.6431  0.023872065  0.023715761            3 
 2000000   0.94339854   -7.6697244    571.41508  0.023808962  0.023709595            1 
 2001000   0.93805591   -7.6770996    571.41368  0.023797005  0.023703432            4 
 2002000    0.9463058   -7.6572557    570.15786  0.023732844  0.023697273            1 
 2003000   0.94592783   -7.7228534    571.36964  0.023771411  0.023691056            2 
 2004000   0.92163946   -7.6460204    571.41003  0.023761229   0.02368482            4 
 2005000   0.91299884   -7.7075007    571.56966  0.023756012  0.023678539            2 
 2006000   0.90739462   -7.6813385     571.4755  0.023740258  0.023672231            1 
 2007000   0.94933051   -7.7033058    571.20251  0.023717095  0.023665941            1 
 2008000   0.92030561   -7.6874947    570.70217  0.023684519  0.023659664            2 
 2009000    0.9428383   -7.6690487    571.62968  0.023711203   0.02365342            3 
 2010000   0.92867656   -7.6743555    571.90369  0.023710767  0.023647318            1 
 2011000   0.95043092   -7.7011084    572.87651  0.023739289  0.023641177            2 
 2012000   0.93290371    -7.701568    574.15934  0.023780622   0.02363499            2 
 2013000    0.9302887   -7.6987333    573.75046  0.023751882  0.023628796            3 
 2014000   0.92797057    -7.719653    572.77027  0.023699531  0.023622565            2 
 2015000   0.94369759   -7.6855592     573.8909  0.023734115  0.023616412            3 
 2016000   0.92395953   -7.7279533    573.92137  0.023723601  0.023610334            1 
 2017000     0.937483    -7.719618    574.04856  0.023717095  0.023604195            3 
 2018000   0.93434653   -7.7224378    573.65956  0.023689278  0.023598076            2 
 2019000   0.94935308   -7.7054452     574.8202   0.02372545  0.023592039            3 
 2020000   0.92242822   -7.7054876    574.69284   0.02370845  0.023585963            2 
 2021000   0.92268062   -7.7096162    574.77956  0.023700295  0.023579768            4 
 2022000   0.91425382   -7.7146891    573.86938  0.023651062  0.023573636            2 
 2023000   0.92627314   -7.6652332    576.21139  0.023735846  0.023567459            3 
 2024000    0.9181676   -7.7094487    574.01768  0.023633798  0.023561363            2 
 2025000   0.92418638   -7.6699012    577.09957  0.023748953    0.0235553            2 
 2026000   0.92654912   -7.7137437    576.00786  0.023692327  0.023549187            3 
 2027000   0.95219771   -7.6721982     575.7309  0.023669253   0.02354308            2 
 2028000   0.92111987   -7.6821126    574.55469  0.023609249   0.02353698            1 
 2029000   0.92411338   -7.7068055       575.21  0.023624528   0.02353082            2 
 2030000   0.94006533    -7.664776    574.90164  0.023600232  0.023524718            3 
 2031000   0.93776209    -7.702272     576.9398  0.023672239   0.02351865            2 
 2032000   0.92593038   -7.7112022    574.70941   0.02356912  0.023512521            3 
 2033000   0.91440622   -7.7140742     575.7228  0.023599065  0.023506357            2 
 2034000   0.94253848    -7.723765    574.93543  0.023555204  0.023500131            1 
 2035000   0.94345485   -7.7025185    577.12514  0.023633298  0.023493938            3 
 2036000   0.93099136   -7.6961776    575.14097  0.023540478  0.023487724            2 
 2037000   0.93711144   -7.7093619    576.28324  0.023575652  0.023481556            2 
 2038000   0.93233205     -7.69381    576.04899  0.023554506  0.023475343            1 
 2039000   0.91913822   -7.6749705    577.18249  0.023589279   0.02346906            1 
 2040000   0.94414087   -7.6816713    576.13453  0.023534907  0.023462817            1 
 2041000   0.92082515   -7.6834475    577.13057  0.023564044  0.023456512            2 
 2042000   0.93902807   -7.6705821    576.26146  0.023517036   0.02345026            2 
 2043000   0.93614827   -7.7277192    575.69835  0.023482556  0.023443966            1 
 2044000   0.92473537   -7.6819252    576.79836  0.023515915  0.023437689            2 
 2045000     0.932746   -7.7119747    576.75089  0.023502481  0.023431397            1 
 2046000    0.9373006   -7.6959591    576.79916   0.02349296  0.023425127            1 
 2047000   0.90046886   -7.7206411    577.38435  0.023505306  0.023418899            2 
 2048000   0.94499135   -7.7231197    578.14156   0.02352464  0.023412682            2 
 2049000   0.92273597   -7.6754862    578.54863  0.023529715  0.023406529            1 
 2050000   0.92000006   -7.6730005    576.65521  0.023441269  0.023400326            2 
 2051000    0.9317465   -7.6936091    578.00188  0.023484555  0.023394033            1 
 2052000   0.93648878   -7.6900996    577.89568  0.023468798  0.023387741            2 
 2053000   0.91483132   -7.7232295    577.16584  0.023427741  0.023381461            3 
 2054000   0.92636725   -7.7366437    577.86615  0.023444748  0.023375253            2 
 2055000   0.91420111   -7.6921078    577.59221  0.023422231  0.023368997            1 
 2056000   0.93541036   -7.7143416    578.05403  0.023429557  0.023362756            1 
 2057000   0.93732409   -7.7100344    578.02309  0.023416913  0.023356477            2 
 2058000   0.91081012   -7.7095091    578.55473  0.023427062  0.023350203            1 
 2059000   0.92778717   -7.7230278    579.39055  0.023449512   0.02334395            1 
 2060000   0.93162113   -7.7171906    578.27992  0.023393201  0.023337708            2 
 2061000   0.90901656   -7.6989255     578.7743   0.02340184  0.023331533            2 
 2062000   0.91620315   -7.7065985     580.4366   0.02345767  0.023325325            4 
 2063000   0.92266995   -7.7267863    579.19155  0.023396007  0.023319133            2 
 2064000   0.92063967   -7.6742869    580.24956  0.023427389  0.023312871            1 
 2065000   0.91854906   -7.7328857    578.67344  0.023352439  0.023306651            1 
 2066000    0.9470878   -7.6741025    580.93128  0.023432207  0.023300431            1 
 2067000   0.91653709   -7.7281201     580.2336  0.023392743  0.023294313            3 
 2068000    0.9207755   -7.7183898    579.67019  0.023358728  0.023288097            2 
 2069000   0.93123627   -7.7273415    580.64086  0.023386534  0.023281884            2 
 2070000   0.92592878   -7.7232995    580.06209  0.023351936  0.023275652            2 
 2071000   0.93161559     -7.69475    580.61223  0.023362797  0.023269517            2 
 2072000   0.91524146   -7.7322582    580.89965  0.023363081  0.023263257            2 
 2073000   0.92040343   -7.7168959    582.39515  0.023411929  0.023257056            1 
 2074000   0.92101537   -7.7226488    581.96001  0.023383157   0.02325086            2 
 2075000   0.90215355   -7.7152442    580.02126  0.023294027  0.023244683            3 
 2076000   0.90379326   -7.7507348    580.46596  0.023300657  0.023238482            2 
 2077000   0.90772435   -7.7230915    580.82068  0.023303671  0.023232312            3 
 2078000   0.92889876   -7.7065992    581.33904  0.023313243  0.023226158            2 
 2079000   0.90956349   -7.7030259    582.19785  0.023336454  0.023219969            1 
 2080000   0.92346029   -7.7002018    581.66954  0.023304068  0.023213738            7 
 2081000   0.92444326   -7.6982058    583.02968  0.023347336  0.023207602            2 
 2082000   0.90490735   -7.7114238     582.0098  0.023295301  0.023201494            5 
 2083000   0.93101236   -7.6929313    583.03234  0.023325026  0.023195304            2 
 2084000   0.90227401   -7.7002386    583.93812  0.023350053  0.023189195            3 
 2085000   0.90703015   -7.7446822    582.95824   0.02329969  0.023183049            1 
 2086000   0.94006147   -7.7535858    583.05694  0.023292463  0.023176873            2 
 2087000   0.91242858   -7.6966377      583.882  0.023314247  0.023170709            9 
 2088000   0.91695395   -7.6813226    582.30028  0.023239954  0.023164541            1 
 2089000   0.92534078   -7.7094059    582.85367  0.023250904   0.02315839            2 
 2090000   0.91397022   -7.7228931    582.49634  0.023225532   0.02315227            2 
 2091000   0.92495788   -7.7565547    583.37918  0.023249609  0.023146115            3 
 2092000   0.92659462   -7.7093171    582.26409  0.023194076  0.023139905            2 
 2093000   0.92718879   -7.7336439    582.56699  0.023195054   0.02313374            1 
 2094000    0.8897448   -7.6893198    584.61047    0.0232653  0.023127589            1 
 2095000   0.91979707    -7.719923    583.27125  0.023200925  0.023121448            1 
 2096000    0.9122755   -7.7431517    583.64679  0.023204787  0.023115259            2 
 2097000   0.91974533   -7.7327354    583.71251  0.023196332  0.023109045            2 
 2098000    0.8976698   -7.6884282    584.37892  0.023211746  0.023102874            2 
 2099000   0.90157711   -7.7169019    581.78445  0.023097683  0.023096665            2 
 2100000   0.91712799   -7.7320625    585.24306  0.023223931  0.023090445            2 
 2101000   0.89901764   -7.7342235    583.32182  0.023136674    0.0230842            2 
 2102000   0.91229592   -7.7096657    584.86769  0.023186953  0.023077959            2 
 2103000    0.9205146   -7.7122031    583.70264  0.023129761  0.023071728            2 
 2104000   0.92551723   -7.7119569    583.68092  0.023117907  0.023065491            1 
 2105000   0.90687332   -7.7188239    585.77418  0.023189793  0.023059289            2 
 2106000   0.92365163   -7.7052218    585.43158  0.023165226  0.023053084            1 
 2107000   0.92689732   -7.7037786    585.41809  0.023153698  0.023046853            1 
 2108000   0.93188314   -7.7614838    585.70038  0.023153873  0.023040627            2 
 2109000    0.9083044   -7.7371577    585.05248  0.023117294  0.023034404            2 
 2110000   0.89823837   -7.7226041     584.8443  0.023098116   0.02302814            2 
 2111000   0.92166552    -7.731097    585.12631  0.023098307  0.023021928            2 
 2112000   0.92095708   -7.7289163    584.35436  0.023056911  0.023015674            2 
 2113000   0.90671909   -7.7032571    585.02839  0.023072582  0.023009458            3 
 2114000   0.89677126   -7.7214287    587.67405  0.023165959  0.023003304            3 
 2115000   0.91223712   -7.7412653    586.24675  0.023098769  0.022997153            1 
 2116000    0.9203696   -7.7157222    586.25868  0.023088322  0.022991021            2 
 2117000   0.91919403   -7.7076493    587.80797  0.023138402  0.022984913            4 
 2118000   0.91307369   -7.7465531    585.11527  0.023021532   0.02297872            1 
 2119000   0.91444188   -7.7130525    586.40263  0.023061296  0.022972561            2 
 2120000   0.91467723   -7.7167133     586.7796  0.023065236  0.022966416            1 
 2121000   0.90307062   -7.7759641    587.20392  0.023071033  0.022960264            3 
 2122000   0.89153646   -7.7654135     585.8185  0.023005753   0.02295396            1 
 2123000   0.92928056   -7.7639295    585.76464  0.022992803  0.022947722            1 
 2124000    0.9216597    -7.724771    587.23234  0.023039561  0.022941536            2 
 2125000   0.91487164   -7.7480494    587.51762  0.023039907  0.022935349            1 
 2126000   0.92014744   -7.7588871    587.40616  0.023024701  0.022929197            2 
 2127000   0.92451869   -7.7570398    586.82654  0.022991167  0.022922987            3 
 2128000   0.91021213   -7.7563954    586.59836  0.022971427  0.022916798            1 
 2129000   0.88739459   -7.7441496    586.64773  0.022962569  0.022910631            2 
 2130000    0.9150198    -7.727493    588.41611  0.023020975  0.022904544            4 
 2131000   0.91652209   -7.6832374    589.41149  0.023049096   0.02289848            1 
 2132000   0.90053248   -7.7252609    588.56248    0.0230051  0.022892465            1 
 2133000   0.91988319   -7.7133543    589.41165  0.023027491  0.022886428            2 
 2134000   0.89554077   -7.7461709    589.66432  0.023026567  0.022880318            2 
 2135000   0.90846573   -7.7586481     589.6811  0.023016436  0.022874238            1 
 2136000   0.90060661   -7.7480208    589.84764  0.023012158  0.022868177            2 
 2137000   0.93104601     -7.74367    589.91871  0.023004161  0.022862121            1 
 2138000    0.9092003   -7.7345765    589.77334  0.022987735  0.022856105            3 
 2139000   0.90050884   -7.7493966    591.28627  0.023035931  0.022850067            2 
 2140000   0.90903284   -7.7290112    589.96922  0.022973879  0.022844108            1 
 2141000   0.90672993   -7.7384661    590.06744  0.022966972  0.022838063            2 
 2142000   0.92704067   -7.7579711    588.50214  0.022895353  0.022832099            6 
 2143000   0.91895823   -7.7982066    588.77625  0.022895328  0.022826001            1 
 2144000   0.89065464   -7.7344722    591.55556  0.022992676  0.022819944            3 
 2145000   0.92967452   -7.7357252    591.84919  0.022993364  0.022813934            2 
 2146000   0.89627588   -7.7400381    591.63771  0.022974437  0.022807932            1 
 2147000    0.9065595   -7.7488576    590.52894  0.022920701  0.022801919            2 
 2148000   0.91844919   -7.7661877    591.54798  0.022949565  0.022795921            4 
 2149000   0.90079355   -7.7556461    591.65662  0.022943098  0.022789877            1 
 2150000   0.91665977   -7.7261088    592.04448   0.02294746  0.022783892            4 
 2151000   0.90661004   -7.7210031    593.85396  0.023006894  0.022777983            2 
 2152000    0.8936243   -7.7247094    592.98423  0.022962525  0.022772084            2 
 2153000    0.8886015   -7.6864238    593.62757   0.02297676  0.022766165            3 
 2154000   0.91074316   -7.7059996    592.59763  0.022926247   0.02276016            1 
 2155000     0.890734   -7.7286531    593.30536  0.022942976  0.022754199            2 
 2156000   0.92030977   -7.7653762    591.95133  0.022879999  0.022748259            3 
 2157000   0.91796021     -7.77046     592.8684  0.022904821  0.022742313            3 
 2158000   0.91578784   -7.7373588    592.25423  0.022870491  0.022736317            2 
 2159000    0.9104277   -7.7527305    592.59533  0.022873064  0.022730321            3 
 2160000     0.898308   -7.7840737    591.63895  0.022825577  0.022724308            1 
 2161000   0.92872674   -7.7529256    593.03488  0.022868845  0.022718279            2 
 2162000   0.91532356   -7.7595217    592.11696  0.022822886  0.022712277            3 
 2163000   0.90877554   -7.7563964    593.31083   0.02285833  0.022706276            1 
 2164000   0.90245386   -7.7612505    593.01055  0.022836204  0.022700244            4 
 2165000   0.89769792   -7.7780171     592.9367  0.022822814  0.022694178            2 
 2166000   0.89346373   -7.7334391    593.51076  0.022834363  0.022688142            2 
 2167000   0.88974839   -7.7606695    592.52269  0.022785829  0.022682049            2 
 2168000   0.90628748   -7.7421513    594.16572  0.022838473  0.022676044            2 
 2169000   0.88794666   -7.7422138     594.3003  0.022833114  0.022670017            1 
 2170000   0.91223915   -7.7587857    593.43435  0.022789338  0.022663951            3 
 2171000   0.90007674   -7.7553473    595.87535  0.022872538  0.022657884            1 
 2172000   0.90258706   -7.7629859    594.26128   0.02280008  0.022651872            8 
 2173000   0.91447723   -7.7695611    595.31135  0.022829857   0.02264588            2 
 2174000    0.9022836   -7.7355667    594.55309   0.02279029  0.022639836            1 
 2175000   0.89611622   -7.7503565    596.69515  0.022861883  0.022633812            2 
 2176000   0.90969565   -7.7534599    595.38539  0.022801217  0.022627773            1 
 2177000   0.89691208    -7.765871    593.49167  0.022718254  0.022621717            2 
 2178000   0.89105134   -7.7254666    595.47717  0.022783791  0.022615649            3 
 2179000   0.91004265   -7.7634941     593.6122  0.022702012  0.022609587            2 
 2180000   0.89014511   -7.7741134    594.55629  0.022727687  0.022603539            1 
 2181000   0.91774905   -7.7409466     595.3569  0.022747856  0.022597576            1 
 2182000   0.88917901   -7.7653425    594.49171  0.022704389  0.022591562            1 
 2183000   0.89842956   -7.7461548    595.97656   0.02275067  0.022585578            1 
 2184000   0.91209662    -7.744169    598.95061  0.022853732  0.022579579            2 
 2185000   0.89450083     -7.76012    597.20714  0.022776779  0.022573609            1 
 2186000   0.94138187   -7.6862583    595.99264  0.022720061  0.022567575            3 
 2187000   0.91600634   -7.7651732    596.06185   0.02271231  0.022561606            3 
 2188000   0.92160088   -7.7273364    597.34848  0.022750932  0.022555557            2 
 2189000   0.87407846   -7.7302362    597.27638  0.022737794  0.022549525            2 
 2190000   0.89907375   -7.7491157    595.07208  0.022643534  0.022543525            3 
 2191000   0.91315162   -7.7646499    595.07477  0.022633302  0.022537503            2 
 2192000   0.89650199   -7.7449641    597.03848  0.022697631   0.02253148            2 
 2193000   0.90933678   -7.7956956    596.06257  0.022650196  0.022525337            1 
 2194000   0.90061744   -7.7755299    595.07357  0.022602308  0.022519212            3 
 2195000   0.90738836   -7.7945864    595.57611   0.02261109  0.022513116            1 
 2196000   0.90087504   -7.7521328    596.44365  0.022633715   0.02250705            6 
 2197000   0.90365822   -7.7459811    597.66126  0.022669597  0.022500981            2 
 2198000    0.9074247   -7.7500617    596.61441  0.022619594  0.022494909            3 
 2199000   0.90245335   -7.7753184     596.4763  0.022604074  0.022488809            4 
 2200000   0.92088375   -7.7581902    597.72601  0.022641137  0.022482698            1 
 2201000   0.90763981   -7.7682752    596.06836  0.022568089  0.022476602            2 
 2202000   0.90829324   -7.7407206    597.58588  0.022615269  0.022470486            1 
 2203000   0.90351448    -7.738066    595.60729  0.022530159  0.022464366            1 
 2204000   0.90398679   -7.7672647    596.50582   0.02255391  0.022458247            3 
 2205000   0.89189744   -7.7567123    597.60613  0.022585266  0.022452178            3 
 2206000   0.90697888   -7.7461963    598.23373  0.022598736  0.022446154            2 
 2207000   0.90645802   -7.7709076    597.03588  0.022543267  0.022440038            1 
 2208000   0.89145176    -7.758751    598.10217  0.022573301  0.022433893            1 
 2209000    0.9128548   -7.7677136    597.49671  0.022540241  0.022427754            1 
 2210000   0.91382814   -7.7680739    596.84721  0.022505551  0.022421638            3 
 2211000    0.8856375   -7.7741059    596.52587  0.022483261  0.022415477            2 
 2212000   0.88787862   -7.7476569    597.69408  0.022517107  0.022409305            1 
 2213000   0.90874377   -7.7831028    597.28929  0.022491689   0.02240316            3 
 2214000    0.9080704   -7.7993702     598.7216  0.022535441   0.02239692            4 
 2215000   0.88284693   -7.7961387    596.51111  0.022442103  0.022390668            2 
 2216000   0.88309913     -7.76676    599.25782  0.022535267  0.022384438            2 
 2217000    0.8943465   -7.7368572     597.9834  0.022477199  0.022378271            2 
 2218000   0.87928825   -7.7677839     599.0923  0.022508728  0.022372061            1 
 2219000   0.88953271   -7.7430722    599.18584  0.022502097   0.02236591            1 
 2220000   0.88721483   -7.7906578    598.49866  0.022466166  0.022359705            2 
 2221000   0.92205821    -7.775099     598.4405  0.022453868  0.022353535            1 
 2222000   0.90511854   -7.7715097    598.23494  0.022436054  0.022347379            2 
 2223000   0.91847204   -7.7483968     599.2896  0.022465497  0.022341221            1 
 2224000   0.90148512    -7.724826    599.69696   0.02247066  0.022335103            1 
 2225000   0.89316511   -7.7858364    598.31086  0.022408646  0.022329004            2 
 2226000   0.89671978   -7.7706939    599.92702  0.022459083  0.022322893            1 
 2227000     0.893757    -7.730743    599.80987  0.022444614  0.022316841            1 
 2228000   0.88650945   -7.7580021    598.35736  0.022380213  0.022310791            2 
 2229000    0.8868822   -7.7885008    599.57076  0.022415536  0.022304691            2 
 2230000   0.89817617   -7.7576521     601.7192   0.02248577   0.02229861            3 
 2231000   0.89591816   -7.7984583    601.46489  0.022466192  0.022292529            2 
 2232000   0.87117856   -7.7489502    601.39133   0.02245338  0.022286461            1 
 2233000   0.88383717   -7.7978355    600.49412  0.022409842  0.022280413            3 
 2234000   0.88877406    -7.811583    599.79621  0.022373777   0.02227435            2 
 2235000   0.88703241   -7.7917861    602.99431  0.022483009  0.022268295            2 
 2236000   0.87157032   -7.7595454     601.9529  0.022434142  0.022262274            2 
 2237000   0.88904414   -7.7554405     602.7454  0.022453636  0.022256255            2 
 2238000   0.90497525   -7.7640759    602.76232  0.022444233  0.022250218            2 
 2239000   0.87623576   -7.7579788    602.29287  0.022416736  0.022244214            2 
 2240000   0.89523226   -7.7669571    601.01303  0.022359116   0.02223822            2 
 2241000   0.88032508   -7.7727128    601.29776  0.022359726  0.022232132            3 
 2242000   0.89474432   -7.7813308    601.25704   0.02234824  0.022226057            2 
 2243000    0.9050269   -7.8038233    600.25779  0.022301151  0.022219908            4 
 2244000   0.89478178   -7.7447936    602.14238    0.0223612  0.022213777            2 
 2245000    0.9131507   -7.7832516    603.84111  0.022414295  0.022207723            1 
 2246000   0.89593387   -7.7790741    603.53004  0.022392774  0.022201671            1 
 2247000   0.89679151   -7.7650135    601.93419  0.022323624  0.022195607            1 
 2248000   0.88435167   -7.7983283    602.39202  0.022330665  0.022189524            3 
 2249000   0.89262327    -7.773736    601.95905  0.022304693  0.022183431            2 
 2250000   0.89115934   -7.7311296    603.76656  0.022361725  0.022177407            2 
 2251000   0.87183845    -7.760304    603.11989   0.02232785  0.022171418            2 
 2252000   0.89242128   -7.7521657    603.30542  0.022324801  0.022165397            2 
 2253000   0.89528315   -7.7854269     603.7408  0.022330996  0.022159371            2 
 2254000   0.89551754   -7.7355571    605.33556  0.022380049   0.02215336            2 
 2255000   0.91606702    -7.801406    602.99907  0.022283779  0.022147369            2 
 2256000   0.87373958   -7.7749899    603.84603  0.022305187  0.022141306            2 
 2257000   0.89471314   -7.7899823    603.13982   0.02226923   0.02213522            1 
 2258000   0.90848617   -7.7531432    604.10823  0.022295108   0.02212917            2 
 2259000   0.89790236   -7.7909843     604.0664  0.022283695  0.022123129            1 
 2260000   0.90862375   -7.7375493    604.82897  0.022301953  0.022117095            2 
 2261000   0.88526245     -7.79326    602.46918  0.022205115  0.022111004            3 
 2262000   0.86453799   -7.7480587    604.75831  0.022279631  0.022104939            1 
 2263000   0.89976862   -7.7835544    603.84275  0.022236071  0.022098874            2 
 2264000   0.88186653    -7.785442    602.36959  0.022172025  0.022092759            2 
 2265000   0.87561197   -7.8078433    602.75215  0.022176312  0.022086636            1 
 2266000   0.89870205   -7.7895499    602.61551    0.0221615  0.022080476            2 
 2267000   0.88522609   -7.7883496     603.2921  0.022176595  0.022074275            5 
 2268000   0.90010255   -7.7570089    603.25486  0.022165449  0.022068093            2 
 2269000   0.87296767   -7.8129533    602.39295  0.022124025  0.022061829            2 
 2270000   0.89533242    -7.786284    602.48456  0.022117642  0.022055597            1 
 2271000   0.86562062   -7.7994604    603.17492  0.022133235  0.022049354            1 
 2272000   0.87918361   -7.7719561    602.15196  0.022085973  0.022043125            1 
 2273000   0.90418611   -7.7755282    603.58212  0.022128689   0.02203695            8 
 2274000   0.91823387    -7.778228    603.57031  0.022118525  0.022030728            2 
 2275000   0.87978059   -7.7407359    604.27376   0.02213457  0.022024579            1 
 2276000   0.87283572   -7.7847119    604.49922    0.0221331  0.022018435            3 
 2277000    0.8814475   -7.8195818    602.99496  0.022068327  0.022012302            4 
 2278000   0.90084316   -7.7924038    604.65072   0.02211921  0.022006173            2 
 2279000   0.90647852   -7.8194674    604.51439  0.022104519  0.021999979            1 
 2280000   0.87731024   -7.8087362    604.90203  0.022108992  0.021993789            2 
 2281000   0.89589545   -7.8423247    603.00355  0.022029941  0.021987604            2 
 2282000   0.89642051   -7.8143548    602.77277   0.02201186  0.021981372            2 
 2283000   0.89185553   -7.8042978    605.60137  0.022105467  0.021975182            1 
 2284000   0.89414606   -7.8078808    605.04449   0.02207547  0.021968998            3 
 2285000   0.88755012   -7.8148016    604.43108  0.022043438  0.021962823            5 
 2286000   0.87674733   -7.8386896     604.0044  0.022018241  0.021956637            2 
 2287000   0.88295037   -7.7775428    606.33284  0.022093457  0.021950529            2 
 2288000    0.8774643   -7.7747571    605.58976  0.022056737  0.021944469            2 
 2289000   0.87048656    -7.817868    605.61602  0.022048057  0.021938398            3 
 2290000   0.87690315    -7.769222    606.09902  0.022056005  0.021932367            3 
 2291000   0.89043601   -7.8144923      605.649  0.022030009  0.021926315            1 
 2292000   0.90800227   -7.7705559    606.52492  0.022052244  0.021920251            1 
 2293000   0.89483105    -7.794776    608.03916  0.022097658  0.021914208            2 
 2294000   0.89937891   -7.8037248    606.75734  0.022041461  0.021908149            1 
 2295000   0.86704624    -7.778529    609.09147  0.022116611  0.021902145            1 
 2296000   0.88627721    -7.830838    606.47624  0.022012059  0.021896132            1 
 2297000   0.89451862   -7.8149854    605.65899  0.021972826  0.021890113            2 
 2298000   0.88389882   -7.8010876    608.24229  0.022056944  0.021884071            2 
 2299000   0.87917533      -7.7933    608.32628  0.022050394   0.02187808            2 
 2300000   0.86653329   -7.7889726    607.29955  0.022003607   0.02187207            1 
 2301000   0.88988779   -7.8233383    606.88152  0.021978905  0.021865978            2 
 2302000   0.88390827   -7.8007713    607.81926  0.022003304  0.021859915            3 
 2303000   0.88707265   -7.8297565    608.21094  0.022007922  0.021853864            3 
 2304000   0.88945352   -7.7932884    607.64393  0.021977862  0.021847791            5 
 2305000   0.87681612   -7.8120367    608.09938  0.021984793  0.021841736            1 
 2306000   0.87224234   -7.8146751    609.42671  0.022023226  0.021835721            3 
 2307000   0.88587164    -7.763646    608.81167  0.021991463   0.02182971            2 
 2308000    0.8710056   -7.7864062    609.07363  0.021991393  0.021823664            2 
 2309000   0.87554019   -7.8253126    608.63137  0.021965908  0.021817642            5 
 2310000   0.87280001   -7.8116468    608.99451  0.021969499  0.021811672            2 
 2311000   0.87308876   -7.7920868     610.8019  0.022025166    0.0218057            4 
 2312000   0.90580391   -7.7917672    610.23946  0.021995367  0.021799721            3 
 2313000   0.87586929   -7.7684554    610.29652  0.021987913  0.021793748            3 
 2314000   0.86741611   -7.8046424     610.5202  0.021986466  0.021787792            2 
 2315000   0.88864581    -7.820879    609.54857  0.021941993  0.021781838            2 
 2316000   0.88012411   -7.8223345    608.83133  0.021906712  0.021775847            1 
 2317000   0.88078179   -7.8257345    609.29039  0.021913767  0.021769866            1 
 2318000    0.9007134   -7.8307433    608.33533  0.021869979  0.021763854            3 
 2319000   0.88080774   -7.8212364    609.47179  0.021901387   0.02175784            2 
 2320000   0.87564118     -7.78829    609.20205  0.021882258  0.021751791            1 
 2321000   0.87908372    -7.819408    609.98071  0.021900787  0.021745761            2 
 2322000   0.86933837   -7.7919643    610.00683  0.021892292  0.021739724            3 
 2323000   0.90053819    -7.802132    610.25921  0.021891922  0.021733676            1 
 2324000   0.88106996   -7.8110731    608.81868  0.021830848  0.021727619            3 
 2325000   0.87623524   -7.7974333    609.72256  0.021853855   0.02172158            2 
 2326000   0.87872526   -7.7809747    611.11772  0.021894444  0.021715553            3 
 2327000    0.8840317   -7.7926086    610.74075  0.021871535  0.021709527            3 
 2328000   0.86557066   -7.8093333    609.77984  0.021827743  0.021703423            1 
 2329000    0.8902131   -7.8000058    612.17819  0.021904186  0.021697293            3 
 2330000   0.88864238   -7.7984443    610.45832  0.021833273  0.021691196            2 
 2331000   0.87581461   -7.8041808    610.20798  0.021814957  0.021685078            1 
 2332000   0.88815878   -7.7965707    610.44932  0.021814227  0.021678982            2 
 2333000   0.86313208   -7.8139915    611.83368  0.021854325  0.021672947            1 
 2334000   0.87585995   -7.8208231    609.84128  0.021773825  0.021666902            1 
 2335000   0.87935164   -7.8331458    611.17413  0.021812067  0.021660838            3 
 2336000   0.87536178   -7.8241537    609.56993  0.021745503  0.021654735            4 
 2337000   0.84862978   -7.8138546    610.42368  0.021766641  0.021648604            1 
 2338000   0.89144636   -7.7846543    611.05079  0.021779683   0.02164249            2 
 2339000   0.86087269   -7.8222387    610.33509  0.021744873  0.021636399            1 
 2340000   0.87610925   -7.8234455    610.98592  0.021758758  0.021630331            3 
 2341000   0.88796427   -7.8063867    612.40754  0.021800069  0.021624259            1 
 2342000   0.86935278   -7.8058616    611.93578  0.021773975  0.021618217            1 
 2343000   0.90334348   -7.8075893    610.44283  0.021711582  0.021612118            3 
 2344000   0.87447316   -7.8197089    609.64169  0.021673837  0.021606038            3 
 2345000   0.89425771   -7.8378405    611.65191  0.021736031  0.021599998            1 
 2346000   0.88149098   -7.8269761    611.35261  0.021716134  0.021593927            1 
 2347000   0.88033054   -7.8119411    611.95616  0.021728311  0.021587839            2 
 2348000   0.86291076   -7.8340714    612.65023  0.021743691  0.021581751            3 
 2349000   0.87315273    -7.823857     611.1939  0.021682769  0.021575672            1 
 2350000   0.88399129   -7.8120672    612.56355  0.021722112    0.0215696            1 
 2351000   0.86994809   -7.8201236    612.48322  0.021710025  0.021563548            6 
 2352000     0.880172   -7.8344793    611.26878  0.021657766  0.021557467            2 
 2353000    0.8836126   -7.8253256    611.78696  0.021666913  0.021551393            2 
 2354000   0.89535175   -7.8131081    612.31045  0.021676241    0.0215453            2 
 2355000   0.85176018   -7.8193998    612.38732  0.021669757  0.021539235            2 
 2356000   0.87106501    -7.801841    614.50908  0.021735607  0.021533225            5 
 2357000   0.88101963   -7.8027143    613.46001  0.021689294  0.021527233            3 
 2358000   0.87778436   -7.8196476    612.67485  0.021652348  0.021521223            2 
 2359000   0.89156925   -7.8046172    614.31331   0.02170105  0.021515171            5 
 2360000   0.88931202   -7.8081964    614.04424  0.021682353  0.021509138            1 
 2361000   0.86344629   -7.7858975    613.76761  0.021663406  0.021503142            3 
 2362000   0.87976817   -7.8281487    612.89169  0.021623331  0.021497167            2 
 2363000   0.86857605   -7.8258434      612.649  0.021605621  0.021491163            3 
 2364000   0.88583725   -7.7907575     614.2628   0.02165337  0.021485122            3 
 2365000   0.86303638   -7.8159284    613.90374  0.021631563  0.021479106            2 
 2366000   0.86130842   -7.8270728    612.51867  0.021573636  0.021473067            2 
 2367000   0.86533085   -7.8079157    614.97677  0.021651062  0.021467075            2 
 2368000    0.8633304   -7.8419706    613.06079  0.021574493  0.021461069            2 
 2369000   0.87557347   -7.8301926    613.94345  0.021596435  0.021455072            2 
 2370000   0.89159683    -7.830872    616.02148   0.02166039  0.021449099            2 
 2371000   0.87989825    -7.831031    615.89586  0.021646839  0.021443108            2 
 2372000   0.89358226   -7.7898291    615.40701  0.021620538  0.021437166            3 
 2373000   0.88456982    -7.850092    614.50197  0.021579645  0.021431174            5 
 2374000   0.86579992   -7.8513808    616.98578  0.021657743  0.021425094            2 
 2375000   0.87531543   -7.8435388     616.3569  0.021626558  0.021419083            2 
 2376000   0.87661193   -7.8296526    613.63317  0.021521927   0.02141308            3 
 2377000   0.86062558   -7.8494709    613.41154  0.021505102  0.021407046            4 
 2378000   0.86618119   -7.8338596    615.06729  0.021554082  0.021400988            1 
 2379000    0.8902215   -7.8082476    617.08766  0.021615793  0.021394932            3 
 2380000    0.8736875   -7.8198229    616.16381  0.021574363  0.021388896            1 
 2381000   0.86312201    -7.843241    615.78331  0.021551985  0.021382839            1 
 2382000     0.857512   -7.8172853    616.85439  0.021580408  0.021376817            3 
 2383000    0.8651386    -7.877391     614.0116   0.02147194  0.021370759            2 
 2384000   0.87249746   -7.8405008    616.04067   0.02153386  0.021364655            4 
 2385000   0.86943032   -7.8573929    614.61306   0.02147495  0.021358553            1 
 2386000   0.85725254   -7.8275722    615.42552  0.021494325  0.021352467            2 
 2387000   0.87315644   -7.8344398    615.13791   0.02147528  0.021346402            1 
 2388000    0.8622222   -7.8332848    614.95465  0.021459891  0.021340392            3 
 2389000   0.88065988   -7.8424327    615.88363  0.021483313  0.021334368            1 
 2390000   0.87152341   -7.8794605    615.73706  0.021469214   0.02132833            1 
 2391000    0.8755965   -7.8116464    615.91946  0.021466592  0.021322296            1 
 2392000   0.86097285   -7.8462561    617.20305  0.021502336  0.021316259            2 
 2393000   0.84853165    -7.825267    616.85369  0.021481184  0.021310256            1 
 2394000   0.87836801   -7.8396359    615.13905  0.021412526   0.02130425            1 
 2395000    0.8688121   -7.8305376    617.12626   0.02147273  0.021298305            2 
 2396000   0.86360504   -7.8175275    618.97328  0.021528008  0.021292379            2 
 2397000   0.85796818   -7.8412708    618.56003   0.02150466  0.021286458            4 
 2398000   0.86177625   -7.8522331     617.2052   0.02144861  0.021280469            3 
 2399000   0.86470943   -7.8676833    616.43374  0.021412871  0.021274536            1 
 2400000   0.86870985    -7.839974    617.17054  0.021429533  0.021268561            1 
 2401000   0.86282008   -7.8510102    617.33453  0.021426299  0.021262641            3 
 2402000   0.85289171   -7.8383489    618.69001  0.021464405    0.0212567            1 
 2403000   0.88620575   -7.8232534    619.51492  0.021484079   0.02125077            2 
 2404000   0.85140425   -7.8358109    617.71703   0.02141282  0.021244855            1 
 2405000     0.851937   -7.8673321    619.17104  0.021454298  0.021238927            1 
 2406000   0.84786449   -7.8575467    618.05692  0.021406793  0.021233038            1 
 2407000   0.87514786   -7.8291268    619.29229  0.021440669  0.021227097            1 
 2408000    0.8932595   -7.8407671    618.57782   0.02140704  0.021221211            4 
 2409000    0.8569693    -7.848944    619.45191   0.02142839   0.02121528            2 
 2410000   0.84653661   -7.8565454    618.94645  0.021402021   0.02120934            1 
 2411000   0.86993374   -7.8397702    619.75055  0.021420937  0.021203422            2 
 2412000   0.87379641   -7.8773832     617.4874  0.021333865  0.021197468            3 
 2413000   0.85797977   -7.8266175      620.352  0.021423954  0.021191499            1 
 2414000   0.84391691   -7.8570755    618.54108  0.021352564   0.02118554            3 
 2415000   0.85176011   -7.8305884     618.5976  0.021345673  0.021179579            1 
 2416000   0.85622581   -7.8160752    619.22333  0.021358421    0.0211736            1 
 2417000   0.86488825   -7.8461504    619.23168  0.021349872  0.021167661            1 
 2418000   0.84698575    -7.842016    618.43826  0.021313698  0.021161694            3 
 2419000   0.86958695    -7.835161    620.59067  0.021379037  0.021155739            2 
 2420000   0.87660047   -7.8499904    618.43901  0.021296109  0.021149779            2 
 2421000    0.8743053   -7.8301921    619.19825  0.021313446  0.021143848            1 
 2422000   0.88157039   -7.8566322    619.22271  0.021305488  0.021137919            2 
 2423000   0.85217652   -7.8600888    620.08497   0.02132635  0.021131991            3 
 2424000   0.86435431   -7.8417155    621.30338   0.02135944  0.021126031            1 
 2425000   0.87038865   -7.8575513     619.6524  0.021293897  0.021120078            1 
 2426000   0.86417627   -7.8950451    618.31647   0.02123923  0.021114096            2 
 2427000   0.87243206   -7.8756946    621.94662  0.021355124  0.021108121            2 
 2428000   0.87109013   -7.8743907    619.87838  0.021275342  0.021102166            2 
 2429000   0.86272834   -7.8374539    620.91356  0.021302098  0.021096231            3 
 2430000   0.86667217   -7.8424578    619.70579  0.021251913  0.021090361            2 
 2431000   0.85999972   -7.8813072    619.55607  0.021238039  0.021084435            2 
 2432000   0.84838266   -7.8414463     621.5339  0.021297077  0.021078505            6 
 2433000   0.87178868   -7.8615487    620.03645  0.021237034  0.021072572            2 
 2434000   0.85476104   -7.8884791    620.14762  0.021232115  0.021066644            2 
 2435000   0.87734911   -7.8674494    619.34893  0.021196062  0.021060664            1 
 2436000   0.84420929   -7.8728775    620.18986  0.021216128  0.021054665            2 
 2437000   0.88140613   -7.8690169    621.63698  0.021256907  0.021048732            2 
 2438000   0.87331299   -7.8443113    621.62806  0.021247883  0.021042823            2 
 2439000   0.86883701   -7.8783629    621.16914  0.021223491  0.021036904            3 
 2440000   0.89056362   -7.8343439    621.64479  0.021231038  0.021031003            2 
 2441000   0.87048783   -7.8572256    621.86239  0.021229769   0.02102516            1 
 2442000   0.86738367   -7.8895332    621.51751  0.021209306  0.021019286            1 
 2443000   0.86559941   -7.8382773    622.43446  0.021231903  0.021013439            2 
 2444000   0.84640376   -7.8623401    622.11082   0.02121218  0.021007533            3 
 2445000   0.84416527   -7.8958038    622.18939  0.021206182  0.021001617            3 
 2446000   0.87184628   -7.8611045    622.78392  0.021217768  0.020995739            3 
 2447000   0.87384966   -7.8734503    619.97293  0.021113368  0.020989856            3 
 2448000   0.85996534   -7.8639302    623.12229  0.021211952  0.020983984            6 
 2449000   0.85364308   -7.8903829    621.84524  0.021159835  0.020978071            4 
 2450000   0.87021471    -7.852276    622.40467  0.021170227  0.020972203            3 
 2451000   0.85958662     -7.87271    622.75095  0.021173363  0.020966369            1 
 2452000   0.88027837   -7.8698825    622.87844  0.021169061  0.020960492            2 
 2453000   0.86830879   -7.8585726    623.57148  0.021183975  0.020954643            2 
 2454000   0.85532714   -7.8695782    624.05058  0.021191612  0.020948812            1 
 2455000   0.88792251   -7.8485516    624.16876  0.021186991  0.020942994            3 
 2456000   0.85298441   -7.8429407    623.31377  0.021149354   0.02093714            2 
 2457000   0.86408885   -7.8268727    625.96011  0.021230502   0.02093132            1 
 2458000   0.86337648   -7.8319144    624.11277  0.021159234  0.020925479            2 
 2459000   0.86767158   -7.8592097    624.05399  0.021148637  0.020919621            1 
 2460000   0.86225332   -7.8799445    623.28875  0.021114117  0.020913789            4 
 2461000   0.86217975   -7.8684504     624.6859  0.021152848  0.020907956            1 
 2462000   0.87995052   -7.8429156    624.38554  0.021134089  0.020902083            1 
 2463000   0.84437938   -7.8638925     624.6575   0.02113471  0.020896251            2 
 2464000   0.88008765     -7.85135    624.49469  0.021120627  0.020890418            3 
 2465000    0.8494497   -7.9061464     623.9191    0.0210926  0.020884581            4 
 2466000   0.85349806   -7.8618752    624.83469  0.021114987  0.020878761            2 
 2467000    0.8469856    -7.865929    622.56868  0.021029884  0.020872886            1 
 2468000    0.8473819   -7.8859386    625.18481  0.021109698  0.020866996            2 
 2469000   0.85784735   -7.8935488    625.09794  0.021098216  0.020861074            4 
 2470000   0.84630387   -7.8656433    624.89899  0.021082962  0.020855147            3 
 2471000   0.84093409   -7.8973899    623.46785  0.021026165  0.020849212            3 
 2472000   0.87359428   -7.9145186    624.96658  0.021068183  0.020843282            2 
 2473000   0.85047035   -7.9034052    623.13992   0.02099811  0.020837425            2 
 2474000   0.87467786   -7.8776435    625.63573  0.021073691  0.020831602            1 
 2475000    0.8706175   -7.8854797    623.94012  0.021008085   0.02082574            3 
 2476000   0.84748415   -7.8593644    625.22217  0.021042749  0.020819903            2 
 2477000   0.85622196   -7.9274514    622.93756  0.020957393  0.020814017            2 
 2478000   0.84333817   -7.8913354    624.82299  0.021012342  0.020808144            1 
 2479000   0.83574633   -7.8604959    625.24114  0.021017922  0.020802327            1 
 2480000    0.8680401   -7.8789269    626.32642  0.021045915  0.020796525            1 
 2481000   0.84492451   -7.8800774    625.62071  0.021013728  0.020790743            8 
 2482000   0.87278292   -7.8748933    624.83117  0.020978753  0.020784907            3 
 2483000   0.84059731   -7.8686567    625.01208  0.020976375  0.020779048            2 
 2484000   0.86169758   -7.8961426    624.97324  0.020966628  0.020773183            1 
 2485000   0.86174814   -7.8890966    626.60511  0.021012914  0.020767316            1 
 2486000   0.85231293   -7.8668164    625.83789  0.020978744   0.02076147            3 
 2487000   0.86127057   -7.8816302    626.53551  0.020993684  0.020755638            2 
 2488000    0.8560078   -7.8816098    626.12339  0.020971443  0.020749791            2 
 2489000   0.85864803   -7.9075813    625.27786  0.020934708  0.020743892            3 
 2490000   0.84890509   -7.8861487    626.55877  0.020969169  0.020738011            2 
 2491000   0.85938345   -7.9004148    624.79075  0.020901604  0.020732067            2 
 2492000   0.82829918    -7.887489    625.99655  0.020933539  0.020726161            4 
 2493000   0.87292863   -7.8666195    626.16976  0.020930932  0.020720235            2 
 2494000   0.84460055   -7.9009128    625.25272  0.020891898  0.020714306            2 
 2495000   0.85197577   -7.9054335    626.16515     0.020914  0.020708389            2 
 2496000   0.84288256   -7.8904219    625.82787   0.02089436  0.020702454            3 
 2497000   0.86146144   -7.8715754    623.80771  0.020818573   0.02069655            4 
 2498000   0.84804968   -7.8879699    624.67563  0.020839192  0.020690607            1 
 2499000   0.84584781   -7.8909042    626.42508  0.020889192  0.020684661            3 
 2500000   0.86202234   -7.8495764    627.91826  0.020930609  0.020678757            1 
 2501000   0.85482884   -7.8991219    626.26625  0.020867195  0.020672911            2 
 2502000   0.84868798   -7.8945924    626.37368  0.020862433  0.020667007            3 
 2503000   0.85533666    -7.901247    626.27891  0.020850942  0.020661127            2 
 2504000   0.84081436    -7.862943    626.74363  0.020858081  0.020655222            1 
 2505000   0.86889207   -7.8727789    626.44478  0.020839813  0.020649332            1 
 2506000   0.84634512   -7.8709859     626.9057  0.020846824  0.020643426            1 
 2507000   0.84245551   -7.9085685    626.69401  0.020831472  0.020637494            5 
 2508000   0.84214316   -7.8860548    626.12055  0.020804112  0.020631613            2 
 2509000   0.84643746   -7.9165921    626.15348  0.020796914  0.020625702            1 
 2510000    0.8505969   -7.9058863    625.78601  0.020776428  0.020619766            2 
 2511000   0.85113301   -7.8947727     627.1416  0.020813142  0.020613844            1 
 2512000   0.82859009    -7.879057    626.30293  0.020777035  0.020607924            2 
 2513000   0.84554341    -7.839596    628.20537  0.020831853  0.020602007            1 
 2514000   0.86527337   -7.8962071    626.63979  0.020771672  0.020596079            1 
 2515000   0.85661161   -7.8604906    627.07661  0.020777886  0.020590211            2 
 2516000   0.84471902   -7.8772047    627.53426  0.020784786  0.020584332            2 
 2517000   0.85315857    -7.863681    627.87898  0.020787941  0.020578449            4 
 2518000   0.86442662   -7.8772627    628.83935  0.020811469   0.02057257            4 
 2519000   0.83868212   -7.8894183     627.5051  0.020759068  0.020566667            2 
 2520000   0.85469301   -7.8893364    626.69005  0.020723877  0.020560724            5 
 2521000   0.86411391   -7.8936259    627.79211  0.020752086  0.020554813            2 
 2522000   0.83759837    -7.913047    627.54088  0.020735557  0.020548843            2 
 2523000   0.85518137   -7.9033798    626.57163  0.020695324  0.020542912            2 
 2524000   0.82924459   -7.8988829    625.32159  0.020645853  0.020536907            1 
 2525000   0.85818866   -7.8879906    627.57974  0.020712203  0.020530926            1 
 2526000   0.84667008   -7.9190877    626.74202  0.020676366  0.020524976            2 
 2527000   0.83988927   -7.8852592    626.57227  0.020662586  0.020518987            2 
 2528000    0.8437174   -7.9164228    625.55584  0.020620907  0.020512984            2 
 2529000   0.85975138   -7.8774561    628.69652  0.020716242  0.020506994            5 
 2530000   0.83703533   -7.8801357      627.289  0.020661693  0.020501064            5 
 2531000   0.83624744   -7.8921554    627.33298  0.020654978  0.020495155            3 
 2532000   0.85199382   -7.8786828    627.44797  0.020650605  0.020489222            2 
 2533000   0.84988056   -7.8922769     627.7707   0.02065307  0.020483293            1 
 2534000    0.8353012    -7.900055    629.84446  0.020713117  0.020477389            1 
 2535000   0.84961915   -7.9087104    627.64338   0.02063259  0.020471517            2 
 2536000   0.85369178   -7.8858493    628.63058  0.020656893  0.020465643            2 
 2537000   0.82539448   -7.9223805    628.40736  0.020641419  0.020459717            2 
 2538000    0.8600331   -7.9273372    627.68609  0.020609604  0.020453754            1 
 2539000   0.84077326    -7.898118    628.81213  0.020638445  0.020447817            2 
 2540000   0.85592166   -7.8952889    627.66775  0.020592774  0.020441859            2 
 2541000   0.84274194    -7.872478    629.65896  0.020649972   0.02043595            3 
 2542000   0.82140685   -7.8941302    628.61285  0.020607555  0.020430027            5 
 2543000   0.83541923   -7.8728121    629.20919  0.020618993  0.020424105            2 
 2544000   0.86412786   -7.8889421    628.36717  0.020583306  0.020418257            2 
 2545000   0.85017857   -7.9128684    628.40939  0.020576601  0.020412321            1 
 2546000   0.86115209   -7.8706201    629.69404  0.020610567  0.020406425            2 
 2547000   0.85431042   -7.8840926    629.44465  0.020594315  0.020400527            1 
 2548000   0.85366634   -7.9102477    629.09132  0.020574677  0.020394635            2 
 2549000   0.85183576   -7.8918361    629.69762  0.020586427  0.020388695            1 
 2550000   0.85286061   -7.8837928    629.91808  0.020585558  0.020382746            2 
 2551000   0.85128233    -7.902632    627.30713  0.020492197  0.020376797            4 
 2552000   0.85912544   -7.9122182    628.04148  0.020508146  0.020370872            3 
 2553000   0.84663832   -7.8839358    629.22658  0.020538797  0.020364971            5 
 2554000   0.85966082   -7.8812536    630.08634  0.020558808  0.020359084            2 
 2555000   0.85779229   -7.8928881    629.94182  0.020546048  0.020353231            1 
 2556000   0.84331974   -7.9220371    628.49529  0.020490848   0.02034733            1 
 2557000   0.82805881   -7.8958336    632.72165  0.020620573  0.020341414            1 
 2558000   0.84060433   -7.9239392    630.26765  0.020532566  0.020335553            2 
 2559000    0.8406184   -7.9289188    629.52697  0.020500422  0.020329659            1 
 2560000   0.83415973    -7.880595    633.46926  0.020620744  0.020323768            1 
 2561000   0.83204124   -7.9287957    630.80124  0.020525877  0.020317954            1 
 2562000   0.84926821   -7.9053356    630.02865  0.020492735  0.020312086            3 
 2563000   0.85861831   -7.9254412    630.38806  0.020496425  0.020306229            2 
 2564000   0.84433795   -7.9055619    631.90439  0.020537714  0.020300401            4 
 2565000   0.84693007   -7.8916974    631.59611  0.020519692  0.020294576            2 
 2566000   0.83983412   -7.8808746    632.36554  0.020536683   0.02028879            2 
 2567000   0.83516394   -7.9210143    631.90726  0.020513805  0.020282991            2 
 2568000   0.83334747   -7.9143965    631.39379  0.020489155  0.020277186            2 
 2569000   0.84784101   -7.8962809    631.64953  0.020489475  0.020271362            3 
 2570000   0.85251941   -7.9002882    631.25323  0.020468652  0.020265522            1 
 2571000   0.84023364   -7.8709885    634.18822  0.020555822    0.0202597            1 
 2572000   0.84896469   -7.9131433    632.99131   0.02050905  0.020253881            2 
 2573000   0.85891699   -7.9412269     630.8467   0.02043162  0.020248048            2 
 2574000   0.83680776   -7.9026572    632.28461  0.020470235  0.020242218            3 
 2575000   0.81676013   -7.9001811    631.78076  0.020445979  0.020236369            3 
 2576000   0.82856024   -7.9099946     632.6262  0.020465392  0.020230503            2 
 2577000   0.83677892   -7.9422498    630.77439  0.020397568  0.020224623            2 
 2578000   0.84831206   -7.8906256    632.71828  0.020452492  0.020218723            2 
 2579000   0.86044969    -7.937654    631.56499  0.020407296  0.020212851            6 
 2580000   0.83961097   -7.9248591    631.79907  0.020406947  0.020206986            3 
 2581000   0.84105557   -7.9340203    630.94865  0.020371582  0.020201105            2 
 2582000   0.84597412   -7.9456446    632.17251  0.020403192  0.020195246            2 
 2583000    0.8184056   -7.9324023    631.94616  0.020387991  0.020189335            2 
 2584000   0.84855211   -7.9537408    631.65488  0.020370707   0.02018342            2 
 2585000   0.83472667   -7.9286023    631.49243   0.02035759  0.020177497            1 
 2586000    0.8463681   -7.9021788    632.85465  0.020393615  0.020171623            2 
 2587000   0.84604174   -7.9023814    631.65411  0.020347059  0.020165769            4 
 2588000   0.85942586   -7.9281471    632.73471  0.020373992  0.020159918            2 
 2589000    0.8481951   -7.8897391    634.23007  0.020414255  0.020154095            1 
 2590000   0.84145418   -7.9352672    632.96781   0.02036576  0.020148286            2 
 2591000   0.83840397   -7.9422772    632.09094  0.020329697   0.02014242            3 
 2592000   0.84019739    -7.905239    633.25821  0.020359382  0.020136585            3 
 2593000   0.83190471   -7.9420277    633.77657  0.020368189  0.020130791            1 
 2594000   0.85313991   -7.9118196    633.27623  0.020344263  0.020124973            3 
 2595000   0.83800207   -7.9169869    634.28707  0.020368885  0.020119186            2 
 2596000   0.82189006   -7.9444224    634.47048  0.020366926  0.020113352            2 
 2597000   0.82592779   -7.9234955    634.43495  0.020357943   0.02010755            3 
 2598000   0.84039652   -7.9305595    634.77812  0.020361115  0.020101718            2 
 2599000   0.84083376   -7.9423515    633.93013  0.020326091  0.020095865            2 
 2600000     0.829125    -7.956267     634.2188  0.020327526  0.020090023            2 
 2601000   0.84380559   -7.9063074    636.14611  0.020381459  0.020084175            2 
 2602000   0.83865993   -7.9237029    634.18018  0.020310664  0.020078315            2 
 2603000   0.84407367   -7.9380288    633.93436  0.020294992  0.020072462            2 
 2604000   0.84088007   -7.9324952    634.26157  0.020297669  0.020066609            2 
 2605000   0.82657526   -7.9243829    634.59787  0.020300636  0.020060766            1 
 2606000   0.83237992   -7.9371778    633.50007  0.020257741  0.020054911            4 
 2607000   0.82594207   -7.9212531    634.49335  0.020281721  0.020049056            2 
 2608000   0.83626042   -7.9478206    633.07682  0.020228682  0.020043243            4 
 2609000    0.8195822   -7.9317975    632.67979  0.020208247  0.020037398            2 
 2610000    0.8199092    -7.942806    633.56235  0.020228683  0.020031545            5 
 2611000    0.8178537    -7.936153    636.18958  0.020304787  0.020025733            1 
 2612000   0.83804709   -7.9104445    633.07988  0.020197801  0.020019958            4 
 2613000   0.84316981   -7.9181552     635.9486   0.02028156  0.020014182            1 
 2614000   0.84313692   -7.9320903    636.23589   0.02028296  0.020008413            2 
 2615000   0.83617888   -7.9088639    635.67057  0.020257188  0.020002659            2 
 2616000   0.82834719   -7.9127039    636.43498  0.020273795  0.019996914            2 
 2617000   0.84209438   -7.9606699    633.67386  0.020178126  0.019991121            4 
 2618000   0.82806665   -7.9089135    635.95176  0.020242926  0.019985309            1 
 2619000   0.85476991   -7.9150923    634.80962  0.020198855  0.019979511            3 
 2620000   0.83790695   -7.9257398    635.71293  0.020219877  0.019973718            1 
 2621000   0.85270984   -7.9088056    635.70617  0.020211948  0.019967966            2 
 2622000   0.83863843   -7.9257703    636.96009  0.020244091  0.019962222            3 
 2623000   0.81441069   -7.9061517    636.03428   0.02020696  0.019956474            1 
 2624000   0.83920634   -7.9621944    636.56657  0.020216164  0.019950708            1 
 2625000   0.84022956   -7.9432175    636.21916  0.020197434  0.019944923            1 
 2626000   0.81687376   -7.9290169    635.02014  0.020151693  0.019939144            3 
 2627000   0.82703656   -7.9710632    635.06179  0.020145343  0.019933331            2 
 2628000    0.8367472   -7.9660548    635.23743  0.020143247  0.019927536            2 
 2629000   0.84500029   -7.9416181    636.26613  0.020168192  0.019921744            2 
 2630000   0.83697899   -7.9327101    635.87813   0.02014823  0.019915919            1 
 2631000   0.82120217   -7.9451344    636.41661  0.020157627  0.019910139            1 
 2632000   0.83459049   -7.9469989    636.30851  0.020146546  0.019904421            2 
 2633000   0.85884891   -7.9038155    636.55403  0.020146665  0.019898693            2 
 2634000    0.8327932   -7.9250477    637.00541  0.020153297  0.019892986            1 
 2635000   0.82196194   -7.9143521    637.42045  0.020158775  0.019887257            2 
 2636000   0.82654469   -7.9127282    638.45881  0.020183953  0.019881526            5 
 2637000    0.8194822   -7.9210111     636.4075  0.020111475    0.0198758            7 
 2638000   0.81447992   -7.9532771    637.34013  0.020133312  0.019870044            4 
 2639000   0.84097666   -7.9343637    636.54937  0.020100713  0.019864274            4 
 2640000    0.8281958    -7.945935     637.3795  0.020119302  0.019858538            1 
 2641000   0.83394427   -7.9337628    638.98724  0.020162414  0.019852836            2 
 2642000   0.84679089   -7.9458743    638.00677  0.020123857  0.019847114            1 
 2643000    0.8198669   -7.9135491    639.44986  0.020161744  0.019841394            3 
 2644000   0.82323402   -7.9480181    637.56495   0.02009471  0.019835675            2 
 2645000   0.81998952   -7.9245261    638.75607   0.02012464  0.019829936            2 
 2646000   0.82200922   -7.9053189    638.92452  0.020122339  0.019824225            2 
 2647000   0.83888508    -7.929665    637.06315  0.020056137  0.019818469            5 
 2648000   0.82513867   -7.9703157    636.11631  0.020018766  0.019812703            1 
 2649000    0.8500964    -7.934375    637.17759  0.020044595  0.019806929            2 
 2650000   0.82023691   -7.9409656    638.06711  0.020065003  0.019801149            1 
 2651000   0.82524318   -7.9439982    636.84995  0.020019174   0.01979538            2 
 2652000   0.83574437   -7.9686807    635.68328  0.019974965  0.019789609            1 
 2653000   0.84190328   -7.9765022    636.99036  0.020008492  0.019783818            2 
 2654000   0.83612908   -7.9592961    636.31052  0.019979607  0.019778027            2 
 2655000   0.82362905   -7.9801764    636.96977  0.019992774  0.019772279            6 
 2656000   0.83970561   -7.9290156    637.93791  0.020015622   0.01976652            2 
 2657000   0.83618472   -7.9367145    638.24126  0.020017603  0.019760805            2 
 2658000   0.81305507   -7.9369341    638.26053  0.020010676  0.019755113            1 
 2659000    0.8339881   -7.9250305    639.88219  0.020053974  0.019749434            1 
 2660000     0.825699   -7.9315667    637.67759  0.019977368  0.019743721            2 
 2661000   0.83182444     -7.93709    638.05075  0.019981547  0.019738028            2 
 2662000   0.81003312    -7.938377    638.56274  0.019990068  0.019732296            2 
 2663000   0.84086164   -7.9673482     640.0052    0.0200277  0.019726546            2 
 2664000   0.83950599    -7.972101    638.32162  0.019967518  0.019720817            1 
 2665000   0.83245144   -7.9456531    639.11466  0.019984824  0.019715055            2 
 2666000   0.82147503   -7.9554067    638.53581  0.019959234  0.019709316            4 
 2667000   0.81273076    -7.971048    640.46166  0.020011925  0.019703593            3 
 2668000   0.81311467   -7.9354079    638.89841  0.019955598  0.019697929            2 
 2669000   0.83542499   -7.9212029    638.30876   0.01992971  0.019692251            1 
 2670000   0.83838395    -7.986066    638.10074  0.019915753  0.019686557            1 
 2671000   0.81715381   -7.9335652    640.88203  0.019995071  0.019680909            2 
 2672000   0.83814855   -7.9604451    639.07141  0.019931119  0.019675236            3 
 2673000   0.82635997   -7.9842726    638.31964  0.019900226  0.019669521            3 
 2674000   0.82448486    -7.980389    638.67482  0.019903852  0.019663778            1 
 2675000    0.8018458   -7.9665692    640.37676  0.019949432  0.019658064            2 
 2676000   0.84280265   -7.9498668    639.14029  0.019903472  0.019652364            4 
 2677000    0.8250885   -7.9346915     640.2586  0.019930849  0.019646675            4 
 2678000   0.82767004    -7.956459    639.68412   0.01990553  0.019640996            3 
 2679000   0.84184082    -7.965423    640.24186  0.019915449  0.019635289            2 
 2680000   0.82634267   -7.9246947    641.44425  0.019945406  0.019629586            1 
 2681000   0.82410253    -7.927049    641.02886  0.019925055  0.019623919            2 
 2682000   0.83115167   -7.9457223     642.1329   0.01995193  0.019618271            1 
 2683000   0.82246984   -7.9645475    640.82448  0.019903854  0.019612614            2 
 2684000   0.81868725   -7.9560515    640.35349  0.019881815   0.01960692            6 
 2685000   0.83528968   -7.9584342    640.49154  0.019878695  0.019601253            6 
 2686000   0.81490364   -7.9564403    640.46777  0.019870556  0.019595548            2 
 2687000   0.83806876    -7.974989    640.20436  0.019854992  0.019589864            5 
 2688000   0.81570718   -7.9532014    641.97876  0.019902615   0.01958419            1 
 2689000   0.83718888   -7.9704547    639.57921  0.019820851  0.019578533            2 
 2690000   0.83628067   -7.9747657    640.99352  0.019857296  0.019572856            2 
 2691000   0.83531706   -7.9542316    640.71573  0.019841314  0.019567156            2 
 2692000   0.83075359   -7.9704196    640.35271  0.019822706  0.019561441            3 
 2693000   0.82108719   -8.0152954    638.08123  0.019745056    0.0195557            4 
 2694000   0.81350144   -7.9800768    639.63828  0.019785891   0.01954991            1 
 2695000   0.82452782   -7.9589899    639.23499  0.019766079   0.01954417            1 
 2696000   0.81874114   -7.9667641    640.55834  0.019799652  0.019538421            2 
 2697000   0.82878353   -7.9722719    641.12688  0.019809878  0.019532689            2 
 2698000   0.83804363   -7.9638229    642.00892  0.019829779  0.019526959            4 
 2699000   0.81723369   -7.9586366    641.04337   0.01979262  0.019521241            3 
 2700000   0.83436052   -7.9748746    641.10318  0.019787135  0.019515541            3 
 2701000   0.83400105    -7.973281     640.7885  0.019770101  0.019509829            6 
 2702000   0.82102685   -7.9423534    640.72388  0.019760791  0.019504142            2 
 2703000   0.83774267   -7.9549295    639.92306  0.019728791  0.019498455            5 
 2704000   0.83099712   -7.9715291    640.73044  0.019746377  0.019492741            1 
 2705000   0.82185715   -7.9704226    641.47594  0.019762044  0.019487032            2 
 2706000   0.81055791   -7.9632116    640.65523  0.019729466  0.019481323            2 
 2707000     0.816475   -7.9537434      641.558  0.019749969  0.019475614            1 
 2708000   0.83831055    -7.981232    640.97701  0.019724797  0.019469871            3 
 2709000    0.8138366   -7.9984635    640.17626  0.019692884  0.019464103            2 
 2710000   0.83185059   -7.9524286    641.59909  0.019729369  0.019458343            1 
 2711000   0.80836469   -7.9693866    642.06583  0.019736439  0.019452596            2 
 2712000   0.82507988    -7.952472    640.19711   0.01967174  0.019446866            2 
 2713000   0.82926852   -7.9726052    640.55416  0.019675456  0.019441153            2 
 2714000   0.80815634   -7.9509482    641.95443  0.019711202  0.019435471            2 
 2715000    0.8212845   -7.9693033    642.45108  0.019719186  0.019429767            1 
 2716000   0.82055452   -7.9529087    642.02216  0.019698765  0.019424086            2 
 2717000   0.82756855   -8.0015079    641.80124  0.019684739  0.019418398            1 
 2718000   0.82653993    -7.972844    642.45918  0.019697669  0.019412714            2 
 2719000   0.83789588   -7.9595681    641.53964  0.019662242  0.019407076            3 
 2720000   0.80507319   -7.9439022    644.66674  0.019750819  0.019401432            1 
 2721000   0.80672289   -7.9393476    643.45948  0.019706587  0.019395816            1 
 2722000   0.81606683   -7.9786077    641.48909  0.019639024  0.019390173            2 
 2723000   0.81584618   -7.9790463    642.83637  0.019673043  0.019384507            4 
 2724000    0.8065053    -7.943329      642.823  0.019665412  0.019378841            3 
 2725000   0.81484135   -8.0140914    641.09875  0.019605467  0.019373171            1 
 2726000   0.82107574   -7.9673647    641.74717  0.019618096  0.019367481            1 
 2727000   0.81152173   -7.9801126    642.99962  0.019649175  0.019361759            3 
 2728000   0.80895999   -7.9879519    642.83076  0.019636814  0.019356077            2 
 2729000   0.81596798   -7.9878102    641.22376  0.019580547  0.019350403            3 
 2730000     0.808802   -8.0052145    641.96647  0.019596046  0.019344691            2 
 2731000    0.8156947   -7.9929567    642.52206  0.019605824  0.019338985            2 
 2732000   0.80495389   -7.9710219    642.48553  0.019597533  0.019333282            1 
 2733000   0.80852373   -7.9949156    643.30208   0.01961526  0.019327557            1 
 2734000   0.81835278    -7.995126    642.48274  0.019583112  0.019321826            2 
 2735000   0.81044687   -7.9793874    642.57813  0.019578858  0.019316134            3 
 2736000   0.81934544    -7.995874    643.68693  0.019605474  0.019310447            3 
 2737000   0.80596195   -7.9845138     641.0344   0.01951755  0.019304722            1 
 2738000   0.80054365   -8.0197839    641.37646  0.019520832  0.019298997            2 
 2739000   0.82582566   -7.9903414    641.70147  0.019523593  0.019293263            1 
 2740000   0.81326077   -7.9933443    642.43432  0.019538757  0.019287568            4 
 2741000   0.81849167   -8.0209805    642.14654  0.019522879  0.019281872            2 
 2742000   0.79717976   -8.0109988     644.3125  0.019581586  0.019276166            1 
 2743000   0.81403163   -8.0240816    643.66104  0.019554656  0.019270464            2 
 2744000   0.81524127   -8.0123014    643.58371  0.019545181  0.019264781            2 
 2745000   0.79906057     -8.01006    643.28952  0.019529129  0.019259081            3 
 2746000   0.81537265   -8.0128013    643.75711  0.019536208  0.019253382            2 
 2747000   0.82054436   -8.0017126    643.52406  0.019522026  0.019247686            1 
 2748000   0.80235813   -8.0094421    643.33939  0.019509322  0.019242022            3 
 2749000   0.82363208   -8.0140036    642.01372  0.019462038  0.019236348            5 
 2750000   0.81948006   -7.9719105    642.86589  0.019480785  0.019230657            4 
 2751000   0.83417941    -7.989086    644.01386  0.019508477  0.019224961            2 
 2752000   0.81626114   -7.9774036    643.22155  0.019477397  0.019219303            4 
 2753000   0.81550003   -7.9679339    643.61856  0.019482339   0.01921363            2 
 2754000   0.80802824    -8.005042    642.11511  0.019429772  0.019207952            1 
 2755000   0.81637396   -7.9765922    643.51728  0.019465133  0.019202253            1 
 2756000   0.82266042   -7.9619085    642.81858  0.019436943  0.019196565            2 
 2757000   0.81301482   -7.9629116    645.08518  0.019498403  0.019190901            2 
 2758000   0.81391948   -7.9726483    644.49234  0.019473421  0.019185207            3 
 2759000   0.82083065   -7.9901678    643.18121  0.019426761  0.019179518            3 
 2760000   0.80904876    -7.979732    644.69944  0.019465563  0.019173862            1 
 2761000   0.81700126   -8.0126576    644.42943  0.019450363  0.019168171            1 
 2762000   0.80530923   -7.9841622    645.29973  0.019469579  0.019162506            2 
 2763000   0.80638968   -8.0051506    644.29128  0.019432117   0.01915682            3 
 2764000   0.82592093     -8.01536    643.63583  0.019405325  0.019151124            2 
 2765000   0.81175257   -7.9882495     645.8591  0.019465314  0.019145424            2 
 2766000    0.8044175   -8.0142398    643.21062  0.019378483  0.019139719            2 
 2767000    0.8054991   -8.0207106    644.31707  0.019404803  0.019133992            2 
 2768000   0.80827038   -8.0017057    642.61184  0.019346455  0.019128251            2 
 2769000   0.81388422   -7.9845771    643.40036  0.019363199   0.01912257            2 
 2770000   0.78785654   -8.0158396    642.67795  0.019334475  0.019116863            5 
 2771000   0.80206778   -8.0101791    643.73208  0.019359199  0.019111145            3 
 2772000   0.82871285   -7.9908805    644.30999  0.019369588  0.019105464            2 
 2773000    0.7965027   -7.9963077    644.53937  0.019369496   0.01909978            2 
 2774000   0.81854363   -7.9758408    644.02011  0.019346915  0.019094075            3 
 2775000   0.80181801   -7.9789585     644.3889  0.019351018  0.019088388            2 
 2776000   0.80613704    -7.992239    644.43148  0.019345326  0.019082658            2 
 2777000   0.81177238    -7.989864    644.80747  0.019349642   0.01907695            2 
 2778000   0.81595421   -8.0091644    643.37575  0.019299729  0.019071237            2 
 2779000   0.80608823   -7.9867281    645.61191  0.019359839  0.019065568            2 
 2780000   0.80744703   -7.9548863    646.58509  0.019382047  0.019059894            3 
 2781000   0.82367347   -7.9853773     644.8088  0.019321851  0.019054247            1 
 2782000    0.8073875     -8.01411    645.39438  0.019332446  0.019048563            2 
 2783000   0.79728577    -8.036941    644.41597  0.019296202  0.019042877            3 
 2784000   0.79873199   -8.0110815    643.50667  0.019262053  0.019037184            2 
 2785000   0.82144576   -8.0228391    643.79075  0.019263637  0.019031467            1 
 2786000   0.78957849   -8.0295503    644.45539  0.019276603  0.019025765            3 
 2787000   0.79912121   -8.0218133    644.89266  0.019282761  0.019020067            1 
 2788000   0.80342781   -8.0468805    643.33189  0.019229193  0.019014387            2 
 2789000   0.80046604   -8.0261112    644.85841   0.01926791  0.019008654            4 
 2790000   0.78551333   -7.9960531    644.11684  0.019238854  0.019002932            1 
 2791000   0.80607311   -8.0067482    645.92958  0.019286086  0.018997196            2 
 2792000    0.8091096   -8.0147133    645.69963  0.019272315  0.018991465            2 
 2793000   0.80815362   -8.0087442    644.53321  0.019230613  0.018985702            2 
 2794000   0.81930314   -8.0317624    645.42515  0.019250332  0.018979939            3 
 2795000   0.81639067   -8.0028158    644.91592  0.019228262  0.018974198            1 
 2796000   0.79387733   -7.9877735     645.9148  0.019251156  0.018968468            2 
 2797000     0.818128    -8.008922     645.3828  0.019228423  0.018962734            1 
 2798000   0.80425069   -8.0327141    644.42069  0.019192896  0.018956983            3 
 2799000   0.82597615   -8.0300865    644.30556  0.019182612  0.018951254            2 
 2800000   0.80798154   -8.0036729    644.53125  0.019182478  0.018945521            4 
 2801000   0.80746153   -8.0223037    645.92575  0.019217117  0.018939782            2 
 2802000   0.80427092   -8.0228868    645.83931  0.019207688  0.018934054            2 
 2803000   0.80433128   -8.0138551    645.07083  0.019177989  0.018928328            6 
 2804000   0.79688796   -7.9998883    645.52761  0.019184725  0.018922625            4 
 2805000   0.81347808   -7.9859904    644.82636  0.019157052  0.018916918            1 
 2806000   0.79807814   -7.9906128    645.53104  0.019171152  0.018911211            3 
 2807000   0.81586356   -8.0330844    644.75749  0.019141358  0.018905496            2 
 2808000   0.78936386   -8.0309174      644.704  0.019132953  0.018899767            3 
 2809000   0.79238329   -8.0125243    644.70299  0.019126112  0.018894016            2 
 2810000   0.81254059   -7.9981214    645.35713  0.019138705  0.018888226            3 
 2811000   0.79346526   -8.0019911    645.50644  0.019136323  0.018882463            3 
 2812000   0.79209335   -8.0214486    644.67838  0.019104978  0.018876705            3 
 2813000   0.81893689   -7.9962596     645.2693  0.019115692  0.018870954            2 
 2814000   0.80702584   -8.0035622    645.30031  0.019109817  0.018865201            2 
 2815000   0.81130829   -7.9924665    644.49329  0.019079138  0.018859449            4 
 2816000    0.8023094   -7.9908579    645.34749  0.019097641    0.0188537            2 
 2817000   0.78072634   -8.0002597    645.25175  0.019088029  0.018847942            3 
 2818000   0.79203124   -8.0160713     644.9208  0.019071469  0.018842185            4 
 2819000   0.79823429   -8.0169144     645.4021  0.019078932   0.01883641            1 
 2820000   0.80586469    -8.011872    645.22879  0.019067045  0.018830619            2 
 2821000   0.80646379   -8.0146524    643.03846  0.018995582  0.018824811            2 
 2822000   0.79784876   -8.0048695    644.12156  0.019020835  0.018819003            3 
 2823000   0.79411164    -8.010237    643.01265  0.018981363  0.018813211            2 
 2824000   0.80627291   -8.0347789    644.98176  0.019032748  0.018807385            1 
 2825000   0.79537994   -8.0012486    644.16922  0.019002042  0.018801565            1 
 2826000   0.78979916    -7.994174    646.11282  0.019052631  0.018795802            2 
 2827000   0.79508884   -8.0285067     645.7976  0.019036599  0.018790054            2 
 2828000   0.77660582   -8.0193313    645.04948  0.019007823  0.018784262            1 
 2829000   0.79692604   -8.0231587    644.93865  0.018997839  0.018778472            3 
 2830000   0.80471008   -8.0144423    645.27144  0.019000926  0.018772721            1 
 2831000   0.79712558   -8.0129577    646.54296  0.019031643  0.018766974            1 
 2832000   0.80403039   -8.0232653    646.52213  0.019024309  0.018761212            2 
 2833000   0.77843169   -8.0537495    644.91425  0.018970298  0.018755453            2 
 2834000   0.79691074   -8.0331716    644.96032  0.018964959  0.018749669            1 
 2835000   0.79775191   -8.0123621    646.02904  0.018989684  0.018743888            3 
 2836000   0.81804688   -8.0105668    644.93255  0.018950769  0.018738116            1 
 2837000   0.80746494   -7.9989505    644.90385  0.018943246  0.018732347            2 
 2838000   0.80300364   -8.0313666    644.80975  0.018933807  0.018726609            2 
 2839000   0.77514933   -8.0208248    645.12883  0.018936504  0.018720834            2 
 2840000    0.7936076   -8.0108633    646.30592  0.018964376  0.018715079            2 
 2841000   0.81907019    -8.017263    645.72229  0.018940581   0.01870932            2 
 2842000   0.79784406   -8.0033722    646.22934  0.018948784  0.018703566            2 
 2843000   0.79248408   -8.0280206    645.76722  0.018928574  0.018697821            2 
 2844000   0.81215597   -8.0008597    646.05412  0.018930325  0.018692044            2 
 2845000   0.79250604   -8.0045505    646.09418  0.018924844  0.018686267            2 
 2846000   0.79150216   -8.0040035    644.33311  0.018866629  0.018680476            2 
 2847000   0.80793681   -8.0045371     645.4489  0.018892662  0.018674699            2 
 2848000   0.80101646   -8.0185679    645.91692  0.018899723   0.01866893            2 
 2849000   0.80544551   -8.0478335    645.45661  0.018879625  0.018663147            3 
 2850000   0.79372536   -8.0115542    645.44238  0.018872584  0.018657398            3 
 2851000    0.7895539   -8.0122551    646.19992  0.018888107   0.01865163            1 
 2852000   0.79320882   -8.0148514    646.52709  0.018891044   0.01864586            1 
 2853000   0.79092728   -8.0349219    645.86462  0.018865072  0.018640069            2 
 2854000   0.78348203   -8.0279564    644.46706  0.018817655  0.018634291            3 
 2855000   0.79684822   -8.0040741    646.08513  0.018858293   0.01862852            3 
 2856000   0.78327051   -8.0357465    645.46921  0.018833719  0.018622725            2 
 2857000   0.77944103   -8.0354226    645.50674  0.018828221  0.018616894            3 
 2858000   0.80657537   -8.0466259      646.304   0.01884488  0.018611093            2 
 2859000   0.80795497   -8.0230108    645.54188  0.018816074  0.018605309            1 
 2860000   0.79492971   -8.0213514    646.27902  0.018830974  0.018599541            3 
 2861000   0.79697832   -7.9900888    646.26032  0.018823847  0.018593774            2 
 2862000   0.79526503   -7.9885549    647.24288  0.018845879  0.018588031            2 
 2863000   0.81117552   -8.0157741    646.27341  0.018811078  0.018582298            3 
 2864000   0.77953711   -8.0263739    646.46846  0.018810186  0.018576498            3 
 2865000   0.79738137    -8.039709    647.06037  0.018820837  0.018570708            1 
 2866000   0.80391013   -8.0294893    644.69091  0.018745374  0.018564885            2 
 2867000   0.79252376   -8.0207032    645.40039  0.018759458  0.018559072            4 
 2868000   0.78414487   -8.0516805    645.98244  0.018769829  0.018553265            2 
 2869000   0.80785511   -8.0221485    645.09576  0.018737532  0.018547482            2 
 2870000   0.81457511   -8.0133504    646.56373  0.018773628  0.018541698            4 
 2871000   0.78067876   -8.0509235    644.55714  0.018708845  0.018535911            2 
 2872000   0.79175436   -8.0385911    646.96045  0.018772065  0.018530106            3 
 2873000   0.78998035   -8.0630734    644.38761  0.018690904  0.018524273            2 
 2874000   0.80333515   -8.0700639    644.59142   0.01869031  0.018518445            2 
 2875000   0.81904317   -8.0501219    645.18958  0.018701147  0.018512638            4 
 2876000   0.78833527   -8.0101246    646.08378  0.018720555  0.018506895            1 
 2877000   0.78390677   -8.0477096     646.4786  0.018725484  0.018501124            1 
 2878000   0.80446697   -8.0891895    646.00367  0.018705225  0.018495329            2 
 2879000   0.78996356   -8.0670704    646.25022  0.018705865  0.018489567            3 
 2880000   0.80770511   -8.0620084    645.22566  0.018669724  0.018483828            4 
 2881000   0.78690802   -8.0634394    645.50213  0.018671241  0.018478067            2 
 2882000   0.77677769   -8.0631824    645.80977  0.018673657    0.0184723            1 
 2883000   0.78988865   -8.0787726    645.21408  0.018649962  0.018466532            2 
 2884000    0.7932159   -8.0454556    646.27507  0.018674152  0.018460768            1 
 2885000   0.78055082   -8.0245166    647.61166  0.018706287  0.018455053            3 
 2886000   0.77918226   -8.0434119    648.38192  0.018722047  0.018449345            2 
 2887000   0.79102603   -8.0388637    646.97555  0.018674967  0.018443598            1 
 2888000   0.77995026   -8.0228109    647.03306   0.01867016  0.018437833            2 
 2889000   0.78998318   -8.0629439    647.81076   0.01868613  0.018432085            2 
 2890000   0.79794055   -8.0658424    646.84359  0.018651776  0.018426343            1 
 2891000   0.77526125   -8.0605959    646.71541  0.018641629  0.018420592            3 
 2892000   0.80476532   -8.0329456    646.83331  0.018638581  0.018414881            3 
 2893000   0.78741789   -8.0239749    648.44539  0.018678574   0.01840918            1 
 2894000   0.79591261   -8.0410047    648.74319  0.018680696  0.018403492            2 
 2895000   0.78546288   -8.0490058    647.66366  0.018643168  0.018397788            2 
 2896000    0.7787782   -8.0216476    648.47584  0.018660101  0.018392072            2 
 2897000   0.79967503   -8.0261416    648.61219  0.018657582  0.018386394            1 
 2898000    0.7852381    -8.047761    648.83559  0.018657568   0.01838072            3 
 2899000   0.79816979   -8.0551688    648.13833  0.018631089  0.018375054            3 
 2900000    0.7853841   -8.0704443    647.10655  0.018595016  0.018369347            3 
 2901000   0.79181918   -8.0551751    647.68413  0.018605197  0.018363619            5 
 2902000   0.79149863   -8.0618529    646.86065  0.018575139  0.018357919            3 
 2903000    0.7783773   -8.0761174    646.95476  0.018571442  0.018352195            2 
 2904000    0.7936811   -8.0688753    648.11603  0.018598371  0.018346456            2 
 2905000   0.78301279   -8.0626147    648.80392  0.018611702  0.018340757            1 
 2906000    0.8014456   -8.0288161     648.6415  0.018600639   0.01833508            1 
 2907000   0.77144409   -8.0323419     646.4753  0.018532144  0.018329377            6 
 2908000     0.782817   -8.0278994    648.15974  0.018574041   0.01832368            1 
 2909000     0.789092   -8.0597213    648.48763  0.018577049  0.018317974            1 
 2910000   0.79458449    -8.052942    649.19804  0.018591009  0.018312294            1 
 2911000   0.78148247    -8.056902    648.47518  0.018563929  0.018306588            2 
 2912000   0.77552401   -8.0364791    648.64278  0.018562351  0.018300863            2 
 2913000   0.78922524   -8.0509713    647.14155  0.018513032  0.018295145            2 
 2914000   0.78823852   -8.0294005    649.49634   0.01857402  0.018289467            2 
 2915000   0.78234809   -8.0576797    648.25339  0.018532115  0.018283788            2 
 2916000   0.77888479   -8.0525692    649.08142  0.018549423  0.018278105            1 
 2917000   0.80893015   -8.0374543    650.51198  0.018583933  0.018272435            2 
 2918000   0.78510275   -8.0445044    650.25324  0.018570175  0.018266752            3 
 2919000   0.78736201   -8.0371462    648.27942  0.018507463  0.018261055            3 
 2920000   0.79136679   -8.0461959    647.58072  0.018481185  0.018255344            2 
 2921000   0.77672393   -8.0746536    647.49168  0.018472318  0.018249607            2 
 2922000    0.7892703   -8.0676169    649.55146  0.018524739  0.018243901            2 
 2923000   0.78400267   -8.0745854    648.65392  0.018492813   0.01823819            1 
 2924000   0.78512463   -8.1096739    646.62802  0.018428751  0.018232471            4 
 2925000    0.7678614   -8.0712128    648.26273  0.018469024  0.018226712            1 
 2926000   0.78939235   -8.0994368    647.61608  0.018444295  0.018220985            1 
 2927000   0.78882104    -8.052711        646.5  0.018406218  0.018215265            2 
 2928000   0.79589941   -8.0614735    649.33905  0.018480733  0.018209577            1 
 2929000   0.77727405   -8.0580542    648.43202  0.018448618  0.018203893            2 
 2930000   0.78243671   -8.0291346       649.68  0.018477816  0.018198249            2 
 2931000    0.7912305   -8.0799299    648.17184  0.018428632  0.018192591            1 
 2932000   0.78749098   -8.0312673    649.17861  0.018450961  0.018186934            2 
 2933000   0.79789066   -8.0691166    647.88145  0.018407815  0.018181272            2 
 2934000    0.7785077    -8.066473    648.94527  0.018431756  0.018175591            2 
 2935000   0.78246978    -8.077849     648.2339  0.018405278  0.018169912            1 
 2936000   0.79936591   -8.0604742    648.70332  0.018412333  0.018164206            2 
 2937000   0.76695601   -8.0740305    649.43181  0.018426734  0.018158495            2 
 2938000   0.78113501   -8.0528013    649.82022  0.018431479  0.018152798            2 
 2939000   0.78465703   -8.0546645    648.27216  0.018381313  0.018147104            1 
 2940000   0.79414179    -8.073212    649.44226  0.018408227  0.018141418            1 
 2941000    0.7995004   -8.0783929    648.41541  0.018372872  0.018135726            1 
 2942000   0.78318053   -8.0820644    649.40268  0.018394592  0.018130028            2 
 2943000   0.77949602   -8.0638196    650.44849  0.018417955  0.018124347            1 
 2944000   0.79331263   -8.0560938    648.54429  0.018357798  0.018118686            2 
 2945000    0.7811834   -8.0661854    649.75773  0.018385901   0.01811305            3 
 2946000   0.77795758   -8.0497228    651.19733  0.018420382  0.018107404            2 
 2947000   0.77143989   -8.0611673    649.96158  0.018379187  0.018101784            2 
 2948000   0.80180064   -8.0693541    649.95476   0.01837276  0.018096146            2 
 2949000   0.77772919   -8.0607003    649.58388   0.01835605  0.018090507            3 
 2950000   0.76998229   -8.0712633    649.32203   0.01834243   0.01808484            7 
 2951000   0.78751964   -8.0780476    650.21213   0.01836135  0.018079172            2 
 2952000   0.76523475   -8.0674861    649.91187  0.018346654  0.018073486            3 
 2953000    0.7874241   -8.0627756    649.43102  0.018326872  0.018067798            2 
 2954000   0.77705114   -8.0676888    648.73198  0.018300947  0.018062095            2 
 2955000   0.79083859   -8.0799322    650.04087  0.018331666  0.018056402            2 
 2956000   0.76879268   -8.1034937    647.80434  0.018262414  0.018050684            1 
 2957000   0.77235628   -8.0873943    650.07774  0.018320306  0.018044988            2 
 2958000   0.78154597   -8.0559533    649.59306  0.018300458  0.018039312            3 
 2959000   0.78260469   -8.0767494    650.24109  0.018312524  0.018033642            2 
 2960000   0.77560714   -8.0830156    649.67143  0.018290299  0.018027977            2 
 2961000   0.75923401   -8.0797196    649.67947  0.018284349  0.018022299            2 
 2962000   0.77925348   -8.0784423    649.65955  0.018277615  0.018016611            1 
 2963000   0.77202164   -8.0887561    649.62222  0.018270396  0.018010914            1 
 2964000   0.76806396   -8.0863026    648.36101  0.018228773  0.018005228            2 
 2965000   0.78368819   -8.0988995    649.40498  0.018251967  0.017999512            2 
 2966000   0.77696693   -8.0861456    649.37561  0.018244988  0.017993804            1 
 2967000   0.77463595   -8.0749105    649.57411  0.018244414  0.017988093            3 
 2968000   0.78968202   -8.1304191    650.22511  0.018256545  0.017982387            1 
 2969000   0.77663343   -8.1043715    649.11046   0.01821911   0.01797668            2 
 2970000   0.78100034   -8.0927762    649.41462   0.01822151  0.017970965            1 
 2971000   0.76336953   -8.0838208    651.38718  0.018270705  0.017965263            2 
 2972000   0.78611347   -8.0844482    649.93221  0.018223761  0.017959603            4 
 2973000   0.79054436   -8.0837106    650.73454  0.018240121  0.017953916            2 
 2974000    0.7938171   -8.0894661    649.44187  0.018197766  0.017948267            6 
 2975000   0.78097188    -8.074855    651.00339  0.018235389  0.017942609            2 
 2976000   0.77599332   -8.0658819    651.97802  0.018256553  0.017936986            2 
 2977000   0.76533981   -8.0613924    650.87521   0.01821955  0.017931388            2 
 2978000   0.76386763   -8.0715979    651.00236   0.01821699  0.017925798            4 
 2979000   0.77465639    -8.092368    651.30424   0.01821932  0.017920198            5 
 2980000   0.77760444   -8.0797157     651.7049   0.01822441  0.017914569            2 
 2981000   0.75817937   -8.0937749    650.23106  0.018177096  0.017908934            3 
 2982000   0.78275433   -8.0870693    651.99357  0.018220254  0.017903291            1 
 2983000   0.78455012    -8.061178    650.98623  0.018186005  0.017897664            1 
 2984000   0.76890091   -8.1066522    651.08917  0.018182785  0.017892037            2 
 2985000   0.76516973   -8.0846994    650.97088  0.018173391  0.017886427            2 
 2986000   0.79456033   -8.1036278    649.74296  0.018133036  0.017880814            1 
 2987000   0.76001722   -8.0815868    651.61075  0.018179075  0.017875195            2 
 2988000   0.77467474    -8.067191    651.11178  0.018159075  0.017869596            2 
 2989000   0.77954171    -8.103835    649.60541  0.018111002  0.017863982            1 
 2990000   0.76788704   -8.0808061    650.17342  0.018120775  0.017858349            2 
 2991000   0.78463085   -8.0684881    650.93076  0.018135818  0.017852733            3 
 2992000   0.76368551   -8.0740875    651.23646   0.01813827  0.017847094            1 
 2993000   0.78247138   -8.1081216    650.54067  0.018112838  0.017841444            3 
 2994000    0.7727063   -8.0816475    650.36685   0.01810195  0.017835798            1 
 2995000   0.76604496   -8.0916427    651.37247  0.018123886  0.017830165            3 
 2996000   0.76780009   -8.1035683     651.7386  0.018128021  0.017824509            2 
 2997000   0.76741045   -8.0703962     652.1041  0.018132135  0.017818881            3 
 2998000   0.76745422   -8.0711514    650.91541  0.018093046   0.01781324            5 
 2999000    0.7628279    -8.130569    650.23206  0.018068024  0.017807616            5 
 3000000   0.76476631   -8.1092601    651.17978  0.018088327  0.017802013            1 
 3001000   0.76545676   -8.0969034    651.46038  0.018090092  0.017796435            1 
 3002000   0.77047026   -8.0791892    650.32129  0.018052445   0.01779084            1 
 3003000   0.76280109   -8.0971258     653.8623  0.018144697  0.017785247            1 
 3004000   0.76480549   -8.0973954    652.01494   0.01808741  0.017779667            2 
 3005000   0.77652977    -8.080967    650.80081  0.018047721  0.017774079            2 
 3006000   0.77829173   -8.1118013    650.26533  0.018026872  0.017768484            3 
 3007000   0.77757364   -8.1364839    651.58182  0.018057361  0.017762873            1 
 3008000   0.76221563    -8.105779    652.69594  0.018082223   0.01775727            3 
 3009000   0.76905174   -8.1085531    651.17868  0.018034194  0.017751666            1 
 3010000   0.76466188   -8.0850451    651.00506  0.018023396  0.017746068            1 
 3011000    0.7618768   -8.1005184    650.33067  0.017998746  0.017740475            1 
 3012000   0.78047234   -8.1041861    652.30303  0.018047339  0.017734879            2 
 3013000    0.7648351   -8.1104597    650.48564  0.017991084  0.017729277            2 
 3014000   0.77797811   -8.0787033    652.41531  0.018038468  0.017723687            1 
 3015000    0.7744887     -8.12181    652.18426  0.018026099  0.017718107            1 
 3016000   0.77045462   -8.1000475    651.27945  0.017995122  0.017712525            2 
 3017000   0.75905176   -8.1216903    652.21556  0.018015014  0.017706961            4 
 3018000   0.75888812   -8.1036168    652.07979  0.018005296  0.017701384            1 
 3019000   0.76154301   -8.1274667    652.40429  0.018008289  0.017695813            2 
 3020000   0.76270649   -8.1298238    652.67097  0.018009685  0.017690226            2 
 3021000   0.79033385    -8.074217    652.40878  0.017996491  0.017684637            1 
 3022000   0.75751631    -8.105584    652.53496  0.017994015  0.017679057            2 
 3023000   0.76950152   -8.1044847    651.26031  0.017952925  0.017673453            1 
 3024000   0.76422928   -8.1096605    651.96276  0.017966346  0.017667867            3 
 3025000   0.78785498   -8.1176276    651.79839  0.017955878  0.017662284            2 
 3026000   0.77423004   -8.0778469    652.67672  0.017974133  0.017656691            3 
 3027000   0.76128478   -8.0886998    650.55236  0.017909711  0.017651101            3 
 3028000   0.77887274    -8.127853    649.98188  0.017888097  0.017645476            2 
 3029000   0.76502165   -8.1419276    651.36019  0.017920111  0.017639855            3 
 3030000   0.76445967   -8.1061882    651.38894  0.017914987  0.017634259            2 
 3031000   0.77555474   -8.1376028    652.09038  0.017928362  0.017628645            3 
 3032000   0.75521328   -8.1228398    653.85372  0.017970914   0.01762305            1 
 3033000   0.77660958   -8.1282439     651.5974  0.017902995  0.017617432            3 
 3034000   0.76325903   -8.1392473    651.02223  0.017881296  0.017611838            3 
 3035000   0.76978261   -8.0935148    650.95881  0.017873663  0.017606235            1 
 3036000   0.75273268   -8.0977842    652.60136  0.017912861  0.017600647            4 
 3037000   0.75866946   -8.0938924    652.11685  0.017893668  0.017595065            2 
 3038000   0.76580286   -8.0929639     653.6346  0.017929411   0.01758949            4 
 3039000   0.77881864   -8.1245244    653.08534   0.01790845    0.0175839            2 
 3040000   0.76473424   -8.1115165    653.60311  0.017916752  0.017578314            2 
 3041000   0.77349532   -8.1083699    652.12986  0.017870488  0.017572727            3 
 3042000   0.76790166   -8.1096247    652.36828  0.017871145  0.017567149            3 
 3043000   0.76724138   -8.1595549    651.58683  0.017843872  0.017561567            2 
 3044000   0.77330214   -8.1380654    652.79136  0.017870986  0.017555959            3 
 3045000   0.78593979   -8.1301999    652.82922  0.017866153  0.017550366            2 
 3046000   0.76500727   -8.1157794    651.98583  0.017837214  0.017544776            1 
 3047000   0.77456562   -8.1181469    653.69188  0.017878019  0.017539179            6 
 3048000   0.77015654   -8.1171517    653.70111  0.017872406  0.017533614            2 
 3049000   0.78567478   -8.0885372    653.61158  0.017864097  0.017528065            3 
 3050000   0.74837164   -8.1209065    653.27202  0.017848962  0.017522537            3 
 3051000    0.7560996   -8.1241418     652.6696  0.017826658  0.017517006            2 
 3052000   0.75809999   -8.1102715    653.85422  0.017853162  0.017511458            2 
 3053000   0.76389219   -8.1228417    654.36429  0.017861237  0.017505923            2 
 3054000   0.76519145   -8.1044894     654.8127  0.017867624  0.017500394            2 
 3055000   0.75699571   -8.0824798    652.98154  0.017811826   0.01749488            2 
 3056000    0.7539882   -8.1233999    653.13442  0.017810166  0.017489364            2 
 3057000   0.77822988   -8.1085972    653.44912  0.017812919  0.017483831            3 
 3058000   0.76557359   -8.1340343     652.8211   0.01778998    0.0174783            1 
 3059000   0.76770395   -8.1117042    652.30868  0.017770205  0.017472765            1 
 3060000   0.75448328   -8.1107154    653.01359  0.017783594   0.01746723            1 
 3061000   0.78704782    -8.119243    653.43831  0.017789347  0.017461705            1 
 3062000   0.76769934   -8.1313448    654.16339  0.017803271  0.017456169            2 
 3063000   0.75185175    -8.136949    655.12651  0.017823662  0.017450643            5 
 3064000   0.75354304      -8.1383    653.64824  0.017777639  0.017445105            3 
 3065000   0.76813047   -8.1199897    654.51874  0.017795507  0.017439584            2 
 3066000   0.75729319   -8.0853422    652.85865  0.017744582   0.01743409            1 
 3067000   0.75148562   -8.1060979    653.14668  0.017746622  0.017428607            2 
 3068000    0.7635782   -8.1172803    653.51588  0.017750866  0.017423091            2 
 3069000   0.74159091   -8.1375645    653.07063  0.017732992  0.017417564            2 
 3070000   0.75037539   -8.1378074    653.49244  0.017738666   0.01741202            3 
 3071000    0.7627441   -8.1510505    652.22905  0.017698607  0.017406482            2 
 3072000   0.75351267   -8.1222332     653.5238  0.017727968  0.017400953            1 
 3073000   0.75823161   -8.1036183    653.11292  0.017711057  0.017395422            3 
 3074000   0.74556491   -8.1349981     651.9188  0.017672923  0.017389917            1 
 3075000   0.77239593   -8.1361138    653.02395  0.017697126  0.017384402            3 
 3076000   0.75992144   -8.1138068     654.2861  0.017725566  0.017378883            6 
 3077000   0.75648546   -8.0909401     653.5999  0.017701221    0.0173734            3 
 3078000   0.76528082   -8.1107863    654.89949  0.017730655  0.017367901            2 
 3079000    0.7409284   -8.1172756     654.2296  0.017706766  0.017362394            2 
 3080000   0.76889903   -8.1356774    652.56465   0.01765597  0.017356867            2 
 3081000   0.75266036   -8.0987158    653.60538  0.017678388  0.017351346            2 
 3082000   0.75188698   -8.1157446    654.19059  0.017688476  0.017345816            3 
 3083000   0.74570489   -8.1116065    653.66059  0.017668413  0.017340309            2 
 3084000   0.76744378   -8.1170353    653.81867  0.017666955  0.017334816            2 
 3085000   0.76337461   -8.1428362    653.35551  0.017648717  0.017329301            2 
 3086000   0.76808938   -8.1020818    653.32879  0.017642277  0.017323771            1 
 3087000   0.75875655    -8.106123    655.32092  0.017690339  0.017318248            2 
 3088000   0.76643047   -8.1616209    654.30281  0.017657135  0.017312717            4 
 3089000   0.75495992   -8.1406399    652.83261  0.017611757  0.017307184            2 
 3090000     0.736954   -8.1313201     654.1204  0.017640787  0.017301658            2 
 3091000   0.73799286   -8.1154656    654.80873  0.017653638  0.017296132            1 
 3092000   0.76909134   -8.1339814     654.2003   0.01763153  0.017290636            3 
 3093000   0.75962232   -8.1237384    655.64651  0.017664794  0.017285136            5 
 3094000   0.75278671   -8.1150863     655.1549  0.017645844  0.017279623            3 
 3095000   0.76457866    -8.136281    653.92881   0.01760713  0.017274102            1 
 3096000   0.75034045   -8.1230964    654.85764  0.017626444  0.017268586            4 
 3097000    0.7692781   -8.1657558    653.02609  0.017571469  0.017263069            2 
 3098000   0.76272816   -8.1271674    654.07177  0.017593925  0.017257552            1 
 3099000   0.75567382   -8.1484194    653.28293  0.017567036   0.01725204            2 
 3100000   0.74890176   -8.1213657    654.12006  0.017583873  0.017246538            1 
 3101000   0.76216112   -8.1332038    654.31911  0.017583551  0.017241035            1 
 3102000   0.76559909   -8.1178997    654.93864  0.017594526  0.017235541            3 
 3103000   0.75858571   -8.1358626    654.15564  0.017567828  0.017230049            2 
 3104000   0.75750432   -8.0997335    654.89953  0.017582139  0.017224569            2 
 3105000   0.77054996   -8.1270184    655.17845  0.017583963  0.017219098            4 
 3106000   0.77939835    -8.131314    655.76048  0.017593917  0.017213616            1 
 3107000   0.74196366   -8.1296023    656.03825  0.017595705  0.017208138            3 
 3108000   0.75453501   -8.1216481    654.52507  0.017549471  0.017202652            1 
 3109000   0.75809129   -8.1317138    654.74876  0.017549822  0.017197171            3 
 3110000   0.75479902   -8.1457639     654.7125  0.017543207  0.017191673            2 
 3111000   0.74083285   -8.1516557    654.55725   0.01753341  0.017186173            3 
 3112000   0.74366176   -8.1317339    654.67689  0.017530979  0.017180667            2 
 3113000   0.75560459   -8.1261936    655.36204  0.017543689  0.017175189            3 
 3114000    0.7604261   -8.1345276    655.06619  0.017530138  0.017169693            2 
 3115000   0.74537825   -8.1181001    654.80642  0.017517561  0.017164198            2 
 3116000   0.73442328    -8.163076    653.04654  0.017464873  0.017158709            2 
 3117000   0.73382785   -8.1414828    654.80892  0.017506388  0.017153235            2 
 3118000   0.73985372   -8.0706794    654.81422  0.017500915  0.017147762            1 
 3119000   0.76633547   -8.1191862    655.14477  0.017504135  0.017142293            4 
 3120000   0.74936732   -8.1249132    656.73604  0.017541027  0.017136803            3 
 3121000     0.742324   -8.1068461    653.93968  0.017460741  0.017131312            3 
 3122000   0.74411586   -8.1609212    654.73057  0.017476259  0.017125822            1 
 3123000   0.75536276   -8.1419365    653.72672  0.017443877  0.017120306            3 
 3124000   0.74631948   -8.1548038    654.69711  0.017464178   0.01711479            1 
 3125000   0.73576086   -8.1463157    653.56986   0.01742853  0.017109286            2 
 3126000   0.76171748   -8.1444955    652.26924  0.017388282  0.017103767            1 
 3127000   0.75094116   -8.1633682     654.1922  0.017433968  0.017098248            2 
 3128000   0.73622666   -8.1518536    652.63143  0.017386813  0.017092694            1 
 3129000   0.74856871   -8.1431528    652.97332  0.017390362  0.017087179            2 
 3130000   0.74458512   -8.1567169    654.16922  0.017416646  0.017081646            7 
 3131000   0.75213711    -8.171462    653.98233  0.017406109  0.017076122            2 
 3132000   0.78117156   -8.1633016    653.15735  0.017378601  0.017070575            1 
 3133000   0.73393871   -8.1693724    653.72549  0.017388166  0.017065042            2 
 3134000   0.75520276   -8.1569188    653.78542  0.017384211  0.017059536            4 
 3135000   0.75305217    -8.156947    653.07543  0.017359793  0.017054022            2 
 3136000   0.76070931   -8.1417046    653.51579  0.017365959  0.017048494            3 
 3137000   0.75825772   -8.1597496    654.83499  0.017395468  0.017042994            3 
 3138000   0.74054877   -8.1479133     653.0885  0.017343544  0.017037494            2 
 3139000   0.75018849   -8.1375791    655.43164  0.017400224     0.017032            3 
 3140000   0.75622951   -8.1345552    654.49004  0.017369693  0.017026507            1 
 3141000   0.75328593   -8.1796651    654.71775  0.017370205  0.017021016            3 
 3142000   0.76437705   -8.1621659    654.06202  0.017347285  0.017015519            2 
 3143000   0.75318494   -8.1694965    654.76271  0.017360343  0.017010027            1 
 3144000   0.75356829   -8.1735912      654.505  0.017347991  0.017004529            4 
 3145000    0.7449017   -8.1592227    655.40775  0.017366395  0.016999029            5 
 3146000   0.73834522   -8.1637382    654.21183  0.017329197  0.016993534            2 
 3147000   0.75073358   -8.1716028     655.2495  0.017351168  0.016988049            2 
 3148000   0.72880064   -8.1985641    653.71705  0.017305089  0.016982546            1 
 3149000   0.73252973   -8.1525573    655.13064  0.017337002  0.016977053            1 
 3150000    0.7329206   -8.1683606     654.2167   0.01730732  0.016971557            4 
 3151000   0.74880071   -8.1513418    654.26974   0.01730323  0.016966073            3 
 3152000   0.75395832   -8.1737913    654.69947  0.017309102  0.016960568            3 
 3153000   0.76772045    -8.185125    653.46492  0.017270983  0.016955056            2 
 3154000   0.76338095   -8.1672219    653.71435  0.017272098  0.016949567            2 
 3155000   0.74762589   -8.1658945    654.74877  0.017293945  0.016944094            4 
 3156000   0.77711986   -8.1393075    655.01245  0.017295428  0.016938639            5 
 3157000   0.74832818   -8.1709146    654.07774  0.017265277  0.016933175            2 
 3158000   0.73458677   -8.1729026    654.91411   0.01728188   0.01692771            1 
 3159000    0.7412213   -8.1686827    654.35379  0.017261628  0.016922236            2 
 3160000   0.74536171   -8.1464436    654.14202  0.017250581  0.016916773            1 
 3161000   0.73411354   -8.1571259    654.78054  0.017261957  0.016911312            2 
 3162000   0.76569386   -8.1687412    654.59809  0.017251689  0.016905821            2 
 3163000   0.73041116   -8.1717923    654.63954  0.017247327  0.016900348            2 
 3164000   0.74921625   -8.1446619    654.46441  0.017237263  0.016894875            1 
 3165000   0.73648739   -8.1662779    655.28816  0.017253506  0.016889397            3 
 3166000   0.75329038   -8.1629225    652.69553  0.017179815  0.016883922            2 
 3167000   0.75672519   -8.1744255    655.46472  0.017247256  0.016878441            4 
 3168000   0.72993792   -8.1855406    652.43309  0.017162066  0.016872973            2 
 3169000   0.73550457   -8.1612593    654.18896  0.017202823  0.016867503            1 
 3170000   0.74105617   -8.1839242    654.21832  0.017198168  0.016862033            1 
 3171000   0.74110345    -8.171857    656.23552  0.017245756  0.016856579            1 
 3172000   0.75803669   -8.1596337    653.52625  0.017169143  0.016851128            1 
 3173000   0.74078316   -8.1438953    654.62651  0.017192628  0.016845669            2 
 3174000    0.7201935   -8.1748763    655.05897  0.017198566  0.016840214            2 
 3175000   0.73961417   -8.1479707    654.69524  0.017183602  0.016834767            2 
 3176000   0.73442815   -8.1698957    655.33175  0.017194893  0.016829322            3 
 3177000   0.74355651   -8.1844823    655.53532   0.01719482  0.016823863            2 
 3178000   0.73469641   -8.1847335     654.0661  0.017150884  0.016818395            2 
 3179000   0.74312873   -8.1639635    655.15082  0.017173923  0.016812938            2 
 3180000   0.73342028   -8.1851855    654.55494  0.017152907  0.016807481            3 
 3181000    0.7476503   -8.1608423    654.38421  0.017143042  0.016802037            4 
 3182000   0.75337161   -8.1819523    654.84964  0.017149844  0.016796604            6 
 3183000   0.73969746     -8.16785    655.21064  0.017153907  0.016791173            2 
 3184000   0.74011679   -8.2003084     654.5294   0.01713069  0.016785711            1 
 3185000   0.75555519   -8.1679444    655.17137  0.017142108  0.016780267            2 
 3186000   0.74401194   -8.1721772    654.66708  0.017123537  0.016774831            2 
 3187000   0.74095994   -8.1641735    655.05242   0.01712824  0.016769384            1 
 3188000   0.72004415   -8.1732665    656.16596  0.017151975  0.016763947            6 
 3189000   0.73830658   -8.1836228     655.0854   0.01711836  0.016758489            1 
 3190000   0.73872741   -8.1983773    655.27124  0.017117849  0.016753048            5 
 3191000   0.72244684   -8.1816882    654.55384  0.017093749  0.016747619            2 
 3192000   0.73664791     -8.19219    653.64099  0.017064562  0.016742194            1 
 3193000    0.7528256   -8.1802458    656.19932  0.017125987  0.016736784            2 
 3194000   0.73388828   -8.1776321    655.08961  0.017091672  0.016731393            3 
 3195000   0.74576089    -8.172128    655.67752  0.017101657  0.016725975            1 
 3196000   0.74909853   -8.2085297    655.79027  0.017099246  0.016720552            2 
 3197000   0.72973708   -8.1969082    655.10381  0.017076004  0.016715107            1 
 3198000   0.74124301   -8.1870551    655.95106  0.017092742  0.016709682            1 
 3199000   0.74033419   -8.1815388    655.13354  0.017066102  0.016704269            1 
 3200000   0.74332947   -8.1879292    654.29973  0.017039055  0.016698855            1 
 3201000    0.7394851   -8.1978298    655.29538  0.017059653  0.016693441            1 
 3202000   0.73479209   -8.1810465    654.90307  0.017044115  0.016688024            1 
 3203000   0.74926312   -8.1935807    655.60485  0.017057052  0.016682608            6 
 3204000   0.73762601   -8.1844358    656.50512  0.017075144  0.016677197            4 
 3205000   0.73560069   -8.1623688    657.03547  0.017083605  0.016671783            1 
 3206000    0.7451472   -8.1908648     655.8897  0.017048495  0.016666393            4 
 3207000   0.73917842    -8.203208    656.14704  0.017049866  0.016660994            1 
 3208000   0.73378487   -8.1835471    657.03192  0.017067537  0.016655608            4 
 3209000   0.73432812   -8.1937814    654.77757  0.017003676  0.016650214            1 
 3210000   0.75316345   -8.1584333    657.63395  0.017072532  0.016644826            2 
 3211000   0.74632581   -8.2190931    656.03214  0.017025645  0.016639452            1 
 3212000   0.73324543   -8.2045085    657.10991  0.017048306  0.016634053            2 
 3213000   0.73590972   -8.1748974     658.1182  0.017069151  0.016628676            1 
 3214000   0.73465456   -8.2009555    656.50032  0.017021892  0.016623285            2 
 3215000   0.73123931   -8.1865507    656.08468  0.017005824  0.016617886            1 
 3216000   0.72694748    -8.179628    657.12448  0.017027479  0.016612521            2 
 3217000   0.74018649   -8.1824746    655.89223  0.016990266  0.016607126            2 
 3218000   0.74514268   -8.1868542    656.48254  0.017000273  0.016601754            2 
 3219000   0.72219437   -8.1990569    656.98236  0.017007931  0.016596399            2 
 3220000   0.74190614   -8.1748119    654.92482    0.0169494  0.016591028            2 
 3221000   0.74366912   -8.1922562    655.61712  0.016962049  0.016585665            5 
 3222000    0.7225672   -8.1841312    656.08006  0.016968758    0.0165803            2 
 3223000   0.74406465   -8.1871491    656.81483  0.016982491  0.016574933            3 
 3224000   0.73561437   -8.2018192    655.42429  0.016941281  0.016569577            1 
 3225000    0.7191074   -8.2151108    655.53529  0.016938896  0.016564213            2 
 3226000   0.74631186   -8.2046557    656.10634  0.016948397  0.016558868            3 
 3227000   0.73060827   -8.1925008    657.38478  0.016976159  0.016553526            3 
 3228000    0.7384465   -8.1974782    656.39726  0.016945406  0.016548174            1 
 3229000   0.74712449    -8.168232    657.68694  0.016973442  0.016542824            3 
 3230000   0.74951523   -8.1757686    655.29072  0.016906365   0.01653748            3 
 3231000   0.75575941   -8.1646645    655.86536  0.016915954   0.01653214            1 
 3232000   0.74774619   -8.1898519    657.15797  0.016944048  0.016526777            2 
 3233000   0.73350558   -8.2029505    657.15068   0.01693862  0.016521419            2 
 3234000   0.73672523   -8.1879497    657.78133  0.016949632  0.016516072            1 
 3235000   0.73547024   -8.1926673    656.16139  0.016902663  0.016510718            3 
 3236000   0.72452118   -8.2238494    656.33581  0.016901932  0.016505358            1 
 3237000    0.7171625   -8.2167453     656.5308   0.01690173  0.016500011            2 
 3238000   0.73396706   -8.1788927    656.66352  0.016899926  0.016494662            6 
 3239000   0.71908143   -8.2067477    657.24507   0.01690967   0.01648931            2 
 3240000   0.73769153   -8.2099645    656.55897  0.016886805  0.016483964            1 
 3241000   0.73130186   -8.2087786    656.20383  0.016872463  0.016478618            1 
 3242000   0.73462419   -8.1978572    657.37882  0.016897461  0.016473274            1 
 3243000   0.73573923   -8.2112865    655.90346  0.016854339  0.016467927            2 
 3244000   0.74262128   -8.2225563    655.12148  0.016829056  0.016462572            1 
 3245000    0.7463053   -8.2142116    656.50541   0.01685941  0.016457234            1 
 3246000   0.72448796   -8.2004334    656.77284  0.016861081  0.016451892            2 
 3247000    0.7462032   -8.2059904    656.30727   0.01684394  0.016446558            1 
 3248000    0.7446756   -8.1718472    657.13732   0.01686005  0.016441219            3 
 3249000   0.73341027   -8.2125236    655.90046  0.016823137  0.016435886            3 
 3250000   0.73847608    -8.199892    656.25536  0.016827061  0.016430557            5 
 3251000   0.71686839   -8.1980723    656.34389  0.016824154  0.016425232            5 
 3252000   0.72601561    -8.192914    657.98509  0.016861037  0.016419912            2 
 3253000   0.72939741   -8.1936174    657.68145  0.016848075  0.016414613            2 
 3254000   0.72100609   -8.2176395    657.93994  0.016849517  0.016409304            1 
 3255000   0.74171865   -8.1959365     656.9633  0.016819337   0.01640398            2 
 3256000   0.72976636   -8.1868359    658.76142  0.016860192  0.016398677            8 
 3257000   0.72879275   -8.1894372     658.2677  0.016842383  0.016393373            1 
 3258000   0.73761427   -8.1971367    657.62002  0.016820647   0.01638807            2 
 3259000   0.70879728   -8.2054845    657.19791  0.016804693  0.016382782            1 
 3260000   0.73482396   -8.2147098    656.40987  0.016779393   0.01637747            2 
 3261000   0.73169386   -8.2157615    656.41596  0.016774404   0.01637216            1 
 3262000   0.75008904   -8.2218632     655.3224  0.016741324   0.01636684            3 
 3263000   0.72684451   -8.2449352    656.45938  0.016765231  0.016361518            2 
 3264000   0.71757189   -8.2019361    657.03725  0.016774848  0.016356183            5 
 3265000   0.73157588   -8.2578488    657.17531  0.016773234  0.016350864            2 
 3266000   0.73250077   -8.2226312    655.94722  0.016736763  0.016345543            1 
 3267000   0.72702157   -8.2259973    658.21981  0.016789608  0.016340232            1 
 3268000   0.72996885   -8.2181067    656.18618  0.016732614  0.016334921            3 
 3269000   0.73179317   -8.2286501    658.63851   0.01679001  0.016329612            1 
 3270000   0.71809555   -8.2334027    657.69918  0.016760937  0.016324281            2 
 3271000   0.73003398    -8.224774    656.02678  0.016713206   0.01631895            2 
 3272000   0.73871038   -8.2397388    657.69427  0.016750567  0.016313638            1 
 3273000   0.73969115   -8.2554281    656.68901  0.016719855  0.016308317            2 
 3274000    0.7293278   -8.2702969     658.1529  0.016752008  0.016302983            2 
 3275000   0.69778606   -8.2546701    656.53121  0.016705629  0.016297664            2 
 3276000    0.7176743    -8.229266    656.73705  0.016705765  0.016292352            3 
 3277000   0.72090457   -8.2006083      656.323  0.016690138  0.016287053            1 
 3278000   0.73641972   -8.2277302    656.95036  0.016700996  0.016281739            2 
 3279000   0.72004387   -8.2319837     656.5846  0.016686607  0.016276431            1 
 3280000   0.71627809    -8.208359    656.74332  0.016685552  0.016271129            2 
 3281000   0.71319385   -8.2407844    657.84021  0.016708326  0.016265836            2 
 3282000   0.72915238   -8.2210553     658.7364   0.01672599  0.016260554            2 
 3283000   0.72423408   -8.1857161    658.14832  0.016705968  0.016255291            1 
 3284000    0.7469965   -8.2135912    657.51695   0.01668486  0.016250033            2 
 3285000   0.73227013   -8.2156573    658.45601  0.016703603  0.016244767            3 
 3286000   0.72929506   -8.1860485      658.309  0.016694791   0.01623951            1 
 3287000   0.73400992    -8.216471    658.30472  0.016689603  0.016234236            2 
 3288000   0.72554162   -8.2052604    658.41153  0.016687235  0.016228966            1 
 3289000   0.73701064   -8.2581576    657.13693  0.016649867   0.01622368            1 
 3290000   0.72111745   -8.2151123    656.46523  0.016627792    0.0162184            4 
 3291000   0.72551598   -8.2299828     657.4304  0.016647179  0.016213128            2 
 3292000   0.71907303   -8.2161033    656.79445  0.016626024  0.016207853            2 
 3293000   0.71533811   -8.2218394    656.93184  0.016624452   0.01620258            1 
 3294000    0.7120263   -8.2153047    659.41106  0.016682126  0.016197307            2 
 3295000   0.73737534   -8.2220125    657.42619  0.016626864  0.016192036            1 
 3296000   0.71464975   -8.2097183    657.59494  0.016626086  0.016186771            3 
 3297000   0.70780756   -8.2353758    656.93027  0.016604243  0.016181513            1 
 3298000   0.72214878   -8.2300572    656.96043   0.01659997  0.016176226            7 
 3299000   0.72609737   -8.2393977    656.77732  0.016590313  0.016170934            3 
 3300000   0.73882257   -8.2386428    656.92438  0.016588999  0.016165655            1 
 3301000   0.73812702   -8.2296879    656.59747  0.016575721  0.016160374            2 
 3302000   0.70610201   -8.2307974    657.71051  0.016598791  0.016155104            2 
 3303000   0.73107358    -8.226606    657.76992  0.016595265  0.016149855            2 
 3304000    0.7420726   -8.2395088    657.64359  0.016587056  0.016144568            1 
 3305000   0.71618394   -8.2235296    656.49532  0.016553084  0.016139284            4 
 3306000   0.73658984   -8.2548596    657.34513  0.016569498  0.016133989            3 
 3307000   0.73233035   -8.2451377     657.2839  0.016562945  0.016128701            3 
 3308000   0.72591783   -8.2593336    657.12008  0.016553811  0.016123414            1 
 3309000   0.71848208   -8.2347559    656.74611   0.01653939  0.016118136            2 
 3310000    0.7256729   -8.2310705    657.40453   0.01655097  0.016112855            2 
 3311000    0.7203654     -8.24236    657.74678  0.016554585  0.016107576            2 
 3312000   0.70693018   -8.2656181     656.1917  0.016510459   0.01610229            3 
 3313000   0.72605028   -8.2195414    657.77181  0.016545221   0.01609702            3 
 3314000   0.71424767   -8.2293661    658.72615  0.016564226   0.01609177            1 
 3315000   0.72488174   -8.2267093    657.12099  0.016518879   0.01608652            3 
 3316000   0.73932091   -8.2470227     656.3345  0.016494132  0.016081253            3 
 3317000   0.72750733    -8.240042     656.3684  0.016490011   0.01607597            2 
 3318000   0.70651008    -8.221364    658.42282  0.016536639  0.016070694            1 
 3319000   0.71742824   -8.2358393    657.07693  0.016497864  0.016065411            1 
 3320000   0.71814382   -8.2325338    658.07345  0.016517908  0.016060121            2 
 3321000   0.71923291   -8.2232193    657.60844  0.016501266  0.016054855            2 
 3322000   0.73101933   -8.2252351    658.28079  0.016513165  0.016049582            4 
 3323000   0.73020139   -8.2224024    657.67961  0.016493119  0.016044297            3 
 3324000   0.72336539   -8.2350407    658.35293  0.016505037  0.016039026            1 
 3325000   0.73179994    -8.213459    656.85018  0.016462411  0.016033742            4 
 3326000   0.71256906   -8.2421515    657.46627  0.016472897  0.016028459            2 
 3327000    0.7281048   -8.2406663    657.47084   0.01646806  0.016023178            1 
 3328000   0.72606608   -8.2408703    657.59339  0.016466181  0.016017895            2 
 3329000   0.71059115   -8.2485012    657.61577  0.016461794  0.016012615            2 
 3330000   0.72372439   -8.2420658    655.66672  0.016408076  0.016007346            1 
 3331000   0.73040497   -8.2355236    655.65089  0.016402754  0.016002061            3 
 3332000   0.71874131    -8.241348    656.20858  0.016411779  0.015996767            7 
 3333000   0.73331686   -8.2613647    655.67693  0.016393563  0.015991479            2 
 3334000   0.72936343    -8.252286    655.74894  0.016390445  0.015986192            1 
 3335000   0.70635951   -8.2458024    659.41701  0.016477187  0.015980922            1 
 3336000   0.70192938   -8.2144484    657.22979  0.016417611  0.015975648            1 
 3337000   0.70192531   -8.2310757    657.67026  0.016423691  0.015970387            2 
 3338000   0.70860995   -8.2172838    659.08502   0.01645409  0.015965133            1 
 3339000   0.71538814   -8.2612811    658.20454  0.016427187  0.015959895            1 
 3340000    0.6972338     -8.22935    658.15372  0.016421001  0.015954644            3 
 3341000   0.71124015   -8.2616339    657.15863  0.016391266  0.015949381            1 
 3342000   0.73650489   -8.2323922    657.94031  0.016405852  0.015944137            3 
 3343000   0.70714249   -8.2276606    657.02832  0.016378211  0.015938891            3 
 3344000   0.70835039   -8.2187725    658.62506  0.016413105  0.015933646            5 
 3345000   0.70294633   -8.2560975    656.57758  0.016357189  0.015928387            3 
 3346000   0.71860278   -8.2309562    657.23953  0.016368787  0.015923136            2 
 3347000   0.72282998   -8.2648329    657.94697   0.01638151  0.015917882            1 
 3348000   0.70526868   -8.2498324    657.05928  0.016354522  0.015912642            2 
 3349000   0.71275887   -8.2417323    656.80155  0.016343226  0.015907401            2 
 3350000   0.72056767   -8.2544507    657.95497  0.016367039  0.015902149            1 
 3351000   0.71656293   -8.2486831    656.67945  0.016330435  0.015896912            3 
 3352000    0.7195197   -8.2652955    656.11493  0.016311529  0.015891674            2 
 3353000   0.70875957   -8.2262176    658.63044  0.016369183  0.015886435            3 
 3354000   0.70831273    -8.224715     656.6174  0.016314286  0.015881205            9 
 3355000   0.72361766   -8.2668717    657.30849  0.016326589  0.015875966            6 
 3356000   0.72498348   -8.2450925    657.27469  0.016320885  0.015870705            2 
 3357000   0.70753575   -8.2353793    657.94437  0.016332648  0.015865468            2 
 3358000   0.73688644   -8.2657722    656.60395  0.016294519  0.015860216            3 
 3359000   0.72557824   -8.2556688    657.08362  0.016301568  0.015854984            1 
 3360000    0.7321364   -8.2867096    657.87772  0.016316412  0.015849748            1 
 3361000   0.71633194   -8.2378735    659.24707  0.016345509  0.015844527            3 
 3362000   0.71460055   -8.2799639    657.08381  0.016287027  0.015839305            5 
 3363000   0.71305827   -8.2396273    658.63928  0.016320728  0.015834094            2 
 3364000   0.71867708   -8.2316193    657.72676  0.016293271  0.015828874            2 
 3365000   0.71968903    -8.262952    656.35763  0.016254523  0.015823658            2 
 3366000     0.723451    -8.272016    657.69659  0.016282843  0.015818432            2 
 3367000   0.71638319   -8.2576675    656.70092  0.016253364  0.015813188            5 
 3368000   0.71306138   -8.2492763    658.56394  0.016294634   0.01580795            3 
 3369000   0.72531815   -8.2877649    657.32148  0.016259065  0.015802732            2 
 3370000   0.70818293   -8.2579814     658.3149  0.016278806  0.015797513            3 
 3371000   0.71006851   -8.2507058    657.22717  0.016247087  0.015792316            3 
 3372000   0.70975734   -8.2500635      656.875  0.016233566  0.015787107            3 
 3373000   0.71708823   -8.2590331    658.60845  0.016271579  0.015781891            2 
 3374000   0.70578172   -8.2517761    657.87351  0.016248605  0.015776675            1 
 3375000   0.72371822   -8.2639395    658.04478  0.016248019  0.015771433            1 
 3376000   0.69759355   -8.2505188    657.42344  0.016227869  0.015766221            1 
 3377000   0.69561332   -8.2722487    657.79008  0.016232111  0.015761027            1 
 3378000   0.71644042   -8.2698059    657.55699  0.016221556  0.015755818            2 
 3379000   0.69282367   -8.2843752    657.26778  0.016209623   0.01575061            1 
 3380000   0.71488755   -8.2763746    656.27946   0.01618046  0.015745397            1 
 3381000   0.70727369   -8.2616513    657.05182  0.016194711  0.015740195            1 
 3382000   0.70367772    -8.288652     656.3163  0.016171799  0.015734986            1 
 3383000   0.70479079   -8.2690982     657.6553  0.016200002  0.015729772            2 
 3384000   0.71754345    -8.274014    657.92317  0.016201812  0.015724566            3 
 3385000   0.69797192   -8.2475592    657.58053   0.01618859  0.015719356            5 
 3386000   0.70690088   -8.3031852    657.04547  0.016170641   0.01571414            1 
 3387000   0.70209453   -8.2870774    656.20469   0.01614518  0.015708939            2 
 3388000   0.70887546   -8.2668247    658.51473  0.016197233  0.015703729            1 
 3389000   0.72689546   -8.2892562    658.18921   0.01618445  0.015698529            1 
 3390000   0.69953501   -8.3016593    657.89295  0.016172393  0.015693332            4 
 3391000   0.71455536   -8.2942359    657.35198   0.01615433  0.015688133            3 
 3392000   0.70674462    -8.283212    658.99291  0.016189881  0.015682945            2 
 3393000   0.71056648   -8.2710173    658.72602  0.016178554  0.015677771            2 
 3394000   0.71429889   -8.2713413    657.10602  0.016134011  0.015672609            2 
 3395000   0.71248078   -8.2454414    658.97213  0.016175065  0.015667443            4 
 3396000   0.71221603   -8.2881667    657.78038  0.016141058  0.015662281            2 
 3397000   0.70350719   -8.2764348    657.60687   0.01613205  0.015657118            1 
 3398000   0.71231304    -8.274957    657.04477  0.016113517  0.015651967            8 
 3399000   0.69543974   -8.2463948    657.97948  0.016131693  0.015646803            2 
 3400000   0.71199286   -8.2448338    658.47024  0.016138977  0.015641651            1 
 3401000   0.70222771   -8.2733875    658.89264  0.016144581  0.015636481            2 
 3402000   0.70616154   -8.2573441    658.69954  0.016135105  0.015631322            2 
 3403000   0.70113726   -8.2658361    658.76561  0.016131982  0.015626161            3 
 3404000   0.70810878   -8.2748083    658.38049  0.016117815  0.015621004            4 
 3405000    0.7155171   -8.3045614    657.94129  0.016102332  0.015615863            1 
 3406000   0.70922133   -8.2513258    658.38031  0.016108346  0.015610719            3 
 3407000   0.72719967   -8.2858614    659.22562  0.016124294  0.015605588            3 
 3408000   0.70291399   -8.2464411     659.6797  0.016130666  0.015600454            1 
 3409000   0.69854251    -8.283746    659.81567  0.016129258  0.015595323            2 
 3410000   0.70332864   -8.2729499    659.95158  0.016127849  0.015590197            3 
 3411000   0.70675592   -8.2674393    659.74394  0.016118048    0.0155851            1 
 3412000   0.70066981   -8.2448494     658.1226  0.016073725  0.015579979            3 
 3413000   0.69015353   -8.2609671    658.90648  0.016088155  0.015574852            1 
 3414000   0.70728621   -8.2692251    658.57713  0.016075403  0.015569726            3 
 3415000   0.70530262   -8.2480992     658.2772  0.016063377  0.015564592            2 
 3416000   0.71042131   -8.2686077    659.80691  0.016095992  0.015559463            2 
 3417000   0.71004602   -8.2650174    658.16151  0.016051154  0.015554332            1 
 3418000   0.70134421   -8.2910477    658.85819  0.016063443  0.015549194            3 
 3419000   0.69174631   -8.2883421    658.45032  0.016048804   0.01554405            3 
 3420000   0.69585159   -8.2812299    659.09801  0.016059893  0.015538906            3 
 3421000   0.70923799   -8.2712205    656.71825  0.015997229  0.015533775            3 
 3422000   0.70840225   -8.2632248    659.84881   0.01606879  0.015528653            2 
 3423000   0.70304129   -8.2539755    657.79137  0.016014008  0.015523516            4 
 3424000    0.6964558   -8.2855656    658.30157  0.016021748  0.015518384            1 
 3425000   0.70420014   -8.2696393    659.28578  0.016041017  0.015513264            2 
 3426000    0.7032595   -8.2664905    658.86214   0.01602603  0.015508155            5 
 3427000   0.69957116   -8.2942555    657.60381  0.015990755  0.015503021            7 
 3428000    0.6891924   -8.2869901    658.22996  0.016001312  0.015497895            7 
 3429000   0.69098294   -8.2726428    659.19508    0.0160201  0.015492787            3 
 3430000   0.68886478   -8.2560336     658.0891  0.015988559  0.015487666            3 
 3431000   0.71260416   -8.2747293    658.92984  0.016004319  0.015482552            2 
 3432000   0.70866707   -8.2612585    660.77639  0.016044493  0.015477447            1 
 3433000   0.70921381   -8.2567764    659.24799  0.016002719  0.015472348            2 
 3434000   0.70111477   -8.3005942    658.77977  0.015986696  0.015467245            2 
 3435000   0.70518552   -8.2815189    657.92183  0.015961228  0.015462145            2 
 3436000   0.69226313   -8.2628586    659.93681  0.016005452  0.015457055            2 
 3437000   0.70694757   -8.2620785    659.17675  0.015982367   0.01545196            2 
 3438000   0.71125805   -8.2800686    658.09384   0.01595147   0.01544687            1 
 3439000   0.69320363   -8.2883407    658.51702  0.015957086  0.015441783            2 
 3440000   0.69674349   -8.2925942    658.87057  0.015961012  0.015436693            1 
 3441000    0.7111279   -8.2874843    659.53859  0.015972551  0.015431604            4 
 3442000    0.7093758   -8.2740787    659.67301  0.015971165  0.015426526            1 
 3443000   0.67896655   -8.3042025    659.06446  0.015951797  0.015421434            4 
 3444000   0.69594489   -8.2642902    660.23523  0.015975494   0.01541635            3 
 3445000   0.70335844    -8.289932    659.38518  0.015950295  0.015411279            1 
 3446000   0.70113857   -8.2725999    660.01749  0.015960957  0.015406218            2 
 3447000   0.69177014   -8.2666744    658.63285  0.015922852  0.015401151            3 
 3448000   0.70439311   -8.2805777     659.0373  0.015928009  0.015396085            2 
 3449000   0.70100478   -8.3085198    658.77404   0.01591703  0.015391004            2 
 3450000   0.69777666   -8.2777095    657.91999  0.015891787  0.015385911            2 
 3451000   0.70808901   -8.2846622    658.76661  0.015907626  0.015380845            2 
 3452000   0.70550068   -8.2918313    658.29491  0.015891631  0.015375786            2 
 3453000   0.70070072   -8.2983026    658.77106   0.01589852  0.015370723            2 
 3454000   0.71525841   -8.3061231    658.77504  0.015894013  0.015365664            2 
 3455000   0.69150371   -8.2883167    658.38705  0.015880054  0.015360583            2 
 3456000   0.69341626    -8.275733    658.45196  0.015877024  0.015355518            2 
 3457000   0.71406276   -8.2676671    659.96159  0.015908822  0.015350459            2 
 3458000   0.69398374   -8.2640884    660.34595  0.015913484  0.015345414            1 
 3459000   0.69128096   -8.2914461    659.63817  0.015891832  0.015340368            5 
 3460000   0.71089977   -8.2877333    659.61678  0.015886724  0.015335322            2 
 3461000    0.6999791   -8.2819682     659.7609  0.015885604  0.015330267            6 
 3462000   0.70170823   -8.3201337    659.99634  0.015886682  0.015325209            5 
 3463000   0.70300233   -8.2931152    660.03021   0.01588291  0.015320151            1 
 3464000    0.7057466   -8.3213765    659.76673  0.015871986  0.015315098            5 
 3465000   0.70393539   -8.2981912    659.13805  0.015852286  0.015310043            1 
 3466000   0.69247245   -8.2857903    658.46182  0.015831454   0.01530497            1 
 3467000   0.68949478    -8.302306     658.9794  0.015839328  0.015299909            3 
 3468000   0.68264568   -8.2832132    658.45345  0.015822123  0.015294851            4 
 3469000    0.7092023   -8.3292151    658.69245  0.015823303   0.01528978            1 
 3470000   0.69398079   -8.3171673    658.26582  0.015808497  0.015284706            1 
 3471000   0.69426359   -8.2999352    659.62256  0.015836516  0.015279634            4 
 3472000   0.69355139   -8.2903384    660.30438  0.015848319  0.015274581            2 
 3473000   0.68168862   -8.3080629     658.6042  0.015802961  0.015269513            2 
 3474000   0.69848469   -8.3072115    658.33745  0.015792013  0.015264444            2 
 3475000   0.68788137   -8.3114841    657.96787  0.015778606  0.015259385            4 
 3476000   0.71400887    -8.308931    660.29744  0.015829916  0.015254325            2 
 3477000   0.70010782   -8.2983717    659.88428  0.015815461  0.015249275            3 
 3478000   0.69731749   -8.3074692     659.9413   0.01581228  0.015244221            4 
 3479000   0.69264718     -8.30896    659.04205  0.015786195  0.015239152            2 
 3480000   0.69314096   -8.2961935    659.85227   0.01580106  0.015234092            1 
 3481000   0.69861943   -8.3032363    659.37992  0.015785213  0.015229021            3 
 3482000   0.70100353   -8.3006066    658.33444  0.015755659   0.01522398            2 
 3483000   0.69875076   -8.3008124     659.3068    0.0157744  0.015218924            2 
 3484000   0.68573981   -8.3024517    657.52335  0.015727214  0.015213868            4 
 3485000    0.6970674   -8.2920107    658.85102  0.015754448  0.015208808            2 
 3486000   0.71026794   -8.3054732    660.55956  0.015790772  0.015203759            5 
 3487000   0.67547105   -8.2909282     656.9768  0.015700621  0.015198721            5 
 3488000   0.68878318    -8.272525    658.38235  0.015729701  0.015193682            1 
 3489000   0.71095196   -8.3049122    659.07571  0.015741753  0.015188639            2 
 3490000   0.70146736    -8.313938    657.44386  0.015698277  0.015183588            2 
 3491000   0.69001928   -8.2999286    658.17686  0.015711278  0.015178535            3 
 3492000   0.67583502   -8.3080405    656.66036  0.015670589  0.015173469            2 
 3493000   0.68231783   -8.3042143    658.43885  0.015708532  0.015168401            2 
 3494000   0.70751424   -8.3078677    656.75603  0.015663901  0.015163341            1 
 3495000   0.69970478   -8.3219286    658.62128  0.015703893  0.015158274            2 
 3496000   0.69161515   -8.3082345     660.1589  0.015736053  0.015153223            2 
 3497000    0.6986268    -8.305715     657.9296  0.015678429  0.015148179            1 
 3498000   0.70138162   -8.3201665    658.94911  0.015698235   0.01514313            3 
 3499000   0.68846111    -8.306747    658.52842  0.015683729  0.015138081            3 
 3500000   0.70506527   -8.3073141    658.59463  0.015680825  0.015133028            2 
 3501000    0.6953458   -8.3050706    659.07787  0.015687848  0.015127967            2 
 3502000   0.68837844   -8.2893135    658.57572  0.015671419  0.015122915            2 
 3503000   0.69066135   -8.2894644    658.98957  0.015676791  0.015117864            3 
 3504000   0.67627581   -8.3095096      657.168  0.015628996  0.015112813            6 
 3505000   0.71066787   -8.3109608    658.61643  0.015658974  0.015107757            1 
 3506000   0.69067316    -8.334789    658.12945  0.015642932  0.015102689            1 
 3507000   0.68962737   -8.3119224    657.64776  0.015627026  0.015097643            4 
 3508000   0.69343898    -8.300515    658.69755  0.015647509  0.015092607            6 
 3509000   0.68430181   -8.3019182    657.54373  0.015615649  0.015087584            2 
 3510000   0.69008077   -8.2934465    659.64396  0.015661063  0.015082543            2 
 3511000   0.69893811   -8.3108511    658.53136  0.015630195  0.015077513            5 
 3512000   0.67917038   -8.2871524    658.22415  0.015618454  0.015072484            2 
 3513000   0.67828047   -8.2972792    659.98869  0.015655866  0.015067459            3 
 3514000   0.68211439   -8.3135067    657.32668  0.015588282  0.015062434            3 
 3515000   0.68496499    -8.318442    659.78139  0.015642043   0.01505741            2 
 3516000   0.68593514   -8.3252043    658.30786   0.01560267  0.015052366            1 
 3517000   0.67145431   -8.2936848    659.00228  0.015614688  0.015047328            3 
 3518000   0.69828923   -8.3298124    658.58714  0.015600416  0.015042279            2 
 3519000    0.6984127   -8.3147599    658.32334  0.015589735  0.015037246            1 
 3520000   0.69910078   -8.3222027    656.93681  0.015552481  0.015032218            2 
 3521000   0.68812355   -8.3086512    657.73589  0.015566976  0.015027195            1 
 3522000    0.6809826   -8.3198015    658.97105  0.015591781  0.015022172            3 
 3523000    0.6757315    -8.332506    658.16503   0.01556829  0.015017145            2 
 3524000   0.68889353   -8.3399358    657.04294  0.015537338  0.015012116            5 
 3525000   0.69003172   -8.3238315    658.53193  0.015568131  0.015007073            2 
 3526000   0.70265554   -8.3181326    657.68126  0.015543611  0.015002037            1 
 3527000   0.66901323   -8.3207774    658.10921  0.015549315  0.014997012            2 
 3528000    0.6948528   -8.3118596    657.44148  0.015529135  0.014991988            2 
 3529000   0.67536093   -8.3357411    657.63738  0.015529361  0.014986966            2 
 3530000   0.69089221   -8.3253202    657.45339  0.015520618  0.014981951            4 
 3531000   0.67165658   -8.3118544    657.34225    0.0155136  0.014976938            3 
 3532000   0.68853287   -8.3226934    657.26221  0.015507319  0.014971909            3 
 3533000   0.68404709   -8.3418639    658.02068   0.01552082  0.014966875            2 
 3534000   0.68340731   -8.3484582    657.48186  0.015503722  0.014961858            1 
 3535000   0.67677247   -8.3415694    657.97383  0.015510934   0.01495683            3 
 3536000   0.68164857   -8.3557945    658.14012  0.015510467  0.014951806            3 
 3537000   0.69533036   -8.3350274       656.97  0.015478513  0.014946775            1 
 3538000   0.68966857   -8.3368161    657.86781  0.015495285  0.014941745            2 
 3539000   0.68749314   -8.3703421     657.6246  0.015485179  0.014936715            2 
 3540000    0.6754782   -8.3400051    658.35538  0.015498008   0.01493169            3 
 3541000   0.68644014   -8.3399369    657.57776  0.015475331  0.014926655            1 
 3542000   0.67787669   -8.3418885    656.78916  0.015452408  0.014921616            1 
 3543000   0.69402522   -8.3584871    657.17876   0.01545721  0.014916588            2 
 3544000   0.69619041   -8.3621063    656.98215  0.015448226  0.014911564            1 
 3545000   0.69560509   -8.3562307    657.37001  0.015452986  0.014906549            2 
 3546000   0.68229411   -8.3304704    658.62486  0.015478118  0.014901527            1 
 3547000   0.67723411   -8.3409335    658.30407  0.015466217  0.014896507            2 
 3548000   0.68059998   -8.3389372    657.65116  0.015446523  0.014891498            2 
 3549000     0.692405   -8.3612778     657.8939   0.01544787  0.014886489            1 
 3550000   0.67470313   -8.3438623    657.34753  0.015430693  0.014881484            2 
 3551000   0.69462311    -8.334061    656.18887  0.015399157  0.014876463            2 
 3552000   0.69629914   -8.3210008    657.78376  0.015432239   0.01487145            2 
 3553000   0.69569733   -8.3186452    658.54968   0.01544586  0.014866439            2 
 3554000   0.67739309   -8.3181385    657.90301  0.015426351  0.014861441            2 
 3555000   0.68758984   -8.3328921     658.0802  0.015426165  0.014856441            5 
 3556000    0.6830474   -8.3420302    658.38887   0.01542906  0.014851447            2 
 3557000   0.69030448   -8.3183644    658.20198  0.015420344  0.014846455            2 
 3558000   0.68645846   -8.3295045    658.09406  0.015413483  0.014841465            2 
 3559000   0.69314516   -8.3287739    657.87244  0.015403963  0.014836479            1 
 3560000   0.68298497   -8.3159828    658.98752  0.015425738  0.014831495            1 
 3561000   0.68774997   -8.3409157    658.24501   0.01540403  0.014826508            2 
 3562000   0.69326681   -8.3222541    658.27894  0.015400499  0.014821523            2 
 3563000   0.68831434   -8.3277712    658.68586  0.015405694   0.01481654            2 
 3564000   0.67856629   -8.3363174    656.69545  0.015354832  0.014811551            3 
 3565000   0.68153624   -8.3370256    658.82158  0.015400224  0.014806569            2 
 3566000   0.69214417   -8.3412865    656.72107  0.015346819  0.014801585            1 
 3567000   0.67710849   -8.3518254    657.01186   0.01534931  0.014796604            3 
 3568000   0.66933706   -8.3555895    657.81798  0.015363836  0.014791617            2 
 3569000   0.67596603   -8.3315075    657.85341  0.015360358  0.014786636            2 
 3570000   0.67941288   -8.3411287    658.23104   0.01536487  0.014781662            2 
 3571000   0.68530355   -8.3304503    658.53161  0.015367582  0.014776687            3 
 3572000   0.68118644   -8.3493126    657.46626  0.015338425  0.014771708            4 
 3573000   0.67020523   -8.3484501    658.86827  0.015366832  0.014766733            2 
 3574000    0.6713538   -8.3504339     657.6162  0.015333338  0.014761761            2 
 3575000   0.67244355   -8.3622954    657.33869   0.01532258   0.01475679            4 
 3576000   0.67951766   -8.3606838    657.91919  0.015331823  0.014751803            6 
 3577000   0.68920885    -8.344474     656.2733  0.015289193  0.014746816            8 
 3578000   0.67069744   -8.3547993    656.86357  0.015298667   0.01474184            6 
 3579000   0.67732867   -8.3755192    656.59886  0.015288229  0.014736858            3 
 3580000   0.67709358   -8.3719914    656.81827  0.015289066  0.014731875            3 
 3581000   0.68645767   -8.3493464    656.12391  0.015268638   0.01472689            2 
 3582000   0.69000782   -8.3421628    656.26117  0.015267569   0.01472192            2 
 3583000   0.68599828   -8.3679992    657.31809  0.015287889   0.01471694            2 
 3584000   0.67346093   -8.3561305    656.86209  0.015273021  0.014711971            2 
 3585000   0.69261337   -8.3633186    656.24981  0.015254528  0.014707004            1 
 3586000   0.67260305   -8.3470621    657.30092  0.015274701  0.014702044            3 
 3587000   0.68539008   -8.3524862    657.12721  0.015266407  0.014697087            1 
 3588000   0.67255617   -8.3222746    658.04017  0.015283356  0.014692147            3 
 3589000   0.68026478   -8.3626571    658.84131  0.015297699  0.014687189            2 
 3590000   0.68653433   -8.3784398    658.32905  0.015281547  0.014682237            3 
 3591000   0.67677758   -8.3395102    657.73925  0.015263605  0.014677268            1 
 3592000   0.67274888   -8.3489647    657.09261  0.015244353  0.014672316            2 
 3593000   0.68175763   -8.3414244    657.13426  0.015241077  0.014667353           11 
 3594000   0.69100146   -8.3628765    657.28463  0.015240323  0.014662404            8 
 3595000    0.6648426   -8.3593864    656.34281  0.015214252  0.014657446            2 
 3596000   0.66754038   -8.3581503    656.18304  0.015206318  0.014652502            2 
 3597000   0.66826745   -8.3359473    658.80482  0.015262831  0.014647552            2 
 3598000   0.67193233   -8.3520299    657.95884  0.015238995  0.014642592            4 
 3599000   0.66596343   -8.3621188     656.9562  0.015211545  0.014637623            3 
 3600000   0.67169931   -8.3497562    656.73313  0.015202156  0.014632654            3 
 3601000   0.66993494   -8.3642469    656.29143  0.015187712  0.014627698            2 
 3602000   0.67032835   -8.3554747    656.32398  0.015184249  0.014622733            1 
 3603000   0.66528159    -8.346584    656.97824  0.015195167  0.014617769            2 
 3604000    0.6847947   -8.3720378    656.84012  0.015187757  0.014612815            4 
 3605000   0.66986567   -8.3404616    657.80569  0.015205864  0.014607868            2 
 3606000   0.68385787   -8.3558618    657.17557  0.015187086  0.014602909            2 
 3607000   0.68545031   -8.3564004    656.78049  0.015173747  0.014597969            1 
 3608000   0.69092826   -8.3797742    657.82721  0.015193718  0.014593014            2 
 3609000   0.68168171   -8.3466575    656.71244  0.015163767  0.014588067            2 
 3610000   0.66805788   -8.3405387    656.51415  0.015154989  0.014583117            2 
 3611000   0.66468781   -8.3604814    657.39576  0.015171138   0.01457817            2 
 3612000   0.68474461    -8.332265    658.57818  0.015194218   0.01457324            3 
 3613000   0.68546618   -8.3461835    657.04435  0.015154635  0.014568313            1 
 3614000   0.68135079   -8.3643283    658.25269  0.015178304  0.014563384            2 
 3615000   0.67774531   -8.3436898    659.27503  0.015197672  0.014558456            2 
 3616000   0.68079937   -8.3431307    658.58628  0.015177597  0.014553547            2 
 3617000   0.65334924   -8.3674823    655.23991  0.015096302  0.014548627            3 
 3618000   0.66847603    -8.356386     657.4506  0.015143049  0.014543711            2 
 3619000   0.67068535   -8.3996823    656.99335  0.015128335  0.014538788            2 
 3620000   0.67434164   -8.3526862    658.37258  0.015155907  0.014533861            1 
 3621000   0.66960501   -8.3627039    658.26699  0.015149291  0.014528932            3 
 3622000   0.66686758    -8.376599    657.75673  0.015133368  0.014524004            2 
 3623000   0.67169255   -8.3682745    656.92368   0.01511003  0.014519073            2 
 3624000   0.67391531   -8.3599584    658.23931  0.015136114  0.014514152            1 
 3625000   0.67043313   -8.3569221    657.62987  0.015117928  0.014509225            2 
 3626000   0.66665312   -8.3723825    656.90818  0.015097173  0.014504309            1 
 3627000   0.66882211   -8.3572381    657.27278  0.015101387  0.014499379            4 
 3628000   0.68955346   -8.3519386    656.73122  0.015084785   0.01449445            1 
 3629000   0.67720308   -8.3667353    657.69751  0.015102818   0.01448952            1 
 3630000   0.67148305   -8.3452174    655.84858  0.015056212  0.014484593            2 
 3631000   0.66976432   -8.3371716    656.47928   0.01506654  0.014479666            4 
 3632000   0.67046237   -8.3638165    656.80076  0.015069768  0.014474744            3 
 3633000   0.67891713   -8.3656646    655.84768  0.015043758  0.014469821            3 
 3634000   0.68044593   -8.3687873    656.31682  0.015050377  0.014464879            1 
 3635000   0.67278179    -8.349457    655.91769  0.015037086  0.014459945            2 
 3636000   0.67947456   -8.3795038    657.48632  0.015068902  0.014455009            2 
 3637000   0.67164199   -8.3687488    658.47348  0.015087377  0.014450082            2 
 3638000   0.65574514   -8.3880992    656.10065  0.015028877  0.014445154            2 
 3639000   0.67615236   -8.3643606    657.06595  0.015046852  0.014440225            3 
 3640000   0.65999846   -8.3760251    657.56227  0.015054081  0.014435307            1 
 3641000   0.68012733   -8.3862216    656.38143   0.01502292  0.014430393            2 
 3642000   0.67339327   -8.3610331    657.41829   0.01504252  0.014425478            2 
 3643000   0.65867147   -8.3749426    656.97931  0.015028349  0.014420577            3 
 3644000   0.68179531   -8.3787301    656.15736  0.015005428  0.014415674            2 
 3645000   0.67099082   -8.3819947    655.89187  0.014995242  0.014410767            2 
 3646000   0.66678351   -8.3901333    656.36535  0.015001951  0.014405862            3 
 3647000   0.67899443   -8.3692177    656.21243  0.014994343  0.014400953            1 
 3648000   0.66463435   -8.3796826     657.3255  0.015015659  0.014396051            3 
 3649000   0.68048606   -8.3773156    656.77674  0.014999012  0.014391156            3 
 3650000     0.673446   -8.3712436    656.13816  0.014980323   0.01438626            2 
 3651000   0.68075125   -8.3724992    657.89605  0.015016344  0.014381367            2 
 3652000   0.67918214   -8.3721009    656.32672  0.014976422   0.01437648            2 
 3653000   0.66860645   -8.3728669    657.02304  0.014988207    0.0143716            2 
 3654000   0.66395562   -8.3664843    658.45693  0.015016807  0.014366716            4 
 3655000   0.66653685   -8.3858057    656.22461  0.014961801  0.014361827            2 
 3656000    0.6701151      -8.3844    656.42104  0.014962186  0.014356929            3 
 3657000   0.66251842   -8.3953388    657.00322  0.014971361  0.014352039            1 
 3658000   0.67416869   -8.3812308     656.3204  0.014951713  0.014347149            2 
 3659000   0.67586286   -8.3639311    657.25013  0.014968801  0.014342263            3 
 3660000   0.66574788   -8.3601047    656.97803  0.014958516  0.014337374            1 
 3661000    0.6535355   -8.3515093    657.08626  0.014956894  0.014332487            2 
 3662000   0.64871517   -8.3734452    656.09939  0.014930352  0.014327605            2 
 3663000     0.662181    -8.386772    655.90412  0.014921834   0.01432273            1 
 3664000   0.66073322   -8.3551944    656.77055  0.014937467  0.014317861            6 
 3665000   0.66757811   -8.3764368    656.69035  0.014931568  0.014313001            3 
 3666000   0.66655292   -8.3549802    657.88631  0.014954681  0.014308133            3 
 3667000   0.66347169   -8.3836585    656.91705  0.014928576   0.01430327            1 
 3668000   0.66540218    -8.349033    657.89888  0.014946812  0.014298406            3 
 3669000   0.67464037   -8.3428318    657.33983  0.014930041  0.014293547            2 
 3670000   0.65253127   -8.3557251    656.29664  0.014902285  0.014288691            1 
 3671000   0.66750076   -8.3598716     657.0481  0.014915284  0.014283834            1 
 3672000   0.66677844   -8.3472547    657.14446  0.014913409  0.014278977            2 
 3673000   0.65826312   -8.3759239    655.83487  0.014879637   0.01427412            2 
 3674000   0.65011117   -8.3839016     656.2076  0.014884041   0.01426926            2 
 3675000   0.66946424   -8.3715912    656.59149  0.014888696  0.014264412            3 
 3676000   0.67330465   -8.3832448     658.0942  0.014918712  0.014259564            2 
 3677000   0.67038842   -8.3615108    657.28107  0.014896226  0.014254728            5 
 3678000   0.66673794   -8.3706313    657.72098  0.014902143  0.014249889            2 
 3679000   0.66064484   -8.3637721    656.96356  0.014880936  0.014245043            3 
 3680000   0.65498741   -8.3772652    656.75181  0.014872097  0.014240195            1 
 3681000   0.66081973   -8.3520328     658.1361  0.014899395  0.014235344            2 
 3682000   0.66164444   -8.3804979    656.76865    0.0148644  0.014230494            3 
 3683000   0.66786029   -8.3698317    657.08454  0.014867512  0.014225647            2 
 3684000   0.65742233   -8.3627056    658.08361  0.014886075  0.014220807            2 
 3685000   0.66600153   -8.3917446    657.34173  0.014865259  0.014215978            1 
 3686000   0.65512061    -8.365375    656.72073  0.014847186  0.014211147            2 
 3687000   0.68285201    -8.384433    656.50811  0.014838353  0.014206319            1 
 3688000   0.67187975   -8.3603846    656.78132  0.014840503  0.014201498            2 
 3689000   0.67765383   -8.3767807    657.30889  0.014848398  0.014196689            1 
 3690000   0.65329505   -8.3568705    657.47031   0.01484802  0.014191877            4 
 3691000      0.65877   -8.3508886    657.04769  0.014834455  0.014187058            3 
 3692000   0.65986154   -8.3555324    657.93185  0.014850394  0.014182253            3 
 3693000   0.65786231   -8.3524973    656.96332  0.014824517  0.014177439            1 
 3694000   0.67695003   -8.3433901    657.09486  0.014823472  0.014172632            6 
 3695000   0.66251223    -8.378227    657.60143  0.014830885   0.01416783            3 
 3696000    0.6722473   -8.3276948    658.16037  0.014839474  0.014163033            1 
 3697000   0.65186826   -8.3534554    657.29363  0.014815923  0.014158236            2 
 3698000   0.65810676    -8.373633    657.50451  0.014816669  0.014153426            1 
 3699000   0.65999897   -8.3898866    657.97807  0.014823332  0.014148628            1 
 3700000   0.65198558   -8.3599434     657.4774   0.01480805  0.014143832            6 
 3701000   0.65973697   -8.3771299    657.41446  0.014802631  0.014139037            9 
 3702000   0.66458813   -8.3861458    658.07352  0.014813468  0.014134238            1 
 3703000    0.6569955    -8.405298    657.32514  0.014792626   0.01412944            5 
 3704000   0.66191304   -8.3791763    658.22421   0.01480886   0.01412464            1 
 3705000   0.65617333   -8.4035658    657.69022  0.014792852  0.014119847            2 
 3706000   0.65703694   -8.3688742    658.16202   0.01479947  0.014115057            2 
 3707000   0.66005723   -8.3976264    658.99079  0.014814108  0.014110272            2 
 3708000   0.64748502   -8.3742423    657.49138  0.014776415   0.01410549            5 
 3709000   0.66377758   -8.3879945    656.91166  0.014759406  0.014100705            3 
 3710000   0.66222539   -8.3766761    658.23965  0.014785257   0.01409592            2 
 3711000    0.6698225   -8.3947806    657.81824   0.01477181   0.01409114            3 
 3712000   0.66351072    -8.371256    656.57897  0.014740009  0.014086365            1 
 3713000   0.65058856   -8.4003218    656.68636   0.01473845  0.014081584            2 
 3714000   0.64162902   -8.3891705    657.40679  0.014750646  0.014076791            2 
 3715000   0.64433688   -8.4002112    657.21907  0.014742465  0.014071996            2 
 3716000   0.66026076   -8.3692569     656.4372  0.014720963  0.014067207            2 
 3717000   0.65064861   -8.3927826    656.65443  0.014721873  0.014062426            2 
 3718000   0.65445923   -8.3990294    656.21702   0.01470811  0.014057649            3 
 3719000    0.6515527   -8.4085814    656.06903  0.014700839  0.014052873            4 
 3720000   0.65482913   -8.4111862    656.77783  0.014712765  0.014048092            2 
 3721000   0.65101034   -8.3998421    657.92305  0.014734459  0.014043315            1 
 3722000   0.66034596    -8.411449     657.6383  0.014724125  0.014038542            2 
 3723000   0.67101357   -8.4355119    657.79118  0.014723592   0.01403377            2 
 3724000   0.66491766   -8.4035169    657.66141  0.014716734   0.01402899            2 
 3725000   0.66282383   -8.4033465    656.74317  0.014692241  0.014024209            2 
 3726000   0.63999438   -8.4166451    656.97103  0.014693394  0.014019424            1 
 3727000   0.64059013    -8.403768    657.66183  0.014704897   0.01401464            1 
 3728000   0.65641494   -8.4028019    657.07683  0.014687876  0.014009865            1 
 3729000    0.6465743   -8.3968348     657.5259  0.014693973  0.014005085            1 
 3730000   0.66082527   -8.4235717    656.71212  0.014671853  0.014000306            2 
 3731000    0.6372277   -8.4050686    656.20593  0.014656614  0.013995528            2 
 3732000   0.66000889   -8.4164175    657.78936  0.014688044  0.013990762            2 
 3733000   0.63970483   -8.4281702    656.29556  0.014650763  0.013985987            1 
 3734000   0.65616742   -8.4005348    655.64304  0.014632276  0.013981211            2 
 3735000    0.6473724   -8.4033679    655.85735   0.01463314  0.013976435            2 
 3736000   0.65879619   -8.4273171    656.77284  0.014649644  0.013971657            2 
 3737000   0.65874617     -8.40443     656.7165  0.014644468  0.013966887            2 
 3738000   0.65365066   -8.4465776    655.73983  0.014618776  0.013962111            1 
 3739000   0.65459345   -8.4208954    655.27768  0.014604566   0.01395734            2 
 3740000    0.6498441   -8.3961893    655.67204  0.014609448  0.013952575            2 
 3741000    0.6478969    -8.411371    656.01293  0.014613137   0.01394781            3 
 3742000   0.64637074   -8.4057168    656.07488  0.014610611  0.013943045            2 
 3743000   0.64520102   -8.4096216     656.5358   0.01461697  0.013938279            2 
 3744000   0.65589529   -8.3967585    657.60618   0.01463689  0.013933518            1 
 3745000    0.6617592   -8.4282856    655.94405  0.014595996  0.013928749            1 
 3746000    0.6452421   -8.4145029    657.05122  0.014616729  0.013923998            1 
 3747000   0.64698065   -8.4199107    656.03193   0.01459016   0.01391924            4 
 3748000   0.66548516   -8.4056098    656.32757   0.01459284  0.013914489            2 
 3749000    0.6611994   -8.4126291    655.72616  0.014575579  0.013909731            3 
 3750000    0.6624697   -8.4125306    656.56783  0.014590396  0.013904974            3 
 3751000   0.63778952   -8.4026639    656.41054  0.014583012   0.01390023            3 
 3752000   0.65132818   -8.4208381    656.55229  0.014582274   0.01389549            1 
 3753000   0.64449578   -8.4095754    656.76498  0.014583111  0.013890749            4 
 3754000   0.63228889   -8.4169625    655.85459  0.014559017  0.013885999            3 
 3755000   0.65286374   -8.4258617    655.05858  0.014537474  0.013881241            2 
 3756000   0.66674738   -8.4128925     654.4486   0.01452007  0.013876494            2 
 3757000   0.64650155   -8.4243148    656.72122  0.014566614  0.013871744            2 
 3758000   0.64801303   -8.4423246    657.22786  0.014573972  0.013867002            2 
 3759000   0.66082497   -8.4219251    655.30275  0.014527417  0.013862262            3 
 3760000    0.6485637   -8.4223437    658.04884  0.014584416  0.013857524            1 
 3761000   0.64533296    -8.438004    656.81112  0.014553113  0.013852786            2 
 3762000   0.67361441   -8.4024063    657.23175  0.014558562  0.013848056            2 
 3763000   0.66199351    -8.412368      656.039   0.01452828  0.013843324            3 
 3764000   0.65365313   -8.4133293    656.56758  0.014536123  0.013838584            1 
 3765000    0.6494581     -8.41571    655.72815  0.014513682  0.013833851            2 
 3766000   0.64327607   -8.4190612    655.68735  0.014508925  0.013829122            2 
 3767000   0.67556145   -8.4125785    656.90739  0.014532063  0.013824395            3 
 3768000   0.65515356   -8.4165535     654.4407  0.014473653  0.013819663            4 
 3769000   0.65924601   -8.4263519    655.63124  0.014496136  0.013814933            1 
 3770000   0.65959762   -8.4294083     656.1581  0.014503937  0.013810203            5 
 3771000   0.63765256   -8.4304415    656.93186   0.01451719  0.013805481            1 
 3772000   0.64803932   -8.4370579    655.61342  0.014484213  0.013800759            2 
 3773000   0.65087947   -8.4448057    656.05303  0.014490084  0.013796038            3 
 3774000    0.6345638   -8.4303159    656.08985  0.014487057  0.013791315            3 
 3775000   0.64549592    -8.420619      656.586  0.014494172  0.013786594            3 
 3776000   0.65355602   -8.4119665    655.52216  0.014466855   0.01378189            2 
 3777000   0.63688637   -8.4336866    656.81587  0.014491569  0.013777179            1 
 3778000   0.66761858   -8.4328212    654.49056  0.014436443  0.013772462            1 
 3779000   0.65019828   -8.4424782    655.84881  0.014462574  0.013767757            4 
 3780000   0.65317606   -8.4387325    656.91133  0.014482172  0.013763049            2 
 3781000   0.64086578    -8.415945    656.06115  0.014459604  0.013758343            1 
 3782000   0.64459911   -8.4474955     656.5158  0.014465799  0.013753636            3 
 3783000   0.63630946   -8.4292484    655.67027  0.014443349  0.013748927            2 
 3784000   0.63917968   -8.4486493    655.29972  0.014431371  0.013744215            3 
 3785000   0.63783048    -8.434237    656.29011  0.014449364  0.013739499            2 
 3786000    0.6492961   -8.4410854     656.1082  0.014441543  0.013734793            2 
 3787000   0.63988219   -8.4458024    655.63545  0.014427327  0.013730089            2 
 3788000   0.64436204   -8.4404573    656.22081  0.014436396  0.013725395            1 
 3789000   0.64140345   -8.4348537    655.17109  0.014409499  0.013720697            2 
 3790000   0.64341864   -8.4241297    657.89494  0.014465588  0.013715995            2 
 3791000   0.65210387   -8.4200777    656.83984  0.014438579  0.013711307            2 
 3792000   0.64704304   -8.4000418    657.56521  0.014450712  0.013706621            2 
 3793000   0.65423937   -8.4456229    655.53095  0.014402209  0.013701928            3 
 3794000    0.6339256   -8.4270143    655.97315  0.014408126  0.013697238            3 
 3795000   0.64093098   -8.4293288    656.40279  0.014413763  0.013692538            3 
 3796000   0.64558154   -8.4457547    655.24694  0.014384592  0.013687852            1 
 3797000   0.64417177   -8.4412454    655.68578  0.014390435  0.013683161            2 
 3798000   0.65485007    -8.438012    656.44495  0.014403303  0.013678477            3 
 3799000   0.64668794   -8.4475732     655.5124  0.014379056  0.013673786            1 
 3800000   0.65584881   -8.4305603    655.95041  0.014384878  0.013669099            2 
 3801000   0.62591605   -8.4562594    655.62384  0.014373933  0.013664413            1 
 3802000   0.64968741   -8.4664292    655.66816  0.014371124  0.013659723            4 
 3803000   0.63458004   -8.4511611    654.80964  0.014348533  0.013655032            2 
 3804000   0.64479134   -8.4685488     656.2802  0.014376976  0.013650344            3 
 3805000   0.63742128   -8.4245439    656.03094  0.014367738  0.013645661            2 
 3806000   0.63835114   -8.4396184     656.5684  0.014375731  0.013640984            1 
 3807000   0.65208291   -8.4332519    656.74602  0.014375843  0.013636314            1 
 3808000   0.65666762   -8.4472136    655.31058  0.014340655  0.013631644            3 
 3809000   0.65143763   -8.4289185    656.82509  0.014370025  0.013626975            2 
 3810000   0.64612403   -8.4502424    656.71899  0.014363932  0.013622306            3 
 3811000   0.63412052   -8.4525715    655.86256  0.014341436  0.013617631            2 
 3812000   0.65393619   -8.4582197    655.59476   0.01433182  0.013612965            2 
 3813000   0.63465561   -8.4462561    655.56444  0.014327398  0.013608301            2 
 3814000   0.64279176   -8.4637173    656.39052  0.014341691  0.013603644            1 
 3815000   0.65561041   -8.4422008    655.41596  0.014316644  0.013598981            4 
 3816000   0.65334905   -8.4654359    655.67137   0.01431847  0.013594321            2 
 3817000   0.64683854   -8.4420801    655.31365  0.014306909  0.013589668            2 
 3818000   0.63872704   -8.4454851    655.23567   0.01430146  0.013585019            1 
 3819000   0.62397999   -8.4290059    655.89561  0.014312115  0.013580372            2 
 3820000   0.63248388   -8.4325157     656.6137  0.014324034  0.013575721            3 
 3821000   0.63795492   -8.4424834    657.44486  0.014338412  0.013571075            3 
 3822000   0.64691079     -8.45922    655.81018  0.014299018  0.013566427            4 
 3823000    0.6444121   -8.4409391    655.52278  0.014289013  0.013561784            3 
 3824000   0.64653394   -8.4325881    656.47156  0.014305953  0.013557151            3 
 3825000   0.62351446   -8.4299718    657.02979  0.014314375  0.013552512            1 
 3826000   0.64869519   -8.4252734    656.25285  0.014293711  0.013547877            2 
 3827000   0.64934972   -8.4503533    657.39278  0.014314798  0.013543237            3 
 3828000   0.61828977    -8.458906    655.59466  0.014271915  0.013538596            2 
 3829000   0.64713796   -8.4491255    656.38025  0.014285284  0.013533953            3 
 3830000   0.63691548   -8.4409966    655.46647  0.014261673  0.013529313            1 
 3831000   0.63972217   -8.4301403    657.10368  0.014293563  0.013524677            2 
 3832000   0.63847383   -8.4584166      655.756  0.014260525  0.013520048            2 
 3833000   0.64511317   -8.4447818    656.63782  0.014275977  0.013515424            1 
 3834000   0.64076088   -8.4742701    655.56429   0.01424892  0.013510798            5 
 3835000   0.63782167   -8.4575436      656.751  0.014270991  0.013506171            4 
 3836000   0.64194069   -8.4548038    656.05277  0.014252102  0.013501546            4 
 3837000   0.62876352   -8.4498007    657.18562  0.014272992  0.013496931            5 
 3838000   0.62776924   -8.4531583    657.04925  0.014266312  0.013492324            5 
 3839000   0.65020949   -8.4736021    655.40315  0.014226863   0.01348771            4 
 3840000   0.63681263   -8.4576665    656.20368  0.014240531  0.013483095            2 
 3841000   0.63880016   -8.4543954    656.58577  0.014245113  0.013478479            2 
 3842000   0.64063109    -8.466413    656.43237  0.014238079  0.013473859            2 
 3843000   0.63345367   -8.4582984     655.8826  0.014222452  0.013469242            3 
 3844000   0.63791837   -8.4591009    655.86202  0.014218306  0.013464617            2 
 3845000   0.63730792   -8.4469851    656.11222  0.014220031  0.013459995            1 
 3846000   0.62305051   -8.4405673    655.66847  0.014206719  0.013455374            1 
 3847000   0.64222817   -8.4495867    657.36483  0.014239772  0.013450757            2 
 3848000   0.63502413   -8.4566344    655.86696  0.014203633  0.013446144            4 
 3849000   0.62817695   -8.4411288    654.86148  0.014178173  0.013441533            4 
 3850000    0.6245621   -8.4531798    656.43103  0.014208464  0.013436932            1 
 3851000   0.63238634   -8.4618697    655.43197  0.014183155   0.01343232            1 
 3852000    0.6376271   -8.4272226    655.35184   0.01417774   0.01342771            2 
 3853000   0.62995957   -8.4712422    656.30678  0.014194714  0.013423096            6 
 3854000    0.6369762   -8.4648112    655.71096  0.014178147  0.013418489            2 
 3855000   0.63355728    -8.449938    655.28822  0.014165331  0.013413886            3 
 3856000   0.63862821   -8.4435868    656.37806  0.014185211  0.013409294            3 
 3857000   0.62520321   -8.4312409    657.51063  0.014206003   0.01340471            2 
 3858000      0.64585   -8.4313688    656.57859  0.014182188   0.01340013            1 
 3859000   0.62954932   -8.4508483    656.89198  0.014185281  0.013395557            2 
 3860000   0.64564766   -8.4565439    656.05114  0.014163453  0.013390979            3 
 3861000    0.6361595   -8.4295578    656.73858  0.014174622  0.013386398            3 
 3862000    0.6317789   -8.4500343    656.69392  0.014169988  0.013381828            1 
 3863000   0.63210695   -8.4499469    654.95776  0.014128867  0.013377243            4 
 3864000   0.63072816   -8.4469707    655.38922  0.014134516  0.013372662            2 
 3865000   0.62600606   -8.4589338    656.13572  0.014146954   0.01336809            2 
 3866000   0.62684666   -8.4460924    656.40436  0.014149085  0.013363516            2 
 3867000   0.63280372   -8.4312283    655.60953  0.014128298  0.013358952            2 
 3868000    0.6401926   -8.4602188    655.66107  0.014125756  0.013354383            3 
 3869000   0.63066032    -8.454016    657.89545   0.01417023  0.013349814            1 
 3870000   0.63364982   -8.4532029    655.78139  0.014121046  0.013345254            2 
 3871000   0.62957726   -8.4524034    656.03062  0.014122764  0.013340691            2 
 3872000   0.62651266    -8.433421     656.1445  0.014121567  0.013336131            1 
 3873000   0.62475615   -8.4501255    656.51171  0.014125822  0.013331571            3 
 3874000   0.63562578   -8.4564322    656.79225   0.01412821  0.013327008            1 
 3875000   0.62430537   -8.4479786    656.29015  0.014113767  0.013322451            2 
 3876000   0.64248716   -8.4290282    657.88093  0.014144327  0.013317894            1 
 3877000   0.63166279    -8.450227      656.207  0.014104699  0.013313336            1 
 3878000   0.63194136   -8.4833058    655.82594  0.014092873   0.01330878            1 
 3879000   0.62702677   -8.4551304    654.32131  0.014056916  0.013304231            2 
 3880000   0.64656685   -8.4778579    655.93498  0.014087951  0.013299681            3 
 3881000   0.62219326   -8.4775095    655.52887  0.014075601  0.013295127            1 
 3882000   0.63165735   -8.4888225    654.41439  0.014048051  0.013290567            3 
 3883000   0.62828813   -8.4765672    654.97507  0.014056466  0.013286004            3 
 3884000   0.63522243   -8.4406969    654.69626  0.014046865  0.013281447            3 
 3885000   0.62666291   -8.4862189    655.06764  0.014051215  0.013276894            1 
 3886000   0.62222211   -8.4931868    655.05287  0.014047282  0.013272341            4 
 3887000   0.62627421   -8.4687637    655.85098  0.014060779  0.013267799            2 
 3888000   0.64489799   -8.4645874    655.06201  0.014040252  0.013263252            2 
 3889000   0.62447062   -8.4601035    654.23743  0.014018973  0.013258709            2 
 3890000    0.6239259   -8.4685544    655.91331  0.014051271  0.013254165            3 
 3891000   0.63597584   -8.4784093    655.35867  0.014035781  0.013249625            1 
 3892000   0.63838963   -8.4529714    655.78694  0.014041344  0.013245095            2 
 3893000   0.63439859   -8.4708947    655.51197  0.014031851  0.013240554            3 
 3894000   0.62685462   -8.4793107    655.74874  0.014033315  0.013236017            4 
 3895000   0.62640624   -8.4571497    656.88895  0.014054107  0.013231481            3 
 3896000   0.63423808   -8.4585128    655.08245  0.014011859  0.013226943            5 
 3897000   0.63246252   -8.4499823    654.57932  0.013997505  0.013222407            2 
 3898000   0.62957493   -8.4779573    655.27988  0.014008891   0.01321788            2 
 3899000   0.62028428   -8.4749061    654.19025  0.013982009  0.013213353            3 
 3900000   0.64309494   -8.4851218    655.79463  0.014012706   0.01320883            1 
 3901000   0.63916364   -8.4733203    654.84259  0.013988776  0.013204304            3 
 3902000   0.63487419   -8.4703673    656.24699  0.014015184  0.013199775            2 
 3903000   0.61674614    -8.495082    656.56129  0.014018304  0.013195252            2 
 3904000    0.6352817   -8.4741316    654.65863    0.0139741  0.013190724            5 
 3905000    0.6338836   -8.4871679    655.67037  0.013992112  0.013186199            1 
 3906000   0.63225178   -8.4655797    655.60643  0.013987166  0.013181675            1 
 3907000   0.61976707   -8.4846372    653.91315  0.013947469  0.013177155            2 
 3908000   0.63995266   -8.4912526    655.07166  0.013968604  0.013172641            2 
 3909000   0.63217328   -8.4797665    655.35722  0.013971118  0.013168125            1 
 3910000   0.62598327   -8.4833061     655.3878  0.013968197  0.013163613            1 
 3911000   0.63910942   -8.4822303    656.80176  0.013994753  0.013159111            1 
 3912000   0.63223664   -8.4982191     655.2437  0.013957986  0.013154602            2 
 3913000   0.62218479   -8.4803184    654.94543  0.013948067  0.013150092            3 
 3914000   0.62202416   -8.4878773    654.53344  0.013935732  0.013145588            2 
 3915000   0.61851121   -8.4699772    655.79765  0.013959081  0.013141083            1 
 3916000   0.61948578   -8.4961244     655.3443  0.013945869  0.013136582            1 
 3917000   0.64054143   -8.4812587    655.55212   0.01394673   0.01313208            2 
 3918000   0.62744688   -8.4881936    655.71754  0.013946689   0.01312758            3 
 3919000   0.62215281   -8.4939739    654.75169  0.013922593  0.013123077            1 
 3920000   0.62609316   -8.4895525    655.44899  0.013933865  0.013118574            1 
 3921000   0.63244528   -8.4676958    656.07344  0.013943582  0.013114077            2 
 3922000    0.6165194   -8.4849558    655.76202   0.01393341  0.013109582            1 
 3923000   0.61650466   -8.4817723    654.91034  0.013911767  0.013105085            1 
 3924000   0.62036794   -8.4922823    656.13671  0.013934266  0.013100597            3 
 3925000   0.63299914   -8.4743857    653.84159  0.013881987  0.013096107            3 
 3926000   0.63342993   -8.4791116    654.94873  0.013901951  0.013091622            1 
 3927000   0.64050857   -8.4702025    655.01872  0.013899896  0.013087132            2 
 3928000   0.62863468   -8.4673808    654.44604  0.013884208   0.01308265            2 
 3929000   0.62783634   -8.4916947    655.70395  0.013907355  0.013078171            3 
 3930000   0.63345987   -8.4751192    656.42312  0.013919065  0.013073691            1 
 3931000   0.63826629   -8.4781935    656.00668  0.013906696  0.013069217            3 
 3932000   0.62271801   -8.4881048    654.48165  0.013870839  0.013064741            3 
 3933000   0.63078536   -8.4802712    655.83156  0.013895914  0.013060266            1 
 3934000   0.62364092   -8.4707863    655.07733  0.013876405  0.013055793            3 
 3935000   0.62141816   -8.4702621    655.75021  0.013887129  0.013051316            6 
 3936000   0.61998903   -8.4761113    656.46333  0.013898698  0.013046842            4 
 3937000   0.61059501   -8.4813757    655.83269   0.01388182  0.013042372            3 
 3938000   0.61762933   -8.4789554    655.53688  0.013872035  0.013037904            2 
 3939000   0.62589469   -8.4863728    655.48487  0.013867413  0.013033429            2 
 3940000   0.62746633   -8.4870776    655.54582  0.013865182  0.013028961            4 
 3941000    0.6210066   -8.4824434    655.52375  0.013861197    0.0130245            2 
 3942000   0.62241026   -8.4991624    654.16898  0.013829042  0.013020036            1 
 3943000   0.61572449   -8.4766464    656.24704  0.013869453  0.013015571            3 
 3944000   0.63407313    -8.477209    654.94617   0.01383845  0.013011107            1 
 3945000   0.62414957   -8.4570528    654.78425  0.013831522  0.013006651            4 
 3946000   0.63333377   -8.4949924    655.87638  0.013851081  0.013002189            3 
 3947000   0.60541792   -8.4767565    657.21047  0.013875738  0.012997728            2 
 3948000   0.60631883   -8.4764411     654.1869  0.013808403  0.012993275            1 
 3949000    0.6307342   -8.4968058    654.79426  0.013817723  0.012988813            5 
 3950000   0.62109365   -8.5025341    655.08923  0.013820448  0.012984357            1 
 3951000    0.6100351   -8.4914668      655.152  0.013818274  0.012979892            4 
 3952000   0.62418153   -8.4965094    656.12536  0.013835302   0.01297543            2 
 3953000   0.64018431   -8.4682402    655.23549  0.013813043  0.012970971            4 
 3954000   0.61793945   -8.5119423    654.95277  0.013803591  0.012966511            1 
 3955000   0.61924165   -8.5076994    654.30185  0.013786385  0.012962043            2 
 3956000   0.62983228   -8.5007089    654.48356  0.013786728  0.012957578            1 
 3957000   0.63015905   -8.5116129    655.18565   0.01379803  0.012953114            2 
 3958000   0.61755504   -8.5155694    654.63364  0.013782922  0.012948652            2 
 3959000   0.62132596   -8.5097741    655.16813  0.013790691   0.01294419            3 
 3960000   0.61779046   -8.4989709    654.21706  0.013767194  0.012939723            3 
 3961000   0.61258261   -8.4977572    655.19938  0.013784385  0.012935265            2 
 3962000   0.61210174   -8.5048869     655.1325  0.013779499  0.012930804            3 
 3963000   0.61561033    -8.498556    654.71522  0.013767248   0.01292635            4 
 3964000   0.61375026    -8.527665    655.00456  0.013769857    0.0129219            3 
 3965000   0.62259836   -8.4971959    655.17752  0.013770019  0.012917452            3 
 3966000   0.62096891   -8.5128271    654.70116  0.013756538  0.012913009            2 
 3967000   0.62250251   -8.5115137    654.39312    0.0137466  0.012908564            4 
 3968000   0.59243892     -8.50615    654.50431   0.01374547  0.012904121            3 
 3969000   0.62247258   -8.5133499    653.27737  0.013716246  0.012899681            3 
 3970000    0.6109046    -8.500993    655.35098  0.013756318  0.012895247            2 
 3971000   0.60769807   -8.5333033    653.48139  0.013713619  0.012890806            3 
 3972000    0.6153351   -8.5151003      654.389  0.013729209  0.012886361            3 
 3973000   0.61615047   -8.5243269    654.33235  0.013724565  0.012881926            3 
 3974000   0.61545795   -8.4980209    653.20669  0.013697507  0.012877489            7 
 3975000    0.6059051   -8.5219457    653.97018  0.013710067  0.012873055            2 
 3976000    0.6245044   -8.5152881    653.22439  0.013690987  0.012868623            1 
 3977000   0.61353978   -8.5087999    654.21037  0.013708205  0.012864192            4 
 3978000   0.63017418   -8.5290159    653.36112  0.013686968  0.012859752            6 
 3979000   0.60310603   -8.5065584    655.74504  0.013733456  0.012855319            2 
 3980000   0.61540189   -8.4904659    653.51833  0.013683382  0.012850893            2 
 3981000   0.60496047   -8.5217352    653.97226  0.013689447  0.012846464            4 
 3982000   0.60758314   -8.5037747    653.90477  0.013684597  0.012842033            1 
 3983000   0.61489841   -8.5191239    654.47805  0.013693155  0.012837618            3 
 3984000   0.61527921    -8.510773    654.03596  0.013680471  0.012833202            1 
 3985000   0.59800844   -8.5125292    655.02011  0.013697618  0.012828795            2 
 3986000   0.60262848   -8.5121794    654.24208  0.013677916  0.012824378            3 
 3987000   0.60933358   -8.5073861    654.34907  0.013676722  0.012819969            7 
 3988000   0.60780333   -8.5145753    654.72597  0.013681168  0.012815553            3 
 3989000   0.60357449   -8.5243158    653.01333   0.01364196   0.01281114            5 
 3990000   0.62853896    -8.515911    654.21584  0.013663656  0.012806731            2 
 3991000   0.63544571   -8.5077097    654.71198  0.013670592  0.012802327            1 
 3992000   0.60234875   -8.5226592    654.50434  0.013662833  0.012797914            2 
 3993000   0.62090997   -8.5246574    653.36441  0.013635621  0.012793505            2 
 3994000   0.61333523   -8.5359481    655.28547  0.013672289  0.012789091            1 
 3995000   0.62173484   -8.5321226    654.06666  0.013643443  0.012784682            2 
 3996000   0.62220982   -8.5258742    655.50423  0.013670008   0.01278029            2 
 3997000   0.62230306   -8.5125936    654.62841  0.013648328  0.012775894            2 
 3998000   0.59352672   -8.5200486    653.99057  0.013631619  0.012771495            1 
 3999000   0.61166626   -8.5205181    654.64372  0.013641821  0.012767098            1 
 4000000   0.60055627   -8.5256221    652.96588  0.013603456  0.012762701            2 
 4001000   0.60194239   -8.5216682    655.00688  0.013642566  0.012758312            1 
 4002000   0.61618059   -8.5350854    653.29689   0.01360355  0.012753917            2 
 4003000   0.61005844    -8.509608    654.25162  0.013620027  0.012749528            2 
 4004000   0.61278282   -8.5152755     653.4537  0.013600019   0.01274514            2 
 4005000   0.61764021   -8.5057157    654.62994  0.013621097  0.012740752            3 
 4006000     0.607265    -8.513481    653.48578  0.013593896  0.012736374            2 
 4007000   0.60946888   -8.5289428    653.56627  0.013592178  0.012731993            1 
 4008000   0.61317501   -8.5281978    654.09093  0.013599695  0.012727608            2 
 4009000   0.60425959    -8.515275    654.12363  0.013596982  0.012723228            6 
 4010000   0.61101823   -8.5066045    653.70804  0.013584955  0.012718853            2 
 4011000   0.60382945   -8.5132514    653.49691  0.013577182  0.012714485            2 
 4012000   0.59319742   -8.5256959    654.64806  0.013597708  0.012710114            1 
 4013000   0.62131384   -8.5214957    654.86458  0.013598816  0.012705743            2 
 4014000   0.60690084   -8.5133309     654.1043  0.013579644  0.012701371            2 
 4015000   0.61434762    -8.530685    653.16482  0.013556763   0.01269699            2 
 4016000   0.60615971   -8.5444383    653.10118  0.013552066  0.012692613            2 
 4017000   0.60614405   -8.5143379    654.27379  0.013573019  0.012688242            1 
 4018000   0.60287158   -8.5159871    653.09458  0.013545184  0.012683867            3 
 4019000   0.60247516   -8.5363793    654.15706  0.013563844  0.012679496            1 
 4020000   0.60103429   -8.5138811    653.41835  0.013545157   0.01267513            4 
 4021000   0.61548449   -8.5307493    653.21753  0.013537626  0.012670763            2 
 4022000   0.62297849   -8.5249275    653.81137  0.013546564  0.012666398            2 
 4023000   0.60944782   -8.5177163    654.84671  0.013564643  0.012662031            3 
 4024000   0.61015654   -8.5363361    654.82359  0.013560793  0.012657668            3 
 4025000   0.61780488   -8.5135091    654.14986  0.013543475  0.012653309            2 
 4026000   0.61128316   -8.5492379    652.92264  0.013514709  0.012648953            2 
 4027000   0.60336928   -8.5274618    653.76577  0.013528801  0.012644603            2 
 4028000    0.6097447   -8.5387133    654.20812  0.013534594  0.012640247            1 
 4029000   0.60821524   -8.5557393    653.88936  0.013524641  0.012635902            2 
 4030000    0.6205707   -8.5162898    653.94735  0.013522484   0.01263155            4 
 4031000   0.61897678   -8.5136406     653.9064  0.013518283  0.012627207            3 
 4032000   0.59354054   -8.5192432    654.06364   0.01351818  0.012622862            3 
 4033000   0.60581227   -8.5343729    653.73959  0.013508133  0.012618521            2 
 4034000   0.61632949   -8.5329664    654.72866  0.013525216  0.012614175            2 
 4035000   0.60116742   -8.5356211    654.27958  0.013512589  0.012609833            4 
 4036000   0.59597098   -8.5374254     654.4539  0.013512841  0.012605497            3 
 4037000   0.60673062    -8.533099    653.87364  0.013497516  0.012601162            3 
 4038000   0.60617076   -8.5136007    654.06286  0.013498078   0.01259683            2 
 4039000   0.60576533   -8.5209622    654.19318  0.013497425  0.012592492            1 
 4040000   0.61208354   -8.5478941    654.52256  0.013500878  0.012588151            1 
 4041000   0.60759551   -8.5318099    653.33297  0.013473005  0.012583809            1 
 4042000   0.59907573   -8.5518647    655.30505   0.01351033  0.012579469            1 
 4043000   0.59472589    -8.541566    653.31238  0.013465916  0.012575133            3 
 4044000   0.61134571    -8.548048    653.72784  0.013471147  0.012570801            2 
 4045000   0.61993389   -8.5450795    653.36048  0.013460249  0.012566465            2 
 4046000   0.60415868   -8.5561127    654.28982  0.013476063  0.012562134            2 
 4047000     0.607148   -8.5174036    654.53033  0.013477686  0.012557804            7 
 4048000   0.60118556   -8.5279695    653.52879  0.013453738   0.01255348            5 
 4049000   0.60847738   -8.5452726    653.03228  0.013440197  0.012549146            3 
 4050000   0.61015587   -8.5467481    652.81898  0.013432489  0.012544818            2 
 4051000   0.59795129   -8.4989451    655.10471  0.013476193  0.012540502            3 
 4052000   0.60394102   -8.5246993    653.64853   0.01344292  0.012536186            4 
 4053000   0.61646921   -8.5239738     654.6754  0.013460716  0.012531881            1 
 4054000   0.58758847   -8.5551761    653.59143  0.013435114  0.012527572            3 
 4055000   0.59854223   -8.5358435    654.06245  0.013441481  0.012523263            3 
 4056000   0.61978262   -8.5546137    652.74527  0.013411104  0.012518959            2 
 4057000   0.59088565   -8.5093758    653.35954  0.013420416  0.012514652            2 
 4058000   0.59850027   -8.5241095    655.27927  0.013456532  0.012510353            2 
 4059000   0.61190362   -8.5138118    653.34079  0.013413418  0.012506051            3 
 4060000   0.60453411   -8.5254565    654.48235  0.013433546  0.012501747            3 
 4061000   0.59286706   -8.5451813    654.55867  0.013431804  0.012497444            1 
 4062000   0.59641821   -8.5413209    653.81986   0.01341334  0.012493142            2 
 4063000   0.61917869   -8.5328611    654.12991  0.013416398  0.012488841            4 
 4064000   0.60571705   -8.5211536    654.97132   0.01343035  0.012484543            3 
 4065000   0.60936667   -8.5399285    654.94397  0.013426486  0.012480252            1 
 4066000   0.61005469   -8.5450453    652.68578  0.013376902  0.012475958            2 
 4067000   0.61570579   -8.5429715     653.9887  0.013400309  0.012471667            2 
 4068000    0.6165961   -8.5478482    653.89679  0.013395133  0.012467375            1 
 4069000   0.61361287   -8.5580831    653.81831  0.013390233  0.012463079            1 
 4070000   0.60681618    -8.534615    653.42713  0.013378934   0.01245879            3 
 4071000   0.59705097   -8.5312243    652.06783  0.013347823  0.012454501            4 
 4072000   0.58774273   -8.5351903    654.35957  0.013391445  0.012450216            2 
 4073000   0.61040705   -8.5571537     653.9484  0.013379745   0.01244593            3 
 4074000   0.60073162   -8.5494068    653.10457    0.0133592  0.012441651            3 
 4075000   0.59418736   -8.5198546    654.28375  0.013380036  0.012437371            4 
 4076000   0.61943452   -8.5279271    653.36574  0.013357984  0.012433097            4 
 4077000   0.60717296   -8.5379045    654.05109  0.013368717  0.012428825            1 
 4078000   0.59785147   -8.5421624     653.0953  0.013345907   0.01242455            5 
 4079000   0.59764299   -8.5242823    653.99628  0.013361042  0.012420274            1 
 4080000   0.59222741   -8.5308299    651.80187  0.013312947  0.012415996            5 
 4081000   0.59650751   -8.5557572    653.93346  0.013353211  0.012411718            4 
 4082000   0.60927599   -8.5420275    652.95236  0.013329911  0.012407444            2 
 4083000   0.59099888   -8.5451962    653.21699  0.013332047  0.012403164            2 
 4084000   0.59715626   -8.5560455    652.97965   0.01332394  0.012398882            2 
 4085000   0.60322944   -8.5519867    652.85142  0.013318062  0.012394601            4 
 4086000    0.5929983   -8.5526595    653.45934  0.013327201  0.012390327            2 
 4087000   0.60537116   -8.5502018    653.35099  0.013321731  0.012386045            1 
 4088000   0.59816634   -8.5618564    653.80571  0.013327742  0.012381774            2 
 4089000   0.58800202   -8.5380997    653.10873  0.013310278  0.012377504            2 
 4090000   0.59943863   -8.5688197    652.08117  0.013286087   0.01237323            2 
 4091000   0.60155824    -8.550095    653.88194  0.013319521  0.012368955            2 
 4092000   0.59564086   -8.5627879    652.83872  0.013295021  0.012364686            2 
 4093000   0.59620474   -8.5396456     653.5561  0.013306379  0.012360423            2 
 4094000   0.60795397   -8.5632054    652.64372  0.013284557  0.012356155            4 
 4095000   0.59914389   -8.5483138    653.91154  0.013307113   0.01235189            1 
 4096000   0.59069088   -8.5517701    652.63894  0.013277973  0.012347632            3 
 4097000   0.59903828   -8.5621575    652.67213  0.013275408  0.012343364            3 
 4098000   0.59755269   -8.5563917    652.38588  0.013266347  0.012339102            2 
 4099000   0.60438479   -8.5551913    652.87256  0.013273005  0.012334844            4 
 4100000   0.60362357   -8.5792534    650.97905  0.013231282  0.012330586            2 
 4101000   0.59740121   -8.5373601    654.48585  0.013299314  0.012326332            5 
 4102000   0.60133273   -8.5291285    653.21799  0.013270315  0.012322079            2 
 4103000   0.59461648    -8.554043    652.40775  0.013250625  0.012317833            2 
 4104000   0.59383746   -8.5497375    653.61141  0.013271837  0.012313583            2 
 4105000   0.59566512   -8.5478268    652.44883  0.013245003  0.012309331            3 
 4106000   0.59030021   -8.5572096    653.09036  0.013254797  0.012305084            3 
 4107000   0.59446788   -8.5391643    652.85211  0.013246735   0.01230084            4 
 4108000   0.59876786   -8.5741421    653.31672  0.013252936  0.012296597            1 
 4109000   0.59182443   -8.5555316    653.41336   0.01325167  0.012292356            2 
 4110000   0.59046819   -8.5566947    652.96535  0.013239362  0.012288113            3 
 4111000   0.60978119   -8.5631116    652.11815  0.013218968  0.012283872            2 
 4112000   0.58325361   -8.5413001    652.90309  0.013231661  0.012279637            3 
 4113000   0.57988185   -8.5609972    652.18418  0.013213878  0.012275405            2 
 4114000   0.58591802   -8.5524205    652.94576  0.013226093  0.012271171            3 
 4115000   0.59192666   -8.5365687    652.58867  0.013215647  0.012266939            3 
 4116000   0.59632192   -8.5460307     652.7247  0.013215191   0.01226271            2 
 4117000   0.60256443   -8.5659232    651.51635  0.013187522  0.012258484            4 
 4118000   0.60242103   -8.5713371    652.52944  0.013204821  0.012254256            3 
 4119000   0.59523236   -8.5537098    653.64772   0.01322424  0.012250033            3 
 4120000   0.59778881   -8.5745875     653.0194  0.013208321  0.012245812            2 
 4121000   0.59277138   -8.5785501    652.79642  0.013200607  0.012241587            1 
 4122000   0.58336745   -8.5491482    652.77883  0.013197049  0.012237369            2 
 4123000    0.5974582    -8.553816    652.45401  0.013187283  0.012233147            2 
 4124000   0.59297053   -8.5641124    652.95322  0.013194173  0.012228927            2 
 4125000    0.6034519   -8.5645252    652.01737  0.013172068  0.012224713            2 
 4126000   0.59021299   -8.5451534    653.52903  0.013199407  0.012220497            4 
 4127000   0.58802798   -8.5776679    652.15851  0.013168535  0.012216281            2 
 4128000   0.59123086   -8.5595962    653.22323  0.013186839  0.012212064            2 
 4129000   0.58227241   -8.5603857    652.05889  0.013160146  0.012207851            2 
 4130000   0.59456579   -8.5632508    653.38432  0.013183703  0.012203637            2 
 4131000   0.58713238    -8.555695    652.87583  0.013170254  0.012199423            2 
 4132000   0.58337883   -8.5640205    651.05895  0.013130424  0.012195209            2 
 4133000   0.60095459    -8.583336    651.96111  0.013145437  0.012190997            3 
 4134000   0.58741966   -8.5671782    651.13436  0.013125592  0.012186791            3 
 4135000   0.58960228   -8.5457697    652.85656  0.013157125  0.012182589            2 
 4136000   0.59202765   -8.5669448     652.7664  0.013152128  0.012178384            1 
 4137000   0.59011639   -8.5623953     653.2227   0.01315814  0.012174177            1 
 4138000   0.57638921    -8.586474    651.77182  0.013125742  0.012169972            3 
 4139000   0.58303565   -8.5810368     653.3513  0.013154371  0.012165767            4 
 4140000   0.58077809    -8.586296    652.40726  0.013132191  0.012161567            3 
 4141000   0.59489268   -8.5877627    652.63247  0.013133552  0.012157369            3 
 4142000   0.57736577    -8.559927    652.22736  0.013122231  0.012153171            1 
 4143000    0.5888954   -8.5861259    650.73504  0.013089047  0.012148974            1 
 4144000   0.59673838   -8.5835089    652.04988  0.013112329  0.012144778            3 
 4145000   0.59137776   -8.5893593    652.33047  0.013114806  0.012140587            2 
 4146000   0.59018894   -8.5682099    651.07733  0.013086455  0.012136393            2 
 4147000   0.59756709   -8.5785878    653.25374  0.013127034  0.012132207            3 
 4148000   0.58593123   -8.5613017    651.95223  0.013097722  0.012128015            2 
 4149000   0.58129008   -8.5862289    653.48104  0.013125272  0.012123823            2 
 4150000   0.58629585   -8.5619207    652.55054  0.013103424   0.01211964            3 
 4151000   0.57707958   -8.5963839    651.61701  0.013081527  0.012115457            3 
 4152000   0.58863954   -8.5684403    653.18928  0.013109933  0.012111277            3 
 4153000   0.58154248   -8.5641432    652.90124  0.013100996  0.012107099            2 
 4154000   0.59064649   -8.5898103    652.59676  0.013091734  0.012102931            1 
 4155000    0.5851631   -8.5672013    652.50985   0.01308684  0.012098761            2 
 4156000    0.5972171   -8.5823073    652.12811  0.013076037  0.012094589            1 
 4157000   0.60289771   -8.5870861    650.93629  0.013048999  0.012090416            3 
 4158000   0.57632145   -8.5822163    652.29545  0.013073101  0.012086246            3 
 4159000   0.59196971    -8.569035    652.39072  0.013071867  0.012082081            3 
 4160000    0.5943688   -8.5994761    651.94898  0.013059875  0.012077915            2 
 4161000   0.57520413   -8.5753654     652.1983   0.01306173   0.01207375            2 
 4162000   0.58599726   -8.5726097    652.21376  0.013058901  0.012069582            3 
 4163000   0.58803762   -8.5592838    653.25562   0.01307662  0.012065423            5 
 4164000   0.59140066   -8.5771388    652.40923  0.013056541  0.012061258            1 
 4165000   0.59499276   -8.5786431    653.96332    0.0130845  0.012057097            4 
 4166000   0.59304725   -8.5748132    651.95837  0.013041254  0.012052945            2 
 4167000   0.58338903   -8.5826057     652.2836  0.013044628  0.012048792            5 
 4168000   0.58650927    -8.575027    652.44705  0.013044767  0.012044637            2 
 4169000   0.58316867   -8.5792075    651.60304  0.013024767  0.012040479            1 
 4170000   0.58610164   -8.5749643    651.43101  0.013018206  0.012036323            2 
 4171000   0.58694553    -8.588053    652.11028  0.013028656  0.012032171            2 
 4172000   0.58625798   -8.5757559    651.73908  0.013018118  0.012028027            1 
 4173000   0.59485562   -8.5841842    652.00415  0.013020292  0.012023881            2 
 4174000   0.57508638   -8.6015419    651.57864  0.013008678  0.012019735            1 
 4175000   0.57907824    -8.589838    650.66252  0.012987276  0.012015584            2 
 4176000   0.58242622    -8.589406    651.73351  0.013005538  0.012011442            1 
 4177000   0.57599096   -8.5578631    651.04781  0.012988744  0.012007304            3 
 4178000   0.58325182   -8.6053537    652.11974  0.013007016  0.012003162            3 
 4179000    0.5826514   -8.5931591    652.53384  0.013012161   0.01199902            4 
 4180000   0.58587562   -8.5700043    652.84717  0.013015295  0.011994886            2 
 4181000   0.58210001   -8.5871461    652.57145  0.013006686  0.011990754            1 
 4182000   0.58058174   -8.5584132    653.43181   0.01302072  0.011986627            3 
 4183000    0.5848695   -8.5804301    652.57223  0.013000483  0.011982495            2 
 4184000   0.57824256   -8.6014705    650.31272  0.012952372  0.011978368            2 
 4185000   0.57187873   -8.5820181    651.59461  0.012974803  0.011974242            1 
 4186000   0.58544855   -8.5994478    650.33541  0.012946636  0.011970117            2 
 4187000   0.57438989   -8.5798214    651.92332  0.012975148  0.011965991            4 
 4188000   0.58090779   -8.5529649    652.97429  0.012992962  0.011961871            3 
 4189000   0.57378167    -8.572016    651.63874  0.012963292  0.011957753            2 
 4190000    0.5672009   -8.5751883    653.03562   0.01298798  0.011953633            1 
 4191000   0.59103471   -8.5920803    651.31238  0.012950616  0.011949517            3 
 4192000    0.5870639   -8.6006736    651.77575  0.012956738  0.011945397            2 
 4193000   0.57614322   -8.5848924    652.03951   0.01295889  0.011941282            2 
 4194000   0.58005288   -8.5658053    652.79095  0.012970731  0.011937169            3 
 4195000   0.58459811   -8.5738644    651.92819    0.0129505  0.011933058            2 
 4196000   0.59296362   -8.5954319    651.99244   0.01294869  0.011928947            1 
 4197000   0.58315752   -8.5893378    652.44183  0.012954528  0.011924839            1 
 4198000   0.57844113   -8.5918066    650.24814  0.012907895  0.011920732            2 
 4199000   0.58171223   -8.5678158    651.91835  0.012937968  0.011916627            4 
 4200000   0.58530647   -8.5764433    652.64705  0.012949346  0.011912524            3 
 4201000   0.57389492   -8.6052025    651.37219  0.012920975  0.011908419            3 
 4202000    0.5803478   -8.6017084    651.95934  0.012929544  0.011904318            2 
 4203000   0.58303621   -8.5966875    652.51473   0.01293748  0.011900223            2 
 4204000   0.59584367     -8.59149    651.45872   0.01291347  0.011896122            2 
 4205000   0.58781483   -8.5933086    651.05778  0.012902453  0.011892024            2 
 4206000   0.58058284   -8.5965047    651.85705  0.012915221  0.011887924            4 
 4207000     0.576435    -8.575509    652.38907   0.01292269  0.011883826            2 
 4208000   0.58256726   -8.6174555      650.517  0.012882545  0.011879729            1 
 4209000   0.57949612   -8.5974587    650.60598  0.012881246  0.011875631            3 
 4210000   0.57649858   -8.5860147     652.0681  0.012907128  0.011871542            3 
 4211000   0.57256766   -8.5897452    651.25866  0.012888044  0.011867451            2 
 4212000   0.57642885   -8.5985923    650.45914  0.012869166  0.011863367            5 
 4213000   0.57619775   -8.6060408    651.77349   0.01289211  0.011859276            1 
 4214000   0.57583454   -8.6026713    651.23991  0.012878498  0.011855195            1 
 4215000     0.588086    -8.608671    652.60996   0.01290253  0.011851105            2 
 4216000   0.58304773   -8.5971219    652.13234  0.012890029   0.01184702            2 
 4217000   0.56165308   -8.6148273    650.86081  0.012861845  0.011842931            2 
 4218000   0.57542959   -8.5977508    651.44712  0.012870379   0.01183885            2 
 4219000    0.5729781   -8.5885629    651.23366  0.012863113  0.011834768            2 
 4220000   0.57846159   -8.6053011    651.87145  0.012872659  0.011830698            2 
 4221000   0.56338865   -8.6000571    651.64682  0.012865175  0.011826623            2 
 4222000   0.58771951    -8.595863    652.30626  0.012875143   0.01182255            2 
 4223000   0.57817843   -8.6056539    650.48116  0.012836079  0.011818481            2 
 4224000   0.56395013   -8.6067055    650.70822   0.01283752  0.011814408            3 
 4225000   0.57062055   -8.6015683     651.8225   0.01285646  0.011810343            1 
 4226000   0.56064313   -8.5954896    651.78924  0.012852761  0.011806276            2 
 4227000   0.57516551   -8.5979189    650.55604  0.012825409  0.011802213            2 
 4228000   0.58128753   -8.5848177     651.5908   0.01284277  0.011798149            3 
 4229000   0.57454786      -8.6071    651.60209  0.012839956  0.011794088            4 
 4230000   0.57872596   -8.5919088    651.22611  0.012829513  0.011790031            3 
 4231000   0.57492113    -8.597785    652.13418  0.012844367  0.011785975            2 
 4232000   0.56733593   -8.5985156    651.59786  0.012830771  0.011781919            3 
 4233000   0.58370719   -8.5919719    651.50789  0.012825968  0.011777861            3 
 4234000   0.58007439   -8.6031333    651.87346  0.012830134  0.011773807            4 
 4235000   0.57121661   -8.6117613    651.91306  0.012827884  0.011769754            2 
 4236000   0.57691142   -8.6025625    651.54311  0.012817578  0.011765707            2 
 4237000   0.56629162   -8.6049624    650.95902  0.012803065  0.011761665            2 
 4238000   0.58780795   -8.6089863     652.7537  0.012835333  0.011757622            5 
 4239000   0.57065702   -8.6129815     651.0307  0.012798433  0.011753578            3 
 4240000   0.58177332   -8.6036376    652.01322  0.012814725  0.011749537            7 
 4241000   0.57068084    -8.613317    651.18363  0.012795403  0.011745492            5 
 4242000   0.57228253   -8.6064559    650.45198  0.012778013  0.011741454            4 
 4243000    0.5892695   -8.5910898    650.71926  0.012780251  0.011737419            4 
 4244000   0.56781688   -8.6024165    651.65552  0.012795624   0.01173339            2 
 4245000   0.57087523   -8.6248646    651.03016  0.012780333  0.011729362            5 
 4246000   0.56043193   -8.6153529    650.84675  0.012773723  0.011725328            3 
 4247000   0.56199275   -8.6102193    651.10026   0.01277569  0.011721303            2 
 4248000   0.57842241   -8.6055327    651.60946  0.012782672  0.011717279            4 
 4249000   0.57573009   -8.5887301    651.49175  0.012777354  0.011713259            4 
 4250000   0.57797142    -8.588542    652.39066  0.012791974  0.011709237            3 
 4251000   0.57185574   -8.5899818    651.19431  0.012765512  0.011705216            4 
 4252000    0.5651679   -8.6318411    651.17021  0.012762038  0.011701196            3 
 4253000   0.56351271   -8.6035227    651.34432  0.012762448  0.011697175            1 
 4254000   0.56889548   -8.6061218    652.79473  0.012787861  0.011693155            4 
 4255000   0.57964935   -8.5955234    650.85121  0.012746792   0.01168914            2 
 4256000   0.57790538   -8.6109532    651.89806  0.012764295  0.011685127            4 
 4257000   0.57959512   -8.5886525    651.93356  0.012761991  0.011681114            3 
 4258000      0.57453   -8.6270961    650.98123  0.012740356  0.011677098            4 
 4259000    0.5716841   -8.5976799    651.65674  0.012750582  0.011673084            2 
 4260000   0.56658973   -8.6124987    652.16879  0.012757605  0.011669071            4 
 4261000   0.57822366   -8.6238596    651.46854  0.012740916  0.011665054            2 
 4262000   0.55827893   -8.6027247    651.30648  0.012734758  0.011661045            4 
 4263000   0.56635425    -8.606601    652.14826  0.012748226  0.011657038            3 
 4264000   0.56375395   -8.6280767    651.54845  0.012733514  0.011653028            2 
 4265000    0.5701366   -8.6003312    651.06957  0.012721172  0.011649024            2 
 4266000   0.56743072    -8.617751    651.93206  0.012735038  0.011645017            2 
 4267000   0.56115524   -8.6266923    650.58618  0.012705769  0.011641014            5 
 4268000   0.55440829   -8.6160084    651.34806  0.012717667  0.011637013            1 
 4269000   0.56926708   -8.6142055     651.6504   0.01272059  0.011633015            2 
 4270000   0.56257606   -8.6085097    652.09433  0.012726275  0.011629012            2 
 4271000   0.55576856    -8.612258    651.77517  0.012717068  0.011625013            7 
 4272000   0.56826593   -8.5980409    653.27333  0.012743316  0.011621018            2 
 4273000    0.5626917   -8.6035979    651.39047  0.012703613  0.011617026            3 
 4274000   0.57107965   -8.6025346    651.17593  0.012696458  0.011613038            1 
 4275000   0.57172308   -8.6248223    651.23845  0.012694707   0.01160905            3 
 4276000   0.56206829   -8.6249909    651.34275   0.01269377  0.011605064            5 
 4277000   0.55332107   -8.6265447    650.92279   0.01268262  0.011601077            2 
 4278000   0.56888259   -8.6234011     651.1843   0.01268475  0.011597093            3 
 4279000   0.56617911   -8.6169353    650.69922  0.012672338  0.011593114            3 
 4280000   0.56147579   -8.6084771    651.74769  0.012689791  0.011589134            1 
 4281000   0.56981602   -8.6104465    651.19543  0.012676077  0.011585157            2 
 4282000   0.56982481    -8.622411    650.41062  0.012657843  0.011581182            1 
 4283000   0.57092522   -8.5980884     651.0849  0.012668007  0.011577211            1 
 4284000   0.57500304   -8.6192563    651.44992  0.012672151  0.011573238            1 
 4285000   0.56580079   -8.6167564    650.40691  0.012648909  0.011569266            2 
 4286000   0.56451237     -8.60303    651.93991  0.012675764  0.011565296            2 
 4287000   0.56222805   -8.6247684    651.09549  0.012656393   0.01156133            1 
 4288000   0.56463113   -8.6221902    649.64853  0.012625321  0.011557363            1 
 4289000   0.56990226   -8.6381756    651.57662  0.012659839  0.011553394            2 
 4290000   0.57023277   -8.6407509    651.52795  0.012655943   0.01154943            1 
 4291000   0.56409012   -8.6143841    650.72235  0.012637349   0.01154547            2 
 4292000   0.56528698   -8.6089869    651.43599   0.01264826  0.011541509            2 
 4293000    0.5498527   -8.6288044    650.74154  0.012631834  0.011537546            2 
 4294000   0.55176554   -8.6270018    651.80576  0.012649545  0.011533583            3 
 4295000   0.55896525   -8.6142898    650.79709  0.012627029  0.011529625            3 
 4296000    0.5738527   -8.6122874    650.66979  0.012621621  0.011525671            2 
 4297000   0.55705078   -8.6005225     652.9965  0.012663806   0.01152172            2 
 4298000   0.56901684   -8.5990882    651.92545  0.012640093  0.011517771            4 
 4299000   0.56333545   -8.6256405     650.8301   0.01261592  0.011513818            2 
 4300000   0.56226484   -8.6240567    650.76459  0.012611717  0.011509866            1 
 4301000   0.57258666   -8.6199336    650.26562  0.012599117  0.011505909            4 
 4302000    0.5563587   -8.6256201    650.16929  0.012594322   0.01150196            1 
 4303000    0.5664892   -8.6195954    650.43737  0.012596587   0.01149801            2 
 4304000   0.56452197   -8.6195516    650.46099  0.012594118  0.011494066            4 
 4305000   0.56380762   -8.6090707    650.21277  0.012586387  0.011490124            2 
 4306000   0.55850069   -8.6231543    650.88334  0.012596442  0.011486179            1 
 4307000   0.56369824   -8.6184727    650.20977  0.012580485  0.011482238            2 
 4308000   0.55316116   -8.6266835     652.1077  0.012614278  0.011478303            2 
 4309000   0.57291411   -8.6194428    650.54786  0.012581184  0.011474369            4 
 4310000   0.56002185   -8.6138854    650.68539  0.012580924  0.011470434            1 
 4311000   0.57398502   -8.6208662    650.54463  0.012575285  0.011466501            2 
 4312000   0.55793945   -8.6022021    651.05969  0.012582322  0.011462572            3 
 4313000   0.54426723   -8.6240422    650.27337  0.012564212  0.011458642            1 
 4314000   0.56522881   -8.6266771    651.92578  0.012593219  0.011454716            3 
 4315000   0.56055869   -8.6224563    650.62988  0.012565274  0.011450789            2 
 4316000    0.5544049    -8.620974    649.85177  0.012547339  0.011446861            2 
 4317000   0.56628351   -8.6191137    650.52087  0.012557348  0.011442935            1 
 4318000   0.54870069   -8.6228257    650.50888  0.012554209  0.011439008            1 
 4319000    0.5701295   -8.6380419     650.8288  0.012557475  0.011435084            2 
 4320000    0.5581898   -8.6326535    651.29981  0.012563654  0.011431161            2 
 4321000   0.55685406   -8.6416657    651.38387  0.012562367   0.01142724            2 
 4322000   0.57407346   -8.6313283    651.10363  0.012554057  0.011423319            1 
 4323000   0.56674573    -8.624326    650.24409  0.012534584  0.011419401            1 
 4324000   0.56319142   -8.6100114    650.04438  0.012527836  0.011415486            2 
 4325000   0.56721309   -8.6218276    650.68159  0.012537218  0.011411575            1 
 4326000    0.5568834   -8.6091936    650.63314  0.012533386  0.011407661            4 
 4327000   0.55610543   -8.6349696    650.87924  0.012535229  0.011403752            1 
 4328000   0.55846868   -8.6283496    651.39781  0.012542318  0.011399846            2 
 4329000   0.55326648    -8.635854    650.70801  0.012526142  0.011395935            2 
 4330000    0.5580963   -8.6458889    650.09073  0.012511369  0.011392032            4 
 4331000   0.55924533    -8.636539    650.86144   0.01252331  0.011388125            2 
 4332000   0.56172018   -8.6162991    651.24579  0.012527812  0.011384228            1 
 4333000   0.56346954   -8.6367568    650.10808   0.01250304  0.011380334            1 
 4334000   0.54901603   -8.6490041    650.33015  0.012504425  0.011376434            1 
 4335000   0.56226821   -8.6598682    650.22333  0.012499487  0.011372531            2 
 4336000    0.5566277   -8.6205513    649.92706  0.012490911  0.011368635            1 
 4337000   0.55915827   -8.6311606    650.52175  0.012499457  0.011364738            2 
 4338000   0.55851312   -8.6429088    650.71014  0.012500195  0.011360841            1 
 4339000    0.5520938    -8.651328    651.44665  0.012511459  0.011356943            1 
 4340000    0.5543924   -8.6202238    651.01063  0.012500204  0.011353049            1 
 4341000   0.54406494   -8.6376823    649.46003  0.012467558  0.011349159            1 
 4342000   0.57146193   -8.6321437    650.13756   0.01247769  0.011345269            3 
 4343000   0.57396418   -8.6448619    650.31561  0.012478233   0.01134138            3 
 4344000   0.55565151    -8.639844    650.84658  0.012485547  0.011337494            1 
 4345000   0.55237474   -8.6375164    650.97422  0.012485121   0.01133361            2 
 4346000    0.5541796    -8.624235    648.84713  0.012441462  0.011329726            1 
 4347000   0.55469486   -8.6334134     650.2735  0.012465944  0.011325845            2 
 4348000   0.55620549   -8.6397518    650.61792  0.012469678  0.011321967            1 
 4349000   0.55685085   -8.6128401     651.0982  0.012476014  0.011318085            2 
 4350000   0.55042364   -8.6597025    650.86845  0.012468744  0.011314211            1 
 4351000   0.54945122   -8.6412873    650.63308  0.012461371  0.011310337            1 
 4352000   0.55974945   -8.6431209    650.92458  0.012464089  0.011306464            2 
 4353000   0.55579999   -8.6331975    649.46496  0.012433283  0.011302586            2 
 4354000   0.55516201   -8.6225062      650.787   0.01245573  0.011298712            1 
 4355000   0.55618882   -8.6446726    650.79205  0.012452967  0.011294843            2 
 4356000   0.54274473   -8.6277675    649.80792  0.012431281  0.011290979            4 
 4357000   0.54778355   -8.6463222    650.08755  0.012433776  0.011287115            1 
 4358000   0.55256578   -8.6471691    651.69782  0.012461714  0.011283253            2 
 4359000    0.5585954   -8.6468171    650.22851  0.012430766  0.011279397            3 
 4360000   0.55251097    -8.628996    651.44422  0.012451151  0.011275539            2 
 4361000   0.55066539    -8.636817    651.00443  0.012439892  0.011271687            1 
 4362000   0.54120568    -8.635795    650.68212  0.012430883  0.011267832            3 
 4363000   0.55681276   -8.6523637    650.53511  0.012425226  0.011263981            1 
 4364000   0.55297759   -8.6307433    649.28206  0.012398451  0.011260124            2 
 4365000    0.5511183   -8.6279296    650.48322  0.012418542  0.011256274            1 
 4366000   0.54728045   -8.6458988    651.21993  0.012429759  0.011252424            2 
 4367000   0.55032218   -8.6440615    650.39558  0.012411182  0.011248574            2 
 4368000       0.5543   -8.6610372    650.44324   0.01240925  0.011244727            1 
 4369000   0.55210397   -8.6474358     649.0513   0.01237986  0.011240878            1 
 4370000   0.55763657   -8.6441291    649.85425  0.012392339   0.01123703            2 
 4371000   0.55651506   -8.6424331    650.52642  0.012402319  0.011233184            1 
 4372000   0.55531674   -8.6349038    650.76068  0.012403947  0.011229345            1 
 4373000   0.54690191   -8.6488085    648.64188  0.012360734  0.011225504            1 
 4374000   0.54658887   -8.6361655    649.92052  0.012382269  0.011221659            1 
 4375000   0.55265525   -8.6458792     650.0739   0.01238236  0.011217822            2 
 4376000   0.54707373    -8.641492    650.75298  0.012392462  0.011213983            1 
 4377000   0.54359962   -8.6329115    650.39863  0.012382885   0.01121015            1 
 4378000    0.5484894    -8.639253    649.69589   0.01236668  0.011206312            1 
 4379000   0.55626475   -8.6567845    650.34371  0.012376184  0.011202485            2 
 4380000   0.56329384    -8.655177    649.71408  0.012361379  0.011198653            1 
 4381000   0.57001686   -8.6513048    650.10308  0.012365957  0.011194823            3 
 4382000   0.55188009   -8.6600353    650.22227  0.012365401  0.011190992            2 
 4383000   0.54081555   -8.6446013    649.15373  0.012342264  0.011187164            5 
 4384000   0.54933423   -8.6503624    651.14766  0.012377351  0.011183337            3 
 4385000   0.55259353    -8.648548     649.8808  0.012350452  0.011179517            2 
 4386000   0.55243102   -8.6396055    650.42311   0.01235794  0.011175701            2 
 4387000   0.55676661    -8.643986    649.63685  0.012340188  0.011171879            2 
 4388000   0.55034758   -8.6575561    650.18979  0.012347877  0.011168061            4 
 4389000   0.54935375   -8.6297811     650.2151  0.012345544  0.011164245            2 
 4390000   0.55032356   -8.6433337    649.87343  0.012336246  0.011160429            2 
 4391000   0.55235933   -8.6455355    649.49246  0.012326206  0.011156609            3 
 4392000    0.5422868   -8.6474396    650.18434  0.012336527  0.011152802            2 
 4393000   0.54319638   -8.6463824    650.22696  0.012334528  0.011148992            2 
 4394000   0.54113254   -8.6564077    650.24818  0.012332123  0.011145183            2 
 4395000   0.55540312   -8.6431414    650.89609  0.012341602  0.011141371            1 
 4396000   0.53964074   -8.6444268    650.43883  0.012330126  0.011137569            2 
 4397000   0.55413294    -8.637111    650.22952  0.012323355  0.011133769            2 
 4398000   0.54738535   -8.6451953    650.66317   0.01232877  0.011129967            1 
 4399000   0.54544379   -8.6704477    650.23196  0.012317799  0.011126164            1 
 4400000   0.53060824   -8.6478082    649.92226  0.012309134  0.011122365            1 
 4401000   0.55831658   -8.6573783    649.93927  0.012306659  0.011118569            1 
 4402000   0.53874946   -8.6558574    649.98081   0.01230465   0.01111477            1 
 4403000   0.54136722   -8.6668256    650.20159  0.012306034  0.011110972            1 
 4404000   0.55417412   -8.6628542    649.27706  0.012285745  0.011107179            1 
 4405000   0.54217195   -8.6472155    649.71027  0.012291152  0.011103389            1 
 4406000    0.5491481   -8.6492388    649.91415  0.012292218  0.011099604            3 
 4407000   0.54930537   -8.6463976    650.13344  0.012293575  0.011095816            2 
 4408000   0.53774239   -8.6487626    650.80409  0.012303465  0.011092032            1 
 4409000   0.55247362   -8.6564051    649.61243  0.012278151  0.011088248            1 
 4410000   0.53752069    -8.648946    649.82151  0.012279318  0.011084459            1 
 4411000   0.55251353   -8.6548546     650.1491  0.012282723  0.011080673            1 
 4412000   0.54517265   -8.6660416    649.47521  0.012267211  0.011076887            1 
 4413000   0.54967932    -8.662959     650.2853  0.012279728  0.011073105            2 
 4414000   0.54042152   -8.6633842    649.95149  0.012270644  0.011069327            1 
 4415000   0.53532996   -8.6617358    650.24539  0.012273412  0.011065549            1 
 4416000   0.54809168    -8.663418    648.01425   0.01222853  0.011061772            1 
 4417000   0.54838323   -8.6485145    650.42752  0.012271291  0.011057996            2 
 4418000   0.55118575   -8.6516536    649.70687  0.012254921  0.011054223            2 
 4419000   0.55043296   -8.6404483    650.21488  0.012261727  0.011050452            2 
 4420000   0.55712252   -8.6535117    650.09398  0.012256674  0.011046683            2 
 4421000   0.54657148   -8.6487454    650.22659  0.012256401  0.011042917            1 
 4422000   0.54293356   -8.6503754    649.26585  0.012235524  0.011039152            2 
 4423000   0.54089912   -8.6704465    649.61656  0.012239365  0.011035388            3 
 4424000   0.54187339   -8.6524569    649.50034   0.01223441  0.011031628            2 
 4425000   0.54939381   -8.6772716    650.34459  0.012247544  0.011027869            1 
 4426000   0.52551044   -8.6587813    650.70441  0.012251552   0.01102411            4 
 4427000    0.5438615   -8.6549561    649.99326  0.012235398  0.011020355            4 
 4428000   0.54383484   -8.6551446    650.14704  0.012235528  0.011016598            1 
 4429000   0.53688014   -8.6528514    648.95117  0.012210265  0.011012843            1 
 4430000   0.55298962   -8.6285084    650.78505  0.012242006  0.011009095            2 
 4431000   0.54337708   -8.6549801    648.59292  0.012198016  0.011005342            2 
 4432000   0.53749115   -8.6550399    649.84699  0.012218844  0.011001591            4 
 4433000   0.54748188   -8.6441836    649.27078  0.012205256  0.010997844            4 
 4434000   0.54106029   -8.6558187    649.35957  0.012204172  0.010994099            2 
 4435000   0.53883002   -8.6697102    650.53516  0.012223509  0.010990352            3 
 4436000   0.53945525   -8.6480431    650.35619  0.012217392   0.01098661            1 
 4437000   0.54440651   -8.6692627    650.27685  0.012213148  0.010982865            1 
 4438000   0.54693136   -8.6677031    649.49176  0.012195654  0.010979123            2 
 4439000   0.54746458   -8.6504262    649.39024  0.012191001  0.010975385            2 
 4440000   0.53788443   -8.6557115    649.66441  0.012193401  0.010971653            1 
 4441000   0.53009509   -8.6783383     649.1964  0.012181873  0.010967916            2 
 4442000   0.52886146   -8.6765844    650.12815  0.012196611  0.010964178            3 
 4443000   0.54856397   -8.6641558    649.93981  0.012190333   0.01096044            1 
 4444000   0.53073541   -8.6608572    648.88596  0.012167829  0.010956704            2 
 4445000    0.5329784   -8.6606297    649.30263  0.012172903  0.010952973            2 
 4446000   0.53003729   -8.6645141    649.55714  0.012174935  0.010949245            2 
 4447000   0.54211472   -8.6630252     648.7518  0.012157106  0.010945513            2 
 4448000   0.53720535   -8.6507663    649.69854   0.01217211  0.010941782            2 
 4449000    0.5414018   -8.6566507    649.04504  0.012157133  0.010938058            1 
 4450000   0.54729863   -8.6674339    649.00617  0.012153674  0.010934332            2 
 4451000   0.53645741   -8.6473921    649.05318  0.012151823  0.010930605            1 
 4452000   0.54515037    -8.665531    649.60285  0.012159383  0.010926879            1 
 4453000   0.54916984   -8.6661412    649.48951  0.012154531  0.010923158            1 
 4454000    0.5342053   -8.6487321     648.7161  0.012137332  0.010919438            2 
 4455000   0.53689906   -8.6664525    649.37751  0.012146979  0.010915716            1 
 4456000   0.54104527   -8.6753069    649.81065  0.012152354  0.010911997            2 
 4457000   0.54736547    -8.663006    648.72656  0.012129358   0.01090828            1 
 4458000    0.5332661    -8.669453    649.71472  0.012145108  0.010904565            2 
 4459000   0.53790037   -8.6821246    648.04494  0.012111179   0.01090085            1 
 4460000   0.54389819   -8.6541867    649.35957  0.012133026  0.010897137            4 
 4461000   0.54661429   -8.6732325    649.15454  0.012126477  0.010893427            2 
 4462000   0.53111968   -8.6846724    648.50467  0.012111622  0.010889717            2 
 4463000   0.53322186   -8.6747099    649.02809  0.012118681  0.010886006            2 
 4464000   0.53064485   -8.6614671    648.34173  0.012103154  0.010882297            2 
 4465000   0.54489283   -8.6888411    649.30019  0.012118331   0.01087859            1 
 4466000   0.52841252   -8.6613668     650.0282  0.012129202  0.010874883            2 
 4467000   0.53844405   -8.6820388    648.41153  0.012096327  0.010871184            3 
 4468000    0.5296913   -8.6602796    649.50225  0.012113963  0.010867482            1 
 4469000   0.54166077   -8.6663155    650.00187  0.012120569   0.01086378            2 
 4470000   0.52754601   -8.6697237     648.5492  0.012090776  0.010860084            1 
 4471000   0.53856601   -8.6891454    650.01483  0.012115389  0.010856386            1 
 4472000   0.53460609   -8.6762193     649.7137  0.012107068   0.01085269            1 
 4473000   0.53545992   -8.6648348     649.3189  0.012097006  0.010848998            1 
 4474000   0.54471067   -8.6812259    649.37519  0.012095351  0.010845305            2 
 4475000   0.53944944   -8.6559189    650.09437   0.01210604  0.010841616            2 
 4476000   0.53133396   -8.6887251    649.03026  0.012083524  0.010837928            1 
 4477000   0.52541446   -8.6906462    648.65345  0.012073811  0.010834239            2 
 4478000   0.53416619   -8.6683683    649.50762  0.012087011  0.010830552            1 
 4479000   0.54082152   -8.6739434    650.20792  0.012097342  0.010826866            4 
 4480000   0.52962051   -8.6737272    648.84558    0.0120693  0.010823182            1 
 4481000   0.52612135   -8.6746682     648.8901  0.012067435    0.0108195            2 
 4482000     0.538033   -8.6754542    648.64806  0.012060242  0.010815818            3 
 4483000   0.53822698   -8.6800022    649.76786  0.012078368  0.010812141            2 
 4484000   0.51793919   -8.6792503    649.64856  0.012073457  0.010808468            2 
 4485000   0.53377693    -8.674367    648.47976  0.012049048  0.010804794            2 
 4486000   0.53780626    -8.668341    649.06134  0.012057166   0.01080112            1 
 4487000   0.53008173   -8.6904663    649.34154  0.012059682   0.01079745            2 
 4488000   0.51326947   -8.6779695    648.76401  0.012046272  0.010793778            2 
 4489000   0.53086824   -8.6851129    649.88373  0.012064375  0.010790105            1 
 4490000   0.54574189   -8.6866074     648.8665  0.012042808  0.010786437            2 
 4491000   0.53984668   -8.6841472    648.87563  0.012040296  0.010782766            1 
 4492000   0.53997034   -8.6861167    648.88869  0.012037858  0.010779101            2 
 4493000   0.54288429   -8.7074909    648.56834  0.012029237  0.010775437            1 
 4494000   0.53404599   -8.6675281     648.9363  0.012033383  0.010771775            1 
 4495000   0.51491426   -8.6670785    648.19266   0.01201692  0.010768113            2 
 4496000      0.53581   -8.6874802    647.96738  0.012010072  0.010764453            1 
 4497000   0.53968528   -8.6907984    649.26136   0.01203138  0.010760794            2 
 4498000   0.54099729    -8.687507    649.90811  0.012040687  0.010757136            2 
 4499000    0.5334677   -8.6692975    649.50832  0.012030605  0.010753481            1 
 4500000   0.53027644   -8.6874602    648.94977  0.012017588   0.01074983            2 
 4501000   0.52640261    -8.675769     649.5125  0.012025337  0.010746178            1 
 4502000   0.52578348   -8.7004323    648.81303  0.012009718  0.010742526            1 
 4503000   0.53177015   -8.6914013    649.40273  0.012017965  0.010738878            2 
 4504000   0.53537174   -8.6746996    648.85026  0.012005074  0.010735232            5 
 4505000   0.53018744   -8.6820813    649.17991  0.012008507  0.010731587            3 
 4506000   0.53335461   -8.6732116    649.36626  0.012009289  0.010727941            3 
 4507000   0.52459155   -8.6742396    648.90781  0.011998148    0.0107243            1 
 4508000    0.5456376   -8.6969152    648.60337  0.011989858   0.01072066            2 
 4509000   0.54151063   -8.6823446    649.11315  0.011996621  0.010717018            1 
 4510000   0.52507251   -8.6898848    649.54242  0.012001892  0.010713377            1 
 4511000   0.54640098   -8.6936176    648.23171  0.011975019  0.010709736            4 
 4512000   0.52645461   -8.6940846    649.51056  0.011995984  0.010706098            2 
 4513000   0.52355816   -8.6802224    649.29087  0.011989269  0.010702458            3 
 4514000   0.52694992   -8.6793869     648.1744  0.011966002   0.01069882            5 
 4515000   0.52881337   -8.6738756    648.93278  0.011977349  0.010695181            3 
 4516000    0.5203631   -8.6850065    647.48797  0.011948036  0.010691548            1 
 4517000   0.52277908    -8.660058    649.24693  0.011977842  0.010687918            3 
 4518000   0.53174656   -8.6738314    649.35057  0.011977102  0.010684292            5 
 4519000   0.52847799   -8.6805808    648.93084  0.011966712  0.010680667            3 
 4520000   0.52908194   -8.6688746    649.85212  0.011981049  0.010677044            3 
 4521000   0.52025792   -8.6799657    648.23071  0.011948513   0.01067342            3 
 4522000   0.53394583   -8.6809643     648.6962  0.011954449  0.010669798            2 
 4523000     0.521375   -8.6860534    649.18027  0.011960724  0.010666179            5 
 4524000   0.52209439   -8.6929766    648.24726  0.011940894   0.01066256            2 
 4525000    0.5390355   -8.6991254    649.57003  0.011962616  0.010658939            1 
 4526000   0.53355288   -8.6951977    648.00192    0.0119311  0.010655323            4 
 4527000   0.53101002   -8.6869781    649.59593  0.011957807  0.010651705            1 
 4528000    0.5400225   -8.6767475    648.70217  0.011938718   0.01064809            2 
 4529000   0.52086923    -8.683045    648.81245  0.011938111  0.010644474            3 
 4530000   0.52246826   -8.6960761    647.94618   0.01191954   0.01064086            3 
 4531000   0.52440387   -8.6940148    648.78505  0.011932337   0.01063725            2 
 4532000   0.52755956   -8.6778325    649.51827  0.011943187  0.010633641            1 
 4533000   0.52296425   -8.6898673    648.60868   0.01192383  0.010630037            3 
 4534000   0.52034564   -8.6717954    649.36802  0.011935157  0.010626435            2 
 4535000   0.51690957   -8.6805704    648.92281  0.011924344  0.010622831            2 
 4536000   0.52620723    -8.678445    648.85224  0.011920419  0.010619228            2 
 4537000   0.53532192   -8.6992956    648.90999  0.011918852  0.010615625            2 
 4538000   0.53088097   -8.6765967    647.86169  0.011896975  0.010612022            1 
 4539000   0.52646895    -8.699441    648.62877  0.011908437  0.010608424            4 
 4540000   0.53472402   -8.6747409    647.45413  0.011884253  0.010604832            3 
 4541000   0.52193685   -8.6834055    648.96206  0.011909309  0.010601241            1 
 4542000   0.53333582   -8.6943849    647.96562  0.011888405  0.010597649            2 
 4543000   0.52500594   -8.6894574    648.24512  0.011890915  0.010594058            1 
 4544000    0.5243188   -8.6930205    648.32789  0.011889816  0.010590469            2 
 4545000   0.52340706   -8.6902117    650.06763  0.011919098  0.010586881            2 
 4546000   0.52352962   -8.6912566    648.97802  0.011896503  0.010583289            4 
 4547000   0.53487122    -8.698008     647.8578  0.011873356    0.0105797            2 
 4548000   0.52364245   -8.6792889     648.5008  0.011882527  0.010576118            1 
 4549000   0.52336803   -8.7056679    648.95455  0.011888227  0.010572537            2 
 4550000   0.53138878   -8.6887914    648.63949  0.011879844  0.010568954            3 
 4551000   0.51219558   -8.6849614    648.00361   0.01186559  0.010565373            1 
 4552000   0.53084392   -8.6783778     648.6229  0.011874321  0.010561795            2 
 4553000   0.52793132     -8.70255    648.89198  0.011876638   0.01055822            1 
 4554000   0.52861656   -8.6934022    649.60794  0.011887131  0.010554642            2 
 4555000   0.51274234   -8.6849852    648.01815  0.011855436  0.010551067            2 
 4556000   0.52879957   -8.7108573    648.33915  0.011858706  0.010547492            1 
 4557000   0.54256927   -8.6960115     649.0886  0.011869808  0.010543921            3 
 4558000   0.53246742   -8.6975481    649.06527  0.011866778  0.010540351            1 
 4559000   0.53448336   -8.7050844    647.58452  0.011837108   0.01053678            2 
 4560000   0.52095508   -8.7011993    648.66455   0.01185425  0.010533211            2 
 4561000   0.51675578   -8.7080971    648.45564  0.011847834  0.010529647            3 
 4562000   0.51264067   -8.7023089    648.15944  0.011839826  0.010526082            3 
 4563000   0.51308884   -8.6965008    647.89285  0.011832363  0.010522516            1 
 4564000   0.51487211   -8.6999548     648.5723  0.011842176  0.010518957            2 
 4565000   0.51471648   -8.6959343     647.9995  0.011829126  0.010515397            2 
 4566000   0.51300741   -8.7017974     649.0207  0.011845173  0.010511837            2 
 4567000   0.51619862   -8.6817188    647.99805  0.011823919  0.010508275            1 
 4568000   0.50778326   -8.7071997    649.11246   0.01184166  0.010504718            2 
 4569000   0.51927581   -8.6961446    648.74236  0.011832318  0.010501161            2 
 4570000   0.52987818   -8.7068227    647.98954  0.011816002  0.010497608            5 
 4571000   0.51984822   -8.6944749    648.02035  0.011813979  0.010494054            2 
 4572000   0.53063336   -8.6857819    648.18526    0.0118144  0.010490505            2 
 4573000   0.52608741    -8.695057    647.88127  0.011806277  0.010486958            1 
 4574000    0.5250876   -8.7096572    647.32695  0.011793597  0.010483406            2 
 4575000   0.52171333   -8.6952451      648.472  0.011811876  0.010479861            2 
 4576000   0.51716325   -8.6858307    647.89894  0.011798859  0.010476316            3 
 4577000   0.52242004   -8.6912981    647.88184   0.01179597  0.010472773            2 
 4578000   0.52841373   -8.6934511     648.7391  0.011808998  0.010469232            3 
 4579000   0.51951873   -8.7178753    647.98911   0.01179277   0.01046569            2 
 4580000   0.51774166   -8.7038586     647.5955  0.011783033  0.010462152            3 
 4581000   0.51240826   -8.6821418    647.80991  0.011784361  0.010458612            1 
 4582000   0.51260014   -8.6911148    649.40667   0.01181083  0.010455076            2 
 4583000    0.5231921   -8.7147826    648.00435  0.011782754  0.010451542            1 
 4584000   0.51906583    -8.705097    647.86776  0.011777701   0.01044801            2 
 4585000   0.52780125    -8.694362    647.98344  0.011777234  0.010444476            1 
 4586000   0.51772786   -8.7102616    647.87019  0.011772608  0.010440949            2 
 4587000   0.52063236   -8.7040098    648.18819  0.011775819  0.010437421            1 
 4588000   0.51428456   -8.7055446    648.29643  0.011775218  0.010433896            2 
 4589000   0.52022915   -8.6922486       648.31  0.011772899  0.010430371            3 
 4590000    0.5258749   -8.7064698    647.08298  0.011748057  0.010426844            2 
 4591000   0.50586567   -8.7213003    648.36044  0.011768686  0.010423324            2 
 4592000   0.51950385   -8.7009321    647.69967  0.011754132  0.010419801            3 
 4593000   0.50888636   -8.6994416    647.71453  0.011751842  0.010416284            2 
 4594000   0.51511416    -8.712395    647.68894   0.01174882  0.010412765            2 
 4595000    0.5285078   -8.7205788    648.77478  0.011765955  0.010409246            2 
 4596000   0.51788634   -8.7133564    647.41436  0.011738729  0.010405733            2 
 4597000   0.52107624   -8.7230362    648.59331  0.011757547  0.010402217            2 
 4598000   0.51732202   -8.7162941    648.20581  0.011747967  0.010398706            2 
 4599000   0.51645025   -8.7138286    647.87461  0.011739411  0.010395191            2 
 4600000   0.51170708   -8.7094697    647.99882  0.011739109  0.010391683            5 
 4601000   0.50116157   -8.7216004    649.40667  0.011762057  0.010388177            4 
 4602000   0.51916867   -8.7165087    647.74746  0.011729456  0.010384671            2 
 4603000   0.50791651   -8.7228529    649.03799  0.011750271  0.010381168            1 
 4604000   0.51440462   -8.7234804    647.67087  0.011722974  0.010377661            1 
 4605000   0.51376025   -8.6960341     648.1722  0.011729501  0.010374158            2 
 4606000   0.52058726   -8.7007969    647.81955  0.011720574  0.010370659            2 
 4607000   0.51724014   -8.6811566    647.19371  0.011706709  0.010367165            5 
 4608000   0.51398709   -8.7097875    647.74714  0.011714177  0.010363671            3 
 4609000   0.51469473   -8.7078145    648.33044  0.011722182  0.010360177            2 
 4610000   0.50568709   -8.6976674    647.76369  0.011709394  0.010356685            2 
 4611000    0.5155831   -8.7057234     646.4612  0.011683315  0.010353189            2 
 4612000   0.51490507    -8.683589    648.18571  0.011711942  0.010349695            3 
 4613000   0.50946553    -8.722538    647.80474  0.011702521  0.010346204            1 
 4614000   0.51786493   -8.7180853    648.36187  0.011710047  0.010342716            5 
 4615000    0.5104981   -8.7137192    648.31175  0.011706604  0.010339227            2 
 4616000   0.50784601   -8.7048357    647.87545  0.011696192  0.010335737            2 
 4617000    0.5017438   -8.7045618    648.79929  0.011710333  0.010332252            2 
 4618000   0.51146676   -8.6955754    649.77702  0.011725441  0.010328771            2 
 4619000   0.50641912   -8.7223425    648.93616  0.011707732  0.010325291            1 
 4620000   0.52547529   -8.7049677    648.04677  0.011689155  0.010321809            2 
 4621000   0.52717392   -8.7071659    647.88787   0.01168376  0.010318336            1 
 4622000   0.51627322   -8.7152371    649.22692  0.011705375  0.010314856            4 
 4623000   0.50471717   -8.7042198    647.92007  0.011679286  0.010311378            2 
 4624000   0.50108343   -8.7290385    647.35827  0.011666636    0.0103079            2 
 4625000   0.50840003   -8.7064282    648.61941  0.011686836  0.010304423            2 
 4626000   0.50942365   -8.7189782    646.81357  0.011651779  0.010300947            1 
 4627000   0.51270953   -8.7224819    648.32275  0.011676442  0.010297475            1 
 4628000   0.50834346   -8.7115059    647.87233  0.011665808  0.010294004            2 
 4629000   0.51495702   -8.7058482    647.88484  0.011663513  0.010290533            1 
 4630000   0.50535945   -8.7037806    647.75868  0.011658724  0.010287063            3 
 4631000   0.52027838   -8.7131423    647.86733  0.011658161  0.010283597            1 
 4632000   0.51353462   -8.7105684    646.97165   0.01163953  0.010280133            1 
 4633000   0.52311497   -8.7124878    648.90681  0.011671826  0.010276668            2 
 4634000   0.50293754   -8.7198004    648.60063  0.011663801  0.010273205            1 
 4635000   0.50996985   -8.7230719    647.80392   0.01164696  0.010269744            1 
 4636000   0.49334167   -8.7212082    647.51457  0.011639247  0.010266282            2 
 4637000   0.50296611   -8.7099872    647.18092   0.01163074  0.010262822            2 
 4638000   0.49932162   -8.7086049    648.77162  0.011656814  0.010259363            2 
 4639000   0.52100444    -8.727489    648.43033   0.01164817  0.010255909            4 
 4640000   0.52856821   -8.7139066    647.14959  0.011622658  0.010252454            1 
 4641000    0.5104645   -8.7228667    649.49573  0.011662281  0.010249001            1 
 4642000   0.51779044   -8.7159064    647.68183  0.011627205   0.01024555            2 
 4643000   0.50531085   -8.7052673    647.15351  0.011615218  0.010242096            1 
 4644000   0.50528272   -8.7270627    646.56393  0.011602138  0.010238645            3 
 4645000   0.51979913   -8.6975342    648.74958  0.011638851  0.010235198            2 
 4646000    0.5146625   -8.7027338     648.0874  0.011624469  0.010231755            2 
 4647000   0.50126585   -8.7019615    647.43593  0.011610285  0.010228308            1 
 4648000    0.5070105   -8.7213605     646.9637   0.01159932  0.010224866            2 
 4649000   0.50689533   -8.7270366    648.14446  0.011617991  0.010221423            1 
 4650000   0.50762452   -8.7096163    647.64676  0.011606573  0.010217981            3 
 4651000   0.51178607    -8.704764    647.67028  0.011604499  0.010214547            2 
 4652000   0.50539689    -8.701696    648.09994  0.011609701  0.010211113            2 
 4653000   0.50951065   -8.7005713    648.92331  0.011621952  0.010207682            3 
 4654000   0.51948694   -8.7223603    648.18618  0.011606256  0.010204249            7 
 4655000   0.49977646   -8.7140454    647.28701  0.011587666  0.010200817            3 
 4656000    0.5147898   -8.7245498    647.97097  0.011597419  0.010197384            1 
 4657000   0.50568278   -8.7264807    647.01298  0.011577786  0.010193954            1 
 4658000    0.5039857   -8.7278148    647.99305  0.011592834  0.010190526            1 
 4659000   0.51234877   -8.7255379    648.14114  0.011592995    0.0101871            1 
 4660000    0.5094354   -8.7376813    648.70526  0.011600595  0.010183674            1 
 4661000   0.49701539    -8.722118    648.58022   0.01159587  0.010180254            2 
 4662000   0.50381669   -8.7220238    647.31534  0.011570773  0.010176829            2 
 4663000   0.50767785   -8.7188142    646.69867  0.011557271  0.010173408            2 
 4664000   0.50703137   -8.7333534     646.4914   0.01155109  0.010169985            2 
 4665000   0.50161256   -8.7286688    647.62122  0.011568796  0.010166566            2 
 4666000   0.50832923   -8.7148599    647.27485  0.011560131   0.01016315            2 
 4667000   0.50799024   -8.7387757    647.33421  0.011558714  0.010159734            4 
 4668000   0.49449636   -8.7271153    647.72565  0.011563226  0.010156317            1 
 4669000   0.50340561   -8.7201485    646.92896   0.01154653  0.010152906            2 
 4670000   0.49765936    -8.726863    647.60017  0.011556034  0.010149494            2 
 4671000   0.50382728   -8.7186897      647.961  0.011559998  0.010146084            2 
 4672000   0.49315232   -8.7107319    647.86793  0.011555863  0.010142674            2 
 4673000   0.50405427   -8.7090601    646.48015  0.011528642  0.010139268            1 
 4674000   0.49777416   -8.7127329    647.99333  0.011553154   0.01013586            2 
 4675000   0.50489723   -8.7212783    647.46678  0.011541297  0.010132457            1 
 4676000   0.49782057   -8.7272788    647.79063  0.011544601  0.010129054            2 
 4677000   0.51403304   -8.7187089    647.70492  0.011540605  0.010125656            3 
 4678000   0.50876862   -8.7305141    647.88633   0.01154137  0.010122256            4 
 4679000   0.49835429   -8.7464518    648.24753  0.011545336  0.010118857            2 
 4680000   0.50298786   -8.7192915    647.38218   0.01152746  0.010115458            2 
 4681000    0.5044872    -8.715957    646.63828  0.011511755  0.010112061            1 
 4682000   0.50154575   -8.7311818    647.02488  0.011516177  0.010108665            1 
 4683000   0.50500489   -8.7328059    646.98641  0.011513033  0.010105272            3 
 4684000   0.49515315   -8.7330639     647.3935  0.011517818  0.010101879            1 
 4685000   0.49678097   -8.7275475    648.06187  0.011527248  0.010098485            1 
 4686000   0.50095907   -8.7328379    646.83577  0.011502984  0.010095093            1 
 4687000   0.49025548   -8.7298949    647.13968  0.011505933  0.010091704            4 
 4688000   0.50020919    -8.716248    647.15182  0.011503694  0.010088316            2 
 4689000   0.48507378   -8.7267381    647.24344  0.011502869  0.010084929            1 
 4690000   0.50783195   -8.7188181    646.93668  0.011494966  0.010081544            2 
 4691000   0.50055434    -8.735995    647.32053  0.011499334   0.01007816            1 
 4692000   0.50660838   -8.7185847    646.46887  0.011481757  0.010074778            1 
 4693000   0.50675651   -8.7236273    647.58456  0.011499122  0.010071399            1 
 4694000   0.50335925   -8.7178946      647.142  0.011488816  0.010068022            2 
 4695000   0.49615378   -8.7266338    646.95392   0.01148303  0.010064644            4 
 4696000   0.50063418   -8.7336047    647.64276  0.011492809  0.010061269            2 
 4697000    0.5097872   -8.7308671    646.78388  0.011475124  0.010057894            2 
 4698000   0.50030878   -8.7342053    646.91683   0.01147504  0.010054523            2 
 4699000   0.50467403   -8.7203175    647.77276  0.011487777  0.010051152            3 
 4700000   0.48861577   -8.7443859     647.2443  0.011475963  0.010047781            1 
 4701000   0.48796473   -8.7419306     647.3146  0.011474768  0.010044411            1 
 4702000    0.4949997   -8.7408462    646.87108  0.011464467  0.010041039            1 
 4703000   0.49123624   -8.7233149    648.09603  0.011483734  0.010037674            3 
 4704000   0.49064584   -8.7251052    647.12645  0.011464117  0.010034312            2 
 4705000   0.50510841   -8.7351082     647.3402  0.011465466  0.010030947            2 
 4706000   0.50489683   -8.7289074    647.45919  0.011465137  0.010027586            1 
 4707000   0.50102997    -8.725394    646.69509  0.011449173  0.010024224            1 
 4708000   0.50460512   -8.7267915    647.47076  0.011460471  0.010020865            1 
 4709000   0.49961117   -8.7376738    646.94188  0.011448678  0.010017509            2 
 4710000    0.4917397   -8.7267657    647.40837  0.011454501  0.010014154            1 
 4711000   0.50848747   -8.7175358    647.68142  0.011456899    0.0100108            1 
 4712000   0.49172713   -8.7447482    647.55108  0.011452163  0.010007448            1 
 4713000   0.48872153   -8.7321785    647.11621  0.011442043  0.010004099            2 
 4714000    0.5020273   -8.7435795    646.10483  0.011421737  0.010000747            1 
 4715000   0.49719706   -8.7344097    647.34273  0.011441193 0.0099973998            2 
 4716000   0.49102398   -8.7267707    646.84287  0.011429935 0.0099940549            1 
 4717000   0.49988018   -8.7321951    646.95071  0.011429417 0.0099907065            2 
 4718000   0.49558484   -8.7425928    646.77308  0.011423857 0.0099873631            3 
 4719000   0.49276938   -8.7244002     647.1529  0.011428143  0.009984022            2 
 4720000   0.49779023   -8.7285605    647.41026  0.011430266 0.0099806784            3 
 4721000   0.50063269   -8.7346181    648.48525   0.01144682 0.0099773394            1 
 4722000   0.49624582   -8.7173369    647.78377  0.011432016 0.0099740006            2 
 4723000   0.48625142   -8.7377672    647.67471  0.011427672 0.0099706673            1 
 4724000   0.49739653   -8.7504635    647.51049  0.011422355 0.0099673311            2 
 4725000   0.49498935   -8.7224045    647.07543  0.011412265 0.0099639972            3 
 4726000   0.49590375   -8.7392883    646.84619  0.011405808 0.0099606662            2 
 4727000   0.50493151   -8.7380601    647.15198  0.011408786 0.0099573335            1 
 4728000   0.48762758   -8.7313285    646.87842  0.011401551 0.0099540018            1 
 4729000   0.49041274   -8.7375913    646.45924  0.011391754 0.0099506734            1 
 4730000   0.48753729   -8.7541499    646.96087  0.011398183 0.0099473465            7 
 4731000   0.48952457   -8.7494123    647.21686  0.011400283 0.0099440199            4 
 4732000   0.48881838   -8.7410644    646.84744  0.011391368 0.0099406933            5 
 4733000   0.48856352   -8.7308758    647.33195  0.011397492 0.0099373681            2 
 4734000   0.49203974   -8.7308008    647.34435  0.011395303 0.0099340445            1 
 4735000   0.49532244   -8.7397137    646.64419  0.011380573 0.0099307239            2 
 4736000    0.4974931   -8.7112511    647.75694   0.01139775 0.0099274063            3 
 4737000   0.49100388    -8.732446    647.10153  0.011383814 0.0099240914            2 
 4738000   0.49856979   -8.7405215    647.48072  0.011388081 0.0099207757            2 
 4739000   0.48465442   -8.7467104    647.43835  0.011384933 0.0099174624            2 
 4740000   0.49122865   -8.7301743    646.55626  0.011367023 0.0099141476            2 
 4741000   0.49907269   -8.7230852    646.70817  0.011367295 0.0099108324            2 
 4742000   0.48502586   -8.7318649    647.12847  0.011372284  0.009907522            2 
 4743000   0.49191275   -8.7332601    647.92385  0.011383861  0.009904212            2 
 4744000    0.4988966   -8.7305802    646.93766  0.011364138  0.009900905            3 
 4745000   0.48596478   -8.7409197    646.08134  0.011346704 0.0098975973            2 
 4746000    0.4946085   -8.7410922    647.56729  0.011370405 0.0098942909            1 
 4747000   0.49300393   -8.7220636    647.52377  0.011367245 0.0098909866            1 
 4748000   0.50174406   -8.7470511    647.39743  0.011362634 0.0098876842            2 
 4749000   0.48863355   -8.7338349    646.99727  0.011353219  0.009884382            2 
 4750000   0.49188868   -8.7436695    645.99258  0.011333203 0.0098810794            2 
 4751000   0.48973854   -8.7417593    646.94714  0.011347561 0.0098777822            2 
 4752000   0.48375268   -8.7405603    647.30404  0.011351432 0.0098744847            3 
 4753000    0.5018347   -8.7473983    648.32258  0.011366901 0.0098711899            1 
 4754000   0.48907225   -8.7501034    646.72356  0.011336481 0.0098678929            1 
 4755000   0.50108318   -8.7414064    646.98124  0.011338613 0.0098645961            2 
 4756000   0.49973837   -8.7349903    646.36645  0.011325457 0.0098613053            2 
 4757000   0.49068738   -8.7379947    647.01818  0.011334493 0.0098580143            1 
 4758000   0.47323257    -8.739233    647.31087  0.011337237  0.009854723            2 
 4759000   0.49238896   -8.7478661    646.40364  0.011318968 0.0098514379            1 
 4760000    0.4860345   -8.7586508    646.97678  0.011326624 0.0098481494            2 
 4761000   0.49329049   -8.7400703     646.2861  0.011312156 0.0098448621            1 
 4762000   0.49766924   -8.7598217    647.76515  0.011335663 0.0098415765            3 
 4763000   0.48660696   -8.7407332     645.9352  0.011301267 0.0098382938            2 
 4764000   0.47356618   -8.7278954    646.84828  0.011314866 0.0098350105            2 
 4765000    0.4847419    -8.756032    647.26404  0.011319763 0.0098317285            2 
 4766000   0.49641316   -8.7421829    646.92609  0.011311479 0.0098284481            2 
 4767000   0.49143269   -8.7510542    645.97345  0.011292452 0.0098251707            2 
 4768000   0.48436145   -8.7521965    646.56883   0.01130049 0.0098218948            4 
 4769000   0.48430436   -8.7635688    646.13196  0.011290486 0.0098186179            2 
 4770000   0.50072311   -8.7461017    646.96059  0.011302596 0.0098153435            2 
 4771000   0.49191184   -8.7434239    646.16369  0.011286308 0.0098120713            1 
 4772000   0.48208604   -8.7547511    647.17004  0.011301517 0.0098088015            2 
 4773000   0.47909587   -8.7393754    645.63454   0.01127234 0.0098055318            1 
 4774000   0.48014468   -8.7541182    647.39758  0.011300754 0.0098022635            2 
 4775000   0.49164811   -8.7553022    646.87993  0.011289353 0.0097989952            2 
 4776000   0.48957984   -8.7609573    646.90668  0.011287456  0.009795729            1 
 4777000   0.49735623   -8.7580146    646.37806  0.011275872 0.0097924643            4 
 4778000   0.48725276   -8.7469021     646.3144  0.011272401 0.0097892019            2 
 4779000   0.48606066   -8.7383291    646.35808  0.011270804 0.0097859408            1 
 4780000   0.48165046   -8.7370138    646.08969  0.011263767 0.0097826807            1 
 4781000    0.4879485   -8.7560686     646.0945  0.011261495  0.009779423            2 
 4782000   0.49107488   -8.7515267      647.257  0.011279398  0.009776166            2 
 4783000   0.49457403   -8.7573097    646.91473  0.011271077 0.0097729091            2 
 4784000   0.48877164   -8.7542923    647.84286  0.011284888 0.0097696523            1 
 4785000   0.49439203   -8.7496274    645.99157  0.011250289 0.0097663986            1 
 4786000     0.493456   -8.7579654    645.41249  0.011237855 0.0097631453            2 
 4787000   0.47932318   -8.7434718    647.45713  0.011271101 0.0097598934            3 
 4788000   0.48873565   -8.7621819    646.38616  0.011250107 0.0097566432            2 
 4789000   0.49440442   -8.7561779    646.51143  0.011249938 0.0097533953            2 
 4790000   0.48445911   -8.7501538    646.06062  0.011239746 0.0097501473            2 
 4791000   0.47448566   -8.7768882    646.45216  0.011244211 0.0097468999            1 
 4792000    0.4761361   -8.7439754    647.03804  0.011252053 0.0097436536            1 
 4793000   0.49741268   -8.7388273    647.57691  0.011259074 0.0097404111            1 
 4794000    0.4788656   -8.7773213    645.77175  0.011225347 0.0097371678            1 
 4795000    0.4909899    -8.755943     645.6185  0.011220342 0.0097339261            1 
 4796000   0.47658623   -8.7644838    647.56359    0.0112518 0.0097306877            1 
 4797000   0.48635145   -8.7616522    645.92303  0.011220955 0.0097274509            2 
 4798000   0.48873618   -8.7618019    646.12286  0.011222087 0.0097242126            1 
 4799000   0.49810683   -8.7734202    645.80077  0.011214155 0.0097209772            1 
 4800000   0.48001463   -8.7540899    646.98244  0.011232334 0.0097177426            1 
 4801000   0.47834668   -8.7442413    645.66662  0.011207155 0.0097145069            3 
 4802000    0.4881847   -8.7562944    647.03607  0.011228587 0.0097112748            4 
 4803000   0.48135337   -8.7644805    645.64536  0.011202119  0.009708046            2 
 4804000   0.48539699   -8.7580108    646.49007  0.011214441  0.009704816            2 
 4805000   0.48594839   -8.7602032    647.56215    0.0112307 0.0097015902            1 
 4806000   0.47531201   -8.7658461    646.71592   0.01121369 0.0096983631            2 
 4807000   0.47033596   -8.7537276     647.0769  0.011217615 0.0096951401            4 
 4808000   0.47895056   -8.7562394     646.1952       0.0112 0.0096919179            1 
 4809000   0.47292387   -8.7537067    646.40472  0.011201302 0.0096886957            1 
 4810000   0.46588075     -8.74339    646.72702  0.011204557 0.0096854782            2 
 4811000   0.48097086    -8.766305    646.19083   0.01119294 0.0096822593            2 
 4812000   0.48979289   -8.7579642     647.0464  0.011205431 0.0096790405            2 
 4813000   0.48142226   -8.7582647    647.14761  0.011204855 0.0096758241            3 
 4814000   0.48328339   -8.7575194    645.99501  0.011182575 0.0096726099            1 
 4815000   0.47835121   -8.7807963     646.1951  0.011183716 0.0096693944            1 
 4816000    0.4864571   -8.7645277    646.48743  0.011186452   0.00966618            1 
 4817000   0.48335774   -8.7746271    646.36466  0.011182006 0.0096629705            2 
 4818000   0.48020177   -8.7625365    647.07322   0.01119194 0.0096597634            2 
 4819000   0.48302113   -8.7678746    645.97552  0.011170636 0.0096565553            4 
 4820000   0.47598674   -8.7692351    645.44055  0.011159069 0.0096533475            1 
 4821000   0.48928482   -8.7759851    646.38059  0.011173003 0.0096501379            1 
 4822000   0.48084309    -8.738486    645.97587  0.011163692 0.0096469321            1 
 4823000   0.48143944   -8.7657519    646.00203  0.011161829 0.0096437272            1 
 4824000   0.47742526   -8.7657025    646.45613   0.01116736 0.0096405233            1 
 4825000    0.4784813   -8.7923839    646.29141  0.011162201 0.0096373241            2 
 4826000   0.48068979   -8.7520016    646.31251  0.011160252 0.0096341239            4 
 4827000   0.47912053   -8.7819708    646.13312  0.011154843 0.0096309229            2 
 4828000    0.4813253   -8.7738642    646.26233  0.011154763 0.0096277271            1 
 4829000   0.47975666   -8.7588891    646.14478  0.011150424 0.0096245282            1 
 4830000   0.48376158   -8.7575771    646.78388  0.011159142 0.0096213308            2 
 4831000   0.48452298   -8.7559056    646.27978  0.011148137  0.009618139            2 
 4832000   0.47441192   -8.7498539    645.46375  0.011131756 0.0096149491            2 
 4833000   0.47592629   -8.7647116    645.32176  0.011127005 0.0096117595            2 
 4834000   0.47042832   -8.7646869    646.29789   0.01114153 0.0096085704            2 
 4835000   0.47391045   -8.7632895    645.87169   0.01113188 0.0096053821            2 
 4836000   0.48076644   -8.7653146    645.96021  0.011131104 0.0096021963            1 
 4837000   0.47049807   -8.7535217    647.68506  0.011158519 0.0095990091            2 
 4838000   0.47505494    -8.759247    646.42549  0.011134516 0.0095958252            1 
 4839000   0.47663358   -8.7588661    646.62851  0.011135712 0.0095926425            2 
 4840000    0.4728391   -8.7557735    646.04925  0.011123437  0.009589459            1 
 4841000   0.48073351   -8.7667476    646.86687  0.011135214 0.0095862779            1 
 4842000   0.48119271   -8.7746406    646.55056  0.011127471 0.0095830994            2 
 4843000   0.47672702   -8.7786755    646.47251   0.01112383 0.0095799218            1 
 4844000   0.47873548   -8.7542915    645.47316  0.011104341 0.0095767463            1 
 4845000    0.4745149   -8.7874551    645.31926  0.011099402 0.0095735735            2 
 4846000   0.48056799   -8.7545787    646.18656  0.011112026 0.0095703999            2 
 4847000   0.47573842   -8.7828148    645.83736   0.01110373 0.0095672305            3 
 4848000   0.48344041   -8.7788839    646.63936  0.011115226 0.0095640586            1 
 4849000   0.47333986   -8.7714956    645.60418  0.011095143 0.0095608886            1 
 4850000   0.47625405   -8.7597802    646.45983  0.011107557 0.0095577212            3 
 4851000   0.48244293    -8.767522    645.63911  0.011091169 0.0095545533            2 
 4852000   0.47707423    -8.775539    646.08027   0.01109646 0.0095513878            3 
 4853000   0.48124135   -8.7582114     646.6621  0.011104164 0.0095482233            3 
 4854000   0.47452951   -8.7691506    645.65774  0.011084634 0.0095450598            2 
 4855000   0.48307329    -8.755591    645.64616  0.011082152  0.009541897            4 
 4856000   0.47578447   -8.7749388    646.80865  0.011099819 0.0095387346            2 
 4857000   0.46939147     -8.76161    645.49408  0.011074979 0.0095355757            1 
 4858000   0.47320723   -8.7806993    646.38573  0.011087995 0.0095324161            1 
 4859000   0.47998251   -8.7721535    647.12586  0.011098406 0.0095292618            2 
 4860000    0.4769745   -8.7785643    645.72573  0.011072115 0.0095261092            1 
 4861000   0.47122965   -8.7739793    646.72177  0.011086912 0.0095229577            2 
 4862000    0.4838913   -8.7738094    645.90756  0.011070677 0.0095198058            2 
 4863000    0.4740894   -8.7844156     645.9985  0.011069959  0.009516656            1 
 4864000   0.47429724   -8.7793732     645.2343   0.01105459 0.0095135077            1 
 4865000   0.46470424   -8.7731311    646.54337  0.011074741 0.0095103585            3 
 4866000   0.47051471   -8.7970025    645.98269  0.011062863 0.0095072121            1 
 4867000   0.48765538   -8.7903635    647.57762  0.011087898 0.0095040658            2 
 4868000   0.47938726   -8.7743604    645.32302  0.011047025 0.0095009242            1 
 4869000   0.47576335   -8.7712948    646.50394  0.011064968 0.0094977828            2 
 4870000   0.47612045   -8.7776346    646.24778  0.011058313   0.00949464            2 
 4871000   0.47407161   -8.7726301    646.22794  0.011055703 0.0094915015            2 
 4872000   0.46562932   -8.7699101    645.94797  0.011048645 0.0094883633            1 
 4873000   0.47372245   -8.7819166    646.03186  0.011047812 0.0094852258            2 
 4874000   0.47336902   -8.7730728    645.61799  0.011038469   0.00948209            2 
 4875000   0.46744604   -8.7758915    645.04357  0.011026386 0.0094789538            2 
 4876000   0.48148287   -8.7896859    645.60048  0.011033642 0.0094758185            2 
 4877000   0.47886857   -8.7815174     647.0977  0.011056963 0.0094726857            2 
 4878000    0.4705845   -8.7766497     646.0494  0.011036788 0.0094695575            3 
 4879000   0.47458212    -8.765813    645.52271   0.01102553 0.0094664289            1 
 4880000   0.46577218   -8.7885453    645.66705  0.011025735 0.0094632993            2 
 4881000   0.45928877   -8.7658651    644.87389  0.011009935 0.0094601696            2 
 4882000   0.46601353   -8.7693403    645.80785  0.011023622  0.009457048            3 
 4883000   0.47076433   -8.7664092     645.6518  0.011018701 0.0094539224            2 
 4884000   0.46087195   -8.7654707    646.44701  0.011030013 0.0094508018            3 
 4885000   0.47898239   -8.7960018    646.45107  0.011027825 0.0094476799            2 
 4886000    0.4753666   -8.7789724    645.81822  0.011014774 0.0094445574            2 
 4887000   0.46715153   -8.7781906    646.58944  0.011025671 0.0094414393            1 
 4888000   0.46221271   -8.7688348    645.55362  0.011005756 0.0094383212            2 
 4889000   0.47256928   -8.7805001    646.19559  0.011014447  0.009435202            2 
 4890000   0.46954296    -8.778596    646.50679  0.011017498  0.009432085            2 
 4891000   0.46776962   -8.7996656    646.02465  0.011007031 0.0094289727            2 
 4892000   0.46531531    -8.766867    646.61807  0.011014889  0.009425859            2 
 4893000   0.45549697   -8.7870202    646.13383  0.011004391  0.009422748            1 
 4894000   0.47175187   -8.7696747    646.07765  0.011001186 0.0094196392            1 
 4895000   0.46714055   -8.7861042    645.46269  0.010988469 0.0094165292            2 
 4896000   0.45667871    -8.778201    644.96366  0.010977731 0.0094134214            2 
 4897000   0.47608812   -8.7710333    644.66964  0.010970486  0.009410315            2 
 4898000   0.46439864   -8.7687444    645.52208  0.010982749 0.0094072089            2 
 4899000   0.48080886   -8.7847466    645.89886  0.010986917 0.0094041053            2 
 4900000   0.47454206   -8.7781072    646.05151  0.010987271 0.0094010049            2 
 4901000    0.4710774   -8.7892512    646.11122  0.010986044 0.0093979025            2 
 4902000   0.46260521   -8.7609983    645.05296  0.010965813 0.0093948044            1 
 4903000   0.46269231   -8.7653404    645.97788  0.010979296 0.0093917073            2 
 4904000   0.46859888   -8.7828045    645.78757  0.010973824 0.0093886111            3 
 4905000   0.46843093   -8.7779605    645.26087  0.010962638 0.0093855161            1 
 4906000   0.45577856   -8.7825583    646.04223  0.010973676 0.0093824233            1 
 4907000   0.46257659   -8.7879672    645.19348  0.010957025 0.0093793319            2 
 4908000   0.47156446     -8.77005    646.28979  0.010973407 0.0093762415            2 
 4909000   0.47451607    -8.794833    645.46885  0.010957236 0.0093731569            2 
 4910000   0.46547089   -8.7865377    646.47206  0.010972031 0.0093700666            2 
 4911000   0.44943293   -8.7836736    645.46599  0.010952725 0.0093669816            1 
 4912000    0.4648748   -8.7729266    644.79342  0.010939085 0.0093638954            2 
 4913000   0.47424619   -8.7831755    645.11609  0.010942331  0.009360813            2 
 4914000   0.46344348   -8.8061699    645.88614  0.010953163 0.0093577304            1 
 4915000   0.47388137   -8.7754622    645.84689  0.010950269 0.0093546478            1 
 4916000   0.45134428   -8.7899718    644.82179  0.010930665 0.0093515663            2 
 4917000   0.46034252   -8.7777931    646.01527  0.010948669 0.0093484891            2 
 4918000   0.46900167   -8.7918931    645.94458  0.010945245 0.0093454114            2 
 4919000   0.46812786   -8.7789322    645.41573  0.010934061 0.0093423346            1 
 4920000    0.4603803    -8.784327    645.10382  0.010926555 0.0093392603            5 
 4921000   0.46685276    -8.768103    645.81722  0.010936416 0.0093361851            2 
 4922000   0.46115642   -8.7681311    645.21687  0.010924029 0.0093331148            2 
 4923000   0.45048404   -8.7766457    645.84887  0.010932509 0.0093300431            2 
 4924000   0.46458143   -8.7862681    645.94792  0.010931965 0.0093269746            2 
 4925000   0.46615185   -8.7798276    645.23295  0.010917647 0.0093239052            2 
 4926000   0.45997562    -8.786466    645.72529   0.01092376 0.0093208387            3 
 4927000   0.46292189   -8.7921586    646.44044  0.010933638 0.0093177721            1 
 4928000   0.46427571   -8.7967404    645.57146  0.010916725  0.009314706            2 
 4929000   0.46180819   -8.7802078    645.60782  0.010915125 0.0093116423            1 
 4930000   0.46669728   -8.7930631    645.80391  0.010916226 0.0093085767            2 
 4931000   0.45112291   -8.7897171    646.04829  0.010918142 0.0093055123            1 
 4932000   0.46818286   -8.7892969    643.96942  0.010880803 0.0093024495            1 
 4933000   0.46923304   -8.7857129    645.96264  0.010912268 0.0092993929            1 
 4934000   0.47279363   -8.7858319    645.38557   0.01090031 0.0092963336            1 
 4935000   0.47303972   -8.7719219    645.46485   0.01089944 0.0092932764            2 
 4936000   0.46569009   -8.7915507    645.53439  0.010898406 0.0092902198            1 
 4937000   0.46101896   -8.7879421    645.21136  0.010890746 0.0092871656            1 
 4938000   0.46104707   -8.7827274    644.58934  0.010878043 0.0092841122            1 
 4939000   0.46370749   -8.7849429    645.81364  0.010896498 0.0092810611            3 
 4940000   0.46962062   -8.7986519     645.1434  0.010882986 0.0092780083            3 
 4941000   0.46335471   -8.7949642    646.23889  0.010899259 0.0092749594            2 
 4942000   0.46388718   -8.7766635    644.00324  0.010859356 0.0092719122            2 
 4943000   0.46763093   -8.7906138     645.3426  0.010879739 0.0092688649            1 
 4944000   0.45780519   -8.7972315    645.42413  0.010878913 0.0092658175            1 
 4945000   0.46331028    -8.799995    645.35103  0.010875481 0.0092627727            2 
 4946000   0.45043603   -8.7898817    644.76269  0.010863369 0.0092597271            2 
 4947000   0.45049994   -8.7936371    645.49367  0.010873487 0.0092566836            3 
 4948000   0.45993113    -8.776706    644.55606  0.010855498 0.0092536404            1 
 4949000    0.4539408   -8.7927767    644.79085  0.010857258 0.0092506004            1 
 4950000   0.45401514   -8.7991963    646.03644  0.010876034 0.0092475623            2 
 4951000    0.4581276    -8.778667    644.57868  0.010849301  0.009244525            2 
 4952000   0.46544423   -8.7849566    645.26231  0.010858615 0.0092414897            1 
 4953000   0.45480166   -8.7953723     646.5743  0.010878496 0.0092384551            2 
 4954000   0.46070915   -8.7885384    644.61694  0.010843375 0.0092354208            1 
 4955000   0.46611366   -8.7767357    644.38367  0.010837263 0.0092323885            2 
 4956000   0.46354216   -8.7927709    645.25034  0.010849649 0.0092293578            2 
 4957000   0.46462161   -8.7874904    645.12562  0.010845364 0.0092263263            2 
 4958000    0.4566852   -8.7931495    644.75082  0.010836877 0.0092232968            1 
 4959000   0.45299449   -8.7924153    645.26109  0.010843266 0.0092202674            4 
 4960000   0.45521592   -8.8057936    645.56996  0.010846269 0.0092172384            1 
 4961000    0.4453038   -8.8000165    645.97005  0.010850804 0.0092142153            2 
 4962000   0.46180543   -8.7825619    644.18706  0.010818673 0.0092111939            1 
 4963000   0.45953432    -8.789387    645.91849  0.010845565  0.009208169            2 
 4964000   0.46008955   -8.7873753    645.04369  0.010828695 0.0092051457            2 
 4965000   0.45560677   -8.8019368    645.45757   0.01083346 0.0092021244            2 
 4966000   0.45093351   -8.7953295    645.35657  0.010829584 0.0091991064            2 
 4967000   0.45784458   -8.7935514    645.27019  0.010825954 0.0091960874            1 
 4968000   0.44715839    -8.799569    645.67394  0.010830548 0.0091930719            1 
 4969000    0.4592691   -8.7980312     645.4431  0.010824497 0.0091900593            3 
 4970000   0.45019452   -8.7977929    645.46535  0.010822692 0.0091870467            3 
 4971000   0.45665343   -8.8009088    645.61674  0.010823053 0.0091840339            3 
 4972000   0.44893613   -8.7964422    644.39432  0.010800387 0.0091810226            2 
 4973000   0.45476308   -8.8010057    645.35863  0.010814375 0.0091780126            2 
 4974000   0.46338582   -8.7975204    645.01551  0.010806452 0.0091750011            3 
 4975000   0.46411225   -8.8029803    645.75292  0.010816632 0.0091719923            3 
 4976000   0.45237263   -8.8047434    646.00729  0.010818718 0.0091689871            1 
 4977000   0.44900123   -8.7854386    644.82732  0.010796787 0.0091659824            1 
 4978000   0.46119016   -8.7891956    645.68983  0.010809057 0.0091629787            2 
 4979000   0.45901592   -8.7971897    644.35267  0.010784506 0.0091599747            4 
 4980000   0.44813835   -8.7950337    645.27453  0.010797767 0.0091569745            1 
 4981000   0.46258981    -8.792401    644.47449  0.010782214 0.0091539744            1 
 4982000   0.45727677    -8.797965    646.16803  0.010808377 0.0091509777            2 
 4983000   0.45083542   -8.7994329    645.01519  0.010786929 0.0091479813            1 
 4984000   0.44652767   -8.7966644    645.06718  0.010785634 0.0091449847            1 
 4985000   0.45963554   -8.8119639    644.24314  0.010769695  0.009141993            2 
 4986000   0.44950668   -8.8139363    644.53331  0.010772384 0.0091389995            3 
 4987000   0.45185881     -8.79197    645.90129  0.010793084  0.009136008            1 
 4988000   0.44469456   -8.7989629     645.5058  0.010784312 0.0091330163            2 
 4989000   0.45041361   -8.7898176    645.83322   0.01078762 0.0091300264            1 
 4990000   0.45657027   -8.8086157    645.38337  0.010777945 0.0091270386            2 
 4991000   0.44985892   -8.8067962    645.62308  0.010779788  0.009124053            2 
 4992000   0.45916564    -8.812467    643.96374  0.010749929 0.0091210672            1 
 4993000   0.44804096   -8.7978835    645.21357  0.010768636 0.0091180815            2 
 4994000   0.43809584   -8.8100369    645.07762  0.010764211 0.0091150978            1 
 4995000   0.45284782   -8.8043002    644.50669  0.010752531 0.0091121153            2 
 4996000   0.45406099   -8.8022254    645.64663  0.010769393 0.0091091353            1 
 4997000   0.46345384   -8.7927286    646.38882  0.010779615 0.0091061577            2 
 4998000   0.46311683   -8.7837624    644.74621   0.01075007 0.0091031818            2 
 4999000   0.45463984   -8.8083011    645.47572  0.010760081 0.0091002036            1 
 5000000   0.45302809   -8.7979931      644.969  0.010749483 0.0090972288            1 
 5001000    0.4495748   -8.8145174    644.47218  0.010739055 0.0090942553            5 
 5002000   0.45718046    -8.803192    644.23511  0.010732959 0.0090912815            2 
 5003000   0.44998115    -8.813657    643.75343   0.01072279 0.0090883084            2 
 5004000   0.44589166   -8.8185055    645.27892  0.010746052 0.0090853362            2 
 5005000   0.45397875   -8.7807756    645.32398  0.010744655  0.009082367            1 
 5006000   0.45292132     -8.81558    644.82818  0.010734255 0.0090793977            1 
 5007000   0.45294794   -8.8101676    644.49439  0.010726556 0.0090764292            2 
 5008000   0.44955936   -8.8016987    645.31517  0.010738072 0.0090734629            2 
 5009000   0.45692235   -8.8011467    646.30547  0.010752403 0.0090705019            4 
 5010000   0.46229831   -8.8025352     645.3665  0.010734639 0.0090675392            2 
 5011000   0.44851036   -8.8074542    644.87165  0.010724267 0.0090645787            3 
 5012000   0.44209076   -8.7984418    645.08703  0.010725709  0.009061616            2 
Loop time of 12119.3 on 48 procs for 5000000 steps with 4000 atoms

Performance: 71291.423 tau/day, 412.566 timesteps/s
99.4% CPU use with 48 MPI tasks x no OpenMP threads

MPI task timing breakdown:
Section |  min time  |  avg time  |  max time  |%varavg| %total
---------------------------------------------------------------
Pair    | 786.87     | 837.99     | 887.32     |  92.8 |  6.91
Neigh   | 79.395     | 82.598     | 85.517     |  19.0 |  0.68
Comm    | 772.94     | 825.68     | 888.47     | 103.7 |  6.81
Output  | 15.519     | 15.524     | 15.617     |   0.3 |  0.13
Modify  | 10214      | 10245      | 10266      |  10.7 | 84.53
Other   |            | 112.7      |            |       |  0.93

Nlocal:        83.3333 ave          91 max          77 min
Histogram: 2 2 9 9 4 8 6 7 0 1
Nghost:        2102.12 ave        2122 max        2081 min
Histogram: 3 2 4 4 8 6 12 4 4 1
Neighs:        13752.1 ave       15819 max       12190 min
Histogram: 2 5 6 7 11 10 1 5 0 1
FullNghs:      27505.7 ave       30150 max       25279 min
Histogram: 2 3 6 12 8 4 5 6 1 1

Total # of neighbors = 1320274
Ave neighs/atom = 330.06850
Neighbor list builds = 267493
Dangerous builds = 1

#clear
#
#next RN
#
#jump SELF
Total wall time: 3:22:02
