
units lj                  # Use reduced LJ style units
atom_style atomic         # Uncharged point particles
atom_modify map hash      # Needed for indexing of clusters etc
                          # Used to be able to find where atoms are in relation to each other.

lattice fcc 1.0 spacing 1 1 1
Lattice spacing in x,y,z = 1.5874011 1.5874011 1.5874011
region box block 0 10 0 10 0 10 units lattice
create_box 2 box
Created orthogonal box = (0.0000000 0.0000000 0.0000000) to (15.874011 15.874011 15.874011)
  3 by 4 by 4 MPI processor grid
create_atoms 1 box
Created 4000 atoms
  using lattice units in orthogonal box = (0.0000000 0.0000000 0.0000000) to (15.874011 15.874011 15.874011)
  create_atoms CPU = 0.009 seconds
set type 1 type/fraction 2 0.4 78393
Setting atom values ...
  1612 settings made for type/fraction
mass 1 1.0
mass 2 1.0
pair_style lj/cut  3.5
pair_modify tail  yes
pair_coeff 1  1  1.0  1.0   # Intearaction between 1 and 1 set with epsilon = 1 and sigma = 1
pair_coeff 1  2  1.5  0.8
pair_coeff 2  2  0.5  0.88

write_data data.0
System init for write_data ...
Neighbor list info ...
  update every 1 steps, delay 10 steps, check yes
  max neighbors/atom: 2000, page size: 100000
  master list distance cutoff = 3.8
  ghost atom cutoff = 3.8
  binsize = 1.9, bins = 9 9 9
  1 neighbor lists, perpetual/occasional/extra = 1 0 0
  (1) pair lj/cut, perpetual
      attributes: half, newton on
      pair build: half/bin/atomonly/newton
      stencil: half/bin/3d
      bin: standard
WARNING: Not all mixed pair coeffs generated from mixing. Use write_data with 'pair ij' option to store all pair coeffs. (../write_data.cpp:312)


#############################
#   M E L T   S Y S T E M   #
#############################

velocity all create 2.4 1741580 mom yes dist gaussian # Assign velocities
                                                    # Temperature 2.4, random number seed, zero linear momentum
                                                                                # Gaussian distribution

timestep 0.002   # simulation timestep
thermo 1000       # output thermodynamic data every 1000 steps bf 100

# Define a fix  in this case with index 1 applied to all
# particles in the simulation. This fix is for simulations
# in the anisotropic NPT ensemble. Note that we use the MTK
# correction.
fix 1 all npt temp 2.4 2.4 0.1 iso 5.68 5.68 0.5 mtk yes tchain 5 pchain 5 # Use NPT ensemble
                                                                         # Set temperature and pressure and damping
                                                                         # Numbers of thermostats in chain and in barostat
run 10000          # run for 10000 steps
Per MPI rank memory allocation (min/avg/max) = 3.642 | 3.644 | 3.648 Mbytes
Step Temp E_pair E_mol TotEng Press Volume 
       0          2.4    -5.861415            0    -2.262315   -4.1716513         4000 
    1000    2.3990425   -5.0633255            0   -1.4656614    5.8381983    3862.0977 
    2000    2.4237089   -5.0753116            0   -1.4406572    6.0219622    3847.3507 
    3000     2.350625   -5.0505726            0   -1.5255166    5.2845504    3912.1231 
    4000    2.3738741   -4.9543544            0   -1.3944335    5.6956279    3931.0174 
    5000    2.3863145   -5.0240512            0   -1.4454744    5.9096526    3872.4529 
    6000    2.4071489    -5.006949            0   -1.3971284    5.7040859    3906.4618 
    7000     2.450575   -4.9904262            0   -1.3154826    5.5351437    3930.7485 
    8000    2.4332413   -5.0206438            0   -1.3716943    5.4589151     3912.798 
    9000     2.397115   -4.9705462            0   -1.3757727    6.1496521     3878.789 
   10000    2.3923402   -5.0322138            0   -1.4446006    5.6724951    3888.2739 
Loop time of 2.57505 on 48 procs for 10000 steps with 4000 atoms

Performance: 671054.159 tau/day, 3883.415 timesteps/s
99.6% CPU use with 48 MPI tasks x no OpenMP threads

MPI task timing breakdown:
Section |  min time  |  avg time  |  max time  |%varavg| %total
---------------------------------------------------------------
Pair    | 1.1458     | 1.1934     | 1.2727     |   2.8 | 46.35
Neigh   | 0.21226    | 0.2197     | 0.23643    |   1.0 |  8.53
Comm    | 0.79321    | 0.88314    | 0.94408    |   3.7 | 34.30
Output  | 0.00025516 | 0.0002601  | 0.00033124 |   0.0 |  0.01
Modify  | 0.24177    | 0.26327    | 0.29571    |   2.5 | 10.22
Other   |            | 0.01524    |            |       |  0.59

Nlocal:        83.3333 ave          92 max          72 min
Histogram: 1 0 1 4 12 8 9 5 4 4
Nghost:        1674.02 ave        1700 max        1656 min
Histogram: 9 3 6 4 8 8 2 5 2 1
Neighs:        9813.79 ave       11355 max        8135 min
Histogram: 1 0 2 8 15 7 7 4 2 2

Total # of neighbors = 471062
Ave neighs/atom = 117.76550
Neighbor list builds = 911
Dangerous builds = 224

# Equilibrate just above the melting temperature to avoid step fn in T

fix 1 all npt temp 1.25 1.25 0.1 iso 5.68 5.68 0.5 mtk yes tchain 5 pchain 5
run 2000
Per MPI rank memory allocation (min/avg/max) = 3.643 | 3.645 | 3.649 Mbytes
Step Temp E_pair E_mol TotEng Press Volume 
   10000    2.3923402   -5.0322138            0   -1.4446006    5.6724951    3888.2739 
   11000     1.234627   -7.0163271            0   -5.1648496    5.6489426     3088.695 
   12000    1.2474668   -7.1009963            0   -5.2302639    5.7990543     3063.274 
Loop time of 0.800994 on 48 procs for 2000 steps with 4000 atoms

Performance: 431464.131 tau/day, 2496.899 timesteps/s
99.1% CPU use with 48 MPI tasks x no OpenMP threads

MPI task timing breakdown:
Section |  min time  |  avg time  |  max time  |%varavg| %total
---------------------------------------------------------------
Pair    | 0.27305    | 0.30038    | 0.33602    |   2.4 | 37.50
Neigh   | 0.039601   | 0.042419   | 0.058799   |   1.3 |  5.30
Comm    | 0.24479    | 0.28708    | 0.33269    |   4.4 | 35.84
Output  | 5.3393e-05 | 5.5741e-05 | 7.3883e-05 |   0.0 |  0.01
Modify  | 0.10295    | 0.16435    | 0.19509    |   4.7 | 20.52
Other   |            | 0.006708   |            |       |  0.84

Nlocal:        83.3333 ave          90 max          74 min
Histogram: 2 1 2 5 3 10 13 3 5 4
Nghost:        1968.81 ave        1991 max        1948 min
Histogram: 3 7 4 6 4 8 4 3 6 3
Neighs:        12482.6 ave       14196 max       10852 min
Histogram: 1 4 5 7 6 10 7 5 2 1

Total # of neighbors = 599165
Ave neighs/atom = 149.79125
Neighbor list builds = 142
Dangerous builds = 10

#############################
# L I N E A R  Q U E N C H  #
#############################

# Define solid atoms. This closely follows ten Wolde  Ruiz-Montero and Frenkel  Faraday Discuss  1996  104  93-110
# Compute components of the per-atom q6 vector
compute q6 all orientorder/atom degrees 1 6 components 6 nnn NULL cutoff 1.3 # compute the Q6 parameter.
                                                                             # Use all neighbours within 1.3 unit cell.

# get number of connections
compute coord_number all coord/atom orientorder q6 0.5

# An atom is solid if it has 8 or more connections (of a possible 14)
variable is_solid atom c_coord_number>=8
group solid dynamic all var is_solid    # Must be dynamic to update
dynamic group solid defined

# do clustering
compute cluster solid cluster/atom 1.3 # Create a cluster where all atoms within are solid and max 1.3 units from another member

# define chunks one chunk per cluster
compute clus_chunks solid chunk/atom c_cluster nchunk every compress yes  # Says which atoms are in which chunk

# count the size of each chunk
compute size_chunks solid property/chunk clus_chunks count


# Find the maximum entry in the vector of chunk sizes
variable max_n equal max(c_size_chunks)


# Thermo style which includes this variable
# thermo_style custom step temp pe vol v_max_n

thermo ${N}  # Print the thermo information every 100 steps
thermo 1000  

# Reset the npt fix at a lower temperature (below freezing)
fix 1  all npt temp  ${temp} ${temp}  0.1  iso  5.68  5.68  0.5  mtk yes tchain  5  pchain  5
fix 1  all npt temp  0.45 ${temp}  0.1  iso  5.68  5.68  0.5  mtk yes tchain  5  pchain  5
fix 1  all npt temp  0.45 0.45  0.1  iso  5.68  5.68  0.5  mtk yes tchain  5  pchain  5

dump dmp2 all dcd ${N} traj.dcd
dump dmp2 all dcd 1000 traj.dcd


compute msd all msd com yes
variable twopoint equal c_msd[4]/6/(step*dt+1.0e-6)
fix 9 all vector 10 c_msd[4]
variable fit equal slope(f_9)/6/(10*dt)
thermo_style custom step temp pe c_msd[4] v_twopoint v_fit v_max_n

fix 1 all npt temp 1.25 ${temp} 0.1 iso 5.68 5.68 0.5 mtk yes tchain 5 pchain 5
fix 1 all npt temp 1.25 0.45 0.1 iso 5.68 5.68 0.5 mtk yes tchain 5 pchain 5
run 2000000 # 5000000  # Run for this many steps
Neighbor list info ...
  update every 1 steps, delay 10 steps, check yes
  max neighbors/atom: 2000, page size: 100000
  master list distance cutoff = 3.8
  ghost atom cutoff = 3.8
  binsize = 1.9, bins = 8 8 8
  4 neighbor lists, perpetual/occasional/extra = 1 3 0
  (1) pair lj/cut, perpetual
      attributes: half, newton on
      pair build: half/bin/atomonly/newton
      stencil: half/bin/3d
      bin: standard
  (2) compute orientorder/atom, occasional
      attributes: full, newton on
      pair build: full/bin/atomonly
      stencil: full/bin/3d
      bin: standard
  (3) compute coord/atom, occasional
      attributes: full, newton on
      pair build: full/bin/atomonly
      stencil: full/bin/3d
      bin: standard
  (4) compute cluster/atom, occasional
      attributes: full, newton on
      pair build: full/bin/atomonly
      stencil: full/bin/3d
      bin: standard
Per MPI rank memory allocation (min/avg/max) = 9.826 | 9.832 | 9.840 Mbytes
Step Temp PotEng c_msd[4] v_twopoint v_fit v_max_n 
   12000    1.2474668   -7.1009963 1.8587535e-30 1.290801e-32 8.3333333e+20            3 
   13000    1.2583727   -7.1127187   0.47502042 0.0030450026  0.039046637            3 
   14000    1.2573711   -7.0933093   0.94571296 0.0056292436  0.038658879            2 
   15000    1.2526925    -7.097865    1.3334285 0.0074079357  0.037689181            2 
   16000    1.2350996   -7.0926075     1.746125  0.009094401  0.035950026            1 
   17000    1.2444282    -7.165667    2.2096552  0.010831643  0.035772657            1 
   18000    1.2268654   -7.1336378    2.6892379  0.012450175   0.03629388            2 
   19000    1.2658385   -7.1144905     3.136232  0.013755403  0.036597694            1 
   20000    1.2161054   -7.1406519    3.5467064  0.014777943  0.036758407            4 
   21000    1.2550371   -7.0899349    3.9580846  0.015706685  0.036636942            2 
   22000    1.2392504   -7.1378615    4.3158663  0.016347978  0.036405508            1 
   23000    1.2425931   -7.0735975    4.8038005  0.017405074  0.036155251            3 
   24000    1.2409757   -7.1115223    5.2725405  0.018307432  0.036154433            1 
   25000    1.2588073   -7.0894514    5.7085688  0.019028562  0.036152664            2 
   26000    1.2310163   -7.1131078    6.1247131   0.01963049   0.03616328            1 
   27000    1.2393324   -7.0893438    6.5696964   0.02027684  0.036184637            1 
   28000    1.2381096   -7.0842865    7.0437632  0.020963581  0.036255308            2 
   29000    1.2243284   -7.0961841    7.4566823  0.021427248  0.036270392            1 
   30000    1.2454212   -7.1342208    7.8350151   0.02176393  0.036228239            1 
   31000    1.2565204   -7.1621247    8.3262823  0.022382479  0.036266277            1 
   32000    1.2251301   -7.1286455    8.7003521  0.022657167  0.036244869            5 
   33000    1.2532986   -7.1111656    9.0748882  0.022916384   0.03616113            3 
   34000    1.2511233   -7.1424613    9.4606197  0.023187793  0.036081529            1 
   35000    1.2236422   -7.1048171    10.054718  0.023939804  0.036065571            2 
   36000    1.2271398   -7.0814913    10.565248  0.024456593  0.036131676            2 
   37000    1.2395618   -7.1029475    10.957358  0.024678733  0.036167458            2 
   38000    1.2661431   -7.1269676    11.407855  0.025017225   0.03622096            3 
   39000    1.2311959   -7.1299916    11.801193  0.025216224  0.036277241            1 
   40000    1.2607293   -7.1214775    12.152248  0.025317183  0.036253276            1 
   41000    1.2126334   -7.1734149    12.594387  0.025598347  0.036235132            1 
   42000    1.2448581   -7.1413284    13.034517  0.025862137  0.036212759            2 
   43000    1.2417864    -7.106372    13.389041  0.025947753  0.036167437            1 
   44000    1.2425433   -7.1383839    13.778873  0.026096349  0.036086662            2 
   45000    1.2306765   -7.1257567    14.202217  0.026300401  0.036009461            3 
   46000    1.2562546   -7.1713647    14.615155  0.026476729  0.035972895            2 
   47000    1.2230613   -7.1001265    15.012092  0.026617183  0.035899594            1 
   48000    1.2137399   -7.0763388    15.467872  0.026853944  0.035847623            2 
   49000    1.2248283   -7.1395937    15.773735  0.026826079  0.035778564            1 
   50000    1.2534916    -7.133721    16.099262  0.026832104  0.035700454            3 
   51000     1.216327   -7.1122266    16.560243  0.027059221  0.035611462            2 
   52000    1.2198324   -7.1265779    16.854595  0.027010569  0.035515781            3 
   53000    1.2700141   -7.1512124    17.021398  0.026763204  0.035389388            1 
   54000    1.2303889   -7.1242787    17.584915  0.027137214  0.035266414            1 
   55000    1.2309674   -7.1703672    17.915513  0.027144716  0.035156513            2 
   56000    1.2359579   -7.1708519    18.183275  0.027058445  0.035031713            2 
   57000    1.2330665   -7.1574912    18.599283  0.027191934  0.034898118            2 
   58000     1.199582   -7.1878873    18.919279  0.027182872  0.034778172            1 
   59000    1.2380507   -7.1621899    19.346697  0.027325842  0.034643323       -1e+20 
   60000    1.2266362   -7.1453619    19.759732  0.027444072  0.034534439            2 
   61000     1.222179   -7.1459725    20.086709  0.027440859  0.034431171            1 
   62000    1.2205146   -7.1335702    20.469178  0.027512336  0.034325672            2 
   63000    1.2280926   -7.1607084    20.976894  0.027747214  0.034235899            1 
   64000    1.2341044   -7.1448937    21.448207  0.027927353  0.034166352            2 
   65000    1.2473865   -7.1357272      21.8792  0.028050256  0.034112247            3 
   66000     1.223522   -7.1323229    22.467621  0.028368209  0.034082501            1 
   67000    1.2434898   -7.1574869    22.796264  0.028353563  0.034070166            1 
   68000    1.2036565   -7.2014617    23.299569  0.028553394  0.034066245            1 
   69000    1.2296037   -7.1524895    23.819558  0.028767582  0.034074401            1 
   70000     1.228665   -7.1968243    24.136644  0.028734099  0.034090604            1 
   71000    1.2460399   -7.1068173    24.527416  0.028788047  0.034093228            1 
   72000    1.2360779   -7.1701155    25.048715  0.028991568   0.03410397            2 
   73000    1.2155341   -7.1474029     25.51387  0.029125422  0.034121461            3 
   74000    1.2172096   -7.1862122    25.924982  0.029194799  0.034139041            1 
   75000    1.2435924    -7.151076     26.51131  0.029457011  0.034169493            5 
   76000    1.2315697   -7.1742002    26.730401  0.029309651  0.034193048            1 
   77000    1.2199976   -7.1635719    26.951435  0.029168219  0.034190215            2 
   78000    1.2373659    -7.184584    27.437501   0.02931357  0.034193592            5 
   79000    1.2083198   -7.1796367    27.924926  0.029456673  0.034202163            1 
   80000    1.2005327   -7.1814027    28.178016    0.0293521  0.034204022            1 
   81000    1.2227618   -7.1112331    28.618352  0.029442749  0.034187567            5 
   82000    1.2238009   -7.1210054    28.972472  0.029443569  0.034169913            2 
   83000    1.2381085   -7.1290562     29.52363  0.029642199  0.034163213            3 
   84000    1.2253387   -7.1779138    29.822624  0.029585937  0.034160929       -1e+20 
   85000    1.2456996   -7.1882495    30.208825  0.029616495  0.034155769            2 
   86000    1.1956381    -7.182636    30.524157  0.029577672  0.034142321            1 
   87000    1.2342997   -7.1722898    30.864451   0.02956365  0.034126859            3 
   88000    1.2173887   -7.1553377    31.542408  0.029869704  0.034120379            1 
   89000    1.2347491   -7.2424707    31.743579  0.029722452  0.034112481            1 
   90000    1.1945155   -7.1776015    32.106132    0.0297279  0.034099667            3 
   91000      1.22799   -7.1672184    32.486076  0.029749153  0.034086549            2 
   92000    1.2349595   -7.1782879    32.973858  0.029867625  0.034073167            1 
   93000    1.2069223   -7.1786289     33.40812  0.029935591  0.034062946            1 
   94000    1.2249397   -7.1944926    33.674696  0.029853454  0.034046221            2 
   95000    1.1978685   -7.1798399    34.131955  0.029940312  0.034025331            2 
   96000    1.2151033   -7.1668258    34.678469  0.030102837  0.034014418            2 
   97000    1.2386053   -7.1556355    35.034404  0.030098285  0.034010948            3 
   98000    1.2261074   -7.1931428    35.451008  0.030145415  0.034005311            2 
   99000    1.2253267   -7.1406412    35.860223  0.030185373  0.033995378            1 
  100000    1.2123809   -7.1837354    35.986645  0.029988871   0.03397203            1 
  101000    1.2194434   -7.1412374    36.702907  0.030282926  0.033958097            5 
  102000    1.2106768   -7.1385931    36.939242  0.030179119  0.033949998            1 
  103000    1.2055177   -7.2071247    37.392987  0.030253225  0.033944507            2 
  104000    1.2185866   -7.1865653    38.044863  0.030484665  0.033946006            1 
  105000    1.1777801   -7.1414048    38.703905  0.030717385  0.033952807            2 
  106000    1.2222028    -7.143191     38.77009  0.030479631  0.033958731            4 
  107000    1.2167797   -7.2290132    38.947279  0.030332772  0.033956319            1 
  108000    1.2244548   -7.2014444    39.660372  0.030602138  0.033951869            4 
  109000    1.1999842   -7.1708778    39.927292  0.030525453  0.033949825            2 
  110000    1.1959758    -7.165991    40.350591  0.030568629  0.033951014            1 
  111000    1.1990303   -7.2129029    40.816242  0.030642824  0.033954332            2 
  112000      1.19522    -7.185074    41.134286  0.030605868  0.033955069            2 
  113000    1.2358873   -7.2065178    41.465319  0.030579144  0.033949041            1 
  114000     1.218446   -7.2140378    41.995715  0.030698622  0.033942115            1 
  115000    1.2212779   -7.2005355    42.273376  0.030632881   0.03393512            1 
  116000    1.2021584   -7.1286108    42.854294  0.030786131  0.033930972            2 
  117000    1.1997358   -7.1709206    42.985265  0.030616286   0.03392273            3 
  118000    1.2200816   -7.2337742    43.395256  0.030646367  0.033909255            1 
  119000    1.1910521   -7.1847493    43.971095  0.030792083  0.033900063            2 
  120000    1.2204416   -7.2409269    44.124823  0.030642238  0.033890462            4 
  121000    1.2132613   -7.1691098    45.034852  0.031015738  0.033893587            2 
  122000     1.187576    -7.200306    45.534108  0.031102532  0.033902942            1 
  123000    1.2041959   -7.1813998    45.977455  0.031150037  0.033914574            2 
  124000     1.213203   -7.2199328    46.263266  0.031090904  0.033919927            2 
  125000    1.2294548   -7.1945953    46.554654  0.031036436  0.033922754            3 
  126000    1.2074172    -7.186699    46.994742  0.031081179  0.033923109            2 
  127000    1.2267293   -7.1779043    47.324236  0.031052648  0.033922677            1 
  128000    1.1893617    -7.206726      47.2304  0.030748958  0.033915323            1 
  129000    1.2051179   -7.1578428    47.977312  0.030993095  0.033908147            1 
  130000    1.2123183    -7.204096     48.18058  0.030884987   0.03390115            3 
  131000    1.2017643   -7.1729088    48.636606  0.030939317  0.033890419            3 
  132000     1.197337   -7.1933326    49.030995  0.030953911   0.03387762            1 
  133000    1.1991942   -7.2349216    49.276508  0.030875005  0.033866035            1 
  134000    1.1964317   -7.2085012    50.027578  0.031111678  0.033858084            3 
  135000    1.2020037   -7.1913829    50.197231  0.030985945  0.033855534            2 
  136000    1.1940437   -7.1908022     50.69978  0.031066041  0.033848917            1 
  137000    1.2060286   -7.2082341    50.971538  0.031004585  0.033836071            2 
  138000    1.1740655   -7.2051364    51.394614  0.031035395  0.033825775            1 
  139000    1.1726091   -7.2130584    51.674501  0.030979916  0.033817251            2 
  140000    1.1874486   -7.2173248    51.997176    0.0309507  0.033806874            1 
  141000    1.1962252   -7.2069913    52.428998  0.030986406  0.033795179            2 
  142000    1.2059024   -7.2183785    52.805499  0.030989142  0.033784303            2 
  143000    1.1775551   -7.1932869      53.3546  0.031092424  0.033775563            1 
  144000     1.208398   -7.2788231    53.773117  0.031118702  0.033767851            2 
  145000     1.197133   -7.2107425    54.294662  0.031203828  0.033763397            1 
  146000    1.1967962   -7.1788255    54.487271   0.03110004  0.033755805            1 
  147000    1.1942111   -7.2478184    54.839849   0.03108835   0.03374835            1 
  148000    1.2360862   -7.2060219    55.119544  0.031035779  0.033739222            1 
  149000     1.223082   -7.2240102    55.438159  0.031005681  0.033724345            3 
  150000    1.2192941   -7.2142894      56.0463  0.031136833  0.033712471            2 
  151000      1.19694   -7.2607323    56.284371  0.031062015  0.033698121            1 
  152000    1.2126832   -7.2431179    56.722025  0.031097601  0.033687043            2 
  153000    1.1816304   -7.2396475    57.307243  0.031213095  0.033677179            1 
  154000    1.1610087   -7.2277411    57.602888  0.031170394  0.033667348            3 
  155000    1.1885425   -7.2181674    58.249595  0.031316987  0.033661478            2 
  156000     1.179617   -7.2304845    58.580179   0.03129283  0.033656812            2 
  157000    1.2097456   -7.2567031     58.73915  0.031177893  0.033652132            2 
  158000    1.1975305   -7.2627639    58.914968  0.031073295  0.033641045            2 
  159000     1.192883   -7.2447868    59.237995  0.031047167  0.033629453            1 
  160000    1.1896565    -7.243525    59.647155  0.031066226   0.03361298            2 
  161000    1.1609691   -7.2278563    59.961178  0.031035806  0.033596413            2 
  162000    1.1974962   -7.2435938    60.615122  0.031180618  0.033583591            1 
  163000    1.1837454   -7.2221472    60.995985  0.031184041  0.033571576            1 
  164000    1.1966141   -7.2631461    61.061159  0.031027012  0.033557274            2 
  165000      1.19163   -7.2593954    61.493355   0.03105725  0.033540504            5 
  166000     1.212339   -7.2553144    62.033495  0.031141313  0.033527537            2 
  167000    1.2055201     -7.26742    62.161914  0.031018919  0.033513402            2 
  168000    1.2024374   -7.2788859    62.467954  0.030986088   0.03349629            3 
  169000    1.2172432   -7.2707232     63.08017   0.03110462  0.033480873            2 
  170000    1.1827028   -7.2676304      63.6667  0.031209167  0.033467877            2 
  171000    1.2116678   -7.2407564    64.348661  0.031358996  0.033456929            1 
  172000    1.2055687   -7.2750735    64.204459  0.031106811  0.033448232            2 
  173000    1.2017605   -7.2118006    65.019459  0.031319585  0.033437871            1 
  174000     1.197901    -7.267086     65.28383  0.031266202  0.033428845            1 
  175000    1.1692417   -7.2356073    65.508989  0.031194756  0.033419079            2 
  176000    1.2153116   -7.2745324    65.820183  0.031164859  0.033406009            1 
  177000    1.1761296   -7.2587568    66.121671   0.03113073  0.033392233            2 
  178000    1.1729781   -7.2192985     66.21394  0.030999035  0.033373036            1 
  179000    1.1757082   -7.2582585    66.395619  0.030910437  0.033352629            1 
  180000    1.1948522   -7.2623751    66.737274  0.030896886  0.033330388            2 
  181000    1.2100836   -7.2481877    67.056522  0.030873168   0.03330943            2 
  182000    1.1944674   -7.2576882    67.567952  0.030937707  0.033287597            1 
  183000    1.1715045   -7.2453318    67.869573  0.030905998  0.033263521            2 
  184000    1.1725087   -7.2743702    68.140809  0.030860874  0.033239853            1 
  185000    1.1557028   -7.2524923    68.364912  0.030795005  0.033217389            1 
  186000    1.1943571   -7.2605999    68.792477  0.030821002  0.033191543            1 
  187000    1.1798475   -7.3154366    68.623364  0.030580822  0.033165171            4 
  188000    1.1717583   -7.2580777    69.323025  0.030728291  0.033137428            2 
  189000    1.1695889   -7.2708458    69.733417  0.030746657   0.03311129            1 
  190000    1.1971074   -7.2897441    69.741482  0.030588369  0.033084198            1 
  191000    1.2225749   -7.3643771    69.999053  0.030540599  0.033056144            2 
  192000    1.1827853   -7.2727909    70.738166  0.030702329  0.033030446            4 
  193000     1.204933   -7.2352409    71.469683  0.030859103  0.033006857            1 
  194000    1.1650505   -7.2455727    71.802785  0.030843121  0.032984618            2 
  195000    1.1857212   -7.2603274    72.053976  0.030792297  0.032962386            2 
  196000     1.168967   -7.2428596    72.417576  0.030789786  0.032941649            3 
  197000    1.2039879    -7.250154    72.740643  0.030770154  0.032921588            1 
  198000    1.1576574    -7.269266    73.266077  0.030835891  0.032902123            1 
  199000    1.1895177   -7.2396431    73.719398  0.030870769  0.032885028            2 
  200000    1.1535805   -7.2769564    73.830606  0.030762752  0.032865317            3 
  201000    1.1744439   -7.2965628    74.026808  0.030691048  0.032845625            2 
  202000    1.1653669   -7.2297901    74.971407  0.030928798  0.032827107            1 
  203000    1.1595301   -7.2775788    75.011645  0.030792958  0.032809805            2 
  204000    1.1738685   -7.2778915    75.558556  0.030865423  0.032791544            2 
  205000    1.1683414   -7.2891414     75.81426  0.030818805  0.032775463            2 
  206000    1.1725875   -7.2884242    76.588355  0.030982344  0.032761421            2 
  207000    1.1764267   -7.2717084    76.768313  0.030905118  0.032748185            2 
  208000    1.1912987   -7.3056878    76.712128  0.030734026  0.032734453            2 
  209000    1.1907457   -7.2606917     77.33945  0.030837101  0.032717817            2 
  210000    1.1571179   -7.3143295    77.098927  0.030594812  0.032698527            1 
  211000    1.1487928   -7.2851382    77.978877  0.030797345  0.032677637            1 
  212000    1.1551248   -7.3041724    77.944269   0.03063847  0.032658234            2 
  213000      1.14176   -7.2371172    78.743687  0.030807389  0.032639097            2 
  214000    1.1804216   -7.2823456    79.136192  0.030816274  0.032621682            2 
  215000    1.1604567   -7.2858544    79.128732  0.030670051  0.032603047            2 
  216000    1.1450716   -7.2710527    79.672858  0.030737985  0.032584789            1 
  217000    1.1764166   -7.2780736    79.760332  0.030629928  0.032565679            1 
  218000    1.1429335    -7.296585     80.47232   0.03076159  0.032546949            1 
  219000    1.1827043   -7.3050284    80.559868   0.03065444  0.032528014            2 
  220000    1.1642518   -7.3249907    80.742442  0.030584258   0.03250998            1 
  221000     1.143939   -7.2968788    81.442248  0.030709747  0.032490653            1 
  222000    1.2007868   -7.2338873    81.796975   0.03070457  0.032472257            2 
  223000    1.1648068   -7.2786122    82.384031   0.03078626  0.032455262            3 
  224000    1.1858797   -7.2596644    82.946842    0.0308582  0.032439872            3 
  225000    1.1634753   -7.2886296    83.189351  0.030810871  0.032425342            1 
  226000    1.1411881   -7.2999067    83.263268  0.030701795  0.032410935            1 
  227000    1.1544764   -7.3215614    83.826283  0.030773232  0.032396147            2 
  228000    1.1346545   -7.3162205    83.883248  0.030659082  0.032382594            4 
  229000    1.1655307   -7.3136367    84.238765  0.030654572  0.032367952            1 
  230000    1.1689247   -7.3390716    84.691673  0.030685389  0.032354129            1 
  231000    1.1741665    -7.293855    84.982304  0.030657397    0.0323384            3 
  232000    1.1421546   -7.2810095    85.552722  0.030730144  0.032322514            1 
  233000     1.174472   -7.3040389     85.54573  0.030595755   0.03230569            1 
  234000    1.1521257   -7.2854134     86.13003  0.030673088  0.032288901            3 
  235000    1.1593194   -7.2838383    86.734139  0.030756787  0.032274572            3 
  236000    1.1480325   -7.2930259    86.947807  0.030701909  0.032260249            5 
  237000     1.160872   -7.3286642    87.534774  0.030778753  0.032245566            1 
  238000    1.1651294   -7.3084815    87.469065  0.030626423  0.032230817            4 
  239000    1.1513487   -7.2751921    88.472213  0.030848052   0.03221751            1 
  240000    1.1392983   -7.2984376    88.996165  0.030901446  0.032206616            3 
  241000    1.1626183   -7.3223432    89.011337   0.03077847  0.032194771            1 
  242000    1.1652426   -7.2919699    89.382973  0.030779261  0.032181492            2 
  243000    1.1324468   -7.3521134    88.886977  0.030482502  0.032166347            2 
  244000    1.1548482   -7.3085281     89.59535  0.030599505  0.032149741            2 
  245000    1.1649274   -7.3256332    89.967441   0.03060117  0.032134553            1 
  246000    1.1342455   -7.3403779     90.29744  0.030588564  0.032118146            2 
  247000    1.1305423   -7.3349321    90.504541  0.030534595  0.032102694            2 
  248000    1.1784022   -7.2986417    90.865287  0.030532691  0.032088067            2 
  249000     1.155466   -7.3129443    91.335694  0.030567501  0.032071383            1 
  250000    1.1465798   -7.3083116    91.611743  0.030537247  0.032055105            2 
  251000    1.1390509   -7.3357745    91.548156  0.030394474  0.032036777            1 
  252000    1.1577108    -7.291698    92.029734  0.030433113  0.032016592            1 
  253000    1.1343914   -7.3021859    92.138002  0.030348486  0.031997537            1 
  254000    1.1691556   -7.2817313    92.627354  0.030389552  0.031977316            2 
  255000    1.1289403   -7.3217529    92.756872  0.030312703  0.031956993            3 
  256000      1.16774   -7.3115283    93.159858  0.030325475  0.031935483            3 
  257000    1.1650324   -7.3524328    93.005972  0.030157578  0.031914227            1 
  258000    1.1834197   -7.3443276    93.520705  0.030206946  0.031892003            1 
  259000    1.1622047   -7.3881711    93.593712  0.030113807  0.031869693            2 
  260000     1.168077   -7.3357852    93.847576  0.030079351  0.031846343            2 
  261000    1.1383161   -7.3513565    94.042202  0.030026246  0.031822608            1 
  262000    1.1448739   -7.3604341    94.525387  0.030065327  0.031799158            3 
  263000    1.1214395     -7.34106    95.309873  0.030199579  0.031776758            3 
  264000    1.1619841   -7.3543977    95.576908  0.030169478  0.031755118            2 
  265000    1.1216774   -7.3009552     96.10495  0.030221682  0.031734773            5 
  266000    1.1259635   -7.3327246    96.582769   0.03025776  0.031715719            4 
  267000    1.1374382   -7.3259746    96.729259  0.030190156  0.031696133            1 
  268000    1.1698605   -7.3178683    96.875883  0.030123098  0.031675571            1 
  269000    1.1708808   -7.3370854     97.24957   0.03012688  0.031656017            1 
  270000     1.148428   -7.3254696    97.328923  0.030039791  0.031635738            3 
  271000    1.1703869   -7.3168859    97.825905  0.030081766  0.031615386            2 
  272000    1.1531495   -7.3330085    98.063129  0.030043851  0.031595503            1 
  273000    1.1489292   -7.3931549    98.413526  0.030040759  0.031574893            1 
  274000    1.1444274   -7.3524533    98.844701  0.030062257  0.031555742            1 
  275000    1.1469776   -7.3137138    99.463436  0.030140435  0.031537062            5 
  276000    1.1590788   -7.3696609    99.652804  0.030088407   0.03151885            1 
  277000    1.1555263   -7.3962187    99.729821  0.030002955  0.031498943            2 
  278000    1.1556476   -7.3389735    100.00769  0.029978326  0.031479028            1 
  279000    1.1315161   -7.3410696    100.44731  0.030002182  0.031459729            1 
  280000    1.1477207   -7.3265026      100.099   0.02979137  0.031439068            1 
  281000     1.156527   -7.3001863     100.8268  0.029901186  0.031418771            1 
  282000    1.1414834    -7.380991    101.14047  0.029887847  0.031397935            1 
  283000     1.157085   -7.3463707    101.31804  0.029834524  0.031376476            2 
  284000    1.1363187   -7.4067909    101.37777  0.029746999  0.031355374            1 
  285000    1.1452687   -7.3662336    101.94108  0.029807332  0.031333212            5 
  286000    1.1571091   -7.3455391    102.16321  0.029767836  0.031311373            1 
  287000    1.1499294   -7.3694553    102.49914  0.029761655  0.031290202            3 
  288000     1.131138   -7.3435158    102.83613  0.029755825  0.031268208            4 
  289000    1.1345801   -7.4021902    103.27098  0.029778254  0.031245858            3 
  290000    1.1071975   -7.3486931    103.36567   0.02970278  0.031222675            1 
  291000     1.131156   -7.4061703    103.23648  0.029563713  0.031199903            2 
  292000    1.1283176   -7.3279284    104.05026  0.029694709  0.031175981            1 
  293000    1.1380323   -7.3609481     103.8714  0.029542491  0.031152092            1 
  294000    1.1236518   -7.3703333    104.04585  0.029491455  0.031126909            1 
  295000    1.1355569   -7.3986018    104.33151  0.029472178  0.031102002            1 
  296000    1.1250851   -7.3635862    104.70281  0.029477141  0.031076692            4 
  297000    1.1353963   -7.3802232    105.10313  0.029490215  0.031051149            3 
  298000    1.1463853   -7.3679137    105.47352  0.029494832  0.031026623            4 
  299000    1.1335017   -7.3369908    105.50452  0.029404828   0.03100232            2 
  300000    1.1424437   -7.3846483    106.12907  0.029480296  0.030977922            1 
  301000    1.1341124   -7.3930363    105.94692  0.029331926  0.030952756            1 
  302000    1.1180881   -7.3912869    106.45806  0.029375845  0.030928093            2 
  303000     1.170338   -7.3892586    106.51089  0.029293425  0.030903711            1 
  304000    1.1342744   -7.3639186     107.1964  0.029384977  0.030878812            4 
  305000    1.1250574    -7.334756    107.67145  0.029418429  0.030854327            3 
  306000    1.1437767   -7.3804776     108.0344  0.029421134   0.03083101            1 
  307000    1.1331919   -7.3886186    107.98979  0.029313189  0.030806857            2 
  308000     1.140025   -7.3673832    108.34914  0.029315245  0.030783673            2 
  309000    1.1179474   -7.4238564    108.65294  0.029302304  0.030759763            1 
  310000    1.1312136   -7.4199931    108.83709  0.029257283  0.030735261            2 
  311000    1.1441473   -7.3889542    109.05212  0.029220825  0.030710691            3 
  312000    1.1407941   -7.4156112    109.54715  0.029259389  0.030686794            4 
  313000    1.1163002   -7.3620195    109.91576  0.029264048  0.030663085            2 
  314000    1.1331194   -7.4049869    110.13915  0.029230134  0.030638733            1 
  315000    1.1647793   -7.3772895    110.47046  0.029224989  0.030614887            1 
  316000    1.1555208   -7.3909765    110.57089  0.029158989  0.030592357            7 
  317000    1.1513982   -7.3203798    111.34499  0.029270501  0.030569921            1 
  318000    1.1214621   -7.3530679    111.65865  0.029260653  0.030548072            1 
  319000    1.1608995   -7.3855824    112.07384  0.029277388  0.030527424            2 
  320000    1.1366304   -7.4372176    112.03931  0.029176902  0.030505862            2 
  321000    1.1469329     -7.39006    112.22535  0.029134306  0.030482945            5 
  322000    1.1046007   -7.3884542    112.83756  0.029202267  0.030460667            1 
  323000    1.1318646   -7.3699378    113.16027  0.029195116  0.030438466            1 
  324000    1.1348555   -7.4018709    113.02522  0.029070273  0.030416176            1 
  325000    1.1119458   -7.3966568    113.65705  0.029142834  0.030393973            1 
  326000    1.1209909   -7.3888195    113.87308  0.029108661  0.030372923            4 
  327000    1.1194248   -7.4063751    114.31798  0.029133023   0.03035041            1 
  328000    1.1133285   -7.3677039    114.30261  0.029040298  0.030328415            3 
  329000    1.1252444   -7.3825984    114.40687  0.028978437  0.030305479            2 
  330000    1.1294767   -7.3910205    114.43509   0.02889775  0.030281504            1 
  331000    1.1246406   -7.4171223    114.68403  0.028873119  0.030257833            1 
  332000    1.1187182   -7.3905326    114.83455  0.028823933  0.030233377            1 
  333000    1.1260072   -7.4167154    115.12057   0.02880895  0.030208754            1 
  334000    1.1067778   -7.3740482    115.41184   0.02879537  0.030183638            4 
  335000    1.1391627   -7.4162435    116.12529  0.028886887  0.030159148            6 
  336000    1.1243535   -7.4242312     115.9249  0.028751215  0.030135432            2 
  337000    1.1168502   -7.3278409    116.68682  0.028854307  0.030111235            2 
  338000    1.1163258    -7.354137    116.51945  0.028727675  0.030087587            1 
  339000    1.1316455   -7.4076523    116.75921  0.028701869  0.030063254            2 
  340000    1.1258732   -7.3942843    116.65415  0.028591703   0.03003681            2 
  341000     1.141058   -7.4296038    117.00162  0.028592771   0.03001039            2 
  342000    1.1244238   -7.4276756    117.31794  0.028586243  0.029984551            1 
  343000    1.1309065   -7.3923974    117.59643   0.02857056  0.029959282            1 
  344000       1.1204   -7.3960762    118.31153  0.028660739  0.029934526            1 
  345000    1.0956639   -7.3648235    118.45731  0.028612876  0.029910758            3 
  346000    1.1222719   -7.4275213    118.93398  0.028644984  0.029887357            1 
  347000    1.1062543   -7.4083417    119.16484  0.028617878  0.029864618            2 
  348000    1.1324961   -7.4155221    119.27829  0.028562808  0.029841072            1 
  349000    1.0949016   -7.4054245    119.88619  0.028626119   0.02981794            2 
  350000    1.1136781   -7.4242778    119.56909  0.028468832  0.029794793            3 
  351000    1.1089732   -7.4080181    120.41179  0.028587795  0.029771686            2 
  352000    1.1032739   -7.4138367    120.76824  0.028590966  0.029749034            2 
  353000    1.1126252   -7.3572286    121.14978  0.028600043  0.029726479            2 
  354000    1.0898566   -7.4340755    120.82249  0.028442206  0.029703039            1 
  355000    1.1063569   -7.3904526    121.56497  0.028536377  0.029680363            1 
  356000    1.1497639   -7.4282165     121.4293  0.028424462  0.029657267            1 
  357000    1.1187606   -7.4164261    122.39156  0.028569459  0.029634299            1 
  358000    1.1213812   -7.4424335    122.23295  0.028452736  0.029611741            2 
  359000     1.135738   -7.4378569    122.14804  0.028353769  0.029588515            4 
  360000    1.1286092   -7.4148256    122.42833  0.028339891  0.029565451            1 
  361000    1.0979537   -7.4552089    123.28021  0.028458036  0.029541661            1 
  362000    1.1078248   -7.4304821    123.31098  0.028386505  0.029518791            3 
  363000    1.1116279    -7.454135     123.3372  0.028314325  0.029495873            2 
  364000    1.1034862   -7.4355378     123.7418  0.028329167  0.029472541            2 
  365000     1.114178   -7.4635749    123.63404   0.02822695  0.029449639            1 
  366000    1.1294861   -7.4591882    124.20179  0.028279097  0.029426437            2 
  367000    1.1124652   -7.4056682    124.95846  0.028373855  0.029404836            3 
  368000     1.115769   -7.4089216    125.63719   0.02845045  0.029383306            1 
  369000     1.093864   -7.3918905    125.40389  0.028320661  0.029362322            2 
  370000    1.0895348   -7.4601497    125.59452  0.028287054  0.029341027            4 
  371000    1.1003098   -7.4245991     125.7994  0.028256829  0.029319336            2 
  372000    1.1086781   -7.4403138    125.58035    0.0281318  0.029296734            2 
  373000     1.104813   -7.4315284    126.40508  0.028240634  0.029274477            1 
  374000    1.0985322   -7.4389353     126.7268   0.02823681  0.029252597            1 
  375000    1.1207893   -7.4275848    126.99543  0.028221206   0.02923144            1 
  376000    1.1195511   -7.4487634    126.69138  0.028078762   0.02920928            1 
  377000    1.0937327   -7.4095859    127.52523    0.0281886    0.0291873            1 
  378000    1.0871199   -7.4517827    127.40382  0.028087262  0.029166005            3 
  379000    1.1057937   -7.4411739    127.78358  0.028096653  0.029143338            2 
  380000    1.1315106    -7.464001    127.67722  0.027999391  0.029121168            1 
  381000    1.1148932   -7.4580815    128.24858   0.02805087  0.029099201            1 
  382000     1.083293   -7.4736005    128.48871  0.028029822  0.029076743            1 
  383000    1.1335604   -7.4319375    129.27213  0.028127096  0.029055055            1 
  384000    1.0975974   -7.4173875     129.3783  0.028076887  0.029033898            1 
  385000    1.1144566   -7.4144043    129.82036  0.028099646  0.029013021            2 
  386000    1.1201155   -7.4587025    129.81128  0.028024888  0.028993191            2 
  387000     1.127142    -7.455885    130.19119   0.02803428  0.028972441            3 
  388000    1.1246142   -7.4313485    130.41589  0.028010285  0.028952616            1 
  389000    1.1008313   -7.4881582    130.66144  0.027990883  0.028932319            1 
  390000    1.0908433   -7.4493058    131.17994  0.028029901  0.028912368            1 
  391000    1.1121722    -7.466932    131.78571   0.02808732  0.028893709            2 
  392000    1.1108241   -7.4607552    131.83338  0.028025803  0.028875235            4 
  393000    1.1007578    -7.460649    132.36552  0.028067328  0.028857373            2 
  394000    1.0923229   -7.4603312    132.67664  0.028061896  0.028838929            2 
  395000    1.0832993   -7.4491259    133.46085  0.028156297  0.028820321            2 
  396000    1.0744855   -7.4256887    132.95445   0.02797863   0.02880257            4 
  397000    1.0920101     -7.43393    133.74949  0.028075039  0.028784891            2 
  398000    1.0740286   -7.4543442    133.89968  0.028035947  0.028766386            2 
  399000     1.080823   -7.4944402    133.74702  0.027933796  0.028748091            2 
  400000    1.0833598    -7.497394    134.25493  0.027969778  0.028729208            3 
  401000    1.0971587   -7.4660902    134.08829  0.027865398  0.028710052            3 
  402000    1.0824512   -7.4625988    135.04181  0.027993742  0.028691458            1 
  403000    1.0576786    -7.479761    134.93669   0.02790254  0.028672956            2 
  404000    1.0778791   -7.5027933    134.74967    0.0277949  0.028654192            1 
  405000     1.083699   -7.4619499     135.3161  0.027842819  0.028634975            2 
  406000     1.101964   -7.4147274    135.67446  0.027847795   0.02861641            1 
  407000    1.1002605   -7.4371346    136.17422  0.027881699  0.028597662            1 
  408000    1.1038589   -7.4968188    136.66391  0.027913381  0.028579257            2 
  409000    1.0985226   -7.4963608    136.72594   0.02785777  0.028561265            3 
  410000    1.0742268   -7.4760574    136.78408  0.027801641  0.028542928            4 
  411000    1.0860695   -7.4943644    137.33621  0.027845947  0.028524879            3 
  412000    1.0967545   -7.4812078    137.42756  0.027796837  0.028506694            3 
  413000     1.102101   -7.5428207    137.30795  0.027705398  0.028488883            3 
  414000    1.1111128   -7.4735135    137.95567  0.027768856  0.028470613            1 
  415000    1.1183177   -7.5322798    137.75675  0.027661997  0.028452758            2 
  416000    1.0683388   -7.4721023    138.32124  0.027708582  0.028434232            1 
  417000     1.088759   -7.4812212    138.16758  0.027611427  0.028416026            1 
  418000    1.0727088    -7.494588    138.38257  0.027588231  0.028396494            1 
  419000    1.0855805   -7.5609272    138.42722  0.027531268  0.028377191            1 
  420000    1.1067945   -7.4828317    139.12566  0.027604297  0.028357918            3 
  421000    1.0724983    -7.467954    139.75325  0.027662956  0.028339309            3 
  422000    1.0979052   -7.4895689    139.72496  0.027591817  0.028320678            2 
  423000    1.0803101   -7.4858861    139.62875  0.027507634  0.028301479            2 
  424000    1.0934085   -7.4833113    140.15965  0.027547101  0.028281797            2 
  425000    1.0924179   -7.4578468    139.90275  0.027431912  0.028261953            3 
  426000    1.0724401   -7.5040564     140.4317   0.02747099  0.028241819            1 
  427000    1.1002876   -7.5055402    140.63931  0.027447172  0.028221911            1 
  428000    1.0907245   -7.4964097    141.08965  0.027470725   0.02820264            1 
  429000    1.0966474   -7.4962917    141.05338  0.027399647  0.028183268            2 
  430000    1.0990518   -7.4593582    142.18877  0.027555964  0.028164099            2 
  431000    1.0952582    -7.509406     141.7538  0.027407926  0.028145185            2 
  432000    1.0755131   -7.5038479    142.05821  0.027403203  0.028125958            2 
  433000     1.090661   -7.5097661    142.29955  0.027386365   0.02810649            1 
  434000    1.0713171   -7.5007043    142.14727  0.027294023   0.02808712            5 
  435000    1.0606316    -7.484069    142.26955  0.027254703  0.028067508            1 
  436000    1.0855905   -7.4746887    142.63846  0.027262703  0.028048043            2 
  437000    1.0826571   -7.4558171    143.25358  0.027317615  0.028028545            2 
  438000    1.0901962   -7.4943909    143.14959  0.027235461  0.028008622            2 
  439000    1.0783478   -7.5112277    143.30709   0.02720332  0.027988283            3 
  440000    1.0770469   -7.4860233    144.01093  0.027274798  0.027968135            1 
  441000    1.0646786   -7.5032526    143.66564  0.027147702  0.027948225            1 
  442000    1.1037599   -7.5004331    144.31873  0.027209414  0.027928583            4 
  443000    1.0859037   -7.4681235    144.91481  0.027260122  0.027909282            2 
  444000    1.0547526   -7.5352861    144.00784  0.027028498  0.027889406            2 
  445000    1.0654922   -7.4753466    144.96242   0.02714652  0.027869414            4 
  446000    1.0735006   -7.5124194    144.73196  0.027042594  0.027849238            1 
  447000    1.0588917   -7.5216005    144.92398  0.027017894  0.027828737            2 
  448000    1.0636298   -7.5178173    144.87132   0.02694779  0.027807688            1 
  449000    1.0760579   -7.5265434    145.30746   0.02696872   0.02778694            1 
  450000    1.0738488    -7.495229    145.42372  0.026930318   0.02776619            1 
  451000    1.0734792   -7.5001634    145.58188   0.02689983  0.027744841            1 
  452000    1.0621348   -7.5154215    145.42094  0.026810645  0.027722923            1 
  453000     1.068529   -7.5005005    145.81415  0.026823796  0.027701359            4 
  454000    1.0732455   -7.5324506    146.14781  0.026825956  0.027679519            2 
  455000    1.0695184   -7.5042644    146.30654  0.026796069  0.027658264            3 
  456000    1.0934375   -7.5322309    146.45358  0.026764178  0.027636871            2 
  457000    1.0631309   -7.5698956     146.7547  0.026760521  0.027615797            2 
  458000    1.0894403   -7.5465783     147.0853  0.026762245  0.027594369            2 
  459000     1.073062   -7.4977301    147.71076  0.026817494   0.02757361            2 
  460000    1.0871671   -7.4803344    147.85697  0.026785682  0.027552411            3 
  461000    1.0664537   -7.5291688    147.80928  0.026718959  0.027531138            2 
  462000    1.0792763   -7.5438588    147.76552  0.026653232   0.02750936            1 
  463000    1.0709153   -7.4981661    148.27894  0.026688073   0.02748765            1 
  464000    1.0625731    -7.582021    147.82702  0.026549393  0.027465764            2 
  465000    1.0502746   -7.5038716    148.33276  0.026582932  0.027443739            1 
  466000     1.075776   -7.5303859    148.29087  0.026518396  0.027422037            2 
  467000    1.0861598   -7.5097181    148.52405  0.026503221  0.027399402            3 
  468000    1.0612876   -7.5518327    148.40842  0.026426001  0.027377096            2 
  469000    1.0921669   -7.5488098    149.12974  0.026497821  0.027354226            3 
  470000    1.0656878   -7.5353395     149.1829  0.026450869   0.02733155            1 
  471000    1.0751605   -7.5317318    149.70676  0.026487395  0.027309325            2 
  472000    1.0689727   -7.5564903    150.16585  0.026512331  0.027287597            2 
  473000    1.0845778   -7.5078598     150.4947  0.026514217  0.027265989            1 
  474000    1.0563635   -7.5195974    150.11914  0.026392254  0.027244166            1 
  475000     1.059439   -7.4985226    150.76714  0.026450376  0.027222478            3 
  476000    1.0491717   -7.5685497    150.36624  0.026324621  0.027200523            3 
  477000     1.038133   -7.5111363    151.34684  0.026440747  0.027178417            1 
  478000    1.0678523   -7.5500166    150.70737  0.026273948  0.027156771            1 
  479000    1.0696853   -7.5413529    151.08847  0.026285398   0.02713467            2 
  480000    1.0592971   -7.5648412     151.1961  0.026249323  0.027112828            3 
  481000    1.0734625   -7.5101041    151.17769  0.026191562  0.027090485            3 
  482000    1.0514096   -7.5702694    151.38015  0.026172225   0.02706821            4 
  483000    1.0730073   -7.5371161    152.01308   0.02622724  0.027045942            2 
  484000    1.0706683   -7.5720761     151.7472  0.026127272    0.0270237            2 
  485000    1.0524217    -7.588163    152.06401  0.026127837  0.027001186            2 
  486000    1.0726563   -7.5319105    152.26713  0.026108905  0.026979139            3 
  487000    1.0657597   -7.5398653    153.36236  0.026242704  0.026957455            2 
  488000    1.0733347   -7.5658565    153.05874   0.02613708  0.026936478            1 
  489000     1.058642   -7.5636706    153.43563  0.026147858  0.026915337            2 
  490000    1.0609776   -7.5784181    153.81595  0.026159175  0.026893826            2 
  491000    1.0416334   -7.5637137    154.02899  0.026142056  0.026872988            2 
  492000    1.0732097   -7.5976984    154.15005  0.026109425  0.026851824            2 
  493000    1.0745961   -7.5531055    154.57844  0.026128877  0.026831047            3 
  494000    1.0715673   -7.5521451    154.69595  0.026095807  0.026810647            2 
  495000    1.0523401   -7.5933225    154.38388  0.025990553  0.026789787            3 
  496000    1.0606118   -7.5364923    154.95715  0.026034467  0.026769123            2 
  497000    1.0638502   -7.5611979    155.59822  0.026089575  0.026748554            4 
  498000    1.0451284   -7.5637035    155.93853  0.026094131  0.026728453            2 
  499000    1.0665128   -7.5797012    156.50727  0.026136819  0.026708677            4 
  500000    1.0542827    -7.566387     156.1224  0.026020399   0.02668881            2 
  501000     1.066543   -7.5409833    156.56295  0.026041742  0.026668498            1 
  502000    1.0585206   -7.5594531    156.48001  0.025976097    0.0266485            1 
  503000    1.0497328   -7.5569464    156.84284  0.025984565  0.026628235            2 
  504000    1.0595972   -7.5684124     157.0668  0.025970039  0.026608469            1 
  505000     1.040638   -7.5313484     157.7706  0.026034753  0.026589116            2 
  506000    1.0461465   -7.5746336    157.67837  0.025968112  0.026569214            2 
  507000    1.0422438   -7.5866993    157.46326  0.025881535  0.026548861            2 
  508000    1.0348808   -7.6160198    157.33324  0.025809259  0.026528444            1 
  509000    1.0341423   -7.5655113    157.44393  0.025776674  0.026507599            6 
  510000    1.0419474   -7.5994728    158.30363  0.025866606  0.026486861            5 
  511000    1.0521412   -7.6072819    158.12708  0.025787195  0.026466501            1 
  512000    1.0539746   -7.5943343    158.29962  0.025764913  0.026445818            4 
  513000     1.045858   -7.5920293    158.60568  0.025764406   0.02642563            1 
  514000    1.0487453   -7.6032955    159.01863  0.025781231  0.026405619            2 
  515000    1.0539166   -7.5757292    159.52361  0.025812881  0.026385944            2 
  516000    1.0635223   -7.5682769    160.31456  0.025890594  0.026366291            1 
  517000    1.0382349   -7.5920874    159.88174  0.025770752  0.026346939            1 
  518000    1.0444872   -7.5675196    160.03749  0.025746056   0.02632764            1 
  519000    1.0108948   -7.5777636    160.47519  0.025766729  0.026308255            3 
  520000    1.0409608   -7.6353324     160.5195  0.025724279  0.026288599            3 
  521000     1.049395   -7.6179353    160.75769  0.025713002  0.026268699            2 
  522000    1.0854773   -7.6011215    160.66166  0.025648414  0.026248831            2 
  523000    1.0435667   -7.6032095    161.12848  0.025673753  0.026228824            2 
  524000    1.0399505    -7.600831     160.3697  0.025504087  0.026209139            2 
  525000    1.0458366   -7.6016966    161.80681  0.025683621  0.026189374            3 
  526000    1.0262184   -7.5771332    162.05948  0.025674822  0.026170143            4 
  527000    1.0441132   -7.5868225     162.4052  0.025680772  0.026150955            5 
  528000    1.0318487   -7.6148249    162.24928  0.025607526  0.026131885            2 
  529000    1.0445697   -7.6322169    161.72582  0.025476656   0.02611231            2 
  530000    1.0366948   -7.6126167    162.86191  0.025607219  0.026093266       -1e+20 
  531000    1.0563264   -7.5761118    163.38049  0.025640378  0.026074622            1 
  532000    1.0528481   -7.5967571    163.56444  0.025620996  0.026056319            2 
  533000    1.0186161    -7.537477     163.7761   0.02560602  0.026038125            1 
  534000    1.0626789   -7.5662957    164.74317  0.025708984   0.02602032            3 
  535000    1.0297686   -7.6159379    163.85764  0.025522997  0.026002411            1 
  536000    1.0389319   -7.6269716    163.68451  0.025448462  0.025984094            1 
  537000    1.0824346   -7.6115193    164.41905   0.02551506  0.025965844            3 
  538000    1.0401551   -7.6047762    164.40089  0.025464821  0.025947614            1 
  539000    1.0128005   -7.5963932    164.74759  0.025471179  0.025929312            2 
  540000    1.0354284   -7.5587035    165.28101  0.025506329  0.025911309            1 
  541000    1.0389524   -7.5779783    165.92675  0.025558649  0.025893526            1 
  542000    1.0241814   -7.5946463    165.69858  0.025476412  0.025875768            2 
  543000    1.0086132    -7.628018    165.44432  0.025390473  0.025857441            2 
  544000    1.0310703   -7.6540941    165.63202  0.025372552  0.025839151            3 
  545000    1.0279839   -7.6442942    166.23855  0.025418738  0.025820703            1 
  546000    1.0509301   -7.6078311    166.20511  0.025367081  0.025802699            3 
  547000    1.0522692   -7.6138608    166.28847  0.025333405  0.025784254            1 
  548000    1.0403969   -7.6408014    166.97733  0.025391929  0.025765778            2 
  549000     1.059825   -7.6185623    166.85977  0.025327834  0.025747456            1 
  550000    1.0460801   -7.5791621    167.22352  0.025336897   0.02572937            2 
  551000    1.0414524   -7.6028075     167.9365  0.025398745  0.025711605            3 
  552000    1.0426677   -7.6076077    167.95968  0.025356231  0.025694041            3 
  553000    1.0208374   -7.6164685    168.21221  0.025348435  0.025676721            2 
  554000     1.028613   -7.6096353    168.44368  0.025337497  0.025659565            1 
  555000    1.0189181   -7.6010561    168.61914  0.025318189  0.025642182            2 
  556000    1.0412999    -7.588988    168.61434  0.025271934  0.025624509            4 
  557000    1.0153371   -7.6039331    169.22393  0.025317763   0.02560709            1 
  558000    1.0241797    -7.633502    169.29106  0.025282416  0.025589851            1 
  559000    1.0321506   -7.6154836    169.49523  0.025267626  0.025572356            1 
  560000     1.034294   -7.5925847    169.27113  0.025189156  0.025555016            1 
  561000    1.0564233   -7.6268836    169.87025  0.025233252  0.025537948            3 
  562000     1.060325   -7.5960327    169.78721   0.02517604  0.025520735            1 
  563000    1.0085693    -7.593869    170.12684  0.025181593  0.025503136            1 
  564000    1.0107572   -7.6762617    169.88921  0.025101834  0.025485704            4 
  565000    1.0469872   -7.6299219    170.27913  0.025114916  0.025467891            3 
  566000    1.0241227   -7.6203283    170.57471  0.025114063  0.025450872            2 
  567000    1.0401401   -7.6488655    170.38211  0.025041462  0.025433837            1 
  568000    1.0386216   -7.6143036    171.64889  0.025183229   0.02541709            3 
  569000     1.010469   -7.6290925    171.40829  0.025103733  0.025400327            4 
  570000    1.0417424   -7.6324179    171.77831  0.025113788  0.025383317            2 
  571000    1.0395841   -7.6724373     172.1927  0.025130282  0.025366371            2 
  572000    1.0397703    -7.659029    171.79636  0.025028607  0.025349952            1 
  573000    1.0212587    -7.628845    172.40419  0.025073326  0.025333333            3 
  574000    1.0231954   -7.6316022    172.42914  0.025033267   0.02531696            4 
  575000    1.0107174   -7.6365145    172.64341  0.025020785  0.025300393            2 
  576000    1.0331165   -7.6544659    173.08032  0.025040555  0.025283907            2 
  577000    1.0344857   -7.6755331    173.04557   0.02499214  0.025267365            2 
  578000    1.0224467   -7.6381032    172.90782  0.024929039  0.025250519            2 
  579000    1.0360008    -7.667057    173.18771  0.024926269  0.025233763            2 
  580000    1.0250791   -7.6721868     173.2775  0.024896193  0.025216499            2 
  581000    1.0112765   -7.6452265    174.27727   0.02499674  0.025199357            3 
  582000    1.0216389   -7.6671455    174.09313  0.024927425  0.025182293            1 
  583000    1.0311812   -7.6698291    174.15756  0.024893876  0.025165405            2 
  584000   0.99887995   -7.6489079    174.59291  0.024913372  0.025148794            1 
  585000     1.030728   -7.6497624    174.89286  0.024913513  0.025131969            3 
  586000    1.0255536   -7.6244663    174.73261   0.02484821  0.025115037            3 
  587000    1.0069439   -7.6511128    175.15675  0.024866091  0.025098338            3 
  588000    1.0019341   -7.5934856    175.99999   0.02494331  0.025081929            1 
  589000    1.0237232   -7.6551046    175.19234  0.024786692  0.025065575            2 
  590000    1.0055084   -7.6240602    175.95507  0.024852411  0.025048877            1 
  591000    1.0243236   -7.6423686    175.81523  0.024790642  0.025032032            3 
  592000     1.034181   -7.6083971    175.85103  0.024753805  0.025015055            4 
  593000     1.008754   -7.6932423    175.51788  0.024665244  0.024997695            1 
  594000    1.0038579   -7.6912884    175.92063  0.024680223  0.024980137            2 
  595000     1.020796   -7.6558966    176.19054  0.024676546  0.024962838            3 
  596000   0.99372289   -7.6481097    176.21717  0.024638866  0.024945215            4 
  597000    1.0156348   -7.6837133    176.15885  0.024589455  0.024927833            1 
  598000    1.0356074   -7.6829627     175.7943  0.024497533  0.024910427            2 
  599000    1.0041527   -7.6764908    176.61374  0.024570637  0.024892784            2 
  600000    1.0233112   -7.7232228     176.2394  0.024477695  0.024875034            2 
  601000    1.0220124   -7.6962477    176.99375  0.024541563  0.024857298            1 
  602000    1.0139798   -7.6883186    177.12606  0.024519111  0.024839797            4 
  603000    1.0365401   -7.6889272    177.51109   0.02453166  0.024821873            1 
  604000    1.0047186   -7.6713621    177.42654  0.024479379  0.024804002            2 
  605000    1.0026172   -7.6552021    177.17736  0.024404595  0.024786213            2 
  606000    1.0410227   -7.6842174    177.08997  0.024352307  0.024768117            3 
  607000    1.0121697   -7.6402226    177.65422  0.024389651  0.024750092            2 
  608000    1.0165929   -7.6727143    177.79659  0.024369051   0.02473193            3 
  609000   0.99724402   -7.6466137    178.49979  0.024425259  0.024714236            3 
  610000    1.0234415   -7.6966956    177.92955  0.024307315  0.024696144            2 
  611000    1.0174142   -7.6608657    178.50923  0.024346595  0.024678298            2 
  612000    1.0113756   -7.6705881    178.59638  0.024318679  0.024660819            3 
  613000    1.0172001   -7.7081713    178.98832  0.024332289  0.024643218            3 
  614000   0.98088471   -7.6809475    178.89685  0.024280246   0.02462531            1 
  615000    1.0207224   -7.6905837     178.7532  0.024221301  0.024607383            2 
  616000    1.0189749   -7.6652859    179.34876  0.024262549  0.024589481            2 
  617000    1.0145627   -7.7007395    178.86909   0.02415844  0.024571781       -1e+20 
  618000    1.0118861   -7.6709325    180.20302  0.024299221  0.024554403            1 
  619000    1.0163733   -7.6539618    180.61185  0.024315004  0.024537137            1 
  620000   0.99783279   -7.7021091    180.26853  0.024229642  0.024519892            3 
  621000    0.9991662   -7.6580873     180.8589  0.024269847  0.024502865            2 
  622000    1.0131122   -7.6844708    180.86161  0.024231191  0.024485969            1 
  623000    1.0000268   -7.7072867    181.16455  0.024232819  0.024468925            1 
  624000    1.0081818   -7.7113092    181.20549  0.024199451  0.024451783            2 
  625000   0.99226771   -7.6540385    181.49111  0.024198814   0.02443448            2 
  626000    1.0169685   -7.6801347    181.93041  0.024218638  0.024417218            4 
  627000   0.97402138   -7.7313747    181.93594  0.024180747  0.024400014            2 
  628000   0.99028923   -7.6890803    181.84989  0.024130824  0.024382818            6 
  629000    1.0140116   -7.7014632    181.86846  0.024094921  0.024365098            5 
  630000    1.0063644   -7.6842543    182.04017  0.024079388  0.024347617            2 
  631000    0.9903095   -7.6999468    181.93752   0.02402767  0.024330166            3 
  632000    0.9984609   -7.7018044    181.94548  0.023990701  0.024312315            5 
  633000    1.0041121   -7.7218882      182.294  0.023998683  0.024294589            2 
  634000    1.0340527   -7.6733071    182.80694  0.024028251  0.024277156            1 
  635000    1.0123571   -7.6820434     182.9554  0.024009895  0.024259817            1 
  636000   0.96436675   -7.7013872    182.86196    0.0239599  0.024242174            2 
  637000   0.98599628   -7.6982171    182.78087  0.023911679  0.024224688            1 
  638000   0.99231539   -7.6838219    183.81479  0.024009246  0.024207386            6 
  639000    1.0232153    -7.704304    183.63752  0.023948555  0.024190452            2 
  640000   0.99969206   -7.6871467    183.78243  0.023930004  0.024173543            2 
  641000   0.99825646   -7.7068132    183.91518   0.02390993  0.024156763            4 
  642000   0.98089349   -7.7240761    184.08813  0.023895137  0.024139756            3 
  643000   0.98942513   -7.6899131    184.45063  0.023904954    0.0241231            3 
  644000   0.98654879   -7.6430703    185.46205  0.023998713  0.024106542            4 
  645000   0.99897378   -7.7087123    184.58884  0.023848687  0.024089999            1 
  646000    1.0006396   -7.7137862    184.82299  0.023841974  0.024073093            2 
  647000    1.0060597   -7.6793349    185.26714  0.023862331  0.024055998            3 
  648000   0.99981203   -7.7164805    185.22623  0.023820246  0.024039131            3 
  649000   0.98258187   -7.7042356    185.31671   0.02379516  0.024021999            2 
  650000    1.0052417   -7.6977123    185.71674  0.023809838  0.024004929            1 
  651000   0.98833178   -7.7357854    185.74476   0.02377685  0.023987875            4 
  652000    1.0005013   -7.6953233    185.31196  0.023685066   0.02397097            1 
  653000    1.0004945   -7.7278856    186.35104  0.023781399  0.023954033            1 
  654000   0.99705788   -7.7294663    186.25373  0.023732637  0.023936953            4 
  655000     1.007796   -7.7340175    186.16507  0.023685124    0.0239198            2 
  656000   0.98798928    -7.692272    186.21833  0.023655784  0.023902537            1 
  657000   0.97677232   -7.7120213    186.64937   0.02367445  0.023885415            6 
  658000     0.985766     -7.70508    186.74449  0.023650518  0.023868372            1 
  659000   0.99274065   -7.7063715     186.8324  0.023625746   0.02385135            2 
  660000   0.98669082   -7.7287942    186.91213  0.023600016  0.023834441            1 
  661000   0.98193174   -7.7216606    187.21622   0.02360265  0.023817302            2 
  662000   0.97470704   -7.6797765    188.09091  0.023677104  0.023800293            3 
  663000   0.99718702   -7.7019755    188.00464  0.023630548  0.023783069            1 
  664000   0.96612383   -7.7453279    187.73843   0.02356155  0.023765956            2 
  665000    0.9938353    -7.735969    187.85002  0.023540103  0.023748771            6 
  666000   0.99710315   -7.7535324    187.17095  0.023419788  0.023731406            3 
  667000   0.99072984   -7.6780167    187.77281  0.023459872  0.023713955            3 
  668000   0.97599261   -7.7225029    188.21971  0.023480503  0.023696698            1 
  669000   0.98857316   -7.7221467    188.50537  0.023480988  0.023679748            1 
  670000   0.99114351   -7.7423417     188.6859  0.023468395  0.023662713            3 
  671000   0.98709132   -7.7180213    188.70105  0.023435302  0.023645725            4 
  672000   0.97756472    -7.752228    188.74422  0.023405782  0.023628844            2 
  673000   0.97562411    -7.741954    189.34175  0.023444992  0.023612111            2 
  674000   0.98555086   -7.7468508    189.53347  0.023433911   0.02359499            1 
  675000   0.98245365   -7.7304933     188.8298  0.023312321  0.023577965            1 
  676000   0.99325251   -7.7112277    189.72529  0.023388226  0.023560947            1 
  677000    0.9881582   -7.7241168    189.25844  0.023296214  0.023543602            2 
  678000   0.99210671   -7.7219152    189.76521   0.02332414  0.023526222            7 
  679000   0.98965269   -7.7453638    190.03044  0.023322342  0.023509034            1 
  680000   0.97427327   -7.7115097    190.09677  0.023296172  0.023491775            5 
  681000   0.98168009   -7.7479399    189.29593  0.023163966  0.023474494            2 
  682000   0.99514666   -7.7491731    189.82054  0.023194103   0.02345708            3 
  683000   0.98728495   -7.7606584    190.53378  0.023247166  0.023440033            2 
  684000   0.98776904   -7.7776811    189.80446  0.023124326  0.023422797            2 
  685000   0.98935663   -7.7510692    190.67391  0.023196339  0.023405436            1 
  686000   0.95973317   -7.7491473    190.56651  0.023149479  0.023388245            1 
  687000   0.98837409   -7.7431894    190.85687  0.023151003  0.023371193            2 
  688000   0.97900559   -7.7604046     191.2097   0.02316009  0.023354132            2 
  689000   0.98840065   -7.7207791    192.09431  0.023233468  0.023337478            2 
  690000   0.96645063   -7.7938118    191.55717  0.023134924  0.023320689            1 
  691000    1.0034506    -7.760366    192.16977  0.023175322  0.023303903            2 
  692000   0.99494773   -7.7671356    191.96402  0.023117054  0.023287083            2 
  693000   0.97043431   -7.7775985    191.93873  0.023080656  0.023270137            3 
  694000   0.97193247   -7.7648948    191.77102  0.023027259  0.023253154            1 
  695000   0.97650538   -7.7583964    192.08936  0.023032298    0.0232361            2 
  696000   0.98120732   -7.7798323    192.40057  0.023036466  0.023218976            2 
  697000   0.98568094   -7.7344674    192.18082  0.022977142  0.023202043            4 
  698000   0.96656582   -7.7528227    192.26292  0.022954025  0.023185045            3 
  699000   0.99588725      -7.7806    192.74238  0.022978347  0.023168121            1 
  700000   0.97507607   -7.7520307    192.28504  0.022891076  0.023150969            4 
  701000   0.98427396   -7.7722732     192.7397   0.02291247  0.023133473            2 
  702000   0.97814418   -7.7807398    192.54658  0.022856907  0.023116073            5 
  703000   0.95662742   -7.8001088    193.29307  0.022912881  0.023098643            4 
  704000   0.96706948   -7.7679816    192.99367  0.022844894  0.023081131            1 
  705000   0.98083897   -7.7741452    192.86912  0.022797769  0.023063546            1 
  706000   0.98306924   -7.7616241    193.85751  0.022882142  0.023046082            4 
  707000   0.98607312   -7.7716259    193.19393  0.022771562  0.023028635            1 
  708000   0.98611294   -7.7763331    193.24835  0.022745803  0.023011183            3 
  709000   0.96777454   -7.7700979    193.95064  0.022796267   0.02299382            2 
  710000   0.95002072   -7.7731848    193.43657  0.022703823  0.022976504            3 
  711000   0.97762175   -7.7755539    194.40686  0.022785614  0.022959301            2 
  712000   0.95899139   -7.7690236    194.19279  0.022728557  0.022941951            2 
  713000   0.95931105   -7.7903966    194.30366  0.022709638  0.022924502            3 
  714000   0.95855521   -7.7599325    194.99622  0.022758663   0.02290713            1 
  715000   0.97106321    -7.742752    195.31506  0.022763993  0.022889804            2 
  716000   0.96098338   -7.7897389    194.75832  0.022667402  0.022872573            2 
  717000   0.96713821   -7.8046805    194.19876  0.022570754  0.022854973            2 
  718000    0.9489993   -7.7618011    194.71538  0.022599279  0.022837423            4 
  719000   0.95729927   -7.7962814    194.57446  0.022551514  0.022819968            1 
  720000   0.94933786    -7.794374    194.48366  0.022509683  0.022802546            1 
  721000   0.95814176   -7.8032489    194.95072  0.022532445   0.02278492            1 
  722000   0.98314744    -7.842471    194.92998  0.022498844  0.022767275            2 
  723000   0.96958551   -7.8117099    195.66759  0.022552742   0.02274981            2 
  724000   0.93726894   -7.7456367    195.52498  0.022505177  0.022732567            5 
  725000    0.9572789   -7.7892491    195.78626  0.022504168  0.022715184            2 
  726000   0.97931483   -7.7758256    195.70696  0.022464068  0.022697715            2 
  727000   0.98550088   -7.8172886    195.74326  0.022437329  0.022680182            2 
  728000   0.95924911   -7.7858053    196.20226   0.02245905   0.02266279            2 
  729000   0.98921079   -7.7794698    196.42913  0.022454176  0.022645518            3 
  730000   0.96001794   -7.8078861    196.24426  0.022402313  0.022628423            1 
  731000    0.9463068   -7.7578917    196.89265  0.022445582  0.022611441            7 
  732000   0.95158714   -7.7722995    197.33342  0.022465098  0.022594673            7 
  733000   0.96834942   -7.7878407    197.15448  0.022414106  0.022577713            3 
  734000   0.94555421   -7.8135348    196.70874  0.022332963  0.022560971            3 
  735000   0.97311066   -7.8044391    197.78278  0.022424351  0.022544042            3 
  736000   0.94213121    -7.811478     197.6217  0.022375645  0.022527178            3 
  737000   0.96052257   -7.7961611    197.84957   0.02237105  0.022510329            2 
  738000   0.98051175   -7.7752436    198.07012  0.022365641  0.022493634            1 
  739000   0.95044628   -7.7922276    198.42746  0.022375672  0.022477084            1 
  740000   0.95067077   -7.8451517    197.62185  0.022254713  0.022460315            3 
  741000   0.97233547   -7.8373041    198.65721  0.022341117  0.022443532            2 
  742000   0.95261331   -7.8185149    198.49419  0.022292699  0.022426852            2 
  743000   0.93001325   -7.7984758    199.20145   0.02234202  0.022410402            2 
  744000   0.94395684   -7.8214999    198.30686   0.02221179  0.022393723            1 
  745000   0.96115472   -7.8024757    198.62721  0.022217809  0.022376899            2 
  746000   0.95902708   -7.7822718    199.19521  0.022251475  0.022360059            2 
  747000   0.94994054   -7.8142007    199.07814  0.022208627  0.022343417            3 
  748000    0.9338227   -7.8030284    199.21158  0.022193804  0.022326507            1 
  749000   0.94910376   -7.8482625    198.73626  0.022111289  0.022309392            3 
  750000   0.95366145   -7.8435161    199.06017  0.022117797  0.022292164            6 
  751000   0.92998195    -7.821807    199.08391  0.022090979  0.022275079            2 
  752000   0.96718403   -7.8065134      199.661  0.022125554  0.022257983            2 
  753000   0.95036057   -7.8623836    199.50373  0.022078767  0.022240921            3 
  754000    0.9477837   -7.8178261      199.684  0.022069408  0.022223849            2 
  755000   0.96638623   -7.8018001    200.33168  0.022111664  0.022206757            2 
  756000   0.91626735   -7.7979199    200.43963  0.022094315  0.022190115            1 
  757000   0.96649025   -7.8326158    200.10672  0.022028481  0.022173381            3 
  758000   0.93663754   -7.8350688    200.29395  0.022020003  0.022156514            2 
  759000    0.9426744   -7.8655617    199.94807  0.021953017  0.022139618            1 
  760000   0.93521403   -7.8564704    200.10512  0.021941351  0.022122615            4 
  761000   0.95048816    -7.821517    200.26925  0.021930491  0.022105562            2 
  762000   0.92448183    -7.847795    200.31669    0.0219069  0.022088654            1 
  763000    0.9396273    -7.865807    200.62751  0.021912135  0.022071644            2 
  764000   0.93977849   -7.8400453     201.0858  0.021933442  0.022054827            2 
  765000   0.95645161   -7.8246926    200.78869  0.021872406  0.022037909            2 
  766000   0.95264425   -7.8726165    200.49932  0.021812371  0.022020781            3 
  767000   0.95912863   -7.8548592     201.2342  0.021863776  0.022003634            5 
  768000   0.94747252    -7.819364    201.28919  0.021841275  0.021986573            4 
  769000   0.95225525    -7.815964    201.54297  0.021840373  0.021969483            1 
  770000   0.94865178   -7.8212533    201.74452  0.021833823  0.021952423            2 
  771000   0.93907022   -7.8404072    201.70781  0.021801536  0.021935532            3 
  772000   0.95372885   -7.8620751    201.07638  0.021705136  0.021918519            2 
  773000    0.9443743   -7.8426722    201.77462   0.02175233  0.021901568            2 
  774000   0.95251277   -7.8326526    201.82598  0.021729757  0.021884449            3 
  775000   0.93691187   -7.8392852    201.71897  0.021690212  0.021867337            2 
  776000   0.95003732   -7.8275672    201.66625  0.021656598  0.021850015            1 
  777000   0.93397638   -7.8360196    202.59729  0.021728581  0.021832835            2 
  778000    0.9287479   -7.8362231    202.03526  0.021640452  0.021815808            4 
  779000   0.91153969   -7.8757865    201.80453   0.02158799  0.021798598            2 
  780000   0.95053865   -7.8691528    202.36886  0.021620605  0.021781477            1 
  781000   0.92948907   -7.8438175    202.58392  0.021615869   0.02176442            4 
  782000   0.94132204   -7.8475097     202.9198   0.02162402  0.021747421            4 
  783000   0.93592241   -7.8752746    202.43314  0.021544608  0.021730365            2 
  784000   0.94005633   -7.9051651     202.5295  0.021527371  0.021713223            2 
  785000   0.92398626   -7.8673013    202.75615  0.021524008  0.021696124            1 
  786000    0.9388618   -7.8580362    202.32183  0.021450576  0.021678871            2 
  787000   0.97177029   -7.8992219    202.78563   0.02147243  0.021661569            2 
  788000   0.92948666   -7.8865916    202.70259  0.021436399  0.021644104            4 
  789000   0.93812131   -7.8651828    202.80733  0.021420293    0.0216267            2 
  790000   0.91643913   -7.8732734    203.38917  0.021454554  0.021609491            3 
  791000   0.94980311   -7.8174861    204.27302  0.021520545  0.021592315            2 
  792000   0.92647196   -7.8252831    203.48252  0.021410198  0.021575024            5 
  793000   0.92259048   -7.8404723    203.39319  0.021373812  0.021557828            3 
  794000   0.94826215   -7.8630282    203.72072  0.021381268  0.021540578            3 
  795000   0.93301714   -7.8570739    204.35284  0.021420633  0.021523462            2 
  796000   0.94193141   -7.8447296    203.67549  0.021322811  0.021506163            1 
  797000   0.94776005   -7.8256743    204.66609  0.021399633  0.021488972            1 
  798000   0.94681616   -7.8551099      203.763  0.021278508  0.021471913            4 
  799000   0.91771477   -7.8613655    203.58604  0.021233421  0.021454601            6 
  800000   0.92623261    -7.913276    204.03942  0.021254106  0.021437332            3 
  801000   0.94668195   -7.8697942    204.17768  0.021241956  0.021420093            4 
  802000   0.92959292   -7.8977949    203.74616  0.021170632  0.021402605            4 
  803000   0.93052111   -7.8717386    204.90918  0.021264963  0.021385209            3 
  804000   0.93447375   -7.8626179    204.84839  0.021232213  0.021368039            2 
  805000   0.91763956   -7.8921358    204.64658  0.021184946  0.021350869            2 
  806000   0.93498666   -7.8450778    205.20781  0.021216688  0.021333616            1 
  807000     0.906657   -7.9038754    204.24738  0.021091221  0.021316174            2 
  808000   0.93604204   -7.8844584    204.38652  0.021079467   0.02129873            2 
  809000   0.95529202    -7.868059     204.8386  0.021099979  0.021281238            2 
  810000   0.92604743   -7.8537931    205.31249  0.021122684  0.021263936            3 
  811000   0.91942837   -7.8923716    204.97653  0.021062118  0.021246536            1 
  812000   0.95450239   -7.8481037    205.15201  0.021054188  0.021229177            6 
  813000    0.9369515   -7.9033313    205.13064  0.021026101  0.021211761            3 
  814000   0.93751804   -7.9012893    205.84396  0.021073297  0.021194266            2 
  815000   0.92223538   -7.8847126    205.64497  0.021027093  0.021176944            2 
  816000   0.93947247    -7.930794    205.26077  0.020962088  0.021159515            2 
  817000   0.94695068   -7.8997554    206.47884  0.021060673  0.021142378            2 
  818000   0.93062193   -7.9269042     205.9234  0.020978341   0.02112532            3 
  819000   0.93015876    -7.917758    206.28757  0.020989781  0.021108135            4 
  820000    0.9271396   -7.9340187     206.1466  0.020949858  0.021091046            2 
  821000   0.92397157   -7.9240739    205.66521  0.020875478  0.021073888            2 
  822000   0.91822349   -7.8870535    206.26358  0.020910745  0.021056743            2 
  823000   0.93665392   -7.9126563    205.86469  0.020844946  0.021039477            4 
  824000   0.94043768   -7.9293162    206.18576   0.02085212  0.021022328            1 
  825000   0.93580491   -7.8992267    206.63429   0.02087215  0.021005082            5 
  826000   0.91260884   -7.8943985    206.19466  0.020802529  0.020987853            1 
  827000   0.91481375   -7.8852387    206.56052  0.020814241  0.020970767            2 
  828000   0.92512417   -7.9015093    207.13119  0.020846537  0.020953725            2 
  829000   0.91656748   -7.8647072    207.02535  0.020810751  0.020936757            3 
  830000   0.92230209   -7.9035731    207.02679  0.020785822   0.02091967            2 
  831000   0.92989878   -7.8881241    206.90237  0.020748332  0.020902468            3 
  832000   0.91671713   -7.8706313    207.09075  0.020742263  0.020885356           13 
  833000   0.92784685   -7.9094321    207.27521  0.020735815  0.020868316            3 
  834000    0.9264641   -7.9018643    207.48193  0.020731608  0.020851327            2 
  835000   0.91839005   -7.8745775    208.08352  0.020766819  0.020834362            2 
  836000   0.91726265   -7.8817541    207.78462  0.020712183   0.02081737            7 
  837000   0.92243336   -7.8858786    208.49847   0.02075851  0.020800565            2 
  838000   0.91120186   -7.8912368    207.91797  0.020676011  0.020783768            2 
  839000   0.93249087   -7.9033096    207.95693  0.020655238  0.020766924            1 
  840000   0.90530083   -7.9325902    208.22945  0.020657684  0.020750161            4 
  841000   0.92017405   -7.9323656    208.05028  0.020615367  0.020733362            4 
  842000   0.91213217   -7.8991456    208.22893  0.020608564  0.020716669            2 
  843000    0.9291214   -7.9040903    208.50873  0.020611777  0.020699805            3 
  844000   0.91842361   -7.9365805    209.38442  0.020673818   0.02068309            2 
  845000   0.90474211   -7.9124299    208.90202  0.020601777  0.020666507            6 
  846000   0.91132215    -7.921655    209.21686  0.020608437  0.020649832            3 
  847000   0.91234315   -7.9399591    208.57017  0.020520481  0.020632985            1 
  848000   0.92227526   -7.9373826    208.51226  0.020490592  0.020616217            2 
  849000    0.9232169   -7.9085492    209.40836  0.020554413  0.020599452            2 
  850000    0.9207391    -7.923475    209.74986  0.020563712  0.020582842            2 
  851000   0.91288671   -7.9053778    210.16459   0.02058016  0.020566325            1 
  852000   0.92873383   -7.9548043    209.72034  0.020512553  0.020550088            1 
  853000   0.93374972   -7.9474522     209.5902  0.020475791  0.020533531            1 
  854000   0.90838588   -7.9698497    208.93658  0.020388035  0.020516943            3 
  855000    0.9139926   -7.9140415    209.99126  0.020466984  0.020500452            3 
  856000   0.89575361   -7.9011638    209.98561  0.020442524  0.020483667            2 
  857000   0.91376136   -7.9441058    209.80362  0.020400974  0.020467005            2 
  858000   0.89544264   -7.9401265    209.72788   0.02036984  0.020450384            1 
  859000   0.93915209   -7.9455501    209.85102  0.020358073  0.020433733            1 
  860000   0.91214955   -7.8969475     210.6862  0.020415329  0.020417277            3 
  861000   0.91323482   -7.9220653    210.34032  0.020358142  0.020400853            2 
  862000   0.91055426   -7.9294259    210.59332  0.020358983    0.0203844            4 
  863000   0.90966623   -7.9227525    211.25519  0.020399304   0.02036815            5 
  864000   0.91746678   -7.9515021    210.74344  0.020326334  0.020351961            4 
  865000   0.90383723   -7.9290951    210.91966  0.020319814  0.020335572            1 
  866000   0.89333502   -7.9375471    210.88145  0.020292672  0.020319326            3 
  867000   0.89861013   -7.9647232    210.96416  0.020277216  0.020302991            1 
  868000   0.91318727   -7.9502854    211.63307  0.020318075  0.020286926            2 
  869000   0.90480426   -7.9318848    212.29638  0.020358303  0.020270937            3 
  870000   0.88851183   -7.9393768     211.8832  0.020295326   0.02025498            3 
  871000   0.91794904   -7.9835619    211.64931  0.020249647  0.020239154            3 
  872000   0.90723243   -7.9556504    212.11522   0.02027095  0.020223164            3 
  873000   0.91036109   -7.9342469    212.38861  0.020273827  0.020207275            1 
  874000   0.92124353   -7.9613946    211.89058  0.020203144  0.020191432            2 
  875000   0.90912826   -7.9297515    212.76606  0.020263434  0.020175599            2 
  876000   0.88534449   -7.9476786    212.69187  0.020233244  0.020159729            1 
  877000   0.90662395   -7.9602703    212.07266  0.020151336  0.020143928            3 
  878000   0.91090046    -7.948216     212.6999  0.020187917  0.020128068            3 
  879000   0.91935808   -7.9548853    212.77655  0.020172217  0.020112246            3 
  880000   0.90919151   -7.9534399    212.53888  0.020126788  0.020096347            3 
  881000   0.90458807   -7.9660793    212.09914  0.020062348  0.020080318            1 
  882000   0.89829216   -7.9759566    212.79399  0.020105253  0.020064217            3 
  883000   0.90935678   -7.9787981    212.33048  0.020038739  0.020048036            3 
  884000   0.89916776   -7.9710444    212.16137  0.020000129  0.020031657            3 
  885000   0.89614271   -7.9913601    212.68346  0.020026691  0.020015321            5 
  886000   0.91210186   -7.9608224     212.4174  0.019979063  0.019999188            2 
  887000   0.90809618   -7.9546694    212.89172  0.020001101  0.019983227            5 
  888000   0.89273512   -7.9294374    213.08156  0.019996392  0.019967257            2 
  889000    0.9129816   -7.9860479      212.988   0.01996513  0.019951346            2 
  890000   0.89476484   -7.9611095    214.00005  0.020037458  0.019935353            3 
  891000   0.89742317   -8.0051789    213.19971  0.019940115  0.019919255            3 
  892000   0.88950258    -8.025029    213.42315  0.019938635  0.019903239            2 
  893000   0.89238291   -8.0167854    212.71481  0.019850206  0.019887101            1 
  894000   0.89193543    -7.988737     213.3311  0.019885449  0.019870924            1 
  895000   0.87558429    -7.981956    213.69245  0.019896876  0.019854938            2 
  896000   0.92036196   -7.9942599     213.8496  0.019889286  0.019838853            2 
  897000   0.88402773   -7.9674369    214.03911  0.019884718  0.019823043            2 
  898000   0.88924467   -7.9800335    213.55661    0.0198178  0.019807134            3 
  899000   0.88737935   -7.9644057    214.20022  0.019855415  0.019791216            5 
  900000   0.89333776   -7.9556052    213.64595  0.019782032  0.019775318            1 
  901000   0.88803509   -7.9814646    214.21964  0.019813137  0.019759496            2 
  902000   0.88056437   -7.9795449    214.77082  0.019842094  0.019743628            1 
  903000   0.90510522   -7.9800317    214.13184  0.019761152  0.019727671            2 
  904000   0.92484368   -7.9489761    214.31371  0.019756058  0.019711652            2 
  905000   0.90308315   -7.9936108    214.25192  0.019728538   0.01969565            4 
  906000   0.89242876    -7.998687    213.88427  0.019672946  0.019679542            3 
  907000   0.90833981   -7.9889532     214.1497  0.019675643  0.019663284            2 
  908000   0.88606707   -7.9620114    213.79709  0.019621613  0.019647103            1 
  909000   0.89509683   -7.9882207    215.11004  0.019720392  0.019630991            3 
  910000   0.89588685   -8.0043066    214.01066  0.019598046  0.019614749            3 
  911000   0.90215002    -7.963176    214.58312  0.019628899  0.019598459            1 
  912000   0.88870412   -8.0207692    214.22202  0.019574381  0.019582071            4 
  913000   0.88877367   -8.0062661    214.43242  0.019572145  0.019565915            2 
  914000   0.89760408    -7.984977    214.32305   0.01954076  0.019549724            2 
  915000    0.8815185   -7.9894781    214.34959   0.01952182  0.019533574            3 
  916000   0.86922222    -7.998916     214.8292  0.019544141  0.019517429            2 
  917000   0.88248792   -7.9962434    215.21448  0.019557841  0.019501283            3 
  918000   0.88501072   -7.9838413     215.1981  0.019535049  0.019485224            6 
  919000   0.87704496   -7.9898968    215.11983  0.019506694  0.019469063            3 
  920000    0.9012319   -8.0004302    215.00682  0.019475256   0.01945285            4 
  921000   0.89720247   -8.0308632    214.95147  0.019449101   0.01943671            3 
  922000   0.91459962   -8.0027194    215.33357  0.019462542  0.019420698            2 
  923000   0.88101578   -8.0130985    215.42977  0.019450141  0.019404582            2 
  924000   0.88414973   -7.9883889    215.48657  0.019434215  0.019388397            1 
  925000   0.89250256   -8.0277526    214.86324  0.019357049  0.019372268            2 
  926000     0.887412   -8.0027675    215.82711  0.019422886  0.019356239            2 
  927000   0.89233317   -8.0418178    215.38392  0.019362092  0.019340175            1 
  928000   0.88701578   -8.0200209    216.25417  0.019419376  0.019324298            1 
  929000   0.89117818   -7.9899164     215.9394  0.019370237  0.019308572            1 
  930000   0.85528459   -8.0029229    215.81673  0.019338417  0.019292775            4 
  931000   0.88863016   -8.0374463    215.73993   0.01931077  0.019276956            2 
  932000   0.89373848   -7.9938524    216.60378  0.019367291  0.019260999            3 
  933000   0.90275455   -8.0021391    216.08176  0.019299907  0.019245161            2 
  934000   0.87295492    -8.007777    216.95328  0.019357003  0.019229398            2 
  935000    0.8793682   -7.9967831    216.69442  0.019313228  0.019213858            3 
  936000   0.87315592    -8.014594    216.77634  0.019299888   0.01919839            1 
  937000   0.88779862   -8.0218624    216.58555  0.019262323   0.01918284            3 
  938000   0.87107492   -8.0312824    217.14332   0.01929134  0.019167233            1 
  939000   0.86691918     -8.04913     216.3584  0.019201136  0.019151561            1 
  940000   0.87005828   -8.0123613    216.79869  0.019219742  0.019135926            3 
  941000   0.88452995   -8.0033365    217.16952  0.019232158  0.019120297            4 
  942000   0.89003052    -8.015774    216.46399  0.019149327   0.01910456            3 
  943000   0.87979434   -8.0227802    216.90389  0.019167894  0.019088901            2 
  944000   0.89998947   -8.0256418    217.56866  0.019206273  0.019073324            2 
  945000   0.87505016   -8.0455267    216.44907  0.019087219  0.019057641            2 
  946000   0.86686214   -8.0289524    217.32694  0.019144375  0.019041957            5 
  947000   0.89093441   -8.0262364    217.59843  0.019148049  0.019026275            1 
  948000   0.88125572   -8.0239713    217.75345  0.019141478  0.019010631            1 
  949000   0.85895517   -8.0469924    217.53018  0.019101701  0.018994988            2 
  950000   0.85801938   -8.0520577    217.42629  0.019072482  0.018979227            2 
  951000   0.87277442   -8.0043214    217.42475  0.019052291  0.018963494            3 
  952000    0.8638342   -8.0586352    216.88296  0.018984853  0.018947623            2 
  953000   0.88714218   -8.0342262    217.61509  0.019028952  0.018931892            3 
  954000   0.87844918   -8.0496054      217.587  0.019006551  0.018916118            2 
  955000   0.87922066   -8.0617356    217.34383  0.018965431  0.018900406            3 
  956000   0.86422607   -8.0314467    216.96695   0.01891274  0.018884637            1 
  957000   0.86964878   -8.0244788    217.95111  0.018978676  0.018868821            2 
  958000   0.85306644   -8.0739834    217.53518  0.018922685  0.018853063            2 
  959000    0.8820469    -8.045243    218.25129   0.01896518  0.018837291            3 
  960000   0.85390636   -8.0640491    217.65721  0.018893855  0.018821587            1 
  961000   0.86252039   -8.0574532    218.24979   0.01892558  0.018805943            4 
  962000   0.84670248   -8.0665395    218.11304  0.018894061  0.018790283            2 
  963000   0.86572681   -8.0723775    217.99414  0.018864152  0.018774585            2 
  964000   0.87227779   -8.0512682    218.79605  0.018913905  0.018759005            1 
  965000   0.85930997   -8.0324078    218.87686  0.018901283  0.018743438            2 
  966000   0.88556468   -8.0606201    218.63444  0.018860804  0.018727855            2 
  967000   0.86466647    -8.065639    218.17316  0.018801548  0.018712298            2 
  968000   0.88174821   -8.0761665    218.45559  0.018806439   0.01869672            2 
  969000   0.86312086   -8.0727897     217.9449  0.018743112   0.01868112            1 
  970000   0.87618843   -8.0629547    218.47837   0.01876962  0.018665408            2 
  971000   0.85242113   -8.0489068    217.99854  0.018709109  0.018649726            4 
  972000   0.85591948   -8.0486666     218.6533  0.018745996  0.018634062            2 
  973000   0.87299644   -8.0532796    219.24922  0.018777768  0.018618573            2 
  974000   0.86248398   -8.0149071    219.63161  0.018791206  0.018603184            7 
  975000   0.87374494   -8.0410647    218.97613  0.018715908  0.018587872            2 
  976000   0.86932029   -8.0446597    219.11443  0.018708541  0.018572574            4 
  977000   0.86132109   -8.0448209    219.41955  0.018715417  0.018557192            2 
  978000   0.83716969   -8.0506496     219.3851  0.018693345  0.018541772            3 
  979000   0.85493988    -8.076343    218.64037  0.018610859  0.018526344            2 
  980000    0.8625107   -8.0543982    219.37167  0.018654053  0.018510889            2 
  981000   0.87123563   -8.0409171    219.90676  0.018680492  0.018495547            3 
  982000   0.86285885   -8.0763276    219.69375  0.018643393  0.018480297            2 
  983000   0.84887586   -8.0723061    219.39653  0.018599231  0.018465034            5 
  984000   0.85776973   -8.0724008    219.97054  0.018628941  0.018449833            5 
  985000   0.86417525   -8.0960758    219.20012   0.01854485  0.018434553            3 
  986000   0.86781994   -8.0578328    219.90885  0.018585941  0.018419293            2 
  987000   0.86571299   -8.0764042    219.49226  0.018531937  0.018404009            1 
  988000   0.86359829   -8.0686259    219.90106   0.01854766   0.01838876            4 
  989000   0.85932005   -8.0811206    220.67072  0.018593758  0.018373412            1 
  990000   0.86468683   -8.0866857    219.89353  0.018509556  0.018358135            2 
  991000   0.85759692   -8.0590467    219.95603  0.018496134  0.018342762            4 
  992000   0.86140348   -8.0473065    220.22291  0.018499908  0.018327457            2 
  993000   0.84883416   -8.0810366    221.01069  0.018547389  0.018312315            3 
  994000   0.85464524   -8.0861801    220.15375  0.018456888   0.01829711            3 
  995000   0.83790432   -8.0683976    220.53606  0.018470357  0.018281908            5 
  996000   0.84789664   -8.0426715    220.46413  0.018445794  0.018266887            1 
  997000   0.86909371   -8.0541389    220.76793  0.018452686  0.018251985            2 
  998000   0.87066334   -8.0509518    220.84668  0.018440772  0.018237085            2 
  999000   0.85236505   -8.0849321    220.88616  0.018425606  0.018222164            2 
 1000000   0.83935213    -8.060506    220.78322  0.018398602  0.018207139            1 
 1001000   0.84238891   -8.0862874    220.97728  0.018396377  0.018192088            2 
 1002000   0.86409135    -8.050941    221.34845  0.018408886  0.018177083            1 
 1003000   0.86334417   -8.0953902    221.14786  0.018373867  0.018162052            3 
 1004000   0.83651166   -8.1163466    220.63358   0.01831288  0.018146899            2 
 1005000    0.8708494   -8.1008347    221.10248  0.018333539  0.018131819            2 
 1006000   0.85744898   -8.0977385     221.1877  0.018322374  0.018116672            3 
 1007000   0.86120348   -8.0820765    221.40559   0.01832221  0.018101657            2 
 1008000   0.85320408   -8.0556681    221.19489  0.018286614  0.018086661            1 
 1009000    0.8547375   -8.1145676    221.40679  0.018285992  0.018071547            3 
 1010000   0.84937594   -8.0917314    221.16614  0.018248031  0.018056426            2 
 1011000   0.84801441   -8.0914671    221.06836  0.018221922   0.01804139            4 
 1012000   0.86205986    -8.055876     221.5063  0.018239978  0.018026316            2 
 1013000   0.84258795   -8.1316091    221.21919  0.018198354   0.01801135            2 
 1014000   0.84653737   -8.0817116    221.55315  0.018207853  0.017996276            4 
 1015000    0.8418841   -8.0674647    221.26883  0.018166571  0.017981244            5 
 1016000   0.85984831   -8.0743347    221.52638  0.018169815  0.017966222            2 
 1017000     0.853011   -8.0986338    221.55274  0.018154109  0.017951149            1 
 1018000   0.84898001   -8.0912679     221.6204  0.018141814  0.017936022            4 
 1019000   0.84827177   -8.0941241    221.58865  0.018121414   0.01792093            3 
 1020000   0.85602802    -8.107479    221.33306  0.018082766  0.017905791            2 
 1021000   0.85441507    -8.112767    221.27849  0.018060601  0.017890608            7 
 1022000   0.86542658   -8.0971696    221.64819  0.018073075  0.017875516            3 
 1023000   0.85651348   -8.0871733    221.58496  0.018050258  0.017860425            1 
 1024000    0.8419794   -8.0998298    221.31378  0.018010561  0.017845295            1 
 1025000   0.84244234   -8.1089634    221.58716  0.018015216  0.017830199            4 
 1026000   0.82975199    -8.078387    221.56013  0.017995462  0.017815267            2 
 1027000   0.84980188   -8.0943763    221.79927  0.017997344  0.017800255            2 
 1028000    0.8542959   -8.1410301    221.87863   0.01798627  0.017785207            1 
 1029000   0.84632342   -8.1272776    221.74248  0.017957765   0.01777018            1 
 1030000   0.84480541    -8.104769    222.40672  0.017994071  0.017755152            1 
 1031000   0.83864438   -8.1481516    221.95909  0.017940437  0.017740053            3 
 1032000   0.83983262   -8.1174736    222.23195  0.017945087  0.017724945            2 
 1033000   0.83701639   -8.1154824    222.29395  0.017932716  0.017709931            2 
 1034000   0.81769252   -8.1076263    222.07828  0.017897992  0.017695015            4 
 1035000   0.83856117   -8.1081492    222.22328  0.017892373  0.017680068            3 
 1036000   0.86945711   -8.1200046    222.30233  0.017881462  0.017665215            3 
 1037000   0.84424411   -8.1232811    221.95602  0.017836388  0.017650328            6 
 1038000   0.83757252   -8.1237826    222.65722    0.0178755  0.017635469            3 
 1039000    0.8372969   -8.1556654    222.34033  0.017832879  0.017620644            3 
 1040000   0.82963107   -8.1324334    221.83897  0.017775559  0.017605665            3 
 1041000   0.84519517   -8.1361867    222.41027  0.017804217  0.017590818            2 
 1042000   0.82078637   -8.1523007    222.55516  0.017798717  0.017575888            2 
 1043000   0.82257665   -8.1412248    222.59535  0.017784863  0.017560991            4 
 1044000    0.8460868    -8.115558    222.93378  0.017794842  0.017546151            3 
 1045000   0.83990056   -8.1240589    223.32268  0.017808826  0.017531371            2 
 1046000   0.85100023   -8.1535563     222.6821  0.017740766  0.017516583            1 
 1047000   0.85941331   -8.1291221    223.09926  0.017757025  0.017501818            2 
 1048000   0.82754351   -8.1342457     223.1367  0.017743058  0.017487159            2 
 1049000   0.82525053   -8.1524131     222.9189  0.017708842  0.017472428            6 
 1050000   0.85161399    -8.113709    223.37584  0.017728242  0.017457793            2 
 1051000   0.82803236   -8.1689544    223.04723  0.017685318  0.017443076            3 
 1052000   0.83641979   -8.1653952    223.16995  0.017678228  0.017428335            5 
 1053000   0.85667283   -8.1719672    223.20522   0.01766423  0.017413619            5 
 1054000    0.8500193    -8.171116    223.71784  0.017688002  0.017398962            2 
 1055000   0.84487179   -8.1653208    223.31827  0.017639673  0.017384272            2 
 1056000   0.82211324   -8.1555286     223.1535  0.017609967  0.017369602            4 
 1057000   0.85684292   -8.1385052    223.60016  0.017628521  0.017354897            1 
 1058000   0.84058089   -8.1444184    223.12351  0.017574316  0.017340241            4 
 1059000   0.85225337   -8.1517327    223.71917  0.017604593  0.017325547            2 
 1060000   0.83861773   -8.1516046    223.19495  0.017546772  0.017310918            3 
 1061000   0.84080843   -8.1678892    223.47644  0.017552344  0.017296277            2 
 1062000   0.82262834   -8.1680551    223.39407  0.017529352  0.017281596            2 
 1063000   0.82725523   -8.1756956    223.44467  0.017516829  0.017266903            3 
 1064000   0.84071162   -8.1749328    223.96164  0.017540855  0.017252252            1 
 1065000   0.82744341   -8.1329608    223.90974  0.017520324  0.017237662            1 
 1066000   0.83103784   -8.1591597    223.97345  0.017508869  0.017222985            3 
 1067000   0.82508565   -8.1808628    224.16153  0.017507149  0.017208237            3 
 1068000   0.83286532   -8.1549147    224.31521  0.017502747  0.017193503            5 
 1069000   0.84692077   -8.1796505    222.86671  0.017373458  0.017178755            2 
 1070000   0.81871789   -8.1609872    223.45118   0.01740274  0.017164048            1 
 1071000   0.82432865   -8.1596402    224.20721  0.017445317  0.017149356            2 
 1072000   0.81332419   -8.1646089    224.19061  0.017427753  0.017134648            3 
 1073000   0.83346547    -8.171959    223.92468  0.017390857   0.01711998            4 
 1074000   0.81478504   -8.1628179    223.68135  0.017355784  0.017105339            5 
 1075000   0.83664561   -8.1568619    224.18366  0.017378579  0.017090815            2 
 1076000   0.80231329   -8.1387185    224.32989  0.017373752  0.017076321            2 
 1077000   0.80998758   -8.1470822    224.52238  0.017372514  0.017061843            3 
 1078000   0.83038771   -8.2045012    224.14068  0.017326893  0.017047306            1 
 1079000   0.83469346   -8.1859863    224.72372  0.017355863  0.017032687            3 
 1080000   0.83318729   -8.1518593     224.7284  0.017340154   0.01701819            3 
 1081000   0.83642844   -8.1817223    224.32956  0.017293367  0.017003711            3 
 1082000   0.82830298   -8.1986665    224.48995  0.017289737  0.016989164            2 
 1083000   0.83016852   -8.1604373    224.65891  0.017286773  0.016974646            2 
 1084000   0.81507957    -8.189985    224.01372  0.017221227  0.016960177            2 
 1085000   0.82651917   -8.1965042    224.04674  0.017207891  0.016945647            3 
 1086000   0.81104819   -8.1907098    224.07759  0.017194413  0.016931172            4 
 1087000   0.82363753   -8.2058125    224.94238  0.017244892  0.016916707            2 
 1088000   0.82154966   -8.2030271    224.72645  0.017212504  0.016902229            1 
 1089000   0.80938824   -8.1731294    224.46437  0.017176643  0.016887763            3 
 1090000   0.83849051   -8.1791851    224.38544   0.01715485  0.016873317            2 
 1091000    0.8172851   -8.2163417    224.31189  0.017133508  0.016858928            3 
 1092000   0.80962143   -8.2065353    224.65515  0.017144014  0.016844495            6 
 1093000   0.81265973   -8.2131071    224.27709  0.017099504   0.01683004            3 
 1094000   0.81187675   -8.2203237    224.52817  0.017102999  0.016815579            2 
 1095000   0.82460332   -8.2229409    224.93457  0.017118308  0.016801148            4 
 1096000   0.83188842    -8.197898    224.85153  0.017096376  0.016786662            1 
 1097000    0.8169161    -8.230891    224.57669  0.017059913  0.016772223            3 
 1098000   0.80214971   -8.2124327    224.98727  0.017075537  0.016757824            2 
 1099000   0.80375148   -8.2414189    224.64976  0.017034407  0.016743508            2 
 1100000   0.83720452   -8.1797779    225.07983  0.017051502  0.016729128            2 
 1101000   0.82893551   -8.2124022    224.65103   0.01700356  0.016714797            3 
 1102000   0.81137488   -8.2050563    225.19728  0.017029437   0.01670057            4 
 1103000   0.82265264   -8.1967001    225.34253  0.017024972  0.016686398            7 
 1104000   0.81516065   -8.2081836    225.77429  0.017042141  0.016672259            3 
 1105000   0.82195696   -8.1867606    225.60618  0.017014041  0.016658101            3 
 1106000   0.80625899   -8.2098737    225.45382  0.016987178  0.016643985            5 
 1107000   0.79803865   -8.2268594    225.57154  0.016980694  0.016629753            3 
 1108000   0.81919721    -8.230143    225.60276  0.016967717  0.016615638            1 
 1109000   0.79864317   -8.2202572    225.39329  0.016936677  0.016601555            4 
 1110000   0.81808127   -8.2198368    225.86363  0.016956729  0.016587587            5 
 1111000   0.82089998   -8.2029077    226.23281  0.016969157  0.016573594            4 
 1112000   0.81057108   -8.2219547    226.06055  0.016940989  0.016559559            1 
 1113000   0.80729366   -8.2358028    225.49492  0.016883418  0.016545523            4 
 1114000   0.78928453   -8.2582921    225.22154  0.016847811  0.016531509            2 
 1115000   0.81870031   -8.2184913    225.44559  0.016849446  0.016517476            2 
 1116000   0.81526317     -8.23823    226.15233  0.016887121  0.016503469            4 
 1117000   0.80547646    -8.202626    226.65411  0.016909438  0.016489522            2 
 1118000   0.78236504   -8.2322726    226.09219  0.016852429   0.01647558            5 
 1119000     0.810278   -8.2198678    225.97482  0.016828628  0.016461672            4 
 1120000   0.81580075    -8.205968    226.18757  0.016829432  0.016447733            2 
 1121000    0.8049355   -8.2179755    225.98425  0.016799305   0.01643381            2 
 1122000   0.79781789   -8.2387429      225.859   0.01677503   0.01641989            2 
 1123000   0.80246284   -8.2337789    225.96666  0.016768081  0.016405905            3 
 1124000   0.81515424   -8.2257388     226.4343  0.016787834  0.016391906            4 
 1125000   0.81616525   -8.2539716     225.8912  0.016732682   0.01637791            5 
 1126000   0.80512939   -8.2266923    226.03253  0.016728281    0.0163639            3 
 1127000   0.81304259   -8.2295934    226.04079  0.016714048   0.01634994            4 
 1128000   0.79956722   -8.2730716     226.3224  0.016720035  0.016335939            3 
 1129000   0.78522651    -8.225352    226.06728  0.016686395  0.016321983            2 
 1130000   0.81229465   -8.2282759    226.16469  0.016678812  0.016308017            4 
 1131000   0.79774087   -8.2248529    226.45231  0.016685257  0.016294058            2 
 1132000   0.79761752   -8.2717939    226.49072  0.016673345   0.01628013            5 
 1133000   0.81168033   -8.2434917     226.2168  0.016638482  0.016266157            3 
 1134000   0.80265223   -8.2647774     226.3323  0.016632297  0.016252197            3 
 1135000   0.78958191   -8.2288087    226.73451  0.016647174  0.016238231            3 
 1136000   0.79441693   -8.2385764    226.48151  0.016613961  0.016224267            8 
 1137000   0.78078042   -8.2111425    226.77045  0.016620525  0.016210346            4 
 1138000   0.81320538   -8.2087392    226.12149  0.016558399  0.016196392            3 
 1139000   0.79297732   -8.2556841     225.9487  0.016531219  0.016182416            1 
 1140000   0.79957827   -8.2455406    226.44419  0.016552938  0.016168502            4 
 1141000   0.79978767   -8.2491254    226.05659  0.016510122  0.016154681            2 
 1142000   0.82061383   -8.2195893    226.32985  0.016515605  0.016140737            3 
 1143000   0.79427526   -8.2264559    226.63766  0.016523598  0.016126851            2 
 1144000   0.79444086   -8.2358185    226.50601  0.016499564  0.016112946            1 
 1145000   0.82501936   -8.2449813    226.32317  0.016471847   0.01609904            2 
 1146000   0.81301187   -8.2250495    226.72228  0.016486495  0.016085174            2 
 1147000    0.8031157    -8.272217    226.56891  0.016460978  0.016071231            4 
 1148000   0.78925076   -8.2706462    226.34501  0.016430387    0.0160573            3 
 1149000   0.79932158   -8.2540626    226.42498  0.016421887  0.016043419           11 
 1150000   0.78482588   -8.2168854      227.125  0.016458333    0.0160296            5 
 1151000   0.80116334   -8.2384435    227.16728  0.016447095  0.016015876            2 
 1152000    0.7798631    -8.236652    227.09327  0.016427464  0.016002178            1 
 1153000   0.79955553   -8.2559357    226.87651   0.01639755   0.01598846            6 
 1154000   0.79945342    -8.244183    227.13158   0.01640176  0.015974748            3 
 1155000   0.79642596   -8.2829476    226.77449  0.016361796  0.015960966            2 
 1156000   0.77489115   -8.2706258    226.99808   0.01636376  0.015947103            3 
 1157000   0.78762401   -8.2707776    226.64051  0.016323863  0.015933215            6 
 1158000   0.78325404   -8.2863194    226.85011  0.016324849  0.015919331            5 
 1159000   0.77842195   -8.2900381     226.2802  0.016269787  0.015905439            2 
 1160000   0.78938748   -8.2731579    226.76288  0.016290437  0.015891559            1 
 1161000   0.80158268    -8.261331    226.76603  0.016276631  0.015877757            1 
 1162000   0.78722516   -8.2595312    226.68057  0.016256495  0.015863969            2 
 1163000   0.79991128   -8.2606488    226.57211  0.016234746  0.015850226            4 
 1164000   0.78819925   -8.2683164    226.80717  0.016237627  0.015836517            5 
 1165000   0.79684149    -8.270204    226.89223  0.016229773  0.015822791            4 
 1166000   0.79786332   -8.2612951    226.79714  0.016209058  0.015809089            5 
 1167000   0.78197675   -8.2294856    227.49443  0.016244961    0.0157954            2 
 1168000   0.79981781   -8.2865645    227.10173  0.016203035  0.015781703       -1e+20 
 1169000   0.78751072   -8.2591521    227.11067  0.016189811   0.01576796            2 
 1170000   0.77502243   -8.2716859    227.44987  0.016200133   0.01575421            3 
 1171000   0.77823001   -8.2765131    226.95956  0.016151406  0.015740471            2 
 1172000   0.78742584   -8.2695621    226.94164  0.016136351  0.015726745            4 
 1173000   0.76938537   -8.2800633    226.59544     0.016098  0.015712984            2 
 1174000   0.78733085   -8.2892334    226.92082  0.016107384   0.01569926            2 
 1175000   0.78913212   -8.2776621    226.91891   0.01609354   0.01568551            2 
 1176000    0.7888858   -8.2982753    227.39113  0.016113317  0.015671765            4 
 1177000   0.78316893    -8.303366    226.76943  0.016055609  0.015658025            4 
 1178000   0.77924145   -8.2826151    226.68588  0.016036069  0.015644328            2 
 1179000   0.77611781   -8.2742472    227.02065   0.01604613  0.015630654            5 
 1180000   0.76931103   -8.2597453    226.95679  0.016028022  0.015617007            3 
 1181000    0.7620663   -8.2915213    226.84069  0.016006258   0.01560334            1 
 1182000   0.77069478   -8.2698345    227.35447  0.016028939  0.015589647            4 
 1183000   0.77531731   -8.2975997    226.64822   0.01596564  0.015575957            3 
 1184000   0.77292242   -8.2916407     226.5209  0.015943194  0.015562216            3 
 1185000   0.77635509   -8.3066085    227.37904  0.015990087  0.015548506            6 
 1186000   0.77378865   -8.2908643    226.62245  0.015923444   0.01553483            2 
 1187000   0.78041212   -8.2787263    227.07093  0.015941514  0.015521103            2 
 1188000    0.7969471   -8.2914858    227.02713  0.015925023  0.015507442            2 
 1189000   0.77023579   -8.2884758    227.32707  0.015932651  0.015493787            4 
 1190000   0.78739981   -8.2651788    227.38497  0.015923317  0.015480166           11 
 1191000   0.77690995   -8.2811259      227.163  0.015894417  0.015466542            5 
 1192000   0.77664507   -8.2844915    226.97368  0.015867847  0.015452961            2 
 1193000   0.78137175    -8.245251    227.26758  0.015875075  0.015439345            2 
 1194000   0.80641272   -8.3014109    227.11466  0.015851107  0.015425757            3 
 1195000   0.75242714   -8.2826903    227.70808  0.015879224  0.015412173            3 
 1196000   0.76718397    -8.280904    227.14021  0.015826381  0.015398594            2 
 1197000   0.76741181   -8.2874769    227.14947  0.015813803  0.015385024            2 
 1198000   0.75612708   -8.2946198    227.65182  0.015835547  0.015371523            7 
 1199000   0.78321564   -8.2895146    227.41126   0.01580562  0.015358052            2 
 1200000   0.77288365   -8.2981613    227.19184  0.015777211   0.01534455            3 
 1201000   0.77013325   -8.3040211    227.55511  0.015789281   0.01533103            3 
 1202000   0.77003099   -8.3148155    227.52259   0.01577389   0.01531756            1 
 1203000   0.78629983   -8.3020752    227.84882  0.015783376  0.015303993            3 
 1204000   0.79065797   -8.3384774    227.48953  0.015745399  0.015290397            4 
 1205000   0.76888274   -8.3075861    227.68132  0.015745596  0.015276848            2 
 1206000   0.78692543   -8.3064094    227.11181  0.015693187  0.015263377            2 
 1207000   0.75882289    -8.306506    226.74004  0.015654518  0.015249871            2 
 1208000   0.78418707   -8.3315594    227.35101  0.015683707  0.015236347            3 
 1209000   0.77848926   -8.3349667    226.98253  0.015645336  0.015222816            2 
 1210000   0.77093709   -8.3238854    227.04793   0.01563691  0.015209323            3 
 1211000   0.75217383   -8.3220686    227.93025  0.015684713  0.015195844            1 
 1212000   0.77441885   -8.2969566    227.64527  0.015652178  0.015182424            2 
 1213000    0.7648688    -8.325721    227.10677  0.015602279  0.015169013            2 
 1214000   0.75679345   -8.2834129    227.36826  0.015607376  0.015155561            3 
 1215000   0.75183553   -8.3082409    227.48973  0.015602862  0.015142128            1 
 1216000   0.76063461   -8.3233954    227.72239  0.015605975  0.015128702            4 
 1217000   0.76830747   -8.3217258    227.64224  0.015587664  0.015115281            1 
 1218000   0.76632943   -8.3430719    227.45073  0.015561763  0.015101895            4 
 1219000   0.77521629   -8.3438046    227.71929  0.015567357   0.01508851            2 
 1220000   0.76754806   -8.3569981    226.94129  0.015501454  0.015075122            3 
 1221000   0.75027848   -8.3469858    227.44868  0.015523388  0.015061801            1 
 1222000   0.75367801   -8.3525322    227.76115  0.015531993  0.015048454            2 
 1223000   0.74929192   -8.3029766    228.34618  0.015559156  0.015035127            1 
 1224000   0.75310905   -8.3230721    227.74954  0.015505824  0.015021822            1 
 1225000   0.75929497   -8.3642377    227.52143  0.015477648  0.015008485            1 
 1226000   0.76542184   -8.3500917    227.86759  0.015488553  0.014995149            2 
 1227000   0.77303216   -8.3339179    227.29533  0.015437064  0.014981795            1 
 1228000     0.769378   -8.3423698    227.69521  0.015451629  0.014968501            3 
 1229000   0.75567459   -8.3567104    227.50472  0.015426141  0.014955173            4 
 1230000   0.76975198   -8.2956659    228.12398  0.015455555  0.014941887            2 
 1231000   0.77277995   -8.3167421    227.99659  0.015434375  0.014928621            2 
 1232000    0.7553386   -8.3201989    227.68223  0.015400584  0.014915358            3 
 1233000    0.7623307   -8.3093216    227.72433  0.015390939  0.014902129            2 
 1234000   0.74854406   -8.3088257    228.07288  0.015402004  0.014888881            4 
 1235000   0.76302602    -8.362178    227.14221  0.015326735  0.014875618            1 
 1236000   0.76718552   -8.3326474    227.94207  0.015368263  0.014862395            2 
 1237000   0.75552611   -8.3620869    228.02473  0.015361407  0.014849182            4 
 1238000   0.76196427    -8.323958    227.34285    0.0153031   0.01483596            1 
 1239000   0.78441872   -8.3396141    227.80884   0.01532209  0.014822747            2 
 1240000   0.73950519   -8.3531984     227.3278  0.015277406  0.014809542            2 
 1241000   0.76312944   -8.3606926    227.89584   0.01530324  0.014796339            2 
 1242000    0.7328875   -8.3133055    228.38847  0.015323971  0.014783175            6 
 1243000   0.77642065   -8.3623248    227.78852  0.015271421  0.014770027            3 
 1244000   0.77978975   -8.3406515    228.34199  0.015296221    0.0147569            3 
 1245000   0.74790608   -8.3562004    227.71195  0.015241764  0.014743749            2 
 1246000   0.77076392   -8.3379317    227.93141  0.015244209  0.014730656            3 
 1247000   0.75082384   -8.3458621    228.10238   0.01524341  0.014717576            3 
 1248000   0.75585201   -8.3634931    227.62689  0.015199445  0.014704512            3 
 1249000   0.75896814     -8.36483    227.88884  0.015204753  0.014691428            4 
 1250000   0.75782208    -8.334213    228.10299  0.015206866  0.014678363            3 
 1251000   0.77053123   -8.3706994    227.59023  0.015160553  0.014665263            4 
 1252000   0.72555621   -8.3968705    227.98035  0.015174411  0.014652124            3 
 1253000   0.75593956    -8.354739     227.8129  0.015151164  0.014639039            4 
 1254000   0.74972117   -8.3775526    228.38612  0.015177174  0.014625959            3 
 1255000   0.73917193   -8.3662541    227.69312  0.015119065  0.014612932            2 
 1256000    0.7551363   -8.3884548    228.21656  0.015141757   0.01459991            6 
 1257000   0.75401651   -8.3695925    228.50458  0.015148805   0.01458685            3 
 1258000   0.74424393   -8.3455446    228.09993  0.015109958  0.014573833            2 
 1259000   0.75073143   -8.3480285    227.92888  0.015086635  0.014560768           11 
 1260000   0.72963513   -8.3929439    227.80776  0.015066651  0.014547703            8 
 1261000    0.7494381   -8.3592703    227.67432  0.015045884  0.014534637            5 
 1262000   0.74960037   -8.3781352    227.68754  0.015034835  0.014521565            9 
 1263000   0.74841757    -8.358488    227.72036  0.015025096  0.014508498            2 
 1264000   0.74473495   -8.3579024    227.74701  0.015014967  0.014495441            5 
 1265000   0.76607712   -8.3700138    227.89296  0.015012712  0.014482392            6 
 1266000   0.76258229   -8.3979523    227.64128  0.014984286  0.014469332           10 
 1267000    0.7427332   -8.3680392    227.57812  0.014968306  0.014456257            2 
 1268000   0.74973669   -8.4004957    227.20707  0.014932115  0.014443165            1 
 1269000   0.73651228    -8.384867    227.80661  0.014959719  0.014430067            5 
 1270000   0.76139294   -8.4045051    227.74393  0.014943828  0.014416969            4 
 1271000   0.75342536   -8.4022462    227.38837  0.014908758    0.0144039            2 
 1272000   0.74206091    -8.401521    227.73861  0.014919982  0.014390868            4 
 1273000   0.74365761    -8.356644    227.94091  0.014921505  0.014377837            4 
 1274000   0.74890511   -8.3600652    228.05241  0.014917086  0.014364855            3 
 1275000   0.74235082   -8.3886854    227.99615  0.014901709  0.014351884            5 
 1276000   0.73524862   -8.4050156      227.679  0.014869318  0.014338859            2 
 1277000   0.75046578   -8.3760886    228.03805  0.014881105  0.014325905            3 
 1278000   0.75623754   -8.4092677    227.75424  0.014850955  0.014312956            3 
 1279000   0.74356985   -8.4132294    227.44203  0.014819001  0.014299991            4 
 1280000   0.74975357   -8.4018326    227.90715  0.014837705  0.014287012            2 
 1281000   0.75912333   -8.4166854    227.74819  0.014815781   0.01427405            3 
 1282000   0.74422046   -8.3872596    227.76815  0.014805522  0.014261133            4 
 1283000   0.76764748   -8.4430129    227.53589  0.014778897  0.014248209            6 
 1284000    0.7266892   -8.4241358    227.47835  0.014763652  0.014235282            1 
 1285000   0.74981262   -8.4411414    227.27604  0.014739043  0.014222313            2 
 1286000   0.75010127   -8.3960666    227.62642  0.014750286  0.014209355            3 
 1287000   0.72778848   -8.4213404    227.77927  0.014748723  0.014196352            1 
 1288000   0.72872323   -8.4328685    227.39112  0.014712158  0.014183371            4 
 1289000     0.738591   -8.4246231    227.09206  0.014681411  0.014170421            2 
 1290000   0.72244679   -8.4130901    227.84783  0.014718852  0.014157461            3 
 1291000   0.72969665   -8.4220786    227.67878  0.014696539  0.014144571            6 
 1292000   0.74345621   -8.4369385    226.63196  0.014617645  0.014131649            7 
 1293000   0.72897539   -8.4274948    228.22497  0.014709008  0.014118771            2 
 1294000   0.72800706   -8.4054085    227.31042  0.014638744  0.014105856            9 
 1295000   0.73718552   -8.3874471    227.68794  0.014651733  0.014093003            3 
 1296000   0.74335368   -8.4307497    227.67559  0.014639634  0.014080151            2 
 1297000   0.73261663   -8.4181752    227.52167  0.014618458  0.014067287            1 
 1298000   0.74145731   -8.4339805    227.26756  0.014590881  0.014054433            3 
 1299000   0.72652936   -8.4378557    227.42413  0.014589693  0.014041575            1 
 1300000   0.73537539   -8.4222838     227.6054   0.01459009  0.014028704            3 
 1301000   0.73749473   -8.4178218    227.87969  0.014596444  0.014015898            1 
 1302000   0.74755424   -8.4491574    227.67081  0.014571864   0.01400314            3 
 1303000   0.73904474    -8.427221    227.77167  0.014567132  0.013990407            2 
 1304000   0.73634625    -8.426885    227.45925  0.014535995  0.013977689            6 
 1305000   0.72587786   -8.4163833    227.50048  0.014527489  0.013964947            3 
 1306000   0.73802919   -8.4113369    227.88427  0.014540855  0.013952225            2 
 1307000   0.72244071   -8.4168136    227.89642  0.014530504  0.013939522            2 
 1308000   0.71904188   -8.4350103    227.89158  0.014519086  0.013926838            3 
 1309000   0.72338879   -8.4259198     227.7574  0.014499452   0.01391413            8 
 1310000   0.72793437   -8.4280217    227.63924  0.014480868  0.013901434            3 
 1311000   0.72722827   -8.4496455    227.63277  0.014469411   0.01388874            3 
 1312000   0.73436707   -8.4348435    227.74949  0.014465796  0.013876021            4 
 1313000   0.73453083   -8.4064159    227.42887   0.01443443  0.013863333            6 
 1314000   0.71905019    -8.414503    227.66929  0.014438692  0.013850659            3 
 1315000   0.73410639   -8.4369451    227.81197  0.014436753  0.013838008            3 
 1316000   0.72572958   -8.4388677    227.89001  0.014430725  0.013825369            3 
 1317000   0.72957388   -8.4237607    227.65422  0.014404848  0.013812732            8 
 1318000   0.72684748   -8.4264982    227.68395  0.014395798  0.013800107            2 
 1319000   0.72929213   -8.4235869    227.41523  0.014367907  0.013787499            3 
 1320000   0.72251186    -8.438161    227.87715  0.014386184  0.013774902            5 
 1321000   0.74474236   -8.4342426     228.3956  0.014407999  0.013762351            3 
 1322000   0.73767048   -8.4521017    227.61766  0.014348062  0.013749822            2 
 1323000   0.72809335   -8.4530793    227.98992  0.014360665  0.013737257            2 
 1324000   0.70528842   -8.4461514    227.79989  0.014337858  0.013724692           11 
 1325000   0.71883488   -8.4458381    227.96955  0.014337707  0.013712159            3 
 1326000   0.73281432   -8.4466146    227.64569  0.014306542  0.013699633            4 
 1327000   0.71518409   -8.4510301    227.09215  0.014260999  0.013687074            2 
 1328000   0.72281249   -8.4703199     227.7379  0.014290782  0.013674546            1 
 1329000   0.73381689   -8.4521432    227.97627  0.014294975  0.013662028            2 
 1330000   0.72822222   -8.4604663    227.73129  0.014268878  0.013649541            3 
 1331000   0.71639739   -8.4156911    227.56844  0.014247961  0.013637058            4 
 1332000   0.72449746   -8.4526613    227.55142    0.0142362  0.013624633            3 
 1333000   0.72249683   -8.4825528    227.62368  0.014230037  0.013612181            1 
 1334000   0.73064367   -8.4737338    227.78936   0.01422972  0.013599693            3 
 1335000   0.71410248   -8.4774112    227.52363  0.014202474  0.013587219            3 
 1336000   0.71943636   -8.4727381    228.02959  0.014223403  0.013574796            6 
 1337000   0.70325946   -8.4848644     227.3503  0.014170425  0.013562366            2 
 1338000   0.71023831   -8.4931844     227.2549  0.014153893  0.013549919            6 
 1339000   0.72876583   -8.4455328    228.06502   0.01419374  0.013537498            9 
 1340000   0.73324467   -8.4867261    227.53509  0.014150192  0.013525069           13 
 1341000   0.71319746    -8.497419    227.97678  0.014167088  0.013512667            3 
 1342000    0.7198854   -8.4855759    227.69257  0.014138883  0.013500271            8 
 1343000    0.7227313   -8.4716283    227.82466  0.014136551  0.013487894            6 
 1344000   0.71140821   -8.4542363    227.63613  0.014114343  0.013475545            4 
 1345000   0.71232169   -8.4770957    227.74423  0.014110547  0.013463225            5 
 1346000   0.71634901   -8.4648091    227.93644  0.014111964  0.013450889            9 
 1347000   0.71245047   -8.5013367    227.46796  0.014072504  0.013438531            3 
 1348000   0.71743442   -8.4678077    227.81789  0.014083697  0.013426191            6 
 1349000   0.71445146   -8.4901359    227.42379  0.014048912  0.013413856            3 
 1350000   0.71935894   -8.4837738    227.72695  0.014057219  0.013401519            5 
 1351000   0.72702498   -8.4632711     228.2981  0.014082044  0.013389215            6 
 1352000   0.69713071   -8.4871338    227.40662   0.01401668  0.013376902            4 
 1353000   0.71921717   -8.4975488    227.83089  0.014032452  0.013364617            5 
 1354000   0.72021134   -8.4956073    227.82575  0.014021772  0.013352332            9 
 1355000   0.71662251   -8.4681588    227.66193  0.014001349  0.013340093           10 
 1356000   0.71552696   -8.4879185    227.83957   0.01400194  0.013327849            4 
 1357000   0.70662363   -8.4954883    228.56694   0.01403629  0.013315643            2 
 1358000    0.7100532   -8.4902324    227.89634  0.013984802   0.01330346            2 
 1359000   0.71489915   -8.4946043    228.11803  0.013988106  0.013291248            2 
 1360000   0.71372158   -8.5137606    228.38644  0.013994267  0.013279051            6 
 1361000   0.71433883   -8.4656896    227.99799    0.0139602  0.013266891            3 
 1362000   0.72052285   -8.4968014    227.30205   0.01390737  0.013254727            4 
 1363000   0.70846719   -8.4786912    227.84235    0.0139302  0.013242566            4 
 1364000   0.71302472   -8.4956844    228.06182  0.013933396  0.013230451            2 
 1365000   0.70099592   -8.4818711    227.76357   0.01390498  0.013218343            5 
 1366000   0.69987588   -8.4736017    227.92019  0.013904355  0.013206239            4 
 1367000   0.69889859   -8.4997211    228.18743  0.013910475  0.013194129            4 
 1368000   0.69747321   -8.5445467    227.53883  0.013860796  0.013182021            2 
 1369000   0.71960471   -8.5170151    227.83119  0.013868468  0.013169894            3 
 1370000   0.70252266   -8.5011847    227.97038  0.013866812   0.01315779            1 
 1371000   0.70027936     -8.48285    227.76127  0.013843987  0.013145722            2 
 1372000   0.71630525   -8.5383779    227.67423   0.01382861  0.013133639            3 
 1373000   0.69823446   -8.5139775    227.40136  0.013801976  0.013121529            2 
 1374000   0.71707622   -8.5086607    227.53697  0.013800156  0.013109418            5 
 1375000   0.70988537   -8.5250791    227.72109  0.013801278  0.013097316            4 
 1376000   0.69959135   -8.5242554    227.77519  0.013794524  0.013085264            1 
 1377000   0.71182182   -8.5259152    227.93266  0.013794036  0.013073203            5 
 1378000    0.7024533   -8.5342676     227.4984  0.013757765  0.013061147            5 
 1379000   0.71591857   -8.5391177    227.64393  0.013756583  0.013049101            4 
 1380000   0.70481505   -8.5291033    227.99983  0.013768105  0.013037065            2 
 1381000    0.7118324    -8.557276    227.51276  0.013728745  0.013025034            2 
 1382000   0.70496009   -8.5331509    227.71386  0.013730937  0.013013032            3 
 1383000   0.69901863    -8.528488    227.67596  0.013718725  0.013001022            7 
 1384000   0.70531635   -8.5373126    227.24196   0.01368268  0.012989036            1 
 1385000   0.68671222     -8.52168    227.53408  0.013690378  0.012977047            2 
 1386000   0.69426966   -8.5309335     227.5179  0.013679527  0.012965059            4 
 1387000   0.70487962   -8.5329357    227.72132  0.013681886  0.012953124            4 
 1388000   0.68947243   -8.5349587    227.59195  0.013664262  0.012941198            6 
 1389000   0.71133925    -8.507822    227.55962  0.013652485  0.012929269            3 
 1390000   0.68269613   -8.5373935    227.55371  0.013642309  0.012917392            5 
 1391000    0.6888534   -8.5330024    227.61129   0.01363595  0.012905533            3 
 1392000   0.70380662   -8.5311635     227.6479  0.013628346  0.012893651            5 
 1393000    0.6998333   -8.5205641     227.8289  0.013629391   0.01288176            8 
 1394000   0.69153203   -8.5247403    227.62182  0.013607234  0.012869884            3 
 1395000   0.68424436   -8.5535943    227.35916   0.01358179  0.012858041            4 
 1396000   0.68794417   -8.5325205    227.83661  0.013600562  0.012846181           10 
 1397000   0.71277205   -8.5477219    226.69729  0.013522864  0.012834338            3 
 1398000   0.71385078   -8.5480959     227.5242  0.013562482  0.012822491            2 
 1399000   0.69130852   -8.5434163    226.94061  0.013518025  0.012810637            3 
 1400000    0.7049192   -8.5334204      227.598    0.0135475  0.012798788            3 
 1401000   0.70346281   -8.5499811    227.81612  0.013550804  0.012787004            3 
 1402000   0.68338147   -8.5636321    227.42183  0.013517703  0.012775195            2 
 1403000   0.68543962   -8.5535103    227.19375   0.01349452  0.012763415            4 
 1404000   0.71021699   -8.5524734    227.08632  0.013478533  0.012751638            1 
 1405000   0.68316469   -8.5502191    227.17417   0.01347415  0.012739861            2 
 1406000   0.69254886   -8.5515099     227.6211  0.013491056  0.012728108            3 
 1407000    0.6894517   -8.5461375    227.36571  0.013466341  0.012716356            4 
 1408000   0.67973674   -8.5666225    226.95156  0.013432265  0.012704622            3 
 1409000    0.6846685   -8.5785653    227.49089   0.01345463  0.012692904            4 
 1410000   0.68666604   -8.5269372     227.3281  0.013435467  0.012681175            8 
 1411000   0.67605087   -8.5577827    227.82504  0.013455294  0.012669487            3 
 1412000   0.67870883    -8.541415    227.03688  0.013399249  0.012657802            5 
 1413000    0.6972362   -8.5230561    227.67147  0.013427192   0.01264614            3 
 1414000   0.68450215   -8.5516277    227.41916  0.013402827  0.012634492            4 
 1415000   0.70450846   -8.5413899    227.67257  0.013408278  0.012622838            3 
 1416000   0.68056565   -8.5648023    227.43603  0.013384889  0.012611184            3 
 1417000   0.67978949   -8.5705426    227.91217  0.013403444   0.01259952            3 
 1418000   0.68689144   -8.5569453    227.47712  0.013368425  0.012587877            8 
 1419000   0.68735962   -8.5460516    227.56063  0.013363908  0.012576281            2 
 1420000   0.68759169   -8.5560284    227.75848  0.013366108   0.01256469            3 
 1421000   0.70386101   -8.5382064    227.43206  0.013337559   0.01255311            3 
 1422000   0.68350104   -8.5744247    227.72539   0.01334537  0.012541567            3 
 1423000    0.6836478   -8.5700489    227.33973  0.013313406  0.012529991            5 
 1424000   0.68533906   -8.5644596    227.46684  0.013311496  0.012518429            5 
 1425000   0.69220232   -8.5514262    227.46953  0.013302311  0.012506878            4 
 1426000   0.67305317   -8.5402675    227.74179  0.013308894  0.012495369            4 
 1427000   0.68379688   -8.5567441    227.73841   0.01329937  0.012483877            4 
 1428000   0.69047325   -8.5872449    227.20162  0.013258732  0.012472377            2 
 1429000   0.67179757    -8.545069    227.57153  0.013271024  0.012460905            5 
 1430000   0.67842376   -8.5783666    227.83217  0.013276933  0.012449461            4 
 1431000   0.68519275   -8.5550804    227.73782   0.01326216  0.012437995            5 
 1432000   0.67385895   -8.5555231    227.76865  0.013254693  0.012426526            1 
 1433000   0.69066679   -8.5701191    227.07478  0.013205093   0.01241508            1 
 1434000   0.67425812   -8.5733271    227.86141  0.013241597  0.012403639            2 
 1435000   0.68152556   -8.5688715    227.74153  0.013225408  0.012392224            4 
 1436000   0.67874722      -8.5504    227.60451  0.013208247  0.012380824            3 
 1437000   0.68753459   -8.5653427    227.84576  0.013213046  0.012369399            4 
 1438000    0.6788453   -8.5748664    227.18851  0.013165769  0.012357986            6 
 1439000   0.68699929   -8.5593458    227.53351  0.013176599  0.012346603            2 
 1440000   0.66081965   -8.5736027    227.37577   0.01315832  0.012335218            2 
 1441000   0.66748998   -8.5798711    228.15582  0.013194299  0.012323841            3 
 1442000   0.67947899   -8.5918146    227.35031  0.013138598  0.012312455            2 
 1443000   0.66860387   -8.5795377    227.17907  0.013119605  0.012301075            3 
 1444000   0.67140728   -8.5854076    227.24738  0.013114461  0.012289725            9 
 1445000    0.6858001   -8.5807189    227.07812  0.013095624  0.012278357            5 
 1446000   0.66803649   -8.5832613    227.53433  0.013112859  0.012266993            1 
 1447000   0.67417796   -8.5885432    226.99215  0.013072572  0.012255632            1 
 1448000   0.68236817   -8.6121733    227.38971  0.013086424  0.012244274            3 
 1449000    0.6735604   -8.5747807    227.36376    0.0130759  0.012232931            4 
 1450000   0.67690941   -8.5821721    227.72029  0.013087373  0.012221617            3 
 1451000    0.6873976   -8.5978159    227.14615   0.01304538  0.012210312            2 
 1452000    0.6628701   -8.5849467    227.03615  0.013030082  0.012199006            2 
 1453000    0.6728903   -8.5955294    227.04511  0.013021628  0.012187681            3 
 1454000   0.65996427   -8.6144748    227.34495  0.013029857   0.01217638            4 
 1455000   0.66715752   -8.6162551    226.96389  0.012999077  0.012165092            2 
 1456000   0.66446099   -8.6010315    227.20147  0.013003747  0.012153796            3 
 1457000   0.67736866   -8.6008776    227.10516  0.012989314  0.012142528            3 
 1458000   0.66323713   -8.5836019    227.25778  0.012989128  0.012131307            5 
 1459000   0.66685197   -8.6046015    227.18772  0.012976223  0.012120071            4 
 1460000   0.67655971   -8.6313207    227.00794  0.012957074  0.012108853            3 
 1461000   0.67777882   -8.6116909    227.32368  0.012966215  0.012097634            4 
 1462000   0.66734988   -8.6258295    227.23536  0.012952312  0.012086418            3 
 1463000    0.6800444   -8.6049837    227.30144  0.012947222   0.01207522            2 
 1464000   0.66679504   -8.6138946    226.85031    0.0129127  0.012064029            1 
 1465000   0.66844574   -8.5947024    226.80761  0.012901457  0.012052869            3 
 1466000    0.6551915   -8.6097977    227.66529   0.01294141  0.012041716            3 
 1467000   0.66980781   -8.6139703    227.63929  0.012931112  0.012030622            4 
 1468000   0.67652824   -8.6066112    227.28552   0.01290222  0.012019502            4 
 1469000   0.67570699   -8.6381791    226.96557  0.012875288  0.012008407            2 
 1470000   0.65159828   -8.6265411    227.39313  0.012890767  0.011997302            6 
 1471000   0.68130239   -8.6226421    227.40373  0.012882604  0.011986205            1 
 1472000   0.65414621   -8.6379895    226.89339  0.012844961  0.011975125            1 
 1473000   0.66718729   -8.6246393    226.83709  0.012833056  0.011964073            4 
 1474000   0.65436353   -8.6481315    227.00029  0.012833576  0.011953021            4 
 1475000   0.66770478   -8.5908978    227.53489  0.012855078  0.011941986            3 
 1476000   0.66320601   -8.6249132    227.19385  0.012827114  0.011930978            2 
 1477000   0.64776341    -8.602255    227.05299  0.012810483  0.011919984            4 
 1478000   0.66086795   -8.6347976    227.35411  0.012818793   0.01190899            3 
 1479000    0.6603599   -8.6275994     227.3385  0.012809246  0.011898012            2 
 1480000   0.67368294   -8.6183597    227.04199  0.012783896  0.011887052            3 
 1481000   0.66335215   -8.6407736    226.98271  0.012771928  0.011876092            4 
 1482000   0.67170466   -8.6179926    227.28161  0.012780118  0.011865141            4 
 1483000   0.65403062   -8.6286105    227.14664  0.012763915  0.011854176            1 
 1484000   0.66960245   -8.6504105    227.04644  0.012749688  0.011843237            2 
 1485000   0.66769482   -8.6382307    226.89009  0.012732329  0.011832285            2 
 1486000   0.66692557   -8.6462517    227.03852  0.012732084  0.011821315            2 
 1487000   0.67005009   -8.6311381    227.00238  0.012721496  0.011810361            7 
 1488000   0.64600716   -8.6170475    227.42292  0.012736499  0.011799451            6 
 1489000   0.67181819   -8.6612151    227.11738  0.012710845  0.011788529            1 
 1490000   0.64086144   -8.6410547     227.0061  0.012696091  0.011777641            2 
 1491000   0.66242529   -8.6667839    226.98281  0.012686274  0.011766748            5 
 1492000   0.65452767   -8.6146052    227.15575   0.01268743  0.011755839            4 
 1493000   0.66391523   -8.6244159    226.90019  0.012664668  0.011744955            8 
 1494000   0.65799052   -8.6548144    227.05201  0.012664659  0.011734122            6 
 1495000   0.65377203   -8.6473776    227.40892  0.012676082  0.011723282            8 
 1496000   0.65788643   -8.6363694    226.80471  0.012633952   0.01171245            4 
 1497000   0.66733853   -8.6417445    226.88295  0.012629868  0.011701634            2 
 1498000   0.64030681   -8.6426695    227.09411  0.012633184  0.011690838            6 
 1499000   0.65678544   -8.6685424    226.74089  0.012605119  0.011680035            3 
 1500000   0.65814199   -8.6501907    227.08062   0.01261559  0.011669231            3 
 1501000   0.65959682   -8.6472832     226.9464  0.012599734  0.011658431            2 
 1502000   0.65629987   -8.6672493    226.95783  0.012591979  0.011647666            6 
 1503000   0.64844171   -8.6733174    226.88792  0.012579725  0.011636922            2 
 1504000   0.64701022   -8.6626087    227.18241  0.012587678  0.011626171            1 
 1505000    0.6462704   -8.6279966    226.27671  0.012529164  0.011615421            3 
 1506000   0.64462468   -8.6516474    226.77902   0.01254864  0.011604686            5 
 1507000   0.65383386   -8.6648936    226.67737  0.012534692  0.011593977            2 
 1508000   0.65116939    -8.655892    227.09644  0.012549538  0.011583261            2 
 1509000   0.64950986    -8.654846     226.6684  0.012517583  0.011572565            6 
 1510000    0.6488643   -8.6612294    226.76643  0.012514703  0.011561892            2 
 1511000   0.65017184   -8.6588396    227.05381  0.012522271   0.01155124            4 
 1512000    0.6635757   -8.6711962     226.8136  0.012500749  0.011540593            6 
 1513000   0.64954499   -8.6571974     226.7615  0.012489618  0.011529946            3 
 1514000    0.6404282   -8.6300422    227.43645  0.012518519  0.011519308            6 
 1515000   0.65052064   -8.6593657    227.17213  0.012495717  0.011508707            6 
 1516000   0.64560335   -8.6690397    226.68362  0.012460621  0.011498085            2 
 1517000    0.6377652   -8.6625657    227.32584  0.012487686  0.011487491            2 
 1518000   0.64717059   -8.6697042    227.12849  0.012468626   0.01147691            5 
 1519000   0.64860149   -8.6575392    226.84068  0.012444628  0.011466319            2 
 1520000   0.64533255   -8.6391355    227.24812  0.012458778  0.011455757            3 
 1521000   0.63118538   -8.6469774    227.12639  0.012443918  0.011445215            5 
 1522000   0.63413639   -8.6474195    227.24452   0.01244221  0.011434693            3 
 1523000    0.6403811   -8.6543397    226.60177  0.012398871  0.011424163            3 
 1524000   0.64375383   -8.6579019    226.71672  0.012397021  0.011413644            2 
 1525000   0.64196293   -8.6479439    226.97069   0.01240277  0.011403145            2 
 1526000   0.64552758   -8.6555045    227.13964  0.012403868   0.01139265            4 
 1527000   0.62902755   -8.6716683    226.53062  0.012362509  0.011382175            7 
 1528000   0.64760563   -8.6745946    226.56608  0.012356352  0.011371697            3 
 1529000   0.64813155   -8.7023345    226.92501  0.012367833  0.011361224            4 
 1530000    0.6455566   -8.6731603    226.85172  0.012355758  0.011350778            4 
 1531000   0.64039041   -8.6915223    227.00575  0.012356072  0.011340343            3 
 1532000   0.62790355   -8.6815616    226.88931  0.012341673  0.011329909            2 
 1533000   0.63626377   -8.6632907    226.70215  0.012323448  0.011319478            5 
 1534000   0.64300074   -8.6968078    226.62753  0.012311361  0.011309017            2 
 1535000   0.65712896   -8.6638082    226.82679  0.012314158  0.011298603            2 
 1536000   0.65749655   -8.6680839    227.05196  0.012318357  0.011288212            2 
 1537000   0.63954304   -8.6585887     227.3728  0.012327738  0.011277835            3 
 1538000   0.62809615   -8.6746021    226.62593  0.012279255  0.011267457            8 
 1539000   0.63879488   -8.6817736    226.43872  0.012261139  0.011257086            1 
 1540000   0.63564126   -8.6652741    227.07126  0.012287406  0.011246735            2 
 1541000   0.63551446   -8.6810869    226.48538  0.012247749  0.011236396            2 
 1542000   0.63489973   -8.6749661    227.01821  0.012268602  0.011226049            3 
 1543000    0.6249723   -8.6971272    226.51554  0.012233503  0.011215705            4 
 1544000   0.64097135   -8.6787057    227.00782  0.012252149  0.011205392            2 
 1545000    0.6308284   -8.6909782    226.86426  0.012236476  0.011195088            2 
 1546000    0.6462112    -8.692129    226.94089  0.012232692  0.011184771            2 
 1547000   0.63530513   -8.6919961    226.51861  0.012202037  0.011174474            2 
 1548000   0.65585271   -8.6865271     227.0271  0.012221528  0.011164189            2 
 1549000   0.62336063   -8.7066787    226.25199  0.012171938  0.011153912            3 
 1550000   0.61802815   -8.6979432    226.86809  0.012197209   0.01114363            2 
 1551000    0.6260476   -8.7040601    226.84273  0.012187982  0.011133374            1 
 1552000   0.63894867    -8.679835    226.94047  0.012185378   0.01112315            2 
 1553000   0.62440535   -8.6940891    227.10127   0.01218616  0.011112937            2 
 1554000   0.64423329   -8.6926771    226.69176  0.012156358  0.011102733            4 
 1555000   0.63929053   -8.6824921    226.72893  0.012150532  0.011092547            2 
 1556000   0.62861866   -8.6957117    226.90231  0.012152009   0.01108236            2 
 1557000   0.62485566    -8.694378    226.45163  0.012120083  0.011072178            4 
 1558000   0.64468101   -8.6798882    226.74047  0.012127753  0.011062021            6 
 1559000   0.63476795   -8.6931819    226.56336  0.012110507  0.011051869            1 
 1560000   0.62373452    -8.692141     227.0293  0.012127634  0.011041722            2 
 1561000   0.63427327   -8.7143255     226.7617  0.012105579  0.011031566            2 
 1562000   0.63381162    -8.684955     226.9379  0.012107229  0.011021432            4 
 1563000     0.624377    -8.707348    226.27197  0.012063978   0.01101132            3 
 1564000   0.61664128   -8.6981516    226.40574  0.012063392  0.011001216            2 
 1565000   0.63449304   -8.6832987    226.74112  0.012073542  0.010991122            3 
 1566000    0.6277913   -8.6828138    226.87272  0.012072835  0.010981035            2 
 1567000   0.63298566   -8.6812304    226.75974  0.012059123  0.010970972            3 
 1568000   0.63043921   -8.6857854    226.79288  0.012053193  0.010960934            2 
 1569000   0.62124341   -8.6972967     227.0607  0.012059735  0.010950889            2 
 1570000   0.63891048   -8.7059101    227.03078  0.012050466  0.010940843            3 
 1571000   0.64266486   -8.7043983    227.14473   0.01204884  0.010930823            4 
 1572000   0.62615821    -8.705947    226.74566   0.01202002  0.010920825            2 
 1573000   0.61761096   -8.7244961    226.45194  0.011996818  0.010910811            3 
 1574000   0.62758015    -8.723948    226.36558  0.011984624    0.0109008            1 
 1575000   0.64181804   -8.7340929     226.0455  0.011960079  0.010890805            3 
 1576000   0.62240333   -8.7138633    226.55761  0.011979569  0.010880819            3 
 1577000   0.63710014   -8.7201178    226.47616  0.011967668  0.010870856            3 
 1578000   0.62265672   -8.7024561    226.38323  0.011955177  0.010860894            4 
 1579000   0.62402795   -8.7179939    226.32917  0.011944752  0.010850939            1 
 1580000   0.62438771   -8.7207004    226.50722  0.011946584  0.010840983            1 
 1581000   0.61986666   -8.7090088     226.5189  0.011939643  0.010831042            2 
 1582000   0.63194894   -8.6974043    226.30403  0.011920777  0.010821085            3 
 1583000   0.61479843   -8.7227782    226.38659  0.011917593  0.010811158            3 
 1584000   0.61640875   -8.7096593     226.4017  0.011910864  0.010801234            5 
 1585000   0.61791514   -8.7108327    226.52575  0.011909871  0.010791341            4 
 1586000   0.60686716   -8.7191166    226.31449  0.011891262  0.010781444           11 
 1587000   0.64616971    -8.696547    226.05315  0.011870046  0.010771552            5 
 1588000   0.61769069   -8.6964376     226.3233  0.011876747  0.010761666            3 
 1589000   0.61345151   -8.6850402    226.17375   0.01186143  0.010751798            4 
 1590000   0.62253934   -8.7053321      226.163  0.011853407  0.010741932            1 
 1591000   0.63495972   -8.7063816    226.59412  0.011868538  0.010732077            5 
 1592000    0.6203236    -8.720937    226.39598  0.011850711  0.010722241            5 
 1593000   0.62085989   -8.7076346    226.34034  0.011840361  0.010712421            2 
 1594000   0.61530378   -8.7223855    226.10807   0.01182079  0.010702595            3 
 1595000   0.61506242   -8.7156411     226.2665  0.011821656  0.010692794            3 
 1596000   0.60836324   -8.7239433    226.40001   0.01182122  0.010682992            2 
 1597000   0.61961463   -8.7182986    226.49437  0.011818742  0.010673217            2 
 1598000   0.61356149   -8.7113033    226.54579  0.011814027  0.010663444            2 
 1599000   0.61049055    -8.717112    226.55644  0.011807194   0.01065368            1 
 1600000   0.60951149   -8.7412866    226.66033  0.011805226  0.010643916            3 
 1601000   0.61162211   -8.7436535    225.96977  0.011761907  0.010634139            4 
 1602000   0.61871576   -8.7391168    225.96241  0.011754183  0.010624392            3 
 1603000   0.60717012   -8.7335741    226.38937  0.011769046  0.010614662            1 
 1604000   0.60604608   -8.7257853    226.56472  0.011770819  0.010604939            2 
 1605000   0.61181173   -8.7250343    226.21976  0.011745574  0.010595211            4 
 1606000    0.6122316   -8.7323736    226.41508  0.011748396  0.010585506            2 
 1607000   0.61845878   -8.7403878    226.43337  0.011742033  0.010575828            3 
 1608000   0.60828563   -8.7315983    226.34319  0.011730058  0.010566132            4 
 1609000   0.61943105   -8.7367829    226.38844  0.011725111  0.010556451            3 
 1610000   0.60498518   -8.7217475    226.40882  0.011718883  0.010546793            5 
 1611000   0.61643791   -8.7361052    226.38365  0.011710307  0.010537157            2 
 1612000   0.61735463   -8.7373136    226.00733  0.011683588  0.010527523            5 
 1613000   0.60940319   -8.7462866    226.83062  0.011718879  0.010517891            4 
 1614000   0.58591369   -8.7270841    225.74502  0.011655567  0.010508259            4 
 1615000   0.62086092   -8.7303426    225.98765  0.011660869   0.01049865            4 
 1616000   0.61661298    -8.748181    226.72225  0.011691535   0.01048905            4 
 1617000   0.61527143   -8.7308812    226.17783  0.011656248  0.010479463            5 
 1618000   0.59806432   -8.7469583    226.29252  0.011654951   0.01046989            5 
 1619000   0.60782445   -8.7272768    226.80852  0.011674311  0.010460328            3 
 1620000   0.61833365   -8.7397139    226.34661  0.011643344  0.010450783            4 
 1621000   0.60891514   -8.7536348    225.94503  0.011615517  0.010441245            5 
 1622000   0.60786564   -8.7363092    226.05422  0.011613965  0.010431717            2 
 1623000   0.59826533   -8.7348359    225.85825  0.011596747  0.010422197            5 
 1624000   0.59598405   -8.7480635    226.53592   0.01162438  0.010412693            2 
 1625000   0.59541979   -8.7119923    226.40033  0.011610273  0.010403207            2 
 1626000   0.59253137    -8.744242     226.3631  0.011601225  0.010393717            3 
 1627000   0.60697256   -8.7354722    226.24205  0.011587894  0.010384219            4 
 1628000   0.60679084   -8.7417755    226.05443  0.011571173  0.010374741            3 
 1629000   0.61055801   -8.7371935    226.47277   0.01158547  0.010365285            3 
 1630000   0.61848904   -8.7424128    226.10364  0.011559491  0.010355838            3 
 1631000   0.60376573   -8.7382165    225.99679  0.011546944  0.010346396            3 
 1632000   0.60502206   -8.7451296    225.92464  0.011536185  0.010336951            2 
 1633000   0.60371011   -8.7379668    226.31732  0.011549159  0.010327524            3 
 1634000   0.59578013   -8.7563395     225.9111  0.011521374  0.010318098            7 
 1635000   0.60653877   -8.7487874    225.92952  0.011515266   0.01030869            7 
 1636000   0.61024641   -8.7430445    225.99803  0.011511717    0.0102993            3 
 1637000   0.59301617   -8.7604012    226.04392  0.011507021  0.010289919            2 
 1638000   0.59645778   -8.7445347    226.11062  0.011503389  0.010280535            3 
 1639000   0.59803253   -8.7479852     226.0078  0.011491143  0.010271169            2 
 1640000   0.59049685    -8.744064    225.95708  0.011481559  0.010261799            3 
 1641000   0.61824914   -8.7704636    225.83423  0.011468324  0.010252454            5 
 1642000   0.59745874   -8.7411267    225.97727  0.011468599  0.010243112            3 
 1643000   0.59471949   -8.7592249    226.16152  0.011470964  0.010233779            2 
 1644000   0.57898748   -8.7427356    225.74085  0.011442663  0.010224461            4 
 1645000    0.6084714   -8.7671988    226.02257  0.011449978  0.010215147            7 
 1646000   0.60068423   -8.7843659    225.77996  0.011430739  0.010205831            7 
 1647000   0.58954245   -8.7520679    225.96138  0.011432978  0.010196533            4 
 1648000   0.58999999   -8.7480365    226.10183  0.011433143  0.010187238            2 
 1649000   0.58544521   -8.7674976    225.74387   0.01140812  0.010177974            5 
 1650000   0.60282958   -8.7811713    225.95116  0.011411675  0.010168724            7 
 1651000   0.58554129   -8.7597013    225.82638  0.011398464  0.010159465           10 
 1652000   0.59614258   -8.7792734    225.97303  0.011398963  0.010150224           11 
 1653000   0.59060207   -8.7707408    225.97236  0.011392033  0.010140976           10 
 1654000   0.59351939   -8.7470659    225.84377  0.011378666  0.010131741            2 
 1655000   0.60029595   -8.7657465    225.26002  0.011342398  0.010122519            7 
 1656000   0.58832983   -8.7855688    226.13102  0.011379379  0.010113306            5 
 1657000   0.58742462   -8.7675146    225.52356  0.011341961  0.010104102            3 
 1658000   0.60455948   -8.7778987    225.95255  0.011356682  0.010094911            5 
 1659000   0.59444644    -8.783476    225.66204  0.011335244  0.010085713            5 
 1660000   0.58759515   -8.7740726    226.04657   0.01134772  0.010076534            3 
 1661000   0.59007759   -8.7723535      225.832  0.011330123  0.010067365            9 
 1662000    0.5865875   -8.7764018    225.66687  0.011315025  0.010058214            4 
 1663000   0.59150986   -8.7695951    225.72416  0.011311092  0.010049081            3 
 1664000   0.59557271   -8.7683911    226.11442  0.011323839  0.010039946            3 
 1665000   0.58494938     -8.78566    225.77121  0.011299861   0.01003083            5 
 1666000   0.58967719   -8.7843927    225.65858  0.011287444  0.010021705            1 
 1667000   0.59069854   -8.7823473    225.73645  0.011284566  0.010012593            5 
 1668000   0.59500627    -8.766415     225.8778  0.011284862  0.010003491            3 
 1669000   0.59118834   -8.7970344    225.76658  0.011272547  0.009994381            1 
 1670000    0.5874305   -8.7579944    225.66005  0.011260482 0.0099852952            3 
 1671000   0.58252933   -8.7812015    225.86908  0.011264167 0.0099762179            4 
 1672000   0.58953956   -8.7837657    225.34405  0.011231262 0.0099671611            4 
 1673000   0.58947563   -8.7779831    225.85315  0.011249908 0.0099581229            5 
 1674000   0.58041192    -8.793863    225.45633  0.011223434  0.009949088            2 
 1675000   0.59148874   -8.7737074    225.74923  0.011231305 0.0099400537            3 
 1676000   0.59550949   -8.7674465    226.00722  0.011237432 0.0099310464            6 
 1677000   0.59099715   -8.7808975    225.30925  0.011196047 0.0099220254            3 
 1678000   0.58806741   -8.7763916     225.8764  0.011217541 0.0099130203            2 
 1679000   0.57605658   -8.7900882    225.97712  0.011215858  0.009904026            4 
 1680000   0.58165397   -8.7784872    225.76951  0.011198884 0.0098950459            4 
 1681000   0.57385666    -8.769917    225.65736  0.011186663 0.0098860631            4 
 1682000   0.58389182   -8.7789694    225.72781  0.011183502 0.0098770911            3 
 1683000   0.57032484   -8.7709782    225.74374  0.011177646 0.0098681294            6 
 1684000   0.58061555   -8.7941173    225.06726  0.011137533 0.0098591773            1 
 1685000   0.56922986   -8.7959646    225.34977  0.011144895 0.0098502393            3 
 1686000   0.58543887    -8.804342    225.28892  0.011135277  0.009841301            4 
 1687000   0.58114249   -8.7793489    225.50734  0.011139465 0.0098323928            8 
 1688000   0.57724426   -8.7861725    225.69012   0.01114189 0.0098234832            3 
 1689000   0.58350828    -8.773944    225.91753  0.011146513 0.0098145868            7 
 1690000   0.59285554   -8.7982605    225.94562  0.011141303 0.0098057099            4 
 1691000   0.57192995   -8.8250855    225.50182  0.011112844 0.0097968364            6 
 1692000   0.56564355   -8.7985464    225.12772  0.011087851 0.0097879612            4 
 1693000   0.57634262   -8.7890095    225.35807   0.01109264 0.0097790875            3 
 1694000   0.57735462    -8.810868    225.35161  0.011085774  0.009770227            3 
 1695000   0.56261006   -8.7881565    225.51958  0.011087492 0.0097613829            2 
 1696000   0.57383767   -8.8102134    225.41085  0.011075612  0.009752547            4 
 1697000   0.57797302   -8.7907846    225.43869  0.011070452 0.0097437197            5 
 1698000   0.58008374    -8.797264     225.7345   0.01107845 0.0097349129            7 
 1699000   0.57031381   -8.7919773    225.33029  0.011052104 0.0097260981            5 
 1700000   0.57806598   -8.7805702    225.46393  0.011052154 0.0097173089            4 
 1701000   0.57972575   -8.7909445    225.30768  0.011038001 0.0097085251            2 
 1702000   0.57294276   -8.7930066    225.31723  0.011031983 0.0096997519            3 
 1703000   0.57568316   -8.8087603    225.64935  0.011041757 0.0096909897            3 
 1704000    0.5655192   -8.7947513    225.43509  0.011024799  0.009682227            3 
 1705000   0.56752072   -8.7943651    225.59304  0.011026053 0.0096734695            2 
 1706000   0.56495458   -8.8084107    225.51553  0.011015804 0.0096647342            1 
 1707000   0.56597508   -8.8105363    225.24347  0.010996069 0.0096559915            3 
 1708000   0.56937826   -8.8155221     225.0142  0.010978444 0.0096472597            2 
 1709000   0.55136767   -8.8062664    225.16363  0.010979307 0.0096385259            6 
 1710000   0.55709359   -8.8220546    225.09239  0.010969415 0.0096298112            2 
 1711000   0.56422681   -8.8082843    225.08361  0.010962576 0.0096211122            2 
 1712000   0.56958696   -8.8048113    225.38218  0.010970706 0.0096124181            2 
 1713000   0.57423654   -8.8066745    225.72695  0.010981073 0.0096037238            3 
 1714000   0.56849976   -8.8196494    225.45024  0.010961213  0.009595045            3 
 1715000   0.56718088    -8.820111    225.36429  0.010950646 0.0095863621            2 
 1716000   0.56796822   -8.8014874    225.39887  0.010945944 0.0095777111            1 
 1717000   0.57032279   -8.8091956    225.41887  0.010940539 0.0095690822            1 
 1718000   0.57720847   -8.8190388    225.20958  0.010924019 0.0095604552            2 
 1719000   0.57432136   -8.8298804     225.2968  0.010921892 0.0095518265            2 
 1720000   0.56747402   -8.8186633    225.56967  0.010928763 0.0095432254            3 
 1721000   0.56668651   -8.8327793    225.04306  0.010896913 0.0095346146            2 
 1722000   0.57203954   -8.8063147    225.56976  0.010916074 0.0095260122            4 
 1723000   0.56567579   -8.8271053    225.39373  0.010901225 0.0095174226            3 
 1724000    0.5697471   -8.8248853    225.47023  0.010898599 0.0095088484            4 
 1725000   0.57013058    -8.819588    224.95972  0.010867619 0.0095002714            2 
 1726000   0.56838352   -8.8392454    224.75858  0.010851612 0.0094917033            4 
 1727000   0.56612736   -8.8369557    224.90635  0.010852458  0.009483142            5 
 1728000   0.55158267   -8.8104906    225.38521  0.010869271 0.0094745924            3 
 1729000   0.57207428   -8.8388613    225.35872  0.010861708 0.0094660489            3 
 1730000    0.5764252   -8.8374028    224.86661  0.010831725 0.0094575134            4 
 1731000   0.55393351     -8.84784     224.9396  0.010828981 0.0094489891            3 
 1732000   0.56062683   -8.8293334    225.25162  0.010837741 0.0094404603            4 
 1733000   0.56455792   -8.8364817    224.93412   0.01081622 0.0094319451            4 
 1734000   0.56329439   -8.8405258    225.41244   0.01083297 0.0094234477            1 
 1735000   0.56801727    -8.823799    224.96137  0.010805061 0.0094149581            2 
 1736000   0.55976288   -8.8230951    225.25786  0.010813069 0.0094064757            3 
 1737000   0.56546351   -8.8293157    225.31929  0.010809791 0.0093980234            3 
 1738000   0.56536302   -8.8390911    225.07902  0.010792051 0.0093895632            4 
 1739000   0.56275357   -8.8460007    224.93711  0.010779045  0.009381109            1 
 1740000   0.56108428     -8.84443    225.36334  0.010793264 0.0093726631            3 
 1741000   0.56157504   -8.8470532    224.71128  0.010755853 0.0093642358            9 
 1742000   0.55877641   -8.8469897    224.91588  0.010759466 0.0093558274            8 
 1743000   0.55264782   -8.8367986    224.97735  0.010756232 0.0093474242            5 
 1744000   0.55932281   -8.8488652    225.12555  0.010757146 0.0093390104            2 
 1745000   0.55937282   -8.8495586    224.86703  0.010738636 0.0093306127            5 
 1746000   0.56356399   -8.8513983    224.93711   0.01073583 0.0093222265           10 
 1747000   0.56127721   -8.8615703    225.13991  0.010739358 0.0093138477            4 
 1748000   0.55890222   -8.8493449    225.09381  0.010731017 0.0093054716            4 
 1749000   0.54178508   -8.8428849    224.95285  0.010718165 0.0092971062            1 
 1750000   0.55931585   -8.8369733    224.92962  0.010710934  0.009288748            5 
 1751000   0.55157912   -8.8484471    225.45912  0.010730017 0.0092804078            7 
 1752000   0.54555639   -8.8414105    224.96722  0.010700496 0.0092720758            5 
 1753000   0.56384271   -8.8514543    225.00429  0.010696154 0.0092637489            6 
 1754000   0.55861056   -8.8591402    225.28785  0.010703528 0.0092554355            4 
 1755000    0.5405322   -8.8640991    225.27206  0.010696679  0.009247138            8 
 1756000   0.56456426   -8.8538456     224.8869  0.010672309 0.0092388426            4 
 1757000   0.55535291   -8.8678731    225.06947  0.010674894   0.00923055            5 
 1758000   0.54512998   -8.8464115    224.95794  0.010663535  0.009222266            4 
 1759000   0.55763837   -8.8479133    224.89132  0.010654317 0.0092139927            5 
 1760000    0.5606908   -8.8406121    224.88714  0.010648065 0.0092057372            4 
 1761000    0.5513845   -8.8514347    225.09234  0.010651729 0.0091974844            1 
 1762000   0.55867894   -8.8619572    224.71784  0.010627972 0.0091892244            3 
 1763000   0.52814045   -8.8363584     225.0258    0.0106365 0.0091809839            1 
 1764000   0.54959674   -8.8552065    225.13796  0.010635769 0.0091727622            5 
 1765000   0.54403712   -8.8543006    224.81301  0.010614401 0.0091645424            3 
 1766000   0.54727362   -8.8560876    224.50621  0.010593913 0.0091563254            2 
 1767000   0.55109101   -8.8598061    224.95015  0.010608854 0.0091481196            5 
 1768000   0.53143606    -8.856153    225.20814  0.010615014 0.0091399257            3 
 1769000   0.53848993   -8.8697839    224.58694   0.01057975 0.0091317393            3 
 1770000   0.54491184    -8.869626    224.93782  0.010590293 0.0091235686            2 
 1771000    0.5384431   -8.8564972    224.97231  0.010585936 0.0091154021            4 
 1772000   0.53606483   -8.8750654    224.70075  0.010567191 0.0091072421            3 
 1773000   0.53253325   -8.8642402    224.41754   0.01054792 0.0090990975            1 
 1774000   0.53981154   -8.8529289    224.39495  0.010540913 0.0090909633            2 
 1775000   0.54764615    -8.863839    225.09342  0.010567766 0.0090828357            2 
 1776000   0.54779936   -8.8701585    224.74928  0.010545668 0.0090747205            4 
 1777000   0.52765711   -8.8717667    224.58951  0.010532241 0.0090666122            2 
 1778000   0.53311784   -8.8749006    224.37815  0.010516411 0.0090585111            2 
 1779000   0.55293149   -8.8653892    225.17914   0.01054802  0.009050427            2 
 1780000   0.53367704    -8.854648    224.72462  0.010520816 0.0090423511            1 
 1781000   0.54340754   -8.8621162    225.02976  0.010529186 0.0090342779            2 
 1782000   0.55901877   -8.8646462    224.75134  0.010510257 0.0090262133            2 
 1783000   0.53926377   -8.8707044    224.50373   0.01049279  0.009018165            2 
 1784000   0.54118053   -8.8626815    224.72343  0.010497171 0.0090101198            3 
 1785000   0.53818807   -8.8684011     225.1638  0.010511849 0.0090020824            3 
 1786000   0.53608422   -8.8601453    224.79673  0.010488836 0.0089940604            2 
 1787000   0.53276307    -8.881882    224.82659  0.010484359 0.0089860467            4 
 1788000   0.53738238   -8.8811628    224.63491  0.010469562 0.0089780437            2 
 1789000   0.54387521   -8.8831684     224.2467  0.010445626 0.0089700526            3 
 1790000   0.53964102   -8.8766005    224.80773  0.010465909 0.0089620611            1 
 1791000   0.53860365   -8.8873265    224.84996   0.01046203 0.0089540875            3 
 1792000   0.54225617   -8.8647127    224.87601  0.010457404 0.0089461104            2 
 1793000   0.55272051   -8.8807284    225.13263  0.010463498  0.008938152            1 
 1794000   0.53309374   -8.8860784    224.48712  0.010427681 0.0089301982            3 
 1795000   0.54642986   -8.8712168    224.63566  0.010428768   0.00892226            2 
 1796000   0.53254394   -8.8876618    225.03033  0.010441273 0.0089143169            1 
 1797000   0.52596151   -8.8826277    224.66039  0.010418308 0.0089063829            1 
 1798000   0.52998182   -8.8735623    225.05717  0.010430903 0.0088984604            5 
 1799000   0.53558902   -8.8632399    224.70695  0.010408882   0.00889056            3 
 1800000   0.52461153   -8.8818454     224.8823  0.010411218 0.0088826616            3 
 1801000   0.53629676   -8.8969657    224.64477  0.010394446 0.0088747676            1 
 1802000   0.53879151   -8.9033385    224.59108  0.010386195 0.0088668822            4 
 1803000     0.528811   -8.8788079    224.49226  0.010375867 0.0088590061            1 
 1804000   0.52240643   -8.8894617    224.58342  0.010374326 0.0088511298            4 
 1805000   0.53453546    -8.867531    224.85913  0.010381308 0.0088432651            3 
 1806000   0.52820879   -8.8818157    224.59471  0.010363359 0.0088354078            2 
 1807000   0.53289653      -8.8767    224.77112  0.010365759 0.0088275576            6 
 1808000   0.52886032    -8.886814    224.14846  0.010331327 0.0088197165            2 
 1809000   0.52742507   -8.8745254     224.9377  0.010361973  0.008811876            4 
 1810000   0.53679176   -8.8966487    224.47244  0.010334827 0.0088040497            3 
 1811000   0.54349201   -8.9047241    224.64155  0.010336902 0.0087962321            2 
 1812000   0.53254261   -8.9012822    224.64124  0.010331183 0.0087884122            2 
 1813000   0.53973932    -8.894404    224.23629  0.010306871 0.0087806136            3 
 1814000   0.52705737    -8.900114    224.45551   0.01031126 0.0087728213            3 
 1815000   0.52857992   -8.8757206    224.38815  0.010302486 0.0087650408            2 
 1816000   0.52745104   -8.8909213    224.36481  0.010295742 0.0087572682            3 
 1817000   0.51738236   -8.8763334     224.5112  0.010296789  0.008749513            3 
 1818000   0.52469199   -8.9046966    224.19969  0.010276847 0.0087417547            3 
 1819000   0.53280729   -8.9008688    224.64904  0.010291783 0.0087340071            3 
 1820000   0.52363976   -8.9125451    224.31952   0.01027104 0.0087262713            2 
 1821000   0.53045391    -8.902881     224.0824  0.010254549 0.0087185425            3 
 1822000   0.51691197   -8.8917003    224.35476  0.010261378 0.0087108313            1 
 1823000   0.53007874   -8.8882002    224.60927  0.010267383 0.0087031213            3 
 1824000   0.51173497   -8.8919114    224.69074  0.010265476 0.0086954179            3 
 1825000   0.53364676   -8.8975702    224.38927  0.010246085 0.0086877198            2 
 1826000    0.5285298   -8.9048733    224.20738  0.010232173 0.0086800309            1 
 1827000   0.53908007   -8.8912487    224.64333  0.010246457 0.0086723512            3 
 1828000   0.53488557   -8.9177196    224.33454  0.010226775 0.0086646788            1 
 1829000    0.5199142    -8.897232    224.52175  0.010229713 0.0086570128            5 
 1830000   0.53291633   -8.9021234    224.49331  0.010222828 0.0086493562            5 
 1831000   0.50516999    -8.890319    224.12423  0.010200447 0.0086417046            3 
 1832000   0.51509867   -8.9095943    224.39975  0.010207412 0.0086340746            3 
 1833000   0.51960287   -8.8974552    224.41718  0.010202636 0.0086264516            5 
 1834000   0.52673213   -8.9036064     224.0391  0.010179894 0.0086188443            2 
 1835000   0.52447157   -8.8844578    224.29885  0.010186142  0.008611237            3 
 1836000   0.50893993   -8.9108282    224.50014   0.01018973  0.008603642            4 
 1837000   0.53001589   -8.9117585    224.30218  0.010175203 0.0085960489            2 
 1838000   0.51147964   -8.9091597    224.67708  0.010186665 0.0085884658            4 
 1839000   0.53346375   -8.9324659    224.66063   0.01018038 0.0085808967            3 
 1840000   0.50914438   -8.9115819    224.15157  0.010151792 0.0085733375            4 
 1841000   0.51824106   -8.9134711    224.11342  0.010144551 0.0085657745            3 
 1842000   0.51880195   -8.8985343    224.36425  0.010150391 0.0085582254            2 
 1843000   0.50561435   -8.9039492    224.01843  0.010129247 0.0085506759            2 
 1844000   0.51975266   -8.9398545    224.64858  0.010152232 0.0085431473            3 
 1845000   0.51625467   -8.8957893     224.3323  0.010132444 0.0085356175            2 
 1846000   0.51157323   -8.8957372    224.10731  0.010116798 0.0085280968            2 
 1847000   0.50684637   -8.9203532    224.17332  0.010114299 0.0085205846            3 
 1848000   0.52185775   -8.9153193    223.78311   0.01009123 0.0085130789            4 
 1849000   0.51423298   -8.9247829    224.28251   0.01010828 0.0085055894            3 
 1850000   0.51630584   -8.9114885    224.30189  0.010103689 0.0084981037            7 
 1851000   0.52408929   -8.9032793    224.14874  0.010091335 0.0084906271            3 
 1852000   0.51883049   -8.9366681    223.91427  0.010075336 0.0084831609            2 
 1853000   0.50737228   -8.9388741    224.03212  0.010075199 0.0084756935            2 
 1854000   0.50976731   -8.9300496    224.40069  0.010086331 0.0084682398            3 
 1855000   0.50840853   -8.9177113    224.19341  0.010071582 0.0084607945            2 
 1856000   0.51772793   -8.9194714    224.40232  0.010075535 0.0084533555            3 
 1857000   0.52461408   -8.9162554    223.95259  0.010049928 0.0084459346            4 
 1858000   0.51995096   -8.8970388    224.01042  0.010047112 0.0084385191            3 
 1859000   0.51438906   -8.9179652    224.13913  0.010047477 0.0084311017            4 
 1860000   0.50729024   -8.9098423    224.49842  0.010058173  0.008423701            2 
 1861000   0.51914119   -8.9262645    223.89013   0.01002553 0.0084163103            3 
 1862000    0.5068275    -8.925264    224.03105  0.010026452 0.0084089311            3 
 1863000   0.52509769   -8.9152158    224.06869  0.010022754 0.0084015595            3 
 1864000   0.50645839   -8.9322191    223.93149  0.010011243 0.0083941893            2 
 1865000   0.51371422   -8.9325584    224.37056  0.010025494 0.0083868353            2 
 1866000   0.51334587   -8.9295823    223.72028 0.0099910806 0.0083794843            2 
 1867000   0.50528356   -8.9197089    224.29244  0.010011267  0.008372145            5 
 1868000   0.50861515   -8.9196933    224.33582  0.010007844 0.0083648114            1 
 1869000   0.51007523    -8.926992    224.10123 0.0099920291 0.0083574932            4 
 1870000     0.503399   -8.9141326    224.16691 0.0099896129 0.0083501836            3 
 1871000   0.50386087   -8.9245108     224.5046 0.0099993141 0.0083428741            4 
 1872000   0.49974246    -8.927534    224.18327 0.0099796683 0.0083355789            3 
 1873000   0.51572239   -8.9346167    223.96477 0.0099646185 0.0083282862            3 
 1874000   0.50191134   -8.9322867    223.99757 0.0099607597 0.0083210007            4 
 1875000   0.48936062   -8.9360698    223.90322 0.0099512544 0.0083137195            2 
 1876000   0.50038974   -8.9277751    224.17374 0.0099579665 0.0083064511            1 
 1877000   0.50881133   -8.9229587    223.78792 0.0099355319 0.0082991825            3 
 1878000   0.50434097    -8.917686    224.15222 0.0099464068 0.0082919394            3 
 1879000   0.49651081   -8.9392085    223.53231 0.0099136202 0.0082846912            3 
 1880000   0.50371501   -8.9345238    223.84938 0.0099224018  0.008277451            2 
 1881000   0.51484677   -8.9186502     224.2006 0.0099326866 0.0082702224            2 
 1882000   0.49184189   -8.9386477    224.02301 0.0099195455 0.0082630084            6 
 1883000   0.51437496   -8.9388881    224.08821 0.0099171627 0.0082557931            2 
 1884000   0.50529856    -8.944421    223.61246 0.0098908556 0.0082485764            3 
 1885000   0.49180936   -8.9497307    223.96602 0.0099012386 0.0082413691            4 
 1886000   0.50745996   -8.9351867    224.34272 0.0099126333  0.008234175            2 
 1887000   0.50839409   -8.9379982    223.94983 0.0098900295 0.0082269933            2 
 1888000   0.50265632   -8.9354757    223.74275 0.0098756512  0.008219821            3 
 1889000   0.50399654   -8.9302732    224.25349 0.0098929545   0.00821265            7 
 1890000   0.51246699   -8.9548142    224.00882  0.009876932  0.008205494            4 
 1891000   0.51016412   -8.9283975    224.14263 0.0098776057 0.0081983411            2 
 1892000    0.4916169   -8.9605868    224.31043 0.0098797757 0.0081912044            3 
 1893000   0.51078447   -8.9346269    223.78632 0.0098514844 0.0081840703            3 
 1894000   0.50815921   -8.9515507    223.79571  0.009846696 0.0081769411            2 
 1895000   0.50621437   -8.9356817    223.73236 0.0098387144  0.008169826            3 
 1896000   0.49197234   -8.9452544    223.89592  0.009840714 0.0081627197            4 
 1897000   0.49769933   -8.9377168    223.85934 0.0098339192 0.0081556188            8 
 1898000   0.49094784   -8.9473068    223.94846 0.0098326509 0.0081485222            3 
 1899000   0.49822001   -8.9469095    224.22773 0.0098397284 0.0081414468            3 
 1900000   0.49826621   -8.9388156    224.28607 0.0098371081 0.0081343688            2 
 1901000   0.49380368   -8.9475182     223.7624 0.0098089779  0.008127296            4 
 1902000   0.49351774   -8.9508762    223.64113 0.0097985073  0.008120236            3 
 1903000   0.50059979   -8.9410866    223.65727  0.009794065 0.0081131829            2 
 1904000   0.50329759   -8.9428423    223.81807 0.0097959589 0.0081061403            4 
 1905000   0.50229235   -8.9442426    223.79216 0.0097896834 0.0080991021            2 
 1906000   0.49485404   -8.9582357     224.0085 0.0097940058  0.008092072            3 
 1907000   0.49710891   -8.9493473    223.97527 0.0097874177 0.0080850485            3 
 1908000   0.49813664   -8.9560277    223.77496 0.0097735395 0.0080780385            3 
 1909000   0.49546836   -8.9462802     223.7298 0.0097664484 0.0080710333            2 
 1910000   0.49597349   -8.9583565    223.49767 0.0097512073 0.0080640347            2 
 1911000   0.49182071   -8.9507978     223.7591 0.0097575049 0.0080570476            3 
 1912000   0.50216298   -8.9484842    224.00762 0.0097632331 0.0080500693            2 
 1913000   0.49499439   -8.9463746    223.80465 0.0097492878 0.0080430901            3 
 1914000   0.48230835    -8.959301    223.87917 0.0097474386 0.0080361254            4 
 1915000   0.49297259   -8.9476491     223.7872 0.0097383464 0.0080291653            3 
 1916000   0.48771608   -8.9529558    223.93209 0.0097395657 0.0080222174            4 
 1917000   0.47849571   -8.9642519    223.91844 0.0097338913 0.0080152731            2 
 1918000   0.48501338   -8.9470513    223.81993 0.0097245366 0.0080083318            4 
 1919000   0.49889127   -8.9517502    223.57266 0.0097087312 0.0080014009            2 
 1920000     0.487276   -8.9376835    223.68858 0.0097087056 0.0079944731            3 
 1921000   0.48298377   -8.9476632    223.72629 0.0097052878  0.007987563            3 
 1922000   0.48674014   -8.9532734    223.52411 0.0096914721 0.0079806485            4 
 1923000    0.4820951   -8.9678322     224.1179 0.0097121642 0.0079737434            3 
 1924000   0.49097887   -8.9566637     223.6354 0.0096862178 0.0079668463            3 
 1925000   0.49650024   -8.9570808    223.71862 0.0096847888  0.007959963            2 
 1926000   0.47688902   -8.9732999    223.87321 0.0096864491 0.0079530845            3 
 1927000   0.48378299   -8.9673089    223.66625 0.0096724722  0.007946211            3 
 1928000   0.48651647   -8.9535222     223.6749 0.0096678292 0.0079393475            2 
 1929000   0.48545245   -8.9679752    223.63103 0.0096609222 0.0079324951            2 
 1930000   0.48523326   -8.9627901    223.56876 0.0096532278 0.0079256498            2 
 1931000   0.48526805   -8.9586526    223.56558 0.0096480917 0.0079188089            4 
 1932000   0.47221359   -8.9700293    223.86146 0.0096558602  0.007911977            4 
 1933000   0.47115611   -8.9792317    223.86569  0.009651047 0.0079051511            2 
 1934000   0.49305329   -8.9529033    223.46656 0.0096288588 0.0078983375            4 
 1935000   0.48107603   -8.9592003    223.66737  0.009632531 0.0078915305            2 
 1936000   0.48193744   -8.9703871    223.27875 0.0096108277 0.0078847293            4 
 1937000    0.4709961   -8.9699278    223.77346 0.0096271493 0.0078779369            2 
 1938000   0.48374632   -8.9690042    223.26695  0.009600402   0.00787115            2 
 1939000   0.47666156   -8.9620631    223.43634 0.0096027307 0.0078643708            2 
 1940000   0.47324802   -8.9809633    223.43987 0.0095979325 0.0078575962            3 
 1941000    0.4649151   -8.9718554    223.82073 0.0096093391 0.0078508277            2 
 1942000   0.47265924   -8.9719153    223.24012 0.0095794765 0.0078440678            3 
 1943000   0.48065599   -8.9553277    223.70165 0.0095943409 0.0078373142            3 
 1944000   0.47412141   -8.9584307    223.64901  0.009587149  0.007830569            3 
 1945000   0.48230346   -8.9667281    223.73683 0.0095859824 0.0078238373            3 
 1946000   0.46872278   -8.9771884    223.77655 0.0095827574 0.0078171133            2 
 1947000   0.48593983   -8.9812951    223.46272 0.0095644034 0.0078103902            3 
 1948000   0.48038152   -8.9772674    223.22337 0.0095492544 0.0078036766            2 
 1949000   0.47454723    -8.967448    223.43078 0.0095532232 0.0077969748            3 
 1950000   0.48258467   -8.9913434    223.45683 0.0095494372 0.0077902779            3 
 1951000   0.47151438    -8.974917    223.78099 0.0095583886 0.0077835875            4 
 1952000     0.479875   -8.9676716    223.54144 0.0095432651 0.0077769084            2 
 1953000   0.46987047   -8.9590681    223.71445  0.009545761 0.0077702409            2 
 1954000   0.46969461    -8.985327    223.28181 0.0095224244  0.007763572            2 
 1955000   0.47992595   -8.9881111    223.43125 0.0095239238 0.0077569084            3 
 1956000   0.47172557   -8.9767832    223.36806 0.0095163626  0.007750249            4 
 1957000   0.46818046   -8.9914844    223.43446 0.0095143272 0.0077436013            3 
 1958000   0.46359754   -8.9656614    223.55127 0.0095144396 0.0077369568            4 
 1959000   0.46962034   -9.0046551    223.31411 0.0094994944 0.0077303173            3 
 1960000   0.46970012   -8.9938404    223.36579 0.0094968449 0.0077236853            2 
 1961000   0.46776236   -8.9733587    223.44215 0.0094952469 0.0077170646            2 
 1962000   0.47127658   -8.9845242    223.51282 0.0094934088 0.0077104492            3 
 1963000    0.4777906    -8.993911    223.13103 0.0094723648 0.0077038457            3 
 1964000   0.46484724   -8.9948914      223.331  0.009476027 0.0076972436            3 
 1965000   0.45867767   -8.9844963    223.42951  0.009475382 0.0076906482            4 
 1966000   0.46502391   -8.9817226     223.8103 0.0094867029 0.0076840567            3 
 1967000    0.4684384    -8.994636    223.41631 0.0094651886 0.0076774833            3 
 1968000   0.46595308   -9.0012524    223.50181 0.0094639994 0.0076709107            3 
 1969000   0.46632859   -8.9858156    223.24362 0.0094482656 0.0076643515            2 
 1970000   0.47144412   -8.9824713     223.2741  0.009444759 0.0076577891            3 
 1971000   0.46594242   -8.9981357    223.80016 0.0094622086 0.0076512432            2 
 1972000   0.46788275   -8.9977863     223.6116 0.0094494421 0.0076446968            3 
 1973000   0.46683594   -9.0063869    223.20937 0.0094276637 0.0076381583            2 
 1974000   0.47085672   -9.0004333    223.08421 0.0094176042 0.0076316237            3 
 1975000   0.47422245   -8.9885596     223.3249 0.0094229917 0.0076250992            3 
 1976000   0.47015494   -8.9845074     223.4021 0.0094214784  0.007618587            2 
 1977000   0.46464507   -8.9692504    223.17107 0.0094069746 0.0076120771            2 
 1978000   0.47488969   -9.0095978    223.35543  0.009409986 0.0076055725            1 
 1979000    0.4632381   -9.0024746    223.27848 0.0094019908 0.0075990771            2 
 1980000   0.46901217   -8.9919119    223.29292 0.0093978502 0.0075925909            2 
 1981000   0.45640024   -8.9995309     223.0529 0.0093830094 0.0075861119            5 
 1982000   0.46279297   -8.9952845     223.2946 0.0093884375 0.0075796381            3 
 1983000   0.46450541   -9.0176664    223.32173 0.0093848433 0.0075731693            2 
 1984000   0.46114355   -9.0018008    223.38333 0.0093827005 0.0075667096            3 
 1985000   0.47477072   -8.9954281    223.84024 0.0093971553 0.0075602635            2 
 1986000   0.45901843   -8.9909399    223.32918 0.0093709794 0.0075538255            3 
 1987000     0.464194   -9.0057627    223.17565 0.0093598243 0.0075473954            2 
 1988000   0.46655205   -9.0025938    223.39946 0.0093644978 0.0075409669            3 
 1989000   0.46210566   -8.9894669    223.19286 0.0093511336 0.0075345463            3 
 1990000    0.4600952   -9.0040808    223.27629 0.0093499284 0.0075281301            2 
 1991000   0.45936409   -9.0108148    223.34749 0.0093482122  0.007521728            3 
 1992000   0.45998963   -9.0072419    223.47144 0.0093487048 0.0075153312            2 
 1993000   0.45744446   -9.0065859    223.03134  0.009325612 0.0075089408            2 
 1994000   0.46680128   -8.9963517    223.34806 0.0093341715 0.0075025549            4 
 1995000   0.44950308   -8.9899504    223.20477 0.0093235077  0.007496181            3 
 1996000   0.45452225   -9.0036734    223.07008 0.0093132131  0.007489813            2 
 1997000     0.451338   -9.0046933    223.10835 0.0093101463 0.0074834473            5 
 1998000   0.44639435   -9.0017982    223.27259 0.0093123369 0.0074770893            2 
 1999000   0.46535588   -9.0123304    223.23309 0.0093060319 0.0074707345            3 
 2000000   0.45387775   -9.0098662    222.99182 0.0092913257 0.0074643906            2 
 2001000    0.4529076   -8.9884641    223.22829 0.0092965304 0.0074580538            3 
 2002000   0.44988026   -9.0050722    223.38852 0.0092985565 0.0074517173            3 
 2003000   0.44779929   -9.0174447    223.25905 0.0092885275 0.0074453892            6 
 2004000   0.45711819   -9.0210505    223.09189 0.0092769414 0.0074390742            3 
 2005000   0.45173114   -9.0098014     223.0647 0.0092711847 0.0074327605            3 
 2006000   0.45427463   -9.0054407    222.92828 0.0092608957 0.0074264542            3 
 2007000    0.4522671   -9.0029178    223.57759 0.0092832416  0.007420159            2 
 2008000   0.44999012   -9.0010935    223.04229 0.0092564029 0.0074138643            3 
 2009000   0.44617859   -9.0019585    223.18368 0.0092576604 0.0074075822            5 
 2010000   0.44896402    -9.013299     223.2006 0.0092537563 0.0074013063            6 
 2011000   0.45757117   -9.0115495    223.06681 0.0092436104 0.0073950404            3 
 2012000   0.45169019   -9.0169389    223.17685  0.009243574 0.0073887798            3 
Loop time of 4945.02 on 48 procs for 2000000 steps with 4000 atoms

Performance: 69888.437 tau/day, 404.447 timesteps/s
99.4% CPU use with 48 MPI tasks x no OpenMP threads

MPI task timing breakdown:
Section |  min time  |  avg time  |  max time  |%varavg| %total
---------------------------------------------------------------
Pair    | 326.67     | 348.12     | 372.97     |  62.1 |  7.04
Neigh   | 32.664     | 34.19      | 35.813     |  13.5 |  0.69
Comm    | 315.07     | 338.95     | 364.23     |  63.7 |  6.85
Output  | 4.2888     | 4.2908     | 4.3288     |   0.3 |  0.09
Modify  | 4161       | 4173.1     | 4188.5     |  10.1 | 84.39
Other   |            | 46.4       |            |       |  0.94

Nlocal:        83.3333 ave          90 max          77 min
Histogram: 5 2 3 7 7 5 11 5 2 1
Nghost:        2197.54 ave        2215 max        2178 min
Histogram: 2 2 8 6 4 4 5 11 2 4
Neighs:        14593.6 ave       16392 max       12662 min
Histogram: 1 1 3 8 10 7 10 5 2 1
FullNghs:      29186.9 ave       31457 max       26531 min
Histogram: 4 1 3 3 8 9 7 7 4 2

Total # of neighbors = 1400969
Ave neighs/atom = 350.24225
Neighbor list builds = 106837
Dangerous builds = 0

#clear
#
#next RN
#
#jump SELF
Total wall time: 1:22:28
