
units lj                  # Use reduced LJ style units
atom_style atomic         # Uncharged point particles
atom_modify map hash      # Needed for indexing of clusters etc
                          # Used to be able to find where atoms are in relation to each other.

lattice fcc 1.0 spacing 1 1 1
Lattice spacing in x,y,z = 1.5874011 1.5874011 1.5874011
region box block 0 10 0 10 0 10 units lattice
create_box 2 box
Created orthogonal box = (0.0000000 0.0000000 0.0000000) to (15.874011 15.874011 15.874011)
  3 by 4 by 4 MPI processor grid
create_atoms 1 box
Created 4000 atoms
  using lattice units in orthogonal box = (0.0000000 0.0000000 0.0000000) to (15.874011 15.874011 15.874011)
  create_atoms CPU = 0.026 seconds
set type 1 type/fraction 2 0.28 78393
Setting atom values ...
  1153 settings made for type/fraction
mass 1 1.0
mass 2 1.0
pair_style lj/cut  3.5
pair_modify tail  yes
pair_coeff 1  1  1.0  1.0   # Intearaction between 1 and 1 set with epsilon = 1 and sigma = 1
pair_coeff 1  2  1.5  0.8
pair_coeff 2  2  0.5  0.88

write_data data.0
System init for write_data ...
Neighbor list info ...
  update every 1 steps, delay 10 steps, check yes
  max neighbors/atom: 2000, page size: 100000
  master list distance cutoff = 3.8
  ghost atom cutoff = 3.8
  binsize = 1.9, bins = 9 9 9
  1 neighbor lists, perpetual/occasional/extra = 1 0 0
  (1) pair lj/cut, perpetual
      attributes: half, newton on
      pair build: half/bin/atomonly/newton
      stencil: half/bin/3d
      bin: standard
WARNING: Not all mixed pair coeffs generated from mixing. Use write_data with 'pair ij' option to store all pair coeffs. (../write_data.cpp:312)


#############################
#   M E L T   S Y S T E M   #
#############################

velocity all create 2.4 9580093 mom yes dist gaussian # Assign velocities
                                                    # Temperature 2.4, random number seed, zero linear momentum
                                                                                # Gaussian distribution

timestep 0.002   # simulation timestep
thermo 1000       # output thermodynamic data every 1000 steps bf 100

# Define a fix  in this case with index 1 applied to all
# particles in the simulation. This fix is for simulations
# in the anisotropic NPT ensemble. Note that we use the MTK
# correction.
fix 1 all npt temp 2.4 2.4 0.1 iso 5.68 5.68 0.5 mtk yes tchain 5 pchain 5 # Use NPT ensemble
                                                                         # Set temperature and pressure and damping
                                                                         # Numbers of thermostats in chain and in barostat
run 10000          # run for 10000 steps
Per MPI rank memory allocation (min/avg/max) = 3.642 | 3.644 | 3.648 Mbytes
Step Temp E_pair E_mol TotEng Press Volume 
       0          2.4   -6.5468678            0   -2.9477678   -3.9245899         4000 
    1000    2.3932363   -4.9158114            0   -1.3268545    5.9591553    4215.0792 
    2000     2.409981   -4.9565187            0   -1.3424509    5.7484347    4198.1614 
    3000    2.5033817   -4.9547082            0   -1.2005744    5.6578379    4233.6313 
    4000    2.4150411   -4.9896704            0   -1.3680144     5.700349    4195.2868 
    5000    2.4358994   -4.9324781            0   -1.2795425    5.4766755    4246.6562 
    6000    2.3834607    -4.965921            0   -1.3916237    5.6180903    4208.6282 
    7000    2.4386372   -4.9413954            0   -1.2843541    6.0137498    4196.6062 
    8000     2.341006   -4.9400706            0   -1.4294395    5.7898483    4207.5845 
    9000    2.3611598   -5.0047312            0    -1.463877    5.6715213    4184.9846 
   10000    2.4880232   -4.9179985            0   -1.1868967     5.788957    4237.0247 
Loop time of 2.41361 on 48 procs for 10000 steps with 4000 atoms

Performance: 715941.206 tau/day, 4143.178 timesteps/s
99.6% CPU use with 48 MPI tasks x no OpenMP threads

MPI task timing breakdown:
Section |  min time  |  avg time  |  max time  |%varavg| %total
---------------------------------------------------------------
Pair    | 1.0262     | 1.0973     | 1.2475     |   3.3 | 45.46
Neigh   | 0.20265    | 0.209      | 0.23165    |   1.1 |  8.66
Comm    | 0.71643    | 0.83916    | 0.94282    |   5.7 | 34.77
Output  | 0.00024052 | 0.00024515 | 0.00031154 |   0.0 |  0.01
Modify  | 0.19814    | 0.25282    | 0.29857    |   6.7 | 10.47
Other   |            | 0.01505    |            |       |  0.62

Nlocal:        83.3333 ave          94 max          71 min
Histogram: 1 0 4 6 10 7 14 2 3 1
Nghost:        1577.23 ave        1601 max        1545 min
Histogram: 1 1 1 8 5 10 7 7 6 2
Neighs:        8993.04 ave       10397 max        7293 min
Histogram: 1 0 0 7 10 14 7 5 3 1

Total # of neighbors = 431666
Ave neighs/atom = 107.91650
Neighbor list builds = 902
Dangerous builds = 169

# Equilibrate just above the melting temperature to avoid step fn in T

fix 1 all npt temp 1.25 1.25 0.1 iso 5.68 5.68 0.5 mtk yes tchain 5 pchain 5
run 2000
Per MPI rank memory allocation (min/avg/max) = 3.643 | 3.645 | 3.649 Mbytes
Step Temp E_pair E_mol TotEng Press Volume 
   10000    2.4880232   -4.9179985            0   -1.1868967     5.788957    4237.0247 
   11000    1.2309479   -6.7714413            0    -4.925481    5.9650403    3394.0576 
   12000    1.2553227   -6.8276277            0   -4.9451145    5.9018263    3379.7367 
Loop time of 0.569458 on 48 procs for 2000 steps with 4000 atoms

Performance: 606892.725 tau/day, 3512.111 timesteps/s
99.6% CPU use with 48 MPI tasks x no OpenMP threads

MPI task timing breakdown:
Section |  min time  |  avg time  |  max time  |%varavg| %total
---------------------------------------------------------------
Pair    | 0.24702    | 0.2667     | 0.31232    |   2.0 | 46.83
Neigh   | 0.036584   | 0.039082   | 0.045159   |   0.6 |  6.86
Comm    | 0.16781    | 0.21128    | 0.23744    |   2.5 | 37.10
Output  | 4.9691e-05 | 5.134e-05  | 6.7954e-05 |   0.0 |  0.01
Modify  | 0.038797   | 0.047726   | 0.056805   |   2.0 |  8.38
Other   |            | 0.00462    |            |       |  0.81

Nlocal:        83.3333 ave          90 max          69 min
Histogram: 1 0 2 0 4 6 8 14 7 6
Nghost:        1835.42 ave        1856 max        1808 min
Histogram: 1 2 3 5 9 6 6 7 6 3
Neighs:        11293.8 ave       12190 max        9486 min
Histogram: 3 0 0 3 2 8 11 3 9 9

Total # of neighbors = 542104
Ave neighs/atom = 135.52600
Neighbor list builds = 143
Dangerous builds = 9

#############################
# L I N E A R  Q U E N C H  #
#############################

# Define solid atoms. This closely follows ten Wolde  Ruiz-Montero and Frenkel  Faraday Discuss  1996  104  93-110
# Compute components of the per-atom q6 vector
compute q6 all orientorder/atom degrees 1 6 components 6 nnn NULL cutoff 1.3 # compute the Q6 parameter.
                                                                             # Use all neighbours within 1.3 unit cell.

# get number of connections
compute coord_number all coord/atom orientorder q6 0.5

# An atom is solid if it has 8 or more connections (of a possible 14)
variable is_solid atom c_coord_number>=8
group solid dynamic all var is_solid    # Must be dynamic to update
dynamic group solid defined

# do clustering
compute cluster solid cluster/atom 1.3 # Create a cluster where all atoms within are solid and max 1.3 units from another member

# define chunks one chunk per cluster
compute clus_chunks solid chunk/atom c_cluster nchunk every compress yes  # Says which atoms are in which chunk

# count the size of each chunk
compute size_chunks solid property/chunk clus_chunks count


# Find the maximum entry in the vector of chunk sizes
variable max_n equal max(c_size_chunks)


# Thermo style which includes this variable
# thermo_style custom step temp pe vol v_max_n

thermo ${N}  # Print the thermo information every 100 steps
thermo 1000  

# Reset the npt fix at a lower temperature (below freezing)
fix 1  all npt temp  ${temp} ${temp}  0.1  iso  5.68  5.68  0.5  mtk yes tchain  5  pchain  5
fix 1  all npt temp  0.45 ${temp}  0.1  iso  5.68  5.68  0.5  mtk yes tchain  5  pchain  5
fix 1  all npt temp  0.45 0.45  0.1  iso  5.68  5.68  0.5  mtk yes tchain  5  pchain  5

dump dmp2 all dcd ${N} traj.dcd
dump dmp2 all dcd 1000 traj.dcd


compute msd all msd com yes
variable twopoint equal c_msd[4]/6/(step*dt+1.0e-6)
fix 9 all vector 10 c_msd[4]
variable fit equal slope(f_9)/6/(10*dt)
thermo_style custom step temp pe c_msd[4] v_twopoint v_fit v_max_n

fix 1 all npt temp 1.25 ${temp} 0.1 iso 5.68 5.68 0.5 mtk yes tchain 5 pchain 5
fix 1 all npt temp 1.25 0.45 0.1 iso 5.68 5.68 0.5 mtk yes tchain 5 pchain 5
run 2000000 # 5000000  # Run for this many steps
Neighbor list info ...
  update every 1 steps, delay 10 steps, check yes
  max neighbors/atom: 2000, page size: 100000
  master list distance cutoff = 3.8
  ghost atom cutoff = 3.8
  binsize = 1.9, bins = 8 8 8
  4 neighbor lists, perpetual/occasional/extra = 1 3 0
  (1) pair lj/cut, perpetual
      attributes: half, newton on
      pair build: half/bin/atomonly/newton
      stencil: half/bin/3d
      bin: standard
  (2) compute orientorder/atom, occasional
      attributes: full, newton on
      pair build: full/bin/atomonly
      stencil: full/bin/3d
      bin: standard
  (3) compute coord/atom, occasional
      attributes: full, newton on
      pair build: full/bin/atomonly
      stencil: full/bin/3d
      bin: standard
  (4) compute cluster/atom, occasional
      attributes: full, newton on
      pair build: full/bin/atomonly
      stencil: full/bin/3d
      bin: standard
Per MPI rank memory allocation (min/avg/max) = 9.808 | 9.813 | 9.817 Mbytes
Step Temp PotEng c_msd[4] v_twopoint v_fit v_max_n 
   12000    1.2553227   -6.8276277 9.8548449e-31 6.843642e-33 8.3333333e+20            1 
   13000    1.2560802   -6.7996196      0.50558 0.0032408973  0.040976723            1 
   14000    1.2275218    -6.825082    1.0010781 0.0059587982  0.041806345            2 
   15000    1.2435391   -6.8019557    1.4629751  0.008127639  0.040181067            2 
   16000    1.2588558   -6.8155698    1.8945725 0.0098675648  0.039041999            1 
   17000    1.2413086   -6.8089206    2.4271929  0.011898004  0.039212568            2 
   18000    1.2475881   -6.8215739    2.9545432   0.01367844  0.039994413            1 
   19000    1.2512182   -6.8646413    3.4141267   0.01497424  0.040756085            1 
   20000    1.2408107   -6.7830223    3.9476038  0.016448349  0.040889873            1 
   21000    1.2232374   -6.8168543    4.3731941  0.017353945  0.040866326            1 
   22000    1.2544192   -6.8537628    4.8547975  0.018389384  0.040619008            1 
   23000    1.2261851   -6.8437653    5.3571944  0.019410124  0.040598677            2 
   24000     1.234989   -6.8006966    5.7868347  0.020093176  0.040412339            2 
   25000    1.2561189   -6.8362022    6.3303938  0.021101312  0.040407009            2 
   26000    1.2536237   -6.8545075    6.8640834  0.022000267  0.040522001            3 
   27000    1.2438578   -6.8233204     7.372981  0.022756114  0.040672188            2 
   28000    1.2475456   -6.8377729    7.8143567  0.023257013  0.040681862            2 
   29000    1.2555886   -6.8389598     8.331348  0.023940655  0.040682534            2 
   30000    1.2471228   -6.8491568      8.76147  0.024337416  0.040617286            2 
   31000    1.2561758   -6.8900776    9.1253729  0.024530572  0.040504451            1 
   32000    1.2414006   -6.8635027    9.6278726  0.025072584  0.040388893            1 
   33000    1.2479831   -6.8314251    10.106938  0.025522569  0.040289482            3 
   34000    1.2207145   -6.7598525    10.534129  0.025818944  0.040134424            3 
   35000    1.2443478   -6.8754112    10.861321  0.025860288  0.039928455            1 
   36000    1.2391213   -6.7997392    11.330551  0.026228128  0.039743818            1 
   37000    1.2433455   -6.8303301    11.786609  0.026546416   0.03958458            2 
   38000    1.2439857   -6.8683947    12.290849  0.026953615  0.039484457            2 
   39000    1.2420754   -6.8604922    12.791842  0.027332996  0.039406589            1 
   40000    1.2449444   -6.8293242    13.245154  0.027594071  0.039342309            1 
   41000    1.2418554   -6.8432391    13.867248  0.028185463  0.039328329            1 
   42000    1.2222021   -6.8597066    14.247792  0.028269429  0.039318144            1 
   43000    1.2308776   -6.8774733    14.600484  0.028295511  0.039289001            1 
   44000     1.250446   -6.8763495    15.075552  0.028552182   0.03923158            3 
   45000    1.2551928   -6.9264766    15.544261  0.028785668  0.039187153            3 
   46000    1.2295566    -6.810149     15.98638  0.028960834  0.039117912            4 
   47000    1.2223612   -6.8593798    16.562828  0.029366717  0.039070944            2 
   48000    1.2270948   -6.8767564    17.037021  0.029578161  0.039052871            1 
   49000    1.2537155   -6.8452655    17.432496  0.029647102  0.039046664            1 
   50000     1.213029   -6.8290244    17.896439  0.029827398  0.039022321            2 
   51000    1.2321938   -6.8704213    18.262183  0.029840168  0.038976231            2 
   52000    1.2376532   -6.8514648    18.817683  0.030156543  0.038941269            1 
   53000    1.2621091   -6.8988539    19.172201   0.03014497   0.03890223            4 
   54000    1.2164296   -6.8294704    19.710425  0.030417323  0.038864347            1 
   55000    1.2075873   -6.8431602    20.197834  0.030602779  0.038832299            2 
   56000    1.2443904   -6.9311553    20.511732   0.03052341  0.038812164            3 
   57000    1.2289198   -6.8455423    21.117389  0.030873376  0.038789394            2 
   58000    1.2468195    -6.858153    21.533183  0.030938481   0.03877899            3 
   59000    1.2300978   -6.8936511    22.019633  0.031101177  0.038764779            1 
   60000    1.2299701   -6.8823063    22.366386  0.031064425  0.038745695            2 
   61000     1.197296   -6.8327907    22.914914  0.031304527   0.03871447            1 
   62000    1.2323274   -6.8556537    23.121791  0.031077675  0.038673957            4 
   63000    1.2118671   -6.8858789    23.678553  0.031320837  0.038633228            2 
   64000    1.2336672   -6.8555609    23.981603  0.031226045  0.038587569            3 
   65000    1.2335055   -6.8200653    24.590757  0.031526612  0.038548517            1 
   66000    1.2328269   -6.8897368    24.990884  0.031554146  0.038511499            1 
   67000    1.2531168    -6.876194    25.588589  0.031826603  0.038484179            1 
   68000    1.2231361   -6.8651281    26.097288   0.03198197  0.038476972            2 
   69000    1.2231808   -6.8914473    26.480676  0.031981492  0.038462745            1 
   70000    1.2305944   -6.9055237    27.074588  0.032231652  0.038461046            3 
   71000    1.1936591   -6.9073999    27.409917  0.032171263  0.038449637            2 
   72000    1.2378905   -6.8711372    28.106952  0.032531195  0.038448782            2 
   73000    1.2364186   -6.9266084    28.635469  0.032688891  0.038470479            1 
   74000    1.2521291    -6.862667    29.174392  0.032854045   0.03848721            2 
   75000    1.2342976   -6.8494846    29.576506  0.032862785  0.038510198            1 
   76000    1.2074004   -6.8565506     29.85715  0.032738103  0.038530964            2 
   77000    1.2143162   -6.9014374    30.205633  0.032690079  0.038527016            1 
   78000    1.2517813   -6.9100881    30.651048  0.032746846  0.038517113            2 
   79000    1.2236557   -6.8817392    31.144167  0.032852496  0.038507935            1 
   80000    1.2214419   -6.8755119    31.612243   0.03292942  0.038495408            1 
   81000    1.1793424   -6.8634534    32.262912  0.033192296  0.038483928            3 
   82000     1.213673   -6.8719099    32.490478  0.033018778  0.038476253            1 
   83000    1.2322724    -6.849505    33.136144  0.033269221  0.038470542            2 
   84000    1.2192345   -6.9023931    33.309791  0.033045428  0.038465704            6 
   85000    1.2309235   -6.8547196    33.776521  0.033114236  0.038448451            1 
   86000    1.2431504   -6.8778913    34.207383  0.033146689  0.038436197            1 
   87000     1.209227   -6.8937243    34.711356  0.033248425  0.038414134            1 
   88000    1.2286288   -6.8713156    35.157443  0.033293033  0.038399216            1 
   89000    1.2202644   -6.9003859    35.646527  0.033376897  0.038384997            1 
   90000    1.2046095   -6.9359815    36.038212  0.033368715  0.038367826            2 
   91000    1.1884667   -6.8586401    36.407052  0.033339791  0.038349122            3 
   92000    1.2111873   -6.8668228    37.126324  0.033628917  0.038340059            1 
   93000    1.2249084   -6.8973085    37.434416  0.033543384  0.038326674            2 
   94000    1.2133391   -6.8556799    37.908845  0.033607132  0.038309538            1 
   95000    1.2037237   -6.8827129     38.23279  0.033537535  0.038291406            1 
   96000    1.2404713   -6.8858347    38.784151  0.033666798  0.038271816            1 
   97000    1.2054234   -6.9117324    39.386192  0.033836935  0.038258864            1 
   98000    1.2108207   -6.8795085    39.611816  0.033683517  0.038251993            1 
   99000    1.2163466   -6.8875394    40.241892  0.033873646  0.038243284            2 
  100000    1.1923337   -6.8863488    40.652259  0.033876882  0.038238642            2 
  101000    1.2265059   -6.9350742    41.078061   0.03389279  0.038230888            1 
  102000    1.2067791   -6.9179583    41.474146  0.033884106  0.038220685            2 
  103000    1.2064729   -6.9025549    41.658662  0.033704419    0.0382037            1 
  104000    1.2081325   -6.9045483    42.144606  0.033769717  0.038182017            2 
  105000    1.2358446   -6.9036906     42.47785  0.033712579  0.038155222            2 
  106000    1.2236639   -6.9029387    42.733868  0.033595808  0.038118447            1 
  107000    1.1825316   -6.8732731    42.964286  0.033461282  0.038073154            1 
  108000    1.2628306   -6.9363707    43.430753  0.033511383  0.038030593            2 
  109000    1.2218866   -6.8878033    44.301584  0.033869712  0.038001152            1 
  110000    1.1958574   -6.9190427    44.477789  0.033695294  0.037974464            2 
  111000    1.1804219   -6.9122582    44.997618  0.033781996  0.037948091            1 
  112000    1.2179294   -6.9168037    45.366455  0.033754802  0.037918043            1 
  113000    1.1821993   -6.8881245     45.99858  0.033922257  0.037894956            2 
  114000    1.2167475   -6.9416159    46.443322  0.033949797  0.037876273            1 
  115000    1.2151074   -6.9079766    46.829736  0.033934591  0.037859666            1 
  116000    1.2328464    -6.899869    47.375177  0.034033891  0.037840529            1 
  117000    1.1875009   -6.9567694    47.715696  0.033985538   0.03782479            2 
  118000    1.2255852   -6.8658818    48.287209  0.034101136  0.037807117            1 
  119000    1.2166936   -6.9000763    48.804993  0.034177166  0.037794282            2 
  120000    1.2529327   -6.9387459    49.205233    0.0341703  0.037781864            1 
  121000    1.2322718    -6.900274    49.314984  0.033963487   0.03776696            2 
  122000    1.1816621   -6.9254622    49.715532  0.033958697  0.037743842            1 
  123000    1.1750215   -6.9101911    50.391936  0.034140878  0.037721786            1 
  124000    1.1919331   -6.8642743    50.955933  0.034244579  0.037704546            2 
  125000    1.2342325    -6.889326     51.34478  0.034229853  0.037691518            1 
  126000    1.2005025   -6.9060797    51.730893  0.034213553  0.037680451            2 
  127000    1.1936091   -6.9007086    52.313831   0.03432666  0.037667186            3 
  128000    1.1845596   -6.8728614    53.013641  0.034514089  0.037659744            1 
  129000     1.205466   -6.8849936    53.229748  0.034386142  0.037652553            3 
  130000     1.197874   -6.9201723    53.699111  0.034422507  0.037642996            2 
  131000    1.1949198   -6.9139881    53.927885   0.03430527  0.037633853            2 
  132000    1.2109148   -6.9051162    54.370951  0.034325095  0.037619207            2 
  133000    1.2070668   -6.9395087    54.638819  0.034234849  0.037606173            2 
  134000    1.1976878   -6.8786965    55.210873   0.03433512  0.037589714            1 
  135000    1.2024768   -6.9237851    55.621087  0.034334004  0.037572038            1 
  136000    1.1780754   -6.9287083    55.966131  0.034292972  0.037555384            1 
  137000    1.2053277   -6.9100503    56.561157  0.034404597  0.037540101            2 
  138000    1.1942566   -6.8982591    56.624683  0.034193649  0.037523479            1 
  139000      1.20208   -6.9135627    56.910396  0.034118942  0.037499457            1 
  140000    1.1996407   -6.9348442    57.456196  0.034200117  0.037473156            2 
  141000    1.1858826   -6.9289743    57.969875  0.034261156  0.037449325            1 
  142000     1.194026   -6.9281811    58.482194  0.034320536  0.037426936            2 
  143000    1.2009759   -6.9362615     58.91405  0.034332197  0.037407535            3 
  144000    1.1843677   -6.9040293    59.537964   0.03445484  0.037389321            2 
  145000    1.2006175   -6.9748417    59.537375  0.034216882  0.037369151            1 
  146000    1.1927358   -6.9408704    60.015029  0.034255153  0.037347727            2 
  147000    1.1831761   -6.9121025     60.32076  0.034195442  0.037325967            1 
  148000    1.1958181   -6.9029499    60.541428  0.034088642  0.037297995            2 
  149000     1.194933   -6.9573932    61.121591  0.034184335  0.037273304            1 
  150000    1.1827591   -6.9242503    61.465183  0.034147324  0.037247681            2 
  151000     1.197284   -6.9344249    61.962594  0.034195692  0.037219736            1 
  152000    1.1939664    -6.971555    62.107352  0.034050083  0.037189664            2 
  153000    1.1774878   -6.9725968    62.708284  0.034154838  0.037162527            1 
  154000    1.2088374   -6.9343502    63.052612  0.034119379  0.037133266            2 
  155000    1.1958691   -6.9854524    63.141979  0.033947301  0.037103538            1 
  156000    1.1845897   -6.9618767    63.399049  0.033867013  0.037070323            2 
  157000    1.1886252   -6.9439841    63.987485  0.033963633  0.037037222            1 
  158000    1.2017326     -6.98015     64.10837  0.033812431  0.037004746            3 
  159000    1.1928082   -6.9224152    64.947984  0.034039824   0.03697321            2 
  160000    1.1958467   -6.9772373    65.285212  0.034002714  0.036942088            1 
  161000    1.2048133   -6.9661354     65.84301  0.034080233   0.03691236            1 
  162000     1.194027   -6.9398024    66.176387  0.034041351  0.036884568       -1e+20 
  163000    1.2048723   -6.9312365    66.443112  0.033968871  0.036854793       -1e+20 
  164000    1.2107738   -6.9344294    66.980334  0.034034722  0.036827296            1 
  165000    1.1970839     -6.93772    67.578487  0.034130549  0.036804069            2 
  166000    1.1990022   -6.9436873    68.320062   0.03429722  0.036785959            3 
  167000    1.1884389   -6.9352599    68.543856  0.034203521  0.036768954            1 
  168000     1.162382   -6.9629804    68.766619  0.034110426  0.036751429            2 
  169000    1.1960539   -6.9553677    69.529421  0.034284724  0.036733192            1 
  170000    1.1770843   -6.9420042    69.509726  0.034073395  0.036714362            2 
  171000    1.1871594   -6.9553409    70.165016  0.034193478   0.03669698            1 
  172000    1.1944057   -6.9272756    70.476189   0.03414544  0.036674898            1 
  173000    1.1709448   -6.9315227    70.630334  0.034022319  0.036653836            1 
  174000    1.1652252   -6.9099917    71.157668  0.034079343  0.036630125            2 
  175000    1.1929342   -6.9554865    71.547002  0.034070001  0.036604283            1 
  176000    1.1902479   -6.9843351    71.907291  0.034047013  0.036580987            1 
  177000    1.1833317   -6.9602823    72.507974  0.034137464   0.03656125            2 
  178000    1.1983677   -6.9550643     72.73942  0.034054036  0.036541348            1 
  179000    1.1966475   -6.9448854    73.172581  0.034065447  0.036518837            2 
  180000    1.2053011   -6.9800445    73.424739  0.033992934   0.03649497            1 
  181000    1.1600602   -6.9853577    73.845012  0.033998624  0.036470889            1 
  182000    1.1793189   -6.9521179     74.16512  0.033958388  0.036444976            1 
  183000    1.1578781   -6.9484736    74.614701  0.033977551  0.036420199            1 
  184000    1.1822204   -6.9793122    75.133685  0.034027937  0.036398068            1 
  185000     1.175105   -6.9905642    75.598786  0.034053507  0.036374081            1 
  186000    1.1834618    -6.992243    75.808507  0.033964385   0.03635324            2 
  187000    1.1983725   -6.9733846    76.587764  0.034130019  0.036332597            2 
  188000    1.1884004   -6.9501631    76.612576  0.033959475  0.036312086            2 
  189000    1.1856505   -6.9200868    77.178463  0.034029304   0.03628933            2 
  190000    1.1782991   -6.9571304    77.709159  0.034082965  0.036267628            2 
  191000    1.1855523   -6.9409168    78.242883  0.034137383  0.036248957            2 
  192000    1.1672188   -6.9810293    78.470306  0.034058292  0.036229972            1 
  193000    1.1770322   -7.0048215    78.887931  0.034062146  0.036208493            1 
  194000    1.1734316   -6.9801276    78.974156  0.033923607  0.036186762            3 
  195000    1.1888661   -6.9628867    79.901987  0.034146148  0.036168158            1 
  196000    1.1893104   -6.9550107    80.129731  0.034068763  0.036148966            1 
  197000    1.1554365    -6.955073    80.202347  0.033926543  0.036127671            2 
  198000    1.1628783   -6.9642087    80.663178  0.033949149  0.036106723            2 
  199000    1.1883275   -6.9503663    81.374374  0.034076371  0.036088193            1 
  200000    1.1611691   -6.9555439    81.605546  0.034002311  0.036071696            1 
  201000     1.172354   -6.9520689    82.158997  0.034062602   0.03605436            2 
  202000    1.1761655   -6.9241462    82.866865  0.034186001  0.036040642            1 
  203000    1.1752459   -6.9698931    83.125994  0.034123971  0.036026356            1 
  204000    1.1861064   -6.9525475    83.632889  0.034163762  0.036013954            4 
  205000    1.2108586   -6.9246322    84.012276  0.034151332   0.03600131            1 
  206000    1.1542468   -6.9876643     83.82607  0.033910222  0.035983699            2 
  207000    1.1780707   -7.0058325    84.688468  0.034093586  0.035965572            2 
  208000    1.1861236   -6.9942997     85.13424  0.034108269  0.035948859            2 
  209000    1.1732094   -6.9589829    85.755144  0.034192641  0.035934371            2 
  210000    1.1709659   -7.0037751    85.721736  0.034016562  0.035919645            1 
  211000    1.1814589   -7.0277572    86.096058  0.034003182  0.035903473            3 
  212000    1.1953224   -6.9539568    86.755116  0.034101854  0.035888239            2 
  213000    1.1576795   -6.9830889    86.765749  0.033945911  0.035872517            2 
  214000    1.1692219   -6.9481776    87.652621   0.03413264  0.035855793            1 
  215000    1.1788391   -6.9878382    87.973517  0.034098262  0.035842398            1 
  216000    1.1722719   -6.9908919    88.356253   0.03408806  0.035829842            1 
  217000    1.1566573   -6.9907577    88.978642  0.034169985  0.035815809            1 
  218000    1.1695017   -6.9647142    88.868163   0.03397101  0.035801843            2 
  219000    1.1577686   -6.9734413    89.609993  0.034098171  0.035786161            1 
  220000    1.1562945   -7.0040982    89.583456  0.033933127  0.035770916            2 
  221000    1.1692947   -6.9845522    90.074413  0.033964711  0.035754813            1 
  222000    1.1641382   -6.9812604    90.634348  0.034021902  0.035737903            2 
  223000    1.1615309   -7.0053315    90.885497   0.03396319  0.035722734            2 
  224000    1.1796903   -7.0231699    91.547327  0.034057785  0.035708917            5 
  225000    1.1636745   -6.9977036    91.569523  0.033914638   0.03569561            2 
  226000    1.1687257   -6.9855022    92.197731  0.033996214  0.035680001            1 
  227000    1.1464098   -6.9355781    92.731773  0.034042501   0.03566509            2 
  228000    1.1592563   -6.9928051    92.724617  0.033890576  0.035648681            1 
  229000     1.164533   -7.0048029    92.836625  0.033783342  0.035631172            2 
  230000     1.158961   -7.0229219    93.449138  0.033858383  0.035612816            2 
  231000    1.1573544   -6.9865779    94.130581  0.033957641  0.035598506            2 
  232000    1.1811404    -7.040395    94.476893  0.033935666   0.03558431            1 
  233000    1.1548376   -7.0180603    95.161679  0.034034935  0.035571898            2 
  234000     1.166394   -6.9917105     95.55085  0.034028081  0.035559626            1 
  235000    1.1688375   -6.9869902    96.026611   0.03405199  0.035547727            1 
  236000    1.1427274   -7.0255244     96.06535  0.033921381  0.035535947            1 
  237000    1.1474328   -6.9867054    96.325363  0.033869678   0.03552211            1 
  238000    1.1627665   -7.0115452    96.898822  0.033928159  0.035507868            1 
  239000    1.1742512   -7.0074342    97.626999  0.034040097  0.035496263            1 
  240000    1.1839102   -6.9592175     97.71128  0.033927528  0.035485475            1 
  241000    1.1605037   -6.9784878    98.130003  0.033931536  0.035473146            3 
  242000    1.1464521   -7.0085615    98.561744  0.033939994  0.035460885            2 
  243000    1.1527648   -7.0115789    98.877167  0.033908493  0.035447727            1 
  244000    1.1633523   -7.0124791    99.182732  0.033873884  0.035436158            2 
  245000     1.129063   -7.0104555    99.692257  0.033908931  0.035423409            3 
  246000    1.1661515   -7.0375207    100.05803  0.033894995  0.035410872            1 
  247000    1.1400583   -7.0148579    100.50248  0.033907718  0.035397142            1 
  248000    1.1486351    -7.030633    100.65535  0.033822361  0.035382056            1 
  249000    1.1611039   -6.9928744    101.45487  0.033954106  0.035369921            2 
  250000     1.159697   -7.0205228     101.5072  0.033835735  0.035357194            2 
  251000    1.1583496   -6.9997273    102.39115  0.033994407  0.035344233            2 
  252000    1.1544784   -7.0448331    102.51394  0.033900111  0.035331294            1 
  253000    1.1456794   -7.0134948    103.05808  0.033945348  0.035318446            1 
  254000    1.1403406   -7.0024865    103.31636  0.033896445   0.03530582            1 
  255000    1.1612249   -7.0232565      104.121  0.034026471  0.035293782            1 
  256000    1.1611722   -6.9870231    104.07127  0.033877366  0.035282249            1 
  257000     1.133158   -6.9808822    104.54214  0.033898231  0.035270676            2 
  258000    1.1787126   -7.0133756    104.86768  0.033871991  0.035258426            2 
  259000    1.1523635   -7.0056774    105.24416  0.033862344  0.035245982            5 
  260000    1.1471203   -7.0282687    105.60748  0.033848551  0.035232025            3 
  261000    1.1464324   -6.9909592    105.55724  0.033702822  0.035217589            1 
  262000    1.1402644   -7.0203292    106.11593  0.033751887  0.035202498            1 
  263000     1.130626   -6.9938037    106.72629  0.033816949  0.035188137            2 
  264000    1.1327993   -7.0336642    106.43658  0.033597404  0.035172317            1 
  265000    1.1462511    -7.032271    107.19327  0.033708575  0.035157137            1 
  266000     1.126157   -7.0533671    107.23846  0.033596009   0.03514127            3 
  267000    1.1376119   -7.0119077    108.09768  0.033738353  0.035126917            1 
  268000    1.1730735   -7.0242543    108.44083  0.033719165  0.035111235            2 
  269000    1.1455444   -7.0386644    108.49171  0.033609577  0.035095658            1 
  270000    1.1586274    -6.996427    109.38997  0.033762336  0.035080992            1 
  271000    1.1521966   -7.0265301      109.711   0.03373647  0.035066561            1 
  272000    1.1670087   -7.0484589    109.38741  0.033513298  0.035051127            1 
  273000    1.1574823   -7.0318996    109.67992   0.03347983  0.035035399            1 
  274000    1.1458311    -7.038907    110.28116    0.0335405  0.035018331            1 
  275000    1.1641357   -7.0379468    110.40417  0.033455808  0.035000809            2 
  276000    1.1383282   -7.0763703    110.48024  0.033357561  0.034984007            2 
  277000    1.1697644   -7.0304779     111.4237  0.033520968  0.034967559            3 
  278000    1.1498179   -7.0846897    111.83619  0.033524038  0.034951456            1 
  279000    1.1237073   -7.0689643    111.48142  0.033297914   0.03493339            2 
  280000     1.150066   -7.0685535    112.10522  0.033364648  0.034915133            2 
  281000    1.1280796   -7.0333587    112.70909  0.033424998  0.034896474            1 
  282000    1.1334216   -7.0344035    113.00114  0.033392773  0.034876722            2 
  283000    1.1433284   -7.0324681    113.50284  0.033422509  0.034857937            2 
  284000    1.1430985   -7.0225894    113.76504  0.033381761   0.03483996            1 
  285000    1.1436265   -7.0828978    113.89161   0.03330164  0.034819952            1 
  286000    1.1337233   -7.0782282    114.23378  0.033284901   0.03480073            3 
  287000    1.1223205   -7.0234478    114.62938  0.033283793  0.034782614            2 
  288000    1.1239259   -7.0614761    115.05736   0.03329206  0.034764346            2 
  289000    1.1684317   -7.0698273    115.55358  0.033319949   0.03474743            1 
  290000    1.1384395   -7.0425975    115.95761  0.033321153  0.034731147            2 
  291000    1.1223021   -7.0462765    116.63185  0.033399727  0.034714874            2 
  292000    1.1397281    -7.075143    116.98091  0.033384962  0.034698625            1 
  293000    1.1392198   -7.0901799    117.29111  0.033359245  0.034684402            3 
  294000    1.1408804   -7.0499847    117.97987  0.033441005  0.034669489            2 
  295000    1.1122963   -7.0359899    117.81208  0.033280249  0.034654159            3 
  296000    1.1295849   -7.0634743    118.02058  0.033226515  0.034638605            2 
  297000    1.1492998   -7.0798672     118.4993  0.033248961  0.034621899            2 
  298000      1.14302   -7.0505411    118.74019  0.033204751  0.034603944            5 
  299000    1.1360523   -7.0720903    118.98415  0.033161693  0.034586066            2 
  300000     1.121481   -7.0622232    119.94086  0.033316905  0.034568525            2 
  301000    1.1206268   -7.0697929    120.19853  0.033277556  0.034551952            3 
  302000    1.1004382   -7.0602736    120.55687  0.033266244  0.034534319            2 
  303000    1.1438729   -7.0771079    120.26343  0.033075752  0.034516208            1 
  304000    1.1182211   -7.0675614    120.81612  0.033118454  0.034497747            1 
  305000    1.1352245   -7.0508049    121.25848  0.033130732  0.034478841            2 
  306000    1.1361842   -7.0825851     121.2366  0.033016502  0.034459472            3 
  307000    1.1296186   -7.0980228    121.22944  0.032907015  0.034439118            3 
  308000    1.1573509   -7.0705641    121.75355  0.032941977  0.034417754            2 
  309000    1.1102362   -7.0319971    122.59126  0.033061289  0.034397592            1 
  310000    1.1295119   -7.0345963    122.66692   0.03297498  0.034377032            3 
  311000    1.1272024   -7.0835429    122.75573  0.032892747  0.034356302            1 
  312000    1.1424089   -7.0540921    123.20941  0.032908496  0.034335144            4 
  313000    1.1232311   -7.0881215    123.76927  0.032952415  0.034314208            3 
  314000    1.1241355   -7.0963125    123.52182    0.0327818  0.034293433            2 
  315000    1.1423966   -7.0763542    124.25232  0.032870985  0.034272843            3 
  316000    1.1369081   -7.0624833    124.83664  0.032921054  0.034251981            1 
  317000    1.1186263   -7.0951725      124.537  0.032738433  0.034231231            2 
  318000    1.1142999   -7.0892031    125.15306  0.032796924  0.034210406            3 
  319000    1.1085425   -7.0985492    125.69089   0.03283461  0.034189164            2 
  320000    1.1519199    -7.081255    125.01295  0.032555456  0.034167406            1 
  321000    1.1037427   -7.0984948    125.90287  0.032685064  0.034145796            1 
  322000    1.1094118   -7.1255805    125.62661  0.032512063  0.034123111            1 
  323000    1.1176362   -7.0943287    126.17702   0.03255341  0.034099609            8 
  324000    1.1400482   -7.1004688    126.71215  0.032590574  0.034077423            3 
  325000    1.1262227   -7.0658003    127.54534  0.032703933  0.034055606            2 
  326000    1.1398318   -7.0678436    127.35846  0.032555842  0.034034656            1 
  327000    1.1426559    -7.097868    127.61416  0.032521447   0.03401309            2 
  328000    1.1194722   -7.0668194    128.30556  0.032597958  0.033991099            2 
  329000    1.1206632   -7.0973059    128.69656  0.032597912  0.033970499            2 
  330000    1.0967896   -7.0769551    128.80289  0.032525981  0.033949536            3 
  331000    1.1095344   -7.0717554    128.91449  0.032455813  0.033927623            2 
  332000    1.1111591   -7.0816195    129.59562   0.03252902  0.033905475            1 
  333000    1.1109805    -7.085715    129.44464  0.032393553  0.033882317            2 
  334000    1.0990693   -7.1151802    129.33445  0.032269074  0.033858193            3 
  335000    1.0991539   -7.0953467    130.66235  0.032503071  0.033834544            3 
  336000    1.1095996   -7.0744523     131.1666  0.032531398  0.033811291            1 
  337000    1.1150457    -7.105861    130.91775   0.03237333   0.03378868            1 
  338000    1.1359097   -7.0936988     131.4432    0.0324071  0.033767157            2 
  339000    1.1451178   -7.0966827     131.8142  0.032402703  0.033745926            2 
  340000    1.1296049   -7.1317376    132.07076  0.032370283  0.033725247            2 
  341000    1.1124263   -7.1290989    132.49331  0.032378619  0.033704145            1 
  342000     1.127603   -7.1056201    133.30645  0.032482078  0.033683816            2 
  343000    1.1217323   -7.0910623    133.51525  0.032438107  0.033664303            1 
  344000     1.137422    -7.070179    133.54584  0.032351221  0.033645097            2 
  345000    1.1305004   -7.1099742    134.05499  0.032380432  0.033625967            3 
  346000      1.09182   -7.0927613     135.0258  0.032520666  0.033607112            3 
  347000    1.1400512    -7.113189    135.28689  0.032489647  0.033588638            2 
  348000    1.1111838   -7.1067306    135.40645  0.032424915  0.033569707            2 
  349000    1.1357752   -7.1214826    135.58633   0.03237496  0.033550511            3 
  350000    1.1140324   -7.1055343    136.06264  0.032395867  0.033531102            2 
  351000    1.1158601   -7.0616174    136.27094  0.032353025  0.033512749            1 
  352000    1.0974548   -7.1223514     136.3064  0.032269508  0.033493127            1 
  353000    1.0830975   -7.1401953    136.99483  0.032340612  0.033474301            1 
  354000    1.1076192   -7.1317529    137.29399  0.032319677  0.033455373            3 
  355000    1.1186274   -7.1169333    137.53426  0.032285038  0.033436139            2 
  356000    1.1533444   -7.1433612    137.65257  0.032222044  0.033417916            2 
  357000    1.1503646   -7.1083766    137.91987  0.032194181  0.033398519            1 
  358000    1.1136976   -7.1281962    138.28988  0.032190383  0.033379714            1 
  359000    1.0972915   -7.1326658    138.72908  0.032202665  0.033360694            1 
  360000    1.1050219   -7.0827568       139.62  0.032319444  0.033341576            2 
  361000    1.1298508   -7.1253931    139.51284  0.032205181  0.033323092            1 
  362000     1.125242   -7.1272043    140.00784  0.032230165   0.03330514            3 
  363000    1.0942796   -7.1210156    140.62476  0.032283002  0.033285976            1 
  364000    1.0985536   -7.1536396    139.50005  0.031936825  0.033265771            2 
  365000    1.1146455   -7.1263052    140.28168   0.03202778  0.033245072            1 
  366000    1.1230454   -7.1303677    140.90154  0.032081407  0.033224219            3 
  367000    1.1104432   -7.0911466    141.21412  0.032064968  0.033203949            2 
  368000    1.1070736   -7.1147286     141.7303  0.032094725  0.033183561            2 
  369000    1.0808848   -7.1059781    141.65979  0.031991823  0.033163623            1 
  370000    1.0846639   -7.1256039    141.92354  0.031964761  0.033143766            1 
  371000    1.1243544   -7.1240593    143.06441  0.032134864  0.033124459            2 
  372000    1.1217162   -7.1812833    142.65727  0.031957273  0.033105203            1 
  373000    1.1118501   -7.1284422    143.00575  0.031949453  0.033086132            1 
  374000     1.084355   -7.1299036    143.49984  0.031974118  0.033067056            3 
  375000    1.0808711   -7.1193119     143.7689  0.031948644  0.033046981            2 
  376000    1.1088272   -7.1167019    144.21367   0.03196225  0.033027607            1 
  377000     1.090511   -7.1141266    144.61851  0.031966955  0.033008202            2 
  378000    1.1259269   -7.1351928    144.67399  0.031894619  0.032988262            1 
  379000     1.130542   -7.1161953    144.63909   0.03180279  0.032968323            3 
  380000    1.1227146   -7.1210828     144.9108  0.031778685  0.032947419            2 
  381000    1.1050315   -7.1730547    144.68347  0.031645553  0.032926347            2 
  382000    1.1068186   -7.1174481    145.99596  0.031849031  0.032905725            2 
  383000    1.1185682   -7.1166945    146.10993  0.031790673  0.032885823            3 
  384000    1.0978889   -7.1347085    146.74535  0.031845779  0.032865133            2 
  385000    1.1397614   -7.1429134    146.33005  0.031673171  0.032843991            1 
  386000    1.0986889   -7.1427195    146.51141   0.03163027  0.032823251            1 
  387000    1.1045953   -7.1363386    146.85538  0.031622604  0.032802677            1 
  388000    1.0966673   -7.1088071    147.69535   0.03172151  0.032782582            1 
  389000    1.1199732   -7.1246897    147.95405  0.031695384  0.032762663            3 
  390000    1.1137446   -7.1421742    148.03552  0.031631522  0.032742577            1 
  391000    1.1242326   -7.1839521     148.6031  0.031671589  0.032722264            1 
  392000    1.0779952   -7.1349722    148.67822  0.031606765  0.032702138            1 
  393000    1.0833754   -7.1640282    148.85116  0.031563012  0.032681354            1 
  394000    1.0993753   -7.1620957    149.10206  0.031535969   0.03266033            1 
  395000    1.1148248   -7.1811847    148.77477  0.031387082  0.032638405            2 
  396000    1.0863104   -7.1212918    150.23374  0.031614845  0.032615891            1 
  397000     1.094183    -7.100291    150.19599  0.031527286   0.03259481            1 
  398000    1.0839261   -7.1216627    150.48446  0.031508471  0.032574117            1 
  399000    1.0796336   -7.1232925     150.6775   0.03146982  0.032554101            1 
  400000    1.1080777   -7.1499595    151.04033  0.031466736  0.032533441            1 
  401000    1.0758915   -7.1238931     151.1312  0.031407148  0.032512578            2 
  402000    1.0918969   -7.1668705    151.53885  0.031413525  0.032491938            1 
  403000     1.094473   -7.1449065     151.7127  0.031371526  0.032471329            1 
  404000     1.094143    -7.143338    152.40949    0.0314376  0.032450996            2 
  405000    1.1311973   -7.1346315     152.7459  0.031429199  0.032431155            2 
  406000    1.0715631   -7.1289784    153.10348  0.031425181   0.03241185            1 
  407000      1.07983   -7.1704771    153.42643  0.031414093  0.032392632            4 
  408000    1.0889462    -7.165158    153.45089  0.031342093  0.032373217            1 
  409000    1.1036844   -7.1499241    153.97507  0.031372263  0.032353337            3 
  410000     1.077744   -7.1103356     154.6702  0.031437032  0.032333476            2 
  411000    1.0606162   -7.1690256    154.49921  0.031325873  0.032313816            2 
  412000     1.083304   -7.1432841    155.06447  0.031364172  0.032294721            1 
  413000    1.0985548   -7.1585084    154.95993  0.031267136  0.032275203            5 
  414000    1.0862546   -7.1416452    155.64596  0.031329701  0.032255652            1 
  415000     1.100363    -7.129921    156.29673  0.031384885    0.0322366            1 
  416000    1.0919693   -7.1716036    156.41469  0.031333071  0.032217223            1 
  417000    1.0854155   -7.1844544    156.26334  0.031227686   0.03219825            2 
  418000    1.0696293   -7.1556081    156.39819  0.031179862  0.032178923            1 
  419000    1.0855149   -7.1818901    156.88613  0.031202492  0.032160078            4 
  420000    1.0814451   -7.1709498     157.0115  0.031153075  0.032140698            1 
  421000    1.0994703   -7.1524978    157.56371  0.031188382  0.032121402            2 
  422000    1.0744059   -7.1849415    157.60405  0.031122443  0.032101836            1 
  423000    1.1043515   -7.1211223    158.47992  0.031221418  0.032082729            1 
  424000    1.0780826   -7.1431542     158.2468  0.031101966  0.032064006            3 
  425000    1.1035244   -7.1668963    158.90585  0.031158011  0.032044541            2 
  426000    1.0738804   -7.1544672    159.31683  0.031165264  0.032025052            2 
  427000    1.0726417    -7.203504    159.18003  0.031065579  0.032006227            3 
  428000    1.0681286   -7.1610498    159.36544  0.031029097  0.031987002            1 
  429000    1.0533114   -7.1736034    159.96798  0.031073812   0.03196787            2 
  430000    1.0915619    -7.139793    160.57731  0.031119634  0.031948497            1 
  431000    1.0707441   -7.1680763    160.51768  0.031035901  0.031929053            1 
  432000     1.053353   -7.1669807    160.69064  0.030997423  0.031909496            3 
  433000    1.0813014   -7.2075697    160.69588  0.030926843  0.031888873            1 
  434000    1.0665305   -7.1518987    161.15068   0.03094291  0.031868398            3 
  435000    1.0743552   -7.1595208    161.56525  0.030951198  0.031848671            2 
  436000     1.082904     -7.17812    161.73481  0.030912616  0.031828861            1 
  437000    1.0946547    -7.204723    161.55385   0.03080737  0.031808461            4 
  438000    1.0674321   -7.1712763    162.59353  0.030934843  0.031788356            3 
  439000     1.070489   -7.1673972    163.17443  0.030974645  0.031769007            2 
  440000    1.0696909   -7.1799216    163.63088  0.030990698  0.031749915            2 
  441000    1.0752941   -7.1822157    163.03948   0.03080867  0.031730556            1 
  442000    1.0651869   -7.1684748    163.76499  0.030875753  0.031710802            1 
  443000    1.0835288   -7.1727745    163.68568  0.030791135  0.031690835            3 
  444000    1.0853455   -7.1712674    163.17463  0.030625869  0.031670441            1 
  445000    1.0763933   -7.1575908    163.39132  0.030597625  0.031649781            2 
  446000    1.0785588   -7.1513507    164.15791  0.030672256  0.031629181            2 
  447000    1.0804595   -7.1898126     164.4008  0.030648919   0.03160853            3 
  448000    1.0861043   -7.1971395     164.9207  0.030677214  0.031588129            2 
  449000    1.0736181   -7.1756381    165.27293  0.030674263  0.031568555            3 
  450000    1.0582353   -7.1668445    165.42859  0.030634925  0.031548704            5 
  451000    1.0703597   -7.2002629    165.67783   0.03061305  0.031528833            2 
  452000    1.0694654   -7.1671043    165.97756  0.030600583  0.031508613            1 
  453000    1.0648221   -7.1851575    166.21354  0.030576442  0.031488341            2 
  454000    1.0867047   -7.1741755    166.42793  0.030548446  0.031467635            3 
  455000    1.0873244   -7.2102952     166.4362   0.03048282   0.03144687            1 
  456000    1.0902902   -7.1995718    167.21206  0.030557759  0.031425783            1 
  457000    1.0726318    -7.195525    167.07074  0.030465124  0.031404892            3 
  458000    1.0740135   -7.1708005    167.73384  0.030519257  0.031384047            1 
  459000    1.0828457   -7.1911668    167.72828  0.030451758  0.031363845            1 
  460000    1.0675825   -7.2028748    168.04937  0.030443727   0.03134356            1 
  461000    1.0464757   -7.2145515    168.47363   0.03045438  0.031323364            1 
  462000    1.0679721   -7.1881342    168.71747  0.030432444  0.031302984            1 
  463000    1.0557662   -7.2099265    169.01555  0.030420365  0.031283019            1 
  464000     1.093867   -7.2115839    168.97511  0.030347541  0.031262745            5 
  465000    1.0227166   -7.2021599    169.02249  0.030290769  0.031242086            2 
  466000    1.0975001   -7.2017596    168.86665  0.030197898   0.03121998            1 
  467000    1.0488388   -7.2182413     169.0881  0.030172752  0.031198352            1 
  468000    1.0504037   -7.2433258    169.81817  0.030238278  0.031177254            2 
  469000    1.0720989   -7.1754046     170.3965  0.030276564  0.031156385            2 
  470000    1.0591134   -7.2001493    170.39135  0.030211233  0.031135947            2 
  471000    1.0516688   -7.2236519    170.27131  0.030125852  0.031114843            2 
  472000    1.0823921   -7.2306257     171.2808  0.030240255  0.031093861            1 
  473000    1.0785281   -7.2281366    170.94526  0.030117206  0.031073391            2 
  474000    1.0535306   -7.2163717    171.76558  0.030197887  0.031052807            2 
  475000    1.0717617   -7.2071717    172.42965  0.030250816  0.031032516            2 
  476000     1.066221   -7.2234721    172.30698  0.030165788  0.031012129            2 
  477000    1.0705942   -7.2399283    172.23109  0.030089289  0.030991425            4 
  478000    1.0538424   -7.2084266    172.27427  0.030033868  0.030970426            3 
  479000    1.0643487   -7.2428182    172.42938  0.029998152  0.030949225            2 
  480000    1.0768534   -7.2325449    173.10474  0.030052906  0.030928138            2 
  481000    1.0804093    -7.224243    173.61613  0.030079025  0.030907512            1 
  482000    1.0746037   -7.2570466    173.47945  0.029992989   0.03088713            1 
  483000    1.0594221   -7.2016148    173.81341  0.029988511  0.030867015            2 
  484000    1.0736684   -7.2269622    174.28516  0.030007775  0.030846414            1 
  485000    1.0414337   -7.2528881    174.02512  0.029901224  0.030825686            1 
  486000    1.0765403   -7.2132733    174.90126  0.029989928  0.030805358            3 
  487000    1.0570096   -7.2023006    175.64006  0.030054767  0.030785136            5 
  488000    1.0647079   -7.2513416    175.14347  0.029908379  0.030764359            2 
  489000    1.0834009   -7.1905823    175.46728    0.0299024  0.030744135            4 
  490000     1.066615   -7.2657777    175.82942  0.029902962   0.03072389            3 
  491000    1.0254557   -7.1827984    176.74719  0.029997826  0.030703877            3 
  492000    1.0598306   -7.2507342     176.0469  0.029818241   0.03068398            1 
  493000    1.0403601   -7.2506169    176.35553  0.029809927  0.030664112            3 
  494000    1.0402789    -7.242215    177.45116  0.029934406  0.030644877            2 
  495000    1.0575238   -7.2234615    177.61006  0.029900683  0.030625672            1 
  496000    1.0476313   -7.2031129    178.19639   0.02993891   0.03060649            3 
  497000    1.0599462   -7.2001994    178.17607  0.029875263   0.03058701            2 
  498000    1.0329962   -7.1948834    178.71178  0.029904917  0.030568058            3 
  499000    1.0684649   -7.1985452    178.85048  0.029868149  0.030549037            1 
  500000    1.0618155    -7.283138    178.54822  0.029758037  0.030529674            1 
  501000    1.0442561   -7.1941825    179.37903  0.029836831  0.030510295            3 
  502000    1.0487717   -7.2366704    179.37407  0.029776572  0.030490787            2 
  503000    1.0443006   -7.2571317    179.08911  0.029670165  0.030470899            5 
  504000    1.0519358   -7.2386109    179.60305  0.029696271  0.030451385            3 
  505000     1.038591   -7.2679793    179.64064   0.02964367  0.030430941            3 
  506000    1.0735146   -7.2486426     180.3234  0.029697529  0.030411137            1 
  507000    1.0559035   -7.2349842    180.20762  0.029619924  0.030391249            2 
  508000    1.0277209   -7.2334985    180.20714  0.029561539  0.030371274            2 
  509000     1.039906   -7.1954969    180.69302   0.02958301  0.030351406            2 
  510000    1.0582867   -7.2328548    181.23579  0.029613692  0.030331437            1 
  511000    1.0686433   -7.2598296    181.10338  0.029534146  0.030310951            3 
  512000    1.0494834   -7.2341236    181.61342  0.029559476  0.030290441            1 
  513000    1.0488407   -7.2496269    181.60175  0.029499959  0.030269907            2 
  514000    1.0751963   -7.2552964    181.87756  0.029487282  0.030249501            1 
  515000    1.0708484   -7.2126811    182.20502  0.029483013  0.030228709            2 
  516000    1.0643183   -7.2642643    182.53602  0.029479331  0.030208142            1 
  517000    1.0686579   -7.2171076    182.39819  0.029400095  0.030187903            2 
  518000     1.051358   -7.2477194      183.305  0.029489221  0.030167613            1 
  519000    1.0740357   -7.2442995    183.14661   0.02940697  0.030147175            2 
  520000    1.0387878    -7.244257    183.35359  0.029383588  0.030127024            2 
  521000    1.0391999   -7.2400664    183.69287  0.029381457  0.030107357            2 
  522000    1.0369822   -7.2317347    184.21504  0.029408531  0.030087008            2 
  523000    1.0574866   -7.2140661    183.56282  0.029248377   0.03006654            2 
  524000     1.051165   -7.2498016    184.09993  0.029277978  0.030045999            1 
  525000    1.0423185    -7.266292    184.21341  0.029240223  0.030025988            2 
  526000    1.0621134   -7.2711381    184.20551  0.029183382   0.03000524            3 
  527000    1.0236698   -7.2616924    184.44658  0.029166126  0.029984682            2 
  528000     1.025782   -7.2220973    185.15088  0.029222045   0.02996474            1 
  529000    1.0393797   -7.2562339    184.97431  0.029138991   0.02994451            4 
  530000    1.0622433   -7.2755177    185.19081  0.029118052  0.029923811            2 
  531000    1.0330295    -7.277337    185.52118  0.029115062  0.029902555            5 
  532000    1.0350095   -7.2472717    185.81459  0.029106295  0.029881402            1 
  533000    1.0469417    -7.248312    186.24677  0.029119257  0.029860925            6 
  534000     1.060256   -7.2648227    185.79897  0.028994845  0.029840457            2 
  535000    1.0432606   -7.2240096    187.29444  0.029173589  0.029819746            1 
  536000     1.047763   -7.2789927    186.74311  0.029033443  0.029798742            1 
  537000    1.0520938    -7.293168     186.6595  0.028966403  0.029777745            2 
  538000    1.0220306   -7.2781479    186.76368  0.028928699  0.029756846            2 
  539000    1.0423867   -7.2944211    187.25282  0.028950652  0.029736283            3 
  540000    1.0229099     -7.29319     187.1626  0.028883117  0.029715232            3 
  541000    1.0500226   -7.2702159    187.99693  0.028958245  0.029694626            2 
  542000    1.0330175   -7.2696002    189.16452  0.029084336  0.029674754            3 
  543000     1.026577   -7.2709841    188.46465  0.028923365  0.029654776            2 
  544000    1.0386513    -7.275545    189.69517  0.029058696  0.029634997            2 
  545000    1.0246649   -7.2676561    189.40726  0.028961354  0.029615602            2 
  546000    1.0494033   -7.2901553    189.13375  0.028866568  0.029596164            2 
  547000    1.0426998   -7.2993734    190.34081  0.028997685  0.029576807            3 
  548000    1.0352192   -7.2738769    190.21776  0.028926059  0.029558086            1 
  549000    1.0312365   -7.2827009    190.84252  0.028968203  0.029539623            3 
  550000    1.0441095    -7.261021    191.06856  0.028949782  0.029520888            3 
  551000    1.0362359   -7.3071705    190.89629  0.028871187  0.029502145            3 
  552000    1.0331148    -7.265232    191.37822  0.028891639  0.029483981            1 
  553000    1.0548199   -7.2992739     191.9909   0.02893172  0.029465782            6 
  554000    1.0500114   -7.2546196    193.19704  0.029060927  0.029447893            3 
  555000    1.0488457   -7.3121229    192.32538  0.028877685  0.029429352            2 
  556000    1.0409661   -7.2950736    193.22749  0.028960955  0.029411074            4 
  557000    1.0380629   -7.3055968    192.12561  0.028744107  0.029392544            2 
  558000    1.0113802    -7.335616    192.21438  0.028705852  0.029373882            4 
  559000    1.0031975   -7.2782098    193.22652  0.028805385  0.029354973            1 
  560000    1.0422428   -7.2669629    194.42609  0.028932453  0.029336818            1 
  561000    1.0195207   -7.2580051    193.98051  0.028814692  0.029318454            1 
  562000    1.0215458   -7.2647958    194.45837  0.028834278  0.029300364            3 
  563000    1.0246362   -7.3029625    194.32334  0.028763076  0.029282563            1 
  564000    1.0264493   -7.2998308    194.79316  0.028781495  0.029264789            4 
  565000    1.0222582   -7.2875924    195.52067  0.028837857  0.029247782            1 
  566000    1.0216523   -7.3247406    195.66231   0.02880776  0.029230963            4 
  567000    1.0460204   -7.2932674    195.43084  0.028722934  0.029213663            1 
  568000    1.0319439   -7.2858404    195.78216  0.028723908  0.029196101            3 
  569000    1.0092328   -7.3066129    195.99278  0.028704274  0.029178366            3 
  570000    1.0032963    -7.306981    195.77911  0.028622677   0.02916049            1 
  571000    1.0219633   -7.2992583    196.06656  0.028614501  0.029142189            2 
  572000    1.0525258   -7.2968791    195.77415  0.028521876   0.02912386            3 
  573000    1.0162376   -7.3361273    196.53382   0.02858258  0.029104943            2 
  574000    1.0147516   -7.3297957    195.74789  0.028418684  0.029085571            1 
  575000    1.0297105    -7.301465    196.07252  0.028416307   0.02906598            1 
  576000    1.0170623   -7.3230845    196.26158  0.028394326  0.029046502            3 
  577000     1.019653   -7.3259767    196.87486  0.028433688  0.029027318            5 
  578000    1.0293109   -7.3129155     197.2031  0.028431819  0.029007867            2 
  579000    1.0429169   -7.3471424    197.26802  0.028392058  0.028988879            3 
  580000    1.0130082   -7.2866771    197.72109  0.028408203   0.02896967            1 
  581000    1.0202966   -7.3024508    198.44944  0.028463775  0.028951345            2 
  582000    1.0443457   -7.3038699    197.99318  0.028349538  0.028933128            2 
  583000    1.0269943   -7.3162149    198.55424  0.028381109   0.02891439            2 
  584000    1.0330226   -7.2714438    199.35904  0.028447351  0.028896115            1 
  585000    1.0456448   -7.3185535    199.20235  0.028376403  0.028877753            3 
  586000    1.0159002   -7.3261909    199.38281  0.028353641  0.028859036            1 
  587000    1.0187197   -7.3333294     199.3413  0.028299446  0.028840128            3 
  588000    1.0228518    -7.336778    200.01498  0.028346794   0.02882145            2 
  589000    1.0190507   -7.3329898    200.21755  0.028327327  0.028803097            1 
  590000    1.0252377   -7.3073772    200.92291  0.028378942  0.028785395            4 
  591000    1.0122925   -7.3091508    200.13514  0.028219845  0.028767343            2 
  592000    1.0276111   -7.3068285    201.30678  0.028337103  0.028749271            3 
  593000   0.98218792   -7.2935609    201.82111  0.028361595  0.028731241            2 
  594000     1.023579    -7.336963    201.57452  0.028279254  0.028713721            4 
  595000    1.0244682   -7.3262767    202.39655  0.028346856  0.028696003            3 
  596000    1.0069631   -7.3252112    202.37483  0.028296257  0.028678654            2 
  597000    1.0240393   -7.3232969    202.73703  0.028299418  0.028660831            2 
  598000    1.0232465   -7.3369768     202.0782  0.028160284  0.028642753            1 
  599000    1.0096647     -7.29057    202.75738  0.028207761  0.028624874            1 
  600000   0.99089842   -7.3407717    201.84093  0.028033462  0.028606601            2 
  601000    1.0121179   -7.3317753    203.21264  0.028177017  0.028588282            1 
  602000    1.0109261   -7.2813243    203.24779  0.028135076  0.028570566            2 
  603000    1.0313745    -7.339109    203.54274  0.028129179  0.028552687            3 
  604000    1.0084069   -7.3239365    204.38444  0.028198736  0.028534931            1 
  605000   0.99934024   -7.3257185    204.22719  0.028130467  0.028517155            2 
  606000   0.99126189   -7.3234906    205.13902  0.028209436  0.028499583            1 
  607000    1.0165946   -7.3308068    204.27764  0.028044706  0.028482113            4 
  608000    1.0120013    -7.323989    205.30825  0.028139837  0.028464903            2 
  609000    1.0211139    -7.283368    205.74019  0.028152735  0.028447767            1 
  610000    1.0108359   -7.3376597    205.57789  0.028084411  0.028430405            2 
  611000    1.0077647   -7.3168283    205.94493  0.028088506  0.028413244            3 
  612000    1.0151481   -7.3748285      205.973  0.028046432   0.02839616            2 
  613000   0.98504725   -7.3586698    205.55366  0.027943673  0.028378908            1 
  614000    1.0065883   -7.3200374    206.86469  0.028076098  0.028361566            2 
  615000    1.0112378   -7.3442778    206.76619  0.028017099  0.028344575            5 
  616000    1.0128821   -7.3574046    207.09978  0.028016745  0.028327703            2 
  617000      1.00582   -7.3107054    207.15647  0.027978994  0.028311055            2 
  618000    1.0153773   -7.3317902    208.33425  0.028092536  0.028294578            2 
  619000   0.98523071   -7.3234216    207.74344  0.027967614  0.028277993            2 
  620000    1.0004607   -7.3325869    208.21298  0.027985616  0.028261655            1 
  621000    1.0175386   -7.3604689    208.72186  0.028008837  0.028245358            3 
  622000    1.0184333   -7.3551535     209.0942  0.028013692  0.028229121            1 
  623000    1.0106532   -7.3524561    209.55673  0.028030595  0.028212983            3 
  624000    1.0389089   -7.3071491    210.41819   0.02810072    0.0281971            2 
  625000    1.0032579   -7.3476858    209.26744  0.027902326  0.028181197            2 
  626000    1.0080181   -7.3397301    210.36458  0.028003804  0.028165215            2 
  627000    1.0006139   -7.3488323    210.09576  0.027923413  0.028149086            2 
  628000    1.0067964   -7.3216593    211.10176  0.028012441  0.028133518            2 
  629000    1.0194212   -7.2968871    210.70362  0.027915159  0.028117801            1 
  630000   0.98389292   -7.3273994    211.09911  0.027923162  0.028102094            1 
  631000    0.9733157   -7.3864757    211.05678   0.02787332  0.028086036            4 
  632000   0.98629565   -7.3631687    211.07377  0.027831458  0.028069794            2 
  633000    1.0163429   -7.3844835    211.23865  0.027809196   0.02805379            1 
  634000    1.0025214   -7.3422916    211.20412  0.027760793  0.028037994            2 
  635000    1.0036197   -7.3669505    212.22203   0.02785066  0.028022331            1 
  636000   0.98954862   -7.3756164    212.66248   0.02786458  0.028006996            1 
  637000   0.96887974    -7.373823    212.59911  0.027812547  0.027991607            2 
  638000    1.0130961   -7.3624976     212.5166  0.027758177  0.027976469            2 
  639000   0.99284024   -7.3428756    213.52065  0.027845677  0.027961262            2 
  640000   0.99751676   -7.3934553     213.4889  0.027798034  0.027946234            2 
  641000   0.98825964   -7.3460089    213.89566  0.027807548  0.027930767            2 
  642000    1.0160376       -7.371    213.94873  0.027771123  0.027915488            2 
  643000   0.98885448   -7.3926384    214.04703  0.027740673  0.027900091            2 
  644000   0.99766434   -7.3372609    214.83439  0.027799481  0.027884361            4 
  645000    1.0058937   -7.3583438    213.91569  0.027637686  0.027868805            2 
  646000    1.0098718   -7.3948646    214.75297  0.027702912  0.027853352            1 
  647000    1.0071241   -7.3302729    215.18253  0.027715421  0.027837731            1 
  648000    1.0216437   -7.3565096    215.37949  0.027697979  0.027822161            4 
  649000   0.96135964    -7.375366    215.37142  0.027654266  0.027806847            3 
  650000   0.98365846   -7.3846396    215.74265  0.027659314  0.027791428            2 
  651000   0.99133531   -7.3543135    216.39174  0.027699915  0.027776153            2 
  652000    1.0001717   -7.3607082    215.87233  0.027591044  0.027761024            1 
  653000    1.0028106   -7.3595927    216.99612  0.027692205  0.027745943            3 
  654000   0.99845473   -7.3774463    216.65665  0.027606607  0.027730778            2 
  655000    1.0007274    -7.407727    216.95124  0.027601938  0.027715551            1 
  656000    1.0121385   -7.3566479    218.15281  0.027712501  0.027700885            3 
  657000   0.98577961   -7.3631551    217.43114  0.027578785  0.027686266            2 
  658000   0.99154492   -7.3362564    218.05755  0.027616205   0.02767149            3 
  659000   0.98578395   -7.3904625    217.31997  0.027481028  0.027656704            1 
  660000    1.0112777   -7.3235913    218.55995  0.027595953  0.027641514            1 
  661000    1.0098241   -7.3788422    218.96261  0.027604969  0.027626246            2 
  662000    1.0170534   -7.4050523    217.53484   0.02738354  0.027611209            3 
  663000   0.98506347   -7.3648769    218.34748   0.02744438  0.027595907            3 
  664000    1.0011366   -7.3674757     218.4262  0.027412927  0.027580583            2 
  665000    1.0160782    -7.358052    218.97216  0.027440121  0.027565111            2 
  666000   0.95715688   -7.3713486    218.67788  0.027362097  0.027549563            1 
  667000     1.017298   -7.3647632    219.25191  0.027392793  0.027533857            1 
  668000    0.9642269   -7.3676004    219.22049  0.027347866   0.02751828            2 
  669000   0.97282038   -7.3873056    219.20854  0.027305498  0.027502809            3 
  670000    0.9651074   -7.3879307    219.41619  0.027290571  0.027486895            2 
  671000   0.98150373   -7.3908018    219.45834  0.027255135  0.027471068            3 
  672000   0.98855485   -7.4093454     219.5557  0.027226649  0.027455155            2 
  673000    1.0019073   -7.3904389    220.54054   0.02730814  0.027439254            2 
  674000   0.98508895   -7.3837395    220.22647  0.027228793  0.027423167            1 
  675000    1.0077047   -7.3811134    219.41424  0.027088178  0.027406664            1 
  676000    0.9701002   -7.3858806    220.06529  0.027128364  0.027390029            1 
  677000   0.96524497   -7.3657652    220.20802  0.027105862  0.027373313            2 
  678000    1.0003817   -7.3908108    221.08649  0.027173856  0.027356573            3 
  679000    1.0033849   -7.3844469    220.88676  0.027109322    0.0273403            2 
  680000    0.9933294   -7.3691371     220.6322   0.02703826  0.027323569            4 
  681000    0.9854273   -7.3924524    221.29728  0.027079941  0.027307141            2 
  682000    1.0114332   -7.4274587     221.3656  0.027048583  0.027290585            2 
  683000   0.97493021   -7.3928658    221.36272  0.027008629  0.027273852            1 
  684000    1.0033031   -7.4000947    221.77913  0.027019875  0.027257213            3 
  685000   0.99592821   -7.3935445    222.55707  0.027075069  0.027240661            5 
  686000   0.97751652   -7.4168483    221.67309  0.026928218  0.027224443            1 
  687000   0.98607728   -7.4028121    222.65741  0.027008419  0.027208104            3 
  688000    0.9802376   -7.4279145    222.29112  0.026924797  0.027191605            5 
  689000    1.0054867   -7.4389621    223.28884  0.027006391  0.027175324            1 
  690000    0.9994724   -7.3668146    223.32634   0.02697178  0.027159138            2 
  691000   0.95870078   -7.4326128     222.9355  0.026885612  0.027143071            2 
  692000   0.95831887   -7.4311409    222.92616  0.026845636  0.027126781            1 
  693000    0.9550931   -7.3900204    223.28633  0.026850208  0.027110393            3 
  694000   0.96524709   -7.4026229    223.63504  0.026853391  0.027094141            4 
  695000   0.97122688    -7.443042    223.87712  0.026843779  0.027077844            1 
  696000    0.9743143   -7.4071274    224.21498  0.026845663  0.027061255            4 
  697000   0.96671749   -7.4005684    224.44117  0.026834191  0.027045001            3 
  698000   0.97444301   -7.4386329    223.79037  0.026718048  0.027028596            1 
  699000   0.99214115   -7.4649827    224.33823  0.026745139  0.027012043            1 
  700000   0.95544179   -7.4371024     225.3969  0.026832964  0.026995653            5 
  701000   0.98324449   -7.4279183     224.9255  0.026738648  0.026979346            2 
  702000    1.0021549   -7.4333241    224.98579  0.026707715  0.026962927            4 
  703000   0.95560777   -7.4046032    226.39146  0.026836352  0.026947235            1 
  704000   0.96586123   -7.4614621    225.38502  0.026679098  0.026931443            2 
  705000   0.95100658    -7.397338    226.18875  0.026736258   0.02691548            6 
  706000   0.97577814   -7.4337898    226.69226  0.026757821  0.026899607            1 
  707000   0.97856061   -7.4053228    226.81688  0.026734663  0.026883891            6 
  708000   0.96799018   -7.4353606    227.00089  0.026718561  0.026868066            1 
  709000   0.97299807   -7.4011156    227.09691  0.026692161  0.026852356            4 
  710000   0.98512937   -7.4692245    226.17481  0.026546339  0.026836474            1 
  711000    0.9592112   -7.3977565    227.79171  0.026698512  0.026820695            4 
  712000    0.9614155   -7.4448261    227.54756   0.02663244  0.026804845            3 
  713000   0.97712088   -7.4467296    227.03034  0.026534636  0.026788566            2 
  714000   0.97265363   -7.3808211     227.4134   0.02654218  0.026772261            2 
  715000   0.95735429   -7.4395119    227.52624   0.02651821  0.026755831            2 
  716000   0.95986115   -7.4407889    227.55118  0.026484076  0.026739603            2 
  717000   0.95602886   -7.4267584    228.64132   0.02657384  0.026723267            3 
  718000   0.96624794   -7.4328674    228.03724  0.026466718  0.026706826            2 
  719000   0.96699595   -7.4186678     228.2261  0.026451797  0.026690343            2 
  720000   0.95380848   -7.4542809    228.32663  0.026426694  0.026673961            3 
  721000   0.95040429   -7.4287205    228.67054   0.02642979  0.026657623            1 
  722000   0.97263132   -7.4396351    229.29774  0.026465575  0.026641425            2 
  723000   0.98709424   -7.4288598    229.48637  0.026450711  0.026625041            1 
  724000    0.9679976   -7.4055439    229.83799  0.026454649  0.026608823            5 
  725000    0.9652419    -7.439897    229.84464  0.026418924  0.026592788            2 
  726000   0.98897354   -7.4104018    229.92743  0.026392038  0.026577046            2 
  727000   0.95983386   -7.4311311     229.9829  0.026362093  0.026561162            2 
  728000   0.98144279   -7.4458744    230.09562  0.026338784   0.02654485            3 
  729000   0.97469266   -7.4443507    229.54415  0.026239615  0.026528399            1 
  730000   0.98117497   -7.4372876    230.44812  0.026306863  0.026511897            3 
  731000   0.96841101   -7.4367319     231.3038  0.026368422  0.026495647            2 
  732000   0.94805993   -7.4300682    231.03653  0.026301973  0.026479677            2 
  733000    0.9680089   -7.4348951    231.89688  0.026363902  0.026463633            2 
  734000   0.98098412   -7.4394139    230.82975  0.026206829  0.026447404            2 
  735000   0.94967043   -7.4046468    231.29552  0.026223982  0.026431112            1 
  736000   0.94425072   -7.4380525    230.77743  0.026129691   0.02641481            2 
  737000   0.95579497   -7.4210682     231.3278  0.026156467  0.026398056            1 
  738000   0.96191622    -7.450192    231.17114  0.026103336  0.026381131            2 
  739000    0.9786245    -7.442937     231.5493  0.026110656  0.026363927            4 
  740000   0.95779138   -7.4843593    231.72994  0.026095714  0.026346773            1 
  741000   0.94977407   -7.4810125    231.03784  0.025982663  0.026329733            3 
  742000   0.95240865    -7.497834    231.41018  0.025989463  0.026312829            3 
  743000   0.94314349   -7.4324895    231.98854  0.026019352  0.026295928            4 
  744000   0.96212481   -7.4620974    232.63392  0.026056667  0.026279293            2 
  745000   0.95897351   -7.4495703    232.59331  0.026017149   0.02626252            2 
  746000   0.94659091   -7.4746146    232.47888  0.025969491  0.026245645            1 
  747000   0.94470091   -7.4359916    233.06975  0.026000642  0.026229001            2 
  748000   0.94299463   -7.4590827    232.93289  0.025950634  0.026212384            6 
  749000    0.9294862   -7.4519565    233.25239  0.025951535  0.026195699            1 
  750000   0.94485277    -7.462409    232.91997  0.025879996  0.026178925            4 
  751000   0.93423022   -7.4634335    233.41662  0.025900646  0.026162053            2 
  752000    0.9492681   -7.4503331    233.02895  0.025823243  0.026145113            4 
  753000   0.94803737   -7.4441856    233.84299  0.025879039  0.026128074            1 
  754000   0.92054908   -7.4810032    233.47674  0.025804238  0.026111183            2 
  755000      0.94547     -7.43637    234.85484  0.025922168  0.026094369            1 
  756000   0.96762199   -7.4702728     233.6954  0.025760075  0.026077423            4 
  757000   0.98086868   -7.4361456    234.89386  0.025857977  0.026060634            1 
  758000   0.95118617    -7.479988    234.63768  0.025795699  0.026044074            3 
  759000   0.95747599   -7.4601069    234.67806  0.025766146   0.02602736            3 
  760000   0.92235573    -7.419328    235.42841  0.025814518  0.026010634            2 
  761000   0.93548643   -7.4654038    235.26735  0.025762959  0.025993958            1 
  762000   0.95894745   -7.4560956    235.44868  0.025748981  0.025977208            2 
  763000   0.93224869   -7.4785544    234.99258  0.025665419  0.025960189            2 
  764000   0.96697089   -7.4849603    235.32592  0.025668185  0.025943264            4 
  765000   0.93107506   -7.4753699    235.79869  0.025686132   0.02592626            3 
  766000   0.93898617   -7.4626791    236.27744  0.025704683  0.025909555            1 
  767000   0.94650364   -7.4964359    235.31721  0.025566842  0.025892862            3 
  768000   0.91785923    -7.492794    235.85743  0.025592169  0.025875933            2 
  769000   0.93832237   -7.4528106    236.64688  0.025644438  0.025859032            2 
  770000   0.94387212   -7.4819745    236.81008  0.025628796  0.025842274            3 
  771000   0.93823166   -7.4728858    237.51621  0.025671877  0.025825556            2 
  772000   0.96875351   -7.4556433    236.93616   0.02557601  0.025808611            3 
  773000   0.93372152    -7.515009    236.84905  0.025533532  0.025791692            2 
  774000   0.94695721   -7.4660659    237.14158  0.025532039  0.025774991            4 
  775000   0.92733056   -7.4789986    237.34659  0.025521139  0.025758439            2 
  776000   0.94137759   -7.5118978    237.57405  0.025512677  0.025741605            2 
  777000   0.95290296   -7.5106909    237.52679  0.025474774  0.025724673            3 
  778000   0.92423879   -7.4724886    237.38045  0.025426355  0.025707874            6 
  779000   0.96034453   -7.4907492    237.53968  0.025410749  0.025690737            4 
  780000    0.9302863   -7.4915988    237.62902  0.025387716  0.025673402            2 
  781000   0.94208405   -7.5099069    237.47869  0.025339169  0.025656191            1 
  782000    0.9473464   -7.5183729    237.74438  0.025335079  0.025638878            2 
  783000    0.9360541   -7.5117951    238.17447  0.025348496  0.025621794            4 
  784000   0.95355104   -7.4916937    237.85625   0.02528234  0.025604734            2 
  785000   0.96410808   -7.4852779    238.16858  0.025283288  0.025587657            3 
  786000   0.94069712   -7.5134556    238.66356    0.0253036  0.025570672            2 
  787000   0.94056606   -7.4957247    238.63838  0.025268782  0.025553663            3 
  788000     0.963254    -7.502197    239.13874   0.02528963  0.025536538            1 
  789000   0.95560259    -7.509846    239.15484  0.025259278  0.025519476            1 
  790000   0.95082392   -7.4770562    239.35899  0.025248839  0.025502528            2 
  791000   0.92176765   -7.4742848    239.73813  0.025256861  0.025485817            5 
  792000   0.95668243   -7.4865706    240.69004   0.02532513  0.025469113            4 
  793000   0.94438354   -7.4803549    239.77024  0.025196536  0.025452189            2 
  794000   0.93586288   -7.5142935    240.22062  0.025212071  0.025435176            4 
  795000   0.94227755   -7.5198893    240.52286   0.02521204  0.025418363            5 
  796000   0.95558204   -7.5067544    240.04845    0.0251307   0.02540165            4 
  797000   0.92876153    -7.477913    240.91636  0.025189916  0.025385231            2 
  798000    0.9441164   -7.5038486    241.48443  0.025217672  0.025368638            2 
  799000   0.93567209   -7.5413612    240.51736  0.025085248  0.025351832            3 
  800000    0.9291362    -7.480161    241.54867   0.02516132  0.025335085            2 
  801000   0.93571885   -7.4659781    241.66823  0.025142346  0.025318456            1 
  802000   0.93459173   -7.5034099    241.39881  0.025083002  0.025301883            1 
  803000   0.90101886   -7.4986444    242.44366  0.025160198  0.025285488            4 
  804000   0.92817726   -7.5066705    242.41805  0.025126249  0.025269111            2 
  805000   0.92043986   -7.5154951    241.77335  0.025028297  0.025252542            2 
  806000   0.92687593   -7.4979501    242.43877  0.025066043  0.025236217            1 
  807000   0.95090901   -7.4889497    242.78174  0.025070399  0.025219785            2 
  808000    0.9265713   -7.5067327    242.47399  0.025007631  0.025203296            2 
  809000   0.95040321   -7.5034641    243.14573  0.025045914  0.025186918            2 
  810000   0.93259917    -7.487245    242.57661  0.024956441  0.025170353            2 
  811000   0.93237073   -7.4980586    242.67177  0.024935447  0.025153573            2 
  812000   0.94828619   -7.4856329    242.81924  0.024919873   0.02513687            1 
  813000   0.92514092   -7.5026042    243.07402  0.024915337  0.025120276            1 
  814000   0.92498854   -7.5039709    243.59674  0.024938241  0.025103614            2 
  815000   0.93232942   -7.5348816    243.44275  0.024891897  0.025086821            2 
  816000   0.91679978   -7.5377216    243.92148  0.024910282  0.025070159            2 
  817000   0.92524383   -7.4963186    243.12498  0.024798549  0.025053484            3 
  818000   0.93281829   -7.5120698    244.51805  0.024910152  0.025036824            3 
  819000   0.95090508   -7.5199822    243.35866  0.024761768  0.025020065            3 
  820000   0.90101321   -7.5157876    244.12685  0.024809639  0.025003438            2 
  821000   0.94722042   -7.4956208    244.76113  0.024843801  0.024986903            1 
  822000    0.9263914   -7.5335384    244.10006  0.024746559  0.024970278            3 
  823000   0.93518764   -7.5124843     244.6349  0.024770646  0.024953515            3 
  824000   0.92891553   -7.5299624    244.11806  0.024688315  0.024936931            2 
  825000   0.92328923   -7.5227082    244.94663  0.024742084  0.024920087            1 
  826000   0.93404013   -7.5136672    244.50851  0.024667929  0.024903241            3 
  827000   0.89813596   -7.5207472    244.96458  0.024684057  0.024886477            2 
  828000   0.95284811   -7.5345065    243.83276  0.024540334  0.024869694            2 
  829000   0.93024754   -7.5065962    245.33036  0.024661275   0.02485282            3 
  830000   0.91276894    -7.530659      245.789   0.02467761   0.02483599            2 
  831000   0.93162851   -7.5489224    245.17627   0.02458647  0.024819147            3 
  832000   0.93038984   -7.5325182    245.26793  0.024566098  0.024802174            1 
  833000   0.92544181   -7.5358544    244.91561  0.024501362  0.024785102            2 
  834000   0.92756072   -7.5398557    245.08679  0.024489088  0.024768022            1 
  835000   0.92474267   -7.5258913    245.56031  0.024507017  0.024750917            2 
  836000   0.92671011   -7.5802475    245.11391  0.024433204  0.024733997            3 
  837000   0.91980668   -7.5303179    246.00332  0.024492565  0.024716864            1 
  838000   0.89927186   -7.5333747    246.51433  0.024514153  0.024699772            2 
  839000   0.89962665   -7.5303487    245.62862  0.024396963  0.024682839            2 
  840000   0.90050703   -7.5219464    246.78723   0.02448286  0.024666027            2 
  841000   0.94655451   -7.5175998    246.25741   0.02440125  0.024649214            2 
  842000   0.92024905    -7.537881    246.14513  0.024361157  0.024632164            5 
  843000   0.92761069   -7.5649749    246.78634  0.024395645   0.02461492            1 
  844000   0.91101491   -7.5342044    246.60373   0.02434871  0.024597701            1 
  845000   0.91915826   -7.5677247    246.72533  0.024331887  0.024580588            1 
  846000   0.91414634   -7.5409726    246.77287  0.024307808  0.024563392            2 
  847000   0.88998235   -7.5712298    246.32862  0.024235402  0.024546343            2 
  848000   0.91407038   -7.5657843    247.03965  0.024276696  0.024529173            2 
  849000   0.92731788   -7.5516598    247.52498  0.024295738  0.024512166            2 
  850000   0.90575219   -7.5786414    247.60447  0.024274948  0.024494923            5 
  851000   0.90296393   -7.5441104    248.40718  0.024325027  0.024478103            1 
  852000   0.89789625   -7.4987748    248.46978  0.024302599  0.024461495            4 
  853000   0.92199853   -7.5678299    247.70937  0.024199821  0.024444756            2 
  854000   0.93261128    -7.538748    248.85759  0.024283528  0.024428072            2 
  855000   0.94229488   -7.5591429    248.80737  0.024250231   0.02441135            1 
  856000   0.90456299   -7.5607981    248.16693  0.024159553  0.024394518            2 
  857000   0.91722809   -7.5881881     248.8795  0.024200652  0.024377366            9 
  858000   0.92145551   -7.5457756    249.23371  0.024206848  0.024360637            2 
  859000   0.90540876   -7.5584286    248.97145  0.024153226  0.024343768            1 
  860000   0.91342727   -7.5714559    248.33716  0.024063678  0.024326942            2 
  861000   0.91658308   -7.5883618    249.48631  0.024146953  0.024309977            1 
  862000   0.89925061   -7.5558861    249.42982  0.024113478  0.024292953            2 
  863000    0.9012402   -7.5510178    249.31049  0.024074014  0.024276179            1 
  864000   0.90950731   -7.5395381    249.59483  0.024073576  0.024259358            2 
  865000   0.90683819   -7.5784512     249.5256  0.024039075  0.024242674            2 
  866000   0.90786892   -7.5540994    250.76482  0.024130564  0.024225946            2 
  867000   0.90810102   -7.5524625    250.19124  0.024047601  0.024209274            2 
  868000   0.91814612   -7.5709035    250.12076   0.02401313   0.02419259            3 
  869000   0.89075713   -7.5879158    250.10012  0.023983517   0.02417583            4 
  870000   0.92024687    -7.528121    250.70012  0.024013421  0.024159125            2 
  871000   0.91885829   -7.5456016    250.11162  0.023929546  0.024142385            2 
  872000   0.89495444   -7.5770591    250.64874  0.023953435   0.02412573            3 
  873000   0.88761918   -7.5806097    250.42624  0.023904758  0.024108975            2 
  874000   0.90664963   -7.5607708    250.88625  0.023921267  0.024092387            1 
  875000   0.89835424   -7.6045104    251.18451  0.023922334  0.024075877            2 
  876000   0.90953162   -7.6113427      251.682  0.023942352  0.024059178            5 
  877000   0.90754014   -7.5911843    252.01208  0.023946416  0.024042659            1 
  878000   0.89966857   -7.5551887    251.37798  0.023858957  0.024026169            4 
  879000   0.89106698   -7.5763356    252.21087  0.023910776  0.024009824            1 
  880000   0.88688741   -7.5653869    252.62797  0.023923103  0.023993349            4 
  881000   0.91968285   -7.5545334    252.42337  0.023876595  0.023977129            1 
  882000   0.88727864   -7.5854068    251.46353  0.023758837  0.023960617            2 
  883000   0.94407613   -7.5729944    251.85061  0.023768461  0.023943968            2 
  884000    0.9002893   -7.6061869    251.88609  0.023744918  0.023927285            1 
  885000   0.90939217   -7.5925292    252.77327  0.023801626  0.023910629            1 
  886000     0.911528   -7.5456343    253.59961  0.023852484  0.023894246            1 
  887000   0.89784638   -7.5686131    252.78438  0.023749002  0.023877988            2 
  888000   0.91235633   -7.5975947    253.05766  0.023747903  0.023861566            2 
  889000   0.90118607   -7.5361569    252.97021  0.023712993  0.023845308            2 
  890000   0.91232327   -7.6146494    252.71003  0.023661988  0.023828833            1 
  891000    0.9130995   -7.6269939    253.48123   0.02370756  0.023812304            1 
  892000   0.89222721   -7.6224511    253.45009  0.023678073  0.023795919            2 
  893000   0.90928223   -7.5983221    253.64708   0.02366994  0.023779568            1 
  894000   0.90965079   -7.5711426    254.28818  0.023703224  0.023763287            1 
  895000   0.89594393   -7.6007642    253.76807  0.023628312   0.02374704            3 
  896000   0.91392841   -7.6058818    253.87387  0.023611781  0.023730709            4 
  897000    0.9144815   -7.5980967    254.27794  0.023622997  0.023714395            2 
  898000    0.9080098   -7.5824962    254.46809  0.023614336   0.02369803            3 
  899000   0.89602956   -7.6015718    254.21543  0.023564649  0.023681791            2 
  900000   0.89726918   -7.6072151    253.95268  0.023514137  0.023665423            2 
  901000   0.90226581    -7.588582    253.93953  0.023486823  0.023649178            3 
  902000   0.88770309   -7.5820298    254.99464  0.023558263  0.023632901            2 
  903000   0.88957296   -7.5840005    255.39488   0.02356911  0.023616793            3 
  904000   0.88740224   -7.6179952    255.42894  0.023546178  0.023600586            2 
  905000   0.88686188   -7.5719674    255.11648  0.023491389  0.023584318            2 
  906000    0.8745012    -7.571455    255.17895  0.023471205   0.02356803            2 
  907000    0.8949133   -7.5864168    254.92169  0.023421692  0.023551833            4 
  908000   0.89436605   -7.6169065    255.14082  0.023416007  0.023535639            1 
  909000   0.91096988   -7.6274634    255.44485   0.02341812  0.023519329            3 
  910000   0.87497603   -7.6277559    255.51349  0.023398671  0.023502986            2 
  911000   0.90599229   -7.6340689    255.59705   0.02338063  0.023486516            3 
  912000   0.89503354   -7.6079826    255.65138  0.023359958  0.023470088            3 
  913000   0.89088749   -7.6313111    255.51987  0.023322368  0.023453624            3 
  914000   0.89813787   -7.6332756    255.76871   0.02331954  0.023437002            2 
  915000     0.898589   -7.6106662    255.58767  0.023277566  0.023420361            4 
  916000   0.88554706   -7.6108091    255.59932  0.023253213  0.023403945            1 
  917000   0.87254724   -7.6207309    256.36205  0.023297169  0.023387466            2 
  918000   0.87538026   -7.6374262    256.15076  0.023252611  0.023370911            2 
  919000   0.87912557   -7.6198827    255.63293  0.023180353  0.023354296            2 
  920000   0.89498753   -7.6114187    255.68966  0.023160296   0.02333789            3 
  921000   0.88343737   -7.5887746    257.33627  0.023284136   0.02332148            2 
  922000   0.88775499   -7.6404339    257.02267  0.023230538  0.023305216            2 
  923000   0.87775117   -7.6177793    256.94348  0.023198219  0.023288867            2 
  924000    0.8912137   -7.6244881    257.03137   0.02318104  0.023272491            2 
  925000   0.87550221   -7.6149143    256.88168  0.023142494  0.023256211            3 
  926000   0.88628464   -7.6410828    256.99631  0.023127818  0.023239902            3 
  927000    0.8993911   -7.6452037    256.91473  0.023095535  0.023223469            2 
  928000    0.8844493   -7.6379619    257.18958  0.023095328  0.023207242            3 
  929000   0.87585619   -7.6172267    257.69374  0.023115693  0.023190932            2 
  930000   0.85738891   -7.5905545    258.03177  0.023121126  0.023174719            2 
  931000   0.88723179   -7.5926899    258.15732  0.023107529  0.023158451            3 
  932000   0.88444403   -7.6177632    257.56858  0.023030095  0.023142044            2 
  933000   0.87573328   -7.6818722    257.85162  0.023030692  0.023125612            2 
  934000     0.898262   -7.6506171    257.32341  0.022958905  0.023109063            6 
  935000   0.88708772    -7.618063    257.79826  0.022976672  0.023092463            2 
  936000   0.86248068   -7.6200606    257.84228  0.022956044  0.023076039            1 
  937000   0.87101764   -7.6188205     257.7524   0.02292355  0.023059592            1 
  938000    0.8804022   -7.6417488    257.61016  0.022886474  0.023042979            3 
  939000   0.88392284    -7.610567    258.69949  0.022958776  0.023026478            6 
  940000   0.87726342   -7.6727296    257.93911  0.022866943  0.023009932            2 
  941000    0.8798256   -7.6546337    258.49935  0.022892255  0.022993409            1 
  942000   0.86904413   -7.6535867    257.72465  0.022799421  0.022976762            2 
  943000   0.87835831   -7.6365213    258.32066  0.022827913  0.022960204            2 
  944000    0.8693673   -7.6161124    258.88952  0.022853948  0.022943625            1 
  945000   0.88414945   -7.6282288    259.05638  0.022844478  0.022927119            2 
  946000   0.85871199   -7.6268984    258.82254   0.02279973  0.022910676            1 
  947000   0.88328233   -7.6676046     258.9264  0.022784794  0.022894216            2 
  948000   0.87806601   -7.6637409    257.81042   0.02266266   0.02287766            1 
  949000    0.8592607   -7.6612381    259.32346  0.022771642  0.022861051            3 
  950000   0.88501146    -7.657433    258.76409  0.022698605  0.022844301            2 
  951000   0.87986404    -7.656649    259.30479  0.022722116  0.022827618            2 
  952000   0.87329805   -7.6517548     259.2844  0.022696464  0.022810979            1 
  953000    0.8644841    -7.661069    258.94474  0.022642947  0.022794602            1 
  954000   0.89730214   -7.6306829    259.88412  0.022701268  0.022778171            1 
  955000   0.86902143     -7.62256    260.04525  0.022691557  0.022761714            2 
  956000    0.8720816   -7.6749838    259.09529  0.022585015  0.022745314            4 
  957000   0.87368978   -7.6381698    259.68152  0.022612463  0.022728795            4 
  958000   0.85993537   -7.6558299    260.53241  0.022662875  0.022712504            1 
  959000   0.89164814   -7.6347051    260.60391  0.022645456  0.022696216            2 
  960000   0.87870989   -7.6504819    260.36605   0.02260122  0.022679872            1 
  961000   0.86651967   -7.6184995    261.23115  0.022652719  0.022663633            1 
  962000    0.8714068   -7.6395322    260.12814  0.022533623  0.022647518            2 
  963000   0.87345155   -7.6456796    260.62729  0.022553417  0.022631297            2 
  964000   0.86093817   -7.6533448    259.73426  0.022452824  0.022614922            8 
  965000   0.86459513   -7.6596144    260.43956  0.022490463  0.022598595            2 
  966000   0.87535177   -7.6447825    261.40939  0.022550844   0.02258225            3 
  967000   0.86285418   -7.6409187     260.6662  0.022463478  0.022565831            3 
  968000   0.88087252   -7.6327849    261.54923   0.02251629  0.022549424            1 
  969000   0.83882829   -7.6626662    260.23738  0.022380235  0.022532923            1 
  970000   0.85122049   -7.6386889    261.33282  0.022451273  0.022516452            2 
  971000   0.87781733   -7.6873516    260.73227  0.022376611  0.022499867            2 
  972000   0.87131869   -7.6514278    261.10379  0.022385441  0.022483163            2 
  973000   0.87033215   -7.6713924    260.20444  0.022285409  0.022466522            2 
  974000   0.85952795   -7.6666763    260.25002  0.022266429  0.022449871            2 
  975000    0.8680954   -7.6874298    260.61691   0.02227495  0.022433138            2 
  976000   0.85555672   -7.6809327    261.22862  0.022304356  0.022416503            2 
  977000    0.8629997   -7.6882079    262.01861  0.022348909  0.022400145            4 
  978000   0.85820186   -7.6480541    261.28089  0.022263198  0.022383702            2 
  979000   0.85566964   -7.6415662    261.54363  0.022262822  0.022367238            2 
  980000   0.84949829   -7.6982849    261.64795  0.022248975   0.02235063            2 
  981000   0.87166221   -7.6582061    261.38407   0.02220388  0.022333905            4 
  982000   0.87330644   -7.6576021    261.19376  0.022165119  0.022317287            2 
  983000   0.85506961   -7.6841753    261.94345  0.022206125  0.022300658            1 
  984000   0.86186223   -7.6789075     261.9025   0.02218009   0.02228411            2 
  985000   0.84964649   -7.6844919    262.11988  0.022175963  0.022267542            4 
  986000   0.86879521   -7.6952584    261.65606  0.022114272  0.022250953            1 
  987000   0.85339709   -7.6788625    261.69483  0.022095139  0.022234401            5 
  988000   0.86662031   -7.7118426    261.62599   0.02206697  0.022217792            2 
  989000   0.86015342   -7.6846567     261.3684  0.022022952  0.022201053            3 
  990000   0.84131646   -7.6892046    261.49005  0.022010947  0.022184344            2 
  991000   0.86483384   -7.6871011     262.1101  0.022040876  0.022167686            2 
  992000   0.84861864   -7.6834968    262.59543  0.022059428  0.022151138            2 
  993000   0.86478081   -7.6717613    263.10426  0.022079914  0.022134666            2 
  994000   0.87230204   -7.7347583    262.28602  0.021989103  0.022118078            5 
  995000   0.84849426   -7.7052162    262.26375  0.021965138  0.022101443            5 
  996000   0.87747424   -7.6948733    262.86004  0.021992975  0.022084949            3 
  997000   0.85743271   -7.6881499    262.73487  0.021960454  0.022068523            6 
  998000   0.84465947   -7.6808978    263.10385  0.021969259   0.02205219            2 
  999000   0.84964913   -7.7089775    263.31413  0.021964809  0.022035749            2 
 1000000    0.8609541   -7.6923048    263.35265  0.021946054  0.022019285            2 
 1001000   0.87175299   -7.6890235    262.72393  0.021871789  0.022002921            4 
 1002000   0.84077842   -7.7051281    263.01907  0.021874507  0.021986641            2 
 1003000   0.86175749   -7.6917297     263.4726  0.021890379  0.021970386            4 
 1004000    0.8789026   -7.6983241    263.20406  0.021846286  0.021954008            1 
 1005000   0.85610657   -7.7371821    263.30313  0.021832764  0.021937647            1 
 1006000   0.83388822   -7.6927713    264.91036  0.021944198  0.021921356            2 
 1007000   0.84510105   -7.7024765    264.37855  0.021878397  0.021905079            1 
 1008000   0.84684912   -7.7213628    264.09044  0.021832873  0.021888931            1 
 1009000   0.85275159   -7.6931404    264.52074  0.021846774  0.021872796            1 
 1010000   0.85610921   -7.7074928    264.67545  0.021837908  0.021856639            3 
 1011000   0.85533975   -7.7175159    263.68192  0.021734415  0.021840429            2 
 1012000   0.84371871    -7.707329    264.31987   0.02176547  0.021824099            3 
 1013000    0.8549267   -7.7306274    263.93963  0.021712704  0.021807979            2 
 1014000   0.84876428   -7.6971871    264.48428  0.021736052   0.02179176            1 
 1015000   0.84697379   -7.7064473    264.05618   0.02167949  0.021775591            1 
 1016000   0.86115519   -7.7437934     263.9892  0.021652657  0.021759399            1 
 1017000    0.8302528   -7.6853247    265.06451  0.021719478  0.021743248            2 
 1018000   0.86365295   -7.7281669    265.16113  0.021706052  0.021727125            2 
 1019000   0.86033664   -7.7290986    264.73346  0.021649776  0.021710988            1 
 1020000   0.84078809    -7.711376    265.27581   0.02167286  0.021694794            3 
 1021000   0.85928278   -7.7131967    264.78276  0.021611391  0.021678571            1 
 1022000   0.83668623   -7.7215808    264.96125  0.021604798  0.021662358            3 
 1023000   0.83736153   -7.7485205    265.03988  0.021590085  0.021646112            3 
 1024000   0.83775101   -7.7190071    265.57635  0.021612659  0.021629855            2 
 1025000   0.85003217   -7.7364046    265.34499  0.021572764  0.021613777            2 
 1026000   0.84303805   -7.6955386    265.69215  0.021579934  0.021597717            5 
 1027000   0.85141312   -7.7298566    266.04459  0.021587519  0.021581799            2 
 1028000   0.83829112   -7.6928466    266.83244  0.021630385  0.021565846            3 
 1029000   0.85507022   -7.7097205    266.56178  0.021587446   0.02154993            2 
 1030000   0.85150559   -7.7255033    265.77922  0.021503173  0.021533922            5 
 1031000   0.84944343   -7.7377285     266.5953  0.021548278  0.021517988            2 
 1032000   0.82919978   -7.7456703     265.7558  0.021459609  0.021501988            2 
 1033000   0.84591759   -7.7212795    266.56225  0.021503892  0.021486024            1 
 1034000   0.82951411   -7.7501058    265.93613  0.021432635  0.021470057            4 
 1035000   0.83896089   -7.7394616    266.82325  0.021483353  0.021454077            1 
 1036000   0.84624518   -7.7394281    266.37153  0.021426281  0.021438219            1 
 1037000   0.83299181     -7.72878    266.68647  0.021430928  0.021422305            1 
 1038000   0.83542982   -7.7303125    267.64334  0.021487102  0.021406424            3 
 1039000   0.82866857   -7.7281709    266.77459  0.021396743  0.021390532            2 
 1040000   0.83713862   -7.7326711    266.68202  0.021368752  0.021374551            2 
 1041000   0.85130838   -7.7452707    266.55674  0.021338195  0.021358636            2 
 1042000   0.85240893   -7.7426817    266.39171  0.021304519  0.021342642            2 
 1043000    0.8511743   -7.7580205    267.13236  0.021343269  0.021326779            2 
 1044000   0.82591414   -7.6916201    267.60969  0.021360927  0.021311126            3 
 1045000   0.83391546   -7.7473197    267.43331   0.02132642  0.021295457            2 
 1046000   0.82584287   -7.7245672    267.54494  0.021314925  0.021279782            1 
 1047000    0.8277527   -7.7178639    268.17311  0.021344565   0.02126415            2 
 1048000    0.8398767    -7.738849    267.30961  0.021255535  0.021248388            5 
 1049000   0.83452435   -7.7158637    267.77503  0.021272246  0.021232667            4 
 1050000   0.84101785   -7.7661514    267.06124  0.021195336  0.021216915            3 
 1051000   0.82929544   -7.7424663    267.85133  0.021237816  0.021201243            1 
 1052000   0.82329486    -7.768658    268.17258  0.021243075  0.021185539            3 
 1053000   0.82587456    -7.720156    268.47114  0.021246529  0.021169929            2 
 1054000   0.83471363   -7.7496209    268.19932   0.02120488  0.021154207            2 
 1055000    0.8444093   -7.7719282    268.19054  0.021184087  0.021138477            2 
 1056000   0.83892942   -7.7657248    267.99599  0.021148674  0.021122893            2 
 1057000   0.83595221   -7.7622664        268.4  0.021160517  0.021107258            1 
 1058000   0.83393305   -7.7634291    268.75615  0.021168569  0.021091582            2 
 1059000   0.82644592    -7.733189    268.99609  0.021167461    0.0210759            4 
 1060000   0.82799849   -7.7483116    268.67482  0.021122234    0.0210602            3 
 1061000   0.82859248   -7.7275291    268.77391  0.021110109  0.021044557            1 
 1062000   0.83862695   -7.7758827    268.47093  0.021066457   0.02102889            5 
 1063000   0.83509923   -7.7488706    268.48329  0.021047608  0.021013147            3 
 1064000   0.83186348   -7.7577253    268.88178  0.021059036  0.020997466            1 
 1065000   0.81533227   -7.7723897    268.79262  0.021032286  0.020981836            2 
 1066000   0.81784835   -7.7724059    268.95832   0.02102551  0.020966173            2 
 1067000   0.82371421   -7.7654378    268.98952  0.021008241  0.020950505            3 
 1068000   0.82415105   -7.7819054    269.18321  0.021003684    0.0209349            1 
 1069000   0.81808419   -7.7593837    269.52291  0.021010517  0.020919274            2 
 1070000    0.8262664   -7.7739977    269.60033   0.02099691  0.020903575            5 
 1071000   0.82275041    -7.780195    269.33013  0.020956281  0.020887898            3 
 1072000   0.81510586   -7.8127608    268.10013  0.020841117  0.020872164            4 
 1073000    0.8212833   -7.7732083    268.56745  0.020857988   0.02085638            3 
 1074000   0.82587031   -7.7757508    269.04844  0.020875888  0.020840705            4 
 1075000   0.81863161   -7.7985489    268.77823  0.020835522  0.020824899            2 
 1076000   0.82470322   -7.7727608    269.20174  0.020848957  0.020809178            4 
 1077000    0.8362646   -7.7730683    269.26257  0.020834306  0.020793565            3 
 1078000   0.83680879   -7.7971045    269.47835  0.020831659  0.020777869            2 
 1079000   0.82938774   -7.7998637    269.85751  0.020841637  0.020762072            2 
 1080000   0.81687498   -7.8171421    269.52328  0.020796549  0.020746384            4 
 1081000   0.84028361   -7.7610738    270.13527  0.020824489  0.020730759            3 
 1082000   0.81312729   -7.7914796    270.55456  0.020837535  0.020715222            1 
 1083000   0.82515581   -7.7813096    269.98499  0.020774468  0.020699659            2 
 1084000   0.83683425   -7.8189469    270.03217   0.02075893  0.020684026            3 
 1085000   0.82287147   -7.7645855    269.74906  0.020718054  0.020668527            1 
 1086000   0.82004528   -7.7622308     269.9389  0.020713544  0.020652941            1 
 1087000   0.80562863   -7.7970534    269.63599  0.020671266  0.020637308            1 
 1088000   0.82041076   -7.7807299    270.70265  0.020733965  0.020621792            4 
 1089000   0.81182421    -7.774084    270.41849  0.020693181  0.020606373            4 
 1090000   0.83588735   -7.7730618    270.33769  0.020668019  0.020590848            4 
 1091000   0.80128271   -7.7809275     269.9257  0.020617606  0.020575264            2 
 1092000   0.82601174   -7.7940411    270.02319  0.020606165  0.020559705            2 
 1093000    0.8206007   -7.8146656    270.48563   0.02062257  0.020544185            2 
 1094000   0.81036363   -7.8117891    270.63553  0.020615138  0.020528719            2 
 1095000   0.81791584   -7.7891323    270.82163  0.020610474  0.020513216            3 
 1096000   0.81138984   -7.7798877    270.83682  0.020592824  0.020497738            1 
 1097000   0.80236066   -7.7508545    271.77706  0.020645477  0.020482368            1 
 1098000   0.82845636   -7.7691637    270.93808  0.020562999  0.020467058            2 
 1099000   0.80848497   -7.7487238    271.67216  0.020599952  0.020451877            9 
 1100000   0.82403368   -7.7800319    271.17065  0.020543231  0.020436629            1 
 1101000   0.82941365   -7.7928197    271.60038  0.020557098  0.020421287            2 
 1102000   0.80906272   -7.7851552    271.77297  0.020551495  0.020405996            2 
 1103000    0.8288307   -7.7828647    271.85842  0.020539318  0.020390767            2 
 1104000   0.82274519   -7.7602472    271.65214  0.020505143  0.020375566            2 
 1105000   0.82242736   -7.7816793    271.34871  0.020463704  0.020360321            4 
 1106000   0.80664731   -7.7819272    271.72121  0.020473268  0.020345132            3 
 1107000   0.81702037   -7.7847693    271.74754  0.020456756  0.020329869            1 
 1108000    0.8100661   -7.8130259    271.90294   0.02044998  0.020314539            3 
 1109000   0.80256638   -7.8185332    272.43451  0.020471484  0.020299259            3 
 1110000   0.79971661   -7.8020325    271.74602  0.020401353  0.020283874            2 
 1111000   0.82122648   -7.8256872    271.89217  0.020393952  0.020268559            2 
 1112000   0.81125678   -7.8052432    271.56966  0.020351444  0.020253292            2 
 1113000   0.80380523   -7.8146423    271.94616  0.020361347   0.02023795            3 
 1114000   0.80901335   -7.8148501    272.19748   0.02036187  0.020222656            2 
 1115000   0.81647913   -7.7891916    272.04638  0.020332315  0.020207452            6 
 1116000   0.80257796   -7.8067778    272.21462  0.020326659  0.020192204            2 
 1117000   0.80626388   -7.8141848    271.76736  0.020275094  0.020176942            2 
 1118000    0.8086172   -7.8197553    272.80731  0.020334474   0.02016175            4 
 1119000   0.81968556    -7.821615    272.07959  0.020262109  0.020146616            1 
 1120000    0.7935084   -7.8202544    272.50424  0.020275613  0.020131469            2 
 1121000   0.79328415   -7.8223883     272.2368  0.020237645  0.020116216            3 
 1122000    0.8017806   -7.8152171    272.84014  0.020264419  0.020100954            2 
 1123000   0.81402856   -7.7691796    273.40423  0.020288233  0.020085796            2 
 1124000   0.80377868   -7.7905475    272.54266  0.020206306   0.02007073            3 
 1125000   0.82475569   -7.8001796    272.96804  0.020219854  0.020055623            1 
 1126000    0.8021916   -7.8428088    272.77076  0.020187298  0.020040525            2 
 1127000   0.79450831   -7.7960402    273.42525  0.020217779  0.020025443            2 
 1128000   0.79664685   -7.8275262    273.37839  0.020196394  0.020010383            2 
 1129000   0.80001299    -7.840859    273.54211   0.02019059  0.019995322            2 
 1130000   0.79582522   -7.8088694    273.70775  0.020184937  0.019980294            1 
 1131000   0.78892058   -7.8242005     273.2345  0.020132221  0.019965344            1 
 1132000   0.80114339   -7.8192839    273.53956  0.020136893  0.019950416            2 
 1133000   0.78475868    -7.816844    273.66148  0.020128088  0.019935574            5 
 1134000   0.79357297   -7.8242829    273.05641  0.020065874  0.019920645            4 
 1135000   0.79516588   -7.7971118    274.35683  0.020143673  0.019905692            2 
 1136000   0.79867448   -7.8218717    273.47457  0.020061222  0.019890762            1 
 1137000   0.79064853   -7.8395255    273.18954  0.020022687  0.019875863            2 
 1138000   0.78968932   -7.8437622    273.39044  0.020019804  0.019860949            2 
 1139000   0.80597474   -7.8201328    274.54573  0.020086753   0.01984606            5 
 1140000   0.78683746   -7.8452377    274.20021  0.020043875  0.019831306            2 
 1141000   0.79910827   -7.8307298    274.37998  0.020039438  0.019816555            4 
 1142000   0.78052797   -7.8473363    274.19846  0.020008644  0.019801732            2 
 1143000   0.79858325   -7.8221628    274.03358  0.019979118  0.019786884            3 
 1144000   0.81573212   -7.8318643     274.2039   0.01997406   0.01977208            3 
 1145000   0.79085914   -7.8275594    273.99012  0.019941056  0.019757293            3 
 1146000   0.77676052   -7.8434265    274.11871  0.019933007  0.019742497            3 
 1147000   0.80346487   -7.8280638    274.91045  0.019973151  0.019727742            2 
 1148000   0.80752412   -7.8157246    275.39813  0.019991154  0.019713028            2 
 1149000   0.79765339   -7.8414124    274.67316  0.019921175  0.019698223            2 
 1150000   0.78897752   -7.8405995    274.97907   0.01992602  0.019683473            2 
 1151000   0.78805723    -7.846397     275.3266  0.019933869  0.019668768            2 
 1152000    0.8004298   -7.8426458    274.60935  0.019864681  0.019654109            3 
 1153000   0.79697173    -7.831179    275.30595  0.019897799  0.019639368            1 
 1154000   0.78449747   -7.8563345    275.07341  0.019863764  0.019624602            2 
 1155000   0.78819318   -7.8560335    275.26381  0.019860304  0.019609843            4 
 1156000   0.78551968   -7.8438202    274.58837  0.019794433  0.019595027            1 
 1157000   0.80419736   -7.8422671     275.0378  0.019809695  0.019580303            2 
 1158000   0.78921607   -7.8387402    275.33538  0.019814002  0.019565631            2 
 1159000   0.79413241   -7.8589971    275.05351   0.01977664  0.019550964            4 
 1160000   0.80281755   -7.8563895    275.25539  0.019774094   0.01953637            3 
 1161000   0.78078438   -7.8656127    275.50739   0.01977515  0.019521766            3 
 1162000   0.78927357   -7.8400411    275.09116  0.019728282  0.019507178            1 
 1163000   0.78882733   -7.8645167    274.91809  0.019698918  0.019492527            5 
 1164000   0.80086593   -7.8639853    275.61635  0.019731984  0.019477849            4 
 1165000   0.79848554   -7.8315078    275.20476  0.019685605  0.019463143            1 
 1166000   0.79676274   -7.8766802    274.87439  0.019645111  0.019448472            4 
 1167000   0.80003161    -7.860206    275.26702  0.019656314  0.019433792            4 
 1168000   0.78485083   -7.8314282    275.57556  0.019661498  0.019419065            5 
 1169000   0.78764937   -7.8443203    275.60505  0.019646781  0.019404291            3 
 1170000   0.79365718   -7.8858425    274.96157  0.019584157  0.019389538            3 
 1171000    0.7727176   -7.8673848    274.95066  0.019566657  0.019374726            1 
 1172000   0.76904614   -7.8905291    274.92511  0.019548145  0.019359864            1 
 1173000   0.78763951   -7.9038104    275.08625  0.019542928  0.019344995            2 
 1174000   0.80051014   -7.8585016    275.47559  0.019553917  0.019330163            6 
 1175000   0.76864615   -7.8568602    275.24269  0.019520758  0.019315414            2 
 1176000   0.79279085   -7.8465545     275.6834  0.019535388  0.019300695            3 
 1177000   0.78345885   -7.8874931    275.77079  0.019524978  0.019285939            3 
 1178000   0.76286925   -7.8545012    275.74874  0.019506843  0.019271182            3 
 1179000   0.77854868   -7.8788624    276.14317  0.019518177  0.019256474            2 
 1180000     0.796266   -7.8607519    275.95758   0.01948853  0.019241855            2 
 1181000   0.77463491   -7.8998677    275.91016  0.019468682  0.019227164            2 
 1182000   0.77296503    -7.894265    276.02451  0.019460273  0.019212533            2 
 1183000   0.80473582   -7.8806016    276.08622   0.01944817  0.019197954            2 
 1184000   0.78214393   -7.8697767    276.55473  0.019464719  0.019183431            2 
 1185000   0.77487004     -7.87618    275.14314  0.019349025   0.01916886            4 
 1186000     0.767668   -7.8519691     276.5237  0.019429714  0.019154322            3 
 1187000   0.77348077   -7.8897505    275.77012  0.019360441  0.019139757            3 
 1188000   0.78812049   -7.8821065    276.54287   0.01939835  0.019125224            2 
 1189000    0.7741875   -7.8767421     276.2034  0.019358242  0.019110789            1 
 1190000   0.79111506   -7.8800992    276.82427  0.019385453  0.019096247            5 
 1191000   0.75576754   -7.8686004    277.68619  0.019429484  0.019081773            3 
 1192000   0.77605737   -7.8815134    276.19806  0.019309149  0.019067228            2 
 1193000   0.77653361   -7.8919856    276.41829  0.019308346  0.019052646            3 
 1194000   0.78533726   -7.8682791    276.21386  0.019277908  0.019038126            4 
 1195000   0.77054626   -7.8963498    276.12615  0.019255659   0.01902358            3 
 1196000   0.79592177   -7.8781349    277.37554  0.019326612  0.019009115            1 
 1197000   0.76071034   -7.9102594    275.67012  0.019191737   0.01899461            1 
 1198000   0.77947453   -7.8839415    277.05903  0.019272331  0.018980002            2 
 1199000   0.76447624   -7.8960678    276.41981   0.01921183  0.018965509            2 
 1200000   0.77602514   -7.8835595    277.43304  0.019266183  0.018951008            3 
 1201000    0.7752661   -7.8892227    277.60443  0.019262034  0.018936547            2 
 1202000    0.7598576   -7.9031939    276.61977  0.019177743  0.018922014            4 
 1203000   0.76884088   -7.8999468    276.75945  0.019171478  0.018907478            4 
 1204000   0.77604642   -7.8768063    276.32213  0.019125286  0.018892945            2 
 1205000   0.77966902    -7.892634    276.75207  0.019139147  0.018878412            3 
 1206000   0.77358033   -7.9157473    276.60411  0.019113053  0.018863894            6 
 1207000    0.7843857   -7.9254254    276.41808  0.019084375  0.018849413            2 
 1208000   0.75446218   -7.9022494    276.67509  0.019086306  0.018834898            3 
 1209000   0.78373801   -7.8866127    277.27244  0.019111693  0.018820377            2 
 1210000   0.77237857   -7.8710295    277.22582  0.019092687  0.018805849            3 
 1211000   0.76811055   -7.8817994    276.87573   0.01905283  0.018791413            4 
 1212000    0.7771642   -7.9021621    276.13274  0.018986025  0.018776948            3 
 1213000   0.74932018   -7.9565049    276.90249  0.019023254  0.018762388            2 
 1214000   0.77658335   -7.9173601    276.89704  0.019007211  0.018747831            3 
 1215000   0.77016461   -7.9155022    277.47567  0.019031253  0.018733266            4 
 1216000   0.77103891   -7.9463054    277.33543  0.019005991  0.018718707            5 
 1217000   0.76181811   -7.9519532    277.24712  0.018984328   0.01870422            3 
 1218000   0.77381873   -7.9445211    276.84206  0.018941027  0.018689696            4 
 1219000   0.76456837   -7.9063778    277.16853  0.018947808  0.018675247            2 
 1220000   0.75741288   -7.9315282    277.07036  0.018925571  0.018660788            4 
 1221000   0.76747226   -7.9187588    276.65495  0.018881719   0.01864638            4 
 1222000   0.77873357   -7.9054502    276.66109  0.018866687  0.018631929            2 
 1223000   0.75587888   -7.9371929    276.86974  0.018865477  0.018617421            3 
 1224000   0.77501603   -7.9163962     277.2366  0.018875041  0.018602882            3 
 1225000   0.75659764   -7.9380751    277.48657  0.018876638  0.018588418            3 
 1226000   0.75420875   -7.9214937    277.67244  0.018873874  0.018573973            1 
 1227000   0.75486199   -7.9306111    277.18553  0.018825423  0.018559517            2 
 1228000    0.7573836   -7.9393841    277.58033  0.018836884  0.018545065            2 
 1229000   0.77170951   -7.9243974    276.75923  0.018765882  0.018530605            4 
 1230000   0.75756625   -7.9139477    277.83969  0.018823827   0.01851618            2 
 1231000   0.75625961    -7.930494    277.74994   0.01880246  0.018501778            2 
 1232000   0.76900328   -7.9184215    278.09022  0.018810215  0.018487395            3 
 1233000   0.77841805   -7.9245843    277.54992  0.018758443  0.018473069            2 
 1234000   0.77389582   -7.9305524    277.76503  0.018757768  0.018458803            6 
 1235000   0.76409232   -7.9090308    277.82122  0.018746371  0.018444562            1 
 1236000   0.75217291   -7.9419816    277.95505  0.018740227  0.018430325            2 
 1237000    0.7561853   -7.9223848    277.74188  0.018710717  0.018416075            3 
 1238000   0.76079799   -7.9370255    277.74885  0.018696072  0.018401794            3 
 1239000   0.75274551   -7.9368267    277.83475   0.01868676  0.018387541            2 
 1240000   0.76643078   -7.9286283    277.63601  0.018658334  0.018373287            3 
 1241000   0.75314315   -7.9496379    277.07821  0.018605843  0.018358992            3 
 1242000   0.75363768    -7.951381    278.64226  0.018695804  0.018344675            2 
 1243000   0.75345855   -7.9425311     277.8039  0.018624558  0.018330443            1 
 1244000    0.7413553   -7.9484283    278.33639  0.018645256   0.01831616            3 
 1245000   0.76602253   -7.9610802    278.83791   0.01866385  0.018301991            2 
 1246000   0.76047543   -7.9271249    278.44988  0.018622918  0.018287839            2 
 1247000   0.74561329    -7.935633    278.21274  0.018592137  0.018273641            1 
 1248000   0.76394134   -7.9845157    277.56098  0.018533719  0.018259381            2 
 1249000   0.75478768   -7.9244472     277.8692  0.018539445  0.018245093            4 
 1250000   0.76696285   -7.9424777    278.47692  0.018565128  0.018230841            2 
 1251000     0.755429   -7.9491191    278.55872  0.018555737  0.018216691            8 
 1252000   0.75816901   -7.9458074    278.55671  0.018540782  0.018202572            3 
 1253000   0.74656148   -7.9330984    278.26335  0.018506474  0.018188422            2 
 1254000   0.75288148   -7.9583881    278.41119  0.018501541  0.018174258            2 
 1255000   0.76884844   -7.9369746    278.56217  0.018496824  0.018160139            2 
 1256000   0.76114111   -7.9272969    279.01285  0.018511999  0.018146012            1 
 1257000   0.75675261   -7.9675768    278.54269  0.018466102  0.018131898            1 
 1258000    0.7565691   -7.9709157    278.40718  0.018442447  0.018117733            2 
 1259000   0.75535551   -7.9725637    278.74008  0.018449833  0.018103624            3 
 1260000   0.75280905   -7.9489633    278.97158  0.018450501  0.018089497            2 
 1261000   0.75777922   -7.9519279    278.63908  0.018413896  0.018075434            2 
 1262000   0.76133036   -7.9693909    278.72707  0.018405115  0.018061341            2 
 1263000   0.72533675   -7.9327084    279.48819  0.018440762  0.018047315            1 
 1264000   0.75798934   -7.9315791    278.86196  0.018384887  0.018033277            1 
 1265000   0.74401038   -7.9619639    278.58542  0.018352135  0.018019192            2 
 1266000   0.75113103   -7.9908413    278.71012  0.018345848  0.018005116            2 
 1267000   0.74652808   -7.9647092    278.26765  0.018302266  0.017991045            3 
 1268000   0.75260114   -7.9820559    279.16421  0.018346754  0.017976953            2 
 1269000   0.76163085   -7.9809717    279.16428  0.018332301   0.01796291            1 
 1270000   0.74173081   -7.9575864    279.77144  0.018357706  0.017948918            4 
 1271000   0.73737826   -7.9856654    278.79542  0.018279269  0.017934947            4 
 1272000    0.7587453   -8.0015336    279.14303  0.018287672  0.017920941            2 
 1273000   0.75574341   -7.9734141    279.52672  0.018298424  0.017906966            1 
 1274000   0.73680878   -7.9729027    279.50738  0.018282796  0.017893061            2 
 1275000   0.74364719   -7.9834057    279.48794  0.018267185  0.017879111            2 
 1276000    0.7516651   -7.9887358    279.29995  0.018240592  0.017865188            2 
 1277000   0.74301555   -7.9512707    279.09016  0.018212618  0.017851309            4 
 1278000   0.74358428   -7.9697387    279.75517   0.01824173  0.017837455            2 
 1279000   0.74584554   -7.9648414    279.98735  0.018242595  0.017823676            3 
 1280000   0.73434696   -7.9883266    279.74045  0.018212269  0.017809871            3 
 1281000   0.74110474   -7.9683364    279.26069  0.018166842  0.017796091            3 
 1282000   0.73969498    -7.979545     280.2721  0.018218415  0.017782388            8 
 1283000   0.75131395   -7.9586779    279.85679   0.01817724  0.017768711            1 
 1284000   0.74283656   -7.9463319    280.32136  0.018193234  0.017755004            3 
 1285000   0.75954454   -7.9320389    280.78752  0.018209308  0.017741286            3 
 1286000   0.75678066   -7.9847928    280.47176  0.018174686  0.017727616            2 
 1287000   0.75733301   -7.9488787    279.39401   0.01809078  0.017713955            3 
 1288000   0.73709925   -7.9648857    280.16283  0.018126477   0.01770034            4 
 1289000   0.74155427   -7.9475384    280.65696   0.01814436  0.017686724            4 
 1290000   0.72989446   -7.9312745    281.28335  0.018170759  0.017673144            5 
 1291000   0.73353773   -7.9738882    280.45379  0.018103137  0.017659478            2 
 1292000   0.75183466   -7.9346053    280.84866  0.018114594  0.017645914            3 
 1293000   0.73301367   -7.9411806    281.01078  0.018111032  0.017632324            3 
 1294000   0.73694051   -7.9520696    280.05716  0.018035623  0.017618679            2 
 1295000   0.74038891   -7.9837254    279.83369  0.018007316  0.017605023            3 
 1296000   0.72815178   -8.0063931    280.73434  0.018051334  0.017591327            4 
 1297000   0.74123978    -7.978086    280.41253  0.018016739  0.017577592            3 
 1298000   0.73937375   -8.0125224    280.27705  0.017994161  0.017563907            1 
 1299000   0.73065341   -7.9981224     280.4105   0.01798887  0.017550174            2 
 1300000   0.71665425   -8.0032302     280.2048  0.017961846  0.017536441            2 
 1301000    0.7348476   -8.0283594    280.14356  0.017944117  0.017522679            2 
 1302000   0.74721548   -7.9980151    280.85951  0.017976159  0.017509033            4 
 1303000   0.71288869   -7.9873558    280.44939  0.017936134  0.017495453            3 
 1304000   0.73850838   -7.9687797     280.6696  0.017936452  0.017481916            2 
 1305000   0.73829739   -7.9826134    280.64716  0.017921274  0.017468414            2 
 1306000   0.73156405   -8.0081381    280.53291  0.017900263   0.01745483            2 
 1307000   0.73774868   -8.0120125    280.21093  0.017866037  0.017441261            3 
 1308000   0.74662111   -7.9814116    279.80116  0.017826272   0.01742762            4 
 1309000   0.73301431   -8.0197921    279.81192  0.017813339  0.017413986            3 
 1310000   0.72731182   -8.0122101     280.7124  0.017857023  0.017400372            5 
 1311000   0.72796277    -8.017979    280.31414  0.017818086  0.017386796            3 
 1312000   0.73234666   -8.0319479    280.36209  0.017807552  0.017373214            6 
 1313000   0.71312406   -8.0061657    280.32509  0.017791641  0.017359622            2 
 1314000    0.7347575   -8.0205933    280.30158   0.01777661  0.017346079            1 
 1315000   0.72910251   -8.0194977    281.24835  0.017823089  0.017332572            4 
 1316000   0.73477227   -8.0160477    280.39264   0.01775536   0.01731902            2 
 1317000   0.74096159   -8.0264442    280.61349  0.017755852  0.017305492            3 
 1318000   0.73156609   -8.0355273    280.11687  0.017710981  0.017291995            3 
 1319000   0.72749145   -8.0298384    280.50124  0.017721837  0.017278403            3 
 1320000   0.71921384   -7.9818201    279.99946  0.017676734  0.017264832            1 
 1321000   0.72706271   -8.0538409     280.7958  0.017713588  0.017251244            1 
 1322000   0.73089505   -8.0500791    280.57835  0.017686482   0.01723772            4 
 1323000   0.73666421   -8.0362383    280.74191  0.017683416  0.017224217            2 
 1324000   0.73579192   -8.0055297    280.74974  0.017670553  0.017210777            9 
 1325000   0.71761453   -8.0219382    280.71558  0.017655068  0.017197314            2 
 1326000   0.73165504   -8.0285411    280.92963  0.017655206  0.017183809            3 
 1327000   0.74466782    -8.002493    280.64996  0.017624338  0.017170406            2 
 1328000   0.71271963   -8.0154118    280.91576  0.017627746  0.017156979            2 
 1329000   0.72341727   -8.0441371    281.33981  0.017641072  0.017143604            4 
 1330000   0.71605059   -8.0385154    281.27864  0.017623975  0.017130175            4 
 1331000   0.74285121   -8.0583734    281.10262  0.017599713  0.017116824            2 
 1332000   0.72611224   -8.0408475    281.23332  0.017594677  0.017103453            4 
 1333000   0.71959067   -8.0260131    281.22379  0.017580882  0.017090083            2 
 1334000   0.73375179    -8.025552    281.02507  0.017555289  0.017076716            3 
 1335000   0.72382542   -8.0336099    281.13071  0.017548733  0.017063392            2 
 1336000   0.71418146   -8.0317639    281.60209  0.017565001  0.017050032            3 
 1337000   0.73490182   -8.0402368     281.6308  0.017553652  0.017036712            4 
 1338000   0.70917164   -8.0367923    281.37224  0.017524429  0.017023379            2 
 1339000   0.72529663    -8.059418    280.93656  0.017484227  0.017010068            4 
 1340000   0.71611902   -8.0616535    281.51081  0.017506891  0.016996719            2 
 1341000   0.73110006   -8.0422961    280.66738  0.017441423   0.01698337            4 
 1342000   0.72073996   -8.0561847    281.37127  0.017472135  0.016970014            8 
 1343000   0.71600234    -8.045041    281.06709  0.017440251  0.016956681            2 
 1344000   0.72951856   -8.0413494    281.47261  0.017452419  0.016943342            5 
 1345000   0.72111218   -8.0599831    280.47364  0.017377549  0.016930034            3 
 1346000   0.70357368   -8.0525446    280.92925  0.017392846  0.016916701            2 
 1347000    0.7215993   -8.0512186    280.79482  0.017371617  0.016903365            5 
 1348000   0.70551505   -8.0383709    280.97284  0.017369735  0.016890011            3 
 1349000   0.71881251   -8.0595114    280.73451  0.017342137  0.016876673            3 
 1350000   0.71375099   -8.0565374    281.04976  0.017348751  0.016863299            3 
 1351000   0.72106439   -8.0613161    280.23686  0.017285767   0.01684989            2 
 1352000   0.72171276   -8.0561848    280.78776  0.017306938  0.016836534            2 
 1353000   0.72315759   -8.0807876    280.38854  0.017269558  0.016823159            1 
 1354000   0.71228246    -8.073725    281.09636  0.017300367  0.016809747            2 
 1355000   0.72592098   -8.0816008    280.52639  0.017252546  0.016796348            4 
 1356000   0.71328425   -8.0835221    280.38121    0.0172309  0.016782911            3 
 1357000   0.72277198   -8.0588883    281.05015  0.017259282  0.016769496            1 
 1358000   0.71332712   -8.0535728    280.54824  0.017215773  0.016756093            2 
 1359000   0.71529198   -8.0573219     280.8029  0.017218721  0.016742755            2 
 1360000   0.71876355    -8.055737     280.0011   0.01715693  0.016729332            3 
 1361000   0.71503017   -8.0886126    280.11565  0.017151338  0.016715931            3 
 1362000   0.70535411   -8.0638893    280.30693  0.017150448  0.016702524            2 
 1363000   0.70595398   -8.0906539    280.25224  0.017134522  0.016689098            2 
 1364000   0.70084703    -8.074112    280.59753  0.017143055   0.01667571            2 
 1365000   0.70982797   -8.0527143    281.29517  0.017173087  0.016662397            1 
 1366000   0.71107002   -8.0560136    280.87881  0.017135115  0.016649074            5 
 1367000   0.70454364     -8.07882    281.09546  0.017135788  0.016635761            3 
 1368000   0.69300306   -8.0687233    280.84669  0.017108108   0.01662246            1 
 1369000   0.71078559   -8.0727351    280.83971  0.017095186  0.016609174            4 
 1370000   0.68821325   -8.0789899    280.47356  0.017060436  0.016595881            2 
 1371000   0.69858542   -8.0684575    280.79793  0.017067708  0.016582595            2 
 1372000   0.69758157    -8.094482     280.6212  0.017044534  0.016569264            3 
 1373000   0.71882777   -8.0643229    280.79905  0.017042914  0.016555949            2 
 1374000   0.71350095    -8.085222    280.98492  0.017041783  0.016542678            4 
 1375000   0.72254101   -8.0817363    280.82335  0.017019597  0.016529382            1 
 1376000   0.69739785   -8.0842388    281.22735  0.017031695  0.016516113            3 
 1377000   0.70305121   -8.0767612     280.6972  0.016987243  0.016502821            2 
 1378000   0.72245317   -8.0650947     281.1846   0.01700439  0.016489559            5 
 1379000   0.69896838   -8.0709818    281.15161  0.016990066  0.016476328            1 
 1380000   0.70431076   -8.0780521    280.95346  0.016965788  0.016463086            2 
 1381000   0.68596888   -8.0869218    281.12616  0.016963925  0.016449863            2 
 1382000   0.69847342   -8.1095193    281.24798  0.016958995   0.01643663            3 
 1383000   0.69889344   -8.0816561    281.19102  0.016943301  0.016423427            3 
 1384000   0.69019047   -8.0784774    281.34873  0.016940555  0.016410228            3 
 1385000   0.71733617   -8.0929793     280.8392  0.016897665  0.016397033            5 
 1386000   0.70997198   -8.0823714    280.30822  0.016853549  0.016383799            5 
 1387000   0.70247926   -8.0606726    280.84425  0.016873603  0.016370563            2 
 1388000   0.69839223   -8.0982158    280.84602  0.016861553  0.016357402            3 
 1389000    0.7008654   -8.0830448    281.16563  0.016868588  0.016344248            1 
 1390000   0.69103878   -8.0717611    280.94283  0.016843095  0.016331067            3 
 1391000   0.70320229   -8.0824984    280.99502  0.016834113  0.016317907            4 
 1392000   0.69818061   -8.0918254    281.00337   0.01682252  0.016304771            1 
 1393000   0.70187163   -8.0567635    281.25037  0.016825219  0.016291661            1 
 1394000    0.6896005   -8.0485003    281.52709  0.016829692   0.01627857            4 
 1395000   0.70598823   -8.0815049    281.55286  0.016819167   0.01626545            2 
 1396000   0.70598778    -8.060843    281.79741  0.016821717  0.016252387            3 
 1397000   0.69314176   -8.1024314    281.14797  0.016770936    0.0162393            2 
 1398000   0.69817269   -8.0798139    281.20891  0.016762572  0.016226176            4 
 1399000   0.69901954   -8.1135164    281.13466  0.016746168  0.016213085            6 
 1400000   0.68278165   -8.1079682    281.15742  0.016735561       0.0162            7 
 1401000   0.67548622   -8.0855863     280.8796   0.01670709   0.01618691            3 
 1402000   0.70591276   -8.0969574    281.46017  0.016729682  0.016173844            2 
 1403000   0.69500393   -8.0846196     281.1418  0.016698848  0.016160791            5 
 1404000   0.68848156   -8.1030114    280.93823  0.016674871  0.016147764            2 
 1405000   0.68953348   -8.1189814    281.29949   0.01668443  0.016134718            3 
 1406000   0.68946063     -8.08125    281.14945  0.016663671  0.016121698            3 
 1407000   0.69045959   -8.1120675    280.86793  0.016635154   0.01610871            3 
 1408000   0.68927547   -8.0861804    280.98555    0.0166303  0.016095694            2 
 1409000   0.69016785   -8.1367462    281.21527  0.016632083  0.016082647            3 
 1410000   0.68889002   -8.1341588    280.67441  0.016588322  0.016069573            5 
 1411000   0.69606142    -8.112783    281.02188  0.016597087  0.016056527            3 
 1412000   0.69335326   -8.1156836    280.52851  0.016556215  0.016043483            1 
 1413000    0.6832114   -8.1099671    280.08738  0.016518482  0.016030438            2 
 1414000   0.68625041   -8.1394575     280.6353  0.016539091   0.01601742            4 
 1415000    0.6818078   -8.1153525    280.74295  0.016533743  0.016004406            2 
 1416000   0.70219522   -8.1309867    280.59016  0.016513074  0.015991372            4 
 1417000   0.69185756    -8.136044    280.18353  0.016477507  0.015978345            3 
 1418000   0.67989852   -8.1335323    281.54485  0.016545889  0.015965343            2 
 1419000   0.68833391   -8.1457452    281.44389    0.0165283  0.015952365            2 
 1420000   0.68368957   -8.1306321    281.54883  0.016522819  0.015939401            1 
 1421000   0.68134909   -8.1351643    280.98477  0.016478113  0.015926398            2 
 1422000   0.68515061   -8.1525634    280.71464  0.016450694  0.015913406            3 
 1423000   0.67715204    -8.153511     281.3356  0.016475498  0.015900435            2 
 1424000   0.66539771   -8.1462693    280.68636  0.016425934  0.015887454            4 
 1425000     0.663113   -8.1580072    280.83933  0.016423353  0.015874457            1 
 1426000   0.68891064   -8.1286622     281.0171  0.016422224  0.015861475            2 
 1427000   0.68484298   -8.1730554    280.93218  0.016405757  0.015848515            2 
 1428000   0.69740638   -8.1535322    280.80217  0.016386681  0.015835577            2 
 1429000   0.68005069   -8.1326087    280.98871  0.016386092   0.01582263            1 
 1430000   0.68615659    -8.142167     281.7084  0.016416574  0.015809709            1 
 1431000      0.66786   -8.1267043    281.57698  0.016397448  0.015796804            5 
 1432000   0.68079293   -8.1438323    281.05402  0.016355564  0.015783896            3 
 1433000   0.68089248    -8.157432    280.94164  0.016337616  0.015771013            3 
 1434000   0.67871047   -8.1330058    280.76536  0.016315979  0.015758087            2 
 1435000   0.68726749   -8.1296529    280.94063  0.016314787  0.015745153            4 
 1436000   0.67286459   -8.1457013    281.02235  0.016308168   0.01573225            2 
 1437000   0.68325814    -8.144702    281.07765  0.016300026  0.015719358            3 
 1438000   0.67041314   -8.1416539    281.22878  0.016297449  0.015706484            2 
 1439000   0.68159223   -8.1482079    280.54433  0.016246487  0.015693659            4 
 1440000    0.6771616   -8.1417598    280.56941  0.016236656  0.015680822            2 
 1441000   0.67351411    -8.149843    280.92271   0.01624582  0.015667964            6 
 1442000   0.67206864   -8.1380726    281.02598  0.016240521  0.015655099            6 
 1443000   0.68636476    -8.162807    281.16234  0.016237141  0.015642195            1 
 1444000   0.67237359   -8.1814168    280.10789  0.016165045  0.015629305            4 
 1445000   0.67548007   -8.1614181    281.07235  0.016209478  0.015616448            3 
 1446000   0.68530393   -8.1282529    281.55863  0.016226293  0.015603612            4 
 1447000    0.6673113    -8.130295    281.14118  0.016191038  0.015590809            3 
 1448000   0.67692374   -8.1470166    280.75691  0.016157741  0.015578066            6 
 1449000   0.69854737   -8.1639604    280.95085  0.016157744  0.015565313            3 
 1450000   0.67885486   -8.1560936    280.96354   0.01614733  0.015552583            3 
 1451000   0.66821716   -8.1603621    280.84663  0.016129487  0.015539845            2 
 1452000   0.65470598   -8.1533726     280.9885  0.016126521  0.015527121            4 
 1453000   0.68165762   -8.1464908    280.67541  0.016097466  0.015514418            3 
 1454000   0.67723308   -8.1532246    280.69172  0.016087329  0.015501724            2 
 1455000   0.66960331   -8.1583565    281.21055  0.016105988  0.015489001            2 
 1456000   0.67013836   -8.1626236    281.04793  0.016085619  0.015476306            6 
 1457000   0.67360076   -8.1479266    281.13758  0.016079706  0.015463617            4 
 1458000   0.67526319   -8.1664758    281.11912  0.016067622  0.015450974            2 
 1459000   0.68111415   -8.1798438    280.88101  0.016043009    0.0154383            1 
 1460000   0.67556079     -8.20641    280.86453   0.01603108  0.015425591            2 
 1461000   0.66412472   -8.1411637    281.05416  0.016030924  0.015412938            2 
 1462000   0.67035909   -8.1782849    280.89902  0.016011116  0.015400268            2 
 1463000   0.67796478    -8.161158    280.86029  0.015997966  0.015387625            3 
 1464000   0.67056732   -8.1574919     280.6644  0.015975888  0.015374975            2 
 1465000   0.68228502   -8.1633788    281.09759  0.015989624  0.015362362            2 
 1466000   0.64915855   -8.1761775    281.26616  0.015988299  0.015349774            2 
 1467000    0.6763503   -8.1735755    280.77613  0.015949564  0.015337198            3 
 1468000   0.65889724   -8.1630893    281.14007  0.015959359  0.015324599            2 
 1469000   0.65779212   -8.1694108    281.21514  0.015952753  0.015312034            3 
 1470000   0.67869283   -8.1738901    280.96706  0.015927838   0.01529945            3 
 1471000   0.67503011   -8.1867137    280.55179  0.015893485   0.01528684            2 
 1472000   0.67145868   -8.1804427    280.49162  0.015879281  0.015274221            3 
 1473000   0.65749843   -8.1725702    280.32934   0.01585932   0.01526166            4 
 1474000   0.66819757   -8.1795137    280.57831  0.015862636  0.015249087            2 
 1475000   0.66923475   -8.1775473    280.93823  0.015872216   0.01523653            5 
 1476000   0.66313782    -8.159895    281.23407  0.015878165  0.015223975            3 
 1477000    0.6632881   -8.1814873    281.04871  0.015856957  0.015211443            1 
 1478000   0.66778426   -8.1990367    280.17677  0.015797066    0.0151989            3 
 1479000   0.66214217   -8.1966547    280.96458  0.015830774  0.015186341            1 
 1480000   0.66197712   -8.1780582    280.86796  0.015814638  0.015173764            3 
 1481000   0.65781852   -8.1737201    280.94887  0.015808512  0.015161229            3 
 1482000   0.63664332   -8.1985779    280.54379  0.015775067  0.015148692            2 
 1483000   0.66478664   -8.2004564    280.61184  0.015768253  0.015136179            2 
 1484000   0.65037898   -8.1898304    280.48656  0.015750593  0.015123676            1 
 1485000   0.66815041   -8.1865282    280.73487  0.015753921  0.015111171            3 
 1486000   0.66143368   -8.1672883    280.60226  0.015735883  0.015098684            5 
 1487000    0.6518026   -8.1931412    281.22399  0.015760143  0.015086223            2 
 1488000   0.65140907   -8.1972938    280.84411  0.015728277  0.015073752            3 
 1489000    0.6625281   -8.1950007    281.42341  0.015750135   0.01506131            3 
 1490000   0.64966073   -8.1769664    280.83381  0.015706589  0.015048834            2 
 1491000   0.65710945   -8.2191082    280.34573  0.015668775  0.015036369            2 
 1492000   0.66256778   -8.2024514    280.32271  0.015656988  0.015023933            2 
 1493000   0.65211245    -8.195425    280.35497  0.015648301  0.015011463            2 
 1494000   0.65447811   -8.2093998     280.7544  0.015660107  0.014999038            2 
 1495000    0.6524436    -8.205761    280.86662  0.015655888  0.014986617            2 
 1496000   0.65625475   -8.1834503    280.63385  0.015632456  0.014974211            2 
 1497000   0.64288104   -8.1990965    280.07518  0.015590914  0.014961808            6 
 1498000   0.65868085   -8.1759397    280.45757  0.015601779  0.014949393            5 
 1499000    0.6679163   -8.2108267    280.32001  0.015583723  0.014936977            4 
 1500000   0.66042662   -8.2100678    280.06558  0.015559199  0.014924549            3 
 1501000   0.66397983   -8.2147822      280.526  0.015574395  0.014912105            3 
 1502000   0.65160107   -8.1943477    280.52645  0.015564051  0.014899664            5 
 1503000    0.6543411   -8.2035355    280.44644  0.015549259  0.014887266            2 
 1504000    0.6684491   -8.1974913    281.16331  0.015578641   0.01487488            4 
 1505000   0.64986519   -8.2105264    280.72056  0.015543774  0.014862503            3 
 1506000   0.65019188   -8.2300808    280.26527   0.01550826  0.014850118            2 
 1507000   0.65557492   -8.2132294    280.47547  0.015509593   0.01483776            3 
 1508000    0.6656826   -8.2161034    280.42951  0.015496768  0.014825415            3 
 1509000   0.65789797   -8.2175989    280.76211  0.015504866  0.014813071            2 
 1510000   0.63644576   -8.2034669    280.20521  0.015463864  0.014800732            2 
 1511000   0.65150316   -8.2004115    280.52299  0.015471156  0.014788385            2 
 1512000   0.66237454   -8.2178976    280.72207  0.015471895  0.014776052            3 
 1513000   0.64971982   -8.2320219    280.31612   0.01543931  0.014763747            2 
 1514000    0.6412411   -8.2079167    280.06561  0.015415324  0.014751444            2 
 1515000   0.65723278   -8.1869583    280.52693  0.015430524  0.014739187            1 
 1516000   0.64499317   -8.2065177    280.59304   0.01542398  0.014726933            2 
 1517000   0.64071455   -8.2073964    280.86582  0.015428797  0.014714699            2 
 1518000   0.65084313   -8.2042939    280.81028  0.015415584  0.014702445            3 
 1519000   0.63861957   -8.2179229    280.17997  0.015370856  0.014690193            2 
 1520000   0.64818447   -8.1981682     280.1355  0.015358306  0.014677957            2 
 1521000   0.64510919   -8.1935165    280.84894  0.015387297  0.014665756            4 
 1522000   0.65360263   -8.2153485    280.19761  0.015341525  0.014653514            3 
 1523000   0.64094998   -8.2211311    279.87804  0.015313966  0.014641276            3 
 1524000    0.6401481   -8.2325496    280.18072  0.015320468  0.014629041            4 
 1525000   0.63947549   -8.2129465    280.33806   0.01531902  0.014616822            2 
 1526000   0.65191006   -8.2329291    280.16653  0.015299614  0.014604633            2 
 1527000   0.64552768   -8.2203611    280.44059  0.015304551  0.014592468            3 
 1528000   0.65535474   -8.2149481    280.29857  0.015286789  0.014580317            2 
 1529000    0.6303415   -8.2295324    280.31008  0.015277419  0.014568174            2 
 1530000   0.63971378   -8.2106796    280.89228  0.015299144  0.014556023            2 
 1531000   0.63173587   -8.2142246    280.29809  0.015256809  0.014543897            2 
 1532000   0.62802063   -8.2225468    280.57809  0.015262081  0.014531769            4 
 1533000    0.6354029   -8.2394866    280.13588  0.015228086  0.014519627            1 
 1534000   0.63406298   -8.2292031    280.11367  0.015216953  0.014507492            2 
 1535000   0.63944666    -8.220339    279.92981  0.015197058  0.014495358            1 
 1536000   0.64221157   -8.2258888    280.42059  0.015213791  0.014483242            2 
 1537000   0.63789983   -8.2101342    280.73244    0.0152208  0.014471155            1 
 1538000   0.62476202   -8.2378279    280.22446   0.01518338  0.014459079            4 
 1539000   0.64364025   -8.2315102    279.99618  0.015161153  0.014447003            4 
 1540000    0.6452959   -8.2443567    280.21132   0.01516295   0.01443495            5 
 1541000   0.63668086    -8.258139    280.36043  0.015161174  0.014422924            4 
 1542000   0.64101207    -8.219732    280.50381   0.01515909  0.014410914            7 
 1543000   0.64285429   -8.2377892    280.29233  0.015137845  0.014398911            5 
 1544000   0.65363692   -8.2536404    280.96171  0.015164168  0.014386909            1 
 1545000   0.64332728   -8.2613906    280.52808  0.015130965  0.014374879            1 
 1546000   0.62816719    -8.232208    280.30246  0.015109016  0.014362919            1 
 1547000   0.62224174    -8.240313    280.85788  0.015129168  0.014350937            2 
 1548000    0.6456643   -8.2330419    280.04567  0.015075672  0.014338971            2 
 1549000   0.64361525   -8.2336179    280.07406  0.015067466  0.014326986            1 
 1550000   0.64113418   -8.2622702    280.20119   0.01506458  0.014314989            2 
 1551000    0.6341177   -8.2632048     279.8342  0.015035149  0.014303048            5 
 1552000   0.62276685   -8.2292383     280.2137  0.015045839  0.014291103            1 
 1553000   0.62998401    -8.266078    280.12864  0.015031586  0.014279179            3 
 1554000   0.61244985   -8.2217716    280.46484  0.015039942  0.014267261            4 
 1555000   0.62234679   -8.2543044    280.19215  0.015015656  0.014255349            2 
 1556000    0.6285956   -8.2355756    280.11464  0.015001855  0.014243432            3 
 1557000   0.63853838   -8.2472877    279.98895  0.014985493  0.014231518            1 
 1558000   0.63046075   -8.2423648    279.79021  0.014965244  0.014219611            1 
 1559000   0.61824596   -8.2746384    279.99133  0.014966395  0.014207732            4 
 1560000   0.62827787   -8.2403706    280.61885  0.014990323  0.014195868            1 
 1561000   0.63165433   -8.2526696    279.84097  0.014939193  0.014184021            2 
 1562000   0.64213617   -8.2653834    280.56007  0.014967993  0.014172159            2 
 1563000    0.6219827   -8.2703422    279.97988  0.014927484  0.014160328            2 
 1564000   0.63456687   -8.2614011    280.07005  0.014922743  0.014148496            2 
 1565000   0.62693616   -8.2461962    280.35092  0.014928164  0.014136703            4 
 1566000   0.63214458   -8.2701885    280.19022   0.01491008   0.01412487            2 
 1567000    0.6282141   -8.2498462    280.02093  0.014891562  0.014113065            2 
 1568000   0.62596869   -8.2724236    280.14299  0.014888552  0.014101269            2 
 1569000   0.62441952   -8.2531556    280.36986  0.014891112  0.014089486            2 
 1570000   0.63283573   -8.2680927    280.64959  0.014896475  0.014077676            2 
 1571000    0.6334782   -8.2480888    280.62295   0.01488558  0.014065912            2 
 1572000   0.62273082   -8.2653688    280.16756   0.01485197  0.014054155            2 
 1573000   0.62697108   -8.2598554    280.73472  0.014872575  0.014042408            2 
 1574000   0.63516228   -8.2503557    280.35581  0.014843065  0.014030674            2 
 1575000   0.61398628   -8.2472611    280.01942  0.014815843  0.014018965            1 
 1576000   0.61687586   -8.2523847     280.1992  0.014815948  0.014007244            1 
 1577000   0.61932097   -8.2679239    280.00367   0.01479622  0.013995539            3 
 1578000   0.60754093   -8.2539395    280.23688  0.014799159  0.013983848            4 
 1579000    0.6173178   -8.2509373    280.23598  0.014789739  0.013972177            4 
 1580000   0.61779426   -8.2604483    279.80035  0.014757403  0.013960522            2 
 1581000   0.62218913   -8.2694812    280.63439   0.01479203   0.01394888            3 
 1582000    0.6173566   -8.2529685    280.68719  0.014785461  0.013937241            2 
 1583000    0.6184877   -8.2676967    280.56584  0.014769733  0.013925621            3 
 1584000   0.61713226   -8.2781307    280.19258  0.014740771  0.013913992            2 
 1585000   0.63062867    -8.257349     280.2937  0.014736788  0.013902366            1 
 1586000   0.61532864   -8.2709827    280.22084  0.014723667  0.013890762            3 
 1587000   0.60641311    -8.274142    279.95364  0.014700359  0.013879149            3 
 1588000   0.62266761   -8.3003128     280.4049  0.014714783  0.013867552            5 
 1589000   0.61665607   -8.2639221    280.26902  0.014698396  0.013855941            2 
 1590000   0.63359192   -8.2823008    280.36103  0.014693974  0.013844342            3 
 1591000    0.6290312   -8.2949988    280.31124  0.014682131  0.013832772            1 
 1592000   0.62104971   -8.2922134    280.32027  0.014673381  0.013821188            4 
 1593000   0.62012001   -8.2944491    280.17801  0.014656728  0.013809616            3 
 1594000   0.62592505   -8.2957898    279.98025  0.014637194  0.013798056            3 
 1595000   0.61597879   -8.2814856    279.77194  0.014617134  0.013786519            5 
 1596000   0.62030445   -8.2612196    280.02481  0.014621178  0.013774983            5 
 1597000   0.61375007   -8.2845684    280.12819  0.014617418  0.013763439            3 
 1598000   0.61076041   -8.2688481    279.87588  0.014595112  0.013751915            3 
 1599000   0.60867018   -8.2744446    280.35267  0.014610833  0.013740412            4 
 1600000   0.62541079   -8.2844766    280.77506  0.014623701  0.013728941            2 
 1601000    0.6225775   -8.2929444    280.11618  0.014580272  0.013717462            2 
 1602000   0.62028183   -8.2905243    279.74408  0.014551815  0.013705971            2 
 1603000   0.61732646   -8.3185573    279.76047  0.014543589  0.013694498            2 
 1604000   0.60993311   -8.2932355    280.00267  0.014547105   0.01368302            1 
 1605000   0.61226297   -8.2907222    279.59876   0.01451707  0.013671553            2 
 1606000   0.61040279   -8.3058454    279.70326  0.014513452  0.013660083            2 
 1607000   0.61314302   -8.3032541    279.58463   0.01449827  0.013648636            1 
 1608000   0.61472864   -8.3000662    279.93642  0.014507484  0.013637177            4 
 1609000   0.62732541   -8.3008429    279.70747   0.01448661  0.013625749            4 
 1610000   0.61408331   -8.3043744     279.1941   0.01445104  0.013614344            2 
 1611000   0.61000477    -8.320784    279.90455   0.01447882  0.013602922            2 
 1612000   0.61908682   -8.2909221    280.08746  0.014479294  0.013591516            2 
 1613000   0.60545406   -8.3078306    279.70175   0.01445039  0.013580131            6 
 1614000   0.61908979   -8.3312425    279.57628  0.014434959  0.013568708            4 
 1615000   0.61755972   -8.3210905    279.71766  0.014433316  0.013557293            4 
 1616000   0.61871568   -8.3246657    279.48441  0.014412356  0.013545908            2 
 1617000   0.60777639   -8.3112747    279.67998  0.014413522  0.013534515            2 
 1618000   0.61125656   -8.3156172    279.43053  0.014391766  0.013523133            3 
 1619000   0.60461312   -8.3351377    279.87413   0.01440571   0.01351176            7 
 1620000   0.61460848   -8.3134449    279.24701  0.014364558  0.013500406            2 
 1621000   0.61263797    -8.300402    280.02905    0.0143959  0.013489093            1 
 1622000   0.61600769   -8.3264168    279.61742  0.014365876  0.013477755            5 
 1623000   0.61969256   -8.3038751    279.62981  0.014357661  0.013466435            4 
 1624000   0.60884553   -8.3134159    279.12613  0.014322974  0.013455128            2 
 1625000   0.60668414   -8.3226435    279.34948  0.014325614  0.013443816            2 
 1626000   0.60752007   -8.3309762    279.45966  0.014322451  0.013432515            4 
 1627000   0.61182387   -8.3214876    279.20334  0.014300519  0.013421212            1 
 1628000   0.59677013    -8.339987     279.2445  0.014293842  0.013409919            7 
 1629000   0.61176765   -8.3174326    279.72022  0.014309403  0.013398644            2 
 1630000   0.60123719   -8.3451604    279.70106  0.014299645  0.013387375            1 
 1631000    0.5995645   -8.3327321    279.11915  0.014261146  0.013376103            4 
 1632000   0.59457649   -8.3172925     279.6226  0.014278115   0.01336485            4 
 1633000   0.60579497   -8.3328476    279.44446  0.014260281  0.013353609            2 
 1634000   0.60359246   -8.3316497    279.29165   0.01424376  0.013342381            2 
 1635000    0.5932349   -8.3195294    279.42183  0.014241683  0.013331167            2 
 1636000   0.59881891   -8.3317237     279.1339  0.014218312  0.013319936            1 
 1637000   0.60936532   -8.3254761    279.15728  0.014210817  0.013308724            2 
 1638000   0.59848517   -8.3290824    279.24948  0.014206831  0.013297524            1 
 1639000   0.60001579   -8.3320926    279.95249  0.014233908  0.013286326            6 
 1640000   0.57678571   -8.3325521    279.33779  0.014193993  0.013275137            2 
 1641000   0.60443753    -8.329946    279.33672  0.014185289  0.013263936            2 
 1642000   0.59960927   -8.3447187    279.10993  0.014165141  0.013252754            2 
 1643000   0.60333457   -8.3399685    279.33994  0.014168185  0.013241599            4 
 1644000   0.58845572   -8.3350422    279.54813   0.01417012  0.013230471            3 
 1645000   0.60100447   -8.3388876    279.33755  0.014150839  0.013219349            1 
 1646000   0.60924128   -8.3298701    279.21445  0.014136009  0.013208226            3 
 1647000    0.5967088   -8.3392162    279.87819  0.014161009  0.013197113            4 
 1648000   0.59577156   -8.3530887     279.6618  0.014141475  0.013186013            1 
 1649000   0.59282763   -8.3429054    278.72151  0.014085381  0.013174916            1 
 1650000   0.59661024   -8.3435085    279.25508  0.014103792  0.013163842            2 
 1651000   0.59060577   -8.3641151    279.14155  0.014089519  0.013152769            5 
 1652000   0.58867222   -8.3517393    279.27801  0.014087874  0.013141717            4 
 1653000   0.59487898    -8.349804    279.23203  0.014077033  0.013130671            3 
 1654000   0.58824668   -8.3479648    279.11803  0.014062779  0.013119624            3 
 1655000   0.60511738   -8.3499301     279.2305  0.014059944  0.013108596            3 
 1656000   0.59438449   -8.3546373    279.85715  0.014082989  0.013097589            9 
 1657000   0.59614354   -8.3436663    279.23392  0.014043146  0.013086576            2 
 1658000   0.58263915   -8.3547229    279.48954  0.014047524  0.013075577            3 
 1659000   0.58288217   -8.3617346    279.24069  0.014026556  0.013064597            5 
 1660000   0.58754049   -8.3493173    279.68801  0.014040563   0.01305361            2 
 1661000   0.58314565   -8.3646227    279.24427  0.014009847  0.013042631            3 
 1662000   0.59148169   -8.3453001    279.08806  0.013993585  0.013031661            5 
 1663000   0.57562186   -8.3592287    279.42238  0.014001923  0.013020699            5 
 1664000   0.58303307   -8.3574814    278.66789  0.013955724  0.013009741            2 
 1665000   0.58078277   -8.3636315    278.81472  0.013954691  0.012998786            2 
 1666000   0.58460474   -8.3685721    279.14222  0.013962696  0.012987838            3 
 1667000   0.58349008   -8.3573649    279.06679   0.01395055  0.012976912            3 
 1668000   0.59642117   -8.3635585    279.39153   0.01395841   0.01296601            3 
 1669000   0.59675478   -8.3734159    279.21872  0.013941418  0.012955098            1 
 1670000   0.59461326   -8.3629227    279.28552  0.013936403   0.01294419            2 
 1671000   0.58492067    -8.360699    278.96541  0.013912099  0.012933299            5 
 1672000   0.59077961   -8.3568443    278.74919  0.013893002  0.012922427            3 
 1673000   0.57305523   -8.3609195    279.49168  0.013921682  0.012911561            3 
 1674000   0.58572887   -8.3951866     279.0555  0.013891652   0.01290069            3 
 1675000   0.58186056   -8.3522935    278.59401  0.013860399  0.012889856            3 
 1676000   0.58164998   -8.3554323    279.13331  0.013878943  0.012879019            2 
 1677000   0.58538951   -8.3691387    278.95486    0.0138618  0.012868192            3 
 1678000   0.58935778      -8.3608    278.44028  0.013827984  0.012857369            4 
 1679000   0.58649003   -8.3713205    279.32104  0.013863463   0.01284658            4 
 1680000   0.57954656   -8.3681638    278.84537  0.013831616    0.0128358            2 
 1681000   0.58631632   -8.3557121    279.01979  0.013832034  0.012825033            2 
 1682000   0.58432237   -8.3725351    279.36169  0.013840749  0.012814274            6 
 1683000   0.57372154   -8.3627209    278.93189  0.013811244  0.012803533            1 
 1684000   0.57473302   -8.3860952    279.07632   0.01381019  0.012792802            4 
 1685000   0.58386931   -8.3770173     279.2537  0.013810767  0.012782084            4 
 1686000   0.58034539   -8.3737538    279.14278  0.013797093  0.012771382            2 
 1687000   0.58889432   -8.3697811    278.95523   0.01377965  0.012760677            5 
 1688000   0.57003716   -8.3745237    278.78722  0.013763192  0.012749971            3 
 1689000   0.56916941   -8.3749311    279.32335  0.013781495  0.012739282            1 
 1690000    0.5750392   -8.3725825    279.07737  0.013761212  0.012728583            2 
 1691000   0.57576202   -8.3702827    279.10589  0.013754479   0.01271791            3 
 1692000    0.5781311   -8.3591689    279.28867  0.013755352  0.012707247            3 
 1693000   0.57763315   -8.3760704    278.54113  0.013710432   0.01269659            3 
 1694000   0.56785169   -8.3920615    278.86041  0.013718044  0.012685943            6 
 1695000   0.55899111   -8.3598897    278.74984  0.013704515  0.012675294            3 
 1696000    0.5713836   -8.4050396    278.97154  0.013707328  0.012664652            3 
 1697000   0.58181662   -8.3759238    278.85414  0.013693486  0.012654034            3 
 1698000   0.56479968   -8.3848522    278.85891  0.013685655  0.012643435            3 
 1699000   0.56819374   -8.3673497    279.49103  0.013708605  0.012632845            3 
 1700000   0.59225892   -8.3757468    278.62498  0.013658087  0.012622261            2 
 1701000   0.58328215     -8.38001    279.16705  0.013676614  0.012611684            3 
 1702000   0.57213729   -8.3737163    278.55013  0.013638373   0.01260111            3 
 1703000   0.57081397   -8.4007185    278.69255  0.013637334   0.01259055            2 
 1704000   0.57817663   -8.3908919    279.12296  0.013650379   0.01257999            3 
 1705000   0.56534357   -8.3848936    279.10293  0.013641394  0.012569435            3 
 1706000   0.57566226   -8.3972437    278.71693  0.013614543  0.012558881            1 
 1707000   0.57162945    -8.379477    278.39567  0.013590884  0.012548344            2 
 1708000   0.57647002   -8.3825837    278.58732  0.013592278  0.012537802            2 
 1709000   0.56685271   -8.3777962     279.0992  0.013609284  0.012527287            2 
 1710000   0.55774073   -8.3931173    278.59763  0.013576883  0.012516778            5 
 1711000   0.56302249   -8.3862299    278.13741  0.013546532  0.012506294            3 
 1712000   0.57786414   -8.3941346    278.59155  0.013560726  0.012495813            2 
 1713000   0.57405586   -8.3913192      278.861  0.013565918   0.01248534            3 
 1714000   0.56272946   -8.4016524    278.68618  0.013549503   0.01247487            3 
 1715000   0.57504816   -8.3869786    279.20127  0.013566631  0.012464418            2 
 1716000   0.57006945   -8.3692286    278.94721  0.013546387  0.012453983            2 
 1717000   0.57057722   -8.4015841    278.73354  0.013528128  0.012443546            2 
 1718000   0.56832171    -8.405647     279.1371  0.013539828  0.012433111            2 
 1719000   0.56988133   -8.3961774     278.6855  0.013510059  0.012422692            3 
 1720000   0.56297303   -8.4033476    279.07591   0.01352112  0.012412281            6 
 1721000   0.56095241   -8.4117346    279.12384  0.013515584  0.012401876            3 
 1722000   0.55906806   -8.4088155    278.04096  0.013455331  0.012391475            1 
 1723000   0.56382558   -8.4020017    278.28113  0.013459137  0.012381086            2 
 1724000   0.56062768   -8.4143664    278.43363  0.013458702  0.012370698            3 
 1725000   0.56683489   -8.4064872     278.5783  0.013457889  0.012360334            2 
 1726000   0.57304487   -8.4042879    278.86586  0.013463976  0.012349967            2 
 1727000   0.56943849    -8.400389    278.06589  0.013417578  0.012339606            2 
 1728000   0.57533659   -8.4089619    278.74953  0.013442782  0.012329255            3 
 1729000   0.57166814   -8.3961746    278.77707  0.013436334  0.012318921            2 
 1730000   0.56513738   -8.4059425    278.81647  0.013430466  0.012308581            2 
 1731000    0.5684313   -8.4112122    278.79895  0.013421863  0.012298258            5 
 1732000   0.55983869   -8.4157941    278.14972  0.013382877  0.012287933            6 
 1733000   0.56085419    -8.416476    278.15512  0.013375415   0.01227762            4 
 1734000   0.56545252   -8.4088687     278.1882  0.013369291   0.01226733            2 
 1735000   0.55707928    -8.428475    278.43713  0.013373541  0.012257039            2 
 1736000   0.57058372   -8.4136393    278.25593  0.013357139  0.012246756            5 
 1737000   0.55536785   -8.4102661     278.2286  0.013348138   0.01223648            3 
 1738000   0.55191949   -8.4114577    278.31245  0.013344479  0.012226221            2 
 1739000    0.5489173   -8.4126721    278.46111  0.013343929  0.012215977            2 
 1740000   0.56031402   -8.4059152     278.0496  0.013316552  0.012205732            2 
 1741000   0.56015882   -8.4131575    278.70237  0.013340148  0.012195499            3 
 1742000   0.55295632   -8.4263749    279.23704  0.013358067  0.012185272            2 
 1743000   0.56296995    -8.425627      278.643  0.013322002  0.012175053            3 
 1744000   0.55523992   -8.4200067    278.46808  0.013306005   0.01216484            2 
 1745000   0.56097755   -8.4187585    278.52016  0.013300867  0.012154635            2 
 1746000   0.55843359   -8.4164157    278.18766   0.01327738  0.012144439            3 
 1747000   0.56556506   -8.4287033    278.50904   0.01328511  0.012134256            1 
 1748000   0.55457678   -8.4380246    278.19101  0.013262348  0.012124077            5 
 1749000   0.54595748   -8.4237021    278.31748  0.013260791  0.012113908            1 
 1750000   0.56924136   -8.4270311    278.13463  0.013244506  0.012103759            3 
 1751000   0.55143327   -8.4263927     278.2305  0.013241505  0.012093617            3 
 1752000   0.57082125   -8.4313684    278.39318  0.013241685  0.012083483            3 
 1753000    0.5467731   -8.4294752    278.00778   0.01321581  0.012073366            3 
 1754000   0.55907077   -8.4224651    278.27877   0.01322115  0.012063274            3 
 1755000   0.55342279   -8.4287939    278.13462  0.013206772  0.012053197            5 
 1756000   0.56502561   -8.4378673    277.83665  0.013185111  0.012043106            4 
 1757000   0.54529341   -8.4308158    278.16092  0.013192986  0.012033036            2 
 1758000   0.55973985   -8.4299364    277.91048   0.01317361  0.012022977            2 
 1759000   0.54171456    -8.440634    278.22793   0.01318116  0.012012914            3 
 1760000   0.54848208   -8.4367703    278.03501  0.013164536  0.012002856            3 
 1761000   0.54148271    -8.446891    278.15143   0.01316257  0.011992791            2 
 1762000   0.55195129   -8.4413469    278.16161  0.013155581  0.011982763            3 
 1763000   0.55628682   -8.4416817    278.26333  0.013152927   0.01197274            3 
 1764000   0.54774678   -8.4195676    277.65496  0.013116731  0.011962726            2 
 1765000   0.55616674   -8.4352256    278.04361  0.013127649  0.011952716            2 
 1766000    0.5427236   -8.4338033     277.9541  0.013115992   0.01194271            4 
 1767000   0.55645298    -8.438238    278.10716  0.013115787  0.011932711            3 
 1768000   0.53460876    -8.424143    277.92325  0.013099701  0.011922731            2 
 1769000   0.54254749   -8.4414804    278.39548  0.013114541  0.011912755            2 
 1770000   0.54937163   -8.4278673     278.4231  0.013108432    0.0119028            3 
 1771000   0.54420904   -8.4543628    278.15701   0.01308851   0.01189285            4 
 1772000   0.54227002   -8.4344918    277.82109  0.013065326  0.011882912            3 
 1773000   0.54381616   -8.4507038     277.8854   0.01306098  0.011872965            2 
 1774000   0.53211233   -8.4491113    278.30431  0.013073295  0.011863041            2 
 1775000   0.54264884   -8.4455574    278.46746   0.01307359  0.011853132            2 
 1776000   0.55031921   -8.4372728    277.63729  0.013027275  0.011843216            3 
 1777000    0.5443495   -8.4508407    277.44351  0.013010857  0.011833309            2 
 1778000   0.53722832   -8.4540524    278.18793  0.013038429  0.011823414            2 
 1779000   0.54169104   -8.4439438    277.65369  0.013006075  0.011813533            1 
 1780000   0.54037435   -8.4481842    277.85829  0.013008347  0.011803643            2 
 1781000   0.53972061    -8.433314    277.75776  0.012996339  0.011793762            2 
 1782000   0.54207706   -8.4313833     278.0787  0.013004054  0.011783902            2 
 1783000   0.54309011   -8.4524045    277.97231  0.012991789  0.011774041            4 
 1784000   0.54463731   -8.4577844    277.58398  0.012966367  0.011764195            2 
 1785000   0.52799187   -8.4676346    278.04378  0.012980569   0.01175435            3 
 1786000   0.55015819   -8.4587046    277.61112  0.012953113  0.011744521            4 
 1787000   0.55372085   -8.4616724    277.88771  0.012958763  0.011734713            2 
 1788000   0.53081045   -8.4636175    277.93442  0.012953692  0.011724909            1 
 1789000   0.54497045   -8.4459751    277.72566  0.012936727  0.011715124            2 
 1790000   0.54789952   -8.4494328    278.22188  0.012952601  0.011705347            6 
 1791000   0.55274061   -8.4518762    277.95712  0.012933051  0.011695572            4 
 1792000    0.5432673   -8.4524011    277.97954  0.012926876  0.011685817            3 
 1793000   0.52709961   -8.4577737    277.72718  0.012907937  0.011676074            5 
 1794000    0.5230797   -8.4790027    277.52764  0.012891474  0.011666318            3 
 1795000    0.5412704   -8.4602348     277.1587  0.012867163  0.011656582            2 
 1796000   0.52939145   -8.4582146    278.12277  0.012904731  0.011646856            3 
 1797000   0.53977143   -8.4539244    277.37805  0.012863015  0.011637147            1 
 1798000    0.5295823   -8.4741829    278.05319  0.012887152  0.011627454            2 
 1799000   0.54643729   -8.4612545    277.63017  0.012860393  0.011617766            4 
 1800000   0.53463343   -8.4662321    278.24595  0.012881757  0.011608086            2 
 1801000   0.53175684   -8.4618996    278.30062  0.012877134    0.0115984            1 
 1802000    0.5354467   -8.4716933    277.33966  0.012825549  0.011588728            2 
 1803000    0.5293827   -8.4667895    277.61475  0.012831149  0.011579074            1 
 1804000   0.53309434   -8.4569964    277.78714     0.012832  0.011569414            4 
 1805000   0.51981623   -8.4730913    277.56338  0.012814561  0.011559771            2 
 1806000   0.52560797   -8.4724156    277.58413  0.012808423  0.011550136            4 
 1807000    0.5320986   -8.4885879     277.6498  0.012804363  0.011540518            2 
 1808000   0.53162633   -8.4542239    277.85395   0.01280669  0.011530897            2 
 1809000   0.53059081   -8.4694316    278.34018  0.012822009  0.011521295            1 
 1810000   0.53089944   -8.4779942       277.86  0.012792818  0.011511692            2 
 1811000   0.53626224   -8.4672877     277.7107  0.012778884  0.011502095            4 
 1812000   0.52472258   -8.4878067     278.0723  0.012788461  0.011492523            5 
 1813000   0.52702169   -8.4695722    277.83579  0.012770536   0.01148296            2 
 1814000   0.52528569   -8.4764677    278.01665  0.012771805  0.011473404            2 
 1815000    0.5236403   -8.4640112    277.67367  0.012749021  0.011463842            3 
 1816000    0.5270189   -8.4735975    277.61664  0.012739383  0.011454294            2 
 1817000   0.52946197    -8.475541    277.71861  0.012737049  0.011444758            2 
 1818000   0.53582501   -8.4598646    277.27225  0.012709583  0.011435249            2 
 1819000   0.52517863   -8.4797815    277.57438  0.012716436  0.011425739            4 
 1820000   0.53409051   -8.4749666    277.29389  0.012696607  0.011416235            2 
 1821000   0.52747559   -8.4571236    277.83538  0.012714414  0.011406749            4 
 1822000   0.52845117   -8.4638274    277.65704  0.012699279  0.011397282            2 
 1823000   0.52684776   -8.4663253    277.35927  0.012678701  0.011387824            4 
 1824000    0.5252993   -8.4678186    277.75477  0.012689819  0.011378381            3 
 1825000    0.5198778    -8.468208    277.73878  0.012682136  0.011368944            1 
 1826000   0.51699086   -8.4746198    277.75335  0.012675856   0.01135952            1 
 1827000   0.52965005   -8.4733009    277.47286  0.012656124  0.011350102            2 
 1828000   0.52299519   -8.4873676    277.90503  0.012668902  0.011340687            2 
 1829000   0.52692362   -8.4807628    278.11626  0.012671599  0.011331286            2 
 1830000   0.52545076   -8.4689939    277.93097  0.012656237  0.011321888            3 
 1831000   0.52479525    -8.491256    277.68044  0.012637923  0.011312494            2 
 1832000   0.52206016   -8.4919187    277.43406  0.012619817  0.011303105            4 
 1833000   0.51904922   -8.4839048    277.39965  0.012611368  0.011293714            3 
 1834000   0.51496621   -8.4781333    277.26593  0.012598416  0.011284346            3 
 1835000   0.51917533   -8.4859226    277.62042  0.012607648  0.011274978            3 
 1836000    0.5222306   -8.4883096    277.17275  0.012580463  0.011265624            2 
 1837000   0.51936745   -8.4865197     277.4696   0.01258708  0.011256277            2 
 1838000    0.5300513   -8.5088293    277.34659  0.012574655  0.011246943            2 
 1839000   0.53589617   -8.4772855    277.21108  0.012561677  0.011237615            2 
 1840000   0.51212472   -8.4911944    276.94805  0.012542937  0.011228293            2 
 1841000    0.5105784   -8.4853751    277.11942  0.012543881   0.01121899            3 
 1842000   0.50407118   -8.4913111    277.25864   0.01254337  0.011209687            2 
 1843000   0.51822815   -8.4737436    277.15532  0.012531892  0.011200395            3 
 1844000   0.51655452   -8.4806221    277.28569  0.012530988  0.011191108            2 
 1845000   0.50844591   -8.4930461    277.08041  0.012514924  0.011181837            2 
 1846000   0.50854439   -8.4776117    277.62749  0.012532841  0.011172586            3 
 1847000   0.52037525   -8.4968761     277.7016  0.012529399  0.011163341            2 
 1848000   0.51908543   -8.4948629    277.26112  0.012502756  0.011154098            3 
 1849000   0.50479399   -8.5093746    277.37526  0.012501139  0.011144864            1 
 1850000   0.51451946   -8.4960236    277.30375   0.01249116  0.011135634            3 
 1851000   0.51302977   -8.5027821    277.52321  0.012494292   0.01112642            1 
 1852000   0.51359288   -8.4828505    276.95433  0.012461948  0.011117201            3 
 1853000    0.5151858   -8.4879773    277.39071  0.012474848  0.011107998            2 
 1854000   0.51107209    -8.496585    277.32953  0.012465369  0.011098805            4 
 1855000   0.51358242   -8.5072417    277.18376  0.012452101  0.011089625            4 
 1856000   0.51554655   -8.5187817    277.78103  0.012472209   0.01108045            2 
 1857000   0.50796049   -8.5099857    277.67638  0.012460796   0.01107129            3 
 1858000   0.50832261   -8.4968632    277.04235  0.012425653  0.011062126            2 
 1859000   0.51500142   -8.5066281    276.79515  0.012407887   0.01105298            4 
 1860000   0.50603785   -8.5219729    277.25896  0.012421997  0.011043841            1 
 1861000    0.5050026   -8.5117533    277.19579  0.012412493  0.011034709            3 
 1862000   0.50598741   -8.5094261    277.08358  0.012400805  0.011025588            2 
 1863000   0.50998857   -8.5035032    277.41552  0.012408996  0.011016471            3 
 1864000   0.50505739   -8.5144546    277.30325   0.01239732  0.011007365            2 
 1865000   0.50775863   -8.4997531    277.37491  0.012393874  0.010998273            3 
 1866000    0.5067021   -8.5075468    277.00549  0.012370735   0.01098918            3 
 1867000   0.50909567   -8.5143256    277.40222  0.012381817  0.010980109            3 
 1868000   0.50590012   -8.5035311    276.65775  0.012341977   0.01097103            5 
 1869000    0.5076647   -8.5113617    277.10565  0.012355344  0.010961967            3 
 1870000   0.50480559   -8.5020047    276.86476  0.012338002  0.010952911            1 
 1871000   0.51520479   -8.4998815    276.81816  0.012329332  0.010943869            2 
 1872000   0.50902376   -8.5070862    276.62803  0.012314282  0.010934837            2 
 1873000   0.49724805   -8.5048374    276.91667  0.012320549  0.010925815            2 
 1874000   0.50400739   -8.5280755    276.91521   0.01231391  0.010916801            4 
 1875000   0.49872261   -8.5029472    276.89788  0.012306572  0.010907784            1 
 1876000   0.49600738    -8.509122    276.96487  0.012302988   0.01089878            3 
 1877000   0.50557001   -8.4958562    277.24184   0.01230873  0.010889788            2 
 1878000   0.50535618   -8.5168849    277.14668  0.012297953  0.010880802            3 
 1879000   0.49805595   -8.5083815    276.89284  0.012280151  0.010871825            3 
 1880000   0.50218096   -8.5220428     277.2136  0.012287837   0.01086286            2 
 1881000   0.50020132   -8.5111505    276.86169  0.012265714  0.010853889            2 
 1882000   0.49486607   -8.5167599    277.11306  0.012270327  0.010844937            2 
 1883000    0.4973352   -8.5274011    276.51635  0.012237403  0.010835996            2 
 1884000   0.50814567   -8.5203297    276.99933  0.012252271  0.010827054            3 
 1885000   0.49808171     -8.55038    276.93944  0.012243123  0.010818134            2 
 1886000   0.49686045   -8.5216653    277.02158   0.01224026  0.010809209            1 
 1887000   0.50228721   -8.5091948    276.82612  0.012225142  0.010800298            2 
 1888000   0.51250184   -8.5230531    276.68086  0.012212255  0.010791396            2 
 1889000   0.50003006   -8.5295665     277.1828  0.012227934  0.010782494            2 
 1890000   0.49482985   -8.5356426    277.18569  0.012221591  0.010773612            2 
 1891000    0.4968226   -8.5315489    276.80739  0.012198457  0.010764738            3 
 1892000   0.49793345    -8.513366    277.01369  0.012201096  0.010755869            3 
 1893000    0.4984603   -8.5272965    276.54705  0.012174109  0.010747015            2 
 1894000   0.50031504   -8.5134225    276.79639  0.012178651  0.010738163            2 
 1895000   0.50633372    -8.517597    276.62635  0.012164747  0.010729318            2 
 1896000   0.49521314   -8.5234467    277.13786  0.012180813  0.010720485            4 
 1897000   0.50453122   -8.5224253    276.78787  0.012159017  0.010711663            2 
 1898000   0.48968438   -8.5194185    277.16825  0.012169312  0.010702842            1 
 1899000   0.48614042   -8.5260463    276.64876  0.012140107  0.010694031            1 
 1900000   0.49419439   -8.5092833    276.72335  0.012136989  0.010685231            3 
 1901000   0.49630067   -8.5216596    277.16735  0.012150068  0.010676441            5 
 1902000   0.49399405   -8.5282058    276.64652   0.01212086  0.010667659            3 
 1903000   0.50000767   -8.5448922    276.82525  0.012122318  0.010658898            2 
 1904000   0.50128608   -8.5161074    276.97073  0.012122318   0.01065014            3 
 1905000   0.49035504   -8.5614948    276.47205   0.01209414  0.010641383            4 
 1906000   0.49123218   -8.5326937    276.92148  0.012107445  0.010632649            2 
 1907000   0.49121006   -8.5263693    276.77814  0.012094832  0.010623909            3 
 1908000   0.48964368   -8.5121611    276.80813  0.012089803  0.010615181            2 
 1909000   0.49496992   -8.5213877    276.52488  0.012071105  0.010606467            3 
 1910000   0.47632388   -8.5327667     276.8745  0.012080039  0.010597754            3 
 1911000   0.50500742   -8.5283607     276.2315  0.012045678  0.010589054            3 
 1912000   0.48222818   -8.5185633    276.79217  0.012063815  0.010580364            2 
 1913000   0.48351779    -8.531338     276.8722  0.012060995  0.010571684            1 
 1914000   0.49311908   -8.5215659    276.74185  0.012049018  0.010562999            2 
 1915000   0.48173036   -8.5375257    276.83616   0.01204683  0.010554329            3 
 1916000   0.49268641   -8.5294147    276.50422  0.012026106  0.010545674            5 
 1917000   0.49768913   -8.5441372    277.15926  0.012048307  0.010537023            3 
 1918000   0.48769638   -8.5405411    276.70816  0.012022426   0.01052839            2 
 1919000   0.47836311   -8.5465996    276.86675  0.012023048  0.010519763            3 
 1920000   0.48907544   -8.5483431    276.69591  0.012009371   0.01051114            2 
 1921000    0.4826665   -8.5440328    276.64471  0.012000899  0.010502531            2 
 1922000   0.48347215   -8.5360745    276.52272  0.011989365  0.010493936            2 
 1923000   0.47232095   -8.5326981     276.9937  0.012003541  0.010485338            3 
 1924000   0.48960614   -8.5420766    276.58934  0.011979788  0.010476731            3 
 1925000   0.48483552   -8.5532964    276.68081  0.011977524  0.010468151            2 
 1926000   0.48001356   -8.5539222    276.82695  0.011977629  0.010459574            2 
 1927000   0.48886813   -8.5249051     276.4533  0.011955254  0.010451009            3 
 1928000   0.48071783   -8.5356228    276.72579  0.011960831  0.010442455            4 
 1929000    0.4768857   -8.5660707    276.75183  0.011955755   0.01043391            5 
 1930000   0.48663626   -8.5249919    276.63348  0.011944451  0.010425369            4 
 1931000   0.49676958    -8.536559     276.7169  0.011941865  0.010416844            1 
 1932000   0.47908905   -8.5469791    276.99499  0.011947679  0.010408325            2 
 1933000   0.47608143   -8.5595966    276.59659  0.011924323  0.010399804            2 
 1934000   0.47619533   -8.5335194    276.85684  0.011929371  0.010391296            3 
 1935000   0.48682261   -8.5505937    276.86931  0.011923743  0.010382816            2 
 1936000   0.47387211   -8.5659414    276.64345  0.011907862  0.010374336            3 
 1937000   0.48577634   -8.5520563     276.5327   0.01189695  0.010365853            3 
 1938000   0.48019331   -8.5206879    276.37967  0.011884231  0.010357383            3 
 1939000   0.47733496   -8.5461163    276.09573  0.011865899   0.01034892            3 
 1940000   0.48650789   -8.5547142    276.37507  0.011871781  0.010340464            2 
 1941000   0.48598106   -8.5585304    276.47597  0.011869997   0.01033202            2 
 1942000   0.46961803     -8.54541      276.182   0.01185127  0.010323583            2 
 1943000   0.48003335   -8.5543235    276.20866  0.011846314  0.010315158            4 
 1944000   0.45866517   -8.5681736    276.38006  0.011847568  0.010306734            3 
 1945000   0.47588738    -8.553807    276.36745  0.011840936  0.010298323            2 
 1946000   0.47282739   -8.5548695    276.33513  0.011833468   0.01028992            3 
 1947000   0.47189941   -8.5401338    276.53364  0.011835886  0.010281521            3 
 1948000   0.47617225   -8.5552894    276.46357  0.011826813  0.010273136            2 
 1949000   0.47405183   -8.5619631    276.54445  0.011824203  0.010264755            2 
 1950000   0.47488098   -8.5453704    275.99259  0.011794555  0.010256392            3 
 1951000   0.48011615   -8.5564301    276.30696  0.011801938  0.010248026            3 
 1952000   0.47557657   -8.5520181    276.47031  0.011802865   0.01023967            3 
 1953000   0.47183926   -8.5639454    276.04992  0.011778884  0.010231324            1 
 1954000   0.47206812   -8.5611277    275.98542  0.011770105  0.010222992            4 
 1955000    0.4727378   -8.5756595    276.06046  0.011767283  0.010214677            3 
 1956000   0.46151951   -8.5617949    276.14693  0.011764951  0.010206352            2 
 1957000   0.47882605   -8.5715536    276.59865  0.011778175  0.010198048            2 
 1958000   0.46880429   -8.5540241    276.04441   0.01174857  0.010189743            4 
 1959000   0.47244474   -8.5729812    275.93996   0.01173813  0.010181448            3 
 1960000   0.47301467   -8.5617535    276.19311  0.011742904  0.010173162            2 
 1961000   0.46783603   -8.5586389    276.58286  0.011753479  0.010164887            3 
 1962000    0.4598185   -8.5631818    276.00549  0.011722965  0.010156621            3 
 1963000   0.46120738   -8.5768678    276.18723  0.011724708  0.010148361            3 
 1964000   0.47828164   -8.5697622    276.44179   0.01172954  0.010140113            2 
 1965000    0.4762682   -8.5563455     276.0503  0.011706968  0.010131866            2 
 1966000   0.47906048   -8.5667122    276.11603  0.011703799  0.010123638            4 
 1967000   0.47240976   -8.5677179    276.21655  0.011702108   0.01011541            2 
 1968000   0.46342997   -8.5662368    276.02916  0.011688227  0.010107192            2 
 1969000   0.47324847   -8.5635671    276.31173   0.01169425  0.010098979            3 
 1970000   0.47816148   -8.5667479    276.05214  0.011677332  0.010090775            3 
 1971000   0.46317102   -8.5692933    276.36001  0.011684425  0.010082586            3 
 1972000    0.4606353   -8.5551526    276.35448  0.011678266   0.01007441            1 
 1973000   0.46476588   -8.5643909    275.94032  0.011654854  0.010066238            4 
 1974000   0.45830625   -8.5588649    276.29161  0.011663779  0.010058069            2 
 1975000   0.46264591   -8.5767854    276.24666  0.011655977  0.010049911            2 
 1976000    0.4679029   -8.5847914    276.16288  0.011646545   0.01004176            2 
 1977000   0.47130649   -8.5781515    275.69069  0.011620751  0.010033621            4 
 1978000   0.47155841    -8.579133    276.35916  0.011643039  0.010025481            2 
 1979000   0.46948084   -8.5756881     276.3763  0.011637877  0.010017352            2 
 1980000   0.46078741   -8.5853158     275.8824  0.011611212  0.010009227            2 
 1981000   0.46657358   -8.5732089    276.27693  0.011621947  0.010001113            4 
 1982000   0.46553612     -8.58002    276.23248  0.011614215 0.0099930069            2 
 1983000   0.45956672   -8.5706287    275.70655  0.011586256  0.009984912            2 
 1984000    0.4515527   -8.5794534    276.25289  0.011603364 0.0099768263            3 
 1985000   0.44951845   -8.5776896    276.02217  0.011587833 0.0099687434            2 
 1986000   0.45508827   -8.5775479    276.34831  0.011595682 0.0099606631            2 
 1987000   0.45861591   -8.5780679    275.87459  0.011569979 0.0099525889            3 
 1988000   0.45906063   -8.5864327    275.89547  0.011565035 0.0099445309            2 
 1989000   0.45082809   -8.5889603    276.17968  0.011571128 0.0099364817            3 
 1990000   0.45812324   -8.5851928    275.73818  0.011546825 0.0099284412            2 
 1991000   0.46176674   -8.5899951    276.21186  0.011560851 0.0099204137            3 
 1992000   0.46698575   -8.5865635    276.02657  0.011547296 0.0099123876            2 
 1993000   0.45978218   -8.5783493    275.76333  0.011530495 0.0099043714            3 
 1994000   0.45296863   -8.5920723    275.62946  0.011519118 0.0098963662            2 
 1995000   0.46145045   -8.5848022    276.22528  0.011538232 0.0098883642            3 
 1996000   0.45122183   -8.5642707    275.30527  0.011494041 0.0098803661            3 
 1997000   0.45943628   -8.5969073    276.07322  0.011520331  0.009872382            2 
 1998000   0.46691996   -8.5811364    276.00115  0.011511559 0.0098644083            6 
 1999000   0.46262751   -8.5982572    276.15264  0.011512116  0.009856442            2 
 2000000   0.45269826   -8.5858425     276.0592  0.011502467 0.0098484766            2 
 2001000   0.46359095   -8.5903524     275.8161  0.011486594 0.0098405194            3 
 2002000   0.47190039   -8.5685801    275.75337  0.011478245 0.0098325785            1 
 2003000   0.44568803   -8.5875926    276.00834  0.011483123 0.0098246374            4 
 2004000   0.44151206   -8.5789953    275.82073  0.011469591 0.0098167028            3 
 2005000    0.4465896   -8.5986784    276.03905  0.011472945  0.009808782            3 
 2006000   0.45625406    -8.586433     276.0639  0.011468258 0.0098008632            2 
 2007000   0.44788823   -8.5917308    275.69297  0.011447142 0.0097929551            2 
 2008000    0.4464658   -8.5934886    275.97645  0.011453206 0.0097850582            4 
 2009000   0.44738756   -8.5818078    276.02143  0.011449371 0.0097771624            5 
 2010000   0.44948125   -8.5868042    275.93372  0.011440038 0.0097692739            4 
 2011000   0.45508035   -8.5867909    275.63889  0.011422132 0.0097613989            2 
 2012000   0.44878378   -8.6007625    275.81816   0.01142388 0.0097535371            4 
Loop time of 4731.52 on 48 procs for 2000000 steps with 4000 atoms

Performance: 73042.042 tau/day, 422.697 timesteps/s
99.4% CPU use with 48 MPI tasks x no OpenMP threads

MPI task timing breakdown:
Section |  min time  |  avg time  |  max time  |%varavg| %total
---------------------------------------------------------------
Pair    | 290.05     | 313.87     | 332.76     |  53.6 |  6.63
Neigh   | 31.255     | 32.482     | 34.603     |  14.1 |  0.69
Comm    | 294.49     | 315.94     | 344.56     |  62.9 |  6.68
Output  | 4.1122     | 4.1144     | 4.1496     |   0.3 |  0.09
Modify  | 4016.9     | 4024.2     | 4034.6     |   6.2 | 85.05
Other   |            | 40.89      |            |       |  0.86

Nlocal:        83.3333 ave          90 max          77 min
Histogram: 4 1 3 11 6 7 8 2 4 2
Nghost:        2036.69 ave        2053 max        2018 min
Histogram: 2 1 5 5 7 9 9 3 4 3
Neighs:        13162.0 ave       14810 max       11571 min
Histogram: 1 1 7 10 6 9 5 5 3 1
FullNghs:      26323.9 ave       28588 max       23918 min
Histogram: 2 2 4 9 6 9 6 4 4 2

Total # of neighbors = 1263546
Ave neighs/atom = 315.88650
Neighbor list builds = 107190
Dangerous builds = 2

#clear
#
#next RN
#
#jump SELF
Total wall time: 1:18:54
