
units lj                  # Use reduced LJ style units
atom_style atomic         # Uncharged point particles
atom_modify map hash      # Needed for indexing of clusters etc
                          # Used to be able to find where atoms are in relation to each other.

lattice fcc 1.0 spacing 1 1 1
Lattice spacing in x,y,z = 1.5874011 1.5874011 1.5874011
region box block 0 10 0 10 0 10 units lattice
create_box 2 box
Created orthogonal box = (0.0000000 0.0000000 0.0000000) to (15.874011 15.874011 15.874011)
  3 by 4 by 4 MPI processor grid
create_atoms 1 box
Created 4000 atoms
  using lattice units in orthogonal box = (0.0000000 0.0000000 0.0000000) to (15.874011 15.874011 15.874011)
  create_atoms CPU = 0.002 seconds
set type 1 type/fraction 2 0.6 78393
Setting atom values ...
  2421 settings made for type/fraction
mass 1 1.0
mass 2 1.0
pair_style lj/cut  3.5
pair_modify tail  yes
pair_coeff 1  1  1.0  1.0   # Intearaction between 1 and 1 set with epsilon = 1 and sigma = 1
pair_coeff 1  2  1.5  0.8
pair_coeff 2  2  0.5  0.88

write_data data.0
System init for write_data ...
Neighbor list info ...
  update every 1 steps, delay 10 steps, check yes
  max neighbors/atom: 2000, page size: 100000
  master list distance cutoff = 3.8
  ghost atom cutoff = 3.8
  binsize = 1.9, bins = 9 9 9
  1 neighbor lists, perpetual/occasional/extra = 1 0 0
  (1) pair lj/cut, perpetual
      attributes: half, newton on
      pair build: half/bin/atomonly/newton
      stencil: half/bin/3d
      bin: standard
WARNING: Not all mixed pair coeffs generated from mixing. Use write_data with 'pair ij' option to store all pair coeffs. (../write_data.cpp:312)


#############################
#   M E L T   S Y S T E M   #
#############################

velocity all create 2.4 2750902 mom yes dist gaussian # Assign velocities
                                                    # Temperature 2.4, random number seed, zero linear momentum
                                                                                # Gaussian distribution

timestep 0.002   # simulation timestep
thermo 1000       # output thermodynamic data every 1000 steps bf 100

# Define a fix  in this case with index 1 applied to all
# particles in the simulation. This fix is for simulations
# in the anisotropic NPT ensemble. Note that we use the MTK
# correction.
fix 1 all npt temp 2.4 2.4 0.1 iso 5.68 5.68 0.5 mtk yes tchain 5 pchain 5 # Use NPT ensemble
                                                                         # Set temperature and pressure and damping
                                                                         # Numbers of thermostats in chain and in barostat
run 10000          # run for 10000 steps
Per MPI rank memory allocation (min/avg/max) = 3.642 | 3.644 | 3.648 Mbytes
Step Temp E_pair E_mol TotEng Press Volume 
       0          2.4   -4.7127585            0   -1.1136585   -4.0555291         4000 
    1000    2.4167368   -4.4364725            0  -0.81227362    5.6650676    3628.3729 
    2000    2.4290213    -4.463578            0  -0.82095692    5.5356753    3620.7149 
    3000    2.3668686   -4.4971748            0   -0.9477595    5.3895457    3608.9765 
    4000    2.4151683   -4.4919099            0   -0.8700631    5.6310616    3603.6771 
    5000    2.3906088   -4.5373598            0  -0.95234312    5.4709094    3597.9462 
    6000    2.4422158   -4.5241883            0  -0.86178036    5.5681186    3596.2461 
    7000    2.3863702   -4.4482365            0  -0.86957601    5.6624613    3609.5326 
    8000    2.4435909   -4.4988711            0  -0.83440107    5.8151635    3590.2121 
    9000    2.4353709   -4.4324694            0   -0.7803263    6.2094615    3597.9706 
   10000    2.3974539   -4.4031059            0  -0.80782415    5.7569084    3636.3921 
Loop time of 2.68166 on 48 procs for 10000 steps with 4000 atoms

Performance: 644376.102 tau/day, 3729.028 timesteps/s
99.6% CPU use with 48 MPI tasks x no OpenMP threads

MPI task timing breakdown:
Section |  min time  |  avg time  |  max time  |%varavg| %total
---------------------------------------------------------------
Pair    | 1.234      | 1.2813     | 1.4314     |   3.1 | 47.78
Neigh   | 0.22005    | 0.22588    | 0.25515    |   1.2 |  8.42
Comm    | 0.75132    | 0.90805    | 0.97515    |   4.9 | 33.86
Output  | 0.0002523  | 0.00025625 | 0.00032536 |   0.0 |  0.01
Modify  | 0.20051    | 0.25042    | 0.30766    |   5.0 |  9.34
Other   |            | 0.01572    |            |       |  0.59

Nlocal:        83.3333 ave          96 max          73 min
Histogram: 1 2 7 11 10 7 8 0 0 2
Nghost:        1749.42 ave        1781 max        1723 min
Histogram: 1 4 10 9 3 8 6 2 3 2
Neighs:        10501.0 ave       12421 max        8849 min
Histogram: 1 4 6 7 7 15 4 1 1 2

Total # of neighbors = 504046
Ave neighs/atom = 126.01150
Neighbor list builds = 909
Dangerous builds = 218

# Equilibrate just above the melting temperature to avoid step fn in T

fix 1 all npt temp 1.25 1.25 0.1 iso 5.68 5.68 0.5 mtk yes tchain 5 pchain 5
run 2000
Per MPI rank memory allocation (min/avg/max) = 3.644 | 3.646 | 3.650 Mbytes
Step Temp E_pair E_mol TotEng Press Volume 
   10000    2.3974539   -4.4031059            0  -0.80782415    5.7569084    3636.3921 
   11000    1.2473144   -6.4696347            0   -4.5991309    5.8712549    2777.4049 
   12000    1.2662231   -6.6229057            0   -4.7240459    5.7828999    2738.6388 
Loop time of 0.672773 on 48 procs for 2000 steps with 4000 atoms

Performance: 513694.959 tau/day, 2972.772 timesteps/s
99.7% CPU use with 48 MPI tasks x no OpenMP threads

MPI task timing breakdown:
Section |  min time  |  avg time  |  max time  |%varavg| %total
---------------------------------------------------------------
Pair    | 0.29732    | 0.32813    | 0.36631    |   2.6 | 48.77
Neigh   | 0.040926   | 0.044013   | 0.047354   |   0.7 |  6.54
Comm    | 0.20909    | 0.25022    | 0.28329    |   3.3 | 37.19
Output  | 5.2089e-05 | 5.3477e-05 | 6.8516e-05 |   0.0 |  0.01
Modify  | 0.040648   | 0.045379   | 0.050627   |   1.4 |  6.75
Other   |            | 0.004973   |            |       |  0.74

Nlocal:        83.3333 ave          89 max          75 min
Histogram: 1 0 4 0 6 10 8 15 3 1
Nghost:        2120.69 ave        2140 max        2105 min
Histogram: 2 2 11 4 11 5 8 2 2 1
Neighs:        13927.3 ave       15408 max       12127 min
Histogram: 2 2 1 9 5 6 9 10 3 1

Total # of neighbors = 668511
Ave neighs/atom = 167.12775
Neighbor list builds = 143
Dangerous builds = 11

#############################
# L I N E A R  Q U E N C H  #
#############################

# Define solid atoms. This closely follows ten Wolde  Ruiz-Montero and Frenkel  Faraday Discuss  1996  104  93-110
# Compute components of the per-atom q6 vector
compute q6 all orientorder/atom degrees 1 6 components 6 nnn NULL cutoff 1.3 # compute the Q6 parameter.
                                                                             # Use all neighbours within 1.3 unit cell.

# get number of connections
compute coord_number all coord/atom orientorder q6 0.5

# An atom is solid if it has 8 or more connections (of a possible 14)
variable is_solid atom c_coord_number>=8
group solid dynamic all var is_solid    # Must be dynamic to update
dynamic group solid defined

# do clustering
compute cluster solid cluster/atom 1.3 # Create a cluster where all atoms within are solid and max 1.3 units from another member

# define chunks one chunk per cluster
compute clus_chunks solid chunk/atom c_cluster nchunk every compress yes  # Says which atoms are in which chunk

# count the size of each chunk
compute size_chunks solid property/chunk clus_chunks count


# Find the maximum entry in the vector of chunk sizes
variable max_n equal max(c_size_chunks)


# Thermo style which includes this variable
# thermo_style custom step temp pe vol v_max_n

thermo ${N}  # Print the thermo information every 100 steps
thermo 1000  

# Reset the npt fix at a lower temperature (below freezing)
fix 1  all npt temp  ${temp} ${temp}  0.1  iso  5.68  5.68  0.5  mtk yes tchain  5  pchain  5
fix 1  all npt temp  0.45 ${temp}  0.1  iso  5.68  5.68  0.5  mtk yes tchain  5  pchain  5
fix 1  all npt temp  0.45 0.45  0.1  iso  5.68  5.68  0.5  mtk yes tchain  5  pchain  5

dump dmp2 all dcd ${N} traj.dcd
dump dmp2 all dcd 1000 traj.dcd


compute msd all msd com yes
variable twopoint equal c_msd[4]/6/(step*dt+1.0e-6)
fix 9 all vector 10 c_msd[4]
variable fit equal slope(f_9)/6/(10*dt)
thermo_style custom step temp pe c_msd[4] v_twopoint v_fit v_max_n

fix 1 all npt temp 1.25 ${temp} 0.1 iso 5.68 5.68 0.5 mtk yes tchain 5 pchain 5
fix 1 all npt temp 1.25 0.45 0.1 iso 5.68 5.68 0.5 mtk yes tchain 5 pchain 5
run 2000000 # 5000000  # Run for this many steps
Neighbor list info ...
  update every 1 steps, delay 10 steps, check yes
  max neighbors/atom: 2000, page size: 100000
  master list distance cutoff = 3.8
  ghost atom cutoff = 3.8
  binsize = 1.9, bins = 8 8 8
  4 neighbor lists, perpetual/occasional/extra = 1 3 0
  (1) pair lj/cut, perpetual
      attributes: half, newton on
      pair build: half/bin/atomonly/newton
      stencil: half/bin/3d
      bin: standard
  (2) compute orientorder/atom, occasional
      attributes: full, newton on
      pair build: full/bin/atomonly
      stencil: full/bin/3d
      bin: standard
  (3) compute coord/atom, occasional
      attributes: full, newton on
      pair build: full/bin/atomonly
      stencil: full/bin/3d
      bin: standard
  (4) compute cluster/atom, occasional
      attributes: full, newton on
      pair build: full/bin/atomonly
      stencil: full/bin/3d
      bin: standard
Per MPI rank memory allocation (min/avg/max) = 9.848 | 9.852 | 9.857 Mbytes
Step Temp PotEng c_msd[4] v_twopoint v_fit v_max_n 
   12000    1.2662231   -6.6229057 1.0318301e-30 7.1654863e-33 8.3333333e+20            1 
   13000    1.2429302   -6.6239828   0.50040132 0.0032077007  0.041227097            3 
   14000    1.2252732   -6.5859534   0.94688466  0.005636218  0.038299122            5 
   15000    1.2618787    -6.697129    1.3857434 0.0076985739  0.037941078            1 
   16000     1.218839   -6.6347791    1.8496446 0.0096335656  0.037769543            2 
   17000    1.2320065   -6.6105961    2.2181655   0.01087336  0.036835279            2 
   18000    1.2270518   -6.6745701    2.6273264  0.012163548  0.036330543            2 
   19000    1.2636632    -6.646229    3.0904911  0.013554785  0.035893903            1 
   20000    1.2246971   -6.6892533    3.5502244  0.014792601  0.036219609            5 
   21000    1.2563894   -6.6438231    4.0533489  0.016084717  0.036483869            2 
   22000    1.2501704   -6.6095553     4.525813  0.017143231  0.036793817            2 
   23000    1.2528041   -6.5881231    4.8827625  0.017691168  0.036804052            2 
   24000    1.2823721   -6.6855382    5.2730142  0.018309077  0.036657864            3 
   25000    1.2595966   -6.5760042    5.7538922   0.01917964  0.036508461            1 
   26000    1.2515285   -6.6362182    6.1838303  0.019819968  0.036501561            1 
   27000    1.2270785   -6.6268882    6.6386016  0.020489511  0.036522755            2 
   28000    1.2759287    -6.625938    7.1012172  0.021134575  0.036544002            3 
   29000    1.2389013   -6.6436599     7.525969  0.021626347  0.036520805            1 
   30000    1.2397029    -6.657564    7.8999945  0.021944429  0.036445166            3 
   31000    1.2591491   -6.6515904    8.3561656   0.02246281   0.03639236            3 
   32000    1.2416493   -6.6370039     8.735893  0.022749721  0.036341124            2 
   33000    1.2270186    -6.701446    9.2212257  0.023285923  0.036303558            5 
   34000    1.2424457   -6.6583707    9.7733154  0.023954204  0.036367388            2 
   35000     1.230564   -6.6213583    10.271859  0.024456808    0.0364778            4 
   36000    1.2315354   -6.6562974    10.867219    0.0251556   0.03665223            4 
   37000    1.2343627   -6.6092698    11.349918  0.025562878  0.036898436            4 
   38000    1.2599128   -6.6539751    11.787769  0.025850371  0.037071301            1 
   39000    1.2598142   -6.6871741    12.125228  0.025908606    0.0371926            2 
   40000    1.2215985   -6.6841401    12.514901   0.02607271  0.037255253            4 
   41000    1.2365908   -6.6796759    12.908505  0.026236798  0.037250501            4 
   42000    1.2421057   -6.6335528    13.315208  0.026419064  0.037202062            6 
   43000     1.272574   -6.6064224    13.802947  0.026749897  0.037172116            3 
   44000    1.2330085    -6.661434    14.218058  0.026928141  0.037168418            3 
   45000    1.2419584   -6.6799623    14.716492  0.027252763  0.037183338            2 
   46000    1.2096574   -6.6919989    15.120753  0.027392669  0.037173977            2 
   47000    1.2581964   -6.6309604    15.659307  0.027764728  0.037172486            1 
   48000    1.2210628   -6.6896862    16.069714  0.027898809  0.037177785            3 
   49000    1.2463874   -6.6536877    16.412195  0.027911895   0.03717117            5 
   50000    1.2587205   -6.6543208    16.931312  0.028218852  0.037161045            2 
   51000    1.2552369   -6.6391788    17.284431  0.028242534  0.037142294            4 
   52000    1.2361493    -6.722239    17.706752  0.028376205  0.037118585            1 
   53000    1.2044216   -6.6544743    18.257283   0.02870642   0.03711034            2 
   54000    1.2445403   -6.6267089    18.678191  0.028824368  0.037093287            1 
   55000     1.227894   -6.6778218    18.973248  0.028747345  0.037058422            2 
   56000    1.2360774   -6.6887185    19.336367  0.028774355  0.037007349            4 
   57000    1.1983236   -6.6960091    19.647808  0.028724865  0.036939993            2 
   58000    1.2543123   -6.6740905     20.15149  0.028953291  0.036868742            2 
   59000    1.2478011   -6.6797654    20.485386   0.02893416  0.036800948            2 
   60000    1.2138931    -6.667822    20.882732  0.029003795  0.036721992            9 
   61000    1.2265267   -6.6603486    21.335728  0.029147169  0.036652546            3 
   62000    1.2436159   -6.6193978    21.713464  0.029184763  0.036589436            3 
   63000    1.2499853   -6.6863361    21.996775  0.029096263  0.036506705            2 
   64000    1.2288901   -6.6811129    22.459932  0.029244703  0.036437768            2 
   65000    1.2157947   -6.6966605    22.987937  0.029471714  0.036390754            3 
   66000    1.2095831   -6.6748789    23.469402  0.029633083  0.036346046            3 
   67000    1.2270844   -6.6758079    23.830897  0.029640419  0.036304788            5 
   68000    1.2237154   -6.7026006    24.354969  0.029846775  0.036263913            2 
   69000    1.2439293   -6.6744671    24.857365  0.030020972  0.036236592            3 
   70000    1.2497637   -6.6739784    25.309551  0.030130417  0.036228781            3 
   71000     1.214654   -6.6464642    25.969144  0.030480216  0.036224299            3 
   72000    1.2250206   -6.6320781    26.391141  0.030545301  0.036238857            2 
   73000    1.2319964   -6.6636192     26.60237  0.030368003  0.036241464            4 
   74000    1.2108848   -6.6781906    26.914144   0.03030872   0.03621948            3 
   75000    1.2494583   -6.6071834    27.488117  0.030542352  0.036200899            4 
   76000    1.2349398   -6.6468538     27.79242  0.030474144  0.036173468            3 
   77000    1.2466425   -6.6210875     28.22565   0.03054724  0.036144805            2 
   78000    1.2233744   -6.6949848    28.500495  0.030449246  0.036109539            3 
   79000    1.2310191   -6.6373722    28.935253  0.030522418  0.036070843            2 
   80000    1.2177289   -6.6319931    29.188077  0.030404247  0.036029964            3 
   81000    1.2325547   -6.6757234      29.3671  0.030213066  0.035970276            4 
   82000    1.2095112   -6.7004138    29.532132  0.030012329  0.035889158            4 
   83000    1.2221422   -6.6504702    30.047588  0.030168261  0.035805016            1 
   84000    1.2246921   -6.6850387    30.507957   0.03026583    0.0357378            6 
   85000    1.2148263   -6.6856534    31.090104  0.030480494  0.035681576            3 
   86000     1.238452   -6.6999001    31.583222  0.030603897  0.035635844            7 
   87000    1.2179454   -6.6997251    32.109122  0.030755864  0.035604869            3 
   88000    1.2293015    -6.685384    32.596367  0.030867772  0.035577404            6 
   89000    1.2054759   -6.7105171    32.849375  0.030757842  0.035549157            4 
   90000    1.2105539   -6.6970567    33.380023  0.030907428  0.035523249            2 
   91000    1.1831512   -6.7014444    33.685333  0.030847374  0.035499785            2 
   92000    1.2520146   -6.7150288    34.236177   0.03101103  0.035485556            2 
   93000    1.2416909   -6.7716888    34.631943  0.031032207  0.035472948            2 
   94000    1.2150319   -6.7081223    35.156037    0.0311667  0.035458776            2 
   95000    1.2027793   -6.7446648    35.429576  0.031078576  0.035447551            5 
   96000    1.2520276   -6.7085025    35.862486   0.03113063  0.035427379            2 
   97000    1.1998041   -6.6659993     36.38186  0.031255893  0.035410542            5 
   98000     1.253612   -6.6826913    36.812578  0.031303213  0.035401858            2 
   99000    1.2296432   -6.7003239    37.065801  0.031200169  0.035388361            4 
  100000    1.2084606   -6.7264662    37.506171  0.031255143  0.035370607            2 
  101000    1.1978303   -6.6981556    37.818862  0.031203681   0.03534861            2 
  102000    1.2258455   -6.7524112     38.04037  0.031078734   0.03532178            2 
  103000    1.1902867   -6.7429765     38.62252  0.031247993  0.035297123            2 
  104000    1.2009833   -6.7063565    39.227346  0.031432168   0.03528586            5 
  105000    1.2339241   -6.7316031    39.612879  0.031438793  0.035277095            3 
  106000    1.2125015   -6.7149016    40.186186  0.031592914  0.035264483            3 
  107000    1.2218576   -6.7213828     40.41526  0.031476059  0.035248489            3 
  108000    1.1927825   -6.7384737    40.552388  0.031290423  0.035229655            4 
  109000    1.2310127   -6.7417157    40.976495  0.031327596  0.035204004            2 
  110000     1.226251   -6.6879181    41.406384  0.031368473  0.035179062            2 
  111000      1.20088   -6.6953401    41.935659  0.031483228  0.035158818            3 
  112000    1.2122641   -6.7179254    42.255124  0.031439824  0.035140979            2 
  113000    1.2248734   -6.7053068    42.681024  0.031475681   0.03512178            2 
  114000    1.1574429   -6.6998693    43.377611   0.03170878  0.035108504            2 
  115000    1.2374213   -6.7490804    43.673117  0.031647186  0.035096178            4 
  116000    1.2035196    -6.724277    44.027851  0.031629203  0.035085969            2 
  117000    1.2022251   -6.7300016     44.50923  0.031701731  0.035072986            2 
  118000     1.219308   -6.7043372    44.789062  0.031630693  0.035052925            3 
  119000    1.1997573   -6.7360249    45.198388  0.031651532  0.035034335            7 
  120000    1.2017443   -6.7520763    45.806762  0.031810252  0.035015145            2 
  121000    1.1853592   -6.7299361    46.016023  0.031691476  0.034999986            4 
  122000    1.2251281   -6.7487266    46.123999  0.031505464  0.034981046            2 
  123000    1.2162022   -6.6604168    47.076049  0.031894342  0.034968749            3 
  124000    1.2094878   -6.7027068    47.244995  0.031750669  0.034954726            3 
  125000    1.1863857    -6.740462    47.597272  0.031731515  0.034941106            5 
  126000    1.2152396   -6.7286371    48.059446  0.031785348  0.034929517            1 
  127000     1.210502   -6.7475601     48.45566  0.031795052  0.034917874            7 
  128000     1.186734   -6.7226143    48.617061  0.031651733  0.034901414            2 
  129000    1.1992427   -6.7074452    49.184362  0.031772844  0.034881575            2 
  130000     1.183836   -6.7191786    49.434757  0.031688947  0.034861115            1 
  131000    1.1942953   -6.7197238      49.8821  0.031731616   0.03484135            3 
  132000     1.186892   -6.7205983    50.562117  0.031920529  0.034828402            1 
  133000    1.1881317   -6.6917472     50.93896  0.031916641  0.034814589            2 
  134000    1.1837559   -6.7131288    51.167022  0.031820287  0.034800924            1 
  135000    1.2043366   -6.7496745    51.518009   0.03180124  0.034785516            4 
  136000    1.1958741   -6.7566285    51.872179  0.031784423  0.034768756            3 
  137000    1.2182456   -6.7349574    52.301702  0.031813687  0.034752022            3 
  138000    1.1894868   -6.8014855     52.45359  0.031674873  0.034731391            3 
  139000    1.2052164   -6.7260758    52.887625  0.031707209   0.03470808            4 
  140000    1.2031475   -6.7622721       53.368  0.031766667  0.034685799            1 
  141000    1.2143547    -6.689925     53.48251  0.031609048  0.034659046            2 
  142000     1.180446   -6.7513075    53.924863  0.031646046   0.03463223            3 
  143000    1.1799033   -6.7450794    54.436821  0.031723089  0.034607931            3 
  144000    1.1822883   -6.7182193    54.792253   0.03170848  0.034584842            4 
  145000    1.2091732   -6.8223832    55.157299  0.031699597  0.034563128            3 
  146000    1.1996905   -6.7296702    55.675995  0.031778536  0.034541282            2 
  147000    1.1980859   -6.7604937    56.156558  0.031834783   0.03452341            5 
  148000    1.1937362   -6.7411372    56.537418  0.031834131  0.034505319            1 
  149000    1.1824913   -6.7343028    57.208326  0.031995708  0.034490065            2 
  150000    1.2244051   -6.7953462    57.136446   0.03174247  0.034472735            5 
  151000    1.2046092   -6.7528826    57.613585  0.031795576  0.034451866            2 
  152000    1.2052372   -6.7257188    58.170875  0.031891927   0.03443215            2 
  153000    1.1740091   -6.7457734     58.68246  0.031962124  0.034418388            4 
  154000    1.2113135   -6.7900563    58.822058  0.031830118  0.034404754            4 
  155000    1.1591902   -6.7203941    59.318837  0.031891848  0.034390086            7 
  156000    1.1876751    -6.780486    59.594216  0.031834517  0.034376444            7 
  157000    1.1775672    -6.777803    59.978432  0.031835686  0.034358202            2 
  158000    1.1762101   -6.7377369    60.636896  0.031981485  0.034341964            2 
  159000     1.177785   -6.7701584    61.020864  0.031981585  0.034325646            2 
  160000    1.2064157   -6.7595941    61.116213  0.031831361  0.034310659            2 
  161000    1.2030752   -6.7896157     61.27733  0.031717044  0.034292045            3 
  162000    1.1865742   -6.8073703    61.590845  0.031682533  0.034272403            3 
  163000    1.1496165   -6.7491488    62.153876   0.03177601  0.034251647            2 
  164000    1.2058136   -6.7553615     62.41788  0.031716402  0.034233665            4 
  165000    1.2011701   -6.7649115     62.82315  0.031728864   0.03421187            4 
  166000     1.163264   -6.7659714    63.222897  0.031738402  0.034189915            2 
  167000    1.2060922   -6.7256105    63.664315   0.03176862  0.034169227            2 
  168000    1.1785875   -6.7473679     63.90945  0.031701116  0.034147003            3 
  169000    1.2085552   -6.7285101    64.480267  0.031795003  0.034125372            4 
  170000    1.2132279   -6.7823912    64.408686  0.031572885  0.034101848            2 
  171000    1.1828447   -6.7264722    65.249809  0.031798152  0.034079969            1 
  172000    1.2040061   -6.7926112    65.298917  0.031637072  0.034058475            2 
  173000    1.1769963   -6.7933434    65.973501  0.031779143  0.034038761            2 
  174000    1.2100663   -6.8081505     66.27042  0.031738707  0.034019656            3 
  175000    1.1778177   -6.7816461    66.673957  0.031749503  0.033998958            2 
  176000    1.1840834   -6.7979694     66.87777  0.031665611  0.033978291            3 
  177000    1.1893696   -6.7912859    67.550427  0.031803402  0.033959025            1 
  178000    1.2113765   -6.8112737    67.781633  0.031732974  0.033941815            3 
  179000    1.1577149   -6.7384016    68.361158  0.031825492  0.033925135            3 
  180000    1.1752213   -6.7917612    68.837058  0.031869008  0.033909679            4 
  181000    1.2016475   -6.7621666    68.974785  0.031756346  0.033894281            3 
  182000    1.1842421   -6.7873572    69.337374  0.031747882  0.033878641            2 
  183000    1.1596958   -6.8100205    69.563755  0.031677484   0.03386194            2 
  184000    1.1943457   -6.8210982    70.073572  0.031736219  0.033843399            2 
  185000    1.1787398   -6.8052259    70.292748    0.0316634  0.033828041            3 
  186000    1.2000696   -6.7963717    70.483779  0.031578754  0.033808212            1 
  187000    1.1922955   -6.7973118    71.023063  0.031650206  0.033788554            3 
  188000    1.1806937   -6.8379666     70.97121   0.03145887  0.033767964            2 
  189000    1.1863479   -6.8126005    71.695418  0.031611736  0.033747036            2 
  190000    1.1745606   -6.8190944    72.136941  0.031639009  0.033727793            3 
  191000     1.169371   -6.8356533    72.740839  0.031736841  0.033709681            4 
  192000    1.1978143   -6.8301585    73.077659  0.031717734  0.033695351            2 
  193000    1.1842845   -6.8194614    73.488778  0.031730906   0.03368254            4 
  194000    1.1803903   -6.8385696    73.550838  0.031594002  0.033666171            1 
  195000    1.1873256   -6.8017599    74.322963   0.03176195  0.033650235            2 
  196000    1.1947681   -6.7967861    74.568704  0.031704381  0.033635564            3 
  197000    1.2029151   -6.7985774    74.969045  0.031712794  0.033621436            3 
  198000    1.1636142   -6.8092888    75.296122  0.031690287  0.033605914            2 
  199000    1.1708884   -6.8219589    75.683208  0.031693136  0.033589142            3 
  200000    1.1680911   -6.8078189    75.699806  0.031541586   0.03357186            3 
  201000    1.1819889   -6.8341246    76.186072  0.031586265  0.033553387            2 
  202000     1.160286   -6.7985944    76.952888  0.031746241  0.033535962            3 
  203000    1.1837654   -6.8605877    76.774659  0.031516691  0.033517592            4 
  204000    1.1554529   -6.7424554    77.604173  0.031701051  0.033499429            5 
  205000     1.188532   -6.7888471    77.577496  0.031535567  0.033480355            3 
  206000     1.142299   -6.8153971    77.941774  0.031529844  0.033460579            3 
  207000    1.1467777   -6.8211635    78.211028  0.031485921  0.033438751            4 
  208000     1.172053   -6.8203274    78.560286  0.031474474  0.033417617            6 
  209000    1.1634101   -6.8301712    78.836088  0.031433847  0.033398367            2 
  210000    1.1474922   -6.8435448    79.165638  0.031414936  0.033379621            2 
  211000    1.1829655   -6.8359746    79.495329  0.031396259  0.033358674            4 
  212000    1.1741156   -6.8986035    79.733243  0.031341683   0.03333832            2 
  213000    1.1665096   -6.8506781    80.018713  0.031306226  0.033318882            3 
  214000    1.1609516   -6.7607737     81.11063  0.031585136  0.033299872            2 
  215000    1.1630161   -6.7839564    81.616647  0.031634359  0.033281449            2 
  216000    1.1830556   -6.8400991    81.576461    0.0314724  0.033261891            3 
  217000    1.1340664   -6.8164058    81.674172  0.031364889  0.033243242            3 
  218000    1.1602587   -6.8411541    82.257424  0.031443969  0.033223801            5 
  219000    1.1824386   -6.8066113    82.619567  0.031438192  0.033205081            3 
  220000    1.1692689   -6.8333788    83.143633    0.0314938  0.033186489            3 
  221000    1.1580147   -6.8776209    83.075392  0.031325562  0.033168534            3 
  222000    1.2020364   -6.8433102     83.41337  0.031311325  0.033148474            4 
  223000    1.1630505   -6.8557081    84.008327  0.031393246  0.033130249            1 
  224000    1.1668066    -6.853524    83.933059  0.031225096  0.033110883            6 
  225000     1.168565   -6.8286654    84.601403  0.031333853  0.033090099            3 
  226000    1.1453259    -6.848881    84.572109  0.031184406  0.033069982            1 
  227000    1.1245558   -6.8193141    85.196925  0.031276404  0.033048816            2 
  228000    1.1563725   -6.7761706    85.654628  0.031306516  0.033026839            3 
  229000    1.1739607   -6.7829391    85.952358  0.031278151    0.0330054            5 
  230000    1.1687775    -6.770562    86.121757  0.031203535  0.032984124            2 
  231000    1.1540545   -6.8469649    86.356527  0.031153148  0.032962086            2 
  232000    1.1559718   -6.8566986    86.309804  0.031002085  0.032939046            2 
  233000    1.1362172   -6.8603185    86.967555  0.031104276   0.03291434            3 
  234000    1.1833732    -6.834565    87.141222  0.031033199   0.03288936            4 
  235000    1.1866184   -6.8299457    87.335311  0.030969968  0.032863005            5 
  236000    1.1705289   -6.8596476      87.6344   0.03094435  0.032838662            4 
  237000    1.1427734    -6.823764    88.402117  0.031083726  0.032815845            4 
  238000    1.1655414    -6.871271    88.637853  0.031035663  0.032792684            3 
  239000    1.1628588   -6.7927115    89.272448  0.031127074  0.032769264            5 
  240000    1.1665256   -6.8844522    88.725995  0.030807637  0.032745448            4 
  241000      1.14855   -6.8513534    89.593754   0.03097986  0.032722417            2 
  242000    1.1596753   -6.8506576    89.910376  0.030960873  0.032701401            5 
  243000    1.1798717   -6.8591954    90.208045  0.030935544  0.032679243            2 
  244000    1.1546015   -6.8579203    90.411012  0.030878078  0.032655201            3 
  245000    1.1547096   -6.9052465    90.754379  0.030868836  0.032631194            3 
  246000    1.1444543   -6.8653486    91.180267  0.030887624  0.032606724            2 
  247000    1.1536169   -6.7999746    92.221537  0.031113879   0.03258537            2 
  248000    1.1284249   -6.8029761    92.330528  0.031025043  0.032564073            3 
  249000    1.1716458   -6.8547921    92.394629  0.030921897  0.032541727            4 
  250000    1.1760798   -6.8803977     92.77627  0.030925423  0.032521065            1 
  251000    1.1769574    -6.846691    93.280146  0.030969504  0.032501533            2 
  252000    1.1476026   -6.8353012    93.715434  0.030990553  0.032481724            3 
  253000    1.1624059   -6.8660729    93.901962    0.0309295  0.032461273            6 
  254000    1.1572515   -6.8444469    94.079276  0.030865904  0.032439859            3 
  255000     1.134489    -6.884573     94.15513   0.03076965  0.032419433            3 
  256000    1.1430491   -6.8567936    94.532751   0.03077238  0.032398603            5 
  257000    1.1804438   -6.8387976    94.878818  0.030764856  0.032375534            3 
  258000    1.1569604   -6.8254354    95.106512  0.030719158  0.032351815            3 
  259000    1.1818579   -6.8544565    94.837946   0.03051414  0.032326861            3 
  260000    1.1571391   -6.8716226    95.244495  0.030527082  0.032300453            5 
  261000    1.1645614   -6.8217888    95.628531  0.030532736  0.032272443            5 
  262000    1.1633794   -6.8896188    95.892656  0.030500208   0.03224436            2 
  263000    1.1543961   -6.8469742    96.187531  0.030477671  0.032218502            5 
  264000    1.1174677   -6.8398993    96.471513  0.030451866  0.032191757            2 
  265000    1.1403344   -6.8588493      96.7143  0.030413302  0.032165466            2 
  266000    1.1370071   -6.9131833    97.164909  0.030440134  0.032137991            3 
  267000    1.1180604   -6.8548072    97.382618  0.030394075  0.032110446            5 
  268000    1.1566174   -6.9127221    97.660783  0.030367159  0.032082175            3 
  269000     1.143351   -6.8976393    97.997663  0.030358631  0.032052903            3 
  270000    1.1314291    -6.812295    98.931698  0.030534475  0.032026152            3 
  271000    1.1432096   -6.9061465    98.922151  0.030418866  0.032000826            3 
  272000    1.1438631   -6.8841903    98.993172   0.03032879  0.031975437            2 
  273000    1.1255835   -6.8687587    99.114833  0.030254833  0.031947606            4 
  274000    1.1543175   -6.8841485    99.521956  0.030268235    0.0319198            2 
  275000    1.1254564   -6.8657817    99.903717  0.030273854  0.031891733            3 
  276000    1.1730188   -6.8483881    99.935284  0.030173697  0.031864911            4 
  277000    1.1463443   -6.8867242      100.613  0.030268651  0.031839245            6 
  278000    1.1554118   -6.8650622    100.77575  0.030208558  0.031813744            3 
  279000    1.1608359   -6.8618807    100.83758  0.030118752   0.03178588            2 
  280000     1.134272    -6.899844     101.3362  0.030159582  0.031759711            2 
  281000     1.163723   -6.8413108    102.07533   0.03027145  0.031734012            5 
  282000    1.1323042   -6.8815659    102.02052  0.030147907  0.031708915            3 
  283000    1.1435926   -6.8771575    102.33715  0.030134615  0.031681891            2 
  284000    1.1185922   -6.9000874    102.17652  0.029981373  0.031654688            3 
  285000    1.1445008    -6.880586    102.58705  0.029996212  0.031626048            2 
  286000    1.1444049   -6.8346497     102.8191  0.029958944  0.031597336            2 
  287000     1.136028   -6.8916191    103.12342  0.029942921  0.031569416            5 
  288000    1.1378361   -6.9345272    103.04549  0.029816404  0.031540163           13 
  289000    1.1364218   -6.8694946    103.75707  0.029918416  0.031511079            5 
  290000    1.1276518   -6.8537333    103.85316  0.029842862  0.031481689            7 
  291000     1.143897   -6.8656373     104.3174  0.029873253  0.031452994            2 
  292000    1.1288978    -6.886597     104.3143  0.029770064  0.031424348            3 
  293000    1.1666482   -6.9052784    104.88433  0.029830584  0.031394653            2 
  294000    1.1199983   -6.8872637    104.73359  0.029686393  0.031365386            2 
  295000    1.1417011   -6.9570009    104.81112   0.02960766  0.031335054            4 
  296000    1.1464453   -6.8765236    105.51298  0.029705232  0.031304645            2 
  297000    1.1347675   -6.8947056    105.70925  0.029660284  0.031274643            5 
  298000    1.1399621   -6.9307057    105.57912  0.029524363  0.031243793            3 
  299000    1.1416228   -6.9010571    106.21271  0.029602204  0.031214111            6 
  300000    1.1506191   -6.8860006     106.9976  0.029721555  0.031185057            3 
  301000    1.1333457   -6.9247803    106.94305  0.029607712  0.031156225            2 
  302000    1.1331353   -6.9518948    107.08439  0.029548672  0.031127149           13 
  303000    1.1348824   -6.9164101    107.65826  0.029608982  0.031098311            3 
  304000    1.1379642   -6.9122732    107.65406  0.029510432  0.031069352            5 
  305000     1.108803   -6.8995705    108.24525  0.029575205  0.031041056            3 
  306000    1.1530793   -6.9447508    108.25228  0.029480469  0.031012863            4 
  307000    1.1347556   -6.9080103     108.6965  0.029505023  0.030983594            2 
  308000    1.1261705   -6.9048695    108.98327  0.029486814  0.030954344            2 
  309000    1.1380033     -6.93614    109.21254   0.02945322  0.030926977            6 
  310000     1.139269   -6.8857239    109.85184  0.029530064  0.030899955            8 
  311000    1.1139994   -6.9450355    109.60668  0.029369422  0.030872975            8 
  312000     1.141366   -6.9578454     109.9527  0.029367709  0.030845068            3 
  313000    1.1181056   -6.9355369    110.54135  0.029430605  0.030817476            5 
  314000    1.1254102    -6.933642    110.92936   0.02943985  0.030790225            4 
  315000    1.1315669   -6.9473787    111.29999  0.029444443  0.030763468            2 
  316000    1.1209517   -6.9194675    111.68463  0.029452698  0.030736709            6 
  317000    1.1249716     -6.98478    111.48603  0.029307578      0.03071            2 
  318000    1.1474083   -6.8969297    112.42206  0.029460707  0.030683588            6 
  319000    1.1349398   -6.9097451    112.43722  0.029372314  0.030658811            2 
  320000    1.1198532   -6.9921387    112.37819  0.029265152  0.030631677            2 
  321000    1.1083948   -6.9455914    112.99535  0.029334203  0.030604707            4 
  322000    1.1350661   -6.9440015    112.89287   0.02921658  0.030578026            4 
  323000    1.1282875   -6.9371118    113.15104  0.029192735  0.030550783            1 
  324000     1.154146   -6.9607971    113.48398  0.029188265  0.030523619            2 
  325000    1.1094574    -6.923109    113.83817  0.029189274   0.03049675            3 
  326000    1.1174222   -6.8951302    114.33901  0.029227764  0.030469251            4 
  327000    1.1163002   -6.8917862    114.58908  0.029202109  0.030441539            4 
  328000    1.1219173   -6.9020923    114.64941  0.029128407  0.030414202            3 
  329000    1.1348433   -6.9198508    114.76811  0.029069937  0.030387233            3 
  330000    1.1240995   -6.9476957    114.83704  0.028999253  0.030360656            5 
  331000    1.1473617   -6.9528105    115.47261  0.029071655  0.030333041            6 
  332000    1.1347963   -6.9098143    115.91036  0.029093966  0.030306146            4 
  333000     1.142147   -6.9424797    116.10273  0.029054737  0.030279639            3 
  334000    1.1242333   -6.9625093    116.60444  0.029092924  0.030253463            3 
  335000    1.1194942    -6.920213    116.58622  0.029001546  0.030227855            2 
  336000    1.1139736   -6.9557585    116.70495   0.02894468  0.030201927            6 
  337000    1.1565778   -6.9635336     116.8919   0.02890502  0.030175408            4 
  338000    1.1250797   -6.9734786    116.86313  0.028812409  0.030148706            3 
  339000    1.0952691   -6.9614189    117.03689  0.028770129  0.030120711            7 
  340000    1.1135983   -6.9631147    117.74016  0.028857883  0.030092881            3 
  341000    1.1297166   -6.8853939    118.39351   0.02893292  0.030067178            3 
  342000    1.1250342   -6.9386422    118.70359  0.028923877  0.030041806            9 
  343000    1.1396775   -6.9981399    118.51104   0.02879277  0.030016622            3 
  344000    1.1247664   -6.9843102    118.84506  0.028789986  0.029990624            3 
  345000    1.1187416   -6.9475858     119.6163  0.028892826  0.029965956            2 
  346000    1.1183995   -6.9464812    119.48416  0.028777494   0.02994142            3 
  347000    1.1238453    -6.895738    120.55706  0.028952224  0.029917104            4 
  348000    1.1300687   -6.9554226    120.20099  0.028783762  0.029893282            5 
  349000    1.1075648   -6.9739139    120.49809  0.028772228  0.029869164            4 
  350000    1.1222995    -6.997791    120.93241  0.028793431  0.029845568            2 
  351000    1.1106522   -6.9894978    121.10635  0.028752695  0.029822884            5 
  352000    1.1063748   -6.9940078    121.41486  0.028744049  0.029799394            2 
  353000    1.1079605   -6.9110882    122.59025  0.028940096  0.029776234            2 
  354000     1.131038   -6.9980479    122.04734  0.028730542   0.02975254            4 
  355000     1.116075   -6.9571668    122.74747  0.028813959   0.02972939            2 
  356000     1.136158   -6.9724425    122.26191  0.028619361  0.029706497            4 
  357000    1.1186225   -6.9510723    122.68851  0.028638774   0.02968284            4 
  358000      1.11169   -6.9860817    123.02212  0.028636434  0.029659046            3 
  359000    1.1293135   -6.9581217    122.97411  0.028545521  0.029634244            3 
  360000    1.1090478   -6.9571983    123.38346  0.028560987  0.029609747            3 
  361000    1.1256403   -6.9768565    123.46965  0.028501766  0.029585262            3 
  362000    1.1044725   -6.9738265    123.85551  0.028511857  0.029561225            5 
  363000    1.1140505    -6.954576    124.20409  0.028513336  0.029536608            4 
  364000    1.0987438   -6.9757518      124.515  0.028506182  0.029511986            2 
  365000     1.074675   -6.9508333    124.88877  0.028513418  0.029487697            3 
  366000    1.1085202   -6.9734263    124.44952  0.028335501   0.02946248            4 
  367000     1.113851   -6.9765382    124.49609  0.028268866  0.029436405            4 
  368000    1.1251241   -6.9949412    124.98695  0.028303204  0.029409913            3 
  369000    1.1099784   -6.9756838    125.32748  0.028303405  0.029384038            1 
  370000    1.1166312   -7.0127501    125.38781  0.028240497  0.029356846            2 
  371000    1.1099203    -7.005266     125.1176  0.028103683  0.029329607            2 
  372000    1.0990694   -6.9697446    125.79668  0.028180259  0.029302861            7 
  373000    1.1029319   -6.9836098    125.73166  0.028090184  0.029275667            3 
  374000    1.1094479   -6.9914526    126.36378  0.028155923  0.029248258            4 
  375000    1.1054608   -6.9494358    126.59543  0.028132317  0.029221556            1 
  376000    1.1178208   -6.9671024    127.15035  0.028180485  0.029195168            5 
  377000    1.1121268   -7.0070767    126.61714  0.027987874  0.029168325            2 
  378000    1.0886284   -6.9696341    127.07456  0.028014674  0.029141117            6 
  379000    1.0732244   -7.0125926    127.00449  0.027925351  0.029113719            3 
  380000    1.1284993   -6.9599618    127.39547  0.027937603  0.029086144            3 
  381000    1.0908444   -6.9748689    127.79902  0.027952541  0.029059025            4 
  382000    1.0970037   -6.9853118    128.09856  0.027944712  0.029031969            3 
  383000    1.1011155   -6.9739449    128.35581  0.027927722  0.029004344            2 
  384000    1.1117207   -7.0185664    127.99998  0.027777773  0.028977368            4 
  385000    1.0982993   -7.0271277    128.29733  0.027769985  0.028949759            6 
  386000    1.0745039   -6.9774754    128.64224  0.027772505  0.028921865            3 
  387000    1.1020313   -7.0207766    128.94401  0.027765722  0.028893826            3 
  388000    1.0911562   -7.0076279    128.94139  0.027693598  0.028865627            4 
  389000    1.0837842   -7.0187555    129.20588  0.027679066  0.028838308            4 
  390000    1.1100111    -6.990398     129.9552  0.027768206   0.02881084            3 
  391000    1.1038114   -6.9747935    130.60928   0.02783659  0.028784458            3 
  392000     1.118379   -7.0164611      130.269   0.02769324    0.0287577            3 
  393000    1.0905105   -7.0287356    130.54936  0.027682222   0.02873067            6 
  394000    1.1035918   -6.9984563    130.58649  0.027619815  0.028703649            2 
  395000    1.1079997   -6.9936896    130.98492   0.02763395  0.028677664            4 
  396000    1.0982513   -6.9882657    131.69039  0.027712624  0.028652494            4 
  397000    1.0882756   -7.0517947    131.36929  0.027575417  0.028626274            3 
  398000     1.093339   -6.9700751    132.07406  0.027653698  0.028599589            4 
  399000     1.082654   -7.0286038    131.46565  0.027457321  0.028573735            5 
  400000    1.1292005   -7.0178686    131.93801  0.027487085  0.028546769            6 
  401000    1.0878018   -6.9991472    132.71605  0.027580226  0.028520509            3 
  402000    1.0932715   -7.0103237    133.14475  0.027600487  0.028494533           11 
  403000    1.0798679   -7.0675855    132.38436  0.027374764  0.028467412            3 
  404000    1.0711994   -7.0614866    132.70595  0.027373338  0.028439925            5 
  405000     1.096301   -7.0292283    133.38248  0.027444956  0.028413517            3 
  406000    1.0877084   -7.0460361    133.53272  0.027408195  0.028387067            2 
  407000    1.0848942   -6.9896273    134.56387   0.02755198  0.028361621            2 
  408000    1.1041565    -7.004927    134.78991  0.027530619  0.028336895            3 
  409000    1.0770275   -7.0196166    134.80637  0.027466661   0.02831213            9 
  410000    1.0766497    -7.010095    135.28136  0.027496212  0.028287831            7 
  411000    1.0906422   -7.0305672    135.45742  0.027465008  0.028263667            5 
  412000     1.100321   -7.0315479    135.31584  0.027369709  0.028239709            5 
  413000    1.0867003    -7.036455    135.65566  0.027372006  0.028215318            3 
  414000    1.1007332   -7.0399746    135.67362  0.027309505  0.028191026            4 
  415000    1.0832287   -7.0345573    135.83185  0.027275472  0.028166326            5 
  416000    1.1087191   -7.0467049    136.14036  0.027271707  0.028142227            5 
  417000    1.0840473   -7.1013018    136.28597  0.027235405  0.028118296            1 
  418000    1.0989767   -7.0665588     136.9278  0.027298206  0.028094268            4 
  419000    1.0766626   -7.0140757    137.72566  0.027391737   0.02807074            4 
  420000    1.0894172   -7.0982527    136.94074  0.027170781  0.028047009            2 
  421000    1.0835865   -7.0045181    138.12138   0.02733994  0.028023164            3 
  422000    1.0808666   -7.0501137    137.88981  0.027229426  0.027999499            3 
  423000    1.0815616   -7.0558416    138.15112  0.027216533  0.027976042            3 
  424000    1.0771378   -7.0485092    138.87304  0.027294229  0.027952332            2 
  425000    1.0962749    -7.039209    138.83099  0.027221762  0.027929017            2 
  426000    1.0860751   -7.0851266    138.68287  0.027128887  0.027905865           10 
  427000    1.0616566   -7.0242177    139.35674  0.027196866   0.02788352            2 
  428000    1.1022283   -7.0375899    140.14596  0.027286985  0.027861806            2 
  429000    1.1117345   -7.0309856    140.20909  0.027235644  0.027839909            3 
  430000    1.1062522   -7.0642412    140.74816  0.027276776  0.027818095            4 
  431000    1.0635576   -7.0497735     140.5729  0.027179602    0.0277967            4 
  432000     1.094793   -7.0395956    141.28131  0.027253339  0.027775504            4 
  433000     1.076347   -7.0793367    141.18898  0.027172628  0.027754233            3 
  434000    1.0765672   -7.0290917    141.89723  0.027246013  0.027733671            6 
  435000    1.0706787   -7.0346926    142.00391  0.027203815  0.027712744            5 
  436000    1.0901455   -7.0368816    141.73308  0.027089656   0.02769153            4 
  437000    1.0735973   -7.0497037    142.16798  0.027110598  0.027670302            2 
  438000    1.0670603   -7.0874248     142.5894  0.027128882  0.027649117           10 
  439000    1.0937836   -7.0220097    143.13877  0.027171369  0.027628225            2 
  440000    1.0818152   -7.0840528    143.23474  0.027127791  0.027608441            5 
  441000    1.0653642   -7.0579651    143.76127  0.027165773  0.027588343            5 
  442000    1.0549932   -7.0846536    143.86023  0.027122969  0.027569052            3 
  443000    1.0800054   -7.0452842    143.92058  0.027073096  0.027549361            2 
  444000    1.0613413   -7.0848262    144.25299  0.027074511   0.02752962            3 
  445000    1.0641533    -7.116788     144.4159  0.027044176   0.02750954            3 
  446000    1.0753513   -7.0452222    145.27483  0.027144027  0.027489788            6 
  447000    1.0872686   -7.0887309    144.81868  0.026998263  0.027470079            6 
  448000    1.0848629   -7.0707825    145.55928   0.02707576  0.027450807            3 
  449000    1.0615085   -7.0442936    145.72587  0.027046375  0.027432062            2 
  450000     1.073349    -7.039933    146.38336  0.027108029   0.02741335            2 
  451000    1.0813263   -7.0595747    146.51927  0.027073036  0.027394412            2 
  452000    1.0791075   -7.0802286    146.49217  0.027008144  0.027375573            5 
  453000    1.0638561   -7.0992921    146.66148   0.02697967  0.027357255            6 
  454000      1.07179   -7.0385813    147.48894  0.027072125  0.027339109            4 
  455000    1.0832874   -7.0551802    147.44165  0.027003966  0.027321265            3 
  456000    1.0702509   -7.0900043    147.66601  0.026985748  0.027302526            2 
  457000    1.0872205    -7.065329    147.90393  0.026970082  0.027283648            4 
  458000    1.0725222   -7.1217446    147.44602  0.026827878  0.027263949            3 
  459000    1.0908553   -7.0912989    147.40106  0.026761268  0.027243595            6 
  460000    1.0968274   -7.1440443     147.8565  0.026785598  0.027223508            4 
  461000    1.0601268   -7.1095092    148.03298  0.026759397  0.027203282            2 
  462000    1.0763828   -7.0917796    148.24137  0.026739064  0.027182538            2 
  463000    1.0917907   -7.0841923    148.04149  0.026645337   0.02716226            7 
  464000    1.0651266   -7.0706092    148.67513  0.026701711  0.027142209            2 
  465000      1.04693   -7.1022542    148.74608  0.026657003  0.027121591            3 
  466000    1.0370071   -7.1057764    148.91771  0.026630492  0.027100664            3 
  467000    1.0626311    -7.110472     148.8878   0.02656813  0.027080051            4 
  468000    1.0697136   -7.0747232    149.19085  0.026565322  0.027059563            8 
  469000    1.0633619   -7.1083338    148.93087  0.026462486  0.027039281            2 
  470000    1.0781119    -7.074009     149.6229  0.026528883  0.027019039            4 
  471000    1.0815141   -7.0604981    150.70043  0.026663205  0.026998713            4 
  472000    1.0847936   -7.1005641    150.40957  0.026555362  0.026978702            2 
  473000    1.0468213   -7.0909619    150.82825  0.026572983  0.026958839            3 
  474000    1.0718737   -7.1324513    150.79888  0.026511758  0.026938855           12 
  475000    1.0752847   -7.0964853     150.7977  0.026455738  0.026919045            5 
  476000    1.0502251   -7.0934834    151.54648  0.026531247  0.026899401            4 
  477000    1.0473754   -7.0815465    151.96637  0.026548981  0.026879719            3 
  478000    1.0493813   -7.0485225    152.69562  0.026620575  0.026860568            4 
  479000    1.0575956   -7.0913608    152.11318  0.026463671  0.026840951            3 
  480000    1.0344181   -7.0919027     152.3212  0.026444652  0.026821358            4 
  481000    1.0707416   -7.0974827    152.08499  0.026348751  0.026801586            4 
  482000     1.048236   -7.0860049    152.37725  0.026344614  0.026781875            4 
  483000    1.0583583    -7.138702    152.94973  0.026388842  0.026761925            3 
  484000    1.0673542   -7.1632528    152.93743  0.026332202  0.026741932            4 
  485000      1.02579   -7.1727299     153.3334  0.026345945   0.02672216            3 
  486000    1.0716611   -7.1572006    153.53376  0.026326091   0.02670223            3 
  487000    1.0784447    -7.136107    153.80505  0.026318455  0.026682457            6 
  488000    1.0836329   -7.1074989    154.01523  0.026300415  0.026662543            8 
  489000    1.0540491   -7.1216481    153.66424  0.026186817  0.026642543            3 
  490000    1.0436244   -7.1054508    154.47434  0.026271146  0.026622714            5 
  491000    1.0465926   -7.0973828    153.94217   0.02612732   0.02660239            3 
  492000    1.0647098   -7.0973526    154.67979  0.026199151   0.02658166            3 
  493000    1.0520964   -7.1243419    154.23921  0.026071537  0.026560679            2 
  494000    1.0460418   -7.1054556    154.43477  0.026051749  0.026539968            3 
  495000    1.0445069   -7.1059254    154.97946  0.026090818   0.02651906            2 
  496000    1.0390332   -7.1188398    154.37839   0.02593723  0.026497443            5 
  497000    1.0614304   -7.1660712    154.23086  0.025860306    0.0264755            2 
  498000    1.0474564   -7.1171816    155.17285  0.025966005  0.026453818            3 
  499000    1.0473221   -7.1349771    155.18481  0.025915967  0.026432162            4 
  500000    1.0399392   -7.1596266    155.45094   0.02590849   0.02641064            2 
  501000    1.0452496    -7.136079    155.20207  0.025815381  0.026389346            5 
  502000    1.0536299   -7.1395382    155.33508  0.025786035  0.026367762            3 
  503000    1.0394076   -7.0980662    156.32027   0.02589799  0.026345966            2 
  504000    1.0449041   -7.1389567    156.12027  0.025813536  0.026324295            2 
  505000    1.0602667   -7.1636834    155.92552  0.025730283  0.026302249            3 
  506000    1.0676975   -7.1194444    156.16567  0.025718983  0.026280229            4 
  507000    1.0336759   -7.1409218    156.78446  0.025769964  0.026258182            2 
  508000    1.0668252   -7.1562438    156.17214  0.025618789   0.02623611            3 
  509000    1.0572499   -7.1345244    156.85795  0.025680739  0.026214322            3 
  510000     1.047115   -7.2029538    156.95857  0.025646826  0.026192536            2 
  511000    1.0784156   -7.1582245    157.59853  0.025700999   0.02617081            5 
  512000    1.0469518   -7.1401129    157.15129   0.02557801  0.026149333            5 
  513000    1.0455353   -7.1592317    158.08879   0.02568044  0.026127496            7 
  514000    1.0392656   -7.1622285     157.8743  0.025595703  0.026105407            4 
  515000    1.0365417   -7.1523407    157.76169  0.025527782  0.026083633            3 
  516000    1.0549806    -7.148459    158.10539  0.025533817  0.026061575            2 
  517000     1.058751   -7.1776635    157.63009  0.025407815  0.026039611            4 
  518000     1.052297   -7.1529604    158.78745  0.025544956  0.026017384            6 
  519000    1.0363225    -7.153199    159.05871  0.025539292  0.025995095            2 
  520000    1.0501391   -7.1632992    158.83604  0.025454494  0.025973124            3 
  521000    1.0564328   -7.1632357     159.1934  0.025462796  0.025950733            7 
  522000     1.032212   -7.1811951    159.62995  0.025483708  0.025929451            3 
  523000    1.0293257   -7.1202075    160.26074   0.02553549  0.025908502            2 
  524000    1.0532221   -7.1495216    160.27128  0.025488436  0.025888051            2 
  525000    1.0544497   -7.1281383    160.70229  0.025508301  0.025868005            3 
  526000    1.0205542   -7.1557943    160.79273  0.025474133  0.025848003            6 
  527000    1.0452403    -7.124585    161.13909  0.025480565  0.025827861            3 
  528000    1.0554121   -7.1375265    161.46813  0.025484238  0.025807738            4 
  529000    1.0307643   -7.1607956    161.89685  0.025503599  0.025787627            5 
  530000    1.0262641   -7.1834231    161.64535  0.025415935  0.025767437            2 
  531000    1.0529117   -7.1924338    162.08627  0.025437268  0.025747905            4 
  532000    1.0416449   -7.1558392    162.58845  0.025468115  0.025728102            2 
  533000     1.054328   -7.1828679     162.1433  0.025350735  0.025708375            4 
  534000    1.0615837   -7.1951291    162.21283  0.025314112  0.025688452            6 
  535000    1.0367173    -7.204477    162.35796  0.025289402  0.025668687            3 
  536000    1.0325144   -7.1842121    162.58513  0.025277538   0.02564863            4 
  537000    1.0366227   -7.2146348    162.69824  0.025248019  0.025628642            5 
  538000    1.0328858   -7.1751627    163.20117  0.025278992  0.025608558            3 
  539000    1.0328664    -7.174405     163.5282  0.025282653  0.025588658            3 
  540000    1.0473679   -7.1692011    164.08514  0.025321782  0.025569038            4 
  541000    1.0511394   -7.1901872    163.85075  0.025238872  0.025549391            3 
  542000    1.0204623   -7.1723234    163.63619  0.025159315  0.025529041            5 
  543000    1.0519287   -7.1665909     164.3365  0.025220457  0.025508974            4 
  544000    1.0485307   -7.1778541    164.08321  0.025135296  0.025488651            8 
  545000    1.0412735   -7.1772141    164.19037  0.025105562  0.025468532            3 
  546000    1.0516737   -7.1562953     164.3652  0.025086263  0.025448303            4 
  547000    1.0445448   -7.2187931     164.0608  0.024994028  0.025427966            5 
  548000    1.0412457   -7.1428688    164.51013  0.025016748  0.025407103            4 
  549000    1.0375182   -7.2042673    164.32415  0.024942949  0.025386159            4 
  550000    1.0281007   -7.1839443    165.14091   0.02502135  0.025365491            4 
  551000    1.0404817   -7.2333826    164.90404  0.024940115  0.025344398            3 
  552000      1.03965   -7.1757517    165.51391  0.024987003  0.025323596            4 
  553000    1.0360053   -7.2256317    165.20055  0.024894598  0.025302985           10 
  554000    1.0531293   -7.2148206    166.11275  0.024986875  0.025282687            3 
  555000    1.0348312    -7.227905    166.16878  0.024950268  0.025262505            4 
  556000    1.0449466   -7.1504381    166.57222   0.02496586  0.025242447            1 
  557000    1.0318151   -7.2220021    166.28572  0.024878175   0.02522305            4 
  558000    1.0330497   -7.2497212    166.09184  0.024804636  0.025202649            4 
  559000    1.0266042   -7.2170035    166.73098  0.024855542  0.025182459            9 
  560000    1.0088198   -7.2276219    167.20387  0.024881529  0.025162321            2 
  561000      1.02267   -7.2354395    166.63471  0.024752631  0.025142125            4 
  562000    1.0352652   -7.2017454    167.25618  0.024800738  0.025122027            3 
  563000    1.0255591   -7.1961855    167.29948  0.024763096  0.025102042            5 
  564000    1.0520525   -7.1708202    167.79563  0.024792499  0.025082359            6 
  565000    1.0450209    -7.206152    167.84368  0.024755705  0.025062388            5 
  566000    1.0503621   -7.2121847    167.58821  0.024674354   0.02504202            3 
  567000    1.0207796   -7.2239345    167.75304  0.024655062  0.025021371            4 
  568000    1.0173295   -7.2499107    167.87891  0.024630122   0.02500096            3 
  569000    1.0355599   -7.2515054    168.30662  0.024649476  0.024980754            6 
  570000    1.0489772   -7.2132203    168.94014   0.02469885  0.024960554            3 
  571000    1.0381856   -7.1822613    169.58849  0.024750218  0.024940491            2 
  572000    1.0265555   -7.1950884    169.06381  0.024630508  0.024920934            5 
  573000    1.0235209   -7.2356341    168.95865   0.02457223  0.024901287            8 
  574000    1.0368111   -7.2402477    169.29849  0.024578759  0.024881259            3 
  575000    1.0160012   -7.2407074    169.75565  0.024602267  0.024861479            6 
  576000    1.0337182   -7.2010224    169.57688  0.024533692  0.024841922            3 
  577000    1.0173799   -7.2145025    170.15808  0.024575113  0.024821793            9 
  578000    1.0314414   -7.2050198    170.25513  0.024546587   0.02480173            3 
  579000    1.0263858    -7.172427    170.47929  0.024536455  0.024781717            3 
  580000    1.0170887   -7.2184433    170.44124  0.024488684  0.024761912            9 
  581000    1.0101226   -7.1933414    170.43508  0.024445651  0.024742082            9 
  582000    1.0089461   -7.1696223    171.56219  0.024565034  0.024722618            4 
  583000    1.0345085   -7.1808126    171.33403  0.024490284     0.024703            4 
  584000    1.0376763   -7.2081657    170.82589  0.024375841  0.024683541            2 
  585000    1.0043342   -7.2214926    171.33254  0.024406345  0.024663878            2 
  586000    1.0185373   -7.2408469    171.09275  0.024330595  0.024643727            2 
  587000    1.0305969   -7.2258064    171.70733  0.024376395  0.024623756            3 
  588000    1.0236585   -7.2518391    171.47049  0.024301374  0.024603662            3 
  589000    1.0336335   -7.2246926     172.2406  0.024369072  0.024583429            3 
  590000    1.0081829   -7.2322099    171.97257   0.02428991  0.024563107            4 
  591000    1.0043234   -7.2671636     171.6515  0.024203539  0.024543027            4 
  592000   0.99673878   -7.2252158    172.12343  0.024229087  0.024522668            2 
  593000     1.015175   -7.2402738    171.83789  0.024148101  0.024502614            2 
  594000   0.99731772   -7.2641613    172.40798  0.024187426  0.024482331           13 
  595000    1.0107073   -7.2492392    172.97303  0.024225914  0.024462022            3 
  596000    1.0026679   -7.2576702    172.76911  0.024156755  0.024441884            6 
  597000   0.99697543     -7.25603    172.88995  0.024133159  0.024421492            8 
  598000    1.0107065   -7.1872176    173.84129  0.024225375  0.024401345            5 
  599000    1.0194144   -7.2393283    173.60066  0.024151455  0.024381344            5 
  600000    1.0067281   -7.2344131    173.80639  0.024139776  0.024361355            3 
  601000    1.0083103   -7.2343184    173.17891  0.024012605  0.024341205            6 
  602000    1.0233519   -7.2215417    173.78577  0.024056724  0.024321441            5 
  603000    1.0069086   -7.2433849    173.87633  0.024029343  0.024301685            3 
  604000    1.0042593   -7.2527618    173.84975  0.023985892  0.024281464            3 
  605000    1.0025159   -7.2626627    173.93139  0.023957491  0.024261186            4 
  606000    1.0229985   -7.2616621    174.57081  0.024005887  0.024241076            3 
  607000    1.0135136   -7.2542871    174.23859  0.023920728  0.024220913            3 
  608000     1.009047   -7.2259016    174.72541   0.02394811  0.024201032            5 
  609000    1.0262406   -7.2984968    174.54895   0.02388464  0.024180981            5 
  610000    1.0262669   -7.2229592    175.03029  0.023911242  0.024161137            4 
  611000    1.0257439   -7.2751211    175.05593  0.023875605  0.024141561            7 
  612000      1.01843   -7.2269881    175.98978   0.02396375  0.024121929            5 
  613000    1.0109461   -7.2994208    175.28912  0.023829408  0.024102186            5 
  614000    1.0165998   -7.2748226    175.32332  0.023795238  0.024082039            3 
  615000    1.0248812   -7.2489959    175.83409  0.023825758  0.024062267            2 
  616000   0.98818896   -7.2937516    175.99725  0.023809152  0.024042216            6 
  617000     1.008809   -7.2570623    175.98993  0.023769574  0.024022256            2 
  618000     1.039502    -7.258902    176.59308  0.023812443  0.024002717            4 
  619000    1.0279958   -7.3000811    176.27031  0.023730521  0.023983361            6 
  620000    1.0267275    -7.285304    176.73127  0.023754203  0.023963859            3 
  621000   0.99953068    -7.260294    177.44335  0.023811507  0.023944628           10 
  622000    1.0122927   -7.2124737      177.817  0.023823285  0.023925632            2 
  623000    1.0248795    -7.249196    177.27893  0.023713072  0.023906263            3 
  624000   0.99950099    -7.249164    177.19305  0.023663602  0.023886685            3 
  625000     1.022118   -7.3072483    177.18029  0.023624039  0.023867125            4 
  626000    1.0362266   -7.2576369    177.35532    0.0236096  0.023847176            5 
  627000    1.0110979   -7.2971274    177.71888  0.023620266  0.023827201           14 
  628000   0.98588794   -7.2744107     177.8439  0.023599244  0.023807136            6 
  629000   0.99983454   -7.2761424    178.32557  0.023625539   0.02378732            5 
  630000     1.014266   -7.2837888    178.31077  0.023586081  0.023767764            6 
  631000    1.0035639   -7.3002639    178.14391  0.023526665   0.02374824            6 
  632000   0.98349942   -7.2842182    178.49007  0.023535083  0.023728466            7 
  633000    1.0129073    -7.295901    178.21082   0.02346114  0.023708377            5 
  634000   0.99573662   -7.2545776    178.44486  0.023454898  0.023688596            5 
  635000   0.98799782   -7.2562868     178.7244  0.023454646  0.023668772            5 
  636000   0.98047779   -7.2789413     178.5421  0.023393882  0.023648678            5 
  637000    1.0041166   -7.3303219    178.32532  0.023328796  0.023628515            5 
  638000   0.99060474   -7.3175162    179.08057  0.023390879  0.023608413           11 
  639000   0.98210095   -7.2518491    178.91291  0.023332409  0.023588472           10 
  640000   0.99543157   -7.2556036    179.69026  0.023397169  0.023568734            5 
  641000   0.98943791   -7.3411915    178.96148  0.023265923  0.023548861            5 
  642000   0.97548832   -7.2524655    179.58634  0.023310792  0.023528947            3 
  643000   0.99543246   -7.2631106    180.05674  0.023335503  0.023509091            6 
  644000   0.99223748   -7.2872644     179.7046    0.0232537  0.023489349            4 
  645000    1.0123053   -7.2855481    180.32967  0.023298407  0.023469553            5 
  646000   0.98607394   -7.3143679    179.76624  0.023189659  0.023449652            7 
  647000   0.99041203   -7.3070407    179.61486   0.02313432  0.023429338            3 
  648000   0.99401131   -7.3142716    180.02734  0.023151664  0.023409278            3 
  649000    1.0065327   -7.3038943    180.09499  0.023124677  0.023389042            5 
  650000   0.98675584   -7.2889827    180.73666  0.023171367  0.023369363            4 
  651000   0.98525364   -7.3249074     180.8115  0.023145354   0.02334964            3 
  652000    0.9610128    -7.322041    180.66608  0.023091268  0.023329599            4 
  653000   0.98294718   -7.3295053    180.74731  0.023066272  0.023309563            2 
  654000   0.99999867   -7.2703291    181.53669  0.023131586  0.023290008            6 
  655000   0.99356892   -7.3272496    181.01338  0.023029693  0.023270137            4 
  656000    0.9822738   -7.2921123    180.94392  0.022985762  0.023249946            7 
  657000   0.99247286   -7.3275815    181.19692  0.022982867  0.023229762            4 
  658000   0.97968945   -7.3185577    180.87875  0.022907643  0.023209493            3 
  659000    1.0015068   -7.3098015    181.71541  0.022978681  0.023189091            6 
  660000    1.0116785    -7.341941    181.38827   0.02290256  0.023168697            4 
  661000   0.97386145    -7.321393    180.63243  0.022772621  0.023147878            6 
  662000   0.97431515   -7.2985161    181.64689  0.022865923  0.023127062            8 
  663000   0.98907969   -7.3192293    181.76262   0.02284598  0.023106391            4 
  664000   0.99082134   -7.3068052    181.53085  0.022782486  0.023085424            3 
  665000    1.0063797   -7.2947029    181.75838  0.022776739  0.023064648           10 
  666000   0.99879106   -7.3414535    181.53806  0.022714972   0.02304361            5 
  667000    0.9967135   -7.3268798    181.78204    0.0227114  0.023022609            9 
  668000   0.98088089   -7.2890532    182.30958  0.022743211  0.023001635            2 
  669000   0.99172475   -7.3117989    181.45444  0.022602695  0.022980647            6 
  670000    1.0230111    -7.359712    182.09779  0.022648979   0.02295963            4 
  671000   0.98334419   -7.3043776    182.56347  0.022673059  0.022938692            6 
  672000   0.99768848   -7.3351474    182.21931   0.02259664  0.022917701            9 
  673000   0.97096145   -7.3515474    182.43056  0.022589223   0.02289688            9 
  674000    0.9847616   -7.3183081    182.67556  0.022585998   0.02287593            4 
  675000   0.97920908   -7.3182956    182.84262  0.022573163  0.022855063            6 
  676000    1.0236275   -7.3283208    183.15859  0.022578722  0.022834339            7 
  677000    0.9911326   -7.3875685      182.507  0.022465165  0.022813684            3 
  678000   0.98852996   -7.3299055    183.26933  0.022525729  0.022792858            4 
  679000   0.99512273   -7.3530533    183.41281  0.022510163   0.02277225            8 
  680000   0.98917408   -7.3338093    183.62207  0.022502705  0.022751706            4 
  681000   0.98181933   -7.3509462    183.31047  0.022431531  0.022731092            8 
  682000   0.96479511   -7.3499892     183.4584  0.022416716  0.022710625            2 
  683000   0.99344461   -7.2997818    183.72338  0.022416225  0.022690323            3 
  684000   0.98797927   -7.3114184    184.16866  0.022437703  0.022669853           10 
  685000   0.97216912   -7.3478576    184.13461  0.022400804  0.022649442            3 
  686000   0.95896434   -7.3537459    184.17894  0.022373535  0.022628918            6 
  687000    0.9919548   -7.3424605    184.15353  0.022337885  0.022608451            7 
  688000    1.0049255   -7.3608915    184.30232   0.02232344   0.02258778            3 
  689000   0.95136751   -7.3258323    184.83866  0.022355909  0.022567257            8 
  690000   0.97326074   -7.3774376    184.52209  0.022285276  0.022546948            4 
  691000   0.97316742   -7.3895428    184.81517   0.02228837  0.022526626            7 
  692000    1.0028526   -7.3510182    185.13045  0.022294129  0.022506327            9 
  693000   0.97745164   -7.3638373    184.27549   0.02215915  0.022485868            4 
  694000   0.97913535   -7.2858484    185.48087  0.022271959  0.022465467            3 
  695000   0.98532369   -7.3475156    185.02883  0.022185711  0.022445184            4 
  696000   0.98060836   -7.3122505    185.66233  0.022229685  0.022424505            4 
  697000   0.98117391   -7.3715041    185.77894  0.022211733  0.022404067            6 
  698000   0.96992547   -7.3528761    185.29921  0.022122637   0.02238352            4 
  699000   0.97377609   -7.4168203    185.18298  0.022077131  0.022362836            6 
  700000   0.97378269   -7.3627601      185.691  0.022106072  0.022342049            5 
  701000   0.94102651    -7.314004    185.98481  0.022109464  0.022321746            2 
  702000   0.97040697   -7.3831976    185.67184  0.022040817  0.022301492            4 
  703000   0.99099235   -7.3507235    186.01878   0.02205059  0.022281052            7 
  704000   0.98286971   -7.3490904    186.55604  0.022082865  0.022260628            4 
  705000   0.96802475   -7.3727665    186.32297  0.022023991  0.022240344            4 
  706000   0.99771979   -7.3311495    186.96151  0.022068167  0.022220131            8 
  707000   0.98840054    -7.372038    186.54091  0.021987377  0.022200024            4 
  708000   0.99029739   -7.3643326    186.95251  0.022004769  0.022180024            8 
  709000   0.98325536   -7.4096784    186.73563  0.021948241  0.022160016            4 
  710000   0.97724828    -7.413903    187.09584  0.021959606  0.022139754            3 
  711000   0.97748431   -7.3589119    187.41199  0.021965775  0.022119479            5 
  712000   0.96814849   -7.3642419    187.52024  0.021947594  0.022099287            7 
  713000   0.94996287   -7.3956486    186.67662  0.021818211  0.022078749            3 
  714000   0.95713994   -7.3789453    186.90493    0.0218143  0.022058197           12 
  715000     0.972763   -7.3785596    187.50685  0.021853945  0.022038067           11 
  716000   0.95026215   -7.3664861    186.84177  0.021746016  0.022017834            6 
  717000   0.97552659   -7.4104592    187.16094  0.021752783  0.021997156            7 
  718000   0.96649267   -7.3826778    187.22163   0.02172953  0.021976633            6 
  719000   0.96340285   -7.3599048    188.15793  0.021807827  0.021956369            4 
  720000   0.96590928    -7.385852    187.99578  0.021758771  0.021936148            5 
  721000   0.96072558   -7.4081731     187.7036  0.021694822  0.021915849           10 
  722000   0.96725372    -7.384909    188.15653  0.021717051  0.021895727            6 
  723000   0.97299324   -7.3974295    187.57779  0.021620307  0.021875638           12 
  724000    0.9802248   -7.3790907       188.67   0.02171616  0.021855541            8 
  725000    0.9602181   -7.3816142    188.20571   0.02163284   0.02183562           10 
  726000   0.96557254   -7.3767549     188.6622  0.021655441  0.021815593            4 
  727000   0.97812536   -7.3961001    188.47317  0.021603985  0.021795479            8 
  728000    0.9750358   -7.4728406    187.96608  0.021516263  0.021775318            5 
  729000   0.95437226   -7.4343981    188.59623  0.021558782  0.021755083            4 
  730000   0.97738034   -7.4439344    188.64375  0.021534674  0.021735234           10 
  731000   0.96981107   -7.3997175    188.47618  0.021486113   0.02171509            5 
  732000   0.96727461   -7.3934475    189.50979  0.021574429  0.021695351           12 
  733000    0.9798784   -7.3890664    189.49798  0.021543653  0.021675649            3 
  734000   0.96420367    -7.424459    189.10372  0.021469541  0.021655801            6 
  735000   0.95433103   -7.4286721    189.51402   0.02148685  0.021635832            3 
  736000    0.9814256   -7.4268217    189.58599  0.021465804  0.021616142            7 
  737000   0.95984101   -7.3712337    189.84212   0.02146564  0.021596257            2 
  738000   0.97994637   -7.4108936    190.19878  0.021476827  0.021576325            4 
  739000   0.96678576   -7.4396073    189.40488  0.021358241  0.021556541            4 
  740000   0.96425132   -7.4386756    189.75562  0.021368877  0.021536335            3 
  741000   0.96985413   -7.4308825    190.13838  0.021383084  0.021516437            7 
  742000   0.95905864   -7.4372918    189.85963   0.02132296  0.021496332            4 
  743000   0.97355388   -7.4111518    190.33189  0.021347228  0.021476378            4 
  744000    0.9668385   -7.4361209    190.44873  0.021331623  0.021456552            7 
  745000   0.95266505   -7.4330477    190.45057  0.021303196  0.021436654            3 
  746000   0.96018448   -7.4192622    190.76787  0.021310083  0.021416807           10 
  747000   0.96881194    -7.405921    190.57078   0.02125957  0.021397015            3 
  748000   0.94599789   -7.4379623    190.89118  0.021266843  0.021377334            4 
  749000    0.9593932    -7.376743    191.11444  0.021263289   0.02135776            5 
  750000   0.94457652   -7.4515261     190.7609  0.021195656  0.021338157            8 
  751000   0.95136567   -7.4622813    191.10704  0.021205841  0.021318371           11 
  752000   0.94286955   -7.4326293    191.55944  0.021227775  0.021298866            8 
  753000   0.93471223   -7.4280178    191.08918  0.021147541  0.021279518            3 
  754000   0.95731447   -7.4151867    192.12052   0.02123348  0.021260074            6 
  755000    0.9452257   -7.4980555    191.63099  0.021151324  0.021240582            3 
  756000    0.9387542   -7.4293419    191.84233  0.021146641  0.021220897            3 
  757000   0.94984702   -7.4154862    192.11028  0.021148203  0.021201519            4 
  758000   0.94878956   -7.4399603    191.73824  0.021079402  0.021182119           16 
  759000   0.96417633   -7.4132112    192.02459  0.021083069  0.021162679            5 
  760000   0.93721777   -7.4108654    193.00134  0.021162428  0.021143773            6 
  761000   0.95145077   -7.4205718    192.51859  0.021081755  0.021124803            4 
  762000   0.94169559   -7.4088408    192.80024  0.021084891  0.021105718           10 
  763000   0.93627725   -7.4491821    192.72337  0.021048861  0.021086569            7 
  764000   0.94908113   -7.4517502    192.72198  0.021021158  0.021067399            7 
  765000    0.9293223   -7.4155783    193.29038  0.021055597  0.021048685            3 
  766000   0.93791498   -7.4286758    193.44586  0.021045024  0.021030071            6 
  767000   0.93838562   -7.4297934     193.8712  0.021063798  0.021011461            6 
  768000   0.95091388   -7.4334356    193.97052  0.021047149  0.020992866            5 
  769000   0.94023237   -7.4053659    194.30788  0.021056338  0.020974531            6 
  770000   0.92237136   -7.4621038    194.68567  0.021069878   0.02095611            7 
  771000    0.9520746   -7.3876554     194.8356  0.021058755  0.020937823            4 
  772000   0.95838591   -7.4425184     194.2609  0.020969441  0.020919629            6 
  773000   0.96013478   -7.4343683    194.52826  0.020971137  0.020901223            5 
  774000   0.97636917   -7.4701979    194.42655  0.020933091  0.020882907           12 
  775000   0.95282707   -7.4427073    194.91248  0.020958331  0.020864698            5 
  776000   0.94396935   -7.4707786    194.71556  0.020910176  0.020846308            4 
  777000    0.9466215   -7.4751428    194.77978  0.020890152  0.020828044            4 
  778000   0.94598609   -7.4754952    194.60514  0.020844595  0.020809759            3 
  779000   0.93938809   -7.4775054      195.081  0.020868742  0.020791728            7 
  780000   0.97876912   -7.4833087    194.97887  0.020831076  0.020773517            6 
  781000   0.95353575   -7.4466145    195.59021  0.020869634  0.020755451            5 
  782000   0.91465327   -7.4597298    195.78938  0.020864171  0.020737246            8 
  783000   0.92372838   -7.4801114    195.05963  0.020759859  0.020718953            5 
  784000   0.93418793   -7.4609015    196.26448  0.020861445  0.020701009            7 
  785000    0.9491406   -7.4733698    195.71477  0.020776515  0.020683051            5 
  786000   0.92644422    -7.483392    195.37884  0.020714466  0.020665081            8 
  787000   0.92436278   -7.4579215    196.16089  0.020770954   0.02064714            9 
  788000   0.94672478    -7.464505    196.35624  0.020765253  0.020629218            2 
  789000   0.94149831    -7.478325    196.50645    0.0207548  0.020611408            6 
  790000   0.94870886   -7.4929987    196.18775   0.02069491  0.020593596            8 
  791000   0.95227447   -7.4579602    196.64051  0.020716446  0.020575822            4 
  792000   0.91988092   -7.4385434     196.2933  0.020653756  0.020557987            6 
  793000   0.92811001    -7.455601    196.59361   0.02065927  0.020540376            2 
  794000   0.94996744   -7.4220914    196.66381  0.020640618  0.020522683            5 
  795000   0.95340627   -7.4656423    196.94206  0.020643821  0.020504958            4 
  796000   0.92688234   -7.4472659    197.47005  0.020673163  0.020487313            7 
  797000   0.94394984   -7.4968078     196.3388  0.020528942  0.020469562            8 
  798000   0.94525287   -7.4602326    197.52287  0.020626867  0.020451666            4 
  799000   0.94378186   -7.4901585    197.48142  0.020596727  0.020433997            4 
  800000   0.93768921   -7.4855443      196.963   0.02051698  0.020416225            9 
  801000   0.94251053   -7.5105476    197.06813  0.020502302  0.020398461            6 
  802000   0.94726712   -7.5037229    197.45404  0.020516837  0.020380753            4 
  803000   0.93488154   -7.5427592    197.19963  0.020464885  0.020362923           12 
  804000   0.94774291   -7.5297882    197.56257  0.020477049  0.020345061           10 
  805000   0.94535742   -7.4871644    198.19612  0.020517196  0.020327427            8 
  806000   0.93179642   -7.4835066    197.74388  0.020444984  0.020309768            5 
  807000    0.9424024   -7.5182981    197.95058  0.020440993  0.020292248           13 
  808000   0.92864846   -7.4192193    198.82084   0.02050545  0.020274729            4 
  809000   0.95020127    -7.503782    198.02542  0.020398169  0.020257286            4 
  810000   0.92664037   -7.5456057    197.78512  0.020348264  0.020239485           15 
  811000   0.92784385   -7.5220995    198.58529  0.020405393   0.02022167            4 
  812000   0.91144661    -7.500301    198.33378  0.020354452  0.020204036            6 
  813000   0.92950067   -7.5199644    198.43493  0.020339783  0.020186559            6 
  814000   0.91799377   -7.5188229    199.19855  0.020392972  0.020169233            6 
  815000   0.94153587   -7.5040416     199.2177  0.020369908  0.020151881            6 
  816000   0.93219103   -7.5113039    199.39991  0.020363553  0.020134506            8 
  817000   0.91530442   -7.5261794    199.11078  0.020309137  0.020117187            4 
  818000   0.92873476   -7.4790348    199.85947  0.020360581   0.02010002            9 
  819000   0.94210528   -7.5056167    199.46289   0.02029537   0.02008299            7 
  820000   0.92233811   -7.5277288    199.66993   0.02029166  0.020065794            7 
  821000   0.94366478   -7.5095764     199.9869  0.020299117  0.020048631            6 
  822000   0.92353684   -7.4739015     199.8977  0.020265379  0.020031662            5 
  823000   0.92690652     -7.51749    199.77398  0.020228228   0.02001433            6 
  824000   0.91925481   -7.5156952    199.87064  0.020213455  0.019997261            5 
  825000   0.92273378   -7.4580511    200.93136  0.020296096  0.019980281            2 
  826000   0.92830944   -7.5101319    199.93189  0.020170691  0.019963394            7 
  827000   0.90906122   -7.5083335    200.25747  0.020179108  0.019946561            8 
  828000   0.91625926   -7.5091739    200.36847  0.020165909  0.019929338            4 
  829000   0.92629701   -7.4903812    200.15986  0.020120613  0.019912184            4 
  830000   0.93475738   -7.5147299     200.1113  0.020091496  0.019895135            7 
  831000   0.91638347   -7.5282836    200.73528  0.020129891  0.019877978            6 
  832000   0.95343455   -7.5235067    200.28606  0.020060703  0.019860618            3 
  833000   0.94628246   -7.5290017    200.31008  0.020039024  0.019843409            6 
  834000   0.91329246   -7.4929984    200.68585  0.020052543  0.019826268            4 
  835000   0.93311633    -7.557602    199.97561  0.019957645  0.019809153            8 
  836000   0.91726013   -7.5183347     200.8024  0.020016188  0.019791954            9 
  837000   0.92737027   -7.5634636    200.29894  0.019942148  0.019774767            3 
  838000   0.92005276   -7.5115314    200.99375  0.019987445  0.019757461            7 
  839000   0.90252593   -7.5631755    200.73472  0.019937894  0.019740278           10 
  840000   0.91376841   -7.5095397    201.37545  0.019977723  0.019723214            8 
  841000   0.91746197   -7.5305792     201.1381   0.01993045  0.019706222            6 
  842000   0.90560495   -7.5770907    200.95225  0.019888386  0.019689051            6 
  843000    0.9298084   -7.5292865    201.28213  0.019897403  0.019671851            4 
  844000     0.916855   -7.5371055     201.1743  0.019863181  0.019654782            6 
  845000   0.91242503   -7.5584542    201.18379   0.01984061  0.019637545            2 
  846000    0.9227982   -7.5401928     201.2548  0.019824153  0.019620548            3 
  847000   0.88777385   -7.5499976    201.48633  0.019823527  0.019603453            7 
  848000   0.91938283   -7.5256608     201.5684  0.019808215  0.019586393            6 
  849000   0.94933226   -7.5119713     201.5288  0.019780997  0.019569446            6 
  850000    0.9252642   -7.4932332    201.92005  0.019796083   0.01955242            4 
  851000   0.93338566   -7.5512792    201.99866  0.019780519  0.019535465           12 
  852000    0.9127665   -7.5620239    201.58604  0.019716944    0.0195183            5 
  853000   0.93764132   -7.5340641    202.75006  0.019807548   0.01950131            8 
  854000   0.87980652   -7.5682003    201.55981  0.019668209  0.019484198            5 
  855000   0.92919874   -7.5675703    201.38927  0.019628584  0.019467002            7 
  856000   0.88357532   -7.5759703    201.81227  0.019646833  0.019449632            5 
  857000   0.93481315   -7.5855469    202.07322  0.019649282   0.01943229            7 
  858000   0.92206841    -7.622964    201.53079  0.019573698  0.019414951           11 
  859000   0.93786781    -7.608945    202.00718  0.019597126  0.019397604           13 
  860000   0.90494729   -7.5674084    201.83906  0.019558049  0.019380383           13 
  861000   0.91156812   -7.5929963    202.37648  0.019587348  0.019363185           10 
  862000   0.90086298   -7.5713787    202.42078  0.019568908  0.019345986            6 
  863000   0.89604593   -7.5867973    202.69489  0.019572701  0.019328899            6 
  864000   0.91560033   -7.5691501    202.89498  0.019569346  0.019311903            4 
  865000   0.89329559   -7.6151731    202.22017  0.019481712  0.019294875            5 
  866000   0.90906162   -7.6068062       202.76  0.019511162  0.019277643            8 
  867000   0.89798094   -7.6224834     202.4609   0.01945991  0.019260441            7 
  868000   0.90899874   -7.5790595    203.12374  0.019501127   0.01924338           10 
  869000   0.90953453   -7.5660623    203.02899    0.0194696  0.019226402           12 
  870000    0.9163965   -7.5805952    203.03454  0.019447753  0.019209581           12 
  871000   0.90312407   -7.5850114     203.1426  0.019435764   0.01919263            4 
  872000   0.91549934   -7.5926092    203.46185  0.019443984  0.019175772            7 
  873000   0.90039086   -7.5552526     203.6463  0.019439319  0.019158997            5 
  874000   0.90757892   -7.5632668    204.07351   0.01945781  0.019142405            5 
  875000   0.89796415   -7.5929949    203.52755  0.019383576  0.019125717            5 
  876000    0.8900105   -7.5850926    203.10133  0.019320903  0.019108853            3 
  877000   0.90156823   -7.5886284    203.30645  0.019318362  0.019092167           16 
  878000   0.90463669   -7.6145844    203.95761  0.019358163  0.019075626            3 
  879000   0.89724094   -7.5777341    204.15629  0.019354977  0.019059075           18 
  880000   0.89959433   -7.5777354    204.12088  0.019329628  0.019042418            6 
  881000    0.8984779   -7.5467826    204.05979   0.01930191  0.019025756            8 
  882000   0.91523973   -7.5948369    203.91086  0.019265954  0.019009249            7 
  883000   0.90361942    -7.577115    204.28977  0.019279896  0.018992661            4 
  884000   0.91780138   -7.6008574    204.05162  0.019235635  0.018975811            4 
  885000   0.91369685    -7.587449    204.58038   0.01926369  0.018959187            3 
  886000   0.91139517    -7.608165    204.00701  0.019188018  0.018942555           21 
  887000   0.91510905   -7.6182174     204.5078  0.019213435  0.018925886           18 
  888000   0.90700743   -7.5885886    204.61663  0.019202011  0.018909142           10 
  889000   0.90379105   -7.5875415    204.09249   0.01913128  0.018892352           17 
  890000   0.86678145    -7.587734    204.83022   0.01917886  0.018875662            7 
  891000   0.90046988   -7.6509693     204.4978  0.019126244  0.018858916            5 
  892000   0.91640873   -7.6542452    203.98587  0.019056976  0.018842169            6 
  893000   0.88674405   -7.5964211    204.75939  0.019107819  0.018825495            7 
  894000   0.87493389   -7.6132813    205.25373  0.019132525  0.018808921           17 
  895000   0.87442051   -7.6298433    204.75103  0.019064342  0.018792331            4 
  896000   0.89226918   -7.6137297    204.33073  0.019003974  0.018775714            4 
  897000   0.89915425   -7.5754752    205.05548  0.019050119  0.018759104            2 
  898000     0.897872   -7.5808337    205.08774  0.019031899  0.018742648            8 
  899000    0.9022469    -7.608475    204.78244  0.018982429  0.018726105            3 
  900000   0.88025379   -7.6274834    204.87759  0.018970147  0.018709409            8 
  901000   0.86899822   -7.6639338    205.18438  0.018977467  0.018692639            9 
  902000   0.89034746   -7.6159213    204.52664  0.018895661  0.018675726           12 
  903000   0.89194545   -7.6116891    205.26572  0.018942942  0.018658985            4 
  904000   0.88822916   -7.6411354    205.65185  0.018957582  0.018642276           14 
  905000   0.88133252   -7.6438003    205.01534  0.018878024  0.018625581           10 
  906000   0.87225261   -7.6475222    205.39911  0.018892487  0.018608848           10 
  907000   0.92577713   -7.6315209    204.93188  0.018828728  0.018592072           17 
  908000   0.89810992   -7.6345573    205.14844  0.018827867  0.018575374            9 
  909000   0.88679695   -7.6109225    205.86096  0.018872475  0.018558914            9 
  910000   0.90792432   -7.5938531    206.54023   0.01891394  0.018542601            7 
  911000   0.89499675   -7.6397089    205.84284  0.018829385  0.018526256            7 
  912000    0.9054858   -7.5787737    206.38705  0.018858466  0.018509918           12 
  913000   0.89301728   -7.6255105    205.98766  0.018801357  0.018493627            6 
  914000   0.90097118   -7.6369285    205.76066  0.018760089  0.018477159           11 
  915000    0.8819815    -7.649598    206.02568  0.018763723  0.018460766           12 
  916000   0.87882767   -7.6237176    205.97198  0.018738353  0.018444419           13 
  917000   0.87510381   -7.6284921    206.43672  0.018760152  0.018428052           19 
  918000   0.89911328    -7.656018    205.31665   0.01863804  0.018411331            6 
  919000   0.87875524   -7.6672422    205.61899  0.018645175  0.018394417            6 
  920000   0.88046685   -7.6644722    205.13955  0.018581481  0.018377463           12 
  921000   0.87971765   -7.6615293    205.63723  0.018606336  0.018360604           15 
  922000   0.88599052   -7.6687215     205.3239  0.018557837  0.018343703            5 
  923000   0.88650737   -7.6627855    206.14251  0.018611638  0.018326828            5 
  924000   0.87403716   -7.6891321    205.61773  0.018544168  0.018310056           10 
  925000   0.87254278   -7.6475226    206.23557  0.018579781  0.018293352            7 
  926000    0.8832362    -7.685821     205.7879  0.018519429  0.018276797            7 
  927000    0.8841114   -7.6816711    206.23346  0.018539506  0.018260135           15 
  928000   0.87924433   -7.6448929    206.80888  0.018571199   0.01824356            9 
  929000   0.88203133   -7.6602933    206.53247  0.018526414  0.018227044           11 
  930000    0.8807303   -7.6469463     206.3243   0.01848784  0.018210648            6 
  931000   0.86961626   -7.6400835    206.97036  0.018525811  0.018194221            7 
  932000    0.9024748   -7.6434559    207.17415  0.018524155  0.018177767           11 
  933000   0.88793425   -7.7005543    206.22234  0.018419287  0.018161182           14 
  934000    0.8643205   -7.6278347     207.1281   0.01848038  0.018144652           15 
  935000   0.87933777    -7.654637    206.64412  0.018417479  0.018128151           18 
  936000   0.86214766   -7.6839188    206.35558  0.018372114  0.018111703            3 
  937000   0.88295504   -7.6778453    207.42065  0.018447229  0.018095169           11 
  938000   0.87237207   -7.6550514     206.1881  0.018318062  0.018078573            7 
  939000    0.8637133   -7.7040046    206.44693  0.018321524  0.018061982            4 
  940000   0.87660492   -7.6851221    206.80789  0.018334033  0.018045416           10 
  941000   0.87552434   -7.6684378    207.14426  0.018344337  0.018029013           14 
  942000   0.88813864   -7.6452241    207.39317  0.018346883  0.018012717            5 
  943000   0.86803879   -7.6805082    207.72901  0.018357106  0.017996462           13 
  944000    0.8674087   -7.6507637    207.20713   0.01829159  0.017980206           14 
  945000   0.85908438    -7.656536    207.35126  0.018284944  0.017964041           14 
  946000   0.86267769   -7.6485485    207.64624    0.0182916  0.017947856           13 
  947000   0.87974304   -7.6445189    207.42737  0.018253025  0.017931684            7 
  948000   0.86745562   -7.6252284    208.31291  0.018311613  0.017915614            7 
  949000   0.87963165   -7.6711442    208.09084  0.018272817  0.017899488            6 
  950000   0.87359066   -7.6601232     207.8444  0.018231965  0.017883364           13 
  951000   0.88423953   -7.6654068    207.56095  0.018187956  0.017867072           15 
  952000   0.86694104   -7.6589344    208.29621  0.018233212  0.017850966            4 
  953000   0.87251191   -7.6437907    208.48343  0.018230451  0.017835052            7 
  954000   0.89394133   -7.6823679    208.06946   0.01817518  0.017819128            4 
  955000   0.87203501   -7.6676195    207.91569   0.01814273  0.017803055            9 
  956000    0.8584852   -7.6624293    208.99117  0.018217501  0.017787189            6 
  957000   0.87313056    -7.648946    208.81225  0.018182885  0.017771511            9 
  958000   0.86362314   -7.6471391    209.12069  0.018190735  0.017755759            9 
  959000   0.88230063   -7.6617069    208.73092  0.018137897   0.01773985            5 
  960000   0.86013148   -7.6805326     208.6786  0.018114461  0.017723929           11 
  961000   0.85966253   -7.7159196     207.9107  0.018029023  0.017707912           10 
  962000   0.87596233   -7.7024832    208.49596  0.018060981  0.017691865            6 
  963000   0.87816523    -7.685833    208.96437   0.01808276  0.017675986           15 
  964000   0.87069351   -7.7128605     208.3266   0.01800887  0.017660081            4 
  965000   0.87143083   -7.7276332    208.77532  0.018028957  0.017644162           16 
  966000   0.84010073   -7.7268043    208.06601  0.017949103  0.017628253           10 
  967000   0.87075626   -7.7212319    208.72799   0.01798759  0.017612385            6 
  968000   0.88533625   -7.7217265    208.95715  0.017988736  0.017596481            5 
  969000   0.85337868   -7.6929449     208.6644  0.017944995  0.017580659           14 
  970000   0.86200092   -7.6504031    209.55761  0.018003231  0.017564881            9 
  971000   0.86459951   -7.7109298    208.97915  0.017935046  0.017549116            5 
  972000   0.87301121   -7.7297887    209.10294  0.017927207  0.017533214            7 
  973000   0.88154702   -7.7130932    208.96472  0.017896944  0.017517445            5 
  974000   0.87123611   -7.6969417    209.26095  0.017903915  0.017501673            6 
  975000    0.8618276   -7.7306677     209.1538  0.017876394  0.017485871            7 
  976000   0.85220047   -7.7601605    209.72235  0.017906621  0.017470088            8 
  977000   0.85523246   -7.6808264    209.25401  0.017848346  0.017454327            4 
  978000   0.87683468   -7.7000488    209.53988  0.017854454  0.017438565            5 
  979000   0.85612028   -7.7514247    209.72299  0.017851804  0.017422794            6 
  980000   0.85398088   -7.7371414    209.30436   0.01779799  0.017406907            8 
  981000   0.87010924   -7.7220782    209.40344  0.017788264  0.017391077           12 
  982000   0.85414556   -7.7496382    209.21302   0.01775399  0.017375243           15 
  983000    0.8699329   -7.7358825    209.28307  0.017741868  0.017359463           12 
  984000   0.84579301   -7.7168113    209.69361  0.017758606  0.017343763            4 
  985000   0.85771242   -7.7286277     209.6425  0.017736252  0.017327997           10 
  986000   0.84784093   -7.7202081    209.40335  0.017698052  0.017312329           10 
  987000   0.86983823   -7.7399926    209.92374  0.017724058  0.017296627           13 
  988000   0.86406957   -7.7134499    209.94939  0.017708282  0.017280898            8 
  989000   0.87330121   -7.7525757    209.55869  0.017657456  0.017265206           13 
  990000     0.842772   -7.7727477     209.9007  0.017668409  0.017249497           22 
  991000   0.84497464   -7.7766448    209.86321  0.017647427   0.01723379           18 
  992000    0.8676089   -7.7500494    209.65821  0.017612417  0.017218262           27 
  993000   0.86714908    -7.690365    210.50349  0.017665617  0.017202774           20 
  994000   0.86764018   -7.7220624    210.37189  0.017636812  0.017187272           16 
  995000   0.84849052   -7.7407048    210.77468  0.017652821  0.017171738           23 
  996000   0.86754426   -7.7613832    210.08038  0.017577006  0.017156113           18 
  997000   0.84851125   -7.7642295    210.35027  0.017581935   0.01714049           25 
  998000   0.85454933   -7.7767993    209.95795  0.017531559  0.017124739            7 
  999000   0.84761183   -7.7806507    210.33132  0.017545155  0.017109057           12 
 1000000   0.85635916    -7.750771    210.19419  0.017516182  0.017093396           11 
 1001000   0.84895286    -7.749908    210.25868  0.017504052  0.017077755           21 
 1002000   0.85499345   -7.7605127    210.76173  0.017528421  0.017062251            9 
 1003000   0.85264376   -7.7645832    210.14202  0.017459457  0.017046749            8 
 1004000     0.852938   -7.7933239    209.84479  0.017417396  0.017031311            8 
 1005000    0.8360705   -7.7441586    210.44778  0.017450065  0.017015813           10 
 1006000   0.84750143   -7.7915649    210.55123  0.017441288  0.017000399           14 
 1007000   0.84902913   -7.7356188    210.98478  0.017459846  0.016985022           14 
 1008000   0.85659668   -7.7640625    211.16674  0.017457568  0.016969797           22 
 1009000   0.83180141   -7.7385524    211.34519  0.017455004  0.016954549           12 
 1010000   0.87026532   -7.7618454     211.3412  0.017437393  0.016939187           19 
 1011000   0.84401543   -7.7726203    211.06571  0.017397437   0.01692389           20 
 1012000   0.83851886   -7.7641982    210.94082  0.017369962  0.016908578           14 
 1013000    0.8535382    -7.805044    210.78839  0.017340276  0.016893273           26 
 1014000   0.85435828   -7.8116789    210.91254  0.017333377    0.0168779           10 
 1015000   0.84850707   -7.7891606    210.77421  0.017304944  0.016862533           30 
 1016000   0.86406954     -7.80292    210.57317  0.017271421  0.016847186           29 
 1017000   0.85571586   -7.7793786     211.2222  0.017307621  0.016831716           28 
 1018000   0.83329317   -7.7659646    211.25504  0.017293307   0.01681629           23 
 1019000   0.83977546   -7.8163367    211.01205  0.017256464  0.016800924           14 
 1020000   0.84336648   -7.7771964    211.24513  0.017258589  0.016785653           10 
 1021000   0.86116135   -7.7781904    211.00539  0.017222118  0.016770468           13 
 1022000   0.86506004   -7.7782482    211.77614  0.017268113  0.016755254            9 
 1023000   0.84343792    -7.787745     211.8095  0.017253951  0.016740064           20 
 1024000    0.8535689   -7.7984173    211.16896  0.017184974   0.01672478            8 
 1025000   0.82031335   -7.8127667    211.20834   0.01717141  0.016709534            5 
 1026000   0.82799578   -7.7918258    211.35444   0.01716654  0.016694292            6 
 1027000   0.84557607   -7.7718601     211.3273  0.017147623  0.016679034           11 
 1028000    0.8324938   -7.8305582    211.31795  0.017130184  0.016663635           10 
 1029000    0.8439038   -7.8201197    211.11569  0.017097157  0.016648161           16 
 1030000   0.83542531   -7.8057611     211.1341  0.017082047  0.016632849           15 
 1031000   0.82916329   -7.8179401    211.68165  0.017109735  0.016617447           20 
 1032000   0.85072431   -7.8003505    211.38377  0.017069103  0.016602131           20 
 1033000   0.84664478   -7.8153582    211.65516  0.017074472  0.016586822           11 
 1034000   0.83063695   -7.7677502    211.47758  0.017043648  0.016571476           10 
 1035000   0.84484543   -7.8076102    211.39801  0.017020773  0.016556167           11 
 1036000   0.84968877   -7.8493931    210.70577  0.016948662   0.01654077            7 
 1037000   0.86012958   -7.7945182    211.55344  0.017000437  0.016525479           16 
 1038000   0.85201948   -7.8281562    211.30123  0.016963811  0.016510185            6 
 1039000   0.82803652    -7.774521    211.88495  0.016994301  0.016494964           11 
 1040000   0.85789549   -7.8188299    211.24824  0.016926942  0.016479642            9 
 1041000   0.85433908   -7.8078711    211.41779  0.016924255  0.016464198            7 
 1042000   0.83684184    -7.792267     211.0827  0.016881214  0.016448847           10 
 1043000   0.82978286    -7.803366    211.31872  0.016883886  0.016433469            8 
 1044000   0.81942857   -7.7983251     211.7274  0.016900335  0.016418078            7 
 1045000    0.8421968   -7.8130912    211.80997  0.016890747  0.016402794           12 
 1046000    0.8359303   -7.8390437    211.46352  0.016846998  0.016387503           13 
 1047000   0.84926069   -7.8140633     212.2328  0.016892137   0.01637219           25 
 1048000   0.86221441   -7.8126092    211.53861  0.016820818  0.016356992            9 
 1049000   0.85050601   -7.8050042    212.17421  0.016855276  0.016341849            7 
 1050000   0.82722699   -7.8335466    212.00529  0.016825817  0.016326678            8 
 1051000   0.82558306   -7.8010921    211.95952  0.016806178  0.016311557            7 
 1052000   0.83092038   -7.7984049    211.90691  0.016786035  0.016296465           18 
 1053000   0.83772026   -7.8170675    211.74567  0.016757334  0.016281459           15 
 1054000   0.81717283   -7.7845285    212.31579  0.016786511   0.01626643            8 
 1055000   0.82967823   -7.8207666    211.84654  0.016733534  0.016251403           18 
 1056000   0.82981015   -7.8055962    212.35114  0.016757508  0.016236364            8 
 1057000   0.84110392   -7.8274748    211.78916  0.016697348  0.016221363            8 
 1058000   0.83742982   -7.8282945    212.06598   0.01670337  0.016206386            7 
 1059000     0.822874   -7.8201601    212.28733  0.016705015  0.016191325           16 
 1060000   0.82405091   -7.8264991    212.65924  0.016718494  0.016176301            9 
 1061000   0.81646364   -7.7993187    212.59537   0.01669772  0.016161332            6 
 1062000   0.81547801   -7.8476241    212.15355  0.016647328  0.016146314           18 
 1063000   0.81372832   -7.8364849    212.45363  0.016655192  0.016131378            6 
 1064000   0.83393785   -7.8548164    212.01666  0.016605315  0.016116392            9 
 1065000   0.81661069   -7.8213269    212.09839  0.016596118   0.01610139           11 
 1066000   0.82304411    -7.836925    212.24527  0.016592032  0.016086371           16 
 1067000   0.83553455   -7.8037077    212.98717  0.016634424  0.016071476           10 
 1068000   0.79804463   -7.8227144    212.77535  0.016602321  0.016056574            5 
 1069000   0.83488785   -7.8330709    212.36723  0.016554976  0.016041695           10 
 1070000   0.83207521   -7.8100611    213.14667  0.016600208  0.016026872           20 
 1071000   0.80966117   -7.8137648    212.57657  0.016540349  0.016012096            9 
 1072000    0.8239389   -7.8376822    213.28641  0.016580101  0.015997213           25 
 1073000   0.81443866   -7.8493388    212.88237  0.016533269    0.0159824           14 
 1074000   0.81360129   -7.8348837    212.56837  0.016493511   0.01596757            8 
 1075000   0.83681673   -7.8250427    212.53009    0.0164752  0.015952753           16 
 1076000     0.793488   -7.8661808    212.41551  0.016451015  0.015937889           34 
 1077000   0.82112857   -7.8507914    213.11955  0.016490216  0.015923017           15 
 1078000   0.81902975   -7.8645637    212.90019  0.016457961  0.015908216           21 
 1079000   0.82357234   -7.8614648     212.4693   0.01640943  0.015893398           17 
 1080000    0.8097982   -7.8624141    212.77486  0.016417813   0.01587853           17 
 1081000   0.82705801   -7.8454775    212.56704  0.016386605  0.015863673           17 
 1082000   0.83486193   -7.8618736    213.10275  0.016412719  0.015848812           46 
 1083000    0.8132624   -7.8505158    213.21551  0.016406241  0.015833993           13 
 1084000   0.82959137   -7.8472498    212.31961  0.016322233  0.015819217           27 
 1085000   0.80366417   -7.8756889    212.50884  0.016321723  0.015804476           33 
 1086000    0.8287118   -7.8883049    212.45168  0.016302308  0.015789677           43 
 1087000   0.80204685   -7.8716024    213.10371  0.016337297  0.015774928           29 
 1088000   0.83690428   -7.8614603     212.7911  0.016298338  0.015760169           61 
 1089000   0.80415598   -7.8757923    213.07969  0.016305455  0.015745434           20 
 1090000   0.79767709   -7.8643526    212.92846  0.016278934  0.015730734            8 
 1091000   0.81023925   -7.8312185    213.28746  0.016291434  0.015716063           13 
 1092000   0.82227885   -7.8489163    213.50375  0.016293021  0.015701337           21 
 1093000   0.83492668   -7.8710821    212.91596    0.0162333  0.015686664           15 
 1094000   0.79863449   -7.8687035    213.09951  0.016232443  0.015671975            9 
 1095000   0.80383417   -7.8909501    212.81443  0.016195923  0.015657278            6 
 1096000   0.80166444   -7.8715233    213.84472  0.016259483  0.015642631            7 
 1097000   0.82577324    -7.881761    213.21622  0.016196917  0.015627959           18 
 1098000   0.82212885   -7.8829033     213.1835  0.016179682  0.015613312           20 
 1099000   0.80223594   -7.8707438    213.36492  0.016178717   0.01559872           21 
 1100000   0.81693288   -7.8706348    212.83703  0.016124017  0.015584111           13 
 1101000   0.79187804   -7.8917142    212.88219  0.016112791  0.015569444           16 
 1102000   0.81287239   -7.8677955     213.4081  0.016137939  0.015554807           10 
 1103000   0.80877494   -7.8847926    212.88239   0.01608359  0.015540197           14 
 1104000   0.82698266    -7.916015    212.56886  0.016045354  0.015525502            8 
 1105000    0.8239357   -7.9123255    212.97994  0.016061836  0.015510912           29 
 1106000    0.8210492    -7.894852    213.23135  0.016066256  0.015496299           11 
 1107000   0.80646619    -7.919145    213.22122   0.01605098  0.015481592           24 
 1108000   0.81694414   -7.8816017    212.84681  0.016008334  0.015466973            8 
 1109000   0.80619021   -7.9061201    212.80463   0.01599073  0.015452349           10 
 1110000   0.80915551   -7.9076361    212.79841  0.015975856  0.015437764           13 
 1111000   0.80090478   -7.8912502    212.69287   0.01595356  0.015423112            8 
 1112000   0.81132189   -7.9239642    212.68501  0.015938625  0.015408511            7 
 1113000   0.81124323   -7.9243398    212.64493  0.015921304  0.015393863           17 
 1114000   0.80375623   -7.9244921    213.07162  0.015938931  0.015379234           20 
 1115000    0.7949936   -7.9051538    213.45191  0.015953057  0.015364688           10 
 1116000   0.82822169   -7.9008848      213.318  0.015928764  0.015350205           10 
 1117000   0.82481139   -7.8970253    213.29136  0.015912515  0.015335732            4 
 1118000   0.80522423   -7.9227531    213.50961   0.01591455  0.015321283           10 
 1119000    0.7988662   -7.9496636     213.0068  0.015862883  0.015306832           12 
 1120000    0.8157626   -7.9183908    213.10943  0.015856357  0.015292385            9 
 1121000   0.82826049   -7.9189553    213.13469   0.01584409  0.015277879           14 
 1122000   0.81149561   -7.9218426     213.2598   0.01583926  0.015263351           25 
 1123000   0.81040912   -7.9338405    213.25664  0.015824922  0.015248866           29 
 1124000   0.81940513   -7.9396333    213.15597  0.015803378  0.015234337            6 
 1125000   0.81498566   -7.9436982    212.79851  0.015762852  0.015219792           21 
 1126000   0.79664679   -7.9245524    212.96991  0.015761539   0.01520534           11 
 1127000   0.80029951   -7.9524756    213.00981  0.015750504  0.015190842           12 
 1128000   0.81043672   -7.9805824    212.98237  0.015734513  0.015176304           12 
 1129000   0.80376008   -7.9333917    213.24288  0.015739805  0.015161765           41 
 1130000   0.79182892    -7.943442    213.61667  0.015753442  0.015147308           37 
 1131000   0.79126548   -7.9429871    213.10676  0.015701942  0.015132918           36 
 1132000   0.79621326     -7.90653    213.76859  0.015736793  0.015118412           28 
 1133000   0.80826278   -7.9351899    213.08649  0.015672734  0.015103955           48 
 1134000   0.79757916   -7.9470363     213.2674  0.015672207  0.015089503           27 
 1135000   0.79630912   -7.9503383    212.96195  0.015635972  0.015075048           41 
 1136000   0.80595013   -7.9359139    213.26099  0.015644145  0.015060559           48 
 1137000    0.7910332   -7.9622928    212.65249  0.015585788  0.015046029           38 
 1138000   0.80810582   -7.9655279    213.30153   0.01561962  0.015031552           38 
 1139000   0.80713831   -7.9765307    212.73209  0.015564244  0.015017036           40 
 1140000   0.80903199    -7.954474    212.95615   0.01556697  0.015002464           56 
 1141000   0.80953313   -7.9576709    213.05541  0.015560576  0.014987939           51 
 1142000   0.80026934   -7.9708579    213.03353  0.015545354  0.014973415           32 
 1143000   0.79268248   -7.9872874    213.18527  0.015542817  0.014958925           31 
 1144000   0.80615046   -7.9445743    212.72011  0.015495346  0.014944406           32 
 1145000   0.80917433   -7.9650197    213.14458  0.015512706  0.014929945           26 
 1146000   0.79825635   -7.9825086    213.30851   0.01551109  0.014915463           29 
 1147000   0.78725937   -7.9938433    212.78512  0.015459541  0.014900964           29 
 1148000   0.79433401   -7.9826694    213.07799  0.015467334  0.014886453           62 
 1149000    0.8076141   -7.9976923    212.99747  0.015448032  0.014871958           59 
 1150000   0.80839172   -7.9541366    213.11538  0.015443143  0.014857533           32 
 1151000    0.7833776   -7.9755131    213.01505  0.015422462  0.014843093           58 
 1152000   0.79231802    -7.971086    213.18757  0.015421555  0.014828665           92 
 1153000    0.7727529   -7.9732377    213.07018  0.015399695  0.014814225           55 
 1154000   0.82507483   -7.9474824     212.7948  0.015366465  0.014799804           83 
 1155000    0.8089343   -7.9883641    213.57181  0.015409222  0.014785363           68 
 1156000   0.82009975   -8.0017333    212.35685  0.015308308  0.014770959          133 
 1157000   0.78945364   -7.9833085    212.74549  0.015323069   0.01475658           67 
 1158000   0.79669748   -8.0023317    212.95659  0.015325028  0.014742222           61 
 1159000   0.79179956   -8.0080196    213.15539    0.0153261  0.014727895           50 
 1160000   0.80360941   -7.9973455    212.51418  0.015266823  0.014713528           84 
 1161000   0.79385232    -7.992556    213.01805   0.01528984  0.014699207           26 
 1162000    0.7846107   -8.0019103    212.89943  0.015268175  0.014684906           66 
 1163000   0.78039171    -7.989314     213.2919  0.015283169  0.014670637           79 
 1164000    0.8117098   -7.9990843    212.85523  0.015238777  0.014656343           67 
 1165000     0.775676   -7.9797711    213.31357  0.015258482  0.014642089           38 
 1166000   0.78675528   -7.9891586    213.11375  0.015231114  0.014627829          110 
 1167000   0.78643716   -7.9989767    212.45845  0.015171269  0.014613575           73 
 1168000   0.78152351    -8.018628     213.1402  0.015206921  0.014599314           96 
 1169000   0.76172747   -8.0187846    213.26681  0.015202938  0.014584985           81 
 1170000   0.79911589   -8.0135982    213.04229  0.015173952  0.014570781           98 
 1171000   0.80762226    -8.029665    212.91866  0.015152196  0.014556543           72 
 1172000   0.79221035   -8.0104127    213.26613  0.015163974   0.01454234           59 
 1173000   0.81075248   -8.0063093    213.09965  0.015139219  0.014528137           70 
 1174000   0.77257229   -8.0325842    212.65694    0.0150949    0.0145139           98 
 1175000   0.78721616   -8.0386053    212.60188  0.015078148   0.01449965           61 
 1176000   0.78819411   -8.0053918    213.47398  0.015127124  0.014485431           86 
 1177000   0.78832864   -8.0175228    213.04753  0.015084079  0.014471156          101 
 1178000   0.79105134   -8.0022647    213.28608  0.015088149  0.014456954           68 
 1179000   0.77190177   -8.0124783     213.2496  0.015072774  0.014442824          109 
 1180000   0.77564849    -8.006327    213.74235  0.015094798  0.014428734           95 
 1181000   0.78096652    -7.989435    213.01661  0.015030808  0.014414623           58 
 1182000   0.77395097   -8.0260051    212.97368  0.015015065  0.014400488           54 
 1183000   0.77152671   -8.0275161    213.05271  0.015007939  0.014386335           86 
 1184000     0.785039   -8.0493526       212.56  0.014960586  0.014372201          157 
 1185000   0.78021685   -8.0316936    212.48841  0.014942926  0.014358058          105 
 1186000   0.78834355   -8.0504083    212.84328  0.014955261  0.014343897           80 
 1187000   0.77210882   -8.0399171    212.51982  0.014919954  0.014329747           91 
 1188000   0.77624023   -8.0156492    213.34262  0.014965111  0.014315681           89 
 1189000   0.79600314   -8.0342983     213.6026  0.014970745  0.014301643           94 
 1190000   0.77015012   -8.0328894    213.22991  0.014932066  0.014287611          113 
 1191000   0.76623292    -8.037894    213.19346  0.014916979  0.014273585           97 
 1192000   0.77821472    -8.026591    213.00772  0.014891479   0.01425954          115 
 1193000   0.77041738   -8.0627754    213.32681  0.014901286  0.014245531          118 
 1194000   0.77672633   -8.0460677    213.32375  0.014888592  0.014231524           95 
 1195000   0.79449934   -8.0689714    212.97002  0.014851466  0.014217567           91 
 1196000   0.77580181   -8.0172143    213.42625  0.014870837  0.014203626           95 
 1197000   0.78463653   -8.0375474    212.83332  0.014817134  0.014189683          107 
 1198000   0.77516279   -8.0351798    212.92625  0.014811231   0.01417573          119 
 1199000   0.76891984   -8.0177468    213.10273  0.014811143  0.014161757          153 
 1200000   0.76998812   -7.9955878    213.90878  0.014854776  0.014147852          129 
 1201000   0.76870098   -8.0271725    212.82573  0.014767258  0.014133975          153 
 1202000   0.76882564   -8.0353533    213.25898  0.014785009  0.014120113          159 
 1203000   0.78302319   -8.0584025    213.43177  0.014784689  0.014106195          111 
 1204000   0.76644994   -8.0486128    213.00662  0.014742983    0.0140923          142 
 1205000   0.78735478    -8.050697    213.07642  0.014735576  0.014078446          105 
 1206000    0.7672361   -8.0620255    213.55374  0.014756339  0.014064626          116 
 1207000   0.78357592    -8.034889    213.84594  0.014764287  0.014050902          122 
 1208000   0.78379557   -8.0680028     213.2695    0.0147123  0.014037131          153 
 1209000   0.76959914   -8.0612282    213.32757  0.014704133  0.014023357          144 
 1210000    0.7647926   -8.0441286    213.40351  0.014697211  0.014009586          153 
 1211000   0.78498756   -8.0400667    214.29785  0.014746618  0.013995828          161 
 1212000   0.77467817   -8.0509478    213.41681  0.014673873  0.013982142          136 
 1213000   0.76776793   -8.0411635    213.38529  0.014659611  0.013968477          147 
 1214000   0.77312076   -8.0497843    213.32309  0.014643266  0.013954773          145 
 1215000   0.75126615    -8.022103    213.51353  0.014644275  0.013941102          112 
 1216000    0.7700416   -8.0230644    213.82197   0.01465337  0.013927493          120 
 1217000   0.75516321   -8.0543879    213.63131  0.014628274  0.013913931          126 
 1218000   0.77786216   -8.0656439    214.11057  0.014649054  0.013900348          123 
 1219000   0.76727005   -8.0476221    213.89744  0.014622466  0.013886781          126 
 1220000   0.78679587   -8.0769427    213.37538  0.014574821   0.01387323          193 
 1221000   0.75834988   -8.0390723    213.93793  0.014601279   0.01385965          156 
 1222000   0.77102965    -8.050309    213.75728   0.01457701  0.013846065          138 
 1223000   0.77360026   -8.0485775    213.09858  0.014520209  0.013832512          152 
 1224000   0.74321593   -8.0639047    213.56087   0.01453982  0.013818937          138 
 1225000   0.77255816   -8.0545126    213.55267  0.014527393  0.013805357          146 
 1226000   0.75440861   -8.0452016     213.4825  0.014510773  0.013791796          130 
 1227000   0.77134249   -8.0582949    213.67732  0.014512179  0.013778295          132 
 1228000   0.75969727   -8.0883679    213.42827   0.01448346  0.013764792          147 
 1229000   0.76140189   -8.0781595    213.37153  0.014467828  0.013751279          159 
 1230000   0.76821757   -8.0742116    214.02587  0.014500398  0.013737752          111 
 1231000   0.78283962   -8.0441317    214.14864  0.014496929  0.013724254           99 
 1232000   0.75812657   -8.0505386    213.61008  0.014448734   0.01371085          125 
 1233000   0.76408199   -8.0646375    213.58796  0.014435521  0.013697335          125 
 1234000   0.74610747   -8.0830578    213.49948  0.014417847  0.013683863          101 
 1235000   0.75978546   -8.0862267    213.59974  0.014412938  0.013670387          153 
 1236000    0.7688979   -8.0633492    213.05829  0.014364771  0.013656913          137 
 1237000   0.77647654   -8.1008689    213.75133  0.014399847  0.013643441          183 
 1238000   0.76673523   -8.0592527    213.17209  0.014349225  0.013629989          103 
 1239000   0.77247345   -8.1046993    213.23652  0.014341978  0.013616534          138 
 1240000    0.7532241   -8.1060551    213.05945  0.014318512  0.013603064          114 
 1241000   0.75350009   -8.1062915    213.30367  0.014323373   0.01358963          170 
 1242000   0.74332394   -8.1035036    212.73363  0.014273593  0.013576186          174 
 1243000   0.74631478    -8.056977    213.47015  0.014311487  0.013562782          181 
 1244000   0.74361952   -8.1245408    213.59522  0.014308361  0.013549417          143 
 1245000   0.77873677   -8.1214546    213.36292   0.01428132  0.013536015          164 
 1246000   0.75760243   -8.1044657    213.22091  0.014260361  0.013522625           98 
 1247000   0.74130591   -8.1163142    213.14043  0.014243546  0.013509202          131 
 1248000   0.76146372   -8.1165553    213.12185  0.014230893  0.013495766          139 
 1249000   0.75983215   -8.1245622    213.02032  0.014212725  0.013482328          156 
 1250000   0.74241707   -8.1021296    213.13024  0.014208683  0.013468918           69 
 1251000   0.74360017   -8.0914484    213.17885  0.014200563  0.013455569           75 
 1252000   0.76904562   -8.1120446    212.66724  0.014155168  0.013442158          106 
 1253000   0.75821159   -8.0951486    213.02073   0.01416738  0.013428791           85 
 1254000   0.77028065   -8.1197659    213.08638  0.014160445  0.013415388           85 
 1255000   0.75200413   -8.1239361    213.02776  0.014145269   0.01340205          112 
 1256000   0.75519637   -8.1179196    212.85783  0.014122733  0.013388693          177 
 1257000   0.74968684   -8.1076324    213.20358  0.014134419  0.013375378          111 
 1258000    0.7730047   -8.1067883    212.69099  0.014089229  0.013362044          110 
 1259000   0.77722271   -8.0960612    213.22842   0.01411361  0.013348723          100 
 1260000   0.75096164   -8.1250145    212.84798  0.014077247  0.013335426           94 
 1261000    0.7484922   -8.1198384     213.1759  0.014087754  0.013322137           87 
 1262000   0.74223704   -8.1174621    212.70799  0.014045694  0.013308802           67 
 1263000   0.74332202   -8.1138269    212.35989  0.014011605  0.013295474           97 
 1264000   0.75680557   -8.1387299    212.62371  0.014017913  0.013282127           62 
 1265000   0.75695831   -8.1349424    213.02387  0.014033193  0.013268799          182 
 1266000   0.75165423   -8.1157844    212.80664  0.014007809  0.013255518          138 
 1267000   0.73704883   -8.1178861     213.2697   0.01402721  0.013242245          180 
 1268000   0.75274203   -8.1413646    212.88055  0.013990572  0.013228994           77 
 1269000   0.75828344   -8.1284643    213.43526  0.014015975  0.013215783          101 
 1270000   0.74596618   -8.1478476    212.53601  0.013945933  0.013202542           94 
 1271000   0.75785735   -8.1447452    212.49809  0.013932474  0.013189325           90 
 1272000   0.74158104   -8.1297608    212.64048  0.013930849  0.013176112          118 
 1273000   0.75557283   -8.1347499    212.59411  0.013916871  0.013162889          105 
 1274000   0.73413334   -8.1234748    212.98472  0.013931497  0.013149727          142 
 1275000   0.75770591   -8.1040418    212.84045   0.01391114  0.013136551          121 
 1276000   0.76187215   -8.1306252    213.08584  0.013916264   0.01312339          112 
 1277000   0.74592371   -8.1241295    212.98802  0.013898984  0.013110239          161 
 1278000   0.74570324   -8.0987998    213.35794  0.013912228  0.013097109          100 
 1279000   0.73403828   -8.1306072    212.81443  0.013865939  0.013084001          120 
 1280000   0.72336982   -8.1247285    213.04054  0.013869827  0.013070865          108 
 1281000    0.7406662   -8.1253982    212.89557  0.013849568  0.013057747          113 
 1282000   0.71910906   -8.1613388    212.51891  0.013814282  0.013044703          118 
 1283000   0.74659708   -8.1363164    213.18885  0.013847029  0.013031636          110 
 1284000   0.73480041   -8.1403581     212.9745  0.013822333  0.013018583          128 
 1285000   0.75189913   -8.1477702    212.52123  0.013782181  0.013005558          114 
 1286000   0.75277843   -8.1351082    212.96118  0.013799973  0.012992534          113 
 1287000    0.7265642   -8.1566687    212.64473   0.01376876  0.012979547          142 
 1288000   0.75024643   -8.1317335    213.20706  0.013794453  0.012966614          134 
 1289000    0.7488457   -8.1268453     213.0052  0.013770701  0.012953678          111 
 1290000    0.7440678   -8.1200822    213.45572  0.013789129  0.012940758          114 
 1291000   0.74032319   -8.1411846    213.47604   0.01377976  0.012927846          119 
 1292000   0.74809729   -8.1322664    212.44106  0.013702339  0.012914964          139 
 1293000   0.74674236   -8.1659833    212.98581   0.01372685  0.012902025          123 
 1294000   0.74515556   -8.1641953    213.00889  0.013717729  0.012889058          142 
 1295000   0.73196966   -8.1461748    212.73328    0.0136894  0.012876137          148 
 1296000   0.72689788   -8.1608762     212.8295  0.013685025  0.012863226          126 
 1297000   0.72949856   -8.1394746     213.0785  0.013690472  0.012850308          158 
 1298000    0.7363305   -8.1395798    212.62333  0.013650701   0.01283741          151 
 1299000   0.72523515   -8.1747676    212.79917  0.013651474   0.01282455          272 
 1300000   0.74604799   -8.2006772    212.68625  0.013633734  0.012811669          120 
 1301000   0.73017262   -8.1423529    212.92565  0.013638589  0.012798786          141 
 1302000   0.73212531    -8.159667    213.07728  0.013637819  0.012785935          124 
 1303000   0.71890395   -8.1781585    213.12079  0.013630135  0.012773098          143 
 1304000   0.72284885   -8.1739057    212.53264  0.013582096  0.012760278          130 
 1305000   0.72646725   -8.1685613     213.0078   0.01360203  0.012747487          145 
 1306000   0.73346125   -8.1759743    212.72526  0.013573587  0.012734689          295 
 1307000    0.7439852   -8.1871253    212.55372  0.013552265  0.012721924          267 
 1308000   0.71450878   -8.1658506    212.91602  0.013564986   0.01270912          227 
 1309000   0.74764339   -8.1754882    212.91758  0.013554723  0.012696348          139 
 1310000   0.73253461   -8.2192341    212.05796  0.013489692  0.012683562          149 
 1311000   0.72970756   -8.1961536    212.93057  0.013534869  0.012670762          183 
 1312000   0.74419826   -8.1853161    212.81149   0.01351699  0.012657978          124 
 1313000   0.72957846   -8.1858962    212.50646  0.013487336  0.012645233          150 
 1314000   0.72078069   -8.1846933     212.5493  0.013479788  0.012632472          314 
 1315000   0.72177026   -8.1988536    213.19066  0.013510181  0.012619757          176 
 1316000   0.72979485   -8.1799768    212.54813  0.013459228  0.012607021          152 
 1317000   0.73096579     -8.18852    212.71265  0.013459418  0.012594295          430 
 1318000   0.72964738   -8.1742379    212.78206  0.013453595  0.012581583          162 
 1319000   0.73465991   -8.2116071    212.24475  0.013409448   0.01256888          331 
 1320000   0.72857256   -8.2168388    212.27608  0.013401268  0.012556169          165 
 1321000   0.70910363     -8.19521     212.0573  0.013377321  0.012543439          188 
 1322000   0.73532587   -8.2195159    212.21469  0.013377124  0.012530755          435 
 1323000   0.73064446   -8.1982889    213.18717  0.013428267  0.012518101          151 
 1324000   0.72661266   -8.2390273    212.20102  0.013356056  0.012505431          401 
 1325000    0.7191014   -8.2122053    211.94308  0.013329754  0.012492754          285 
 1326000   0.71827353   -8.2370719     212.1482  0.013332592  0.012480093          305 
 1327000   0.72334343   -8.2209234    212.11698  0.013320584  0.012467428          272 
 1328000   0.71335397   -8.2386393    212.07885  0.013308161  0.012454798          263 
 1329000   0.72518884   -8.2336694    212.26283  0.013309683  0.012442146          366 
 1330000   0.71998153   -8.2487067    211.65422  0.013261543  0.012429496          368 
 1331000   0.71567148   -8.2093134    212.33164  0.013293992  0.012416867          341 
 1332000   0.73051521   -8.2568166    212.20674  0.013276197  0.012404273          473 
 1333000   0.73076996   -8.2413882    212.29934  0.013272027  0.012391687          462 
 1334000   0.72323284   -8.2419183    212.71348  0.013287948  0.012379097          459 
 1335000   0.72605291    -8.267134     212.1852  0.013245018  0.012366525          299 
 1336000   0.72898336   -8.2527351    212.11213  0.013230547  0.012353946          430 
 1337000   0.73024274   -8.2435185    212.08572  0.013219005  0.012341401          483 
 1338000   0.71293813   -8.2424824    212.19077  0.013215668  0.012328876          225 
 1339000   0.72614805   -8.2392713    211.91853  0.013188855  0.012316341          439 
 1340000   0.71611995   -8.2592282    212.05944  0.013187776   0.01230382          178 
 1341000   0.71454503   -8.2170105    212.22952  0.013188511  0.012291316          302 
 1342000   0.70868242   -8.2436428    212.31443  0.013183956   0.01227883          389 
 1343000   0.72729643    -8.219646    212.39335  0.013179036  0.012266349          521 
 1344000   0.71238419   -8.2484993     212.0153   0.01314579  0.012253857          273 
 1345000   0.70942819   -8.2181576    212.57151  0.013170478  0.012241377          243 
 1346000   0.71450215   -8.2365551    212.06229  0.013129166  0.012228907          289 
 1347000   0.71795387   -8.2638299    211.47357  0.013082998  0.012216423          496 
 1348000    0.7043561   -8.2611697    211.60224  0.013081247  0.012203974          523 
 1349000   0.71978414   -8.2909963    211.39178  0.013058548  0.012191542          470 
 1350000   0.70349139   -8.2765767    211.93461  0.013082383  0.012179115          320 
 1351000   0.71565152   -8.2857155    211.90734  0.013071018  0.012166714          302 
 1352000   0.69996878   -8.2440473    211.85617  0.013058196  0.012154334          495 
 1353000   0.70686179   -8.2506449    211.66813  0.013036963  0.012141961          280 
 1354000   0.70632815   -8.2816413    211.69433  0.013028947  0.012129598          314 
 1355000    0.7158082   -8.2819551    211.79167  0.013025318  0.012117258          367 
 1356000     0.708769   -8.2923559    212.09728  0.013034494  0.012104913          468 
 1357000   0.72132164   -8.2276617    212.05241  0.013022133  0.012092578          432 
 1358000    0.7106679   -8.2768842    211.80207  0.012997182  0.012080273          476 
 1359000   0.70915194   -8.2693787    211.51534  0.012970036  0.012067973          483 
 1360000   0.71561918   -8.2972876    211.33979  0.012949742  0.012055675          294 
 1361000   0.70832716   -8.2695545    212.00178  0.012980761  0.012043411          550 
 1362000   0.72049773   -8.2757676    212.04236  0.012973713  0.012031172          560 
 1363000   0.71355022    -8.246175    212.32038  0.012981192  0.012018956          510 
 1364000   0.71446587   -8.2728435    212.09297  0.012957782  0.012006729          615 
 1365000   0.71676796    -8.279435    211.92254  0.012937884  0.011994549          314 
 1366000   0.70940337   -8.2829303    211.69621  0.012914605  0.011982311          630 
 1367000   0.71330228   -8.2476987    211.83794  0.012913798  0.011970144          443 
 1368000   0.70505417   -8.2883051    212.08741  0.012919554  0.011958006          661 
 1369000   0.71152772   -8.2917439    211.77088   0.01289085  0.011945873          601 
 1370000    0.7038664    -8.276255    212.25135  0.012910666  0.011933733          595 
 1371000   0.71387286   -8.3015559    211.68349  0.012866733  0.011921612          343 
 1372000   0.72185859   -8.2698462    211.98789  0.012875844  0.011909521          654 
 1373000   0.71603797   -8.2754555    212.08292  0.012872233   0.01189744          632 
 1374000   0.69797811   -8.2890607    211.87957  0.012850532  0.011885358          529 
 1375000   0.69415647   -8.2876059    211.99397   0.01284812  0.011873305          633 
 1376000   0.70231609   -8.2737467    212.09442  0.012844866  0.011861242          592 
 1377000    0.7075038   -8.2840669    212.01793  0.012830909  0.011849211          540 
 1378000   0.69795658     -8.30193    211.80369  0.012808641  0.011837189          579 
 1379000   0.70326775   -8.3123455    211.65592  0.012790423   0.01182515          692 
 1380000   0.71783542   -8.2480764    211.83065  0.012791706  0.011813139          600 
 1381000   0.69664132   -8.2694444      212.143  0.012801291  0.011801154          609 
 1382000   0.70030062   -8.2638171     211.5337  0.012755288  0.011789169          565 
 1383000   0.68283308   -8.2948141    211.60199   0.01275018  0.011777189          624 
 1384000    0.7038033   -8.2744372    211.25605  0.012720138  0.011765227          643 
 1385000   0.69974935   -8.2881969    212.04305  0.012758307  0.011753285          437 
 1386000   0.70483645   -8.2906203    211.37709   0.01270906   0.01174138          463 
 1387000   0.69795339   -8.3116936    211.59554  0.012713022  0.011729468          658 
 1388000   0.70400619   -8.2687954     211.7559  0.012713491   0.01171756          357 
 1389000   0.70935427   -8.3217216    211.56345  0.012692791  0.011705692          389 
 1390000   0.68278105   -8.3087016    211.53644   0.01268204  0.011693789          605 
 1391000   0.70768845    -8.292633    211.75285  0.012685888   0.01168189          550 
 1392000   0.68770466    -8.301792    211.49434  0.012661299  0.011670021          562 
 1393000   0.69630529   -8.3067417    211.56488   0.01265643  0.011658131          553 
 1394000   0.70078428   -8.2829472    211.35138  0.012634588  0.011646276          308 
 1395000   0.69354677   -8.2804642    211.67426  0.012644818  0.011634448          292 
 1396000    0.6974205    -8.285929    211.78716    0.0126425  0.011622623          335 
 1397000   0.70155389   -8.3042337    211.28963  0.012603771  0.011610851          335 
 1398000   0.69920759    -8.297675    211.65393  0.012616472  0.011599064          593 
 1399000   0.70545516   -8.3052115     211.5061  0.012598648  0.011587301          319 
 1400000   0.68114577   -8.2945701    211.71585  0.012602134   0.01157557          658 
 1401000   0.68963161   -8.3086778    211.28868   0.01256773  0.011563845          322 
 1402000    0.7008152   -8.2744298    211.49296  0.012570908  0.011552129          308 
 1403000   0.70699107   -8.2764633    211.87563  0.012584678  0.011540441          595 
 1404000    0.7057138   -8.2875593    211.64799  0.012562203  0.011528771          393 
 1405000   0.68416767   -8.2822678    211.53685   0.01254667  0.011517087          355 
 1406000   0.69740153   -8.2938054    211.67809  0.012546117  0.011505452          331 
 1407000   0.67719733   -8.3105189    211.79414  0.012544074  0.011493802          359 
 1408000    0.6956476   -8.3203364    211.77291  0.012533908  0.011482143          660 
 1409000   0.70270306   -8.3001406    211.40113  0.012503024  0.011470485          659 
 1410000   0.70669636   -8.2947572    211.48387  0.012499047  0.011458858          759 
 1411000   0.69167003   -8.2907112    211.81258  0.012509602   0.01144725          708 
 1412000     0.684002   -8.3071753    211.43731  0.012478595  0.011435644          666 
 1413000   0.68431422   -8.3155505    211.27954  0.012460459   0.01142405          644 
 1414000   0.69045819   -8.3170896    211.73449  0.012478459  0.011412482          760 
 1415000   0.67223739   -8.3391604    211.92527  0.012480876  0.011400893          624 
 1416000   0.68552992   -8.3179626    211.42588  0.012442672  0.011389332          665 
 1417000   0.69462621   -8.3084709    211.21428  0.012421447  0.011377774          735 
 1418000   0.66929039   -8.3260508    211.40086  0.012423652  0.011366225          778 
 1419000   0.68889103    -8.344831    211.42588  0.012416366  0.011354683          718 
 1420000   0.67048335   -8.3279397     211.4684  0.012410117  0.011343123          809 
 1421000   0.69515585    -8.333707    211.69791  0.012414843   0.01133159          672 
 1422000   0.67783721    -8.328338    211.31864  0.012383886  0.011320063          701 
 1423000   0.68352726    -8.324104    211.20858  0.012368739  0.011308558          794 
 1424000   0.68634081   -8.3317627    211.20518  0.012359853  0.011297037          830 
 1425000   0.68617701   -8.3247178     211.4656  0.012366409  0.011285537          754 
 1426000   0.68700699   -8.3442147     211.2819  0.012347002   0.01127405          741 
 1427000   0.68418467    -8.345215    211.15251  0.012330794  0.011262581          688 
 1428000   0.68336541   -8.3506012    211.05951  0.012316732  0.011251118          715 
 1429000   0.68669395   -8.3661252    210.98708  0.012303888   0.01123968          784 
 1430000   0.69012366    -8.336035    211.29242  0.012313078  0.011228245          689 
 1431000   0.68752434   -8.3325323    211.16495   0.01229705  0.011216832          659 
 1432000   0.66460601   -8.3334606     211.6138  0.012314583  0.011205428          740 
 1433000   0.69667698   -8.3458518    210.99589  0.012270057  0.011194056          709 
 1434000   0.68574966    -8.360112    211.08245   0.01226653  0.011182701          707 
 1435000   0.69157323   -8.3285477    210.53813  0.012226372  0.011171357          744 
 1436000   0.67616791   -8.3438749    211.19746   0.01225612  0.011159988          755 
 1437000   0.66063118   -8.3424706    211.15203  0.012244957  0.011148636          648 
 1438000   0.66919313   -8.3419284    210.97846  0.012226383  0.011137311          735 
 1439000   0.67639685   -8.3545691    211.23678  0.012232846  0.011125989          655 
 1440000   0.67616319   -8.3415316    211.24409  0.012224774  0.011114698          688 
 1441000    0.6852438   -8.3467003    211.15225  0.012210979  0.011103412          733 
 1442000   0.67961164   -8.3453955    210.99631  0.012193499  0.011092174          646 
 1443000   0.67596666   -8.3697625    211.05019  0.012188161  0.011080926          682 
 1444000   0.69222153   -8.3577958    211.01167  0.012177497  0.011069695          799 
 1445000   0.68137853   -8.3634237    211.42487  0.012192899  0.011058451          808 
 1446000   0.68262679   -8.3571523     211.3596  0.012180705  0.011047238          803 
 1447000   0.69360756   -8.3507157    210.80032  0.012140078  0.011036025          756 
 1448000    0.6850761   -8.3604731    211.26215  0.012158273  0.011024836          870 
 1449000    0.6763106   -8.3682274    210.55556  0.012109245  0.011013649          733 
 1450000   0.67291116   -8.3665721     210.4861  0.012096902  0.011002485          763 
 1451000   0.68520866   -8.3584716    211.12747  0.012125401  0.010991332          642 
 1452000   0.68839386   -8.3578044    210.82431   0.01209965  0.010980235          804 
 1453000   0.66793472   -8.3569174    211.08886  0.012106496  0.010969101          651 
 1454000   0.68073277   -8.3433456    210.84546  0.012084219  0.010957985          801 
 1455000   0.66951931   -8.3725581    210.95965  0.012082454  0.010946879          666 
 1456000   0.67900865   -8.3574372    210.79637   0.01206481  0.010935767          738 
 1457000   0.66946331    -8.365515     210.5551   0.01204273  0.010924674          730 
 1458000   0.66475875   -8.3801497    210.66827  0.012040939  0.010913595          794 
 1459000   0.66725272    -8.339824    211.23401     0.012065   0.01090255          683 
 1460000   0.67833013   -8.3481062    211.61143  0.012078278  0.010891537          784 
 1461000   0.66393072   -8.3774264    211.21131  0.012047188  0.010880531          813 
 1462000     0.673791   -8.3567458    211.00203  0.012027019  0.010869543          912 
 1463000   0.66967156   -8.3702771    211.03055  0.012020423  0.010858552          791 
 1464000   0.67624682   -8.3744349    210.77005  0.011997385  0.010847578          710 
 1465000     0.674786   -8.3431898    211.35116   0.01202225  0.010836623          779 
 1466000   0.67542974   -8.3578828    211.30862  0.012011631  0.010825697          801 
 1467000   0.67165229   -8.3669801     210.6354  0.011965201  0.010814751          773 
 1468000   0.66137682   -8.3783799    210.84814  0.011969127  0.010803832          856 
 1469000   0.66554606   -8.3933734    210.79044  0.011957706  0.010792904          761 
 1470000   0.66506195   -8.3804016    211.02722  0.011962994  0.010781992          848 
 1471000   0.67309443   -8.3735176    210.84692  0.011944648  0.010771094          787 
 1472000    0.6725808   -8.3661452    210.53244  0.011918729  0.010760202          868 
 1473000     0.668795   -8.3761491     210.8792  0.011930256    0.0107493          791 
 1474000   0.65420268    -8.378412    210.17975  0.011882618  0.010738447          499 
 1475000   0.65897447   -8.3768566    210.55287  0.011895642  0.010727583          489 
 1476000   0.67630045     -8.37379    210.61386  0.011891026  0.010716744          868 
 1477000   0.65863069   -8.3876579    210.38991   0.01187034  0.010705925          890 
 1478000   0.66337686   -8.4051899    210.50123  0.011868586  0.010695103          824 
 1479000   0.66951776   -8.4084278    210.23517   0.01184557  0.010684306          837 
 1480000    0.6739339   -8.3852624    210.37836  0.011845628    0.0106735          825 
 1481000   0.69285399    -8.377569    210.74028  0.011857995  0.010662719          837 
 1482000   0.66257132   -8.3997907    210.34031  0.011827503  0.010651964          813 
 1483000   0.66336443    -8.382206    210.83503  0.011847327  0.010641214          783 
 1484000   0.66342674   -8.3969563    210.73171  0.011833542  0.010630482          840 
 1485000   0.67275726   -8.3774045     211.1136  0.011847004  0.010619755          879 
 1486000   0.65708923   -8.3938032    210.58702  0.011809501  0.010609044          950 
 1487000   0.67476431   -8.4024111    210.32532  0.011786893  0.010598339          880 
 1488000   0.66389243   -8.3915213    211.04338  0.011819186  0.010587643          878 
 1489000   0.65509846   -8.4018362    210.73413   0.01179394  0.010576968          570 
 1490000   0.64300144   -8.3967617     210.7523  0.011787042  0.010566294          884 
 1491000   0.67567571   -8.4097795    210.85221   0.01178472  0.010555632          893 
 1492000   0.65320303   -8.4096297    211.05388  0.011788085  0.010545001          884 
 1493000   0.65821762   -8.3700953     210.7483  0.011763133  0.010534392          855 
 1494000    0.6705592    -8.405527    210.51125  0.011742037  0.010523784          887 
 1495000   0.66450362   -8.4003145    210.50031  0.011733573  0.010513172          873 
 1496000   0.66072242   -8.4114581    210.21001  0.011709559   0.01050256          843 
 1497000   0.65748335   -8.3750553    210.84047  0.011736833  0.010491988          866 
 1498000   0.64822879   -8.3987819    210.49946  0.011710028  0.010481419          904 
 1499000    0.6546201   -8.4100877    210.42711  0.011698194  0.010470859          840 
 1500000   0.66998595   -8.4129725    210.42609  0.011690338  0.010460305          907 
 1501000   0.65141425   -8.3954616    209.98849  0.011658255  0.010449779          888 
 1502000   0.65992746   -8.4209038    210.06681  0.011654839  0.010439245          764 
 1503000   0.64946036   -8.4205592    210.45432   0.01166857  0.010428745          954 
 1504000   0.65945604   -8.4060945    210.41433  0.011658595  0.010418238          890 
 1505000   0.65406353   -8.4317124    210.47252  0.011654071  0.010407735          876 
 1506000   0.66119772    -8.417768    210.13516  0.011627665  0.010397256          918 
 1507000   0.65048373   -8.4418768    210.08684  0.011617277  0.010386777          943 
 1508000   0.63679013   -8.4233996    210.42327  0.011628165  0.010376332          883 
 1509000   0.64983314   -8.4209551    210.26725  0.011611843  0.010365895          826 
 1510000   0.65502378   -8.4317194    210.45596  0.011614567  0.010355472          903 
 1511000   0.66686291   -8.4158864    210.20608    0.0115931  0.010345041          887 
 1512000    0.6570673   -8.4085758    210.30816  0.011591058  0.010334624          979 
 1513000   0.64012371   -8.4087771    210.45292   0.01159137   0.01032422          905 
 1514000   0.63971167   -8.4188484    210.08442  0.011563431  0.010313841          919 
 1515000   0.65364253   -8.4262714    210.08312  0.011555727  0.010303464          863 
 1516000   0.63471076   -8.4366103    210.89193  0.011592564  0.010293113          529 
 1517000   0.65205124   -8.4130353    210.33985  0.011554595  0.010282778          885 
 1518000   0.65485381   -8.4029919    210.35638  0.011547891   0.01027246          810 
 1519000   0.65301603   -8.4179347    210.30803  0.011537636  0.010262156          870 
 1520000   0.64284522    -8.409897    210.50302  0.011540735  0.010251838          802 
 1521000   0.64805681   -8.4389093    210.27819   0.01152083  0.010241533          940 
 1522000   0.64211936   -8.4403693    210.20655  0.011509338  0.010231229          788 
 1523000   0.63931863   -8.4405355    210.38605  0.011511603   0.01022094          960 
 1524000   0.63574977   -8.4330563    210.26061   0.01149719  0.010210677          829 
 1525000   0.65460418     -8.42969    209.95617  0.011473015  0.010200435          959 
 1526000   0.65401551    -8.420032      210.504  0.011495413    0.0101902          814 
 1527000   0.64280116   -8.4255016    210.05829  0.011463561  0.010179971          857 
 1528000   0.63767949   -8.4280355    210.18457  0.011462945  0.010169754          483 
 1529000   0.63989049   -8.4413614    210.18428  0.011455433  0.010159523          993 
 1530000   0.63859557   -8.4517404    210.17552  0.011447468  0.010149322          861 
 1531000   0.64929083   -8.4482199    210.35829  0.011449939  0.010139136          919 
 1532000   0.62460988   -8.4380699    209.93719   0.01141956  0.010128961          879 
 1533000   0.64904784   -8.4407684    209.92592  0.011411498  0.010118792          837 
 1534000   0.64289493   -8.4505495    210.11692  0.011414435  0.010108635          942 
 1535000   0.63645303   -8.4395694    210.17024  0.011409894  0.010098496          925 
 1536000   0.64030536   -8.4473141    210.48746  0.011419675  0.010088384          901 
 1537000   0.62647363   -8.4420424    210.26924  0.011400414  0.010078275          890 
 1538000   0.64536629   -8.4284468    210.36347  0.011398107  0.010068178          890 
 1539000   0.64785805   -8.4707328    210.13557  0.011378361  0.010058091          934 
 1540000   0.63941867   -8.4285553    210.29298   0.01137949  0.010047998          842 
 1541000   0.64166502   -8.4461266    210.41475  0.011378691  0.010037924          901 
 1542000   0.64417039   -8.4678805    210.01922  0.011349936  0.010027848          924 
 1543000   0.64489357   -8.4493956    210.38196  0.011362171  0.010017792          996 
 1544000   0.63047678   -8.4550253    210.28807  0.011349745  0.010007742          937 
 1545000    0.6485896    -8.445928    209.92667  0.011322905 0.0099977038          581 
 1546000   0.64587122   -8.4466421    210.18109  0.011329295 0.0099876852          978 
 1547000   0.64465343   -8.4620387    209.91034  0.011307387 0.0099776577          998 
 1548000   0.63617883   -8.4483329    209.66927  0.011287105 0.0099676316          992 
 1549000   0.63068042   -8.4418114    210.23309  0.011310151  0.009957646          897 
 1550000   0.62609627     -8.42742    210.10943  0.011296206 0.0099476707          958 
 1551000   0.62303095   -8.4718262    209.54196  0.011258433 0.0099376944          965 
 1552000   0.63926921   -8.4662581    209.95149  0.011273169 0.0099277244          944 
 1553000   0.63733135   -8.4516005    209.93729  0.011265147 0.0099177606          992 
 1554000   0.61681225   -8.4500327    210.03707  0.011263249 0.0099078088          946 
 1555000   0.62842269   -8.4597641    209.87327  0.011247228 0.0098978653          994 
 1556000      0.62512    -8.480033    209.63681  0.011227336 0.0098879332         1022 
 1557000   0.63202722   -8.4743143    209.83891  0.011230942 0.0098779887         1011 
 1558000   0.63403263   -8.4699251    210.10456  0.011237942 0.0098680768         1072 
 1559000   0.63148908   -8.4729933    209.70274  0.011209255 0.0098581753          994 
 1560000   0.63266367   -8.4586024    210.05676  0.011220981 0.0098482975          995 
 1561000   0.62858505   -8.4964146    209.47632  0.011182806 0.0098384114         1089 
 1562000   0.61512827   -8.4597487    209.95767  0.011201327 0.0098285328          938 
 1563000   0.62643642     -8.46676    209.80316  0.011185923 0.0098186813         1041 
 1564000   0.61540679   -8.4824382    209.83768  0.011180609 0.0098088402         1078 
 1565000   0.63479626   -8.4723554    209.55346  0.011158331 0.0097990077         1068 
 1566000   0.62314529   -8.4984767    209.62835  0.011155191 0.0097892011         1040 
 1567000   0.62123413   -8.4635272    209.72802  0.011153373  0.009779376          936 
 1568000   0.63693957   -8.4755883     209.8443  0.011152439  0.009769589          967 
 1569000   0.61074131   -8.4767773    210.01641  0.011154472 0.0097598172          948 
 1570000   0.61760521   -8.4874105    209.78384  0.011135023  0.009750054         1029 
 1571000   0.62774299   -8.4954559    210.00255  0.011139537  0.009740312         1017 
 1572000   0.62647193   -8.4962616    209.83715  0.011123683 0.0097305778          986 
 1573000   0.62754906   -8.4791853    210.13875  0.011132589 0.0097208584         1020 
 1574000   0.62550636    -8.491641    209.41832  0.011087374 0.0097111456         1023 
 1575000   0.61423759   -8.4865447    209.71812  0.011096197 0.0097014475          993 
 1576000   0.62392081   -8.4890775    209.87286  0.011097338 0.0096917663         1011 
 1577000   0.61730532   -8.4920113    209.60638  0.011076219 0.0096820975         1020 
 1578000   0.61367023   -8.5023366     209.9044  0.011084939 0.0096724288          989 
 1579000   0.62604237   -8.4774569    210.15876  0.011091343 0.0096627855          951 
 1580000   0.61928634   -8.4893392    209.67569  0.011058845 0.0096531587          972 
 1581000   0.63904717   -8.4890947    209.79769   0.01105828 0.0096435293         1066 
 1582000   0.61868961   -8.4799389    210.28729   0.01107708 0.0096339225         1034 
 1583000    0.6156348     -8.47875    209.54166  0.011030831 0.0096243203         1039 
 1584000   0.62589256   -8.5087035    209.35724  0.011014165 0.0096147355         1117 
 1585000   0.62837446   -8.5019016    209.51309   0.01101541 0.0096051622         1081 
 1586000   0.62780665   -8.4810514    209.73011  0.011019867 0.0095955992         1061 
 1587000   0.62500596   -8.4825693    209.88579  0.011021098 0.0095860479         1066 
 1588000   0.62476959   -8.4995307    209.58275  0.010998255 0.0095765124         1057 
 1589000   0.62006474   -8.4883661     209.4199  0.010982793  0.009566995         1033 
 1590000   0.62202862   -8.4936397    209.54366  0.010982372  0.009557486         1038 
 1591000    0.6209384   -8.5023244    209.30887  0.010963172 0.0095479615         1085 
 1592000   0.62604484   -8.4938921    209.86264  0.010985272 0.0095384631         1044 
 1593000   0.61382844   -8.5002245    209.56536  0.010962825 0.0095289762         1030 
 1594000   0.61609046   -8.4834052    209.50736  0.010952915 0.0095195121         1059 
 1595000   0.60148557   -8.5053778    209.63933  0.010952943 0.0095100454         1139 
 1596000   0.61109359   -8.5082775    209.53157  0.010940454 0.0095005928         1070 
 1597000   0.60657394   -8.4951832    209.59388  0.010936854  0.009491149         1111 
 1598000   0.60606775    -8.504055    209.54395  0.010927407 0.0094817134         1061 
 1599000   0.61791986   -8.4942684    209.86543  0.010937327  0.009472302         1065 
 1600000   0.61572488   -8.5090918    209.63753  0.010918621 0.0094628971         1045 
 1601000   0.61364108    -8.512307    209.89367  0.010925134 0.0094535044         1130 
 1602000   0.60957731   -8.5100335    209.01708  0.010872715  0.009444123         1055 
 1603000   0.62294559   -8.5296126    209.28532  0.010879877 0.0094347599          706 
 1604000    0.6149089   -8.5102895    209.44927  0.010881612 0.0094254062         1093 
 1605000   0.62022513   -8.4969786    209.48005   0.01087643 0.0094160693         1085 
 1606000   0.62075083   -8.5232073    209.35885  0.010863369 0.0094067488          942 
 1607000   0.62402942   -8.5111283    209.84925   0.01088204 0.0093974282         1122 
 1608000    0.6171169   -8.5130007    209.02183  0.010832392 0.0093881152         1052 
 1609000   0.61006056   -8.4912363      209.889  0.010870572 0.0093788168         1023 
 1610000   0.60659678   -8.5021162     209.3152   0.01083412 0.0093695313         1080 
 1611000   0.59184542   -8.5291769    208.89183  0.010805495 0.0093602491         1030 
 1612000   0.60693063   -8.5069293    209.78076  0.010844746 0.0093509846         1052 
 1613000   0.60003108   -8.5017795    209.60738  0.010829065 0.0093417403         1037 
 1614000    0.6121566   -8.5161083    209.43706  0.010813562 0.0093324961         1083 
 1615000   0.62364105   -8.4969016     209.5013   0.01081018 0.0093232763         1190 
 1616000   0.60612479   -8.5206075    209.26552  0.010791333 0.0093140628         1081 
 1617000   0.61109737   -8.5239046    209.50119  0.010796804 0.0093048587         1078 
 1618000   0.61083582   -8.5371308    209.74571  0.010802725 0.0092956739         1090 
 1619000   0.61981804   -8.5134825    209.72605  0.010795041 0.0092864946         1142 
 1620000   0.60401047   -8.5120063     209.1626  0.010759393 0.0092773211         1124 
 1621000   0.59783694   -8.5072093    209.45772  0.010767927 0.0092681641         1102 
 1622000   0.60569327   -8.4862996    209.38776  0.010757694 0.0092590192         1016 
 1623000   0.61779921   -8.5231497    209.10477  0.010736536  0.009249875          650 
 1624000   0.58710264   -8.5264332    209.30828  0.010740367 0.0092407431         1192 
 1625000   0.59732329   -8.5037799    209.48288  0.010742712 0.0092316161         1038 
 1626000   0.62199079   -8.5341243     209.1974  0.010721474 0.0092225014         1069 
 1627000   0.60465593   -8.5289604    209.44497  0.010727565 0.0092133956         1090 
 1628000   0.59695973   -8.5293363    209.80909  0.010739613  0.009204317         1056 
 1629000   0.59794667   -8.5411083    209.10388  0.010696945 0.0091952344         1101 
 1630000   0.60809409   -8.5281924    209.15233  0.010692859 0.0091861674         1077 
 1631000    0.5920315   -8.5174778    209.28056  0.010692855 0.0091770943         1082 
 1632000   0.60137172   -8.4981554    209.36912  0.010690825  0.009168045          642 
 1633000   0.61293304   -8.5349642    209.10493  0.010670797 0.0091590092         1120 
 1634000    0.5905472   -8.5169522    209.01017  0.010659433 0.0091499789         1116 
 1635000   0.58903985   -8.5234885    209.27508  0.010666416 0.0091409739         1073 
 1636000   0.59137477   -8.5375167    209.17177  0.010654634 0.0091319826         1109 
 1637000   0.60435683   -8.5252611    209.10447  0.010644699 0.0091229948         1140 
 1638000   0.59238281   -8.5216625    209.31443  0.010648882 0.0091140373         1037 
 1639000   0.61159105   -8.5300004    208.75314  0.010613847 0.0091050734         1068 
 1640000   0.61495143   -8.5013749    209.55174  0.010647954 0.0090961316         1058 
 1641000    0.6102503   -8.5135692    209.26031  0.010626666 0.0090871955         1066 
 1642000   0.59378342   -8.5215927    209.49479  0.010632095  0.009078266         1040 
 1643000   0.58615884    -8.524324    209.26586  0.010614012 0.0090693553         1133 
 1644000   0.60473414    -8.524996    209.07118  0.010597688 0.0090604463         1090 
 1645000   0.60198226   -8.5359978    208.83278  0.010579168 0.0090515535         1015 
 1646000   0.59680184   -8.5280724    208.94995  0.010578673 0.0090426739         1080 
 1647000   0.59133638   -8.5361495    209.20762  0.010585288 0.0090338024         1081 
 1648000   0.58674327   -8.5263937    209.17595  0.010577263 0.0090249359         1066 
 1649000   0.60187851   -8.5203588    209.36322  0.010580312 0.0090160937         1047 
 1650000   0.59127493   -8.5375129    209.02265    0.0105567 0.0090072534         1044 
 1651000   0.61028985      -8.5429    209.05174  0.010551774  0.008998415         1126 
 1652000   0.58932951   -8.5364839    209.08135   0.01054688 0.0089895995          980 
 1653000   0.58163937   -8.5209071    209.15833  0.010544381 0.0089807939         1151 
 1654000   0.58823976    -8.530878    208.82495  0.010521209  0.008971994         1127 
 1655000    0.5855865    -8.527962    209.09789  0.010528595 0.0089632045         1153 
 1656000   0.58374566    -8.534002    209.18473  0.010526607 0.0089544379         1016 
 1657000   0.60324335   -8.5379161    208.87133  0.010504493 0.0089456702         1121 
 1658000   0.58504958   -8.5400454    208.83785  0.010496474 0.0089369264         1055 
 1659000   0.58870668   -8.5331061    208.83059  0.010489783 0.0089281787         1045 
 1660000    0.5817355   -8.5446222    209.12665  0.010498326 0.0089194416         1094 
 1661000    0.5821058   -8.5391877    208.84184  0.010477716 0.0089107112         1058 
 1662000   0.58533195   -8.5589011    208.89385   0.01047402 0.0089019863         1123 
 1663000    0.5891653   -8.5365813    209.39871   0.01049302 0.0088932781         1143 
 1664000   0.59895876   -8.5334673    209.18736   0.01047613 0.0088845884         1067 
 1665000   0.59568431   -8.5339433    209.19683  0.010470312  0.008875925         1104 
 1666000   0.59627032   -8.5502287    209.05981  0.010457173 0.0088672615         1034 
 1667000   0.59149086   -8.5445192    208.73469  0.010434648 0.0088586066         1186 
 1668000   0.58962019    -8.533344    209.17884  0.010450581 0.0088499792         1077 
 1669000   0.59399325   -8.5523613    209.23576  0.010447162 0.0088413569         1082 
 1670000     0.599774   -8.5256662     209.1893  0.010438588 0.0088327354         1082 
 1671000    0.5866072   -8.5630611    208.61149  0.010403525 0.0088241141         1122 
 1672000   0.59549952   -8.5582412     208.4088  0.010387201 0.0088155018         1045 
 1673000   0.59145017   -8.5439981    209.13361  0.010417095 0.0088068926         1062 
 1674000   0.58995335   -8.5437361     209.3579  0.010422038 0.0087983125         1036 
 1675000   0.57871651   -8.5658909     208.9114  0.010393602  0.008789739         1082 
 1676000   0.58910389   -8.5484632    208.93435  0.010388542 0.0087811637         1039 
 1677000   0.58705981   -8.5549093    208.71777  0.010371585 0.0087726091         1053 
 1678000   0.57869874   -8.5587211    208.84577  0.010371761 0.0087640622         1073 
 1679000   0.58384853   -8.5623134    209.09385  0.010377896 0.0087555326         1130 
 1680000   0.59085224   -8.5597019     208.6494  0.010349673 0.0087470124         1077 
 1681000   0.57204756   -8.5576649     208.9537  0.010358601 0.0087385058         1068 
 1682000   0.58464042   -8.5454856    209.01389  0.010355425 0.0087300043         1044 
 1683000   0.57858969   -8.5562752    209.15889  0.010356451 0.0087215008         1078 
 1684000   0.57898613   -8.5643877    209.01161  0.010343013 0.0087130061         1051 
 1685000   0.59064568   -8.5544208    208.90755  0.010331728 0.0087045299         1082 
 1686000   0.57496548   -8.5808058    208.72047  0.010316354 0.0086960598          681 
 1687000   0.58898159   -8.5690625    209.05461  0.010326744 0.0086876035         1106 
 1688000    0.5788255   -8.5811594    208.67714  0.010301992 0.0086791653         1140 
 1689000   0.57666063    -8.561511    208.91274  0.010307516 0.0086707282         1120 
 1690000   0.56803445   -8.5771997    209.21379  0.010316262 0.0086623107         1130 
 1691000   0.58064453    -8.561662    208.49843  0.010274908 0.0086539093         1064 
 1692000   0.57653949   -8.5552828    209.16563  0.010301696 0.0086455005         1140 
 1693000   0.58243979   -8.5521931    208.77683  0.010276473 0.0086371165         1114 
 1694000   0.57948502   -8.5799026    208.52923  0.010258227 0.0086287317         1092 
 1695000    0.5725275   -8.5837063    208.27119  0.010239488 0.0086203507         1164 
 1696000   0.57833919   -8.5869188    208.53841  0.010246581 0.0086119761         1092 
 1697000   0.57642133   -8.5793886    208.59217  0.010243182 0.0086036226         1183 
 1698000   0.57465283   -8.5748851    208.99852  0.010257093 0.0085952743         1189 
 1699000   0.56321995   -8.5889079    208.50076  0.010226641 0.0085869221         1169 
 1700000   0.56982645   -8.5814382    208.78369  0.010234495 0.0085785906         1185 
 1701000   0.57540801   -8.5708463    208.65565  0.010222205 0.0085702742         1097 
 1702000   0.58081127   -8.5642275    208.65895   0.01021636 0.0085619576         1154 
 1703000   0.57453292   -8.5522936    208.54999   0.01020503 0.0085536592         1075 
 1704000   0.56572985   -8.5806537    208.60557  0.010201759 0.0085453703         1107 
 1705000    0.5707189   -8.5987741    208.69254  0.010200026  0.008537087         1160 
 1706000    0.5762888   -8.5824209    208.94885  0.010206567 0.0085288187         1109 
 1707000   0.56201516   -8.5541473    208.50138  0.010178743 0.0085205573         1045 
 1708000   0.57038844   -8.5861199    208.85622  0.010190097 0.0085123144         1064 
 1709000   0.57151095   -8.5939869    208.51683  0.010167585 0.0085040711         1091 
 1710000   0.56926658   -8.5737222    208.49009  0.010160336 0.0084958371         1140 
 1711000   0.57157433   -8.5911158    208.42309  0.010151134 0.0084876183         1068 
 1712000    0.5687179   -8.5919412    208.42156  0.010145131 0.0084794089         1064 
 1713000   0.58080783   -8.5929213    208.27222  0.010131943 0.0084712087         1101 
 1714000   0.56374553    -8.573596    208.57579  0.010140791 0.0084630164         1158 
 1715000   0.56981788   -8.5816403    208.57502  0.010134841  0.008454832         1106 
 1716000   0.56264566   -8.5765738    208.52597  0.010126553 0.0084466597         1088 
 1717000   0.57328432   -8.5642374    208.72702  0.010130413 0.0084385077         1079 
 1718000   0.56461262   -8.5814721    208.64736  0.010120652 0.0084303588         1068 
 1719000   0.56265068   -8.5915473    208.64391  0.010114597 0.0084222236         1107 
 1720000   0.56526722   -8.6007243    208.07488  0.010081147 0.0084140972         1135 
 1721000   0.57806953   -8.5815406    208.51202  0.010096457 0.0084059812         1112 
 1722000   0.55624983   -8.5884894    208.73418  0.010101344  0.008397866         1088 
 1723000    0.5732827   -8.5978596     208.6585  0.010091822  0.008389776         1137 
 1724000   0.55559901   -8.5932956    208.38623  0.010072807 0.0083816847         1150 
 1725000   0.54280222   -8.5646213    208.43855  0.010069495 0.0083736121         1053 
 1726000   0.57046772   -8.5992415    208.43064  0.010063279 0.0083655426         1090 
 1727000   0.56668614   -8.6034878    208.43564  0.010057693 0.0083574718         1136 
 1728000   0.56068684   -8.5824556    208.37091  0.010048752 0.0083494035         1087 
 1729000   0.56378033   -8.6120367    208.47604  0.010048007 0.0083413596         1174 
 1730000   0.56269274   -8.5970372    208.70581  0.010053266 0.0083333287         1182 
 1731000   0.56267876   -8.5954292     208.3502  0.010030339 0.0083253044         1092 
 1732000   0.56229109   -8.6056096    208.35113  0.010024592 0.0083173004         1157 
 1733000   0.56353993   -8.6184368    208.30628  0.010016651 0.0083092951         1203 
 1734000   0.57332069   -8.5923571    208.64091  0.010026956 0.0083013019         1073 
 1735000   0.55692896   -8.5873212    208.58277  0.010018385  0.008293325         1201 
 1736000   0.55614806   -8.6009962    208.27059 0.0099976281 0.0082853507         1125 
 1737000   0.56326115   -8.6049275    208.47826  0.010001836 0.0082773878         1126 
 1738000   0.56196133   -8.6023259    208.30417 0.0099877334 0.0082694367         1234 
 1739000   0.55962522   -8.5950493    208.83555  0.010007454 0.0082615014         1185 
 1740000   0.56188385   -8.5916601    208.57894 0.0099894127 0.0082535703         1082 
 1741000    0.5439318   -8.5874358    208.37498 0.0099739124 0.0082456582         1123 
 1742000   0.57127764   -8.5962693     208.5845 0.0099782098 0.0082377485         1106 
 1743000   0.54656827   -8.6005529    208.26624 0.0099572689 0.0082298504         1127 
 1744000   0.55808107   -8.6007119    208.26731 0.0099516106 0.0082219623         1138 
 1745000     0.543953    -8.602628    207.99618   0.00993296 0.0082140776         1164 
 1746000   0.55688991   -8.5966648    208.13167 0.0099337375 0.0082062043         1259 
 1747000   0.56396078   -8.6215991    207.95567 0.0099196562 0.0081983479         1221 
 1748000   0.56182246   -8.5994546    208.44164 0.0099371492 0.0081904913         1191 
 1749000   0.55836143   -8.6084526    207.82869 0.0099022629 0.0081826501          738 
 1750000   0.54561641   -8.6214293    208.18077   0.00991337 0.0081748234         1217 
 1751000   0.56190723   -8.6223965    208.43183 0.0099196566 0.0081669957         1143 
 1752000   0.56510793   -8.6159353     208.2995 0.0099077006  0.008159183         1165 
 1753000   0.56025701   -8.5971194    208.38788 0.0099062503 0.0081513728         1161 
 1754000   0.55851298   -8.6191415    208.57797 0.0099096337 0.0081435779         1134 
 1755000   0.55176444   -8.6141141    208.32413 0.0098919338 0.0081357918         1186 
 1756000   0.54365308   -8.6191465    208.23273 0.0098819633 0.0081280115         1160 
 1757000   0.54982373   -8.6048475     208.4035 0.0098844386  0.008120242         1185 
 1758000   0.54329907   -8.6163607    208.36827 0.0098771459  0.008112497         1160 
 1759000   0.56387567   -8.6070022    208.41556 0.0098737711 0.0081047584         1151 
 1760000   0.56320116   -8.6240585    207.79641 0.0098388452 0.0080970257         1125 
 1761000   0.54233508   -8.6180511    208.29025 0.0098566274 0.0080893024         1099 
 1762000   0.54008422   -8.6191617    207.94834  0.009834863 0.0080815839         1185 
 1763000   0.55233694   -8.6072305    208.62552 0.0098612931 0.0080738801         1162 
 1764000   0.54531805   -8.6174194    208.42037 0.0098460114 0.0080661866         1178 
 1765000    0.5552797   -8.6162112    208.16318   0.00982829 0.0080584992         1214 
 1766000   0.54055107   -8.6093656    208.38977 0.0098334167 0.0080508164         1099 
 1767000   0.55186924   -8.6249092    208.11822 0.0098150451  0.008043146         1209 
 1768000   0.55341755   -8.6252842    208.38958 0.0098222839 0.0080354876         1169 
 1769000   0.55365695   -8.6176774    208.06074 0.0098012408 0.0080278366         1162 
 1770000   0.54181351   -8.6292837    208.10001 0.0097975525 0.0080202003         1132 
 1771000   0.53771441   -8.6149586    208.55933 0.0098136332 0.0080125646         1188 
 1772000   0.55048965   -8.6160278    208.06715 0.0097849489 0.0080049454         1152 
 1773000   0.55521749   -8.6276463    208.33186 0.0097918714 0.0079973324         1115 
 1774000   0.54191673   -8.6260698    207.91569 0.0097668022 0.0079897354         1163 
 1775000   0.55417821   -8.6282628    208.07938 0.0097689851  0.007982146         1216 
 1776000   0.54534177   -8.6100151    208.32568 0.0097750412 0.0079745589         1132 
 1777000   0.55290956   -8.6377351    208.02747 0.0097555558 0.0079669826         1150 
 1778000   0.54095987    -8.640276    208.06087 0.0097516345 0.0079594228         1182 
 1779000   0.54247594   -8.6282674    207.94057 0.0097405176 0.0079518617         1207 
 1780000   0.54852439     -8.61794    208.66954 0.0097691733 0.0079443067         1100 
 1781000    0.5470299   -8.6370993    207.84256 0.0097249932 0.0079367683         1105 
 1782000   0.55795881   -8.6272996    208.09594 0.0097313853  0.007929238         1141 
 1783000   0.53309579   -8.6340685    208.28264 0.0097346533 0.0079217213         1026 
 1784000   0.53982817   -8.6488242    207.85756 0.0097093406 0.0079142016         1222 
 1785000   0.54206365   -8.6297974    208.14253  0.009717205 0.0079066805         1190 
 1786000   0.53253871   -8.6251164     208.0274 0.0097063923 0.0078991829         1261 
 1787000   0.53981841   -8.6435889    207.78826 0.0096898087 0.0078916968         1222 
 1788000   0.52758514   -8.6371507    208.20502 0.0097038133 0.0078842191         1175 
 1789000    0.5359977   -8.6120491    207.65752 0.0096728861  0.007876759         1216 
 1790000   0.53053463   -8.6356704    208.03164 0.0096848997 0.0078693103         1202 
 1791000   0.55262397   -8.6344643    208.25181 0.0096897361 0.0078618641         1195 
 1792000   0.53241708   -8.6278174    208.35266 0.0096890186 0.0078544282         1185 
 1793000   0.54356308   -8.6417107    207.98587 0.0096665676 0.0078470201         1100 
 1794000   0.54726123   -8.6328751     207.9487 0.0096594526 0.0078396003         1156 
 1795000   0.54312084   -8.6337504    207.92651 0.0096530413  0.007832196         1231 
 1796000   0.53752141   -8.6394382    208.40023 0.0096696469 0.0078247952         1171 
 1797000   0.53147168   -8.6404446    207.96801 0.0096442225 0.0078174011         1195 
 1798000   0.53396759   -8.6398733    208.15714 0.0096476244 0.0078100217         1206 
 1799000   0.54518763   -8.6398111    207.95884 0.0096330759 0.0078026461         1196 
 1800000   0.53722149   -8.6363292    207.84126 0.0096222808 0.0077952727          777 
 1801000   0.53474604   -8.6233839    208.41276 0.0096433813  0.007787916         1187 
 1802000   0.53651218   -8.6420143    208.15592 0.0096261524 0.0077805715         1177 
 1803000   0.53364021   -8.6680756    207.99739 0.0096134863 0.0077732292         1146 
 1804000   0.53680052   -8.6449866      207.995 0.0096080469 0.0077658954         1207 
 1805000   0.53692571   -8.6370989    208.24262 0.0096141562 0.0077585725          757 
 1806000   0.53473155   -8.6417864    208.17523 0.0096057231 0.0077512577         1201 
 1807000   0.54201874   -8.6256327    207.97488 0.0095911676 0.0077439571         1189 
 1808000   0.53816636   -8.6484036     208.0558 0.0095895928 0.0077366625         1136 
 1809000   0.54508507    -8.659005    207.91313 0.0095777191 0.0077293765         1170 
 1810000   0.53071454   -8.6333307    207.96159  0.009574659 0.0077220995          777 
 1811000   0.52591765   -8.6560611    208.26032  0.009583118 0.0077148348         1124 
 1812000   0.52158268     -8.63224    208.22221 0.0095760765 0.0077075709         1143 
 1813000   0.53054501   -8.6606759    208.13963 0.0095669991 0.0077003233         1106 
 1814000   0.52440429   -8.6429973    207.85017 0.0095484277 0.0076930785         1193 
 1815000   0.52074003   -8.6484833    207.90105 0.0095455029  0.007685847         1199 
 1816000   0.53709129   -8.6250786    207.87728 0.0095391558 0.0076786238         1145 
 1817000    0.5196196   -8.6621088      207.876 0.0095338471 0.0076714067         1209 
 1818000   0.52617603   -8.6563045    208.15144 0.0095412286 0.0076641922         1205 
 1819000   0.52798635   -8.6504353    207.78992 0.0095194211 0.0076569958         1224 
 1820000    0.5226239   -8.6576599    207.75034  0.009512378 0.0076498084         1232 
 1821000   0.52477108    -8.648434    207.81356 0.0095100477 0.0076426223         1251 
 1822000   0.52949065   -8.6487758    207.89653 0.0095086226 0.0076354599         1217 
 1823000   0.51713129     -8.65686    207.86547 0.0095019872 0.0076283004         1229 
 1824000   0.51073655   -8.6404349    208.03932 0.0095047205 0.0076211458         1191 
 1825000   0.52008168   -8.6517881    207.89054 0.0094927189 0.0076139993         1137 
 1826000   0.53326939   -8.6644909    207.89565 0.0094877531 0.0076068603         1180 
 1827000   0.52876613   -8.6611284    207.54492 0.0094665625 0.0075997369         1218 
 1828000   0.52175013   -8.6338073    207.69618 0.0094682796 0.0075926168         1186 
 1829000   0.51932213   -8.6553765    207.88909 0.0094718922  0.007585506         1169 
 1830000   0.53100178   -8.6622653    207.67844 0.0094571236 0.0075784009         1179 
 1831000   0.52787369   -8.6739266     207.8094 0.0094579192 0.0075713081         1190 
 1832000   0.52041548   -8.6622244    207.94565 0.0094589543 0.0075642227         1247 
 1833000   0.52028215   -8.6767614    207.72838 0.0094439164 0.0075571431         1235 
 1834000   0.52291066   -8.6611384    208.00676 0.0094514157 0.0075500768         1279 
 1835000    0.5141319   -8.6755975    207.60949 0.0094282238 0.0075430167         1237 
 1836000   0.51812411   -8.6757642     207.7779 0.0094307324  0.007535976         1165 
 1837000   0.51555939   -8.6463817    208.07283 0.0094389779 0.0075289326         1175 
 1838000   0.52203623   -8.6670655    208.02947 0.0094318764 0.0075219081         1181 
 1839000   0.52179776   -8.6647319    207.65324 0.0094096993 0.0075148875         1197 
 1840000   0.51626732   -8.6696336    207.88511 0.0094150865 0.0075078756         1190 
 1841000     0.507892   -8.6717481    207.74262 0.0094035226 0.0075008715         1123 
 1842000    0.5160777   -8.6575067    207.82346 0.0094020748 0.0074938802         1149 
 1843000    0.5189296   -8.6579215    207.51096 0.0093828432 0.0074869023         1204 
 1844000   0.51905475    -8.683951     207.3952 0.0093725234 0.0074799316         1263 
 1845000   0.51206923   -8.6904746    207.86858 0.0093888248 0.0074729611         1202 
 1846000   0.52499804   -8.6489951    207.46724 0.0093656213 0.0074660014         1273 
 1847000   0.51827351   -8.6692978    207.91646 0.0093808183  0.007459056         1215 
 1848000   0.51902667   -8.6730943    207.79015 0.0093700465 0.0074521147         1236 
 1849000   0.52349975   -8.6747445    207.59079 0.0093559939 0.0074451761         1199 
 1850000   0.51449977    -8.670967    207.73292 0.0093573387  0.007438249         1259 
 1851000   0.51121363   -8.6644539    207.68128 0.0093499587 0.0074313296         1210 
 1852000   0.51349886   -8.6640904    207.51383 0.0093373753 0.0074244162         1209 
 1853000   0.52056938   -8.6692733    207.27162 0.0093214437 0.0074175177         1216 
 1854000   0.52088703   -8.6864517    207.54219 0.0093285772 0.0074106263         1270 
 1855000   0.50695503   -8.6570714    207.40916 0.0093175722 0.0074037428         1196 
 1856000   0.51955542   -8.6775297    207.66938 0.0093242359  0.007396863         1092 
 1857000   0.50774607   -8.6630728    207.57343 0.0093149091 0.0073899952         1247 
 1858000    0.5068845   -8.6933818    207.97754 0.0093280203 0.0073831394         1227 
 1859000   0.50699244   -8.6969982    207.68621 0.0093099432 0.0073762824         1186 
 1860000   0.50804844   -8.6758412    207.80956 0.0093104643 0.0073694375         1221 
 1861000   0.51441036   -8.6965347    207.55897   0.00929424 0.0073626042         1176 
 1862000   0.50864927   -8.6758795     207.6743 0.0092944101  0.007355778         1231 
 1863000   0.50433335    -8.691358    207.58628 0.0092854841 0.0073489613         1154 
 1864000   0.51375956   -8.6875977    207.76442 0.0092884666 0.0073421502         1199 
 1865000   0.50070627   -8.6844277    207.77891 0.0092841335 0.0073353449         1167 
 1866000   0.50693984   -8.6865126    207.68745 0.0092750737 0.0073285564         1171 
 1867000   0.51343655   -8.6977702    207.88278 0.0092788243 0.0073217741         1291 
 1868000   0.50385522   -8.6871135     207.5044 0.0092569774 0.0073149919         1276 
 1869000   0.50666614   -8.6986632    207.34432 0.0092448867 0.0073082261         1220 
 1870000   0.50522347   -8.6761262    207.31668 0.0092387114 0.0073014736         1253 
 1871000   0.50531134   -8.6880641    207.55925 0.0092445775 0.0072947221         1252 
 1872000   0.51451075   -8.6892025    207.71379 0.0092465186 0.0072879812          838 
 1873000   0.51238982   -8.6940147    207.67102 0.0092396789 0.0072812444         1239 
 1874000   0.49911688   -8.6954931    207.41035  0.009223157 0.0072745163         1244 
 1875000   0.50387071   -8.6902031    207.58901 0.0092261782 0.0072677969         1207 
 1876000   0.50371182    -8.687492    207.58849 0.0092212371 0.0072610796         1168 
 1877000    0.5093604    -8.703999    207.57868 0.0092158886 0.0072543763         1214 
 1878000   0.50443121    -8.692847    207.67724 0.0092153549 0.0072476753         1278 
 1879000   0.50568649    -8.688042    207.43699 0.0091997954 0.0072409811         1312 
 1880000   0.50220468   -8.6970726    207.58393 0.0092014154 0.0072343037         1204 
 1881000   0.49839691   -8.7051096    207.27106 0.0091826628 0.0072276307         1183 
 1882000   0.51664193   -8.7014106    207.73801 0.0091984596 0.0072209663         1291 
 1883000   0.48921953   -8.7174913     207.2749 0.0091730795 0.0072143128         1284 
 1884000   0.50234067   -8.6935191    207.14804 0.0091625991 0.0072076617         1268 
 1885000   0.50577973   -8.6983699    207.52897 0.0091745788 0.0072010197         1213 
 1886000   0.49767137   -8.7152321    207.72897 0.0091785511 0.0071943922         1222 
 1887000   0.49740893   -8.6982785    207.52428 0.0091646477 0.0071877667         1163 
 1888000    0.5043758    -8.691508    207.61808 0.0091639336 0.0071811546         1228 
 1889000   0.49419519   -8.7086824    207.31973 0.0091459207 0.0071745404         1290 
 1890000   0.49444436   -8.6829297    207.83081 0.0091636159 0.0071679477         1232 
 1891000   0.50298048   -8.7063144    207.73773  0.009154668 0.0071613592         1209 
 1892000   0.49778354   -8.7009059    207.29162 0.0091301804 0.0071547774         1214 
 1893000   0.49345829   -8.7139887    207.49424 0.0091342771 0.0071482067         1231 
 1894000   0.50103089   -8.6914457    207.80718 0.0091432235 0.0071416417         1258 
 1895000   0.49079536    -8.692815    207.76856 0.0091367003 0.0071350918         1215 
 1896000   0.49584547     -8.70853    207.52123 0.0091210106 0.0071285377         1327 
 1897000   0.49661056   -8.7030639    207.51912 0.0091161095 0.0071219986         1261 
 1898000   0.48925544   -8.7197233    207.62414 0.0091159178  0.007115462         1240 
 1899000   0.49240484   -8.7116973    207.25044 0.0090947183 0.0071089348         1297 
 1900000   0.49359509     -8.70118    207.75689 0.0091121443 0.0071024125         1235 
 1901000   0.49015482   -8.6950262    207.31282 0.0090878842 0.0070958936          842 
 1902000   0.49800724   -8.7007481    207.33083 0.0090838955 0.0070893866         1230 
 1903000   0.49369092   -8.7070561    207.52933 0.0090878144 0.0070828914         1213 
 1904000   0.48883539   -8.7097001    207.06159 0.0090625694 0.0070763993         1222 
 1905000   0.49472939   -8.7047922    207.38159 0.0090718105 0.0070699139         1275 
 1906000   0.50032802    -8.697908    207.25216 0.0090613919 0.0070634373         1178 
 1907000   0.48733609   -8.7202228    206.85516 0.0090392921 0.0070569664         1196 
 1908000   0.49769473   -8.7143498    207.10948 0.0090456621 0.0070505042         1243 
 1909000   0.48828758    -8.716166    207.53139 0.0090593411 0.0070440515         1235 
 1910000   0.48875338   -8.7226078    207.30694 0.0090448053 0.0070376069         1246 
 1911000   0.49813475   -8.7191988     207.2408 0.0090371883 0.0070311665         1269 
 1912000   0.49247111    -8.707136    206.83911 0.0090149541 0.0070247456         1201 
 1913000   0.49141549   -8.6996862    207.28017  0.009029455 0.0070183244         1269 
 1914000   0.49839016   -8.7044315    207.24612 0.0090232551 0.0070119134         1289 
 1915000   0.48949873   -8.7049147    207.30768 0.0090212219 0.0070055122         1253 
 1916000   0.49194464   -8.7112673    207.39356 0.0090202489 0.0069991114         1236 
 1917000   0.48834611   -8.7202508    207.22961 0.0090084163  0.006992721         1250 
 1918000   0.48513459   -8.7103916    207.21333 0.0090030124  0.006986346         1207 
 1919000   0.49061546   -8.7007772    207.10258 0.0089935115 0.0069799747         1283 
 1920000   0.49215165   -8.7281311    207.12254 0.0089896937 0.0069736113         1231 
 1921000   0.47825026   -8.7204713    207.48786 0.0090008615 0.0069672565         1285 
 1922000   0.49659021   -8.7209313    207.32056 0.0089889246 0.0069609125         1243 
 1923000    0.4890264   -8.7190464    207.11326 0.0089752669 0.0069545747         1259 
 1924000   0.49011028    -8.729038    207.08227 0.0089692599 0.0069482397         1319 
 1925000   0.48831518    -8.734713    207.05634 0.0089634781 0.0069419179         1292 
 1926000   0.49406675   -8.7177487    207.15158 0.0089629446 0.0069355985         1258 
 1927000   0.48725418   -8.7184846    207.19794 0.0089602983 0.0069292888         1239 
 1928000   0.48353812   -8.7350273    207.27167 0.0089588378 0.0069229827         1265 
 1929000   0.48830163   -8.7315365    207.04251 0.0089442935  0.006916686         1258 
 1930000   0.47804143   -8.7283831    207.00988 0.0089382505    0.0069104         1291 
 1931000    0.4902597   -8.7330882    207.09256 0.0089371895 0.0069041115         1276 
 1932000   0.48121451    -8.737063    207.04467 0.0089304982 0.0068978384         1271 
 1933000   0.47334242   -8.7086311    207.16237 0.0089309524  0.006891575         1217 
 1934000   0.49256952   -8.7252468    207.51852 0.0089416805 0.0068853149         1198 
 1935000   0.47953768   -8.7139764    207.24645 0.0089253426 0.0068790609         1218 
 1936000   0.47584369   -8.7149929    207.34508 0.0089249777 0.0068728161         1249 
 1937000   0.47719428   -8.7239857     207.2132 0.0089146962 0.0068665783         1202 
 1938000    0.4691176   -8.7211035    206.62933 0.0088849902 0.0068603468         1096 
 1939000   0.47213192   -8.7190794    207.14838 0.0089027155 0.0068541271         1228 
 1940000   0.48528739   -8.7062813    207.32145 0.0089055607 0.0068479146         1258 
 1941000    0.4803754   -8.7319418    206.80737 0.0088789014 0.0068417086         1257 
 1942000   0.48416381   -8.7245986    206.87815 0.0088773665 0.0068355157         1189 
 1943000   0.47756936   -8.7239104    207.11125 0.0088827953 0.0068293219         1312 
 1944000   0.47408066   -8.7437623    206.99209 0.0088731176 0.0068231359         1258 
 1945000   0.47137741   -8.7312579     207.0912 0.0088728022 0.0068169545         1316 
 1946000   0.48148753   -8.7246013    207.27103 0.0088759435 0.0068107825         1198 
 1947000   0.47448894   -8.7291923    206.96639 0.0088583458 0.0068046186         1111 
 1948000   0.47468567   -8.7439014      207.112 0.0088600275 0.0067984667         1349 
 1949000   0.48223288   -8.7413014    206.91562 0.0088470847 0.0067923198         1326 
 1950000   0.47182591   -8.7275757    207.15856 0.0088529298 0.0067861778         1274 
 1951000   0.46084017   -8.7525777    207.30939 0.0088548345 0.0067800468         1235 
 1952000   0.47237268    -8.742116    207.05398 0.0088393947 0.0067739224         1239 
 1953000   0.46231182   -8.7364081     206.9237 0.0088293097 0.0067678093         1264 
 1954000    0.4787638   -8.7392954    206.93271 0.0088251754  0.006761702         1251 
 1955000   0.46926708   -8.7404134    207.25032 0.0088341995 0.0067555924         1274 
 1956000   0.45784884    -8.738231    206.81457 0.0088111182 0.0067494965         1295 
 1957000   0.47631283   -8.7285222    206.92977 0.0088115215 0.0067434069         1321 
 1958000    0.4750632   -8.7398228    207.02909 0.0088112482 0.0067373225         1288 
 1959000   0.47096755   -8.7352823    207.24274 0.0088158388 0.0067312475         1281 
 1960000   0.47225752   -8.7481425     207.0223 0.0088019684  0.006725182         1250 
 1961000   0.49300864   -8.7427936    206.80489  0.008788241 0.0067191263         1254 
 1962000   0.47594851   -8.7359053    206.62267 0.0087760222 0.0067130676         1302 
 1963000    0.4725703   -8.7372522    206.94309 0.0087851542 0.0067070217         1296 
 1964000   0.47280684   -8.7541825     207.0103 0.0087835327 0.0067009812         1249 
 1965000   0.47269453   -8.7484582    207.23283 0.0087884999 0.0066949556         1237 
 1966000   0.45991948   -8.7513861    206.92835 0.0087711235 0.0066889277         1219 
 1967000   0.47099749   -8.7582127    207.01906 0.0087705075 0.0066829059         1307 
 1968000   0.46816578   -8.7317091    207.13061 0.0087707743 0.0066768944          811 
 1969000   0.45528863   -8.7641755    206.90609 0.0087568177  0.006670886         1299 
 1970000   0.47227197   -8.7792107    206.59423 0.0087391807 0.0066648826         1274 
 1971000   0.46913947   -8.7447465     206.7336 0.0087406393 0.0066588881         1284 
 1972000   0.47850391   -8.7400188    206.93749 0.0087448228 0.0066529043         1250 
 1973000   0.46183512   -8.7564453    206.80551 0.0087348163 0.0066469258         1289 
 1974000   0.46850855    -8.746361    206.83876 0.0087317952 0.0066409577         1345 
 1975000   0.47615284   -8.7524417    206.62482  0.008718347 0.0066349946         1284 
 1976000    0.4641076   -8.7400244    206.90766  0.008725863 0.0066290374         1263 
 1977000   0.46560466   -8.7507662    206.62226 0.0087094192 0.0066230929         1284 
 1978000   0.46204236   -8.7710182    207.02395 0.0087219394 0.0066171526         1319 
 1979000   0.46253252   -8.7695266    206.84482 0.0087099889 0.0066112259         1305 
 1980000   0.45960891   -8.7557949    206.78501 0.0087030729 0.0066052995         1292 
 1981000   0.46848629   -8.7559235    206.64087  0.008692616 0.0065993791         1302 
 1982000   0.46740619   -8.7702033    206.87568  0.008698103 0.0065934684         1324 
 1983000   0.46347509   -8.7489629    206.74792 0.0086883478 0.0065875642         1297 
 1984000   0.47451903   -8.7571782    206.78343 0.0086854598 0.0065816698         1309 
 1985000   0.46205764   -8.7581195    206.54238 0.0086709649 0.0065757803         1248 
 1986000   0.46086838   -8.7605213    207.00121 0.0086858512 0.0065698971         1308 
 1987000   0.46712359   -8.7540106    206.79051 0.0086726436 0.0065640187         1293 
 1988000   0.46651211   -8.7464974     206.6304 0.0086615694 0.0065581483         1188 
 1989000    0.4515557   -8.7478384    206.99624 0.0086725423 0.0065522877         1327 
 1990000   0.45720317   -8.7518135    206.63289 0.0086529686 0.0065464371         1307 
 1991000   0.45802372   -8.7571273    206.93689 0.0086613464 0.0065405945         1302 
 1992000   0.45864152    -8.759933    206.87807 0.0086545379 0.0065347581         1276 
 1993000   0.44531612   -8.7834087    206.68883 0.0086422825 0.0065289213         1260 
 1994000    0.4564693   -8.7623974    206.85495 0.0086448909 0.0065230968         1240 
 1995000   0.46128396   -8.7581162    206.50845  0.008626084 0.0065172765         1163 
 1996000   0.44789615   -8.7421935     206.7924 0.0086336172 0.0065114658         1207 
 1997000   0.46454229   -8.7678213    206.87394 0.0086326964 0.0065056573         1264 
 1998000   0.44787754   -8.7681214    206.58434 0.0086162971 0.0064998596         1231 
 1999000    0.4631621   -8.7621469    206.69485 0.0086165938 0.0064940699         1302 
 2000000   0.46029904   -8.7484123    207.09193 0.0086288304 0.0064882958         1251 
 2001000   0.45803625   -8.7640289    207.37943 0.0086364912 0.0064825221         1237 
 2002000   0.45613079   -8.7624278    207.03259   0.00861774 0.0064767574         1242 
 2003000   0.45526257   -8.7534844    206.84772 0.0086057462 0.0064709939         1241 
 2004000   0.46250599   -8.7588226    206.80151 0.0085995304 0.0064652368         1281 
 2005000   0.45438471   -8.7706191    206.58382 0.0085861937 0.0064594894         1263 
 2006000   0.45209079    -8.767722    206.51705 0.0085791398 0.0064537399         1269 
 2007000   0.45558597   -8.7593803    206.66904 0.0085811758 0.0064480011         1256 
 2008000   0.45495318    -8.789537    206.64774 0.0085760185 0.0064422746         1210 
 2009000   0.45574181   -8.7686237    206.87357 0.0085811171 0.0064365535         1319 
 2010000   0.44589864    -8.782528    206.46005 0.0085597038 0.0064308286         1293 
 2011000   0.45748878     -8.76804    206.86527  0.008572239 0.0064251132         1250 
 2012000   0.44000483   -8.7738582    206.74476 0.0085629873 0.0064194103         1248 
Loop time of 5214.21 on 48 procs for 2000000 steps with 4000 atoms

Performance: 66280.416 tau/day, 383.567 timesteps/s
99.4% CPU use with 48 MPI tasks x no OpenMP threads

MPI task timing breakdown:
Section |  min time  |  avg time  |  max time  |%varavg| %total
---------------------------------------------------------------
Pair    | 393        | 420.06     | 447.63     |  77.7 |  8.06
Neigh   | 36.714     | 38.031     | 40.872     |  13.0 |  0.73
Comm    | 340.24     | 371.81     | 399.82     |  80.6 |  7.13
Output  | 6.4104     | 6.4123     | 6.4565     |   0.3 |  0.12
Modify  | 4309.4     | 4330       | 4342.2     |  11.2 | 83.04
Other   |            | 47.91      |            |       |  0.92

Nlocal:        83.3333 ave          89 max          77 min
Histogram: 1 1 3 8 7 13 5 3 1 6
Nghost:        2420.54 ave        2441 max        2397 min
Histogram: 1 0 5 11 1 11 7 8 2 2
Neighs:        16754.9 ave       18769 max       14864 min
Histogram: 6 2 8 6 5 2 7 4 2 6
FullNghs:      33509.5 ave       35766 max       30863 min
Histogram: 1 1 2 13 7 6 6 4 3 5

Total # of neighbors = 1608457
Ave neighs/atom = 402.11425
Neighbor list builds = 106491
Dangerous builds = 0

#clear
#
#next RN
#
#jump SELF
Total wall time: 1:26:57
