
units lj                  # Use reduced LJ style units
atom_style atomic         # Uncharged point particles
atom_modify map hash      # Needed for indexing of clusters etc
                          # Used to be able to find where atoms are in relation to each other.

lattice fcc 1.0 spacing 1 1 1
Lattice spacing in x,y,z = 1.5874011 1.5874011 1.5874011
region box block 0 10 0 10 0 10 units lattice
create_box 2 box
Created orthogonal box = (0.0000000 0.0000000 0.0000000) to (15.874011 15.874011 15.874011)
  3 by 4 by 4 MPI processor grid
create_atoms 1 box
Created 4000 atoms
  using lattice units in orthogonal box = (0.0000000 0.0000000 0.0000000) to (15.874011 15.874011 15.874011)
  create_atoms CPU = 0.017 seconds
set type 1 type/fraction 2 0.33 78393
Setting atom values ...
  1342 settings made for type/fraction
mass 1 1.0
mass 2 1.0
pair_style lj/cut  3.5
pair_modify tail  yes
pair_coeff 1  1  1.0  1.0   # Intearaction between 1 and 1 set with epsilon = 1 and sigma = 1
pair_coeff 1  2  1.5  0.8
pair_coeff 2  2  0.5  0.88

write_data data.0
System init for write_data ...
Neighbor list info ...
  update every 1 steps, delay 10 steps, check yes
  max neighbors/atom: 2000, page size: 100000
  master list distance cutoff = 3.8
  ghost atom cutoff = 3.8
  binsize = 1.9, bins = 9 9 9
  1 neighbor lists, perpetual/occasional/extra = 1 0 0
  (1) pair lj/cut, perpetual
      attributes: half, newton on
      pair build: half/bin/atomonly/newton
      stencil: half/bin/3d
      bin: standard
WARNING: Not all mixed pair coeffs generated from mixing. Use write_data with 'pair ij' option to store all pair coeffs. (../write_data.cpp:312)


#############################
#   M E L T   S Y S T E M   #
#############################

velocity all create 2.4 9622624 mom yes dist gaussian # Assign velocities
                                                    # Temperature 2.4, random number seed, zero linear momentum
                                                                                # Gaussian distribution

timestep 0.002   # simulation timestep
thermo 1000       # output thermodynamic data every 1000 steps bf 100

# Define a fix  in this case with index 1 applied to all
# particles in the simulation. This fix is for simulations
# in the anisotropic NPT ensemble. Note that we use the MTK
# correction.
fix 1 all npt temp 2.4 2.4 0.1 iso 5.68 5.68 0.5 mtk yes tchain 5 pchain 5 # Use NPT ensemble
                                                                         # Set temperature and pressure and damping
                                                                         # Numbers of thermostats in chain and in barostat
run 10000          # run for 10000 steps
Per MPI rank memory allocation (min/avg/max) = 3.642 | 3.644 | 3.648 Mbytes
Step Temp E_pair E_mol TotEng Press Volume 
       0          2.4   -6.2616635            0   -2.6625635   -4.0519521         4000 
    1000    2.3814064   -5.0122177            0   -1.4410012    5.6372734      4076.78 
    2000    2.4199396   -5.0412394            0   -1.4122374    5.8530746    4039.7312 
    3000    2.4047058   -4.9763683            0   -1.3702113    5.7748255    4077.4264 
    4000    2.3945682   -4.9673329            0   -1.3763786    5.3951705    4115.3037 
    5000    2.3897993    -5.065077            0   -1.4812743    5.8264575    4031.0743 
    6000    2.3955308   -4.9664577            0   -1.3740598    5.4069896     4110.586 
    7000    2.4142023    -4.985844            0   -1.3654458    5.9269912    4069.5034 
    8000    2.4106068   -5.0018168            0   -1.3868107    5.7973772    4066.7108 
    9000    2.3761468   -5.0143774            0   -1.4510483    5.3957853    4096.3535 
   10000    2.4056707   -5.0504052            0   -1.4428012    5.3514507    4077.0637 
Loop time of 2.39531 on 48 procs for 10000 steps with 4000 atoms

Performance: 721410.512 tau/day, 4174.829 timesteps/s
99.7% CPU use with 48 MPI tasks x no OpenMP threads

MPI task timing breakdown:
Section |  min time  |  avg time  |  max time  |%varavg| %total
---------------------------------------------------------------
Pair    | 1.0592     | 1.129      | 1.2193     |   3.4 | 47.14
Neigh   | 0.20159    | 0.21242    | 0.22575    |   0.9 |  8.87
Comm    | 0.68766    | 0.81099    | 0.8908     |   4.6 | 33.86
Output  | 0.00023737 | 0.00024098 | 0.00030796 |   0.0 |  0.01
Modify  | 0.20157    | 0.22777    | 0.25178    |   3.2 |  9.51
Other   |            | 0.01486    |            |       |  0.62

Nlocal:        83.3333 ave          94 max          76 min
Histogram: 4 6 8 8 7 3 5 3 3 1
Nghost:        1620.33 ave        1646 max        1586 min
Histogram: 1 3 2 6 5 8 5 9 4 5
Neighs:        9360.33 ave       10884 max        8196 min
Histogram: 3 7 7 4 9 4 8 0 5 1

Total # of neighbors = 449296
Ave neighs/atom = 112.32400
Neighbor list builds = 906
Dangerous builds = 210

# Equilibrate just above the melting temperature to avoid step fn in T

fix 1 all npt temp 1.25 1.25 0.1 iso 5.68 5.68 0.5 mtk yes tchain 5 pchain 5
run 2000
Per MPI rank memory allocation (min/avg/max) = 3.643 | 3.645 | 3.649 Mbytes
Step Temp E_pair E_mol TotEng Press Volume 
   10000    2.4056707   -5.0504052            0   -1.4428012    5.3514507    4077.0637 
   11000    1.2716723   -6.8926216            0     -4.98559    5.6925982     3273.002 
   12000     1.262125   -6.9660397            0   -5.0733255    5.6401579    3252.1173 
Loop time of 0.585422 on 48 procs for 2000 steps with 4000 atoms

Performance: 590343.531 tau/day, 3416.340 timesteps/s
99.6% CPU use with 48 MPI tasks x no OpenMP threads

MPI task timing breakdown:
Section |  min time  |  avg time  |  max time  |%varavg| %total
---------------------------------------------------------------
Pair    | 0.24942    | 0.27624    | 0.30719    |   2.3 | 47.19
Neigh   | 0.037377   | 0.040387   | 0.044242   |   0.6 |  6.90
Comm    | 0.18284    | 0.21763    | 0.24973    |   2.9 | 37.18
Output  | 5.0698e-05 | 5.2226e-05 | 6.7605e-05 |   0.0 |  0.01
Modify  | 0.04201    | 0.046564   | 0.053222   |   1.4 |  7.95
Other   |            | 0.004551   |            |       |  0.78

Nlocal:        83.3333 ave          90 max          77 min
Histogram: 4 1 4 10 4 10 6 5 2 2
Nghost:        1887.23 ave        1912 max        1861 min
Histogram: 2 2 3 8 6 10 8 4 2 3
Neighs:        11750.3 ave       13070 max       10615 min
Histogram: 3 6 3 8 9 5 4 7 0 3

Total # of neighbors = 564014
Ave neighs/atom = 141.00350
Neighbor list builds = 144
Dangerous builds = 12

#############################
# L I N E A R  Q U E N C H  #
#############################

# Define solid atoms. This closely follows ten Wolde  Ruiz-Montero and Frenkel  Faraday Discuss  1996  104  93-110
# Compute components of the per-atom q6 vector
compute q6 all orientorder/atom degrees 1 6 components 6 nnn NULL cutoff 1.3 # compute the Q6 parameter.
                                                                             # Use all neighbours within 1.3 unit cell.

# get number of connections
compute coord_number all coord/atom orientorder q6 0.5

# An atom is solid if it has 8 or more connections (of a possible 14)
variable is_solid atom c_coord_number>=8
group solid dynamic all var is_solid    # Must be dynamic to update
dynamic group solid defined

# do clustering
compute cluster solid cluster/atom 1.3 # Create a cluster where all atoms within are solid and max 1.3 units from another member

# define chunks one chunk per cluster
compute clus_chunks solid chunk/atom c_cluster nchunk every compress yes  # Says which atoms are in which chunk

# count the size of each chunk
compute size_chunks solid property/chunk clus_chunks count


# Find the maximum entry in the vector of chunk sizes
variable max_n equal max(c_size_chunks)


# Thermo style which includes this variable
# thermo_style custom step temp pe vol v_max_n

thermo ${N}  # Print the thermo information every 100 steps
thermo 1000  

# Reset the npt fix at a lower temperature (below freezing)
fix 1  all npt temp  ${temp} ${temp}  0.1  iso  5.68  5.68  0.5  mtk yes tchain  5  pchain  5
fix 1  all npt temp  0.45 ${temp}  0.1  iso  5.68  5.68  0.5  mtk yes tchain  5  pchain  5
fix 1  all npt temp  0.45 0.45  0.1  iso  5.68  5.68  0.5  mtk yes tchain  5  pchain  5

dump dmp2 all dcd ${N} traj.dcd
dump dmp2 all dcd 1000 traj.dcd


compute msd all msd com yes
variable twopoint equal c_msd[4]/6/(step*dt+1.0e-6)
fix 9 all vector 10 c_msd[4]
variable fit equal slope(f_9)/6/(10*dt)
thermo_style custom step temp pe c_msd[4] v_twopoint v_fit v_max_n

fix 1 all npt temp 1.25 ${temp} 0.1 iso 5.68 5.68 0.5 mtk yes tchain 5 pchain 5
fix 1 all npt temp 1.25 0.45 0.1 iso 5.68 5.68 0.5 mtk yes tchain 5 pchain 5
run 2000000 # 5000000  # Run for this many steps
Neighbor list info ...
  update every 1 steps, delay 10 steps, check yes
  max neighbors/atom: 2000, page size: 100000
  master list distance cutoff = 3.8
  ghost atom cutoff = 3.8
  binsize = 1.9, bins = 8 8 8
  4 neighbor lists, perpetual/occasional/extra = 1 3 0
  (1) pair lj/cut, perpetual
      attributes: half, newton on
      pair build: half/bin/atomonly/newton
      stencil: half/bin/3d
      bin: standard
  (2) compute orientorder/atom, occasional
      attributes: full, newton on
      pair build: full/bin/atomonly
      stencil: full/bin/3d
      bin: standard
  (3) compute coord/atom, occasional
      attributes: full, newton on
      pair build: full/bin/atomonly
      stencil: full/bin/3d
      bin: standard
  (4) compute cluster/atom, occasional
      attributes: full, newton on
      pair build: full/bin/atomonly
      stencil: full/bin/3d
      bin: standard
Per MPI rank memory allocation (min/avg/max) = 9.817 | 9.821 | 9.825 Mbytes
Step Temp PotEng c_msd[4] v_twopoint v_fit v_max_n 
   12000     1.262125   -6.9660397 8.4487003e-31 5.8671527e-33 8.3333333e+20            2 
   13000    1.2507919   -6.9555782   0.50745653 0.0032529264  0.041541106            2 
   14000    1.2366497   -6.9694759    1.0145362 0.0060389058  0.041410785            1 
   15000    1.2334816   -6.9169261    1.5172361 0.0084290889  0.042085103            2 
   16000    1.2453958   -6.9445963    1.9298575  0.010051341  0.040849799            5 
   17000    1.2508956   -6.9709614    2.3758594  0.011646369   0.03943723            1 
   18000    1.2713304   -6.9787795    2.8315348  0.013108957  0.038825165            1 
   19000    1.2529522   -6.9534736    3.2667582  0.014327886  0.038409186            1 
   20000    1.2071809   -6.9549735    3.7708859  0.015712024  0.038359015            2 
   21000    1.2370402   -6.9492796    4.1825289  0.016597337  0.038288506            1 
   22000    1.2404208   -6.9371201    4.6014584  0.017429766  0.038066453            2 
   23000    1.2146497   -6.9572785    5.0226554  0.018198026  0.037802365            1 
   24000    1.2204175   -6.9332566    5.5045482  0.019113014  0.037631015            1 
   25000    1.2715131   -6.9845344    6.0470306  0.020156768  0.037716148            1 
   26000    1.2417831   -6.9413697    6.5167582  0.020887045  0.037912948            4 
   27000    1.2421935   -6.9535507    7.0585534  0.021785658  0.038127228            1 
   28000    1.2593246   -7.0144141    7.6570328  0.022788788  0.038450767            1 
   29000    1.2495628     -6.99336    8.2317112  0.023654342   0.03891126            1 
   30000      1.24335   -6.9860317    8.6679672  0.024077686  0.039283928            1 
   31000     1.237593   -6.9496357      9.22282  0.024792526  0.039587736       -1e+20 
   32000     1.242446   -6.9571625    9.6811156  0.025211238  0.039814484            2 
   33000    1.2464527   -6.9555125    10.198757  0.025754436  0.039984231            1 
   34000    1.2583396   -6.9620878    10.746051  0.026338361  0.040198923            1 
   35000    1.2186069    -6.929573     11.22655  0.026729881  0.040398201            1 
   36000    1.2518371   -6.9361598    11.635543  0.026934126  0.040536664            1 
   37000    1.2121851   -6.9672361     12.02963   0.02709376  0.040518837            2 
   38000    1.2369812   -6.9573895    12.457288  0.027318614  0.040467322            1 
   39000    1.2315068   -6.9899253    12.937713  0.027644685  0.040431211            1 
   40000    1.2361399   -6.9833942    13.367448  0.027848849  0.040385674            1 
   41000    1.2295866   -6.9417362    13.818702  0.028086792  0.040311779            1 
   42000    1.2027674   -7.0225593    14.287755  0.028348719  0.040243194            1 
   43000    1.2547312   -7.0008281     14.65461  0.028400407  0.040161076            3 
   44000    1.2318652   -6.9590145    15.022461  0.028451631  0.040023359            1 
   45000    1.2373047   -6.9709685     15.59669  0.028882759  0.039878415            1 
   46000    1.2471402   -7.0058994    15.934826  0.028867437   0.03978193            1 
   47000    1.2235992   -6.9813518    16.355278  0.028998719  0.039671526            1 
   48000    1.2465937    -6.939728    16.688445  0.028972994    0.0395263            1 
   49000    1.2456551   -6.9558338    17.061486  0.029016133  0.039355708            1 
   50000    1.2004577   -7.0117732     17.44488  0.029074799  0.039210384            1 
   51000    1.2065448   -6.9877967    17.930431   0.02929809  0.039070228            2 
   52000    1.2036758   -7.0143973    18.383371   0.02946053  0.038932092            1 
   53000    1.2538328   -6.9726402    18.980928  0.029844226  0.038824457            1 
   54000    1.2511816   -6.9751354    19.420144  0.029969358  0.038744254            1 
   55000    1.2456624   -6.9503519    19.896015  0.030145477  0.038673373            1 
   56000    1.2602056    -7.004576    20.225936  0.030098119  0.038614062            1 
   57000    1.2284254   -7.0237075    20.651701  0.030192545  0.038539172            1 
   58000     1.210332   -6.9896377     21.10584  0.030324483   0.03846375            2 
   59000    1.2808917   -6.9744022    21.367097  0.030179516  0.038371426            1 
   60000     1.205183    -7.005238    21.775609  0.030243901  0.038261928            1 
   61000    1.2686162   -7.0020441    22.259795  0.030409556  0.038171087            2 
   62000    1.2346458   -7.0097332    22.691162  0.030498874   0.03809109            1 
   63000    1.2511121   -6.9740237     23.05116  0.030490953   0.03799912            1 
   64000    1.2499765   -6.9997277    23.474781  0.030566121  0.037904741            1 
   65000    1.2784457   -6.9494277    23.976331  0.030738886  0.037821401            1 
   66000    1.1749075   -7.0209743    24.328646  0.030717987   0.03774783            3 
   67000    1.2194527   -7.0174323    24.836342  0.030890972  0.037677252            1 
   68000    1.2214032   -7.0033119    25.254734  0.030949428  0.037617732            2 
   69000    1.2069395   -7.0100907    25.610218  0.030930215  0.037551607       -1e+20 
   70000    1.2303149   -7.0090107    26.008513  0.030962515  0.037484466            1 
   71000    1.1935628   -6.9876639    26.482025  0.031082189  0.037419068            1 
   72000    1.2203716   -7.0107348    26.812703  0.031033221  0.037344071            1 
   73000    1.2240113   -7.0327023    27.026966  0.030852701  0.037263122            1 
   74000    1.2265111   -7.0455759    27.552342  0.031027412  0.037186344            1 
   75000    1.1993549   -7.0007676    28.116198   0.03124022  0.037118376            2 
   76000    1.2090693   -7.0724852    28.516091  0.031267643  0.037068161            4 
   77000    1.2313421   -7.0553445    29.079431  0.031471246  0.037024294            1 
   78000    1.2086953   -6.9820835    29.721963  0.031754234  0.036999428            2 
   79000    1.2302164   -7.0276985    30.215625  0.031873022  0.036990437            2 
   80000    1.2269306   -7.0227015    30.571135  0.031844932  0.036977015            2 
   81000    1.2049018   -6.9851362    31.150357  0.032047692  0.036968475            1 
   82000     1.251242    -6.986578    31.717854  0.032233591  0.036961013            2 
   83000    1.2287759   -7.0487287    31.949474  0.032077785  0.036957736            2 
   84000    1.2245673   -7.0336277    32.440968    0.0321835  0.036953234            1 
   85000    1.2201799   -7.0227838     32.78626  0.032143392  0.036950059            2 
   86000    1.2234628   -6.9872777    33.264125  0.032232679  0.036941811            1 
   87000    1.2610291   -7.0382259    33.556301  0.032142051  0.036926358            1 
   88000    1.2232188   -7.0348582    34.069533  0.032262815  0.036906899            5 
   89000     1.230879   -7.0573775    34.564506   0.03236377  0.036894421            1 
   90000    1.2388422   -7.0367921    34.891995  0.032307402  0.036880469            1 
   91000    1.2297075    -7.049882    35.280393  0.032308052  0.036870498            2 
   92000    1.2184166   -7.0187628    35.898303  0.032516579  0.036858481            1 
   93000    1.2235286   -7.0315785    36.017698  0.032273923  0.036840759            3 
   94000    1.2028529   -7.0344301     36.33585  0.032212633  0.036814687            1 
   95000    1.1902428   -7.0714111    36.767116  0.032251856   0.03678852            1 
   96000    1.2260611   -7.0957695    37.158419  0.032255571   0.03675877            2 
   97000    1.2205553   -7.0210204    37.649204  0.032344676  0.036734348            1 
   98000    1.2234642     -7.00881    38.152368   0.03244249  0.036707851            2 
   99000    1.2097823   -7.0218061    38.449179  0.032364629  0.036685098            1 
  100000    1.2139162   -7.0195838    39.026338  0.032521949  0.036664806            1 
  101000    1.1835135   -7.0013458    39.388365  0.032498651  0.036641266            1 
  102000    1.2062955   -7.0250546    39.671323  0.032411211  0.036610199            2 
  103000     1.230846   -7.0240702    40.245083  0.032560747  0.036584631            1 
  104000    1.1959163   -7.0579988    40.392977  0.032366167  0.036556441            4 
  105000    1.2212869   -7.0130854    40.770421  0.032357476  0.036525633            1 
  106000    1.2031617   -7.0470732    41.385646  0.032535885  0.036497903            1 
  107000    1.2088608   -7.0898712    41.711831   0.03248585  0.036466526            2 
  108000    1.2178462   -7.0569765    42.185224  0.032550327  0.036441113            2 
  109000    1.2179235   -7.0255753    42.633272  0.032594245  0.036413088            1 
  110000    1.1883285   -7.0776041    42.961324  0.032546457  0.036383134            3 
  111000    1.1937527   -7.0988904    43.361922  0.032553995  0.036358821            2 
  112000    1.1985807   -7.0275938    44.000797  0.032738688  0.036341513            1 
  113000    1.2100189   -7.0588518    44.417108  0.032755979   0.03632712            3 
  114000    1.2231384   -7.0710544    44.615626  0.032613761  0.036306208            1 
  115000     1.194418   -7.0364258    45.361538  0.032870679  0.036289122            2 
  116000    1.2079427   -7.0561733    45.777536  0.032886161  0.036277983            3 
  117000     1.202086   -7.0342692    46.273817  0.032958559  0.036269422            4 
  118000    1.2243846   -7.0405854    46.693505  0.032975639  0.036259164            1 
  119000     1.218976   -7.0458068    47.371981  0.033173656  0.036253582            1 
  120000    1.2177717    -7.031226    47.987382  0.033324571  0.036256614            1 
  121000    1.2187341   -6.9813795    48.745696  0.033571416   0.03627041            1 
  122000    1.1889592   -7.0716695    48.898064  0.033400317  0.036285641            1 
  123000    1.1938436   -7.0374304    49.600759   0.03360485  0.036301153            2 
  124000     1.201542    -7.062973    49.942101   0.03356324  0.036320689            1 
  125000    1.2122394   -7.0672366    50.276868  0.033517912   0.03633738            1 
  126000    1.1720164   -7.0575341    50.589075  0.033458383  0.036346777            2 
  127000    1.1923814   -7.0455463    50.857268   0.03337091  0.036349946            2 
  128000    1.2118231   -7.0538855    51.334056  0.033420609  0.036348952            1 
  129000    1.2227196   -7.1029859    51.486964  0.033260312  0.036344213            2 
  130000    1.2125152    -7.018536    52.026281   0.03335018  0.036338069            1 
  131000    1.2307883    -7.045709    52.537439  0.033420763   0.03633034            3 
  132000    1.1940733   -7.0458007    52.506607   0.03314811  0.036314739            2 
  133000    1.2024698   -7.0482101    53.002859  0.033209811  0.036298534            2 
  134000    1.1971426   -7.0540316    53.198616  0.033083716  0.036281638            1 
  135000    1.2157383    -7.098081    53.449919  0.032993777  0.036257604            1 
  136000     1.218212   -7.0331692    53.822635  0.032979556  0.036231289            2 
  137000    1.2294858   -7.0491799    54.394876  0.033086907  0.036208776            2 
  138000    1.1908804   -7.0740538    54.910338  0.033158417  0.036189062            1 
  139000    1.1852031   -7.0794277    55.045693  0.033001015  0.036168179            1 
  140000    1.1825518   -7.0747642    55.612967  0.033102957  0.036148052            2 
  141000    1.1695381   -7.0661978    55.883703  0.033028193  0.036125338            1 
  142000    1.1980029   -7.0449819    56.564204  0.033194956  0.036101343            1 
  143000    1.1863604   -7.0711633    56.849341  0.033128987  0.036081443            1 
  144000    1.1865253   -7.0423596    57.389509  0.033211521   0.03606497            1 
  145000    1.1990379   -7.0884846    58.103995    0.0333931  0.036051974            2 
  146000    1.1919912   -7.0535268    58.427119  0.033348812  0.036041287            1 
  147000    1.1830313   -7.0491962    58.663644  0.033256034  0.036030483            2 
  148000    1.1813365    -7.099712    58.806061  0.033111521  0.036013821            2 
  149000     1.218227   -7.0622331    59.385076   0.03321313  0.035994687            2 
  150000    1.1762104   -7.0501015    59.724126   0.03318007  0.035975677            2 
  151000    1.2028846   -7.0917998    59.866869  0.033039111  0.035952565            1 
  152000    1.1896894   -7.0492354    60.386525  0.033106647  0.035929928            1 
  153000     1.202278   -7.0935235    60.889986   0.03316448   0.03590948            2 
  154000    1.1850281   -7.1130123    61.419692  0.033235764  0.035886976            1 
  155000    1.1891379   -7.0631033    61.578424  0.033106679  0.035868164            2 
  156000    1.1863974   -7.0917473    62.054254   0.03314864  0.035844434            1 
  157000    1.2098325   -7.1064895    62.271026  0.033052561  0.035823853            2 
  158000    1.1971546   -7.1100396    62.899749  0.033174973  0.035805298            2 
  159000    1.1796988   -7.0817565    63.213694  0.033130867  0.035783827            1 
  160000    1.1777857   -7.1119131    63.505802  0.033075938  0.035761596            1 
  161000    1.1688932   -7.1086636    63.897058  0.033073011  0.035740001            2 
  162000    1.1879761   -7.1185098    64.469953  0.033163556  0.035717782            2 
  163000    1.1859196    -7.081927    64.782514  0.033119894  0.035694469            1 
  164000     1.190359   -7.0946358    65.274723   0.03316805  0.035672108            2 
  165000     1.212163   -7.0645108     65.75068  0.033207414  0.035651755            3 
  166000    1.2040297   -7.0776373    66.024875  0.033145017  0.035631273            1 
  167000    1.1710496   -7.0572407    66.460231  0.033163788  0.035611847            1 
  168000    1.1983097   -7.0742657    66.984322   0.03322635  0.035593079            3 
  169000    1.1448965   -7.1229736    67.375344  0.033222556  0.035574976            2 
  170000    1.2046026   -7.1252382    67.573468  0.033124249   0.03555435            1 
  171000    1.1930261   -7.0664057    67.818212  0.033049811  0.035531331            2 
  172000    1.2000484   -7.1309697    68.301196  0.033091665  0.035507902            4 
  173000    1.2103615     -7.08386     68.66412  0.033075202   0.03548597            1 
  174000    1.2058467   -7.0855996    69.357467  0.033217178   0.03546773            2 
  175000     1.194359   -7.1303682     69.41333  0.033053967  0.035450916            1 
  176000    1.1767011   -7.0979523    70.134827  0.033207778  0.035434735            1 
  177000    1.1761219   -7.1144438    70.454501  0.033170669   0.03541756            1 
  178000    1.1716598   -7.1153766    70.792364  0.033142492  0.035397991            1 
  179000    1.1805132   -7.0727665    71.161807  0.033129333  0.035378877            1 
  180000    1.1662901   -7.0769089    71.531139  0.033116268    0.0353586            4 
  181000    1.1943228   -7.0703512    71.912455  0.033108865  0.035338682            2 
  182000    1.2072598   -7.1215572    72.199578  0.033058415  0.035318414            2 
  183000    1.1934403   -7.0992843    72.368672  0.032954769  0.035299397            3 
  184000    1.1940139   -7.0961107    73.121986  0.033116841  0.035280278            1 
  185000    1.1912247   -7.0783576    73.453523  0.033087172  0.035261628            1 
  186000    1.1937692   -7.1407939    73.547467  0.032951374  0.035244097            1 
  187000    1.1881366   -7.1035755    74.114631   0.03302791  0.035222722            2 
  188000    1.1533496    -7.128529    74.503146  0.033024444  0.035204652            2 
  189000    1.1759768   -7.0721104    74.988545  0.033063732  0.035186882            1 
  190000    1.1924848   -7.1311567    75.407416  0.033073428  0.035169827            2 
  191000    1.1714814    -7.115054    76.223684  0.033256407  0.035155061            1 
  192000    1.1560099   -7.1324971    76.582049  0.033238737  0.035141964            2 
  193000    1.1672885   -7.1039145    76.785818  0.033154498  0.035129075            1 
  194000    1.1858568   -7.1324553    77.406236  0.033250101  0.035115623            1 
  195000    1.1729497   -7.1003273    77.820641  0.033256684  0.035104279            2 
  196000    1.1774111   -7.1415635    77.685261  0.033029448  0.035089031            2 
  197000    1.1747062   -7.1159264    78.273752  0.033110724  0.035073361            3 
  198000    1.1697109   -7.0963601    78.621537  0.033089872  0.035055836            2 
  199000    1.1818952   -7.0838909    79.037874  0.033097937  0.035038213            3 
  200000    1.1859878   -7.0805241    79.453795  0.033105748  0.035019241            1 
  201000     1.167286   -7.1013787    79.578837  0.032992884  0.035000102            3 
  202000    1.1998518   -7.1595231    79.976344  0.032993541  0.034980652            1 
  203000    1.1603745   -7.0872902    79.846051  0.032777525  0.034959092            2 
  204000    1.1638369    -7.106718    80.574234  0.032914311  0.034937404            2 
  205000    1.1574038   -7.0897764    81.059541  0.032951033  0.034915254            1 
  206000    1.1635594   -7.1092697    81.342009  0.032905343  0.034893567            3 
  207000    1.1880055   -7.0864208      81.4448  0.032787762  0.034871862            3 
  208000    1.1939063   -7.0883962    81.763345   0.03275775  0.034849944            1 
  209000    1.1656901   -7.0721777    82.257314  0.032797972  0.034826402            1 
  210000    1.1580908   -7.1124873    83.025838  0.032946761  0.034804846            2 
  211000     1.167366   -7.0775455    83.490692  0.032974207  0.034784943            2 
  212000    1.1588284   -7.1404179    84.058985  0.033042054  0.034768743            1 
  213000    1.1963979   -7.0728025    84.439883  0.033035948  0.034753777            1 
  214000    1.1896618   -7.1615918    84.531196  0.032917132   0.03473918            2 
  215000    1.1676283    -7.135817    84.957869  0.032929406  0.034722901            1 
  216000    1.1464598   -7.0850691     85.67138   0.03305223  0.034706927            1 
  217000    1.1782495   -7.1225638    85.991208  0.033022737  0.034690746            2 
  218000    1.1477282   -7.1608802    86.213433  0.032956205  0.034674592            2 
  219000    1.1688873   -7.1009461    86.285834   0.03283327  0.034657547            1 
  220000    1.1336449   -7.1290378    86.510503   0.03276913  0.034637844            1 
  221000    1.1624429   -7.1578828    86.997454   0.03280447   0.03461837            2 
  222000    1.1780205   -7.1440031    87.343731  0.032786686   0.03459863            2 
  223000    1.1577964   -7.1667245    87.535461  0.032711308  0.034578188            1 
  224000    1.1475284   -7.1269827    87.705182  0.032628416  0.034555905            1 
  225000    1.1929324   -7.1594381    88.177286  0.032658254  0.034533411            2 
  226000    1.1579604   -7.1430935    88.663959    0.0326932  0.034510593            2 
  227000    1.1792146    -7.159217    89.307361  0.032785375  0.034489575            2 
  228000    1.1695821   -7.1201535    89.850037  0.032839926  0.034470807            1 
  229000    1.1506529   -7.1183702    89.886756  0.032709882  0.034450418            1 
  230000     1.170917   -7.1298632    90.109192  0.032648258  0.034428898            2 
  231000    1.1718283    -7.194251    90.212623  0.032544236  0.034406724            3 
  232000    1.1556113   -7.1651529    90.596622   0.03254189  0.034384557            1 
  233000     1.162464   -7.1971989    90.985818  0.032541423  0.034361961            1 
  234000    1.1693988   -7.1299865    91.408327  0.032552823  0.034340412       -1e+20 
  235000    1.1607841   -7.1227069    92.247327  0.032711818  0.034319534            2 
  236000    1.1801873   -7.1722309    92.188323  0.032552374  0.034299022            2 
  237000    1.1623342    -7.159444    92.719145  0.032601668  0.034276583            1 
  238000    1.1505751   -7.1172771    93.287039  0.032663529   0.03425631            2 
  239000    1.1500009    -7.150314    93.513509  0.032605826  0.034237037            2 
  240000    1.1738466   -7.1209446    93.749569  0.032551933  0.034217474            2 
  241000    1.1474577   -7.1797823    94.297643  0.032606377    0.0341979            1 
  242000    1.1867636   -7.1377298     94.71181   0.03261426  0.034178733            1 
  243000    1.1658941   -7.1340217    94.910086   0.03254804  0.034159971            1 
  244000    1.1601571    -7.142037    95.096747  0.032478397    0.0341383            1 
  245000    1.1571382   -7.1654176    95.340508  0.032428744  0.034115715            2 
  246000    1.1526508   -7.1831978    95.698779  0.032418285  0.034094082            1 
  247000    1.1486346   -7.1285989    96.518422   0.03256357  0.034074221       -1e+20 
  248000    1.1225649   -7.1513215    96.691972  0.032490582  0.034055175            2 
  249000    1.1615182   -7.1269117    97.293601  0.032561446  0.034036857            2 
  250000    1.1514627   -7.1696202    97.665143  0.032555048  0.034019443            1 
  251000    1.1728068   -7.1786841    97.915075  0.032508325  0.034000668            1 
  252000    1.1605752   -7.1590738    97.853189  0.032358859  0.033981079            1 
  253000    1.1356631   -7.1481594    98.166807  0.032334258  0.033959439            2 
  254000    1.1532278   -7.1941136    98.359166  0.032270068  0.033937283            2 
  255000    1.1460215   -7.1465166    98.791877  0.032284927  0.033914504            2 
  256000    1.1404344   -7.1816499      99.1722  0.032282617  0.033891935            1 
  257000    1.1432465   -7.2255215    99.475071  0.032255211  0.033870084            2 
  258000    1.1587067   -7.1499055    100.24259  0.032378098   0.03384911            1 
  259000    1.1762993   -7.1956324    100.14796  0.032222639  0.033829231            1 
  260000    1.1557283    -7.201822    100.69996  0.032275627  0.033808418            1 
  261000    1.1396526    -7.163807     101.1312  0.032289656  0.033788341            1 
  262000    1.1450547   -7.1916423    101.50262  0.032284548   0.03376812            1 
  263000    1.1443198   -7.2232152    101.73892  0.032236666  0.033748603            5 
  264000    1.1467734   -7.1871244    101.95665  0.032183287  0.033729702            2 
  265000    1.1509571   -7.1461907    102.45735  0.032219292  0.033710473            1 
  266000    1.1439483   -7.1484831    103.09712  0.032298595  0.033690211            1 
  267000    1.1123092   -7.2321609    102.90164  0.032116616   0.03366925            1 
  268000    1.1595383   -7.2061414    103.74969  0.032260475  0.033648845            2 
  269000    1.1551776   -7.1821875    104.08724  0.032245117  0.033629157            1 
  270000    1.1493896   -7.1737016    104.02299   0.03210586  0.033610163            2 
  271000    1.1330141    -7.209066    104.40101   0.03210363  0.033590996            1 
  272000    1.1506717   -7.1697299    105.03532  0.032179939   0.03357358            2 
  273000    1.1259897   -7.1728164    105.55211  0.032219813  0.033555826            1 
  274000    1.1472381   -7.1917065     106.0542  0.032254926  0.033538365            2 
  275000    1.1458195    -7.181485    106.04896   0.03213605  0.033519846            4 
  276000    1.1337325   -7.1738133    106.88818  0.032273002  0.033502788            2 
  277000    1.1500039   -7.2001211    107.06981  0.032211135  0.033485028            2 
  278000    1.1781297   -7.1844449    107.85904  0.032331846  0.033469401            2 
  279000       1.1459   -7.2003482    107.81007  0.032201334  0.033452479            1 
  280000    1.1497853   -7.1630296     108.0344  0.032153095  0.033435938            1 
  281000    1.1488517   -7.2188649    108.47154  0.032168309  0.033419268            2 
  282000    1.1640513   -7.1176887    108.61779  0.032097456  0.033401005            1 
  283000    1.1201341   -7.1752205    108.79479  0.032036156  0.033382479            2 
  284000    1.1055852   -7.1768718    109.24187  0.032054538  0.033364191            1 
  285000    1.1377362   -7.2002891    109.75444  0.032091943  0.033345656            1 
  286000    1.1459745   -7.2167652    109.91582  0.032026754  0.033326677            2 
  287000    1.1309952   -7.2543352     109.7815  0.031876162   0.03330711            1 
  288000    1.1659596   -7.1570997    110.30163  0.031915982  0.033286925            1 
  289000    1.1267226   -7.2149957     110.6713  0.031912139  0.033265286            2 
  290000    1.1393483   -7.1591523    110.86216  0.031856941  0.033243596            1 
  291000     1.121422   -7.1875328    110.80872  0.031732165  0.033222685            1 
  292000    1.1619213   -7.2170205    111.38009  0.031786555  0.033200945            1 
  293000    1.1413778   -7.1653134    111.94336  0.031838272  0.033179213            2 
  294000    1.1602645   -7.2044475    112.23431  0.031812445   0.03315703            1 
  295000    1.1213437    -7.173799    112.51956  0.031785187  0.033134776            2 
  296000    1.1224605   -7.2148399    112.71675  0.031733318  0.033112281            1 
  297000     1.137221   -7.1985914    112.92862   0.03168592  0.033089382            1 
  298000    1.1479469   -7.1642693    113.38915  0.031708375  0.033066964            1 
  299000    1.1445691   -7.2400098    113.57863  0.031655137  0.033045058            1 
  300000    1.1447439    -7.219408    113.62431  0.031562308  0.033022733            1 
  301000    1.1351782   -7.1923278    114.02259  0.031567716  0.032998734            3 
  302000    1.1291036   -7.1655085    114.99098  0.031730403  0.032976861            1 
  303000    1.1608152   -7.1749269    114.53746  0.031500951   0.03295497            2 
  304000    1.1522889   -7.1963603    115.45313  0.031648335  0.032932531            1 
  305000     1.153927   -7.2060113     114.9133  0.031397076  0.032910751            1 
  306000    1.1340705    -7.231435    115.57277  0.031474065  0.032887528            1 
  307000    1.1380065   -7.2009956    116.56707  0.031641442  0.032866035            3 
  308000    1.1015737   -7.1896687    115.99561  0.031384094   0.03284357            1 
  309000    1.1190523   -7.1779672    116.72564  0.031479406  0.032820633            1 
  310000    1.1298929   -7.2475869    116.59993  0.031344067  0.032796729            1 
  311000    1.1233428   -7.1539117    116.98162  0.031345557  0.032772789            1 
  312000    1.1405238   -7.1914754    117.62423  0.031416727  0.032748121            2 
  313000    1.1063326   -7.2171863    117.64829  0.031322761  0.032723964            1 
  314000    1.1372149   -7.2427088    118.12462  0.031349422  0.032699133            1 
  315000     1.144781   -7.2168222    118.22692  0.031276964  0.032674294            2 
  316000    1.1561562   -7.1825825    118.55827  0.031265366  0.032650491            3 
  317000    1.1238953   -7.2309858    119.32248  0.031367633  0.032626939            3 
  318000    1.1405579   -7.2606305    119.25421  0.031251103  0.032603511            1 
  319000    1.1217288   -7.2113648     119.4646  0.031208098  0.032581076            2 
  320000    1.1276148   -7.2333421    119.88819  0.031220884  0.032558902            4 
  321000    1.1359034   -7.2280801    120.47332  0.031275524  0.032536568            2 
  322000    1.1250629   -7.2116653     120.8022   0.03126351  0.032515463            1 
  323000    1.1295701   -7.2135765    121.40511  0.031322268  0.032494686            2 
  324000    1.1323081   -7.2315388    121.66894  0.031293452  0.032473562            2 
  325000    1.1091673   -7.2298764    122.09502  0.031306416    0.0324533            2 
  326000    1.1324929   -7.2668189    122.18025   0.03123217   0.03243349            2 
  327000    1.1104227   -7.1906656    123.22108  0.031401907   0.03241488            2 
  328000    1.1117311   -7.2705665    123.41327  0.031354998  0.032396751            3 
  329000    1.1276648   -7.2131509    124.25951  0.031474039  0.032380217            2 
  330000    1.1153213   -7.2166391    124.79976   0.03151509  0.032365682            1 
  331000    1.1269295   -7.2549272    124.72342  0.031400661  0.032349879            2 
  332000    1.1398194   -7.2050903    125.84925  0.031588667  0.032335492            4 
  333000    1.1247232   -7.2288434    125.06766  0.031298214  0.032319337            2 
  334000    1.1313688   -7.2877584    125.67531  0.031356115  0.032303027            1 
  335000    1.1216047   -7.2533595    125.71387  0.031272106  0.032286481            1 
  336000    1.1450702   -7.1742267    126.70074  0.031423795  0.032269983            2 
  337000    1.1343444   -7.2497415    126.93017  0.031387282  0.032255737            1 
  338000    1.1330362   -7.2314794    127.18154  0.031356396  0.032241048            1 
  339000    1.1138045   -7.2376503     127.6366  0.031375763  0.032226311            1 
  340000     1.112826   -7.2285287    128.12538  0.031403279  0.032211386            2 
  341000    1.1009755   -7.2740118    128.22831  0.031336342   0.03219743            2 
  342000    1.1271124   -7.2615604    128.23562  0.031246495  0.032182645            1 
  343000    1.1458363   -7.2225402    129.23913  0.031399205  0.032168114            1 
  344000    1.0996393   -7.2150744    129.43898  0.031356342  0.032153319            1 
  345000    1.1045818   -7.2265821    129.76554  0.031344333  0.032137938            1 
  346000    1.1277009   -7.2744458    129.74037  0.031247681  0.032122448            1 
  347000    1.1134207   -7.2556988    130.33701  0.031300915  0.032107192            1 
  348000    1.0803545   -7.2672726    130.72197  0.031303153  0.032092255            2 
  349000    1.1057294    -7.236508    131.38403  0.031371545  0.032077458            1 
  350000    1.1315423   -7.2391464    131.31236  0.031264848  0.032063481            1 
  351000    1.0985622   -7.2954977    131.17578  0.031143348  0.032048275            3 
  352000    1.1074386   -7.2754364    131.56756  0.031147623  0.032032925            1 
  353000    1.1388417   -7.2785973    132.11084   0.03118764  0.032018111            2 
  354000    1.1022237   -7.2947461    132.25297  0.031132996  0.032002805            1 
  355000    1.1147407   -7.2567799    132.65825  0.031140433  0.031987262            2 
  356000    1.1100224   -7.2827985    132.30453  0.030970161  0.031969572            1 
  357000    1.1350554   -7.2332864    132.79717  0.030998405   0.03195159            1 
  358000    1.1260361    -7.275609    133.01882  0.030963413  0.031933992            4 
  359000    1.1039408   -7.2688694    133.83609  0.031066874  0.031916624            2 
  360000    1.1027202   -7.2616763    134.04712  0.031029425   0.03189968            1 
  361000    1.1164759   -7.2437098    134.44257  0.031034757  0.031882158            1 
  362000    1.1427855   -7.2852111    134.47989  0.030957618  0.031863905            1 
  363000    1.1375594   -7.2823477    135.21209  0.031040425  0.031846679            3 
  364000    1.1096368   -7.2554731    135.31963  0.030979768  0.031829762            2 
  365000    1.1134007    -7.260718    135.12479  0.030850408  0.031811852            1 
  366000    1.0986677   -7.3007296    135.16605  0.030775513   0.03179473            2 
  367000    1.1110045   -7.2721328     136.0721  0.030897389  0.031776503            1 
  368000    1.1059204   -7.2954105    136.02406  0.030802549  0.031758532            1 
  369000    1.1153667   -7.2841813    136.51005  0.030828828  0.031740413            3 
  370000    1.0881485   -7.3250318    136.29132  0.030696243  0.031722134            1 
  371000    1.1028883   -7.2548207    136.61718  0.030686699  0.031703479            2 
  372000    1.0877342   -7.2542707     137.1646  0.030726838   0.03168457            2 
  373000    1.1052484    -7.271167    137.73223  0.030771275  0.031666173            2 
  374000    1.0910252   -7.2993055    138.12646  0.030776841  0.031648826            1 
  375000    1.0978331   -7.2620148    138.67769  0.030817264   0.03163228            2 
  376000    1.1018245   -7.2672512    139.10479  0.030829963  0.031616153            1 
  377000    1.1072658   -7.2546365    139.52075  0.030840131  0.031599201            1 
  378000     1.111543    -7.303724    139.40854  0.030733804  0.031582552            3 
  379000    1.1070952   -7.2896241    139.51779  0.030676734  0.031565531            2 
  380000    1.0772102   -7.2718652    140.11419  0.030726796   0.03154804            3 
  381000    1.1208781   -7.2426608    140.39556   0.03070769  0.031531123            2 
  382000    1.1015044   -7.2568141    140.69832   0.03069335  0.031514098            3 
  383000    1.0983318   -7.3155315    140.71903  0.030617718  0.031496773            2 
  384000    1.0836706   -7.2963434    140.89843  0.030576916  0.031479018            2 
  385000    1.0966311   -7.2861779    141.14612  0.030551107  0.031460594            1 
  386000    1.1217171   -7.2927375     141.5906  0.030567919  0.031442341            1 
  387000    1.1046913   -7.2708005    142.14496  0.030608303  0.031424833            1 
  388000    1.0972594   -7.3035839    141.78671  0.030452472  0.031407172            3 
  389000    1.0941825   -7.3052505     142.0801  0.030437039  0.031389195            2 
  390000    1.0969663   -7.2698654    142.77046  0.030506509  0.031370867            2 
  391000    1.0917145   -7.2985365    142.86689  0.030449039  0.031352529            3 
  392000    1.0644615   -7.3115366    143.11149  0.030423362  0.031334299            2 
  393000    1.1123522   -7.3161085    143.67758  0.030465985  0.031315791            2 
  394000    1.1102343   -7.2645736    144.15511  0.030489659  0.031297963            1 
  395000    1.1008347   -7.3187414    143.60627  0.030296682  0.031279637            2 
  396000    1.1025566   -7.2952842    144.55266   0.03041933  0.031261413            1 
  397000    1.1090654   -7.2996613     145.0974  0.030457054  0.031243326            1 
  398000    1.1028224   -7.2722674     145.1796  0.030397739  0.031224694            4 
  399000    1.1202565   -7.2622115    144.99284  0.030282547  0.031206075            2 
  400000    1.0931807   -7.2952775    145.49307  0.030311055  0.031187354            2 
  401000    1.0909436   -7.2884962    145.37118  0.030210136   0.03116869            2 
  402000     1.114748   -7.3105548    146.05966  0.030277707  0.031149236            2 
  403000     1.084578   -7.3326558    146.13426  0.030218003  0.031129303            2 
  404000    1.0835679   -7.2761586    146.78221  0.030276859  0.031109068            3 
  405000    1.0874504   -7.3112848    146.37268  0.030117836  0.031089376            2 
  406000    1.1112263   -7.2818062    147.06698  0.030186161  0.031070683            3 
  407000    1.0879744   -7.3232874     147.8008  0.030262243  0.031051762            2 
  408000    1.1209375   -7.2999026    148.09119  0.030247383  0.031033866            3 
  409000    1.0812975   -7.2626514    148.72864  0.030303309  0.031016266            1 
  410000    1.0840475   -7.3147191    149.15399  0.030315851  0.030998853            2 
  411000    1.0787075   -7.3060878    148.83265  0.030176936  0.030981761            2 
  412000    1.0914308    -7.307371    149.86787   0.03031308  0.030964727            1 
  413000    1.0849349   -7.3166466    149.58982   0.03018358  0.030947426            2 
  414000    1.0589045   -7.2887434    150.21616  0.030236748  0.030930442            2 
  415000    1.0860275   -7.3168012    150.18854  0.030158342  0.030913479            2 
  416000    1.0710566   -7.3261278    150.65213  0.030178712  0.030895603            1 
  417000    1.0907997   -7.3178693    150.75574  0.030127046  0.030877832            1 
  418000    1.0742076   -7.3383725    150.87085  0.030077921  0.030861206            3 
  419000    1.0961584   -7.3015958    151.63422  0.030157959  0.030844698            6 
  420000    1.0970013   -7.3034571    151.96051  0.030150894   0.03082876            3 
  421000    1.1115784   -7.2788584      152.543  0.030194577  0.030813059            1 
  422000    1.0803232    -7.303383    152.40252  0.030095284  0.030796667            2 
  423000    1.0715447   -7.3282466    152.43486  0.030030508  0.030780003            2 
  424000     1.112861   -7.3448935    153.27619  0.030125038   0.03076252            3 
  425000    1.0894554   -7.3278372    153.09772   0.03001916  0.030745949            2 
  426000    1.0758298   -7.2817058    154.26837  0.030177693  0.030729683            2 
  427000     1.071399    -7.322276    154.23244  0.030100008    0.0307128            2 
  428000    1.1015741   -7.3305634     154.2445  0.030032028  0.030696291            1 
  429000    1.1105842   -7.3288657    154.50957  0.030013514  0.030679931            1 
  430000    1.0868263   -7.3092792    155.28959  0.030094881  0.030663972            2 
  431000    1.0910554   -7.3283163    155.46751  0.030059456  0.030647411            1 
  432000    1.0937644   -7.3689617    155.05759    0.0299108  0.030630831            1 
  433000    1.0781058   -7.3665708    155.55297  0.029937061  0.030614391            1 
  434000    1.0866696   -7.3410653    155.56857  0.029871077  0.030598261            1 
  435000    1.0814184    -7.332137    156.19763  0.029922917  0.030582184            2 
  436000    1.0586949   -7.3577499    156.35021  0.029883449  0.030565736            2 
  437000    1.0806342   -7.3170291    157.03356  0.029945377  0.030549576            3 
  438000    1.0912019   -7.3250116    157.59507  0.029983841  0.030533484            1 
  439000    1.0748268   -7.3234873    157.85159  0.029964234  0.030517043            1 
  440000     1.070732   -7.3399341    157.57559  0.029843863  0.030499844            2 
  441000    1.0796503   -7.3563653    157.47806   0.02975776  0.030483129            2 
  442000    1.0825202   -7.3418334    157.54572  0.029703191  0.030466532            1 
  443000    1.0432836   -7.3436561    158.16823  0.029753241  0.030449562            1 
  444000    1.0607187   -7.3375611     158.3804   0.02972605  0.030432479            1 
  445000    1.0571532   -7.3629345    157.98255  0.029584747  0.030414772            2 
  446000    1.0843078   -7.3322269    159.09912   0.02972704  0.030397225            2 
  447000    1.0693998   -7.3448563    159.17343   0.02967439  0.030379857            2 
  448000    1.0647863   -7.3627618    158.95928  0.029568318  0.030362254            1 
  449000    1.0762251   -7.3379037    159.89221  0.029675614  0.030344735            2 
  450000    1.0962659   -7.3659847    160.40683  0.029704968  0.030327731            1 
  451000    1.0627103   -7.3398329    160.95435  0.029740272   0.03031051            2 
  452000    1.0750965   -7.3641551    161.03122  0.029688647     0.030294            1 
  453000    1.0668437   -7.3381685    161.46337  0.029702606  0.030277561            1 
  454000     1.097368   -7.3235959    161.58798  0.029660055   0.03026136            2 
  455000    1.0747012    -7.329272    161.75218  0.029624941  0.030244787            2 
  456000    1.0529752   -7.3370515    162.26937   0.02965449  0.030228458            2 
  457000    1.0627028    -7.338803    162.39969  0.029613364  0.030212213            1 
  458000    1.0673212   -7.3217788    162.42883  0.029554009  0.030195614            4 
  459000    1.0629077   -7.3545663    162.96173   0.02958637  0.030179238            2 
  460000     1.059199   -7.3559563    163.31069  0.029585271  0.030162461            2 
  461000    1.0810611   -7.3441531    164.00203  0.029646064  0.030145537            2 
  462000    1.0679918   -7.3530728    163.80893  0.029547066  0.030129721            3 
  463000    1.0673054   -7.3893646    163.69716  0.029463132  0.030112563            2 
  464000    1.0671225   -7.3906285    164.23933  0.029497006  0.030095363            4 
  465000    1.0806303   -7.3498445    164.25707   0.02943675  0.030078465            1 
  466000    1.0824114   -7.3706694    164.39217  0.029397741  0.030061867            1 
  467000    1.0654633   -7.3545714    165.43199  0.029520341  0.030045906            2 
  468000    1.0888462   -7.3909118    165.52757  0.029474283  0.030029494            3 
  469000     1.047437   -7.3609616    165.55893   0.02941701  0.030012815            1 
  470000    1.0906558   -7.3612986    165.51798  0.029347159  0.029996242            1 
  471000    1.0654838   -7.3641065    166.07092  0.029382682  0.029979668            1 
  472000    1.0546681     -7.36598    166.43702  0.029385066  0.029962972            1 
  473000     1.072975   -7.3520962    166.33296   0.02930461  0.029946347            1 
  474000    1.0695965   -7.3956898    166.49771   0.02927175  0.029929368            1 
  475000    1.0442931   -7.3322749    167.15753  0.029325883  0.029912341            1 
  476000    1.0416351   -7.3579921    167.27492  0.029284824  0.029895006            2 
  477000    1.0481354   -7.3752718    168.01426  0.029352596  0.029878217            2 
  478000    1.0728195   -7.3634663    167.66773  0.029230775  0.029861078            2 
  479000      1.05237   -7.3562524    167.62376  0.029162102  0.029843211            4 
  480000    1.0507529   -7.3983076    167.52785  0.029084696  0.029825044            1 
  481000    1.0593439    -7.344048    167.89249  0.029087403  0.029807048            1 
  482000    1.0676808   -7.3891137    167.79919  0.029010925  0.029788617            1 
  483000    1.0401977   -7.3797965    168.64243  0.029096348  0.029769877            3 
  484000    1.0954755   -7.3390938    168.32406  0.028981415  0.029751321            1 
  485000    1.0510851   -7.3918331    168.26381  0.028911308  0.029732263            2 
  486000    1.0683152   -7.3696352    169.02628  0.028982558  0.029713373            1 
  487000    1.0433208    -7.363167    169.54643  0.029012051  0.029694997            2 
  488000    1.0381128   -7.3886124    169.53541   0.02895072  0.029676164            1 
  489000    1.0899023   -7.4203889    169.40435   0.02886918  0.029656947            2 
  490000    1.0461004   -7.3978219    169.91416  0.028896966  0.029637031            6 
  491000    1.0612226   -7.3747033    169.86845  0.028830355  0.029617576            2 
  492000    1.0535538   -7.3739668    170.31206  0.028846894  0.029598246            1 
  493000    1.0537756   -7.3481148    170.77278  0.028866257  0.029579183            1 
  494000    1.0576989   -7.3591209    170.85231  0.028821239  0.029560426            1 
  495000    1.0745655     -7.39363    171.35862  0.028848253  0.029541441            2 
  496000    1.0333108   -7.4135613    171.10369   0.02874726  0.029522096            1 
  497000     1.070363   -7.3602273    172.23755  0.028879536  0.029502807            1 
  498000    1.0365014   -7.3539601    172.29451  0.028831076  0.029483899            1 
  499000    1.0436186   -7.4092365    172.31138  0.028776115  0.029465087            3 
  500000    1.0587248   -7.3967815    172.70402  0.028784003  0.029446732            2 
  501000    1.0352287    -7.380735    173.07746  0.028788666  0.029428288            3 
  502000    1.0404903    -7.388651    172.84216  0.028692257  0.029409516            1 
  503000    1.0558087   -7.4057286     172.7191  0.028614827  0.029390284            3 
  504000    1.0771148   -7.3736782     173.8219  0.028740394  0.029371533            1 
  505000     1.043696   -7.3658538    173.75919  0.028673134  0.029352775            2 
  506000    1.0603961   -7.4320521    173.36394  0.028551374  0.029333507            4 
  507000    1.0578849   -7.3751233    173.93743  0.028589321  0.029314122            2 
  508000    1.0458786   -7.4317108    173.65965  0.028487476  0.029294568            1 
  509000     1.051962   -7.4053795    174.29228  0.028535081  0.029273889            2 
  510000    1.0593241   -7.3606327    174.60466  0.028530173  0.029253755            1 
  511000    1.0451357   -7.3902548    174.13981  0.028398535   0.02923351            2 
  512000    1.0552524   -7.4419155    173.90737  0.028305236  0.029213241            3 
  513000    1.0350643   -7.3757998     175.4382  0.028498733  0.029193133            2 
  514000    1.0453375   -7.3956922    175.00208  0.028372581  0.029173421            2 
  515000    1.0618806   -7.3877112    175.60589  0.028415192  0.029153417            1 
  516000    1.0516715   -7.3931416    175.33598  0.028316534  0.029133257            1 
  517000    1.0532634   -7.4112491    175.90483  0.028353455  0.029112993            2 
  518000    1.0316668   -7.4054767    175.89912  0.028297799  0.029092006            3 
  519000    1.0350696    -7.434674    175.59038  0.028193703  0.029070607            1 
  520000    1.0605109   -7.3973896    175.98334  0.028202458  0.029049342            1 
  521000    1.0635934   -7.4408862    176.53679   0.02823685  0.029028702            2 
  522000    1.0448081   -7.3750266    176.99479  0.028255873  0.029007891            1 
  523000     1.043708   -7.3963732    176.96626  0.028197301  0.028987442            2 
  524000    1.0572064   -7.4091688    177.34995  0.028204509  0.028966421            3 
  525000    1.0407426   -7.4002486    176.92864  0.028083911  0.028945272            1 
  526000    1.0167333   -7.3800868    177.60124  0.028137078  0.028924385            1 
  527000    1.0612818   -7.4049866    177.69526  0.028098554  0.028902837            3 
  528000    1.0312889   -7.4105531    177.55266  0.028022831  0.028881868            2 
  529000    1.0366622   -7.3951175    177.83731  0.028014698  0.028860743            2 
  530000    1.0560054   -7.4276383     177.7223  0.027943759   0.02883963            4 
  531000    1.0413614   -7.4343188    177.80956  0.027904828  0.028817968            3 
  532000    1.0576636   -7.4419377    178.57738  0.027972647  0.028796922            2 
  533000    1.0212438   -7.4401552    178.87989  0.027967462  0.028775857            5 
  534000    1.0467884     -7.42182    178.68255  0.027884293   0.02875487            1 
  535000    1.0370372   -7.4352435    179.71463  0.027992933  0.028733668            3 
  536000    1.0294412   -7.4641223    179.37632   0.02788811  0.028712578            1 
  537000    1.0420902    -7.421735    180.01996  0.027936059    0.0286914            2 
  538000    1.0576582   -7.4465234    180.16184  0.027906109  0.028670946            1 
  539000    1.0520244   -7.4203368    180.35173  0.027883694  0.028650485            2 
  540000    1.0372774   -7.3886149    180.47685  0.027851366  0.028630354            2 
  541000    1.0320504   -7.3883166    180.88533  0.027862805  0.028609517            1 
  542000    1.0370468   -7.4504631    180.37379  0.027732748  0.028588101            2 
  543000    1.0193881   -7.4358314    181.46117  0.027848552  0.028566819            3 
  544000    1.0602309    -7.460141    181.49125  0.027801969  0.028545928            3 
  545000     1.047756    -7.429021    181.51697  0.027754888   0.02852455            3 
  546000    1.0210706    -7.432528    181.29232  0.027669769  0.028502834            3 
  547000    1.0422833   -7.4054061    181.57015  0.027661509  0.028481264            2 
  548000    1.0433388   -7.4347834    182.54126  0.027758707  0.028460472            2 
  549000    1.0319776   -7.4285871    181.73346  0.027585529  0.028439117            1 
  550000    1.0143197   -7.4257805    182.73325  0.027686855  0.028417761            2 
  551000    1.0373298   -7.4683546    182.51747  0.027603973    0.0283963            1 
  552000    1.0013416   -7.4173867    182.89503  0.027610965  0.028374826            2 
  553000    1.0452827   -7.4542303    182.70028  0.027531688  0.028353224            3 
  554000    1.0141498   -7.4312565    182.73293  0.027486903    0.0283316            1 
  555000    1.0535477   -7.4345726    183.15462  0.027500694  0.028309962            1 
  556000    1.0525838   -7.4356827    183.62319  0.027521461  0.028288873            2 
  557000    1.0250745   -7.4282557    183.83955  0.027504421  0.028267623            2 
  558000    1.0288312   -7.4231496    184.06051  0.027488128  0.028246622            2 
  559000    1.0348837   -7.4312164    184.56432   0.02751406  0.028225602            5 
  560000    1.0219037     -7.46018    184.44784  0.027447595  0.028204442            1 
  561000    1.0489161    -7.443721    184.47801  0.027403151  0.028183035            1 
  562000    1.0156024   -7.4544885    184.53364  0.027362639  0.028161512            2 
  563000    1.0243531   -7.4482379    185.15928  0.027406644  0.028140528            1 
  564000    1.0362616   -7.4257265    185.68564  0.027435821  0.028119884            2 
  565000    1.0348577   -7.4311623    185.90395  0.027419462  0.028099338            1 
  566000    1.0167399   -7.4511818    185.86805  0.027365731  0.028078974            2 
  567000    1.0291843   -7.4376142    185.90003  0.027322168  0.028058215            3 
  568000    1.0223012   -7.4569238    185.55433  0.027223346  0.028037461            2 
  569000    1.0108179   -7.4709353    186.46346   0.02730865  0.028016461            1 
  570000    1.0258825   -7.4683769    186.65986  0.027289454  0.027995435            3 
  571000    1.0390269    -7.439827     186.2887  0.027187492  0.027974502            3 
  572000     1.019181   -7.4336579    187.34992  0.027294569  0.027953685            1 
  573000    1.0291675   -7.4266937    187.87552  0.027323374  0.027933248            1 
  574000    1.0259213   -7.4316812    187.15187  0.027170713   0.02791248            3 
  575000     1.018585   -7.4327562    187.94806   0.02723885  0.027891744            3 
  576000    1.0313388   -7.4491905    188.10722  0.027214587  0.027871186            2 
  577000    1.0195992    -7.447894    187.89839   0.02713726  0.027851231            1 
  578000    1.0368064   -7.4457474    188.76502  0.027215256  0.027831097            2 
  579000    1.0462968    -7.459212    188.82172  0.027176413  0.027810977            2 
  580000    1.0184039   -7.4495466    188.58478  0.027095514  0.027790507            3 
  581000    1.0338824   -7.4462273    189.04996    0.0271156  0.027770196            1 
  582000    1.0258886   -7.4628629    189.33779  0.027110222  0.027750103            2 
  583000     1.013876   -7.4363752    189.48927  0.027085373  0.027729723            2 
  584000    1.0171112   -7.4689809    190.14062  0.027131938  0.027709273            2 
  585000    1.0148991   -7.4305659    190.13925  0.027085364  0.027689226            2 
  586000     1.030798   -7.4402777    189.97195  0.027015351  0.027668895            2 
  587000    1.0283305   -7.4687483    190.12143   0.02699055  0.027648986            1 
  588000    1.0197117   -7.4806194     190.4334   0.02698886  0.027628622            1 
  589000    1.0060499   -7.4602007    191.32862  0.027069697  0.027608683            1 
  590000    1.0003526   -7.4901384    190.94542  0.026969693  0.027588628            2 
  591000    1.0266621   -7.4788516    191.78994  0.027043139  0.027568969            1 
  592000    1.0370127   -7.4855056    191.29138  0.026927277  0.027549499            2 
  593000    1.0292088   -7.4499182    191.46506  0.026906276  0.027529797            1 
  594000   0.98285468   -7.4563059    191.35122  0.026845008  0.027510207            3 
  595000    1.0198174   -7.4877344    192.49359  0.026959887   0.02749069            3 
  596000    1.0096025   -7.4970324    192.93204  0.026975956  0.027471359            2 
  597000    1.0092692   -7.4842254    192.58466  0.026882281  0.027452018            3 
  598000    1.0205424   -7.4646987    193.15022   0.02691614  0.027432521            3 
  599000    1.0284158   -7.4947827    193.21556  0.026880294  0.027413089            4 
  600000    1.0183733   -7.4943174    193.23526  0.026838231  0.027393286            1 
  601000    1.0214402   -7.5163929    192.97151  0.026757004  0.027373677            1 
  602000    1.0210716   -7.5048814    193.30012  0.026758045  0.027354115            3 
  603000    1.0163725    -7.511802    193.42748  0.026731271  0.027334326            1 
  604000    1.0062039   -7.4497465    194.88348  0.026887897  0.027314569            1 
  605000    1.0268987   -7.4554028    194.50008  0.026790645  0.027295206            3 
  606000    1.0138054   -7.4695655    195.44972  0.026877024  0.027276167            2 
  607000    1.0194901   -7.4464802    195.08328  0.026782439  0.027257352            2 
  608000    1.0299178   -7.5144839    195.14822  0.026747289  0.027238407            2 
  609000    1.0292163   -7.5032917    195.35009  0.026730992  0.027219236            3 
  610000    1.0074007   -7.5061717    195.54045  0.026713176  0.027200468            3 
  611000   0.99614473   -7.5166087    195.53719  0.026669011  0.027181543            3 
  612000   0.97917213   -7.4733084    195.89461  0.026674103  0.027162539            1 
  613000   0.99696581   -7.5017976    196.16648  0.026667548  0.027143704            1 
  614000    1.0222044   -7.4900633    196.00308  0.026601938  0.027124929            1 
  615000    1.0116617   -7.5461277    196.26204  0.026593772  0.027106243            3 
  616000   0.99899328   -7.5286736    196.40961  0.026570564  0.027087603            3 
  617000    0.9950529   -7.5118473    196.71703  0.026569021  0.027068733            1 
  618000    1.0257921   -7.5131051    197.05131  0.026571104  0.027049726            2 
  619000   0.99627024   -7.4761139    197.05332  0.026528449  0.027030457            1 
  620000    1.0020225    -7.533731    197.23455   0.02651002  0.027011528            3 
  621000    1.0184279   -7.5181402    197.62797  0.026520125  0.026992419            1 
  622000    1.0099342   -7.4936116    198.92664  0.026651478  0.026973654            2 
  623000    1.0032068    -7.487685    198.04745  0.026491098  0.026955164            1 
  624000    1.0256497   -7.5125758    198.48589  0.026507197  0.026936653            1 
  625000    1.0011871   -7.5069709    198.09311  0.026412415  0.026917659            2 
  626000   0.99035402   -7.5414877      198.477  0.026421326  0.026898762            3 
  627000    1.0093643   -7.5023078    199.16405  0.026470501  0.026879954            2 
  628000    1.0031119   -7.5125417    199.33125  0.026450537  0.026861662            3 
  629000    1.0022455   -7.5189174    198.65998  0.026319552   0.02684292            5 
  630000   0.98967728   -7.5426904    199.23611  0.026353982  0.026824338            1 
  631000   0.99649016   -7.5031572    199.90133   0.02640007  0.026805723            3 
  632000    1.0119892   -7.5450551    199.76744  0.026340643  0.026787111            3 
  633000   0.98507167   -7.5161984    200.05015   0.02633625  0.026768804            1 
  634000    1.0140488    -7.504915    199.91158  0.026276496  0.026750209            2 
  635000    1.0043346   -7.5271355    200.75363   0.02634562  0.026731875            1 
  636000    1.0263006   -7.5091716    200.63921  0.026289204  0.026713283            5 
  637000   0.97713441   -7.5321567    200.32779  0.026207194  0.026695211            1 
  638000    1.0162721   -7.5302915    200.91545  0.026242875  0.026676507            2 
  639000   0.98153861   -7.5250099    200.65684   0.02616808  0.026657731            1 
  640000    1.0029056   -7.5073632    201.59279  0.026249061  0.026639236            1 
  641000   0.97475216   -7.5468793    200.98061  0.026128524  0.026620833            2 
  642000    1.0019706   -7.5061919    202.07909  0.026230411  0.026602079            1 
  643000   0.99986962   -7.4960449    202.34226  0.026223724  0.026583908            1 
  644000   0.98840016   -7.4722704    202.55503  0.026210537  0.026565831            2 
  645000    1.0015459   -7.5233586     202.3623     0.026145  0.026547284            1 
  646000    1.0045999   -7.5272807    202.50038   0.02612234  0.026528773            1 
  647000    0.9941641   -7.5269854    202.61594   0.02609685  0.026510431            1 
  648000   0.98956813   -7.4999138    202.22335   0.02600609  0.026491894            5 
  649000   0.98903069    -7.528931    202.52511  0.026004765  0.026473114            2 
  650000   0.99748152   -7.5158391    202.90946  0.026014034  0.026454162            1 
  651000   0.97679039   -7.5253904    202.52327  0.025924638   0.02643499            2 
  652000    1.0038855   -7.5066818    203.43439  0.026001328  0.026416673            3 
  653000   0.99977502   -7.5442002    202.88296  0.025891138  0.026397815            4 
  654000   0.99309878   -7.5457072    203.62054  0.025945532  0.026378913            3 
  655000    1.0027368   -7.5546023    203.45948   0.02588543  0.026360092            1 
  656000    1.0132458   -7.5255164    203.89194  0.025900907  0.026341159            1 
  657000   0.98836741   -7.5491332    203.80846  0.025850895  0.026322284            3 
  658000    1.0012572   -7.5257167    205.01704  0.025964671  0.026303723            2 
  659000    1.0111023   -7.5312052     205.1288  0.025939403  0.026285285            2 
  660000   0.98521298   -7.5312702    204.81271   0.02586019  0.026266962            1 
  661000    0.9802188   -7.5304138    204.97192   0.02584114  0.026248662            2 
  662000   0.99204491    -7.519128    205.00636   0.02580644   0.02623028            3 
  663000   0.99537804   -7.5318462    205.45255  0.025823599  0.026211948            8 
  664000   0.99436413   -7.5390382     205.3528  0.025772189  0.026193521            2 
  665000   0.96692872   -7.5548179    205.50625  0.025752663  0.026174892            2 
  666000   0.99185869   -7.5529468    205.81896  0.025753123  0.026156241            2 
  667000   0.97669342   -7.5551642    206.77249  0.025833644  0.026137994            3 
  668000   0.98379615   -7.5401938    206.62644  0.025776752  0.026119714            1 
  669000   0.98228017   -7.5605663    206.41503  0.025711887  0.026101528            1 
  670000   0.95542053   -7.5883357    207.18253  0.025768971  0.026083318            1 
  671000   0.97640049   -7.5326754    207.27096   0.02574155  0.026065192            3 
  672000   0.99908634    -7.566509    206.81696  0.025646945  0.026046879            2 
  673000    1.0018831   -7.5257336    208.28566  0.025790695  0.026028706            1 
  674000    1.0004943   -7.5197472    207.25358  0.025624825  0.026010557            2 
  675000    1.0073595   -7.5575133    208.15126  0.025697686  0.025992624            1 
  676000   0.98716933   -7.5413641    207.84809  0.025622298  0.025974716            4 
  677000   0.99373401   -7.5651308    208.41986  0.025654833  0.025956845            2 
  678000   0.98052811   -7.5232636    208.73622  0.025655878   0.02593897            1 
  679000   0.97515693   -7.5553051    208.82821  0.025629382  0.025921069            3 
  680000   0.97719962   -7.5624312    208.61822  0.025565958  0.025902845            2 
  681000   0.99950608   -7.5591516     208.5518  0.025520289  0.025884907            3 
  682000   0.97270287    -7.555304    208.83072   0.02551695  0.025866911            1 
  683000   0.98246393   -7.5225459    209.52989  0.025564896  0.025849175            1 
  684000   0.99379872   -7.5423043    209.85505  0.025567135  0.025831301            1 
  685000   0.97539412   -7.5580785    210.03336  0.025551504  0.025813622            3 
  686000   0.96023913   -7.5764218    210.35654  0.025553515  0.025795913            2 
  687000   0.96539069   -7.5792032    210.11435  0.025486942  0.025778112            1 
  688000   0.96991146     -7.56964    210.60436  0.025509249  0.025760108            1 
  689000   0.98638495   -7.5549218    209.73585  0.025367181  0.025742184            4 
  690000   0.98144031   -7.5826962    210.59172  0.025433782  0.025723724            1 
  691000   0.97472242   -7.5671768    210.39297  0.025373006  0.025705498            2 
  692000   0.97322363   -7.5813054    210.47608  0.025346348  0.025687198            1 
  693000      0.96376   -7.5643128    210.61624  0.025326629  0.025669065            1 
  694000   0.94888703   -7.5290431    210.86313   0.02531978  0.025650751            2 
  695000   0.97869474   -7.5495203    210.73694  0.025268218  0.025632499            2 
  696000   0.97869279   -7.5874428    210.61488  0.025217299  0.025613839            2 
  697000   0.97415827   -7.5477755    211.33311  0.025266991  0.025595374            1 
  698000   0.97940516   -7.5656862    211.44694  0.025244382  0.025577077            1 
  699000   0.95798989   -7.6297492    211.01945  0.025157302  0.025558513            2 
  700000   0.99456107    -7.578122    211.13382  0.025134979  0.025540045            1 
  701000    0.9628177    -7.561089    211.56887   0.02515084  0.025521645            2 
  702000   0.98763561   -7.5890471    212.10531  0.025178693  0.025503297            2 
  703000   0.95016637   -7.5666163    211.48518  0.025069367  0.025485002            1 
  704000   0.99206653    -7.575342    212.55187  0.025160023  0.025466439            2 
  705000   0.96969904   -7.5683702    212.38968  0.025105163  0.025448158            1 
  706000   0.95223631    -7.593131    211.48981  0.024963387  0.025429659            2 
  707000   0.95042703   -7.6237719    212.53514  0.025051289  0.025410988            1 
  708000    0.9788175   -7.5835616    212.78591  0.025045423  0.025392492            1 
  709000    0.9694029   -7.5671261    212.89374  0.025022772  0.025373931            1 
  710000   0.97689823   -7.5674814    212.99028  0.024998859  0.025355322            2 
  711000   0.95293519   -7.5797157    212.71485  0.024931417  0.025336679            3 
  712000   0.95739386   -7.5671232     213.2651  0.024960803  0.025318248            2 
  713000   0.95655872   -7.5666522    214.20758  0.025035949  0.025299668            2 
  714000   0.96356893   -7.6027699    213.66235  0.024937249  0.025280963            2 
  715000   0.97255373   -7.5770435    213.50089  0.024883553  0.025262102            1 
  716000    1.0018724   -7.6157612    213.59686  0.024859969  0.025243372            3 
  717000   0.95396807   -7.6201023    213.16854  0.024775516  0.025224829            2 
  718000   0.96408762   -7.5888948    214.31295  0.024873834  0.025206216            3 
  719000   0.96467845   -7.6086002    214.45687  0.024855919  0.025187892            3 
  720000   0.95737948   -7.6359384    214.12654  0.024783165  0.025169385            2 
  721000   0.99477756   -7.6174872     214.8586  0.024833403  0.025150862            2 
  722000   0.96583916   -7.6178394    215.56366  0.024880385  0.025132471            1 
  723000   0.93517549   -7.5908208    215.26377  0.024811407    0.0251143            1 
  724000   0.96033883   -7.6064461    215.53641  0.024808519   0.02509646            1 
  725000   0.95650772   -7.6277153    215.58843   0.02478028  0.025078634            2 
  726000   0.97971336   -7.6190011    215.88777  0.024780506  0.025060762            2 
  727000   0.94981521     -7.58657    216.55083  0.024822424   0.02504281            1 
  728000   0.96259277    -7.610122    216.22448  0.024750971   0.02502492            2 
  729000   0.97248646   -7.6049361    216.63733  0.024764212  0.025007052            1 
  730000   0.97002106    -7.595963    216.93899  0.024764725  0.024989212            1 
  731000   0.97327824   -7.5940165    216.95024  0.024732129  0.024971508            2 
  732000   0.96102715   -7.5755422    217.53306  0.024764693   0.02495383            2 
  733000   0.96050314   -7.5694591    217.85562  0.024767579  0.024936519            2 
  734000   0.95112094   -7.6161403    217.55934  0.024700198  0.024919166            1 
  735000   0.95921109   -7.6057113    218.19538  0.024738705  0.024901842            3 
  736000   0.93390685    -7.612269    218.18749  0.024704199  0.024884606            3 
  737000   0.96915755   -7.6398708    218.40577   0.02469536  0.024867537            2 
  738000   0.94922231   -7.6293626    218.38778  0.024659867  0.024850316            2 
  739000    0.9372065   -7.6238588    218.54303  0.024644004  0.024832946            2 
  740000   0.95516194   -7.6104608    218.48988  0.024604717  0.024815528            5 
  741000   0.97599765   -7.6135336    219.00554  0.024629503  0.024798006            2 
  742000   0.94781767   -7.5922149    219.46628  0.024648054  0.024780755            2 
  743000   0.94346502   -7.5843999    219.12983  0.024577145  0.024763395            2 
  744000   0.95557916   -7.6275548     219.3201  0.024565423  0.024745929            2 
  745000   0.95739951   -7.6550633    219.39853  0.024541222  0.024728622            3 
  746000   0.94244229    -7.628455    219.40001  0.024508491  0.024711154            3 
  747000   0.94714323   -7.6420352    219.36798  0.024472109  0.024693972            2 
  748000   0.96432255   -7.6166502    219.91189  0.024499987  0.024676476            1 
  749000   0.95712007   -7.5991089    220.37159  0.024518423  0.024659219            2 
  750000    0.9527944   -7.6021931     220.4617  0.024495745  0.024642104            3 
  751000    0.9517813   -7.5960899    220.09475  0.024422409   0.02462506            1 
  752000   0.96882646   -7.6393182    221.10906  0.024502333  0.024607926            1 
  753000   0.94164205   -7.6075211     221.3547  0.024496979  0.024590982            3 
  754000   0.96574004   -7.6620793    221.14079  0.024440848  0.024574045            3 
  755000   0.97369448   -7.6207614    221.00061  0.024393003  0.024557138            1 
  756000   0.95520123   -7.6599006    221.01134   0.02436192  0.024540274            1 
  757000   0.96560266   -7.6289757    220.48467  0.024271761   0.02452318            2 
  758000   0.95433632   -7.6056594    221.61874  0.024364417  0.024505888            1 
  759000   0.93802023   -7.6237097    221.63766  0.024334394  0.024488713            2 
  760000   0.94971223   -7.6380047    221.51341  0.024288751   0.02447135            1 
  761000   0.94761779   -7.6558163    221.95532  0.024305225  0.024454202            1 
  762000   0.96334374   -7.6455928    221.18856  0.024189475  0.024436792            2 
  763000    0.9472201   -7.6525108    222.08847  0.024256058  0.024419241            2 
  764000   0.95115862   -7.6464936    221.89973  0.024203723   0.02440186            1 
  765000   0.92856944   -7.6499365     222.0629  0.024189858  0.024384267            3 
  766000    0.9610343   -7.6745248    222.10179   0.02416251  0.024366836            2 
  767000   0.95976734   -7.6271604    222.58754  0.024183783  0.024349362            1 
  768000    0.9406133   -7.6693252    222.68352  0.024162709  0.024332004            1 
  769000   0.93994443   -7.6235549    223.14998  0.024181836  0.024314823            1 
  770000   0.93514405   -7.6660241    222.70603  0.024102384  0.024297673            1 
  771000   0.93815719   -7.6318232    223.28834  0.024134062   0.02428075            1 
  772000   0.93387447   -7.6403142    223.09543  0.024081976  0.024263839            2 
  773000   0.94819363   -7.6227919    223.86048  0.024133298  0.024246841            2 
  774000   0.92779918   -7.6686039    223.25985  0.024037452  0.024229783            2 
  775000     0.955614   -7.6485102    223.75245  0.024059404  0.024212636            2 
  776000   0.90605236     -7.63914    223.89848  0.024044081  0.024195407            1 
  777000   0.96164237   -7.6610945    223.86775   0.02400984  0.024178138            2 
  778000   0.94739596   -7.6376801     224.2546  0.024020415  0.024160975            1 
  779000   0.96048963    -7.642532    224.15938  0.023979395  0.024143771            1 
  780000   0.93958584    -7.643622    223.81556  0.023911918  0.024126374            1 
  781000   0.94966607   -7.6469172    224.51962  0.023956425  0.024109196            3 
  782000   0.94167219   -7.6406892    224.30033  0.023902422  0.024092007            3 
  783000    0.9498747   -7.6588827    224.28594  0.023870364  0.024074759            2 
  784000   0.95032355   -7.6710639    224.88449  0.023903538   0.02405741            1 
  785000   0.94942062   -7.6345008    225.35933  0.023923496  0.024040095            2 
  786000   0.94198223   -7.6600281    224.19408  0.023769517  0.024022771            1 
  787000   0.94772539   -7.6462788    225.33702  0.023860336  0.024005581            1 
  788000   0.92762508   -7.6310105    225.61319  0.023859263  0.023988527            2 
  789000   0.92871275   -7.6763559    225.45217  0.023812017  0.023971565            5 
  790000   0.93407458   -7.6451364    226.08443  0.023848568  0.023954594            2 
  791000    0.9342196   -7.6281208    225.85061  0.023793785  0.023937714            2 
  792000   0.94296249   -7.6782118    225.97591  0.023776926  0.023920676            1 
  793000   0.93712729   -7.6653362    225.64185  0.023711838  0.023903801            2 
  794000   0.95030433   -7.6677601    225.88668   0.02370767   0.02388678            2 
  795000   0.94478276   -7.6624791    227.29921  0.023825913  0.023869768            2 
  796000   0.93320033   -7.6721757    226.64101  0.023727074  0.023852845            1 
  797000   0.93410721   -7.6731205    226.74622  0.023708304  0.023835781            1 
  798000   0.93619741   -7.6696756    226.81353  0.023685624  0.023818879            1 
  799000   0.93844792   -7.6689881    226.64986  0.023638909  0.023801757            2 
  800000   0.92932823   -7.6449538    227.15851  0.023662345  0.023784643            2 
  801000    0.9400894   -7.7107171    226.91652  0.023607628  0.023767583            1 
  802000   0.93761665   -7.6600234    226.89491  0.023575946  0.023750371            2 
  803000   0.93683254   -7.6403585    227.84773  0.023645468  0.023733481            3 
  804000   0.93758056   -7.6803672    227.77372  0.023608387  0.023716433            1 
  805000   0.95382741   -7.6613017    227.01201  0.023500209   0.02369928            4 
  806000   0.91647084   -7.6806141      227.764  0.023548801  0.023682113            3 
  807000   0.93083122   -7.6561126    227.50493  0.023492868   0.02366506            1 
  808000   0.92330824   -7.7082214    227.21892  0.023434294  0.023647718            2 
  809000   0.93358155   -7.6864216    228.50081  0.023537372  0.023630268            1 
  810000   0.92851876   -7.6686556    227.88263  0.023444715  0.023613023            1 
  811000   0.92233304   -7.6994302    227.86614  0.023414113  0.023595757            4 
  812000    0.9394664   -7.6815351    228.60147  0.023460742  0.023578531            1 
  813000   0.94493394   -7.6490881    228.92755  0.023465309  0.023561571            2 
  814000   0.94466546   -7.6768645    229.50437  0.023495533   0.02354472            2 
  815000    0.9176792   -7.6911708    228.76909  0.023391522   0.02352779            1 
  816000    0.9227261   -7.6782069    229.62203  0.023449962  0.023510916            1 
  817000   0.92109429   -7.6998652    229.18738  0.023376925  0.023494135            2 
  818000   0.92384305   -7.6951166    229.34305  0.023364207  0.023477153            2 
  819000   0.92853855   -7.6922898     228.8055  0.023280983  0.023460184            2 
  820000   0.93141479   -7.6743868    229.51733  0.023324932  0.023443334            2 
  821000   0.91373573   -7.7008358    230.03443  0.023349008  0.023426457            2 
  822000   0.94464338   -7.7029543    230.03676   0.02332084  0.023409594            2 
  823000   0.92689344   -7.6854871    230.01538  0.023290338  0.023392657            3 
  824000   0.92777949   -7.7232629    229.67994  0.023228149  0.023375582            5 
  825000   0.94333587   -7.7082326    230.44213  0.023276983  0.023358727            2 
  826000   0.90285182   -7.7114138    231.12869  0.023318068  0.023341999            4 
  827000   0.91332417   -7.7044089    231.29781  0.023306913  0.023325385            3 
  828000   0.95819949   -7.6979888    230.67556  0.023216139  0.023308732            2 
  829000   0.92796435   -7.7061355    231.02583  0.023223345  0.023291922            3 
  830000   0.90427475   -7.7247239    230.84343  0.023177051  0.023275161            4 
  831000   0.91830828   -7.7335349    231.15482  0.023180387  0.023258525            1 
  832000   0.92902498   -7.6998808    231.19205  0.023156255  0.023242032            1 
  833000   0.91771561   -7.7144754    231.44922  0.023154184   0.02322542            2 
  834000   0.91455409   -7.6755288    232.53062  0.023234474  0.023208866            2 
  835000   0.91822506   -7.7025734     231.7978  0.023133513  0.023192388            2 
  836000   0.90847849   -7.6754175    233.01558  0.023227231  0.023175771            3 
  837000   0.91034701   -7.7151293    232.26013  0.023124266  0.023159235            2 
  838000   0.89570882   -7.7042751    232.45077   0.02311563  0.023142731            1 
  839000   0.92404147   -7.7084567    232.61011  0.023103905   0.02312616            2 
  840000   0.90347727   -7.7163146    232.61032  0.023076421   0.02310947            1 
  841000   0.91753598   -7.7061162    232.34067  0.023022262  0.023092778            1 
  842000   0.93669194     -7.75645    232.79856  0.023040238  0.023076195            3 
  843000   0.89491867   -7.7707573    232.50804  0.022984188  0.023059531            1 
  844000   0.92294032   -7.7313697    233.16695  0.023022013  0.023043104            1 
  845000   0.92160121   -7.7275177    232.95101  0.022973472  0.023026765            4 
  846000   0.93157868    -7.725179    233.62863  0.023013064  0.023010467            3 
  847000   0.92514474   -7.7567822    233.35816  0.022959284  0.022994303            4 
  848000     0.898906   -7.7277964    233.33325  0.022929762  0.022978119            1 
  849000   0.90863307   -7.7387632    233.14068  0.022883852  0.022961718            2 
  850000   0.91441462   -7.7037193    234.34477  0.022974977  0.022945535            3 
  851000   0.91712587   -7.7652923    233.75864  0.022890584  0.022929225            2 
  852000   0.91170685   -7.7492824    233.78653  0.022866444  0.022912778            1 
  853000   0.90650274   -7.7246277     234.0658  0.022866921  0.022896326            1 
  854000   0.91482618   -7.7164929    234.56409  0.022888768  0.022880012            4 
  855000   0.91587531   -7.7321593    233.88578  0.022795885  0.022863767            1 
  856000   0.90321622   -7.7606655    234.34351  0.022813815  0.022847296            1 
  857000   0.91583231   -7.7260403     234.9699  0.022848104  0.022830917            2 
  858000   0.90748678    -7.738088    235.05207  0.022829455  0.022814604            2 
  859000   0.90559089   -7.7563217    234.57045  0.022756156  0.022798262            2 
  860000   0.90740544   -7.7487784    234.79932  0.022751872  0.022781849            3 
  861000   0.92651685   -7.7667031    234.29592  0.022676725  0.022765242            1 
  862000     0.905575   -7.7506575    233.91009  0.022613118  0.022748566            2 
  863000    0.9266514    -7.757599    234.13631   0.02260876  0.022731792            2 
  864000    0.9005879   -7.7149669    234.91051  0.022657264  0.022715074            1 
  865000   0.91271221   -7.7231314      234.584  0.022599615  0.022698463            5 
  866000    0.9185567   -7.7476278    234.06281  0.022523365  0.022681626            2 
  867000   0.89125498   -7.7233854    235.37701  0.022623703  0.022664783            1 
  868000   0.91109032   -7.7640788    234.76227   0.02253862  0.022648114            1 
  869000   0.90801903   -7.7316497    235.22661  0.022557212   0.02263149            3 
  870000   0.91375502   -7.7752655    235.41677  0.022549499  0.022614766            1 
  871000   0.91258599   -7.7627999     235.6382  0.022544795  0.022598192            4 
  872000   0.89698186   -7.7774839    235.85614  0.022539769  0.022581688            2 
  873000   0.91515642    -7.766883    235.69015  0.022498105  0.022565202            2 
  874000   0.91474121   -7.7622313    236.10842  0.022512244  0.022548773            3 
  875000   0.92292879   -7.7394201    236.35291  0.022509801   0.02253223            2 
  876000   0.90661332   -7.7354198    236.45881  0.022494179  0.022515796            2 
  877000   0.93023957   -7.7677616     236.3029  0.022453715  0.022499243            2 
  878000   0.89699209   -7.7823592    236.28836  0.022426762  0.022482958            1 
  879000    0.8875329   -7.7481424    236.69806  0.022440089  0.022466594            1 
  880000   0.91307423   -7.7472303    236.20038   0.02236746  0.022450186            1 
  881000   0.89356373   -7.7593087    236.83836  0.022402418  0.022433666            3 
  882000   0.90535143   -7.7464384    236.37288  0.022333039  0.022417135            1 
  883000   0.88316852   -7.7889401    236.66285  0.022335112  0.022400617            2 
  884000   0.89838067   -7.7634307    236.59001   0.02230298  0.022384061            2 
  885000   0.89541766   -7.7863632    236.60047  0.022278764  0.022367439            2 
  886000   0.90650124   -7.7577603     237.2077  0.022310731  0.022350795            1 
  887000   0.87572516   -7.7883789    237.11058  0.022276454  0.022334288            1 
  888000   0.89907959   -7.7495853    237.90273  0.022325707  0.022317721            5 
  889000   0.89697823    -7.799719     237.6109  0.022273238  0.022301164            3 
  890000   0.89563567   -7.7704894    237.87095  0.022272561   0.02228465            1 
  891000   0.89709455   -7.7717298     237.6932  0.022230939  0.022268167            2 
  892000   0.90158395   -7.7742072    237.49148  0.022187171  0.022251768            3 
  893000   0.89123015   -7.7571378    238.67109  0.022272405  0.022235377            4 
  894000   0.90734188   -7.7297992     239.2393  0.022300457  0.022219162            1 
  895000   0.89913961   -7.7362514    238.76165  0.022231066  0.022202994            4 
  896000   0.92843313   -7.7492013    238.88961  0.022218156  0.022186919            1 
  897000   0.88347909     -7.76326    239.25856  0.022227662  0.022170768            3 
  898000    0.9051256   -7.7683828     238.7141  0.022152385   0.02215456            1 
  899000   0.89864642   -7.7760522    239.29629   0.02218171  0.022138397            1 
  900000   0.90475793   -7.7917117    238.91958  0.022122183  0.022122188            2 
  901000    0.8848926   -7.7581069     239.1071  0.022114974  0.022106036            4 
  902000   0.89171747    -7.727791    239.97998  0.022171099  0.022090066            3 
  903000   0.89935375   -7.7673126    239.09071  0.022064481  0.022073889            1 
  904000   0.89051222   -7.7575767    239.10541  0.022041428  0.022057587            1 
  905000   0.88319493   -7.7917459    238.57556  0.021968283  0.022041152            2 
  906000   0.88559767   -7.7892981     239.3503  0.022015296  0.022024826            2 
  907000   0.89956112   -7.8028534    239.78214    0.0220307  0.022008622            2 
  908000   0.88966663   -7.8026301    240.10657  0.022036212  0.021992543            2 
  909000   0.87455559   -7.7424637    240.46853  0.022045153  0.021976403            2 
  910000    0.8862096   -7.7482038     240.9947  0.022069112  0.021960561            1 
  911000   0.88592158   -7.7923328    240.27464   0.02197902  0.021944727            1 
  912000   0.88406629   -7.7996554    240.84731  0.022007247  0.021928655            1 
  913000   0.89813143   -7.7624435    240.74825  0.021974101  0.021912751            2 
  914000   0.90697227   -7.8086056    241.07211  0.021979587   0.02189682            2 
  915000   0.87984943   -7.7505831    241.78564   0.02202055  0.021880961            2 
  916000   0.86817442   -7.7849459    241.42099  0.021963336  0.021865201            1 
  917000   0.88711938   -7.7711123    241.04964  0.021905638  0.021849305            2 
  918000   0.89202833   -7.7755614    240.92499   0.02187046   0.02183333            3 
  919000   0.87993805   -7.7689436    241.52393  0.021900973  0.021817397            5 
  920000   0.87989571   -7.7654354    240.98484  0.021828337  0.021801463            3 
  921000   0.86347655   -7.8195141    241.44189  0.021845991  0.021785604            1 
  922000   0.89450744    -7.766572    241.29464  0.021808988  0.021769715            2 
  923000   0.88307222    -7.834151    241.15623  0.021772863   0.02175379            4 
  924000    0.8905309   -7.8327342    241.58429  0.021787905  0.021737892            2 
  925000   0.88667073   -7.8233078    242.25198  0.021824503  0.021722033            2 
  926000   0.87545009   -7.7938224    242.52814  0.021825786  0.021706215            2 
  927000   0.86697529   -7.7971626    242.73556  0.021820888  0.021690577            2 
  928000   0.88997097   -7.7879076    242.79826  0.021803005  0.021675036            2 
  929000    0.8793852   -7.7685071    242.87737  0.021786631  0.021659732            3 
  930000   0.88235211   -7.8097196    243.29973  0.021801051  0.021644326            2 
  931000    0.8852699   -7.7856584    242.57597  0.021712851  0.021628853            2 
  932000   0.87663076   -7.8465393    242.20041  0.021655974  0.021613332            3 
  933000   0.88244345   -7.8397746    243.04778  0.021708448  0.021597824            2 
  934000   0.87601504   -7.8283678    242.83913  0.021666589  0.021582367            3 
  935000   0.85793594   -7.7899009     244.1411  0.021759456  0.021566813            1 
  936000    0.8644956   -7.8198329    243.24873   0.02165676  0.021551308            1 
  937000   0.88346214   -7.7968007    243.89783  0.021691376  0.021535811            3 
  938000   0.87246811   -7.7815993    243.75788  0.021655817   0.02152041            4 
  939000    0.8753846   -7.8272398    242.99002  0.021564609  0.021504947            3 
  940000   0.87427506   -7.8523661    244.01683  0.021632697  0.021489507            2 
  941000    0.8785093   -7.8074407    244.11023   0.02161798   0.02147405            1 
  942000   0.88946508      -7.8224    243.47407  0.021538753  0.021458522            1 
  943000   0.88181746   -7.8483785    242.70676  0.021448105  0.021442849            1 
  944000   0.87050985   -7.8302961    244.06662  0.021545429  0.021427231            2 
  945000   0.88296491   -7.8100062    244.20011  0.021534402  0.021411709            1 
  946000   0.87087273   -7.8267821    244.42037   0.02153104  0.021396112            3 
  947000   0.88414533   -7.8397087    244.44654  0.021510607  0.021380597            3 
  948000   0.87564631   -7.7896013    244.68079  0.021508508  0.021365017            1 
  949000   0.87566074   -7.8271607    244.70774   0.02148821   0.02134937            2 
  950000   0.87980832   -7.8746388    244.03086  0.021406216   0.02133374            1 
  951000   0.87504598   -7.8795042    244.11994  0.021391512  0.021317905            2 
  952000   0.86765085   -7.8357494    244.05285   0.02136317  0.021302094            2 
  953000    0.8995893   -7.8586288    244.29935  0.021362308  0.021286397            1 
  954000   0.87704161    -7.865735    244.69179  0.021374196  0.021270762            2 
  955000   0.85943434    -7.796345    244.61982  0.021345534  0.021255199            2 
  956000   0.87451572   -7.8289149    244.54607  0.021316778  0.021239504            2 
  957000   0.87786812   -7.8332751    244.87598   0.02132323  0.021223883            2 
  958000   0.87747384   -7.8288518    244.97411  0.021309509  0.021208229            3 
  959000   0.87953897    -7.832176    245.23269  0.021309758  0.021192654            2 
  960000    0.8663488   -7.8228998    245.17582  0.021282623  0.021176929            1 
  961000   0.86604086   -7.8340352    245.19303  0.021261969  0.021161259            1 
  962000   0.85624663    -7.826454    245.19124  0.021239713  0.021145685            2 
  963000   0.87038505    -7.880704    245.13301  0.021212618  0.021130108            2 
  964000   0.86884805   -7.8157602    245.61101  0.021231934   0.02111454            5 
  965000    0.8816362   -7.8313906    245.76967  0.021223633   0.02109899            2 
  966000   0.86677294   -7.8183978    244.97032  0.021132706  0.021083411            2 
  967000   0.84816723    -7.850582     245.9328  0.021193795  0.021067706            3 
  968000   0.86852097   -7.8369327    245.81505  0.021161764  0.021052026            2 
  969000   0.84428649   -7.8674756    245.65991  0.021126583  0.021036425            2 
  970000   0.87266167   -7.8352053    245.55537  0.021095822   0.02102061            1 
  971000   0.87470824   -7.8488122     246.1921  0.021128742  0.021004798            1 
  972000   0.86609516    -7.875432    245.97393  0.021088299  0.020989047            4 
  973000   0.88408901    -7.880037    245.91307  0.021061414  0.020973392            3 
  974000   0.85342067   -7.8479733    246.18169  0.021062773  0.020957843            2 
  975000   0.87143651   -7.8505714    246.54813   0.02107249  0.020942179            2 
  976000   0.88536769   -7.8393337    245.89455  0.020995095  0.020926481            2 
  977000   0.86172068   -7.8321363    246.19988  0.020999649  0.020910681            5 
  978000   0.87796146    -7.842574     246.7345   0.02102373   0.02089499            1 
  979000   0.87984397   -7.8365693    246.41227  0.020974827  0.020879238            2 
  980000   0.85645795   -7.8501498    246.19057  0.020934572  0.020863393            2 
  981000   0.86213943   -7.8362538    247.14968  0.020994706  0.020847585            1 
  982000   0.87203227   -7.8413387    247.24354  0.020981291  0.020831967            3 
  983000   0.84483031   -7.8411355     246.6501  0.020909639  0.020816307            1 
  984000   0.86236793   -7.8493082    246.78869  0.020900127  0.020800646            2 
  985000    0.8588472   -7.8695777    246.82803  0.020882236  0.020784891            3 
  986000   0.85700077   -7.8454933    247.36867   0.02090675  0.020769262            2 
  987000   0.86767861   -7.8713353    246.89667  0.020845717  0.020753536            1 
  988000   0.84897623   -7.8429833    247.66843  0.020889712  0.020737957            2 
  989000   0.86249239   -7.8801137    247.34604  0.020841426  0.020722412            1 
  990000   0.84740864   -7.8375998    246.96225  0.020788068  0.020706805            3 
  991000   0.85186065   -7.8520207    247.73083  0.020831722  0.020691146            1 
  992000    0.8631932   -7.8890365    247.30999  0.020775369  0.020675587            2 
  993000   0.86704934   -7.8634341    247.49938  0.020770341  0.020660054            3 
  994000   0.86300267   -7.8999638     247.4208  0.020742857  0.020644541            2 
  995000   0.85037083   -7.8853118    247.27777  0.020710031  0.020629076            5 
  996000   0.84958847    -7.889292    248.28106  0.020773181  0.020613548            1 
  997000   0.85471073   -7.8707556    248.09567   0.02073685     0.020598            3 
  998000   0.86214479   -7.8883241    248.76006  0.020771548   0.02058263            1 
  999000   0.83131045   -7.8877618     248.6169  0.020738814  0.020567241            3 
 1000000   0.87159898   -7.9043347    247.80082  0.020650068  0.020551962            1 
 1001000   0.84859617    -7.875505    248.99379  0.020728754  0.020536709            2 
 1002000   0.86826629   -7.8667588    249.58629  0.020757342  0.020521547            2 
 1003000   0.85444436   -7.8448973    249.39603   0.02072084    0.0205065            1 
 1004000   0.86028436   -7.8788975    249.00201  0.020667498  0.020491392            1 
 1005000    0.8480644   -7.8772592    249.33156  0.020674259  0.020476179            3 
 1006000   0.86397255   -7.8954544    249.72339  0.020686166  0.020461017            2 
 1007000   0.86122912   -7.8472808    249.40989   0.02063968  0.020445838            6 
 1008000   0.86788416   -7.8879972    248.89758   0.02057685  0.020430549            3 
 1009000   0.85609961   -7.8844679     249.6476  0.020618401  0.020415325            2 
 1010000   0.85445808   -7.9107218    248.87061  0.020533879  0.020400079            2 
 1011000   0.86413548   -7.9166932     249.5198  0.020567079   0.02038494            2 
 1012000   0.86459642   -7.9310178    249.23728  0.020523492  0.020369734            6 
 1013000    0.8480391   -7.8861144    249.69862  0.020541183  0.020354551            2 
 1014000   0.83282022   -7.8859684    249.66641  0.020518278   0.02033934            4 
 1015000   0.85305063   -7.9245424    249.98285  0.020524043  0.020324217            3 
 1016000   0.85415519   -7.9065774    250.10126  0.020513555   0.02030913            4 
 1017000   0.84571488   -7.8844824    250.66551  0.020539619  0.020294048            1 
 1018000   0.85643568   -7.8818892    250.03556  0.020467875  0.020279037            2 
 1019000   0.86539087   -7.8753051    250.32191  0.020471207  0.020264008            1 
 1020000   0.84473665   -7.9019457    250.47674  0.020463786  0.020248956            2 
 1021000   0.85489559   -7.8987831    250.55716  0.020450307  0.020233866            2 
 1022000   0.85866622   -7.8816373    249.77189  0.020366266  0.020218902            2 
 1023000   0.84665927    -7.879271    250.62332  0.020415715  0.020203998            4 
 1024000   0.85259968   -7.8807428    250.87562   0.02041631   0.02018901            3 
 1025000   0.82134271    -7.906954    250.47774  0.020364044  0.020174067            2 
 1026000   0.83436821   -7.8739901    250.99315  0.020386058  0.020159134            1 
 1027000   0.85903498   -7.9241939    250.20361  0.020302143  0.020144019            2 
 1028000   0.84100021    -7.895634    251.53827  0.020390586  0.020129026            2 
 1029000     0.833217   -7.8990558    251.80845  0.020392651  0.020114087            1 
 1030000   0.86263706   -7.9108237    251.72093  0.020365771  0.020099273            1 
 1031000     0.847684   -7.9133918    251.42051  0.020321735  0.020084449            1 
 1032000   0.82862642   -7.8998787    251.56412   0.02031364   0.02006963            4 
 1033000   0.84350948   -7.8886266    251.99211  0.020328502  0.020054849            1 
 1034000    0.8411723   -7.9072095    252.30914  0.020334393  0.020040146            2 
 1035000   0.84192585    -7.932032    252.34779  0.020317857  0.020025504            2 
 1036000   0.83189255   -7.9548398    251.78188  0.020252725  0.020010777            2 
 1037000   0.84647098   -7.9327504    251.71697  0.020227979  0.019995976            2 
 1038000   0.84182044   -7.9116031    251.81088  0.020216031  0.019981182            2 
 1039000   0.83662542   -7.8976278    251.79695  0.020195456  0.019966484            2 
 1040000   0.83386738   -7.8832129    252.45647  0.020228884  0.019951743            1 
 1041000   0.85192162   -7.9348645    251.88059  0.020163352   0.01993693            2 
 1042000   0.83411242   -7.9302735    252.13292  0.020164181  0.019922107            1 
 1043000   0.84702256   -7.9360373    252.21302  0.020151248  0.019907232            2 
 1044000   0.82904113   -7.9018905    252.35567  0.020143332   0.01989244            2 
 1045000   0.85563897   -7.9191572    252.45823  0.020132235  0.019877644            1 
 1046000   0.83141051    -7.919683     252.1258  0.020086504   0.01986289            1 
 1047000   0.85018929   -7.9388704    251.99913  0.020057238  0.019848141            3 
 1048000   0.84704635   -7.9439988    251.05838  0.019963293  0.019833104            6 
 1049000   0.84268284   -7.9460333    252.10088   0.02002708  0.019818078            1 
 1050000   0.84886896   -7.9327397    253.01422  0.020080494  0.019803249            1 
 1051000   0.85168744   -7.9689585    251.69645  0.019956903  0.019788368            1 
 1052000   0.82320226   -7.9386442    251.75565  0.019942621  0.019773436            2 
 1053000   0.82714206   -7.9713738    251.55023  0.019907426  0.019758422            1 
 1054000   0.83428928   -7.9540053    252.11905  0.019933511  0.019743427            1 
 1055000   0.82954731   -7.9603534    252.08978  0.019912305  0.019728413            2 
 1056000   0.85450203   -7.9419773    252.31647  0.019911337  0.019713394            2 
 1057000     0.825864   -7.9268086    252.71628  0.019924021   0.01969836            2 
 1058000   0.83331839    -7.956316    252.34416  0.019875879  0.019683299            3 
 1059000   0.83148051   -7.9497686    252.21435  0.019846896  0.019668267            2 
 1060000   0.82668002   -7.9169682    252.75106  0.019870366  0.019653343            3 
 1061000   0.84033366   -7.9584277    252.63569  0.019842577  0.019638419            1 
 1062000   0.83316627   -7.9366084    253.46271  0.019888787  0.019623489            2 
 1063000   0.82280018   -7.8993832     253.8215  0.019898205  0.019608624            4 
 1064000   0.82722089   -7.9345082    253.24744  0.019834542  0.019593894            2 
 1065000   0.83336417   -7.9321918     253.4198  0.019829406  0.019579167            2 
 1066000   0.82254587   -7.9531073    253.18827  0.019792704  0.019564327            2 
 1067000   0.83028202   -7.9572601    253.77253  0.019819785  0.019549499            1 
 1068000   0.81178024   -7.9505562    253.59224  0.019787159  0.019534722            1 
 1069000   0.82539882   -7.9235521    254.18428  0.019814802  0.019519939            2 
 1070000   0.83323137   -7.9386465    253.84125  0.019769567  0.019505239            1 
 1071000   0.82268503   -7.9137794     254.5217  0.019804054  0.019490462            2 
 1072000   0.81392933   -7.9522199    253.58151  0.019712493  0.019475635            3 
 1073000   0.82903692   -7.9650702    253.36065  0.019676969  0.019460788            2 
 1074000   0.83396929   -7.9351961    254.21043  0.019724583  0.019445977            2 
 1075000   0.81741969   -7.9440874    253.64619  0.019662495  0.019431165            1 
 1076000   0.81105519   -7.9321067    253.31713  0.019618737  0.019416394            2 
 1077000    0.8232081   -7.9736584    254.03247  0.019655871  0.019401648            1 
 1078000   0.83173933   -7.9449477    254.18265  0.019649246  0.019386896            1 
 1079000   0.82501736   -7.9609251    253.89407  0.019608748   0.01937219            3 
 1080000   0.81342857    -7.973249    254.42998  0.019631943  0.019357527            3 
 1081000   0.83659026   -7.9514371     253.7515  0.019561478  0.019342852            2 
 1082000   0.81030104   -7.9557283    254.34078  0.019588784  0.019328163            2 
 1083000   0.82774085   -7.9774852    254.11774  0.019553535  0.019313348            2 
 1084000   0.83649137   -7.9714547    253.86847  0.019516333  0.019298609            1 
 1085000   0.82137837   -7.9875376    253.71746  0.019486748  0.019283777            1 
 1086000   0.82656779   -7.9746327     254.1121  0.019499087  0.019268976            1 
 1087000   0.79849303   -7.9876065    254.30817   0.01949618  0.019254171            6 
 1088000   0.81833077    -7.985551    253.93852  0.019449948  0.019239327            3 
 1089000   0.82430742   -8.0139822    253.40145  0.019390989  0.019224438            1 
 1090000   0.82904334   -7.9900888    254.12927  0.019428844  0.019209594            1 
 1091000   0.82041285   -7.9888956    254.87752  0.019468188  0.019194877            3 
 1092000   0.81929097   -7.9724138    254.85777  0.019448853  0.019180137            3 
 1093000   0.82845045   -7.9685321    255.18344  0.019455889  0.019165367            3 
 1094000   0.81916681   -8.0125863    254.57239   0.01939156  0.019150644            1 
 1095000    0.8238578   -7.9541397    254.79842  0.019391052  0.019135952            2 
 1096000   0.82496313   -7.9674563    254.58775  0.019357341  0.019121256            4 
 1097000   0.80168191   -7.9676827    255.04657  0.019374549  0.019106537            2 
 1098000   0.80272199   -7.9832587    254.88686  0.019344783  0.019091845            2 
 1099000   0.82790275   -7.9567427    254.91877  0.019329601  0.019077181            1 
 1100000   0.81894291   -7.9932156    255.07772   0.01932407  0.019062597            1 
 1101000   0.80645307   -7.9750194    255.36459  0.019328231  0.019048014            2 
 1102000   0.80895673   -7.9670252    254.93431  0.019278154  0.019033309            1 
 1103000   0.80079687   -7.9709492    254.97536  0.019263778  0.019018626            5 
 1104000   0.80548722    -7.993618    254.95038  0.019244443  0.019003913            2 
 1105000   0.81102459   -7.9788603    255.46179  0.019265595  0.018989183            5 
 1106000   0.83095852   -8.0240812    254.96948  0.019211082    0.0189745            2 
 1107000   0.80622394   -7.9951953    254.56533  0.019163304  0.018959746            2 
 1108000   0.78761508   -7.9837126    254.97114   0.01917653  0.018944955            2 
 1109000   0.82069537   -8.0115718    254.49336  0.019123336  0.018930243            3 
 1110000   0.81221311   -7.9864508    254.64204   0.01911727  0.018915414            3 
 1111000   0.82066459   -8.0047529     254.8716  0.019117282  0.018900627            4 
 1112000   0.80974897   -7.9763141    254.99711  0.019109495  0.018885815            2 
 1113000   0.78991303   -7.9848141    255.70774  0.019145533  0.018871046            2 
 1114000   0.81432372   -7.9916836    255.11444  0.019083965  0.018856199            7 
 1115000   0.80092728   -7.9896024    255.15344  0.019069764  0.018841286            2 
 1116000   0.80955966   -7.9946797    254.73684  0.019021568  0.018826444            4 
 1117000   0.80074757   -8.0043934    254.39905  0.018979338  0.018811546            2 
 1118000   0.80026194   -8.0160757     254.7532  0.018988759  0.018796668            2 
 1119000   0.81863955   -7.9739382    255.55097  0.019031201  0.018781838            1 
 1120000   0.79728416   -7.9804749     255.5028  0.019010625  0.018767033            5 
 1121000   0.79498668   -7.9751209    255.51408  0.018994505  0.018752221            2 
 1122000   0.78643852   -8.0093909    255.34165  0.018964769  0.018737394            2 
 1123000   0.81626235   -8.0197058    255.74019  0.018977456  0.018722625            2 
 1124000   0.82434554   -7.9985488    256.18728  0.018993719  0.018707905            1 
 1125000   0.80968716   -8.0017701    255.71634  0.018941951  0.018693174            3 
 1126000   0.77834048   -8.0108132    256.11459  0.018954603  0.018678488            2 
 1127000   0.79116624   -8.0070355    256.28667  0.018950508  0.018663821            2 
 1128000   0.79938959   -8.0195804    256.28042  0.018933246  0.018649154            5 
 1129000   0.79304583   -8.0180873    255.79474  0.018880627  0.018634479            2 
 1130000   0.80865538   -8.0271511     255.8395   0.01886722  0.018619762            3 
 1131000   0.79575859   -8.0105792    256.10274  0.018869934  0.018605058            1 
 1132000   0.78637769    -7.994184    256.02149  0.018847283  0.018590408            2 
 1133000   0.80034615   -7.9941476    256.75914  0.018884903  0.018575809            2 
 1134000   0.79981078    -8.006145    256.29711  0.018834297  0.018561202            2 
 1135000   0.81118465   -8.0245533    256.63198  0.018842289  0.018546686            2 
 1136000   0.80770122   -8.0289464    256.31792  0.018802664  0.018532102            2 
 1137000   0.79141126   -8.0034249    256.87184  0.018826725  0.018517528            3 
 1138000   0.82155496   -8.0662486    256.62784  0.018792314  0.018502955            4 
 1139000   0.81429481   -8.0627517     256.2151  0.018745618   0.01848832            1 
 1140000    0.8038095    -8.036141    256.38051  0.018741266  0.018473725            3 
 1141000   0.78043102   -8.0519852    256.33012   0.01872116  0.018459302            2 
 1142000   0.80124466   -8.0251162    257.34728   0.01877899  0.018444869            1 
 1143000     0.792876   -8.0584323    256.83627  0.018725304  0.018430433            1 
 1144000   0.80281459   -8.0507682    257.34141  0.018745732  0.018415962            3 
 1145000   0.80242244   -8.0210473     257.1195   0.01871321  0.018401582            2 
 1146000   0.77419172   -8.0182733    257.60413  0.018732121  0.018387242            2 
 1147000   0.79579571   -8.0563892    257.58293  0.018714249  0.018372946            2 
 1148000   0.79754029   -8.0342363     257.6271  0.018701154  0.018358716            1 
 1149000   0.79507938   -8.0319447    257.84015   0.01870033   0.01834439            1 
 1150000   0.79910651    -8.046084    257.82921  0.018683276  0.018330147            2 
 1151000    0.7852773   -7.9864672     257.7625  0.018662214  0.018315865            2 
 1152000   0.78370626   -8.0066628    258.07409  0.018668554  0.018301693            2 
 1153000   0.78700023   -8.0449379    257.73798   0.01862807  0.018287479            2 
 1154000   0.80092086   -8.0472661    258.05428  0.018634769  0.018273262            2 
 1155000   0.78909603   -8.0401667    258.20319  0.018629379  0.018259114            2 
 1156000   0.79897278   -8.0398581    258.25187  0.018616773  0.018244927            3 
 1157000   0.79414604   -8.0097162    258.18915  0.018596164  0.018230703            3 
 1158000   0.79601254   -8.0122051    258.08512  0.018572619  0.018216498            2 
 1159000   0.79079273   -8.0190847    257.94559  0.018546563  0.018202281            2 
 1160000    0.7951146   -8.0346858    258.26334  0.018553401   0.01818804            3 
 1161000   0.79906247   -8.0063203    258.15885   0.01852992  0.018173831            1 
 1162000   0.79233571   -8.0280611    258.14614  0.018513063  0.018159658            1 
 1163000   0.78760082   -8.0223889     258.6109  0.018530446  0.018145549            1 
 1164000   0.78454786   -8.0158125    258.38732  0.018498519  0.018131444            4 
 1165000   0.77433702   -8.0414116    258.68352  0.018503828  0.018117345            2 
 1166000   0.78293773   -8.0547288    257.62816  0.018412533  0.018103108            2 
 1167000   0.78158276   -8.0305033    258.07604  0.018428738  0.018088855            2 
 1168000   0.79275956   -8.0390644     257.7498  0.018389683  0.018074692            1 
 1169000   0.77718212   -8.0484559    257.96818  0.018389519  0.018060549            2 
 1170000   0.79227678   -8.0075279    258.86032  0.018437345  0.018046428            2 
 1171000   0.78455782   -8.0286302     258.7444   0.01841335   0.01803239            3 
 1172000   0.79260158   -8.0554325    258.45815  0.018377286   0.01801828            3 
 1173000   0.77030965   -8.0203675    258.63497  0.018374181  0.018004119            4 
 1174000   0.79620791   -8.0434308    259.04024  0.018387297  0.017989984            3 
 1175000   0.80970751     -8.01697    258.95961   0.01836593   0.01797588            2 
 1176000   0.77097066   -8.0703615     258.0138  0.018283291  0.017961798            1 
 1177000   0.77082211    -8.061146    258.90293  0.018330709  0.017947661            2 
 1178000   0.80215459    -8.046715    258.68212  0.018299527  0.017933613            2 
 1179000   0.79773089   -8.0492658     259.1054  0.018313924  0.017919535            2 
 1180000   0.77834339   -8.0825952    258.44903   0.01825205  0.017905446            3 
 1181000   0.79157777   -8.0647139    258.59449  0.018246859  0.017891321            2 
 1182000   0.79858056   -8.0666728    258.98491  0.018258947  0.017877235            2 
 1183000    0.7613862   -8.0759633    258.82034   0.01823192  0.017863155            1 
 1184000   0.78086543   -8.0878304    258.80153  0.018215198  0.017849029            2 
 1185000   0.78574463   -8.1100815    258.23274  0.018159827  0.017834933            7 
 1186000   0.80615209   -8.1192996    258.77202  0.018182407  0.017820783            2 
 1187000   0.77781553   -8.0668144    258.59303  0.018154524  0.017806647            6 
 1188000    0.7748861   -8.0785151    258.57128  0.018137716  0.017792616            1 
 1189000   0.77287614   -8.0695426    258.66725  0.018129188  0.017778528            1 
 1190000   0.77264606   -8.0980421    258.72376   0.01811791  0.017764427            2 
 1191000   0.77608539   -8.0699318    258.90069  0.018115078  0.017750281            2 
 1192000   0.77926938   -8.0486634    258.65004  0.018082357  0.017736269            2 
 1193000   0.77055379   -8.0650282     259.3684  0.018117379  0.017722264            1 
 1194000   0.78532647   -8.0488986     259.2255  0.018092232  0.017708268            1 
 1195000   0.76992191   -8.0760553    258.27831   0.01801104   0.01769426            1 
 1196000   0.76515295    -8.083354     258.5769  0.018016785  0.017680165            4 
 1197000    0.7638325   -8.0829828    259.03607    0.0180337  0.017666105            1 
 1198000    0.7775845   -8.0772247    259.44344  0.018046984   0.01765201            4 
 1199000   0.79105263   -8.0869206     258.9067  0.017994627  0.017637975            1 
 1200000   0.78146369   -8.1015298    259.06027  0.017990296  0.017623931            3 
 1201000   0.77679868   -8.0747805    258.89649  0.017963953  0.017609929            2 
 1202000   0.76529552   -8.0713438    259.04358  0.017959206  0.017595885            2 
 1203000    0.7639668   -8.1198954    258.82829  0.017929363  0.017581877            1 
 1204000   0.77996064   -8.1153939    259.05465  0.017930139  0.017567825            2 
 1205000   0.78295071   -8.1154386    258.67753  0.017889179  0.017553794            1 
 1206000   0.77926617   -8.0912002    258.79603  0.017882534  0.017539743            1 
 1207000    0.7814921   -8.0688731    259.50116  0.017916402  0.017525718            1 
 1208000   0.77035277   -8.0859287    259.09719  0.017873702  0.017511758            2 
 1209000   0.77856027   -8.1180512     259.2903  0.017872229  0.017497739            3 
 1210000   0.78084555      -8.1066     259.2137  0.017852184  0.017483777            1 
 1211000   0.75620848    -8.106185    259.40769  0.017850791  0.017469769            1 
 1212000   0.77470191   -8.1319592    259.03705  0.017810578  0.017455758            3 
 1213000   0.79299461     -8.10209     258.3798  0.017750742  0.017441684            2 
 1214000   0.76689012    -8.090332    259.07734  0.017784002  0.017427595            2 
 1215000   0.76973131   -8.1410776    258.24457  0.017712248  0.017413504            1 
 1216000   0.76758701    -8.127553    259.03451  0.017751817  0.017399445            5 
 1217000   0.76877759   -8.0994623    259.29355  0.017754968  0.017385386            1 
 1218000   0.77524334   -8.1175999     259.5531  0.017758148  0.017371366            4 
 1219000   0.76733177   -8.1175486    258.79466  0.017691732  0.017357265            1 
 1220000   0.75436476   -8.1075237    259.23434  0.017707264  0.017343185            2 
 1221000   0.77569933   -8.1141314    258.88004  0.017668581  0.017329197            2 
 1222000   0.76274562   -8.1183785    259.29198  0.017682214  0.017315183            1 
 1223000   0.77370045   -8.1048207    259.21083  0.017662226  0.017301125            2 
 1224000   0.75260048   -8.1103495    259.05521  0.017637201  0.017287087            3 
 1225000   0.77870931   -8.1234697    259.27305  0.017637623  0.017273021            1 
 1226000   0.76772266   -8.1040774    259.75206  0.017655795  0.017258934            1 
 1227000   0.77155605   -8.0969784    258.96388  0.017587875  0.017244876            1 
 1228000    0.7477512   -8.0933572    259.46092  0.017607283  0.017230825            1 
 1229000   0.75204941    -8.073676    259.93147  0.017624862  0.017216823            1 
 1230000   0.75277557   -8.1183212    259.03087  0.017549517  0.017202815            2 
 1231000   0.75381948   -8.0962792    259.70569  0.017580943  0.017188812            1 
 1232000   0.75776642   -8.1339102    259.36525  0.017543645  0.017174782            2 
 1233000   0.76171791   -8.1283946    259.16263  0.017515723  0.017160732            1 
 1234000   0.76884459   -8.1441082    259.35504  0.017514522  0.017146629            3 
 1235000     0.754509   -8.1029188    259.69538  0.017523305  0.017132586            5 
 1236000   0.77826313   -8.1185549    259.63015   0.01750473  0.017118659            4 
 1237000    0.7597383    -8.136406    259.36294  0.017472578  0.017104687            2 
 1238000   0.74102903   -8.1219181    259.72758  0.017483009  0.017090746            2 
 1239000     0.747317   -8.1046998    259.69315  0.017466582  0.017076767            3 
 1240000     0.759497   -8.1442419    258.70235  0.017385911   0.01706282            1 
 1241000   0.74691226   -8.1331624    259.58594  0.017431234  0.017048829            1 
 1242000   0.74904102   -8.1420463    259.15905  0.017388557  0.017034827            2 
 1243000   0.76370501   -8.1490807    259.52734  0.017399258  0.017020828            1 
 1244000   0.74218716   -8.1615806    259.20834  0.017363903  0.017006788            5 
 1245000   0.75635404   -8.1551869     259.1895  0.017348694  0.016992795            4 
 1246000    0.7486289   -8.1493943    259.29092  0.017341554  0.016978796            2 
 1247000   0.76597364   -8.1376582    259.92179  0.017369807  0.016964895            3 
 1248000   0.74468469   -8.1455647    259.94995  0.017357769  0.016951045            2 
 1249000   0.73752371   -8.1539308    259.17316  0.017292044  0.016937152            2 
 1250000   0.77279254   -8.1324145    260.13525   0.01734235  0.016923332            2 
 1251000   0.75746798   -8.1492877    259.65025  0.017296179  0.016909459            5 
 1252000   0.75491445   -8.1441375    260.23362  0.017321194  0.016895646            5 
 1253000   0.74985209   -8.1509483    259.74774  0.017275056   0.01688177            2 
 1254000   0.75674574   -8.1618164    259.31842   0.01723275   0.01686788            1 
 1255000   0.74640263   -8.1205356    259.95237  0.017261113   0.01685405            2 
 1256000   0.75886465   -8.1512369    260.58739  0.017289503  0.016840287            6 
 1257000   0.73850873   -8.1491434    260.15862  0.017247323  0.016826509            3 
 1258000    0.7493844   -8.1344366    259.86827  0.017214379  0.016812751            3 
 1259000   0.76039417   -8.1665279    259.65567  0.017186634  0.016799001            3 
 1260000     0.751834   -8.1461505    259.85496  0.017186175  0.016785281            2 
 1261000   0.74545955    -8.131338    260.23685  0.017197783  0.016771589            7 
 1262000   0.74300427   -8.1444419    260.68052  0.017213452  0.016757859            3 
 1263000   0.76216343   -8.1645093    260.15134  0.017164907  0.016744181            2 
 1264000   0.75307429   -8.1476762    260.17931  0.017153172  0.016730474            3 
 1265000   0.74987169   -8.1304579    261.18494  0.017205859  0.016716791            4 
 1266000   0.76005525   -8.1529332     260.0897  0.017120175  0.016703089            3 
 1267000   0.74029456   -8.1696602    260.10804  0.017107869  0.016689313            6 
 1268000   0.75176104   -8.1505047    260.28785  0.017106194    0.0166755            1 
 1269000   0.73839508   -8.1495523    259.81642  0.017061756  0.016661775            2 
 1270000    0.7353774   -8.1792586    260.18492  0.017072501  0.016647996            2 
 1271000   0.75855972    -8.193397    259.94689  0.017043462  0.016634189            2 
 1272000   0.73126557   -8.1793615    259.42538  0.016995898  0.016620356            3 
 1273000   0.74214285   -8.1961012    259.94416  0.017016507  0.016606492            4 
 1274000    0.7431674   -8.1428621    260.43156  0.017035031   0.01659267            2 
 1275000   0.75443735   -8.1740806    260.12088  0.017001365  0.016578946            3 
 1276000   0.75153532   -8.1829565    260.06844  0.016984616   0.01656523            2 
 1277000   0.73527731   -8.1808751    259.84539   0.01695676  0.016551519            3 
 1278000   0.73765988   -8.1826038    260.07924   0.01695874  0.016537787            2 
 1279000   0.73622086   -8.1778313    260.08716  0.016945997  0.016524087            2 
 1280000   0.74888449   -8.1952205    260.55264  0.016963062  0.016510489            4 
 1281000   0.75133864   -8.1957025    260.58128  0.016951684    0.0164969            1 
 1282000   0.73010753   -8.2011187    261.09088  0.016971586  0.016483278            3 
 1283000   0.75839365   -8.1617687    260.89422  0.016945585  0.016469702            7 
 1284000   0.74096973   -8.2098887    259.82213  0.016862807  0.016456084            3 
 1285000   0.75022402    -8.192165    260.03999  0.016863813  0.016442463            3 
 1286000   0.75383019    -8.162413    260.60422  0.016887262  0.016428917            3 
 1287000   0.73972634   -8.2030138    260.23952  0.016850526  0.016415364            3 
 1288000   0.73364991   -8.1861729    260.44293  0.016850603  0.016401812            2 
 1289000   0.73044672   -8.1983338    260.29923  0.016828241  0.016388306            2 
 1290000   0.74576973   -8.1902545    260.17163  0.016806953   0.01637477            3 
 1291000   0.71537212    -8.192418    260.34469  0.016805105  0.016361245            4 
 1292000   0.73008374   -8.1941399    260.86963  0.016825956  0.016347746            3 
 1293000   0.75192764   -8.2226972    260.34113  0.016778882  0.016334251            1 
 1294000   0.74238743   -8.1994655    260.64004  0.016785165  0.016320761            1 
 1295000   0.75357809   -8.1769945    260.36223  0.016754326  0.016307272            6 
 1296000   0.74055634   -8.2113328    260.71222  0.016763903  0.016293829            3 
 1297000   0.73263878   -8.1977789    260.65329  0.016747192  0.016280421            4 
 1298000   0.74271154   -8.1986276    260.40873  0.016718588  0.016266976            2 
 1299000   0.74539637   -8.1991852    260.50481  0.016711881  0.016253577            2 
 1300000   0.73242336   -8.1690436    260.97131   0.01672893  0.016240192            2 
 1301000    0.7340983    -8.189779    261.58633  0.016755466  0.016226823            8 
 1302000   0.75410937   -8.2001619    261.18903  0.016717168  0.016213458            4 
 1303000   0.73799606   -8.1690128    261.10682   0.01669908  0.016200087            2 
 1304000   0.75455391    -8.169059    260.85168  0.016669969  0.016186792            2 
 1305000   0.74979653    -8.191643    261.31335  0.016686676  0.016173491            2 
 1306000   0.73619337   -8.2254562     260.8068  0.016641578  0.016160193            2 
 1307000   0.73907749   -8.2086913    261.31324  0.016661135  0.016146883            3 
 1308000   0.74548544   -8.2428829    260.84893  0.016618816  0.016133537            3 
 1309000   0.71531957   -8.2083479    260.78326  0.016601939   0.01612026            2 
 1310000   0.73146457   -8.2206773     261.4295  0.016630375  0.016106986            2 
 1311000   0.72949592   -8.2393594    261.15145  0.016600016  0.016093681            4 
 1312000    0.7307708   -8.2059356    260.89271  0.016570929  0.016080389            2 
 1313000   0.72486391   -8.2180892    261.63484   0.01660541  0.016067111            5 
 1314000   0.72065422   -8.2348115    261.49748  0.016584061  0.016053907            2 
 1315000   0.74164554   -8.2205128    261.24357  0.016555359  0.016040683            1 
 1316000   0.73398111   -8.2235837    261.32597  0.016547997  0.016027441            2 
 1317000   0.72071941    -8.216797    260.82807  0.016503927  0.016014195            2 
 1318000   0.74123773   -8.2201145    261.20221  0.016515061  0.016000922            1 
 1319000   0.71703853   -8.2312877    261.07624  0.016494582  0.015987638            2 
 1320000   0.73428543   -8.2291161    260.98225  0.016476152  0.015974364            1 
 1321000   0.74346428   -8.2396441    261.06027  0.016468601  0.015961131            3 
 1322000   0.72809885   -8.2269394    260.90982   0.01644666  0.015947859            2 
 1323000   0.71211126   -8.2415871    260.71993  0.016422268  0.015934609            3 
 1324000   0.73107186   -8.2115924    261.66537  0.016469371  0.015921387            3 
 1325000   0.72495616   -8.2189127    261.19656  0.016427457  0.015908225            2 
 1326000   0.71631012   -8.2051507    261.35618  0.016425099  0.015895036            2 
 1327000   0.71530774   -8.2407716    261.15478  0.016400074  0.015881841            1 
 1328000    0.7199298   -8.2576672    261.13735  0.016386631  0.015868684            2 
 1329000   0.74604434   -8.2194981    261.28727  0.016383701  0.015855553            2 
 1330000   0.72920985   -8.2308557    261.39864  0.016378361  0.015842435            2 
 1331000    0.7142865     -8.24226    261.30176   0.01635999  0.015829315            2 
 1332000   0.72832127   -8.2087572    261.81344   0.01637972  0.015816204            1 
 1333000   0.71412137   -8.2112678    261.76798   0.01636459  0.015803127            1 
 1334000   0.72630647   -8.2344528     261.7914  0.016353786  0.015790022            1 
 1335000   0.73202658    -8.248887    261.61467  0.016330504  0.015776945            1 
 1336000    0.7262162   -8.2132245    262.25192  0.016358029  0.015763906            2 
 1337000   0.72382179   -8.2199431    261.47699  0.016297494  0.015750907            3 
 1338000   0.70639331   -8.2418966    261.64343   0.01629568  0.015737845            2 
 1339000   0.72307282   -8.2227142    261.24643  0.016258802  0.015724797            4 
 1340000   0.70540617    -8.224226    261.96211  0.016291176  0.015711753            4 
 1341000   0.72523934   -8.1857889    261.48164   0.01624917   0.01569872            3 
 1342000    0.7295863   -8.2473092    261.20843  0.016220096  0.015685718            2 
 1343000   0.71515119   -8.2213572    261.59035  0.016231717  0.015672667            2 
 1344000   0.72166352   -8.2125463    261.93893  0.016241253  0.015659695            4 
 1345000   0.70934104    -8.221481    261.93454  0.016228906  0.015646689            2 
 1346000   0.70662222   -8.2443598    262.28376   0.01623847    0.0156337            3 
 1347000   0.70993515    -8.235348    261.72524  0.016191861  0.015620731            3 
 1348000   0.71781302   -8.2652594    261.48057  0.016164724  0.015607732            2 
 1349000   0.71645603   -8.2355193     261.6616  0.016163924  0.015594745            1 
 1350000   0.71342838   -8.2202679    261.70643  0.016154718  0.015581731            3 
 1351000   0.71337971   -8.2279773    261.59537   0.01613591  0.015568722            2 
 1352000   0.71452267   -8.2494793    261.03547  0.016089465  0.015555671            2 
 1353000   0.71575423     -8.26324    261.66665  0.016116448  0.015542638            3 
 1354000   0.71016266   -8.2390039    261.50209  0.016094417  0.015529601            1 
 1355000   0.71251338   -8.2647039    261.21731  0.016065025  0.015516523            3 
 1356000   0.71377622   -8.2457658    261.13364  0.016048036  0.015503478            1 
 1357000   0.71062121   -8.2516671    261.07412  0.016032555  0.015490441            2 
 1358000   0.72244969   -8.2508794     260.9588  0.016013672  0.015477416            2 
 1359000   0.71563782   -8.2747695    261.18132  0.016015534  0.015464369            1 
 1360000   0.70984799    -8.279333    261.23224  0.016006877  0.015451353            2 
 1361000   0.70410104   -8.2835037    260.67646  0.015961086  0.015438316            3 
 1362000   0.69535288    -8.270643    261.84842  0.016021073  0.015425296            1 
 1363000   0.70303855   -8.2846544    260.98232  0.015956366  0.015412318            3 
 1364000   0.71092802   -8.2822696    260.33172  0.015904919  0.015399354            1 
 1365000   0.71648709   -8.2316359    261.13248  0.015942154  0.015386399            4 
 1366000   0.68583305   -8.2898699    261.22675  0.015936234  0.015373485            4 
 1367000   0.69924199   -8.2612652    261.05888  0.015914343   0.01536053            3 
 1368000   0.70778489    -8.275482    261.82209  0.015949201  0.015347599            2 
 1369000   0.70637691   -8.2452546    261.70633  0.015930504  0.015334704            2 
 1370000   0.71821233   -8.2706419    261.15926  0.015885599   0.01532185            2 
 1371000   0.70792508   -8.2828938    261.38009  0.015887436   0.01530893            2 
 1372000   0.71334966   -8.2685023     261.1453  0.015861595  0.015296024            2 
 1373000    0.7065643    -8.280204    261.04953   0.01584423  0.015283095            2 
 1374000   0.69019335   -8.2612542    260.79879  0.015817491  0.015270204            3 
 1375000   0.70271576   -8.2619187    261.43354  0.015844457  0.015257328            1 
 1376000    0.7084302   -8.2693684    260.99468  0.015806364  0.015244487            2 
 1377000     0.705186   -8.2717781    261.11697  0.015802285  0.015231614            3 
 1378000   0.69742173    -8.233592    261.15966    0.0157934   0.01521877            1 
 1379000   0.70469701   -8.2831892    261.25252  0.015787559  0.015205931            1 
 1380000   0.68676982   -8.2644896    261.20476  0.015773235  0.015193037            3 
 1381000   0.70578363   -8.2876588    261.01895  0.015750601  0.015180185            2 
 1382000   0.68962519   -8.2549627    261.45373   0.01576542  0.015167326            2 
 1383000   0.69098863   -8.2776236    260.84809  0.015717528  0.015154502            3 
 1384000   0.71050682   -8.2583682    261.42848  0.015741117  0.015141718            3 
 1385000   0.69907991   -8.2540501    261.43856  0.015730358  0.015128986            2 
 1386000   0.68929125   -8.2883544     261.9193  0.015747914  0.015116239            3 
 1387000   0.68963231   -8.2967889    261.31188  0.015700065  0.015103468            4 
 1388000   0.70275056   -8.2645022    261.74446  0.015714725  0.015090754            3 
 1389000    0.6842911   -8.2956523    261.38686  0.015681957     0.015078            3 
 1390000   0.69989741   -8.3008222    260.71411  0.015630343  0.015065252            2 
 1391000   0.70975579   -8.2662761    261.66788  0.015676245  0.015052505            1 
 1392000   0.69624411   -8.2966943    261.42715  0.015650572  0.015039769            1 
 1393000   0.69435833   -8.2851577    261.18705  0.015624973  0.015027049            3 
 1394000   0.67924668   -8.2822818     261.3366  0.015622705  0.015014326            4 
 1395000    0.6947913   -8.2740489    261.42557   0.01561682  0.015001634            3 
 1396000   0.70527354   -8.3104741    261.48628  0.015609257  0.014988936            2 
 1397000   0.71551366   -8.2960946    261.14946  0.015577992  0.014976217            2 
 1398000   0.68937447   -8.2889357    261.70695  0.015600081  0.014963553            3 
 1399000   0.68922333   -8.3056234     261.1581  0.015556237  0.014950872            3 
 1400000   0.69468657   -8.2885656     261.5175  0.015566518  0.014938242            2 
 1401000   0.69731178   -8.2765836    261.59117  0.015559789  0.014925624            2 
 1402000   0.69156747   -8.2744075    262.30872  0.015591341  0.014913044            2 
 1403000   0.68905614   -8.2975957    261.06977  0.015506639  0.014900436            2 
 1404000   0.69656264   -8.3024652     261.2406  0.015505734  0.014887809            4 
 1405000   0.68799865   -8.3161877    261.00364  0.015480643  0.014875216            2 
 1406000   0.68727999   -8.3074513    261.06408  0.015473215  0.014862597            3 
 1407000   0.69327217   -8.2920064    261.09736  0.015464188  0.014849972            1 
 1408000   0.69476523   -8.3195541    261.07535  0.015451903   0.01483737            5 
 1409000   0.70389963   -8.2950735    261.49306  0.015465641  0.014824789            3 
 1410000   0.67581119   -8.3115146    261.35273  0.015446379  0.014812196            3 
 1411000   0.70523928   -8.3060216    261.09833  0.015420407  0.014799594            2 
 1412000   0.69095886   -8.3032619     261.1511  0.015412601   0.01478698            2 
 1413000   0.68878759   -8.3160318    261.17485  0.015403093  0.014774404            3 
 1414000   0.69220112   -8.3151659    261.21845   0.01539477  0.014761799            2 
 1415000   0.70243961    -8.307237    261.01574  0.015371952  0.014749214            4 
 1416000   0.68994465   -8.3401225    260.93158  0.015356143  0.014736644            1 
 1417000   0.68271027   -8.3254558    261.36399  0.015370736  0.014724084            1 
 1418000   0.69271471   -8.3186046    260.88077  0.015331498  0.014711518            2 
 1419000   0.69347492   -8.3205166    261.54455  0.015359675  0.014698997            1 
 1420000   0.70348618   -8.3296711    260.52938  0.015289283   0.01468645            1 
 1421000   0.69108089   -8.3238398     261.0678  0.015310099  0.014673898            2 
 1422000   0.68773542    -8.332055    260.93606  0.015291612  0.014661379            2 
 1423000   0.69764745   -8.3452867    260.39781  0.015249345  0.014648834            3 
 1424000   0.69157106     -8.33792    261.01881  0.015274977   0.01463632            5 
 1425000   0.67312783   -8.3107498     261.3347  0.015282731  0.014623775            1 
 1426000   0.68662697   -8.3259325    261.02752  0.015254063   0.01461131            1 
 1427000   0.67914897   -8.3370807     260.7541  0.015227406   0.01459885            2 
 1428000   0.66848199   -8.3381974    261.29341  0.015248215    0.0145864            4 
 1429000   0.68248306   -8.3210553    261.67859  0.015260007  0.014573985            4 
 1430000   0.69207033   -8.3271596    261.19723  0.015221284  0.014561585            4 
 1431000   0.66723899   -8.3263338    261.45529  0.015225675  0.014549193            1 
 1432000   0.68227118   -8.3302469    261.63453  0.015225473   0.01453681            3 
 1433000   0.69223344   -8.3411431    261.04269  0.015180431  0.014524431            4 
 1434000   0.67988281   -8.3158826    261.49495  0.015196127  0.014512061            3 
 1435000   0.70097301   -8.3289337    261.10309  0.015162781  0.014499705            2 
 1436000   0.68360754   -8.3498519    260.98393  0.015145307  0.014487361            1 
 1437000   0.65853029   -8.3297494    261.62256  0.015171802  0.014475016            2 
 1438000   0.68348189   -8.3364883    261.46513  0.015152129   0.01446267            1 
 1439000   0.67960167   -8.3489166    261.33044  0.015133799  0.014450339            1 
 1440000   0.68478731   -8.3595605    261.32944  0.015123232  0.014437998            1 
 1441000   0.67036586   -8.3288006    261.10063  0.015099505  0.014425681            4 
 1442000   0.65854125   -8.3647933    261.22124  0.015096003  0.014413325            1 
 1443000   0.67385687   -8.3447919    261.30522  0.015090391  0.014400995            3 
 1444000   0.68418287   -8.3355661    261.34215  0.015082072  0.014388674            3 
 1445000   0.67849653   -8.3327968    260.91062  0.015046749  0.014376392            4 
 1446000    0.6773425   -8.3522948    261.28897  0.015058147  0.014364138            2 
 1447000   0.68326919   -8.3247709    261.48849  0.015059231  0.014351898            1 
 1448000   0.68639195   -8.3399428    261.16648  0.015030299  0.014339664            3 
 1449000   0.67386455   -8.3320449    262.13095  0.015075394  0.014327439            2 
 1450000   0.66525898   -8.3777367    261.45404  0.015026094  0.014315209            1 
 1451000    0.6941913   -8.3653411    261.32598  0.015008384  0.014302964            1 
 1452000   0.69235221   -8.3483018    261.26448  0.014994518  0.014290761            1 
 1453000   0.66758929    -8.369677    261.95753  0.015023946  0.014278563            3 
 1454000   0.66832228   -8.3620578    261.07592  0.014963086  0.014266359            1 
 1455000   0.68244091   -8.3630467    261.88357  0.014999059  0.014254181            2 
 1456000   0.65720432   -8.3835384    261.31711  0.014956337  0.014242011            2 
 1457000   0.66810976    -8.364676    261.15711   0.01493692   0.01422989            2 
 1458000    0.6731402   -8.3328336    261.46277  0.014944146  0.014217768            2 
 1459000   0.67413165   -8.3517329    260.94511  0.014904335  0.014205645            2 
 1460000   0.68394605   -8.3655037    261.85082  0.014945823  0.014193557            3 
 1461000   0.67425175   -8.3651883    261.75013   0.01492985  0.014181469            3 
 1462000   0.69496107   -8.3962743    260.96829  0.014875074  0.014169375            1 
 1463000   0.66744576   -8.3796704    260.84547   0.01485791  0.014157262            1 
 1464000   0.67828759    -8.383242    260.88923  0.014850252  0.014145162            6 
 1465000   0.68144167   -8.3806018    261.30256  0.014863627  0.014133075            4 
 1466000   0.67976822    -8.344898    261.79953  0.014881738  0.014120975            3 
 1467000   0.68067175    -8.368507    260.99176  0.014825708  0.014108905            2 
 1468000   0.66384001   -8.3860991    261.28542  0.014832279  0.014096833            2 
 1469000   0.65952244   -8.3821665     261.2828  0.014822033  0.014084782            4 
 1470000   0.66793001    -8.396256    260.23868   0.01475276  0.014072675            3 
 1471000   0.66639495   -8.4184478    261.06625  0.014789613  0.014060567            3 
 1472000    0.6908781   -8.3824137    261.35212   0.01479575   0.01404847            2 
 1473000   0.66685037   -8.3846446    261.35315  0.014785763  0.014036382            1 
 1474000   0.66794784   -8.4026092    261.37346  0.014776881   0.01402429            1 
 1475000   0.67072626   -8.3902119    261.22661  0.014758566  0.014012239            4 
 1476000   0.65294238   -8.3952983    261.03656  0.014737837  0.014000184            3 
 1477000   0.67243392   -8.3975149    260.82727   0.01471605  0.013988143            3 
 1478000   0.67135451   -8.3651118    260.99194  0.014715378  0.013976099            2 
 1479000   0.67753632   -8.3976352    261.08149  0.014710474  0.013964101            2 
 1480000   0.66031252   -8.3736879    260.88079  0.014689234   0.01395209            3 
 1481000    0.6664451   -8.3746729    261.12445  0.014693026  0.013940131            2 
 1482000   0.65900195   -8.3570268    261.19577  0.014687121   0.01392817            2 
 1483000   0.66225015   -8.3926739    260.91791  0.014661604   0.01391627            2 
 1484000   0.66781989   -8.3759697    261.74059  0.014697922  0.013904365            2 
 1485000   0.66416809   -8.3592194    261.55305    0.0146775  0.013892485            2 
 1486000   0.65493629   -8.3750178    260.78774  0.014624705    0.0138806            5 
 1487000   0.66209491   -8.3776468    261.01453   0.01462758  0.013868714            2 
 1488000   0.65764989   -8.3909839    261.49199  0.014644489  0.013856858            9 
 1489000   0.66168054   -8.3780252    260.80889  0.014596423   0.01384502            4 
 1490000   0.65354165   -8.3943326    260.91404  0.014592508  0.013833189            3 
 1491000    0.6577772   -8.3837109    260.82014  0.014577472  0.013821369            1 
 1492000   0.65272813   -8.3760848    261.02437  0.014579109   0.01380953            1 
 1493000   0.65173102   -8.3739211    261.14432  0.014576039  0.013797686            4 
 1494000   0.65857739   -8.3884897     261.0755  0.014562444  0.013785854            2 
 1495000    0.6412425   -8.3862112    261.65672  0.014585102  0.013774015            3 
 1496000   0.65983916   -8.3988409    261.03909  0.014540948   0.01376216            2 
 1497000   0.65472788   -8.4146444    261.22012  0.014541311  0.013750321            6 
 1498000   0.65772018   -8.3990036    261.08902  0.014524311  0.013738497            2 
 1499000   0.65316022   -8.4139066    260.90132  0.014504187  0.013726683            2 
 1500000   0.65562179   -8.4023235    260.92066  0.014495592   0.01371491            3 
 1501000   0.64930823   -8.4182597    261.02357  0.014491648  0.013703089            5 
 1502000   0.63947106   -8.3941583    260.67786  0.014462819  0.013691303            1 
 1503000    0.6517434   -8.4153839    261.15635  0.014479727  0.013679488            1 
 1504000   0.66337058   -8.4190655    261.23235   0.01447431  0.013667725            2 
 1505000    0.6591787   -8.4119876    261.18373  0.014462001  0.013655963            1 
 1506000   0.65493096     -8.41582    260.52815  0.014416121  0.013644247            3 
 1507000     0.670925    -8.406085    260.92905  0.014428724  0.013632518            4 
 1508000   0.64574372    -8.393551    260.74029  0.014408725  0.013620799            2 
 1509000   0.64371693   -8.4012333    261.39584  0.014435379  0.013609097            2 
 1510000   0.64485895   -8.4068721    261.01078  0.014404568  0.013597411            4 
 1511000   0.66120229    -8.415618    261.91013  0.014444635  0.013585738            2 
 1512000   0.62904164   -8.4432062    261.22304  0.014397213  0.013574063            3 
 1513000   0.64878578   -8.4129538    261.09312  0.014380542  0.013562421            2 
 1514000   0.65706343   -8.4075339     260.7354  0.014351354  0.013550805            2 
 1515000   0.64911982    -8.426692    260.98033  0.014355354  0.013539183            2 
 1516000   0.63646543   -8.4039236    260.93026  0.014343132   0.01352757            3 
 1517000   0.64441271   -8.4147282    261.11147  0.014343632  0.013515988            2 
 1518000   0.64623985   -8.4147579    260.87864  0.014321401  0.013504407            2 
 1519000   0.64295309   -8.3976241    261.27017  0.014333452  0.013492829            1 
 1520000   0.62353102   -8.3837361    260.96067  0.014307054  0.013481262            6 
 1521000   0.64251428   -8.3819584    261.53194  0.014328947  0.013469749            5 
 1522000   0.64947013   -8.3975441    261.23838  0.014303459   0.01345824            3 
 1523000    0.6559186   -8.3980345    261.28077  0.014296387  0.013446748            2 
 1524000   0.64190088   -8.3953545    261.28886  0.014287449  0.013435244            3 
 1525000   0.62767066   -8.4087019    261.42258  0.014285387  0.013423786            1 
 1526000   0.65489448   -8.3853922    261.42272  0.014276033   0.01341234            2 
 1527000   0.63299564   -8.4008755    260.74472  0.014229683  0.013400882            3 
 1528000   0.65563677      -8.4181    260.93043  0.014230499  0.013389425            1 
 1529000   0.63452199   -8.4014315    261.12037  0.014231544  0.013377978            4 
 1530000   0.63526909   -8.4083364    260.94365  0.014212617  0.013366523            7 
 1531000   0.64905228   -8.4108584    261.13742  0.014213881  0.013355062            2 
 1532000    0.6479804   -8.4223948    261.08861  0.014201948  0.013343616            1 
 1533000   0.64112964   -8.4315192    260.70337  0.014171742  0.013332171            6 
 1534000   0.64789798   -8.4166297    261.02614  0.014180038  0.013320727            1 
 1535000   0.62704068   -8.4145136    261.26205  0.014183607  0.013309308            7 
 1536000   0.64970877   -8.4139339    260.99593  0.014159935  0.013297899            2 
 1537000   0.64015348   -8.4151486    260.93932  0.014147654  0.013286489            2 
 1538000   0.63693721   -8.4206505     261.0791  0.014146028  0.013275111            4 
 1539000   0.65310159   -8.4533493    261.14143  0.014140212   0.01326373            2 
 1540000   0.64816203    -8.422542    260.76848  0.014110848  0.013252374            4 
 1541000   0.63985682   -8.4097264    260.97721  0.014112979  0.013241021            3 
 1542000   0.63596027   -8.4303076    261.10207  0.014110575   0.01322966            1 
 1543000    0.6361618   -8.4528848    261.20128  0.014106788  0.013218346            2 
 1544000    0.6470914   -8.4283552      261.384  0.014107513  0.013206991            2 
 1545000   0.61970586   -8.4482686     261.0475  0.014080232  0.013195658            1 
 1546000   0.62926493    -8.419572    260.98132  0.014067557  0.013184319            1 
 1547000   0.62622362   -8.4208999    261.29113  0.014075153  0.013173015            2 
 1548000   0.64432371   -8.4406526    261.36487   0.01407003  0.013161711            3 
 1549000   0.61612632   -8.4461492    260.79719  0.014030406  0.013150422            2 
 1550000   0.63331624   -8.4460679    261.01829  0.014033242  0.013139118            2 
 1551000   0.63236855   -8.4222071    260.86969   0.01401621   0.01312783            2 
 1552000   0.63324769   -8.4535427    260.66373  0.013996119  0.013116567            3 
 1553000   0.62205944   -8.4382483    260.61684  0.013984591  0.013105309            1 
 1554000   0.62910428   -8.4416298    261.33036  0.014013855  0.013094053            2 
 1555000   0.62935068   -8.4427598    261.02129  0.013988279  0.013082804            3 
 1556000    0.6221995   -8.4584639    261.05141  0.013980902  0.013071573            2 
 1557000   0.62943121   -8.4498819    260.82537  0.013959825  0.013060333            1 
 1558000   0.62890077    -8.436981    260.33183  0.013924467  0.013049118            2 
 1559000   0.62516409   -8.4650369    261.01296  0.013951943   0.01303791            2 
 1560000   0.62014019   -8.4456305    260.75664  0.013929308  0.013026701            2 
 1561000   0.62511126   -8.4463534    261.05864  0.013936507    0.0130155            2 
 1562000   0.62727862   -8.4818277    260.39849  0.013892365  0.013004298            1 
 1563000   0.63680009   -8.4287884    260.94079   0.01391239  0.012993151            1 
 1564000   0.62135222   -8.4772639    260.36545   0.01387284  0.012981966            2 
 1565000   0.62738928   -8.4618479    260.17968  0.013854083  0.012970807            1 
 1566000   0.63662577   -8.4724298    260.93134  0.013885235  0.012959658            3 
 1567000   0.63455884   -8.4472965     260.7878  0.013868741  0.012948517            4 
 1568000   0.63518345   -8.4793016    260.72879   0.01385676  0.012937361            1 
 1569000   0.62615991   -8.4592719      260.757  0.013849426  0.012926222            3 
 1570000   0.63071415   -8.4702665    260.38252  0.013820728  0.012915083            1 
 1571000   0.63069861   -8.4445419    260.51129  0.013818761  0.012903963            2 
 1572000    0.6221989   -8.4680827    260.62621  0.013816063  0.012892852            2 
 1573000    0.6350008   -8.4382448    260.55023  0.013803255  0.012881759            5 
 1574000   0.63199992   -8.4613789    260.55405  0.013794687  0.012870686            3 
 1575000    0.6164532    -8.465723    260.93563  0.013806118  0.012859611            3 
 1576000    0.6338618   -8.4828762    260.84923  0.013792789  0.012848542            1 
 1577000   0.63350839   -8.4592889     259.9823  0.013738232  0.012837462            3 
 1578000    0.6206676   -8.4680697    261.02563  0.013784624  0.012826413            5 
 1579000   0.61589789   -8.4830212    260.71225  0.013759355  0.012815382            2 
 1580000   0.61278334   -8.4831636    261.10135  0.013771168  0.012804336            3 
 1581000   0.62434775   -8.4620505    261.15536  0.013765304  0.012793316            2 
 1582000   0.62792545    -8.459567    260.47433   0.01372073  0.012782294            3 
 1583000   0.61073755   -8.4721661    260.56331  0.013716746  0.012771294            2 
 1584000    0.6194021   -8.4849209    260.71739  0.013716193   0.01276029            1 
 1585000   0.61741743   -8.4599149    260.57561  0.013700085  0.012749308            1 
 1586000   0.61052331   -8.4802596    260.80116  0.013703298  0.012738351            1 
 1587000   0.61402551   -8.4676749    260.85353  0.013697413  0.012727391            4 
 1588000   0.62203127   -8.4799382    260.69775  0.013680613  0.012716444            2 
 1589000    0.6252458   -8.4837496    260.21328  0.013646596  0.012705502            4 
 1590000   0.61826252   -8.4772764    260.73749  0.013665487  0.012694577            2 
 1591000   0.62929526   -8.4781006    260.74493  0.013657287  0.012683649            3 
 1592000   0.62583213   -8.4876439    260.02584  0.013611068   0.01267271            3 
 1593000   0.62115694   -8.5095982    260.69481  0.013637519  0.012661779            2 
 1594000   0.61479279   -8.4930339     260.6367  0.013625925  0.012650865            1 
 1595000   0.61415984   -8.4797746    260.32555  0.013601126  0.012639979            2 
 1596000   0.61171165    -8.466456    260.00883  0.013576067   0.01262911            2 
 1597000   0.60745173   -8.4698926     260.4844  0.013592381  0.012618231            3 
 1598000   0.62960556   -8.4704239    260.39801  0.013579371  0.012607382            1 
 1599000    0.6151411   -8.4829975    260.27226  0.013564324  0.012596543            2 
 1600000   0.61035598   -8.4999413    260.52808  0.013569171   0.01258568            2 
 1601000   0.61182768   -8.4943581     260.1524  0.013541141  0.012574832            2 
 1602000   0.60904982   -8.4913531    260.15611  0.013532882  0.012563974            2 
 1603000   0.60929678   -8.5000819    260.10465  0.013521764  0.012553125            4 
 1604000   0.62148525   -8.4759421    260.33355  0.013525226  0.012542292            2 
 1605000   0.60314468   -8.4918353    259.88375  0.013493445   0.01253147            3 
 1606000   0.60421605   -8.4864822    260.43188  0.013513485  0.012520646            1 
 1607000   0.60373298   -8.5000326    259.76055  0.013470263  0.012509828            2 
 1608000   0.60622349   -8.5250422    260.11774  0.013480397  0.012499017            3 
 1609000   0.61054912   -8.4904468    260.42982  0.013488182  0.012488211            1 
 1610000     0.609667   -8.5317788    260.11551  0.013463536   0.01247742            1 
 1611000    0.6021445   -8.4768783    260.84423  0.013492874  0.012466645            2 
 1612000   0.62369343    -8.514933    260.18657  0.013450505  0.012455914            3 
 1613000   0.60872466   -8.4988358    260.28021  0.013447004  0.012445185            3 
 1614000   0.61775773   -8.4949151    260.13782  0.013431321  0.012434445            2 
 1615000   0.62389053   -8.4921338    259.91146  0.013411324  0.012423702            2 
 1616000   0.60491702   -8.5176522    259.69695  0.013391963   0.01241299            1 
 1617000   0.60079426   -8.5012086    260.14028  0.013406529   0.01240229            3 
 1618000   0.59759816   -8.5053617    260.39037  0.013411123  0.012391587            5 
 1619000   0.60182669    -8.507025    260.32236  0.013399339  0.012380891            2 
 1620000   0.60634211   -8.5114611    260.17391  0.013383432  0.012370219            1 
 1621000   0.60713333   -8.5216849    260.01254  0.013366879  0.012359551            2 
 1622000   0.60466129   -8.5076963    259.66902   0.01334099  0.012348908            5 
 1623000   0.59692547    -8.514883    260.20079  0.013360073  0.012338275            3 
 1624000   0.59522107   -8.5210339    260.08035  0.013345666  0.012327646            2 
 1625000   0.60298031    -8.523236    260.37118  0.013352368   0.01231703            2 
 1626000   0.59617618   -8.5054674    259.87483  0.013318718  0.012306423            2 
 1627000   0.60632539   -8.5094125    259.89757  0.013311697  0.012295808            2 
 1628000   0.59605293   -8.5191908    260.31037   0.01332465  0.012285211            3 
 1629000   0.59695633   -8.5352133    260.17983  0.013309793  0.012274621            2 
 1630000   0.60937661   -8.4964835      259.725  0.013278374  0.012264047            2 
 1631000    0.5805301   -8.5259724    260.28547  0.013298869  0.012253507            4 
 1632000   0.61949632   -8.5254965    260.19452  0.013286077  0.012242933            4 
 1633000   0.58849729   -8.5263928    260.04884  0.013270506   0.01223238            2 
 1634000   0.60392115   -8.5232879    260.03544  0.013261701   0.01222183            3 
 1635000   0.59894865   -8.5273954    260.30164  0.013267158  0.012211279            2 
 1636000   0.58526704   -8.5182311    260.28551  0.013258227   0.01220077            2 
 1637000   0.59849856   -8.5359727     259.6648   0.01321853   0.01219025            2 
 1638000   0.58956801   -8.5110723    259.63163  0.013208773  0.012179719            2 
 1639000    0.6072036    -8.521209    259.27122  0.013182389  0.012169214            3 
 1640000   0.59797984   -8.5143133    260.30146    0.0132267  0.012158713            3 
 1641000   0.58985863   -8.5203909    259.86382  0.013196416  0.012148235            1 
 1642000   0.58881051   -8.5212736    259.62617  0.013176318  0.012137757            4 
 1643000   0.59532489   -8.5301116    260.10032  0.013192347  0.012127294            3 
 1644000   0.60580213   -8.5363059    259.53931  0.013155885  0.012116824            2 
 1645000   0.59985927   -8.5190142    259.81882  0.013162048  0.012106363            5 
 1646000   0.60882622   -8.5436979    259.46537  0.013136157  0.012095907            1 
 1647000   0.59822226   -8.5120838    259.85133  0.013147709  0.012085471            3 
 1648000   0.60043723   -8.5222202    259.68746  0.013131445   0.01207504            3 
 1649000   0.60062087   -8.5224212    259.83979   0.01313118   0.01206462            2 
 1650000   0.59215884   -8.5399976    259.47006  0.013104548  0.012054207            3 
 1651000   0.58997116   -8.5469614     260.3314  0.013140087  0.012043809            2 
 1652000   0.58997176   -8.5166239    260.22562  0.013126797  0.012033412            2 
 1653000     0.600304   -8.5358437    259.87744  0.013101303  0.012023033            3 
 1654000   0.58748309   -8.5366226    259.77601  0.013088272  0.012012671            3 
 1655000   0.59182014   -8.5494793    260.05507  0.013094414   0.01200232            3 
 1656000    0.5893205   -8.5429894     259.4031  0.013053699  0.011991959            3 
 1657000    0.5926148    -8.522285    259.56768  0.013054098  0.011981602            3 
 1658000   0.59535816   -8.5326393    259.81343  0.013058576  0.011971265            2 
 1659000   0.58016895   -8.5425158    259.23247  0.013021522  0.011960943            2 
 1660000   0.58279798   -8.5288393    259.72966  0.013038638  0.011950642            3 
 1661000   0.58427398   -8.5489273     260.4265  0.013065749  0.011940368            2 
 1662000   0.58523853   -8.5400298    260.17093  0.013045073    0.0119301            3 
 1663000   0.59860769   -8.5511341    259.92509  0.013024909  0.011919847            3 
 1664000     0.578079   -8.5282313    259.99017  0.013020341  0.011909604            3 
 1665000   0.58366531   -8.5293027    260.07093  0.013016563  0.011899362            3 
 1666000   0.57761383   -8.5408847    259.86123  0.012998261  0.011889131            2 
 1667000   0.59969579   -8.5413615    259.40021  0.012967417  0.011878912            6 
 1668000   0.59139394   -8.5220527    259.92867  0.012986045  0.011868721            3 
 1669000   0.59119866   -8.5499249    259.42014  0.012952873  0.011858507            4 
 1670000   0.57935827   -8.5340238    259.78925  0.012963535  0.011848324            4 
 1671000    0.5902996   -8.5342335    259.80332  0.012956479   0.01183814            3 
 1672000     0.575042   -8.5559149    259.55772  0.012936489   0.01182795            2 
 1673000   0.59311639   -8.5449125    259.64234  0.012932972  0.011817786            3 
 1674000    0.5951577   -8.5545489    259.63577  0.012924919  0.011807613            4 
 1675000   0.57002517   -8.5612457    259.63072  0.012916951  0.011797451            2 
 1676000   0.58823141   -8.5497322    259.75921  0.012915633  0.011787293            2 
 1677000   0.59059317   -8.5514339    259.57127  0.012898592  0.011777151            4 
 1678000   0.58450344   -8.5581243    259.57967  0.012891322  0.011767027            2 
 1679000   0.58533624   -8.5760431    259.21347  0.012865469  0.011756918            3 
 1680000   0.58616401   -8.5757993    259.67538  0.012880723  0.011746817            5 
 1681000   0.58309799   -8.5548232    259.35519  0.012857188  0.011736722            3 
 1682000   0.57879839   -8.5620145    259.50744  0.012857087  0.011726643            3 
 1683000   0.59647761   -8.5548665    259.95538  0.012871627  0.011716582            1 
 1684000   0.58293157   -8.5407994     259.7565  0.012854142   0.01170652            4 
 1685000   0.58296188   -8.5601761     259.6283  0.012840173  0.011696467            3 
 1686000     0.588613   -8.5566749    259.68945   0.01283558  0.011686407            8 
 1687000   0.58881407   -8.5716217    259.67457  0.012827236  0.011676367            3 
 1688000   0.57669786   -8.5605427      259.412  0.012806675  0.011666326            3 
 1689000    0.5872046   -8.5483404    259.42017  0.012799495  0.011656291            6 
 1690000   0.58943881   -8.5621181    259.32706   0.01278733  0.011646268            5 
 1691000   0.58455784   -8.5850278    259.23894  0.012775426  0.011636254            4 
 1692000   0.58020272   -8.5661354    259.29606  0.012770688  0.011626273            5 
 1693000   0.57167745   -8.5842376    259.80654  0.012788272  0.011616289            2 
 1694000   0.57547207   -8.5815244    259.41852  0.012761635  0.011606305            5 
 1695000   0.57631031    -8.547037    259.54328   0.01276024   0.01159635            1 
 1696000   0.57211354   -8.5847985    259.47848  0.012749532  0.011586396            2 
 1697000   0.57273993   -8.5777641    259.46552  0.012741383  0.011576462            2 
 1698000    0.5690899    -8.569406    260.07829  0.012763952  0.011566533            2 
 1699000   0.56375341     -8.58115    259.16103  0.012711449  0.011556607            6 
 1700000    0.5872577   -8.5542065    259.65149  0.012728014  0.011546688            2 
 1701000   0.58199062   -8.5649066    259.71778  0.012723779  0.011536784            2 
 1702000   0.58764667   -8.5736018    259.75827  0.012718286  0.011526882            5 
 1703000   0.57999737   -8.5953793     259.6891  0.012707433  0.011516998            3 
 1704000   0.56859323   -8.5681588    259.47981   0.01268974  0.011507114            4 
 1705000   0.57438255   -8.5910425    259.38456  0.012677642  0.011497247            2 
 1706000   0.56746749   -8.5797835    259.18517  0.012660472  0.011487388            4 
 1707000   0.58008276   -8.5755954    259.34954  0.012661079  0.011477544            1 
 1708000   0.58073341   -8.5641346    258.74006  0.012623929  0.011467692            2 
 1709000   0.58065879   -8.5867487    259.47015  0.012652143  0.011457851            4 
 1710000   0.57582315   -8.5768263    259.02804  0.012623199  0.011448036            4 
 1711000   0.56563255    -8.588374    258.78426  0.012603948  0.011438212            4 
 1712000   0.57974165   -8.5597456     259.4214  0.012627599  0.011428406            2 
 1713000   0.57538504   -8.5930058     259.3003  0.012614336  0.011418604            6 
 1714000   0.55707348     -8.59327    259.36386  0.012610067  0.011408815            3 
 1715000   0.58005092   -8.5958288    259.21723   0.01259559  0.011399029            3 
 1716000   0.57333631   -8.5979497    259.34605  0.012594505  0.011389267            3 
 1717000   0.57018891    -8.580977    259.16829  0.012578543   0.01137951            2 
 1718000   0.57498125   -8.5997728    259.16276  0.012570953  0.011369759            3 
 1719000   0.56275695   -8.5932345    258.91419   0.01255159  0.011360025            4 
 1720000   0.57996257   -8.6119373    259.64997   0.01257994  0.011350294            3 
 1721000   0.56435129   -8.6030667    259.34613  0.012557918  0.011340566            3 
 1722000   0.57317624   -8.5915386    259.19871  0.012543492  0.011330835            3 
 1723000   0.56090884   -8.6167771    259.25014  0.012538699  0.011321121            3 
 1724000   0.55944376   -8.6083735    259.30633  0.012534142  0.011311416            5 
 1725000   0.56423957   -8.5688463    259.07261  0.012515585  0.011301713            3 
 1726000   0.57825973   -8.6061665    259.15683    0.0125124  0.011292027            2 
 1727000   0.54963554   -8.6070997    258.64617  0.012480514  0.011282335            2 
 1728000   0.57537061   -8.6050263    259.15391  0.012497777  0.011272648            3 
 1729000   0.56516708   -8.6061477    259.17543  0.012491586  0.011262983            4 
 1730000   0.54653742   -8.6050659    259.56166   0.01250297  0.011253345            3 
 1731000    0.5845258   -8.6138663    259.03745  0.012470511  0.011243708            2 
 1732000   0.55829551   -8.6190537    258.98297  0.012460689  0.011234064            3 
 1733000   0.56644626   -8.6207969    259.11563  0.012459878  0.011224437            4 
 1734000   0.56248265   -8.5974958    259.46166  0.012469322  0.011214819            2 
 1735000   0.55888527    -8.591082    259.00572  0.012440236  0.011205217            4 
 1736000   0.56221241   -8.6167762    259.07375  0.012436336  0.011195627            2 
 1737000   0.55276133   -8.6068683    259.23976   0.01243714  0.011186044            3 
 1738000   0.56313997   -8.6100316    258.84651  0.012411129  0.011176466            6 
 1739000   0.55823827   -8.6051311    259.16912  0.012419452  0.011166894            3 
 1740000   0.56272932   -8.6049704    258.96398   0.01240249  0.011157324            3 
 1741000   0.54702712   -8.6131859     258.9426  0.012394342  0.011147768            2 
 1742000   0.54184098   -8.6149367    259.04226  0.012391995  0.011138226            4 
 1743000   0.55101659   -8.6142822    258.93483  0.012379749    0.0111287            3 
 1744000   0.54993787   -8.6202983    259.35621  0.012392785  0.011119188            3 
 1745000   0.55182832   -8.6164424    259.13303  0.012375025  0.011109681            4 
 1746000   0.54864503   -8.5978477    258.91856  0.012357701   0.01110018            5 
 1747000   0.55291171   -8.6298175    259.23815  0.012365873  0.011090691            2 
 1748000   0.57074195   -8.5975649    258.85965  0.012340754  0.011081208            2 
 1749000   0.54495828   -8.6182198    259.24716  0.012352161  0.011071732            1 
 1750000   0.54527776    -8.613153    258.78139  0.012322923  0.011062263            5 
 1751000   0.55121222   -8.5997652    258.76561  0.012315135  0.011052801            4 
 1752000   0.54878861   -8.6168791    258.89636  0.012314324  0.011043354            3 
 1753000   0.54725075   -8.6257401    258.84982  0.012305087  0.011033922            2 
 1754000   0.55752524   -8.6096765    258.92246  0.012301523  0.011024509            2 
 1755000   0.55871686     -8.63938    259.57037  0.012325279    0.0110151            3 
 1756000   0.55279811   -8.6267843    258.93455  0.012288086  0.011005695            2 
 1757000   0.55850227   -8.6194166    259.04314  0.012286243  0.010996295            4 
 1758000   0.55584432   -8.6267369     258.8116  0.012268279  0.010986908            3 
 1759000   0.55851298   -8.6367354    259.15682  0.012277659  0.010977536            1 
 1760000   0.55305885   -8.6241435    259.03003   0.01226468  0.010968174            3 
 1761000   0.54121862   -8.6305796    258.82604  0.012248062  0.010958817            5 
 1762000   0.55879844   -8.6389132    258.67515  0.012233974  0.010949465            2 
 1763000   0.56151836   -8.6400524    258.48814  0.012218195  0.010940128            4 
 1764000   0.54281245   -8.6276137    258.51953  0.012212752  0.010930791            2 
 1765000   0.55152996   -8.6215057    258.44063  0.012202107  0.010921474            3 
 1766000    0.5499303   -8.6275488    258.68266  0.012206619  0.010912162            3 
 1767000   0.55294275   -8.6195527     258.7633  0.012203513  0.010902844            3 
 1768000   0.55177792   -8.6400242    258.54726  0.012186428  0.010893549            2 
 1769000   0.55130728   -8.6353087    258.87782  0.012195111  0.010884277            3 
 1770000   0.54007482   -8.6197594    259.00888  0.012194392  0.010875006            3 
 1771000   0.55269768   -8.6234655    258.87408  0.012181163  0.010865741            2 
 1772000    0.5474479   -8.6342813    259.31446  0.012194999  0.010856497            2 
 1773000   0.53496444   -8.6185663    258.96328  0.012171615  0.010847246            5 
 1774000    0.5384623   -8.6375158    258.88453  0.012161055  0.010838014            3 
 1775000   0.55880855   -8.6475844    258.68989  0.012145065  0.010828795            3 
 1776000   0.55772878   -8.6380071     258.8256  0.012144594  0.010819585            1 
 1777000   0.54315675   -8.6172813     258.6747  0.012130684  0.010810376            2 
 1778000   0.54200374   -8.6302244    258.77745  0.012128677  0.010801182            3 
 1779000   0.53872575   -8.6227203    258.79816  0.012122829  0.010792005            1 
 1780000   0.53898489   -8.6318562    258.56834   0.01210526  0.010782841            2 
 1781000   0.54329353   -8.6366436    258.67286  0.012103353  0.010773676            5 
 1782000   0.55312007    -8.638823    258.79697  0.012102365   0.01076451            2 
 1783000   0.53722568   -8.6397455    258.76521  0.012094093  0.010755362            3 
 1784000   0.53112963   -8.6384193    258.65642  0.012082232  0.010746204            3 
 1785000   0.53457666   -8.6438958     258.9865  0.012090873  0.010737059            2 
 1786000   0.54436704   -8.6475081    258.89118  0.012079655  0.010727932            3 
 1787000   0.52524855   -8.6435501    258.45551  0.012052579  0.010718809            3 
 1788000   0.54804381   -8.6474992    258.45044  0.012045602  0.010709692            6 
 1789000   0.54594106   -8.6391444    258.91954   0.01206072  0.010700594            7 
 1790000   0.53690119   -8.6425522     258.6528  0.012041564  0.010691501            4 
 1791000    0.5479919   -8.6553172    258.62543  0.012033567  0.010682433            3 
 1792000   0.54188916   -8.6364163    258.57987  0.012024734   0.01067336            6 
 1793000   0.54644365   -8.6425857    258.89817  0.012032821  0.010664307            3 
 1794000   0.54249867   -8.6444962    258.79069  0.012021121  0.010655257            4 
 1795000   0.53732734   -8.6596773    258.72072  0.012011175  0.010646222            3 
 1796000   0.54509634   -8.6435624    258.88619  0.012012165  0.010637191            7 
 1797000   0.53149384   -8.6487882    258.44499  0.011985021  0.010628163            5 
 1798000   0.53599017   -8.6564439      258.644  0.011987579  0.010619142            7 
 1799000   0.53405692   -8.6322901     258.7072  0.011983843  0.010610132            6 
 1800000   0.52246515   -8.6761072    258.47786  0.011966568  0.010601126            3 
 1801000   0.52333229   -8.6475999    258.28501     0.011951  0.010592132            3 
 1802000   0.53201895   -8.6438428    258.53058  0.011955724   0.01058316            6 
 1803000   0.54170926   -8.6499998    258.81021  0.011962017  0.010574181            3 
 1804000   0.54061305   -8.6570581    258.56661  0.011944134  0.010565214            4 
 1805000   0.53901559   -8.6633355    258.60803  0.011939429  0.010556261            2 
 1806000   0.53432307   -8.6740396    258.86283  0.011944575  0.010547322            5 
 1807000   0.53197158   -8.6479735    258.47706  0.011920174  0.010538389            2 
 1808000   0.52922226   -8.6555482    258.36918  0.011908609  0.010529458            6 
 1809000   0.54196813   -8.6528172    258.24006  0.011896078  0.010520545            3 
 1810000   0.52469011   -8.6669798    258.31619  0.011893011  0.010511629            3 
 1811000   0.52044978   -8.6625464    258.68162  0.011903259  0.010502726            3 
 1812000   0.52750833   -8.6660781    258.81858  0.011902988  0.010493827            2 
 1813000   0.52264808   -8.6470915    258.48487  0.011881084  0.010484936            2 
 1814000   0.52846391   -8.6582774    258.49841  0.011875157  0.010476066            4 
 1815000    0.5272255   -8.6555781    258.05569  0.011848287  0.010467204            2 
 1816000   0.53372662   -8.6548296    258.12856  0.011845107  0.010458347            3 
 1817000   0.53269557   -8.6744913    258.23284   0.01184337  0.010449493            4 
 1818000   0.54087418     -8.67184    258.37416  0.011843334  0.010440657            2 
 1819000   0.52225228   -8.6659449    258.45637  0.011840589  0.010431826            1 
 1820000   0.52759258   -8.6582113    258.60884  0.011841064  0.010423001            2 
 1821000    0.5272581   -8.6720539    258.43149  0.011826446  0.010414188            2 
 1822000   0.52768002   -8.6605972    258.36486  0.011816907  0.010405377            3 
 1823000   0.52335175   -8.6777756    258.18667   0.01180228  0.010396571            2 
 1824000   0.51409625   -8.6704955    258.43926  0.011807349  0.010387774            5 
 1825000    0.5226748   -8.6785352    257.77902  0.011770732  0.010378983            2 
 1826000   0.53112477   -8.6680417    258.74762  0.011808489  0.010370212            2 
 1827000   0.52462961   -8.6658238    258.33073  0.011783011  0.010361451            3 
 1828000   0.52037396   -8.6678665    258.48238  0.011783478  0.010352688            2 
 1829000    0.5129961   -8.6888483    258.24643  0.011766285  0.010343942            2 
 1830000   0.52047102   -8.6764118    258.64091  0.011777819  0.010335201            4 
 1831000   0.52217223   -8.6872318    257.83722  0.011734809  0.010326462            2 
 1832000   0.52978091   -8.6965437    257.81611  0.011727443   0.01031774            2 
 1833000   0.53612626    -8.685224     258.1605  0.011736702  0.010309019            2 
 1834000   0.51455601   -8.6826143    257.95375  0.011720908  0.010300306            1 
 1835000   0.51809091   -8.6780486    258.46397  0.011737692   0.01029162            2 
 1836000   0.51936235   -8.6892804    258.26326  0.011722189  0.010282931            3 
 1837000   0.53129347   -8.6890719    258.44323  0.011723972  0.010274253            2 
 1838000   0.52855378   -8.6828677    258.26509  0.011709516  0.010265586            2 
 1839000   0.52357102   -8.6864462    258.11976  0.011696563  0.010256929            3 
 1840000   0.51698262   -8.6693003     258.0315  0.011686209  0.010248278            2 
 1841000   0.51947398   -8.6903488     258.0562   0.01168098  0.010239643            3 
 1842000    0.5106508    -8.698959    258.31531   0.01168636  0.010231006            2 
 1843000   0.51767254   -8.6875557    258.30914   0.01167974  0.010222371            2 
 1844000   0.52284186   -8.6884994    257.87693  0.011653874   0.01021374            6 
 1845000   0.52576126   -8.6928979    258.46629  0.011674177  0.010205126            4 
 1846000   0.52648437   -8.6963621    257.96704  0.011645316  0.010196521            3 
 1847000    0.5264491   -8.7005383    258.11758  0.011645803  0.010187912            1 
 1848000   0.50525096    -8.686315    258.20767  0.011643564  0.010179312            3 
 1849000   0.51706559   -8.6754472    258.41944  0.011646811   0.01017073            4 
 1850000   0.51309354   -8.6907008    257.97493  0.011620492  0.010162161            2 
 1851000   0.52292762   -8.6862186     258.2451  0.011626378  0.010153591            4 
 1852000   0.51623375    -8.687772    258.13703  0.011615237  0.010145038            3 
 1853000   0.52118134   -8.6795957    258.15284   0.01160968   0.01013649            2 
 1854000   0.50872532   -8.7029742    258.44311  0.011616465  0.010127957            3 
 1855000    0.5174267   -8.6937673    257.78147  0.011580479  0.010119431            3 
 1856000   0.51953907   -8.6895464    257.93641  0.011581196  0.010110914            1 
 1857000   0.51614856   -8.7131687    257.79036  0.011568406  0.010102394            7 
 1858000   0.50940567   -8.6931486    257.60567  0.011553896  0.010093889            4 
 1859000   0.51849576   -8.7060091    257.68397  0.011551191  0.010085389            4 
 1860000   0.51800269   -8.6895185     257.9192   0.01155552  0.010076897            4 
 1861000   0.51235047   -8.7026329    258.06102  0.011555661  0.010068405            2 
 1862000   0.51465393   -8.7056765    258.08313  0.011550444  0.010059922            3 
 1863000   0.51998982   -8.6997797    258.00843  0.011540903  0.010051459            3 
 1864000   0.51527002   -8.7020324    257.70898  0.011521324  0.010043003            1 
 1865000    0.5035711   -8.6986275     257.7947  0.011518977  0.010034554            4 
 1866000    0.5142516   -8.7108327    257.96351  0.011520342  0.010026105            4 
 1867000   0.50532955   -8.7064719    257.38277  0.011488251  0.010017659            4 
 1868000   0.50439675   -8.6914033    257.73985   0.01149803   0.01000923            2 
 1869000    0.4887862   -8.7340304    257.64155  0.011487496    0.0100008            2 
 1870000   0.50463586   -8.7016912    258.06002  0.011500001 0.0099923847            4 
 1871000   0.50548869   -8.7152434    257.87069  0.011485422 0.0099839786            2 
 1872000   0.50640402   -8.7135427    257.73794  0.011473377 0.0099755717            2 
 1873000   0.50015617   -8.7156878    258.04089   0.01148073 0.0099671826            2 
 1874000   0.50074785    -8.698439    258.01318  0.011473372 0.0099588102            4 
 1875000   0.49360091   -8.7099678    257.94085  0.011464038 0.0099504383            1 
 1876000   0.49711773   -8.6987094    257.51824  0.011439154 0.0099420731            3 
 1877000   0.51016511   -8.7086026    257.83081  0.011446937 0.0099337253            4 
 1878000   0.50984311   -8.6972437     257.3847  0.011421046  0.009925381            2 
 1879000   0.50608399   -8.7072651    257.47996  0.011419193 0.0099170419            1 
 1880000   0.50091103    -8.704356    257.80571  0.011427558  0.009908712            3 
 1881000   0.50262471   -8.7290903    257.71838  0.011417614 0.0099003912            5 
 1882000   0.50696913   -8.6989722    257.39025  0.011397018 0.0098920763            4 
 1883000   0.50502734   -8.7084857    257.68752  0.011404121 0.0098837771            2 
 1884000    0.5056548   -8.7025513     258.0367  0.011413513 0.0098754885            1 
 1885000   0.49644659   -8.6968478    257.64947  0.011390339 0.0098672007            3 
 1886000   0.50702599   -8.7222641    257.87713  0.011394359 0.0098589246            3 
 1887000    0.5084922   -8.7283686    257.44587  0.011369275  0.009850648            2 
 1888000   0.50328056   -8.7155684    257.41241  0.011361777  0.009842385            2 
 1889000    0.4935561    -8.702158    257.59879  0.011363984 0.0098341297            1 
 1890000   0.48895939   -8.7105348    257.50854  0.011353992 0.0098258835            1 
 1891000   0.49581408   -8.7232688    257.58064  0.011351165 0.0098176546            3 
 1892000   0.50419518   -8.7196123    258.18713  0.011371878 0.0098094287            2 
 1893000   0.51025415   -8.7121923    257.70999  0.011344866 0.0098012247            3 
 1894000   0.49716966    -8.726491    257.76809  0.011341433 0.0097930225            1 
 1895000   0.49985539   -8.7260768    257.47798  0.011322691 0.0097848275            2 
 1896000   0.48828057   -8.7234486    257.73311  0.011327932  0.009776641            2 
 1897000   0.49612863   -8.7202586    257.68383  0.011319796 0.0097684676            2 
 1898000   0.50191155    -8.713478    257.66221  0.011312883 0.0097602999            3 
 1899000   0.49324934   -8.7407859    257.51679  0.011300544  0.009752137            3 
 1900000   0.49013071   -8.7320828    257.28884  0.011284598 0.0097439766            3 
 1901000   0.48505762   -8.7208135    257.42609  0.011284679 0.0097358313            3 
 1902000   0.48910276   -8.6988736    257.97575  0.011302828 0.0097276991            1 
 1903000   0.49400381   -8.7348478    257.49411  0.011275797 0.0097195726            2 
 1904000   0.49226488   -8.7249414    257.40362  0.011265915  0.009711456            2 
 1905000   0.50003136   -8.7301166    257.39614  0.011259674 0.0097033444            2 
 1906000    0.4910636   -8.7258745    257.54674  0.011260351 0.0096952439            2 
 1907000   0.48720468   -8.7240373    257.50639  0.011252683 0.0096871422            3 
 1908000   0.49875356    -8.724722    257.59997  0.011250872 0.0096790537            2 
 1909000   0.49888712   -8.7336811    257.70695  0.011249649 0.0096709688            6 
 1910000   0.49644586   -8.7277352    257.24023  0.011223396  0.009662894            2 
 1911000   0.48977129   -8.7295557    257.56914  0.011231866 0.0096548313            3 
 1912000   0.49438463   -8.7342539    257.69619  0.011231528 0.0096467719            1 
 1913000   0.47867791   -8.7493578    257.24127   0.01120584 0.0096387292            3 
 1914000   0.47394113   -8.7427099    257.51915  0.011212084 0.0096306744            2 
 1915000   0.48691825    -8.729579     257.5802  0.011208886 0.0096226357            1 
 1916000   0.49301827   -8.7421491    257.24897   0.01118863 0.0096145984            2 
 1917000   0.50386509   -8.7261618    257.88472  0.011210429 0.0096065767            2 
 1918000   0.49037155   -8.7359371    257.41973  0.011184382 0.0095985682            1 
 1919000    0.4858091    -8.730352    257.24374  0.011170911 0.0095905623            2 
 1920000   0.49401214   -8.7476088    257.35143  0.011169767 0.0095825704            4 
 1921000   0.48988981   -8.7508755    257.12376  0.011154076 0.0095745757            4 
 1922000   0.49051587   -8.7308545    257.09736  0.011147128 0.0095665959            4 
 1923000    0.4884861   -8.7414645    257.47869  0.011157856  0.009558623            1 
 1924000   0.47974358   -8.7388175    257.25167  0.011142224 0.0095506692            3 
 1925000   0.48364869   -8.7276286    257.50486  0.011147397 0.0095427169            4 
 1926000   0.49001697    -8.744634    257.00134  0.011119823 0.0095347709            4 
 1927000   0.48192883   -8.7401037    257.31788  0.011127741  0.009526837            3 
 1928000   0.47856196   -8.7497011    257.31163  0.011121699 0.0095189062            3 
 1929000   0.48893497   -8.7580894    257.41594   0.01112044 0.0095109812            3 
 1930000   0.46835285   -8.7417084    257.28498  0.011109023 0.0095030675            2 
 1931000   0.47729012   -8.7423579    257.08097  0.011094466 0.0094951689            4 
 1932000   0.48487642   -8.7392033    257.04578  0.011087206 0.0094872729            2 
 1933000   0.46972557   -8.7515534    257.54383  0.011102941 0.0094793814            3 
 1934000    0.4762015   -8.7501265    257.05997  0.011076351 0.0094715034            4 
 1935000   0.47687413   -8.7562554     257.7589  0.011100728  0.009463628            2 
 1936000   0.48795331   -8.7283097    257.31138  0.011075731 0.0094557676            3 
 1937000    0.4746971   -8.7398128    257.01864  0.011057419 0.0094479105            2 
 1938000   0.47906615   -8.7646993    257.17144  0.011058284 0.0094400601            2 
 1939000   0.48005756   -8.7553752    257.21661  0.011054522 0.0094322233            3 
 1940000   0.48642682   -8.7565622    257.21388  0.011048706 0.0094243944            3 
 1941000   0.48789674   -8.7609419    257.16162   0.01104077 0.0094165726            2 
 1942000   0.48038231   -8.7600114    257.19142  0.011036364 0.0094087504            4 
 1943000   0.49261064    -8.740443    257.05124  0.011024672 0.0094009374            2 
 1944000   0.47387555   -8.7535349    257.43168  0.011035308 0.0093931373            2 
 1945000   0.47775942   -8.7501035    257.19916  0.011019673 0.0093853484            2 
 1946000   0.47813134   -8.7541265    257.10464  0.011009962 0.0093775715            2 
 1947000   0.47402699   -8.7675499    257.58655  0.011024934  0.009369801            1 
 1948000    0.4771183   -8.7587869    256.86738  0.010988509 0.0093620283            3 
 1949000   0.46273528   -8.7493453    257.15782  0.010995289 0.0093542682            2 
 1950000   0.47175288   -8.7558266    257.59164   0.01100819 0.0093465172            3 
 1951000   0.48046501   -8.7652965    257.35939  0.010992627 0.0093387769            1 
 1952000   0.47277825   -8.7627401    257.27848  0.010983542 0.0093310422            2 
 1953000   0.47928424   -8.7545785    257.57449  0.010990548 0.0093233199            3 
 1954000   0.47497832   -8.7282574    257.48265  0.010981007 0.0093156148            2 
 1955000   0.47365694   -8.7489504     257.1783  0.010962417 0.0093079104            3 
 1956000     0.476109   -8.7416045    256.99481  0.010948995 0.0093002162            2 
 1957000   0.47094664   -8.7620334    256.90939  0.010939763 0.0092925209            3 
 1958000   0.47193312   -8.7573411     256.7773  0.010928554 0.0092848398            3 
 1959000    0.4643384   -8.7691938    257.08523  0.010936074 0.0092771622            2 
 1960000   0.46473088   -8.7610276    256.79428  0.010918124 0.0092694913            2 
 1961000   0.47420861   -8.7733554    257.21885  0.010930599 0.0092618271            4 
 1962000   0.46959014   -8.7676013    257.10682  0.010920269   0.00925417            3 
 1963000   0.48329801   -8.7647243    257.44578  0.010929096 0.0092465241            2 
 1964000   0.46896079   -8.7519766    257.11414  0.010909459 0.0092388919            1 
 1965000   0.47112544   -8.7636783    257.55907  0.010922777 0.0092312603            2 
 1966000   0.46650091   -8.7692814    256.95736  0.010891716 0.0092236395            3 
 1967000   0.46345311   -8.7544931    257.35674  0.010903099  0.009216025            2 
 1968000   0.46482965   -8.7624959    256.69971  0.010869737 0.0092084072            3 
 1969000   0.46498149   -8.7638404    256.68353  0.010863532 0.0092008068            3 
 1970000   0.46275288   -8.7715193    257.31872  0.010884887  0.009193212            3 
 1971000   0.45395668   -8.7690174    257.19907  0.010874305 0.0091856304            3 
 1972000   0.46961651    -8.762152     256.8821  0.010855396 0.0091780583            4 
 1973000   0.45827651   -8.7634162    256.73149  0.010843533 0.0091704952            4 
 1974000   0.45904451   -8.7570205    256.89781  0.010845061  0.009162939            2 
 1975000   0.45976684   -8.7474801    257.30045  0.010856559  0.009155387            2 
 1976000   0.46696471   -8.7915298    257.22856  0.010848033 0.0091478552            2 
 1977000   0.45461798    -8.763685    256.72527  0.010821331 0.0091403287            3 
 1978000   0.45392216   -8.7653752    256.99721  0.010827318 0.0091328046            2 
 1979000   0.46345551   -8.7690331    257.27473  0.010833533 0.0091252817            1 
 1980000   0.45867073    -8.767532    257.12634  0.010821816 0.0091177731            2 
 1981000   0.45277367   -8.7750632    256.93981  0.010808506 0.0091102683            2 
 1982000    0.4569064   -8.7829227    257.00138  0.010805642 0.0091027817            2 
 1983000   0.45936658   -8.7723796    257.21423  0.010809137 0.0090952966            2 
 1984000   0.46922095    -8.777479    257.12977  0.010800142  0.009087823            4 
 1985000   0.47181895   -8.7710695    257.25789   0.01080008 0.0090803597            3 
 1986000   0.45269571   -8.7777466    256.96464  0.010782336 0.0090729014            3 
 1987000   0.45570806   -8.7621638    256.96602  0.010776968 0.0090654463            1 
 1988000    0.4710525   -8.7827295    256.93171  0.010770109 0.0090580015            1 
 1989000   0.45530447   -8.7841408    256.69333  0.010754706 0.0090505635            4 
 1990000   0.46730594   -8.7781389    256.77385  0.010752674 0.0090431373            3 
 1991000   0.46650439   -8.7836737    256.91925  0.010753359 0.0090357125            7 
 1992000   0.46424065   -8.7906329    257.58524  0.010775822 0.0090283024            2 
 1993000   0.45921601   -8.7671464    256.95314  0.010743985 0.0090208926            1 
 1994000   0.45873029    -8.790425    257.23809  0.010750505 0.0090134899            4 
 1995000   0.45645948   -8.7765824    256.67471  0.010721584  0.009006091            3 
 1996000   0.46331509   -8.7905003    257.25033  0.010740244 0.0089987051            4 
 1997000   0.44539046   -8.7755617    256.80664  0.010716351 0.0089913309            3 
 1998000   0.45660861   -8.7836099    256.52598  0.010699282 0.0089839635            3 
 1999000    0.4564727   -8.7854526     256.8738  0.010708429 0.0089765989            2 
 2000000   0.45949501   -8.7851972    256.88451  0.010703521 0.0089692393            4 
 2001000   0.45013468   -8.7889558    256.84239  0.010696418 0.0089618962            3 
 2002000   0.45345065   -8.7765955    257.10544  0.010702025 0.0089545543            4 
 2003000   0.45964364   -8.7686906     256.9867  0.010691742 0.0089472245            4 
 2004000   0.44486919   -8.7947816    256.67629  0.010673498 0.0089399091            4 
 2005000   0.45172288     -8.79571    256.74268  0.010670934 0.0089325938            2 
 2006000   0.45006865   -8.7886135    256.67069  0.010662624  0.008925287            4 
 2007000   0.45114731   -8.7824007    256.81355  0.010663243  0.008917989            1 
 2008000   0.45002938   -8.7723302    256.75472  0.010655491 0.0089106993            3 
 2009000   0.44378845   -8.7878712    256.73034  0.010649176 0.0089034202            2 
 2010000   0.45744172   -8.7895711    256.88459  0.010650273 0.0088961393            4 
 2011000   0.44655142   -8.7840351    256.71907  0.010638118 0.0088888738            3 
 2012000    0.4339034   -8.7891949    257.02368  0.010645447 0.0088816107            2 
Loop time of 4806.79 on 48 procs for 2000000 steps with 4000 atoms

Performance: 71898.273 tau/day, 416.078 timesteps/s
99.4% CPU use with 48 MPI tasks x no OpenMP threads

MPI task timing breakdown:
Section |  min time  |  avg time  |  max time  |%varavg| %total
---------------------------------------------------------------
Pair    | 311.11     | 332.32     | 347.98     |  44.0 |  6.91
Neigh   | 31.853     | 33.027     | 34.457     |  12.2 |  0.69
Comm    | 310.77     | 325.14     | 346.38     |  47.2 |  6.76
Output  | 4.1104     | 4.1121     | 4.15       |   0.3 |  0.09
Modify  | 4061.5     | 4069.2     | 4075.2     |   5.9 | 84.65
Other   |            | 43.02      |            |       |  0.89

Nlocal:        83.3333 ave          90 max          77 min
Histogram: 4 2 4 9 5 7 11 1 2 3
Nghost:        2097.12 ave        2117 max        2075 min
Histogram: 2 1 3 6 7 11 11 2 2 3
Neighs:        13715.4 ave       14945 max       12438 min
Histogram: 4 3 4 6 6 7 3 7 6 2
FullNghs:      27430.6 ave       29641 max       25249 min
Histogram: 3 3 4 9 4 9 5 5 3 3

Total # of neighbors = 1316671
Ave neighs/atom = 329.16775
Neighbor list builds = 106989
Dangerous builds = 0

#clear
#
#next RN
#
#jump SELF
Total wall time: 1:20:10
