
units lj                  # Use reduced LJ style units
atom_style atomic         # Uncharged point particles
atom_modify map hash      # Needed for indexing of clusters etc
                          # Used to be able to find where atoms are in relation to each other.

lattice fcc 1.0 spacing 1 1 1
Lattice spacing in x,y,z = 1.5874011 1.5874011 1.5874011
region box block 0 10 0 10 0 10 units lattice
create_box 2 box
Created orthogonal box = (0.0000000 0.0000000 0.0000000) to (15.874011 15.874011 15.874011)
  3 by 4 by 4 MPI processor grid
create_atoms 1 box
Created 4000 atoms
  using lattice units in orthogonal box = (0.0000000 0.0000000 0.0000000) to (15.874011 15.874011 15.874011)
  create_atoms CPU = 0.002 seconds
set type 1 type/fraction 2 0.79 78393
Setting atom values ...
  3145 settings made for type/fraction
mass 1 1.0
mass 2 1.0
pair_style lj/cut  3.5
pair_modify tail  yes
pair_coeff 1  1  1.0  1.0   # Intearaction between 1 and 1 set with epsilon = 1 and sigma = 1
pair_coeff 1  2  1.5  0.8
pair_coeff 2  2  0.5  0.88

write_data data.0
System init for write_data ...
Neighbor list info ...
  update every 1 steps, delay 10 steps, check yes
  max neighbors/atom: 2000, page size: 100000
  master list distance cutoff = 3.8
  ghost atom cutoff = 3.8
  binsize = 1.9, bins = 9 9 9
  1 neighbor lists, perpetual/occasional/extra = 1 0 0
  (1) pair lj/cut, perpetual
      attributes: half, newton on
      pair build: half/bin/atomonly/newton
      stencil: half/bin/3d
      bin: standard
WARNING: Not all mixed pair coeffs generated from mixing. Use write_data with 'pair ij' option to store all pair coeffs. (../write_data.cpp:312)


#############################
#   M E L T   S Y S T E M   #
#############################

velocity all create 2.4 6583654 mom yes dist gaussian # Assign velocities
                                                    # Temperature 2.4, random number seed, zero linear momentum
                                                                                # Gaussian distribution

timestep 0.002   # simulation timestep
thermo 1000       # output thermodynamic data every 1000 steps bf 100

# Define a fix  in this case with index 1 applied to all
# particles in the simulation. This fix is for simulations
# in the anisotropic NPT ensemble. Note that we use the MTK
# correction.
fix 1 all npt temp 2.4 2.4 0.1 iso 5.68 5.68 0.5 mtk yes tchain 5 pchain 5 # Use NPT ensemble
                                                                         # Set temperature and pressure and damping
                                                                         # Numbers of thermostats in chain and in barostat
run 10000          # run for 10000 steps
Per MPI rank memory allocation (min/avg/max) = 3.642 | 3.644 | 3.648 Mbytes
Step Temp E_pair E_mol TotEng Press Volume 
       0          2.4   -3.7530074            0  -0.15390738    -3.337815         4000 
    1000    2.3913084    -3.207094            0   0.37897195    5.2335856     3765.913 
    2000    2.3832437    -3.211366            0   0.36260576    5.6888418    3725.7296 
    3000    2.4184649   -3.1561328            0   0.47065762    5.8406069    3764.7278 
    4000    2.3922019   -3.1504536            0   0.43695228     5.680013    3768.0697 
    5000    2.3875924    -3.154796            0   0.42569732    5.6484223    3771.6792 
    6000    2.3882952   -3.1287327            0   0.45281449    5.6595964    3785.2591 
    7000    2.4349914   -3.1668334            0   0.48474054    5.4409868    3796.7388 
    8000    2.3795964   -3.1775705            0   0.39093169    5.4843363    3766.2545 
    9000    2.4042388    -3.175452            0   0.43000462    5.5010731    3779.9725 
   10000    2.3700983   -3.1109876            0   0.44327113    5.4105415    3820.9385 
Loop time of 2.61207 on 48 procs for 10000 steps with 4000 atoms

Performance: 661544.897 tau/day, 3828.385 timesteps/s
99.6% CPU use with 48 MPI tasks x no OpenMP threads

MPI task timing breakdown:
Section |  min time  |  avg time  |  max time  |%varavg| %total
---------------------------------------------------------------
Pair    | 1.1291     | 1.2267     | 1.3323     |   4.0 | 46.96
Neigh   | 0.21201    | 0.22069    | 0.24025    |   1.4 |  8.45
Comm    | 0.76868    | 0.89897    | 0.98878    |   5.5 | 34.42
Output  | 0.00026954 | 0.000276   | 0.00034738 |   0.0 |  0.01
Modify  | 0.20221    | 0.24978    | 0.30431    |   5.3 |  9.56
Other   |            | 0.01562    |            |       |  0.60

Nlocal:        83.3333 ave          93 max          73 min
Histogram: 1 1 5 6 8 5 8 10 3 1
Nghost:        1689.25 ave        1714 max        1665 min
Histogram: 3 5 5 3 8 6 9 4 3 2
Neighs:        9982.38 ave       11314 max        8743 min
Histogram: 3 4 5 6 8 3 10 5 2 2

Total # of neighbors = 479154
Ave neighs/atom = 119.78850
Neighbor list builds = 902
Dangerous builds = 173

# Equilibrate just above the melting temperature to avoid step fn in T

fix 1 all npt temp 1.25 1.25 0.1 iso 5.68 5.68 0.5 mtk yes tchain 5 pchain 5
run 2000
Per MPI rank memory allocation (min/avg/max) = 3.644 | 3.646 | 3.649 Mbytes
Step Temp E_pair E_mol TotEng Press Volume 
   10000    2.3700983   -3.1109876            0   0.44327113    5.4105415    3820.9385 
   11000    1.2305212   -4.6611345            0   -2.8158141    5.4643943    2894.9372 
   12000    1.3019713   -4.6699642            0   -2.7174955    5.5585576    2896.7955 
Loop time of 0.648148 on 48 procs for 2000 steps with 4000 atoms

Performance: 533211.841 tau/day, 3085.717 timesteps/s
99.6% CPU use with 48 MPI tasks x no OpenMP threads

MPI task timing breakdown:
Section |  min time  |  avg time  |  max time  |%varavg| %total
---------------------------------------------------------------
Pair    | 0.28833    | 0.31252    | 0.35807    |   2.4 | 48.22
Neigh   | 0.041277   | 0.043453   | 0.048961   |   0.7 |  6.70
Comm    | 0.19193    | 0.24311    | 0.26824    |   3.0 | 37.51
Output  | 5.1668e-05 | 5.2939e-05 | 7.2474e-05 |   0.0 |  0.01
Modify  | 0.041059   | 0.044176   | 0.047576   |   0.9 |  6.82
Other   |            | 0.004831   |            |       |  0.75

Nlocal:        83.3333 ave          90 max          74 min
Histogram: 1 2 1 8 2 10 10 2 8 4
Nghost:        2041.21 ave        2063 max        2019 min
Histogram: 4 1 5 4 9 10 5 2 6 2
Neighs:        13188.8 ave       14575 max       11865 min
Histogram: 4 2 9 6 3 8 1 5 7 3

Total # of neighbors = 633061
Ave neighs/atom = 158.26525
Neighbor list builds = 145
Dangerous builds = 22

#############################
# L I N E A R  Q U E N C H  #
#############################

# Define solid atoms. This closely follows ten Wolde  Ruiz-Montero and Frenkel  Faraday Discuss  1996  104  93-110
# Compute components of the per-atom q6 vector
compute q6 all orientorder/atom degrees 1 6 components 6 nnn NULL cutoff 1.3 # compute the Q6 parameter.
                                                                             # Use all neighbours within 1.3 unit cell.

# get number of connections
compute coord_number all coord/atom orientorder q6 0.5

# An atom is solid if it has 8 or more connections (of a possible 14)
variable is_solid atom c_coord_number>=8
group solid dynamic all var is_solid    # Must be dynamic to update
dynamic group solid defined

# do clustering
compute cluster solid cluster/atom 1.3 # Create a cluster where all atoms within are solid and max 1.3 units from another member

# define chunks one chunk per cluster
compute clus_chunks solid chunk/atom c_cluster nchunk every compress yes  # Says which atoms are in which chunk

# count the size of each chunk
compute size_chunks solid property/chunk clus_chunks count


# Find the maximum entry in the vector of chunk sizes
variable max_n equal max(c_size_chunks)


# Thermo style which includes this variable
# thermo_style custom step temp pe vol v_max_n

thermo ${N}  # Print the thermo information every 100 steps
thermo 1000  

# Reset the npt fix at a lower temperature (below freezing)
fix 1  all npt temp  ${temp} ${temp}  0.1  iso  5.68  5.68  0.5  mtk yes tchain  5  pchain  5
fix 1  all npt temp  0.45 ${temp}  0.1  iso  5.68  5.68  0.5  mtk yes tchain  5  pchain  5
fix 1  all npt temp  0.45 0.45  0.1  iso  5.68  5.68  0.5  mtk yes tchain  5  pchain  5

dump dmp2 all dcd ${N} traj.dcd
dump dmp2 all dcd 1000 traj.dcd


compute msd all msd com yes
variable twopoint equal c_msd[4]/6/(step*dt+1.0e-6)
fix 9 all vector 10 c_msd[4]
variable fit equal slope(f_9)/6/(10*dt)
thermo_style custom step temp pe c_msd[4] v_twopoint v_fit v_max_n

fix 1 all npt temp 1.25 ${temp} 0.1 iso 5.68 5.68 0.5 mtk yes tchain 5 pchain 5
fix 1 all npt temp 1.25 0.45 0.1 iso 5.68 5.68 0.5 mtk yes tchain 5 pchain 5
run 500000 # 5000000  # Run for this many steps
Neighbor list info ...
  update every 1 steps, delay 10 steps, check yes
  max neighbors/atom: 2000, page size: 100000
  master list distance cutoff = 3.8
  ghost atom cutoff = 3.8
  binsize = 1.9, bins = 8 8 8
  4 neighbor lists, perpetual/occasional/extra = 1 3 0
  (1) pair lj/cut, perpetual
      attributes: half, newton on
      pair build: half/bin/atomonly/newton
      stencil: half/bin/3d
      bin: standard
  (2) compute orientorder/atom, occasional
      attributes: full, newton on
      pair build: full/bin/atomonly
      stencil: full/bin/3d
      bin: standard
  (3) compute coord/atom, occasional
      attributes: full, newton on
      pair build: full/bin/atomonly
      stencil: full/bin/3d
      bin: standard
  (4) compute cluster/atom, occasional
      attributes: full, newton on
      pair build: full/bin/atomonly
      stencil: full/bin/3d
      bin: standard
Per MPI rank memory allocation (min/avg/max) = 9.836 | 9.841 | 9.846 Mbytes
Step Temp PotEng c_msd[4] v_twopoint v_fit v_max_n 
   12000    1.3019713   -4.6699642 2.1847503e-30 1.5171876e-32 8.3333333e+20            2 
   13000    1.2562694   -4.6622628   0.77893737  0.004993188   0.06574371            4 
   14000    1.2649305   -4.6818452    1.4958239 0.0089037134  0.063250905            2 
   15000    1.2423473   -4.6593587    2.2672223  0.012595679  0.061950295            2 
   16000    1.2199022    -4.668567    3.1193806  0.016246773  0.063870613            2 
   17000    1.2424909   -4.6575276    3.8813638  0.019026293  0.064771965            2 
   18000    1.2696621   -4.6489381    4.6649416  0.021596951  0.065037994            1 
   19000    1.2142841   -4.6586744    5.4815729  0.024041986  0.065399563            2 
   20000     1.230815   -4.6645096    6.2151993  0.025896663  0.065487423            1 
   21000    1.2536516   -4.6855429    7.0480774  0.027968561  0.065512099            2 
   22000    1.2163528   -4.7075207    7.8345146  0.029676191  0.065558266            2 
   23000    1.2321889   -4.6425795    8.7048409  0.031539278  0.065684342            2 
   24000    1.2442492   -4.6901241    9.5866753  0.033287066   0.06608782            3 
   25000    1.2182339   -4.6966011    10.287441   0.03429147  0.066314924            1 
   26000     1.228106   -4.7262707    11.068686  0.035476558  0.066478311            2 
   27000    1.1854911   -4.7165098     11.83908  0.036540371  0.066476104            3 
   28000    1.2067792   -4.7244769    12.822125  0.038161086  0.066615236            2 
   29000    1.1951194   -4.7289351    13.719505  0.039423865  0.066900307            2 
   30000    1.1934353   -4.7109842     14.37483  0.039930082  0.067155195            4 
   31000    1.2458719   -4.7300901    14.943695  0.040171223  0.067003902            2 
   32000    1.2050421    -4.692203    15.775814  0.041082848    0.0667241            2 
   33000    1.1952815    -4.737523    16.487576  0.041635291  0.066554428            3 
   34000    1.1757305   -4.7188941    17.292568  0.042383744  0.066337898            4 
   35000    1.2426924   -4.7450633     17.96704  0.042778665  0.066103721            4 
   36000    1.2056892   -4.7358365    18.640464  0.043149221   0.06587867            2 
   37000    1.1886394     -4.71777    19.250576  0.043357153  0.065583064            2 
   38000    1.2033453   -4.7716399    19.752758  0.043317451  0.065201975            2 
   39000    1.2165648   -4.7263843    20.476542  0.043753294  0.064829203            1 
   40000    1.2136293    -4.738926    21.237213  0.044244192  0.064457839            1 
   41000    1.2077189   -4.6979694    21.672521  0.044049838  0.064058709            2 
   42000    1.2162236   -4.7521444    22.333703  0.044312903  0.063594933            3 
   43000    1.1864428   -4.8178949    22.944646  0.044466368  0.063179993            2 
   44000    1.1968526   -4.7540295    23.568911  0.044638088  0.062780549            4 
   45000    1.2221527   -4.7743795    24.345448  0.045084162  0.062436782            2 
   46000    1.1971593   -4.7719841    25.135543  0.045535403   0.06212686            2 
   47000    1.1998921    -4.783084    25.698973  0.045565555  0.061853088            3 
   48000    1.1994994   -4.7667066    26.410647  0.045851818  0.061566651            2 
   49000    1.1838256    -4.773301    27.197074  0.046253527  0.061349296            2 
   50000    1.2125584   -4.7427056    27.963527  0.046605878  0.061154721            3 
   51000    1.1842129    -4.743924    28.776066  0.047019715  0.061013234            2 
   52000    1.1859861   -4.7663896    29.589273  0.047418706  0.060900315            2 
   53000    1.1780971   -4.7640424    30.114026  0.047349097  0.060805825            2 
   54000    1.1892298   -4.7758642    31.011731  0.047857609  0.060715696            4 
   55000    1.1950142   -4.7701847    31.387549  0.047556891  0.060615405            2 
   56000    1.1796032   -4.7394647    32.284275  0.048042075  0.060515189            2 
   57000    1.1669626   -4.7897204    33.051896  0.048321485  0.060435033            2 
   58000    1.1702956   -4.8209411     33.79588  0.048557299   0.06038421            2 
   59000     1.200756   -4.7361805    34.747671  0.049078631  0.060373084            2 
   60000    1.1732794   -4.7728485    35.147666  0.048816202  0.060343007            2 
   61000    1.1844843    -4.813935    35.921435  0.049072999  0.060292183            2 
   62000    1.1552153   -4.7922136      36.5441  0.049118413  0.060245194            3 
   63000    1.1553991   -4.8143796    37.211671  0.049221787   0.06019291            2 
   64000    1.1739074    -4.856354    37.806221  0.049226849  0.060130572            2 
   65000    1.1680572   -4.8456837    38.488771  0.049344578  0.060060715            3 
   66000    1.1936126   -4.8490211    39.161789  0.049446702  0.059981937            3 
   67000    1.1581243   -4.8087552    39.710469  0.049391131   0.05988921            1 
   68000    1.1603188   -4.8263224    40.657974  0.049825948  0.059808829            2 
   69000    1.1474407   -4.8377848    41.043935   0.04956997  0.059721466            4 
   70000    1.1415435   -4.8308705    41.776165  0.049733529  0.059644636            3 
   71000    1.1679738    -4.863392    42.412255  0.049779642  0.059572717            2 
   72000    1.1606904   -4.8503061    43.159397  0.049953005  0.059500968            3 
   73000    1.1629493   -4.7879832    44.037988  0.050271676  0.059438921            3 
   74000    1.1262221   -4.8605493    44.315497  0.049904839  0.059359351            4 
   75000    1.1524179   -4.8286279    45.046096  0.050051217   0.05926525            2 
   76000     1.146143   -4.8455526    45.596887  0.049996587  0.059168321            3 
   77000    1.1482061   -4.8791976    46.113103  0.049905955  0.059068205            3 
   78000    1.1360278   -4.8716826    46.951563  0.050161926  0.058983701            6 
   79000    1.1306455   -4.9019844    47.674251  0.050289294   0.05890561            3 
   80000     1.121249    -4.840267    48.430339   0.05044827  0.058832711            4 
   81000    1.1558149   -4.8299861    48.928431  0.050337891  0.058747298            3 
   82000    1.1198757    -4.825682    49.755607  0.050564641   0.05867836            1 
   83000    1.1566569   -4.8364423    50.475717  0.050678431  0.058611624            2 
   84000    1.1248273   -4.8973597    50.580242  0.050178811   0.05853162            1 
   85000     1.138748   -4.8845253    51.531628  0.050521204  0.058444326            4 
   86000    1.1142028    -4.881553     52.34955  0.050726307  0.058368542            3 
   87000    1.1306729   -4.8705397    53.124742  0.050885768  0.058306533            2 
   88000    1.1122659   -4.8879272    53.704074   0.05085613   0.05824533            1 
   89000    1.1276045   -4.8684478    54.424761  0.050959514  0.058190889            1 
   90000    1.1358157   -4.8774843    54.756549  0.050700508  0.058123446            4 
   91000    1.1241389   -4.8802829    55.249284  0.050594583  0.058051686            1 
   92000    1.1095222   -4.9166516    55.517923  0.050287973   0.05795939            2 
   93000     1.130116    -4.877576    56.410669  0.050547194  0.057873375            3 
   94000     1.133083   -4.9160091    56.813624  0.050366688  0.057774801            4 
   95000    1.1209743   -4.9674634    57.040587  0.050035602  0.057661066            4 
   96000    1.1008322   -4.8701941    57.840546  0.050208807  0.057542993            2 
   97000    1.0991378   -4.9205432    58.258154  0.050049961  0.057413846            4 
   98000    1.0911217   -4.9052994    59.022229   0.05018897  0.057297269            1 
   99000    1.1124003   -4.9182222    59.635153   0.05019794  0.057188331            3 
  100000    1.1031752    -4.948526    60.277239  0.050231033  0.057076769            3 
  101000    1.1365805   -4.9258268    60.567066  0.049972827  0.056971313            4 
  102000    1.1245413   -4.9287169    61.249041  0.050040066  0.056859293            3 
  103000     1.070382   -4.9149884    61.957884  0.050127738  0.056755414            2 
  104000    1.1120769   -4.9386441    62.765961  0.050293238  0.056650315            4 
  105000    1.0861924   -4.9347712    63.208861  0.050165763  0.056549452            6 
  106000    1.1028655   -4.9366688    64.002264  0.050316245  0.056458516            2 
  107000    1.0887416    -4.917866    64.563761  0.050283303  0.056368569            6 
  108000    1.0764076   -4.9172873     65.10024  0.050231667  0.056270763            3 
  109000     1.097821   -4.9328274    65.617244  0.050166089  0.056171387            3 
  110000    1.0785172     -4.93202      66.2511  0.050190227  0.056077639            5 
  111000    1.0919903    -4.927688    66.662345  0.050046805  0.055990111            3 
  112000    1.0639172   -4.9522469    67.217605  0.050013099  0.055898272            1 
  113000    1.0868651   -4.9769881    67.743006  0.049957969  0.055799317            2 
  114000    1.0731077   -4.9707718     67.99249  0.049702113  0.055690282            3 
  115000    1.0910015    -4.999343    68.503229  0.049640021  0.055587142            5 
  116000    1.1251369   -4.9746986    69.259335  0.049755269  0.055485535            2 
  117000    1.0719996   -4.9756611    69.912604  0.049795302  0.055386204            2 
  118000    1.0745965   -4.9783729    70.455558   0.04975675  0.055292865            1 
  119000    1.0647893   -4.9403821     71.06672   0.04976661  0.055193579           11 
  120000    1.0927833   -4.9867262      71.5665  0.049698958  0.055090925            1 
  121000    1.0822845   -4.9732322    72.200747  0.049725032   0.05499332            5 
  122000    1.0718478   -4.9880048    72.449734  0.049487523  0.054896973            2 
  123000    1.0686804   -4.9833359     73.02477  0.049474776  0.054799142            2 
  124000    1.0785955   -4.9762328    73.453375  0.049363827  0.054696514            2 
  125000    1.0569946    -5.023202    73.946659  0.049297773  0.054596676            2 
  126000    1.0649023   -4.9713961    74.502833   0.04927436  0.054499218            3 
  127000    1.0468358   -5.0148535    75.013327  0.049221343  0.054395831            2 
  128000    1.0751723   -5.0025708    75.254236  0.048993643  0.054286335            3 
  129000    1.0617641   -4.9906379    75.695905  0.048899163  0.054171664            4 
  130000    1.0766252   -5.0371689    76.136963  0.048805746  0.054054394            2 
  131000    1.0527878   -5.0144045    76.384043  0.048590358  0.053932067            5 
  132000    1.0607463   -5.0306691    76.867559  0.048527499  0.053803627            1 
  133000    1.0673269   -4.9919037    77.337815  0.048457277  0.053678007            3 
  134000     1.057618   -5.0173969    77.578568  0.048245378  0.053549352            5 
  135000    1.0329847    -5.001839    78.106004  0.048213583   0.05342353            2 
  136000    1.0483756   -5.0363503    78.895666  0.048342933  0.053301068            1 
  137000    1.0489293   -5.0279464    79.692917   0.04847501  0.053181872            4 
  138000    1.0463103   -5.0270212    79.861485  0.048225534  0.053066577            3 
  139000    1.0537354   -5.0621019    80.037178   0.04798392  0.052945399            6 
  140000    1.0414394   -5.0058104    80.429407  0.047874647  0.052817442            1 
  141000    1.0431877   -5.0305083     80.83133  0.047772654    0.0526909            2 
  142000     1.024949   -5.0491925    81.209457  0.047658132   0.05256505            1 
  143000    1.0330032   -5.0474238    82.170315  0.047884799  0.052444423            9 
  144000    1.0352233   -5.0780161    82.238512  0.047591731  0.052322163            3 
  145000    1.0247753   -5.0587406    83.048262  0.047728886  0.052205078            3 
  146000    1.0348121    -5.028424    83.579391  0.047705132  0.052087734            4 
  147000    1.0510233   -5.0754013    83.728321  0.047465034  0.051970859            6 
  148000    1.0279908   -5.0972832    83.966886  0.047278652  0.051853747            4 
  149000     1.019132   -5.0821507    84.401671  0.047204514  0.051732855            4 
  150000    1.0230243   -5.1013206    85.141009   0.04730056  0.051609191            8 
  151000     1.030958   -5.0873908    85.563614  0.047220538  0.051490888            4 
  152000    1.0244811   -5.0970977    85.626165  0.046944169  0.051373919            2 
  153000    1.0099861   -5.0754316    86.474037  0.047099149  0.051256169            4 
  154000    1.0313363   -5.0893935    86.570149  0.046845318  0.051136978            3 
  155000    1.0440567   -5.0918106    86.830513  0.046683071  0.051013363            2 
  156000    1.0291121   -5.0793419    87.654288  0.046823872  0.050889798            3 
  157000    1.0250206   -5.1442079    87.282585  0.046328336  0.050765252            5 
  158000   0.99740919   -5.0833229    88.214208  0.046526481  0.050642542            2 
  159000    1.0028398   -5.1159298    88.040061   0.04614259  0.050516199            3 
  160000    1.0138028   -5.1044977    88.610758  0.046151436  0.050385164            3 
  161000    1.0051268   -5.1392118    88.839777  0.045983321   0.05025746            7 
  162000   0.98602752   -5.1373256     89.06516  0.045815412   0.05012631            4 
  163000    1.0235857   -5.1243112     89.57443  0.045794698  0.049997998            3 
  164000   0.99795766   -5.0939692    90.435421  0.045952958  0.049871953            2 
  165000    1.0150479   -5.1342101    90.336123  0.045624304  0.049740508            2 
  166000     1.000929   -5.1735066    90.880895  0.045622939  0.049614131            3 
  167000   0.98009281   -5.0963818    91.245326    0.0455316  0.049488445            4 
  168000    0.9897298   -5.1347115    91.548911  0.045411166  0.049364252            5 
  169000    1.0109426   -5.1460168    91.680481  0.045207338  0.049239374            5 
  170000    1.0067289   -5.1340376    91.814702  0.045007207    0.0491097            4 
  171000    0.9756315   -5.1475374    92.392684  0.045025674  0.048976819            3 
  172000   0.99448977   -5.1289507    92.917291  0.045018067  0.048842248            3 
  173000    1.0012984   -5.1289622    93.197446  0.044892796  0.048712182            3 
  174000   0.99287324   -5.1510566    93.344222  0.044705087  0.048581625            3 
  175000   0.99957054   -5.1797873    93.839085  0.044685279  0.048453235            5 
  176000   0.98181348    -5.197523    94.032853  0.044523131   0.04832554            2 
  177000   0.98557284   -5.1255865    94.944908  0.044700992   0.04819814            4 
  178000   0.99448917    -5.171906    95.326635  0.044628574  0.048074571            2 
  179000   0.99524743   -5.1948405    95.510098  0.044464664  0.047951174            5 
  180000   0.99051722    -5.153943     95.90725  0.044401505  0.047826867            2 
  181000   0.95655819   -5.1874567    96.318919  0.044345727  0.047705265            4 
  182000    0.9945046   -5.2026113    96.341831   0.04411256  0.047583169            3 
  183000   0.97513418   -5.1611134    97.151765   0.04424033  0.047460876            5 
  184000    0.9938021   -5.1591894    97.664512  0.044232116  0.047340569            6 
  185000   0.96664252   -5.1750182    97.948213  0.044120817  0.047218927            3 
  186000   0.97247658   -5.1790961    98.099263  0.043951283   0.04709794            2 
  187000   0.98371804   -5.1807006     98.42164  0.043859911  0.046978551            3 
  188000   0.94902193   -5.2214685    98.588437  0.043700548  0.046858985            3 
  189000   0.96671282   -5.2042799    98.569776    0.0434611  0.046739145            6 
  190000   0.95711811   -5.2032943     99.08185  0.043456952  0.046619208            3 
  191000    0.9482439   -5.1883327    99.957095  0.043611298  0.046503024            3 
  192000   0.95531299    -5.151314     100.0417  0.043420879  0.046384978            2 
  193000   0.94773362   -5.1979712    100.54689   0.04341403  0.046268937            2 
  194000   0.96090466    -5.198526    100.91412  0.043347991  0.046154966            3 
  195000    0.9376799   -5.2180626    101.30817   0.04329409  0.046043282            4 
  196000   0.96069052     -5.24789    101.42014  0.043120809  0.045929577            3 
  197000   0.95155906   -5.2386295    102.06144    0.0431732    0.0458163            6 
  198000   0.97285238   -5.2311152    102.49093  0.043135915   0.04570521            4 
  199000   0.96977888   -5.2328719    102.80982  0.043052688  0.045595887            5 
  200000   0.93683397   -5.2267845    103.20019  0.043000077  0.045489433            3 
  201000   0.96421157   -5.2363005    103.10579  0.042747009  0.045379817            4 
  202000   0.95305109   -5.2431095    103.34921  0.042635813  0.045270224            3 
  203000   0.95387376   -5.2585181    103.45448  0.042468996  0.045160907            4 
  204000   0.95342518    -5.263547    104.18395  0.042558801  0.045050163            5 
  205000   0.95519817    -5.292271    104.30844  0.042401805   0.04494165            8 
  206000   0.94884255   -5.2498088    104.69091  0.042350692  0.044834273            4 
  207000    0.9246416   -5.2463545    105.74805  0.042571677  0.044728964            6 
  208000   0.93788482    -5.236508    105.77077  0.042376109  0.044626328            3 
  209000   0.93998474    -5.227951    106.06757  0.042291695  0.044522137            3 
  210000    0.9441295   -5.2553792    106.48529  0.042256068  0.044418259            3 
  211000   0.93939044   -5.2586108    106.75387  0.042161875  0.044315018            7 
  212000   0.93268517   -5.2520812    107.27362  0.042167302   0.04421361            4 
  213000   0.93889869   -5.2987944    106.84388  0.041801203  0.044110137            4 
  214000   0.93618971   -5.3088441    107.25828  0.041767245  0.044005391            4 
  215000    0.9403925    -5.290785    107.95422  0.041842721  0.043903476            3 
  216000    0.9246221   -5.3046432     107.8276  0.041600153   0.04379997           10 
  217000   0.94593107   -5.2823889    108.36913  0.041616409   0.04369446            4 
  218000   0.92011501   -5.3144099    108.13892  0.041337506  0.043589493            8 
  219000   0.90506438   -5.2879286    108.66952  0.041350656  0.043482908            5 
  220000   0.90984987   -5.2637076    109.20247  0.041364571  0.043376626            3 
  221000   0.91584475   -5.3190058    109.18964  0.041172565  0.043271395            9 
  222000   0.91299324    -5.333969    109.45223   0.04108567  0.043168413            5 
  223000   0.90905062   -5.3308009    109.95776  0.041090345  0.043066329            4 
  224000   0.93376118   -5.3441698    110.08393  0.040953845  0.042963928            7 
  225000   0.90436914   -5.3007491    110.53024  0.040937127  0.042861569            2 
  226000   0.91566788    -5.358538    110.87095   0.04088162  0.042761938            4 
  227000   0.88936035   -5.3137877    110.87813  0.040704158  0.042661827            5 
  228000   0.88161544   -5.3234584     111.5129   0.04075764  0.042561592            5 
  229000   0.88607017   -5.3088939    112.53461  0.040951458  0.042463211            3 
  230000   0.89658461   -5.3266749    111.99152  0.040576636  0.042364752            3 
  231000   0.89303743   -5.3259657    112.41508  0.040553782  0.042265335            5 
  232000    0.8917548   -5.3758091    112.41141   0.04037766  0.042165633            7 
  233000   0.89607996   -5.3264482    112.97082  0.040404442  0.042066637            4 
  234000   0.89471779   -5.3288755     113.2273  0.040323112  0.041967042            4 
  235000   0.87998845   -5.3681108    113.37936  0.040205446  0.041868568            4 
  236000   0.89279225   -5.3534616    113.38425  0.040036811  0.041768387            6 
  237000   0.90808498   -5.3458844    113.81736   0.04002017  0.041667261            2 
  238000   0.89849036   -5.3863077     113.8263  0.039855146   0.04156656            6 
  239000   0.90339219   -5.3574879    114.20553  0.039820619  0.041468105            4 
  240000   0.88679131   -5.3695749    114.60975  0.039795052  0.041368901            6 
  241000   0.87270197   -5.3485393    114.73702  0.039673936  0.041270332            4 
  242000   0.87577812   -5.3892738    114.84422  0.039546908  0.041171659            4 
  243000   0.86800063   -5.4029299    115.24682  0.039522229  0.041073413            3 
  244000   0.87604329    -5.388497    115.25792  0.039364042  0.040976045            9 
  245000   0.87109367   -5.3802051    115.61353  0.039324331  0.040877974            5 
  246000   0.89245077   -5.3859515    116.19272  0.039360678  0.040782164            4 
  247000   0.87289228   -5.4448587    116.02853  0.039145927  0.040684357            4 
  248000   0.86191918   -5.3767795    116.37633  0.039104949  0.040586769            4 
  249000   0.84982867   -5.3822443    116.74699   0.03907195  0.040490349            5 
  250000   0.85130275   -5.3859517    117.01925  0.039006417    0.0403943            6 
  251000   0.88077253   -5.3924447    116.99852  0.038844129  0.040296623            4 
  252000   0.88637623   -5.4011794    117.54423  0.038870447  0.040201016            9 
  253000   0.86836871   -5.4142515    117.74199  0.038781947   0.04010547            9 
  254000   0.86256868   -5.4501927    117.57447  0.038574303  0.040010811            5 
  255000   0.84284062   -5.4087508    117.82785  0.038505835  0.039915615            4 
  256000   0.84296194   -5.4288389     118.2432  0.038490626  0.039819461            5 
  257000   0.87402275   -5.4359882    118.22194  0.038333964  0.039723442            9 
  258000   0.85111905   -5.4323403     118.6571  0.038325936  0.039627891            8 
  259000   0.84064684   -5.4210114    119.16674  0.038341937  0.039532989            5 
  260000   0.86445018   -5.4283575    119.16097  0.038192618  0.039439536            3 
  261000   0.87101888   -5.4620304    118.87004  0.037953398  0.039345082            4 
  262000   0.86368441   -5.4425675    119.63075  0.038050493  0.039250031            7 
  263000   0.84122793   -5.4273727    119.58989  0.037892867  0.039156308            6 
  264000   0.83933117   -5.4491389    120.22714  0.037950486  0.039063238            6 
  265000   0.83502171   -5.4526219    120.13295  0.037777657  0.038970046            5 
  266000   0.85130724   -5.4718964    120.25704  0.037674511  0.038876098            4 
  267000   0.84712126   -5.4857112    120.58193   0.03763481  0.038782543           21 
  268000   0.83724946   -5.4455563    120.75114  0.037546998  0.038689654            3 
  269000   0.81988532   -5.4555406     121.3824  0.037602973  0.038597928            7 
  270000   0.84206229   -5.4681699    121.44057  0.037481659  0.038506573            3 
  271000   0.82474019    -5.488023    121.43896  0.037342853  0.038415277            3 
  272000    0.8367721   -5.4995945     121.7324  0.037295467  0.038323074           10 
  273000   0.84775416   -5.4614047    122.09173  0.037268537  0.038231038            4 
  274000    0.8274945   -5.5110681    122.17855  0.037158927  0.038139053            5 
  275000   0.83238805   -5.5014576    122.02916  0.036978532  0.038047041            5 
  276000    0.8412347   -5.4811183      122.522  0.036993359   0.03795526            9 
  277000    0.8227347   -5.4967518    122.77036  0.036934523  0.037865209            5 
  278000   0.81797139   -5.5192494    122.91233  0.036844224  0.037775083            6 
  279000   0.80753305   -5.5043034    123.36432  0.036847169  0.037686035            4 
  280000   0.83896692   -5.5056688    123.47202  0.036747625  0.037597211            6 
  281000   0.83846368   -5.5175514    123.61622  0.036659614  0.037508774            3 
  282000   0.80966694   -5.5021119    123.95439  0.036629547  0.037420454            4 
  283000    0.8079804   -5.4972098    124.19093  0.036569767  0.037333199           14 
  284000   0.82302558   -5.5098482    123.99185  0.036382585  0.037246498            7 
  285000   0.80932305   -5.5473536    123.99694  0.036256416   0.03715786            9 
  286000   0.82061898   -5.5370263     124.0967  0.036158712  0.037069087            3 
  287000   0.81336271   -5.5335912    124.53559  0.036160159  0.036980498            7 
  288000   0.80972863   -5.5607833    124.63864  0.036064421  0.036893606            7 
  289000   0.81544565   -5.5258722    125.43802  0.036170132  0.036808415           10 
  290000   0.79589347   -5.5499854    125.52131  0.036069342  0.036723021            9 
  291000   0.81073939   -5.5553808    125.33578  0.035892262  0.036637277           11 
  292000   0.80104371   -5.5665118    125.57007  0.035836208  0.036550973            5 
  293000   0.79963721   -5.5691982    125.84743  0.035792784  0.036465569            9 
  294000    0.7992755   -5.5500794    126.05997  0.035731283  0.036380525           10 
  295000   0.79950397   -5.5539632     126.6043  0.035763926  0.036294952            6 
  296000   0.78467684   -5.5572625    126.36311    0.0355752    0.0362098            8 
  297000   0.78095454   -5.5995995    126.72853  0.035557948  0.036124041            9 
  298000   0.79409477   -5.5765879    126.36367  0.035336598  0.036037565            6 
  299000   0.79156201   -5.5671358    126.67641  0.035305578  0.035951184            8 
  300000   0.79020631   -5.5856484    126.61913  0.035171981  0.035865116            8 
  301000   0.76507218    -5.603979    126.67638  0.035070979  0.035777998            5 
  302000   0.78576764   -5.5820138    127.27443  0.035119876  0.035690883           10 
  303000   0.77141934   -5.6033947    127.11304  0.034959583  0.035604472            6 
  304000   0.78374623   -5.5856168    127.45361   0.03493794  0.035518922           14 
  305000   0.78433965   -5.5904854    127.77386  0.034910891  0.035434447            6 
  306000   0.76914693   -5.6178226    127.67703  0.034770433  0.035348952            4 
  307000   0.77534956    -5.621194    128.02283   0.03475104  0.035263838           11 
  308000   0.76131676   -5.5933663    127.95895  0.034620927  0.035178525            9 
  309000   0.79098117   -5.6175008    128.06012  0.034536171  0.035093043            7 
  310000   0.77776398    -5.611526    128.54772  0.034555838  0.035007515            8 
  311000   0.75957322    -5.632134    127.91146  0.034274239  0.034920579           14 
  312000   0.75173906    -5.642348    128.24361    0.0342531  0.034834416           11 
  313000   0.75659155   -5.6313814    128.42764  0.034192662  0.034748195           10 
  314000   0.77232678   -5.6074055    128.49955  0.034102852  0.034661563           10 
  315000   0.76537177   -5.6124171    128.46795   0.03398623  0.034574391            6 
  316000   0.75693341   -5.6289258    128.99882  0.034018676  0.034487994            6 
  317000   0.75876855   -5.6337513     128.8355  0.033868429  0.034401268            4 
  318000   0.75976907   -5.6546357    129.02618  0.033811893  0.034315385            9 
  319000   0.76104773   -5.6580083    128.75796  0.033635831  0.034229434           28 
  320000   0.76112579   -5.6605272     129.3622  0.033688073  0.034143508            6 
  321000    0.7560349    -5.648111    129.11336  0.033518526  0.034057698           13 
  322000   0.77654257   -5.6697256    129.43671  0.033498113  0.033972574            6 
  323000   0.75331605   -5.6739256    129.29489  0.033357815  0.033887281            5 
  324000   0.75352042   -5.6453382    129.67062  0.033351496  0.033802477            3 
  325000   0.76132303    -5.663831    129.72172  0.033261979   0.03371753            4 
  326000   0.74459086   -5.7056668    129.48931   0.03310054  0.033632744            4 
  327000   0.75292054   -5.6788139    129.73507  0.033061945  0.033547768            3 
  328000   0.74314665   -5.6838319    129.71605  0.032956312  0.033462422            6 
  329000   0.74547751   -5.6888187    130.12473  0.032959658   0.03337636           10 
  330000    0.7560598   -5.6914722    130.04056  0.032838525  0.033290539            6 
  331000   0.73541245   -5.6988747    130.58435   0.03287622  0.033206094           14 
  332000   0.72569501   -5.7076416    130.12604  0.032662158  0.033121921           10 
  333000   0.74544809   -5.7003457    130.46341  0.032648501  0.033037607            7 
  334000   0.74526181   -5.7123523    130.65207  0.032597822  0.032953069            8 
  335000   0.73952637   -5.7024114    130.34507  0.032424147  0.032869156            3 
  336000   0.72865943   -5.7085292    130.96079  0.032480354  0.032785559            5 
  337000   0.74147267   -5.7035584    130.93127  0.032376674  0.032701999            7 
  338000   0.73213723   -5.7539505    130.87013  0.032265811  0.032618644            7 
  339000    0.7266975   -5.7169937     131.0264  0.032209046  0.032534896           16 
  340000    0.7299881    -5.711473    131.35028  0.032193697  0.032450992            6 
  341000   0.72352738   -5.7243975    131.12032  0.032043089  0.032368384            4 
  342000   0.73069358    -5.722998    131.31261  0.031996249  0.032285863            8 
  343000   0.72570623   -5.7341592    131.47384  0.031942137   0.03220319           11 
  344000   0.70854738   -5.7146113     131.7891  0.031925653  0.032120485            6 
  345000   0.71780646   -5.7322999    131.51819  0.031767678  0.032037108            7 
  346000   0.71196792   -5.7576449    131.33207  0.031631037  0.031953929           10 
  347000   0.72366008   -5.7544605    131.81528  0.031655927  0.031871039           11 
  348000   0.70602832   -5.7608963    131.34592  0.031452567  0.031788034            9 
  349000   0.70193082    -5.763839    132.07128  0.031535645  0.031705293            9 
  350000   0.71656642   -5.7590635    132.05118  0.031440758  0.031623058           27 
  351000   0.70088435   -5.7630936     131.8478  0.031302897  0.031540473            8 
  352000   0.69736167   -5.7554117    131.91707  0.031230367  0.031457471            7 
  353000   0.69489002   -5.7759897    131.92517  0.031143808  0.031374738            9 
  354000   0.70632319   -5.7720857      131.648  0.030990584  0.031291254            8 
  355000   0.70578158   -5.7974372    131.92418  0.030968117  0.031207809            9 
  356000   0.69857588   -5.7892798    131.97248  0.030892435  0.031124952           10 
  357000   0.68625337   -5.7976163    132.26201  0.030873486  0.031042496            8 
  358000   0.68915431   -5.8072321    132.22152  0.030777821  0.030960228           12 
  359000   0.70498636    -5.820213    132.53123   0.03076398  0.030878326            6 
  360000   0.67883842   -5.8116085    132.20349   0.03060266  0.030796213           10 
  361000   0.70950283   -5.8010864    132.58075  0.030604974  0.030714245           12 
  362000   0.68332975   -5.8455826     132.1186  0.030414043  0.030632749           19 
  363000   0.70803804   -5.8353528    132.27245  0.030365575  0.030550635            5 
  364000   0.68326593   -5.8285338    132.41728  0.030315311  0.030468709           19 
  365000   0.68516137   -5.8280553     132.5008  0.030251324  0.030387126           11 
  366000   0.68256112   -5.8351668    132.69056  0.030211875  0.030305782           13 
  367000   0.69715029   -5.8260606    132.60874  0.030110977  0.030224445           12 
  368000   0.69301815   -5.8333502     132.7609   0.03006361  0.030143651            7 
  369000    0.6627936    -5.840705    132.75902  0.029981712  0.030062968            8 
  370000   0.67934686   -5.8325246    132.82754  0.029916113  0.029982602            9 
  371000   0.66610299    -5.852709    133.04131  0.029883494  0.029902175            5 
  372000   0.65857752    -5.836082    133.07148  0.029809919  0.029822179           16 
  373000   0.66550228   -5.8555933    133.07325  0.029730396  0.029742525           10 
  374000   0.66919177   -5.8498411     133.4099  0.029725913  0.029663276           14 
  375000   0.67621031   -5.8501176    133.64561  0.029699024  0.029584327           17 
  376000   0.66092014   -5.8647736    133.65876  0.029622952  0.029506432           11 
  377000   0.66157347   -5.8613155    133.51135  0.029511792  0.029428211           17 
  378000   0.67265858   -5.8384093    133.95309  0.029531105  0.029350375            9 
  379000   0.66525654   -5.8491156    134.12648  0.029491311  0.029273246           10 
  380000   0.65794122   -5.8874799    133.80615  0.029343453  0.029195758           12 
  381000    0.6677172   -5.8783845    134.19365  0.029351193  0.029117825           12 
  382000   0.65924408    -5.857128    134.04244   0.02924137  0.029040235           11 
  383000   0.65109492   -5.8940195    133.69711  0.029089885  0.028962667            5 
  384000   0.65465355   -5.8896119    133.71074  0.029017087  0.028884987            8 
  385000   0.63991837   -5.9077815    134.10219  0.029026447  0.028807404           11 
  386000   0.64296403   -5.8874684    133.73033  0.028870969  0.028730461            8 
  387000   0.64036873   -5.9056582    134.03916  0.028862869  0.028653421           14 
  388000   0.65893327   -5.8844904    134.01786  0.028783905  0.028576658            6 
  389000    0.6523138   -5.8866003    134.15437  0.028739154  0.028500249            7 
  390000   0.64358846   -5.8935184    134.40197   0.02871837  0.028423819           15 
  391000   0.65120372    -5.914363    134.04863  0.028569613  0.028347629           12 
  392000   0.64759928    -5.955832    134.12131  0.028512183  0.028271217            8 
  393000   0.62713089   -5.9096943    134.40754  0.028500325  0.028195111           13 
  394000   0.65767888   -5.8988871    134.34962   0.02841574  0.028119234           12 
  395000   0.63898619   -5.9281396    134.33862  0.028341481   0.02804366           16 
  396000   0.63743371   -5.9208516    134.46232  0.028295943   0.02796796           13 
  397000   0.63964599   -5.9383043    134.14107  0.028157236  0.027892616           15 
  398000   0.62166275   -5.9364235    134.06565  0.028070698  0.027816919           11 
  399000   0.64295647   -5.9249827    134.45049  0.028080721  0.027741595            4 
  400000   0.63156987   -5.9356738    134.81801  0.028087085  0.027666497           22 
  401000   0.62279276   -5.9498347    134.17031  0.027882442  0.027591885           17 
  402000   0.62954402   -5.9599766    134.62638  0.027907624  0.027516806            7 
  403000   0.62771535    -5.973307     134.2336  0.027757154  0.027441917            8 
  404000   0.62572465   -5.9909224    134.07596  0.027655932   0.02736749           23 
  405000   0.62289807   -5.9670118      134.718  0.027719752  0.027293096           23 
  406000   0.60079984   -5.9807922    134.52645   0.02761216  0.027219007           18 
  407000   0.61360372   -5.9820329    134.51308  0.027541581  0.027145151           10 
  408000   0.61254755   -5.9757181    134.69791  0.027511828  0.027071634           17 
  409000   0.60523925   -6.0009893    134.57502  0.027419523  0.026997779           25 
  410000   0.60781244   -6.0200755    134.44479  0.027326177   0.02692427           19 
  411000   0.61355423   -5.9949034    134.43029   0.02725675  0.026850735           27 
  412000   0.60080321   -5.9855522    134.78356  0.027262047  0.026777527           15 
  413000   0.61288189   -6.0060715    134.55252  0.027149419  0.026703896           11 
  414000   0.60819617   -6.0054756    134.22575  0.027018066  0.026630207           16 
  415000    0.6016514   -6.0328869    134.63248  0.027034634  0.026556683            9 
  416000    0.6097693    -6.029716    134.43588  0.026930265  0.026483077           20 
  417000   0.59354918   -6.0141314    134.32448  0.026843422  0.026409744           10 
  418000   0.60691607   -6.0438881    133.97404  0.026709339  0.026336378            7 
  419000   0.58661244   -6.0433075     134.1812  0.026686793  0.026262753           11 
  420000    0.5889142   -6.0176703    134.54451  0.026695339  0.026189215            5 
  421000   0.60929695   -6.0389943    134.39582  0.026602497  0.026116107           11 
  422000    0.5918723   -6.0400324    134.37257  0.026534867   0.02604308           38 
  423000   0.60112273   -6.0421739    134.45444  0.026488266   0.02597018           42 
  424000   0.58465831   -6.0167232    134.64653  0.026463548   0.02589763           31 
  425000   0.58952151   -6.0449784    134.34905  0.026342952  0.025825269           16 
  426000    0.5917074   -6.0407935    134.79937  0.026369205   0.02575282           27 
  427000   0.56958393   -6.0688901    134.55503  0.026259764  0.025680717           27 
  428000   0.56962466   -6.0596345    134.53379  0.026194274   0.02560869           22 
  429000   0.58203817   -6.0610857    134.59954  0.026145986  0.025536759           44 
  430000   0.57840417   -6.0644487    134.73274  0.026110995   0.02546477           40 
  431000   0.57936636   -6.0951846    134.13389  0.025934627  0.025392583           38 
  432000   0.57503221   -6.0926653     133.8196  0.025813966  0.025320595           57 
  433000   0.57727225   -6.0854846     134.0552  0.025799691  0.025248685           15 
  434000   0.56514324    -6.095216    133.89983  0.025710413  0.025176813           15 
  435000   0.57576815   -6.0791531    134.10328  0.025690283   0.02510519           15 
  436000   0.57536036    -6.105669    133.98467  0.025608691  0.025033335           30 
  437000   0.57230103   -6.0998731    134.04314   0.02556124  0.024961766           28 
  438000   0.57490867   -6.1110539    134.06597  0.025507225  0.024890279           39 
  439000   0.56861215   -6.1090542    134.19375  0.025473376   0.02481895           22 
  440000   0.56534002   -6.1028963    134.10649  0.025398957  0.024747796           22 
  441000   0.55579595   -6.1097325    134.08861  0.025337983  0.024676972           31 
  442000   0.56721029   -6.0978627    134.38437  0.025336419  0.024606446           18 
  443000   0.55464533   -6.1218465    134.19257  0.025243147  0.024536013           18 
  444000   0.56774371    -6.120781    134.17106  0.025182256  0.024465921           49 
  445000    0.5508925   -6.1361605    133.88512   0.02507212  0.024395573           26 
  446000   0.55953244   -6.1378478    133.69293  0.024979994  0.024325218           19 
  447000   0.55422566   -6.1414617    133.62101  0.024910702  0.024254987           13 
  448000    0.5607105   -6.1596089    133.91608  0.024909985  0.024184683           11 
  449000   0.54684797   -6.1208495    133.64843   0.02480483  0.024114563           24 
  450000   0.54171469   -6.1481128    133.80282    0.0247783  0.024044567           39 
  451000   0.54672814    -6.154492    133.68972  0.024702461  0.023974947           21 
  452000   0.53188968   -6.1530961    133.76089  0.024660931  0.023905312           31 
  453000    0.5380868   -6.1530384    133.59027  0.024575106  0.023836044           21 
  454000   0.54454366     -6.15639    133.79445  0.024558453  0.023766761           42 
  455000    0.5285261   -6.1756744    133.74493  0.024495408  0.023697601           62 
  456000   0.52773528    -6.184186    133.94198  0.024477701  0.023628734           89 
  457000   0.54127081   -6.1966821    133.77248   0.02439323  0.023559982           28 
  458000   0.53121085   -6.1836546    133.87497  0.024358619  0.023491305           35 
  459000   0.52600916   -6.1837985    133.69209  0.024272347  0.023423069           25 
  460000   0.53074746   -6.2105979    133.52583  0.024189463  0.023354899           27 
  461000    0.5378394   -6.1979621    133.47923  0.024128566  0.023286784           30 
  462000    0.5456932   -6.1984182    133.61167  0.024100229  0.023219139           34 
  463000   0.52352151   -6.2018218    133.67779  0.024060077   0.02315164           19 
  464000   0.53033065   -6.1980779    133.50629  0.023977422  0.023084334           33 
  465000   0.53100252   -6.2046867    133.75361   0.02397018  0.023017006           32 
  466000   0.51454499    -6.222943    133.61186  0.023893395  0.022949977           37 
  467000   0.53095723   -6.2235837    133.82038   0.02387944  0.022883148           67 
  468000   0.52723136   -6.2047683     133.6426  0.023796759  0.022816398           31 
  469000   0.51575892   -6.2335644    133.42258  0.023706926  0.022749719           38 
  470000    0.5313814   -6.2412117    133.24968  0.023625829     0.022683           43 
  471000   0.52035089   -6.2238314    133.08946  0.023547321  0.022616357           38 
  472000    0.5186547   -6.2578286    133.24454  0.023524812  0.022549939           50 
  473000   0.51707129   -6.2440961    133.03129  0.023437508  0.022483585           34 
  474000   0.51134572   -6.2357224    133.09911  0.023399984  0.022417465           23 
  475000   0.50667386   -6.2479399    133.11221  0.023353019  0.022351507           36 
  476000   0.50724259   -6.2516266     133.4301  0.023359612  0.022285757           35 
  477000   0.51008307    -6.256356    133.29953  0.023287828  0.022220339           47 
  478000   0.50923583   -6.2533639    133.41957  0.023260037  0.022155072           30 
  479000   0.50337947   -6.2643552    133.13532  0.023162025  0.022090135           48 
  480000   0.49245593   -6.2824495    133.16429    0.0231188   0.02202527           29 
  481000   0.50691729   -6.2668305    133.29452  0.023093299  0.021960697           36 
  482000   0.49065728   -6.2778699    133.22367  0.023033138  0.021896421           48 
  483000   0.49415265   -6.2755266    133.26448  0.022992491  0.021832425           45 
  484000   0.49855396   -6.2776767    133.23826  0.022940472   0.02176858           41 
  485000   0.49296097   -6.2740303    133.09527  0.022868603  0.021704955           60 
  486000   0.48757127   -6.2855461    133.24573  0.022847348  0.021641473           45 
  487000   0.49451756   -6.2962202    133.19848  0.022792348  0.021578164           88 
  488000   0.49495327   -6.2871353      132.813  0.022679815  0.021514931           37 
  489000    0.4949439   -6.2863256    133.31206  0.022718483  0.021451972          137 
  490000   0.48136479    -6.310418    133.12907  0.022640999  0.021389221           50 
  491000   0.47345345   -6.3080358    133.12639  0.022594431  0.021326667           71 
  492000    0.4754534   -6.3220729    133.06671    0.0225384  0.021264296           81 
  493000   0.47935572   -6.3042508    133.12186  0.022502005  0.021201979           61 
  494000   0.47819781   -6.3031305    132.97848  0.022432268  0.021139879          113 
  495000   0.48122755   -6.3036531    132.98938  0.022388784  0.021077887           82 
  496000   0.47187294   -6.3148035    132.79799   0.02231149  0.021016054          148 
  497000   0.48308971   -6.3133809    132.91375  0.022286008  0.020954289           49 
  498000     0.467342   -6.3154219    132.93486   0.02224479  0.020892939          123 
  499000   0.46761344   -6.3202403    132.80083  0.022177827  0.020831635           87 
  500000   0.46856546   -6.3266755    132.98947  0.022164912  0.020770331          110 
  501000    0.4852584   -6.3104844     132.4341  0.022028294   0.02070931          192 
  502000   0.45807813   -6.3222199    132.76975   0.02204013  0.020648398          134 
  503000   0.45496219   -6.3345636    132.74562  0.021992316  0.020587636           75 
  504000   0.46956752   -6.3506045    132.58386  0.021921934  0.020527031           87 
  505000   0.46145082   -6.3558382    132.44779  0.021856071  0.020466625          164 
  506000   0.45229291   -6.3449856    132.74896  0.021862477  0.020406304           93 
  507000   0.45784146   -6.3695267    132.47164  0.021773774  0.020346211           75 
  508000    0.4554403   -6.3592964    132.34996  0.021710952  0.020286273          127 
  509000   0.46174443   -6.3524966    132.43945  0.021682949  0.020226543          234 
  510000   0.47088774   -6.3645058    132.25224  0.021609843  0.020166919           98 
  511000   0.44946035   -6.3739922    132.35141  0.021583726  0.020107472           88 
  512000   0.45953847   -6.3713306     132.3159  0.021535791  0.020048218          183 
Loop time of 1269.18 on 48 procs for 500000 steps with 4000 atoms

Performance: 68075.319 tau/day, 393.954 timesteps/s
99.4% CPU use with 48 MPI tasks x no OpenMP threads

MPI task timing breakdown:
Section |  min time  |  avg time  |  max time  |%varavg| %total
---------------------------------------------------------------
Pair    | 89.51      | 96.069     | 104.46     |  38.5 |  7.57
Neigh   | 8.6963     | 9.0298     | 9.5468     |   6.4 |  0.71
Comm    | 81.479     | 89.414     | 96.836     |  42.0 |  7.04
Output  | 0.92398    | 0.92488    | 0.9501     |   0.4 |  0.07
Modify  | 1057.1     | 1061.8     | 1065       |   5.2 | 83.66
Other   |            | 11.98      |            |       |  0.94

Nlocal:        83.3333 ave          92 max          77 min
Histogram: 4 1 6 8 13 5 7 2 1 1
Nghost:        2370.92 ave        2393 max        2348 min
Histogram: 3 3 4 7 9 3 6 4 5 4
Neighs:        16266.7 ave       18188 max       13801 min
Histogram: 2 3 3 6 4 6 9 3 10 2
FullNghs:      32534.2 ave       36056 max       29892 min
Histogram: 3 2 6 12 9 7 5 2 1 1

Total # of neighbors = 1561641
Ave neighs/atom = 390.41025
Neighbor list builds = 26855
Dangerous builds = 2

#clear
#
#next RN
#
#jump SELF
Total wall time: 0:21:12
