
units lj                  # Use reduced LJ style units
atom_style atomic         # Uncharged point particles
atom_modify map hash      # Needed for indexing of clusters etc
                          # Used to be able to find where atoms are in relation to each other.

lattice fcc 1.0 spacing 1 1 1
Lattice spacing in x,y,z = 1.5874011 1.5874011 1.5874011
region box block 0 10 0 10 0 10 units lattice
create_box 2 box
Created orthogonal box = (0.0000000 0.0000000 0.0000000) to (15.874011 15.874011 15.874011)
  3 by 4 by 4 MPI processor grid
create_atoms 1 box
Created 4000 atoms
  using lattice units in orthogonal box = (0.0000000 0.0000000 0.0000000) to (15.874011 15.874011 15.874011)
  create_atoms CPU = 0.002 seconds
set type 1 type/fraction 2 0.59 78393
Setting atom values ...
  2375 settings made for type/fraction
mass 1 1.0
mass 2 1.0
pair_style lj/cut  3.5
pair_modify tail  yes
pair_coeff 1  1  1.0  1.0   # Intearaction between 1 and 1 set with epsilon = 1 and sigma = 1
pair_coeff 1  2  1.5  0.8
pair_coeff 2  2  0.5  0.88

write_data data.0
System init for write_data ...
Neighbor list info ...
  update every 1 steps, delay 10 steps, check yes
  max neighbors/atom: 2000, page size: 100000
  master list distance cutoff = 3.8
  ghost atom cutoff = 3.8
  binsize = 1.9, bins = 9 9 9
  1 neighbor lists, perpetual/occasional/extra = 1 0 0
  (1) pair lj/cut, perpetual
      attributes: half, newton on
      pair build: half/bin/atomonly/newton
      stencil: half/bin/3d
      bin: standard
WARNING: Not all mixed pair coeffs generated from mixing. Use write_data with 'pair ij' option to store all pair coeffs. (../write_data.cpp:312)


#############################
#   M E L T   S Y S T E M   #
#############################

velocity all create 2.4 5300450 mom yes dist gaussian # Assign velocities
                                                    # Temperature 2.4, random number seed, zero linear momentum
                                                                                # Gaussian distribution

timestep 0.002   # simulation timestep
thermo 1000       # output thermodynamic data every 1000 steps bf 100

# Define a fix  in this case with index 1 applied to all
# particles in the simulation. This fix is for simulations
# in the anisotropic NPT ensemble. Note that we use the MTK
# correction.
fix 1 all npt temp 2.4 2.4 0.1 iso 5.68 5.68 0.5 mtk yes tchain 5 pchain 5 # Use NPT ensemble
                                                                         # Set temperature and pressure and damping
                                                                         # Numbers of thermostats in chain and in barostat
run 10000          # run for 10000 steps
Per MPI rank memory allocation (min/avg/max) = 3.642 | 3.644 | 3.648 Mbytes
Step Temp E_pair E_mol TotEng Press Volume 
       0          2.4   -4.7762807            0   -1.1771807   -4.0862689         4000 
    1000    2.3900977   -4.4663211            0  -0.88207092    5.7640734    3643.1221 
    2000    2.3804331   -4.4587237            0  -0.88896671     5.684317    3657.1489 
    3000    2.3787394   -4.5712913            0   -1.0040742    5.6555383    3586.4361 
    4000     2.398093   -4.5147285            0  -0.91848817    5.9436246    3601.2769 
    5000    2.4362591   -4.5016314            0  -0.84815635    5.6577235    3624.4519 
    6000    2.3910246   -4.5529262            0  -0.96728597    5.4112758     3617.667 
    7000    2.3637404   -4.5493894            0   -1.0046653    5.3060761    3631.4633 
    8000    2.4282049   -4.5621234            0   -0.9207267    5.7532043    3589.8178 
    9000    2.3968093   -4.5624733            0  -0.96815813    6.0613793    3561.1145 
   10000    2.4094003   -4.4055782            0  -0.79238127    5.6863046    3675.9627 
Loop time of 2.64256 on 48 procs for 10000 steps with 4000 atoms

Performance: 653911.904 tau/day, 3784.212 timesteps/s
99.6% CPU use with 48 MPI tasks x no OpenMP threads

MPI task timing breakdown:
Section |  min time  |  avg time  |  max time  |%varavg| %total
---------------------------------------------------------------
Pair    | 1.2128     | 1.2741     | 1.4311     |   3.4 | 48.22
Neigh   | 0.21694    | 0.22351    | 0.24541    |   0.9 |  8.46
Comm    | 0.71352    | 0.88874    | 0.96811    |   4.7 | 33.63
Output  | 0.00024732 | 0.0002531  | 0.00031254 |   0.0 |  0.01
Modify  | 0.21363    | 0.24032    | 0.27192    |   3.4 |  9.09
Other   |            | 0.01559    |            |       |  0.59

Nlocal:        83.3333 ave          93 max          75 min
Histogram: 2 1 10 9 5 6 7 6 1 1
Nghost:        1737.85 ave        1764 max        1713 min
Histogram: 3 6 2 6 8 5 8 7 1 2
Neighs:        10390.7 ave       11629 max        8814 min
Histogram: 1 0 2 10 6 7 7 11 2 2

Total # of neighbors = 498754
Ave neighs/atom = 124.68850
Neighbor list builds = 904
Dangerous builds = 199

# Equilibrate just above the melting temperature to avoid step fn in T

fix 1 all npt temp 1.25 1.25 0.1 iso 5.68 5.68 0.5 mtk yes tchain 5 pchain 5
run 2000
Per MPI rank memory allocation (min/avg/max) = 3.644 | 3.646 | 3.650 Mbytes
Step Temp E_pair E_mol TotEng Press Volume 
   10000    2.4094003   -4.4055782            0  -0.79238127    5.6863046    3675.9627 
   11000    1.2455966   -6.5926368            0   -4.7247089    5.6330948    2781.1717 
   12000    1.2745336   -6.6840839            0   -4.7727614    5.8651999    2751.1239 
Loop time of 0.711706 on 48 procs for 2000 steps with 4000 atoms

Performance: 485593.542 tau/day, 2810.148 timesteps/s
99.5% CPU use with 48 MPI tasks x no OpenMP threads

MPI task timing breakdown:
Section |  min time  |  avg time  |  max time  |%varavg| %total
---------------------------------------------------------------
Pair    | 0.30115    | 0.32587    | 0.37307    |   2.2 | 45.79
Neigh   | 0.041498   | 0.044137   | 0.049828   |   0.7 |  6.20
Comm    | 0.23149    | 0.28097    | 0.31058    |   2.7 | 39.48
Output  | 5.7708e-05 | 6.0106e-05 | 7.4505e-05 |   0.0 |  0.01
Modify  | 0.049595   | 0.055742   | 0.062558   |   1.7 |  7.83
Other   |            | 0.004929   |            |       |  0.69

Nlocal:        83.3333 ave          89 max          77 min
Histogram: 2 7 2 4 1 16 4 3 5 4
Nghost:        2111.73 ave        2124 max        2091 min
Histogram: 1 0 2 5 8 7 8 3 4 10
Neighs:        13879.9 ave       15281 max       12166 min
Histogram: 1 2 5 5 5 12 5 3 6 4

Total # of neighbors = 666235
Ave neighs/atom = 166.55875
Neighbor list builds = 144
Dangerous builds = 16

#############################
# L I N E A R  Q U E N C H  #
#############################

# Define solid atoms. This closely follows ten Wolde  Ruiz-Montero and Frenkel  Faraday Discuss  1996  104  93-110
# Compute components of the per-atom q6 vector
compute q6 all orientorder/atom degrees 1 6 components 6 nnn NULL cutoff 1.3 # compute the Q6 parameter.
                                                                             # Use all neighbours within 1.3 unit cell.

# get number of connections
compute coord_number all coord/atom orientorder q6 0.5

# An atom is solid if it has 8 or more connections (of a possible 14)
variable is_solid atom c_coord_number>=8
group solid dynamic all var is_solid    # Must be dynamic to update
dynamic group solid defined

# do clustering
compute cluster solid cluster/atom 1.3 # Create a cluster where all atoms within are solid and max 1.3 units from another member

# define chunks one chunk per cluster
compute clus_chunks solid chunk/atom c_cluster nchunk every compress yes  # Says which atoms are in which chunk

# count the size of each chunk
compute size_chunks solid property/chunk clus_chunks count


# Find the maximum entry in the vector of chunk sizes
variable max_n equal max(c_size_chunks)


# Thermo style which includes this variable
# thermo_style custom step temp pe vol v_max_n

thermo ${N}  # Print the thermo information every 100 steps
thermo 1000  

# Reset the npt fix at a lower temperature (below freezing)
fix 1  all npt temp  ${temp} ${temp}  0.1  iso  5.68  5.68  0.5  mtk yes tchain  5  pchain  5
fix 1  all npt temp  0.45 ${temp}  0.1  iso  5.68  5.68  0.5  mtk yes tchain  5  pchain  5
fix 1  all npt temp  0.45 0.45  0.1  iso  5.68  5.68  0.5  mtk yes tchain  5  pchain  5

dump dmp2 all dcd ${N} traj.dcd
dump dmp2 all dcd 1000 traj.dcd


compute msd all msd com yes
variable twopoint equal c_msd[4]/6/(step*dt+1.0e-6)
fix 9 all vector 10 c_msd[4]
variable fit equal slope(f_9)/6/(10*dt)
thermo_style custom step temp pe c_msd[4] v_twopoint v_fit v_max_n

fix 1 all npt temp 1.25 ${temp} 0.1 iso 5.68 5.68 0.5 mtk yes tchain 5 pchain 5
fix 1 all npt temp 1.25 0.45 0.1 iso 5.68 5.68 0.5 mtk yes tchain 5 pchain 5
run 5000000 # 5000000  # Run for this many steps
Neighbor list info ...
  update every 1 steps, delay 10 steps, check yes
  max neighbors/atom: 2000, page size: 100000
  master list distance cutoff = 3.8
  ghost atom cutoff = 3.8
  binsize = 1.9, bins = 8 8 8
  4 neighbor lists, perpetual/occasional/extra = 1 3 0
  (1) pair lj/cut, perpetual
      attributes: half, newton on
      pair build: half/bin/atomonly/newton
      stencil: half/bin/3d
      bin: standard
  (2) compute orientorder/atom, occasional
      attributes: full, newton on
      pair build: full/bin/atomonly
      stencil: full/bin/3d
      bin: standard
  (3) compute coord/atom, occasional
      attributes: full, newton on
      pair build: full/bin/atomonly
      stencil: full/bin/3d
      bin: standard
  (4) compute cluster/atom, occasional
      attributes: full, newton on
      pair build: full/bin/atomonly
      stencil: full/bin/3d
      bin: standard
Per MPI rank memory allocation (min/avg/max) = 9.846 | 9.851 | 9.854 Mbytes
Step Temp PotEng c_msd[4] v_twopoint v_fit v_max_n 
   12000    1.2745336   -6.6840839 7.6243406e-31 5.2946808e-33 8.3333333e+20            3 
   13000    1.2728731   -6.6903365   0.47659733  0.003055111  0.039196995            3 
   14000    1.2473075   -6.6345683   0.92088204 0.0054814405  0.037090212            3 
   15000    1.2545041   -6.7093308     1.321035 0.0073390833  0.036314758            3 
   16000    1.2718961   -6.7710434    1.7723932 0.0092312144   0.03577862            2 
   17000    1.2545908   -6.6860488    2.2110454  0.010838458   0.03606718            2 
   18000    1.2589406    -6.697108    2.6506874  0.012271701     0.035992            2 
   19000    1.2669417   -6.7096041    3.0721116  0.013474173  0.036149714            2 
   20000    1.2375361   -6.7212647    3.5574643  0.014822768   0.03636335            3 
   21000     1.244439   -6.6517113     4.107328   0.01629892  0.036661668            2 
   22000    1.2614753   -6.6899804    4.5371499  0.017186173  0.037220717            5 
   23000    1.2344897   -6.6914046    4.9911574  0.018083903  0.037437628            2 
   24000    1.2626067   -6.6616396    5.4132614  0.018796046  0.037630948            2 
   25000     1.282108   -6.6919558    5.8604545  0.019534848  0.037641451            3 
   26000    1.2241437   -6.7072365    6.3524785  0.020360508  0.037702967            2 
   27000    1.2413416   -6.7112342    6.7977648  0.020980755  0.037770642            2 
   28000     1.237674   -6.6905928    7.2471074  0.021568772  0.037817499            3 
   29000    1.2416646   -6.6823652    7.8000777  0.022414016  0.037896971            1 
   30000     1.244639   -6.6784425    8.2140019  0.022816672  0.038021183            2 
   31000    1.2546578   -6.6931906    8.6229407  0.023179948  0.038045172            2 
   32000    1.2534388   -6.7035497    9.0336442  0.023525115  0.038029037            2 
   33000     1.254908   -6.6707209    9.5115469  0.024019057   0.03797604            2 
   34000    1.2422719   -6.7296874     9.972656  0.024442784  0.037977575            2 
   35000     1.252966   -6.6775814    10.422459  0.024815378  0.037936547            3 
   36000    1.2724137   -6.7233775    10.835095  0.025081238  0.037910255            5 
   37000    1.2451218   -6.6768719    11.281503  0.025408789  0.037876131            1 
   38000    1.2717392   -6.7202003    11.688393  0.025632441  0.037824106            1 
   39000    1.2641912   -6.7387401     12.07475  0.025800748  0.037748834            5 
   40000    1.2665033   -6.7441616    12.471871  0.025983064  0.037655926            4 
   41000    1.2203793   -6.6869416    12.878128  0.026175057  0.037538681            4 
   42000    1.2398404   -6.7358346    13.305736  0.026400269  0.037430126            2 
   43000    1.2423465   -6.6743724     14.03803  0.027205485   0.03739999            1 
   44000    1.2438321   -6.6620163    14.514198   0.02748901  0.037441363            4 
   45000    1.2666384   -6.7270458      14.9031  0.027598333  0.037491854            2 
   46000    1.2050035   -6.7494855    15.395535  0.027890462  0.037521537            1 
   47000    1.2609154   -6.6951363    15.911471  0.028211829  0.037569151            2 
   48000    1.2302679   -6.7574892    16.267152  0.028241583  0.037615809            2 
   49000    1.2184536   -6.7170192    16.710503  0.028419222   0.03763648            2 
   50000    1.2352463   -6.7056832    17.223307  0.028705511  0.037641708            4 
   51000    1.2617797   -6.6857926    17.618587  0.028788541  0.037663458            5 
   52000    1.2598814   -6.7103616    18.018932  0.028876493  0.037651595            2 
   53000    1.2512948   -6.7011761    18.489458  0.029071475  0.037653588            2 
   54000    1.2749667   -6.7557494    18.829781  0.029058305  0.037640359            2 
   55000    1.2431107   -6.7006418     19.24937  0.029165712  0.037612626            1 
   56000    1.2481322   -6.7295524    19.651192  0.029242845  0.037566103            2 
   57000    1.2599382   -6.7315331    20.058062  0.029324651  0.037521111            4 
   58000    1.2550877   -6.7351794    20.380389  0.029282167  0.037451032            3 
   59000    1.2491087   -6.7190896    20.825138  0.029414037  0.037382164            2 
   60000    1.2396776   -6.6894003    21.229087  0.029484843  0.037323891            3 
   61000    1.2299547   -6.6901642    21.750107  0.029713261   0.03725752            4 
   62000    1.2333894   -6.7178634    22.100793  0.029705367    0.0372053            3 
   63000    1.2474285   -6.7237106    22.560277  0.029841636  0.037152685            2 
   64000    1.2540907   -6.7373696     22.89979  0.029817435  0.037097723            2 
   65000    1.2605505   -6.7110723     23.40936     0.030012  0.037053649            3 
   66000    1.2347412   -6.6910274    23.898828  0.030175287  0.037011681            3 
   67000    1.2433302   -6.7179231    24.354607    0.0302918  0.036969035            2 
   68000    1.2437552   -6.7094738    24.697234  0.030266218  0.036928635            1 
   69000    1.2353203   -6.7393246    25.114135  0.030331081  0.036891239            2 
   70000    1.2460748   -6.7437527    25.594764  0.030469956  0.036867873            3 
   71000     1.251741   -6.7368914    26.036194  0.030558913  0.036842095            1 
   72000    1.2576614   -6.6925544    26.539741  0.030717293  0.036815096            5 
   73000    1.2417851   -6.6952946    26.991626  0.030812358  0.036794847            3 
   74000    1.2536423   -6.6993069     27.42069  0.030879156  0.036776085            3 
   75000    1.2234346   -6.7073241     27.79067  0.030878522  0.036758397            2 
   76000    1.2252468   -6.7167449    28.076905   0.03078608  0.036721475            4 
   77000    1.2472788   -6.7199231    28.505933  0.030850576  0.036682255            1 
   78000    1.2570219   -6.7220691    28.869439  0.030843417  0.036642807            3 
   79000    1.2387745   -6.6819017    29.379976  0.030991536  0.036603991            2 
   80000    1.2261512   -6.7017236    29.688926  0.030925964  0.036560318            1 
   81000    1.2635832   -6.7512165     30.02996   0.03089502  0.036516289            4 
   82000    1.2512547   -6.7788913    30.386174  0.030880258  0.036470821            3 
   83000    1.2434988   -6.6912966    30.742017  0.030865478  0.036420128            1 
   84000    1.2476198   -6.7345108    31.086102  0.030839387  0.036364262            2 
   85000    1.2436917   -6.6562734    31.607891  0.030988128  0.036315711            3 
   86000    1.2489608   -6.7253676    32.075656  0.031081062  0.036267418            3 
   87000    1.2345525   -6.7189131    32.408344  0.031042475  0.036223705            2 
   88000    1.2354531   -6.6725382    32.895052  0.031150617  0.036182223            5 
   89000    1.2301089   -6.7372533    33.324491  0.031202707  0.036141603            2 
   90000    1.2247996   -6.7316965     33.62067  0.031130249  0.036099148            2 
   91000    1.2202256    -6.696867    34.131412  0.031255872  0.036058818            1 
   92000    1.2319863   -6.7519107    34.544086  0.031289933  0.036030625            2 
   93000    1.2253514    -6.756446    35.027826   0.03138694  0.036000085            2 
   94000    1.2476675   -6.6937448    35.558927  0.031523871  0.035980342            4 
   95000    1.2258156   -6.7124785    35.997584  0.031576828  0.035963236            2 
   96000    1.2569958   -6.6882682    36.420368  0.031614903  0.035947278            2 
   97000    1.2493529   -6.7644353    36.692193  0.031522502  0.035927622            2 
   98000    1.2290609   -6.7133844    37.208258  0.031639675   0.03591033            2 
   99000    1.2310263   -6.7953509    37.512162  0.031575894  0.035889121            1 
  100000    1.2521692   -6.7513026    38.212853  0.031844044  0.035881766            2 
  101000    1.2430052   -6.7388045    38.676716  0.031911481   0.03587816            1 
  102000    1.2586652    -6.792244    38.822998  0.031718136  0.035869445            1 
  103000    1.2449801   -6.7276211    39.441156  0.031910321  0.035853761            5 
  104000     1.254183   -6.7328537    39.618288  0.031745423  0.035830744            1 
  105000    1.2258551    -6.732596    39.913635  0.031677488  0.035803432            2 
  106000    1.2612016   -6.7392827    40.333573  0.031708784    0.0357783            2 
  107000    1.2180035   -6.7452094    40.478394  0.031525229  0.035743025            3 
  108000    1.2570812   -6.7591081    41.013492  0.031646213   0.03570317            3 
  109000    1.2459857   -6.7306105    41.582251  0.031790712   0.03567126            1 
  110000    1.2111085   -6.7049298    41.840546  0.031697383  0.035634639            4 
  111000    1.2404624   -6.7215455    42.089175   0.03159848  0.035595116            2 
  112000     1.243718   -6.7140573    42.543087  0.031654083  0.035557189            2 
  113000    1.2440697   -6.7411653    42.757787  0.031532291  0.035521929            2 
  114000    1.2402175   -6.7107298    43.185606  0.031568425  0.035488972            3 
  115000    1.2564294   -6.7695679    43.639788  0.031623035  0.035450422            2 
  116000    1.2446309   -6.7695255    44.059133  0.031651676  0.035413681            1 
  117000    1.2510806    -6.740628    44.617513  0.031778855  0.035381141            1 
  118000     1.206122   -6.7280521    45.025041  0.031797346  0.035353966            4 
  119000     1.210374   -6.7347688    45.414419  0.031802814  0.035327903            4 
  120000    1.2330852   -6.7635592    45.963629  0.031919187  0.035304942            1 
  121000    1.2356658   -6.7587462    46.125794  0.031767076  0.035282061            4 
  122000    1.2731171   -6.7218664    46.471915  0.031743111  0.035250799            2 
  123000    1.2391772   -6.7260191    47.080096  0.031897084  0.035223451            5 
  124000    1.2337946   -6.7577833    47.259429  0.031760369  0.035195702            3 
  125000    1.2213446    -6.698281    48.026519   0.03201768  0.035170699            4 
  126000    1.2299124   -6.6895662    48.544734  0.032106306   0.03515594            3 
  127000    1.2315336    -6.753088    48.583388  0.031878864  0.035134001            3 
  128000    1.2209214    -6.763809    48.785036  0.031761091  0.035107207            4 
  129000    1.2450663   -6.7266773    49.287994  0.031839789  0.035077821            3 
  130000    1.2427571   -6.7019652    49.676467  0.031843889  0.035052168            3 
  131000    1.2444757   -6.7420555    50.381401  0.032049237  0.035035487            3 
  132000    1.2270767   -6.7617559     50.87067  0.032115322  0.035020075            2 
  133000    1.2369636   -6.8061181    51.049791  0.031986084  0.035003828            1 
  134000    1.2271672   -6.7138909    51.736373  0.032174361  0.034989687            2 
  135000    1.2346292   -6.7137805    52.072723  0.032143656  0.034977142            1 
  136000    1.2282807   -6.7241242    52.454413  0.032141184  0.034962314            2 
  137000    1.2147483   -6.7394044    52.662018  0.032032858  0.034947562            3 
  138000    1.2348009   -6.7039626    53.341697  0.032211169  0.034931965            2 
  139000    1.2346255   -6.7476249     53.56646  0.032114185   0.03491603            2 
  140000    1.2329945   -6.7890436     53.75992  0.031999952  0.034899794            3 
  141000    1.2330208   -6.7807934    54.370591  0.032133919  0.034882209            3 
  142000    1.2419624   -6.7801503    54.297823   0.03186492  0.034862323            5 
  143000    1.2434886   -6.7220684    55.299399  0.032225757  0.034846535            2 
  144000    1.2417927   -6.7555551    55.594582   0.03217279  0.034832821            1 
  145000    1.2180693   -6.7283937    56.191598  0.032294022  0.034820505            3 
  146000    1.2273322   -6.7831477    56.529126  0.032265483  0.034810978            6 
  147000     1.224421   -6.7400072     57.00755  0.032317205  0.034800048            1 
  148000    1.2643274   -6.7430853    57.460497  0.032353883    0.0347903            4 
  149000    1.2322887   -6.7596289    57.838375  0.032348084  0.034781729            3 
  150000    1.2357615   -6.7711016    58.128121    0.0322934  0.034773786            1 
  151000    1.2086458   -6.7459528    58.590122  0.032334504  0.034765164            2 
  152000    1.2251828   -6.7351157     58.82331  0.032249622  0.034757967            2 
  153000    1.1966128   -6.7890963    59.134671  0.032208426  0.034744577            2 
  154000    1.2062859    -6.729517    59.704915  0.032307854  0.034729245            5 
  155000    1.2437691   -6.7531783    59.944385  0.032228164  0.034715099            3 
  156000    1.2438649    -6.742547    60.439493  0.032286054  0.034700406            3 
  157000    1.2097322   -6.7753802    60.481108  0.032102499  0.034683261            2 
  158000     1.258965   -6.7502527    61.161763  0.032258314  0.034668416            4 
  159000    1.2055946   -6.7467444    61.417024  0.032189216  0.034650314            4 
  160000     1.229866   -6.7498498    61.771337  0.032172571  0.034635081            3 
  161000    1.2416655   -6.7319422    62.209202   0.03219938  0.034620677            2 
  162000    1.2310895   -6.7047358    62.750688   0.03227916  0.034608194            2 
  163000    1.2178601   -6.7468212    63.049749  0.032234023  0.034595263            1 
  164000    1.2252649   -6.7241723    63.751645  0.032394129  0.034583132            3 
  165000    1.2364992   -6.7545817    63.827398   0.03223606    0.0345688            2 
  166000    1.2508839   -6.7725961    64.314974  0.032286633  0.034555977            1 
  167000    1.2104168   -6.7467144    64.808279  0.032339461  0.034542776            4 
  168000    1.2063365   -6.7613832    65.190842  0.032336727  0.034531469            4 
  169000    1.2374936   -6.7731916    65.429011  0.032262826  0.034519704            3 
  170000    1.2234079   -6.7839643    65.778483  0.032244354  0.034507898            3 
  171000    1.2179011   -6.7430152    66.174048  0.032248561  0.034492075            2 
  172000    1.1857998   -6.7791372    66.285056  0.032114853  0.034473819            1 
  173000    1.2096783   -6.7264095    67.085298   0.03231469  0.034457857            1 
  174000     1.206519   -6.7671494    67.104283  0.032138066   0.03444103            2 
  175000    1.2313593   -6.7675941    67.415915  0.032102817  0.034424237            2 
  176000    1.2108067   -6.7514166    67.948456  0.032172564  0.034410694            3 
  177000    1.2268652   -6.7594646    68.498964  0.032249983  0.034394801            2 
  178000    1.2240428   -6.7392275    68.989291  0.032298357  0.034381601            2 
  179000    1.2263701   -6.7511807    69.309545  0.032267013  0.034366656            3 
  180000     1.214981   -6.7579742    69.862209  0.032343615  0.034353171            3 
  181000    1.2097344   -6.7670184    70.098966  0.032273925  0.034340716            4 
  182000    1.2280444    -6.731588    70.732268  0.032386569  0.034329777            3 
  183000    1.1972898   -6.7664682    71.068718  0.032362804  0.034318568            2 
  184000     1.217095   -6.8261736    71.200414  0.032246564  0.034306376            1 
  185000    1.2356255    -6.755742    71.800938  0.032342765  0.034295313            3 
  186000    1.2641426   -6.7565503    72.195012  0.032345435  0.034286719            1 
  187000    1.2133449   -6.7685315    72.550701  0.032330972  0.034275711            3 
  188000    1.2221473   -6.7787856    73.034317  0.032373367  0.034266896            2 
  189000    1.2349483   -6.7642767    73.477271  0.032397386  0.034258748            2 
  190000    1.2076939   -6.7464303    74.083841  0.032492913  0.034251054            3 
  191000    1.2198226   -6.7815741    74.276165  0.032406703  0.034244248            4 
  192000    1.1991135   -6.7388839    75.001968  0.032552938  0.034239215            3 
  193000    1.2095554   -6.7812191    75.261733   0.03249643  0.034233421            4 
  194000    1.2119013   -6.7590819     75.66996  0.032504278  0.034228769            3 
  195000    1.2287532   -6.7515137    76.208591  0.032567774  0.034223052            4 
  196000    1.1884692   -6.7751153    76.591326  0.032564339  0.034219308            3 
  197000    1.2208196   -6.7870919    76.935046  0.032544435   0.03421424            3 
  198000    1.2191972   -6.7409656    77.341362  0.032551078  0.034209338            4 
  199000    1.2254874   -6.7327771     77.58693  0.032490339  0.034203441            4 
  200000    1.2284257   -6.7433027    77.722961  0.032384567  0.034195387            3 
  201000    1.2386065    -6.812802    77.443303  0.032107505  0.034184742            3 
  202000    1.2089412   -6.7440133    78.715909   0.03247356  0.034173241            2 
  203000    1.1922407   -6.7321957    79.197373  0.032511237  0.034163607            2 
  204000    1.2256561   -6.7809702    79.525355  0.032485848  0.034155687            2 
  205000    1.2336279   -6.7812148    79.676158  0.032388682  0.034147711            2 
  206000    1.2325251   -6.7543301    80.192009  0.032440133   0.03413667            3 
  207000    1.2286928   -6.7817161    80.452965  0.032388472  0.034128287            3 
  208000     1.205891   -6.7362116    81.275268  0.032562207  0.034120862            2 
  209000    1.2204079    -6.722331    81.518361  0.032503334  0.034113565            3 
  210000    1.2255909   -6.8203936    81.471288  0.032329876  0.034102665            2 
  211000    1.2076212   -6.8052031    81.716743  0.032273595  0.034088465            5 
  212000     1.237158   -6.7541763    82.246565  0.032329624  0.034075473            1 
  213000     1.225845    -6.795337    82.356216  0.032220742  0.034062138            5 
  214000    1.2491212   -6.7668157    83.145094  0.032377373  0.034051308            3 
  215000    1.2178026   -6.7911799    83.380656  0.032318084  0.034041114            4 
  216000    1.2219057   -6.7886045    83.756673  0.032313531  0.034030844            5 
  217000    1.2074255   -6.7641883    84.421447   0.03241991   0.03401971            1 
  218000    1.2108291    -6.724867    84.759442  0.032400398  0.034010272            5 
  219000    1.2294061   -6.7740818    84.731511  0.032241823   0.03399827            1 
  220000    1.1922127   -6.8162701      84.7705  0.032110038  0.033985515            6 
  221000    1.2296054   -6.7495802    85.585133   0.03227192  0.033970151            4 
  222000    1.2108826   -6.7589608    86.202784  0.032358402  0.033956037            3 
  223000    1.2243258   -6.7501297    86.154325  0.032195189  0.033943145            3 
  224000    1.2258873   -6.7708198    86.941113  0.032344164   0.03393147            2 
  225000     1.240131   -6.7855379    87.244588   0.03231281  0.033919576            2 
  226000    1.2554301   -6.7622506    87.559086  0.032285799  0.033908434            3 
  227000     1.217158   -6.7952907    87.789805  0.032228269  0.033898045            2 
  228000    1.2124052   -6.8049073     88.48163  0.032339777  0.033886526            2 
  229000    1.2000669   -6.8010408    88.719764  0.032285212  0.033878491            2 
  230000    1.2126666   -6.7649004    89.605481  0.032465754  0.033871646            3 
  231000    1.1903213   -6.7816605    89.452572  0.032270048  0.033861385            2 
  232000    1.2129965   -6.7904479    90.026361  0.032337055  0.033849719            5 
  233000    1.2395411   -6.8142401     89.99533  0.032187171  0.033839641            2 
  234000      1.20662   -6.7890385    90.783386  0.032330266  0.033829327            3 
  235000    1.1988254   -6.7902825    91.144232   0.03232065  0.033818975            4 
  236000     1.213971   -6.7184181    91.361944  0.032260574  0.033806805            2 
  237000    1.2036365   -6.7744028    91.526684  0.032182378  0.033792775            1 
  238000    1.2407172   -6.7553424    91.517037  0.032043781  0.033777494            4 
  239000    1.1949894   -6.7968238    91.526389  0.031912967   0.03376116            2 
  240000    1.2000164    -6.743213    92.644832  0.032168344  0.033743341            3 
  241000    1.2173024   -6.7296404    93.058058  0.032177752  0.033726416            4 
  242000    1.2294929   -6.7843226    92.933502  0.032001895  0.033709619            2 
  243000    1.2113305   -6.8492319    93.022351  0.031900669  0.033692337            4 
  244000    1.2365235   -6.8211649    93.832591   0.03204665  0.033674616            3 
  245000    1.2085828    -6.799394    93.771076  0.031894924  0.033658734            2 
  246000     1.189521   -6.8472141    94.318465    0.0319507  0.033642189            3 
  247000    1.2036629   -6.7689713    95.311604  0.032156412  0.033626613            2 
  248000    1.2226565   -6.8605727    95.329699  0.032032829  0.033611883            2 
  249000    1.1961528   -6.7655481    96.066449  0.032150753  0.033598964            3 
  250000    1.2084428   -6.7851279    96.144203  0.032048068  0.033584561            3 
  251000    1.2304798   -6.8416254    96.340932  0.031985701  0.033570923            3 
  252000    1.1995254    -6.801443    96.603746  0.031945683  0.033557205            4 
  253000    1.2318141   -6.8327851     96.97133  0.031940491  0.033542665            3 
  254000    1.1753998   -6.7826841    97.798106  0.032085993  0.033529639            3 
  255000    1.2127757   -6.8052389    98.154397    0.0320766  0.033518097            5 
  256000    1.2137877   -6.7762936    98.686578  0.032124537  0.033506427            2 
  257000    1.2154518   -6.8177423    99.112288  0.032137577  0.033493688            3 
  258000    1.2178858   -6.7895716     99.43449  0.032117083  0.033482189            2 
  259000    1.1907578     -6.81492    99.671741  0.032069415  0.033472271            2 
  260000    1.2160757   -6.7432016    100.83496  0.032318898  0.033463232            2 
  261000    1.2135611   -6.8339744    100.57206  0.032111132  0.033453075            3 
  262000    1.2314068   -6.8186893    100.96699  0.032114184  0.033443681            1 
  263000    1.2112073   -6.7491612    101.60278  0.032193529  0.033435404            1 
  264000    1.2192387   -6.8393801      101.807  0.032136048  0.033426655            2 
  265000    1.2179628   -6.8063691    102.52331  0.032240033  0.033417097            1 
  266000    1.1784111   -6.8087964    102.97419  0.032260084  0.033409682            4 
  267000    1.2006498    -6.773603    103.29445  0.032239217   0.03340268            1 
  268000    1.1998575   -6.8407348    103.62302  0.032221087  0.033396121            2 
  269000    1.2208319   -6.8339506    103.73372  0.032135602  0.033389675            2 
  270000    1.2102803    -6.810952    103.98003  0.032092602  0.033382016            2 
  271000    1.2399293   -6.8052148    104.72605  0.032203582  0.033374542            3 
  272000    1.2260605   -6.8100844    105.10025  0.032199831  0.033367171            2 
  273000     1.210696   -6.8430182    105.34291  0.032155954  0.033359004            3 
  274000    1.2146814   -6.7597809    106.07878  0.032262403  0.033351003            4 
  275000     1.171902   -6.8261517    105.93863  0.032102614  0.033343748            2 
  276000    1.1953953   -6.8137343    106.38767  0.032121882  0.033333712            3 
  277000    1.2021224   -6.7775286    107.12896  0.032228929  0.033324505            3 
  278000    1.1882166   -6.8167632    107.36856  0.032184821  0.033316284            3 
  279000    1.1928947   -6.7707803     108.6175  0.032442503  0.033309956            1 
  280000    1.2110313   -6.7848862    108.62283  0.032328224  0.033305189            2 
  281000    1.2172537   -6.8202437    108.33614  0.032128154  0.033299292            3 
  282000    1.2386262   -6.7968913    109.06215  0.032228767  0.033293214            4 
  283000    1.2099278   -6.7901884    109.21979  0.032161305  0.033285653            4 
  284000    1.1880478    -6.837066    109.18888  0.032038991  0.033278339            2 
  285000    1.2076781   -6.8159358    109.51755  0.032022674  0.033268234            2 
  286000    1.2116015   -6.8337555    109.83347  0.032002759  0.033258748            6 
  287000    1.2218712   -6.7875029    110.85456  0.032187734  0.033249917            3 
  288000    1.2020844   -6.8378497    110.44342  0.031957009  0.033241186            5 
  289000    1.1942047   -6.8068992    111.67564  0.032201742  0.033233618            1 
  290000    1.2174019   -6.8266604    112.06958  0.032203903  0.033227934            2 
  291000    1.1948698   -6.8054496    112.15202  0.032116845  0.033221493            4 
  292000    1.1633839   -6.8118372    112.86826   0.03221126  0.033215395            3 
  293000    1.1999887   -6.8238551    113.02619  0.032146243   0.03320958            2 
  294000     1.189171   -6.8221396    114.20431  0.032370837  0.033206458            2 
  295000    1.2095089   -6.7784842    114.00159  0.032203838  0.033202029            2 
  296000     1.208893   -6.8207762    114.45023  0.032221347  0.033196417            3 
  297000    1.2149444   -6.8504275     114.6501   0.03216894  0.033191619            1 
  298000     1.223477    -6.784774     115.7964  0.032381542   0.03318865            4 
  299000    1.1833527   -6.7966077    116.45223  0.032456028   0.03318654            2 
  300000    1.2024075   -6.8525488    116.13981  0.032261058  0.033184842            3 
  301000    1.1775774   -6.8177024    116.86979  0.032355977  0.033181727            3 
  302000    1.1964799   -6.7904459    117.17239  0.032332337  0.033177923            3 
  303000    1.1864436   -6.8382832    117.35926  0.032277023  0.033174021            2 
  304000    1.2087611   -6.8384634    117.33617  0.032164521  0.033169221            2 
  305000    1.1912644   -6.8305856    117.53175  0.032112499  0.033162166            6 
  306000    1.1838234   -6.8103165    118.01227  0.032138417  0.033154797            2 
  307000    1.1944858    -6.823247    118.80684  0.032249413  0.033147966            2 
  308000    1.2165621   -6.8396058    118.35773  0.032023195  0.033140834            2 
  309000    1.1815779   -6.8473467    118.63089  0.031993229  0.033133676            2 
  310000    1.2133904   -6.8568825    119.19056  0.032040472  0.033125504            3 
  311000    1.1948998   -6.7822022    119.43186  0.032002106  0.033115366            2 
  312000      1.20114   -6.8167972    120.04693  0.032063816  0.033106051            2 
  313000    1.1752314   -6.8050437    120.57445  0.032101823  0.033097811            3 
  314000    1.2176105   -6.8285982    120.45334  0.031967446   0.03308919            3 
  315000    1.2000514   -6.8252204    121.18813  0.032060353  0.033080477            3 
  316000    1.2073902   -6.8383905    121.16721  0.031953377  0.033072837            3 
  317000    1.1921311   -6.8432187    121.51407  0.031943761  0.033064537            5 
  318000    1.2082759   -6.8222078    122.10789  0.031998924  0.033056264            3 
  319000    1.1710999   -6.7928162     122.6202  0.032032445   0.03304723            7 
  320000    1.2164118   -6.8284274    122.65293  0.031940867  0.033038361            3 
  321000    1.2005535   -6.8458288     123.3026  0.032010022  0.033028681            2 
  322000    1.1862986   -6.8627562    123.65985  0.032003066  0.033020391            3 
  323000    1.1806881   -6.8443265    123.68585  0.031910693  0.033011429            2 
  324000    1.1809355   -6.8378143    123.88607  0.031863701  0.033002578            4 
  325000    1.1746077   -6.8220027    124.70492  0.031975619  0.032994025            5 
  326000    1.2195786   -6.8762454     124.0973  0.031722214  0.032983872            6 
  327000     1.195196   -6.8363743    125.07296  0.031873844  0.032972952            1 
  328000    1.1931887   -6.8180207    125.33479  0.031843188  0.032962864            2 
  329000    1.2004952   -6.8179916    125.86084  0.031879644  0.032952134            1 
  330000    1.2001018   -6.7839245    126.19011   0.03186619  0.032942141            2 
  331000    1.1786385   -6.8106511    126.27965   0.03179246  0.032931675            2 
  332000    1.1880179   -6.8254739    126.26843  0.031693883  0.032920468            4 
  333000    1.1931335   -6.8740295    126.65838  0.031696292   0.03290762            2 
  334000    1.2266029   -6.8100836    127.02787   0.03169358  0.032894378            4 
  335000    1.2223593   -6.8350093    126.99195  0.031590036  0.032881476            6 
  336000    1.1870988   -6.8892987    127.07186  0.031515838  0.032867624            4 
  337000    1.2058456   -6.8433405    127.71145  0.031580477  0.032853142            2 
  338000    1.2127204   -6.8033526    128.47695  0.031675777  0.032839663            2 
  339000    1.1986242   -6.8417561    129.06874  0.031727811  0.032827793            1 
  340000     1.184409   -6.7891845    129.85796   0.03182793  0.032816921            2 
  341000    1.2184308   -6.8023818    130.22538  0.031824385  0.032807508            2 
  342000    1.2071375   -6.8369685    130.77996  0.031866461  0.032797917            4 
  343000    1.2065945   -6.8234838     130.9265  0.031809159  0.032788668            3 
  344000    1.1870004   -6.8477578    130.95901  0.031724566  0.032779243            2 
  345000     1.196385   -6.8653882    131.47655  0.031757622  0.032769175           10 
  346000    1.2023079   -6.8321159    131.52075  0.031676481  0.032759124            2 
  347000    1.1854179    -6.849704    131.97073  0.031693259  0.032748206            1 
  348000    1.2190398   -6.7954976    132.53181  0.031736545  0.032737201            3 
  349000    1.1706288     -6.81024    132.87719  0.031728077  0.032726221            2 
  350000    1.2134705   -6.8529012    133.23901  0.031723574  0.032715086            3 
  351000     1.179901   -6.8150739    133.70684  0.031744263  0.032705577            2 
  352000    1.1813645   -6.8557593     133.7736  0.031669886   0.03269526            2 
  353000    1.2115656   -6.8067512    134.40855  0.031730064  0.032685614            3 
  354000    1.1960628   -6.8353102    134.21993  0.031596029  0.032675115            2 
  355000    1.1957936   -6.8174636    134.84292  0.031653268  0.032664204            2 
  356000    1.2084146   -6.8490265    134.94577   0.03158843   0.03265289            2 
  357000    1.2109532   -6.8340649    135.32184  0.031587731  0.032642034            2 
  358000    1.1897288   -6.8344501    135.64422  0.031574539  0.032630844            1 
  359000    1.1713537   -6.8519241     136.2119  0.031618362  0.032619141            3 
  360000    1.2054626    -6.799421    136.96007  0.031703719  0.032609074            2 
  361000    1.1582776   -6.8554982    137.03627  0.031633488  0.032598176            2 
  362000    1.1895375   -6.8557923     137.1696  0.031576797  0.032587845            3 
  363000    1.2037084   -6.8114996    137.91312  0.031660496  0.032577777            3 
  364000    1.1921409   -6.8558304    137.86304   0.03156205  0.032568061            2 
  365000    1.2080052   -6.7867893     138.9605  0.031726142  0.032558071            3 
  366000    1.1918121   -6.8652965    138.90255  0.031626265  0.032549243            5 
  367000    1.2101977   -6.8533534    139.32423  0.031635837  0.032539203            4 
  368000    1.2011675   -6.8759584    138.98773  0.031473672  0.032528718            3 
  369000    1.1798251   -6.8733284    139.48573  0.031500843  0.032517807            2 
  370000    1.1899737   -6.8992253    139.77047  0.031479837  0.032506196            4 
  371000    1.2069364     -6.82733    140.21687  0.031495254  0.032495551            2 
  372000     1.207547   -6.8907267    140.60586  0.031497728  0.032484748            2 
  373000     1.194027   -6.8255007    141.85046  0.031691345  0.032475458            1 
  374000    1.2064421   -6.8396416    141.77233  0.031589199  0.032466906            1 
  375000    1.2152863   -6.8465043    141.58341  0.031462981   0.03245817            3 
  376000    1.1780924    -6.840364    142.85585  0.031661314  0.032449364            2 
  377000    1.1915106   -6.8513415    142.88335  0.031583411  0.032439898            2 
  378000    1.1909566   -6.8653193    143.42592  0.031619471  0.032431329            4 
  379000    1.1939411   -6.8080765     143.8221  0.031623152  0.032422122            4 
  380000    1.2129141   -6.8323157    144.10881   0.03160281  0.032412993            4 
  381000    1.2279769   -6.8339953    144.92843  0.031699131  0.032404047            1 
  382000    1.2173446   -6.8169861    144.81153  0.031590648  0.032395182            2 
  383000    1.1836899     -6.83296    145.05599  0.031561356  0.032386304            4 
  384000    1.1925449   -6.8746004    145.09903  0.031488505  0.032378371            1 
  385000    1.2014339    -6.797338    146.48543  0.031706802  0.032370181            2 
  386000    1.1848689   -6.7847074    146.66619  0.031663684  0.032361597            3 
  387000    1.1810901   -6.8518571    146.85157  0.031621784  0.032352849            3 
  388000    1.2044799   -6.8829376    146.31155  0.031424303  0.032344265            2 
  389000     1.201878    -6.856306    147.13438  0.031519789  0.032335022            4 
  390000    1.1975842   -6.8529449     147.5339  0.031524337  0.032325159            3 
  391000    1.1676449   -6.8588228    148.04382  0.031552392  0.032316355            3 
  392000     1.188172   -6.8116288    149.22273  0.031722519  0.032308972            2 
  393000    1.1815261   -6.8453565     148.9512  0.031584224   0.03230122            4 
  394000    1.2019552   -6.8518414    148.90471  0.031494229  0.032293631            3 
  395000     1.183659   -6.8744427    149.78674  0.031600578  0.032286152            4 
  396000    1.1739999   -6.8536687    149.90958   0.03154663   0.03227861            1 
  397000    1.2278737    -6.891517    149.32939  0.031345379  0.032270308            4 
  398000    1.1989833   -6.8789204      150.126  0.031433418  0.032260511            6 
  399000    1.2089487   -6.9154068    149.99996  0.031328312  0.032251337            2 
  400000    1.2044612   -6.8290363    151.33315  0.031527739  0.032242202            2 
  401000    1.1972031    -6.846057    151.65449  0.031515896  0.032233182            2 
  402000    1.1993338   -6.8468597    151.60802  0.031427865  0.032224439            1 
  403000    1.1762298    -6.864268    152.40446  0.031514571  0.032216686            1 
  404000    1.1919829   -6.9122999    151.66766  0.031284583  0.032208234            3 
  405000    1.2071125   -6.8406204    152.79681  0.031439674  0.032198926            4 
  406000    1.2061668   -6.8492431    152.77452  0.031357661  0.032190032            2 
  407000    1.1731163   -6.8582018    153.25711  0.031379424  0.032180536            3 
  408000    1.1743539   -6.8381505    153.77615  0.031408526   0.03217208            1 
  409000    1.1737758   -6.8114619    154.01201   0.03137979  0.032162816            2 
  410000    1.1889874    -6.826826    154.65703  0.031434355  0.032153597            3 
  411000     1.194853     -6.83144    154.22698  0.031270677  0.032143984            4 
  412000    1.2004532   -6.9319094     154.2198  0.031193324  0.032134346            2 
  413000    1.1955671    -6.884696    155.39468  0.031354858   0.03212415            2 
  414000    1.2098274   -6.8319677    155.73011   0.03134664  0.032114786            2 
  415000     1.176911   -6.9175131    155.45227  0.031215315  0.032105104            3 
  416000    1.1928523   -6.9165438    156.17591  0.031285238  0.032095596            4 
  417000     1.173047   -6.8724893    156.81578  0.031338086  0.032086615            3 
  418000    1.2050726   -6.8208934    158.01723  0.031502637  0.032078342            3 
  419000    1.1688129   -6.8777678    157.51593   0.03132775  0.032070613            1 
  420000    1.1906792   -6.8367887    158.58621  0.031465517   0.03206282            2 
  421000    1.1726485      -6.8695    158.78545  0.031430216  0.032055787            4 
  422000    1.2033982    -6.859874     159.4819  0.031493266  0.032049466            6 
  423000    1.1853126   -6.8727719    159.36714  0.031396206  0.032042238            3 
  424000    1.1980915     -6.90595    159.14488  0.031278475  0.032034639            4 
  425000     1.172318   -6.9053844    159.87868  0.031348761  0.032027279            3 
  426000     1.160507   -6.8301234    161.35865  0.031564682  0.032020285            3 
  427000    1.1822901   -6.8356139    161.40549    0.0314999  0.032014019            2 
  428000    1.1702599   -6.8685358    161.41268  0.031427703  0.032007444            3 
  429000    1.1947825   -6.8838971     161.3057  0.031333664  0.031999271            2 
  430000    1.1746971   -6.8858423     161.3249  0.031264515  0.031991208            3 
  431000     1.166184   -6.8521782    162.46347  0.031412117  0.031983193            2 
  432000    1.1534845   -6.8764566     162.2679  0.031301678   0.03197608            2 
  433000    1.1794874   -6.8805747    162.43751  0.031262031  0.031968476            4 
  434000    1.2101803   -6.9262534     162.9159  0.031281856  0.031960798            3 
  435000    1.1862169   -6.8882265    164.18396  0.031452865  0.031953926            2 
  436000    1.1559578   -6.8462318    165.04588  0.031545466  0.031948407            3 
  437000    1.1590996   -6.8778203    164.38669  0.031347577  0.031942648            3 
  438000    1.1763432   -6.8974088    164.57494  0.031311823  0.031935988            2 
  439000    1.1656547   -6.8725854    165.03177  0.031327216  0.031929315            5 
  440000    1.1661848   -6.8785543    165.64316   0.03137181  0.031922637            3 
  441000    1.1537082   -6.8803036     165.3518  0.031245616  0.031916718            1 
  442000    1.1687298   -6.8619128    167.09244  0.031503099  0.031910108            2 
  443000    1.2052424   -6.8603091    166.76483  0.031370359  0.031903537            3 
  444000    1.1559411   -6.8497957    166.73284  0.031293702  0.031896625            1 
  445000    1.1991837   -6.8857215     166.6459  0.031207098  0.031889633            1 
  446000    1.1842355   -6.8828587    166.59697  0.031127983  0.031881917            2 
  447000    1.1789646    -6.867762    167.66773  0.031257966  0.031873828            4 
  448000    1.1647713    -6.903964    167.89448  0.031230372  0.031866058            4 
  449000    1.1788844    -6.871318    169.08157  0.031381137  0.031858912            3 
  450000    1.1740921   -6.8885726    169.34255  0.031359732  0.031852175            2 
  451000    1.1855322   -6.8784361    169.73202  0.031362161  0.031846293            2 
  452000    1.1659485   -6.8867175    169.66438  0.031280305  0.031839758            3 
  453000     1.184665   -6.8661559     170.3009  0.031328348  0.031833585            1 
  454000    1.1946752   -6.8946988    169.92436  0.031190228  0.031826598            3 
  455000    1.1944856   -6.8648611    171.17946  0.031351549   0.03181991            5 
  456000    1.1651061   -6.8700654    171.30171  0.031305137  0.031813289            3 
  457000    1.1961684   -6.9066848    171.26463  0.031229875  0.031806368            5 
  458000    1.1647876   -6.8919548    171.47467  0.031199904  0.031799388            6 
  459000    1.1729751   -6.8811207    172.08025  0.031241875  0.031792312            2 
  460000    1.1870096   -6.8905873    172.15742  0.031187938  0.031785192            2 
  461000    1.1850578    -6.874842    173.42519  0.031349456  0.031778475            2 
  462000    1.1747208   -6.8392157    173.49899  0.031294912  0.031772446            3 
  463000    1.1746105   -6.8736474    173.72325  0.031267683  0.031766438            3 
  464000    1.1434495    -6.839593    174.17245  0.031280971  0.031759645            3 
  465000    1.1793509   -6.8744195    174.07707  0.031196607  0.031752775            4 
  466000    1.1839651   -6.9054989    174.31823  0.031172787  0.031746186            2 
  467000     1.160895   -6.8768588     174.9381  0.031216648  0.031739482            4 
  468000    1.1674489   -6.9038229    175.28633  0.031211954   0.03173215            2 
  469000    1.1594264   -6.8602429    175.78291  0.031233636  0.031725534            2 
  470000    1.1892128   -6.8548144    176.61268  0.031314305  0.031719721            3 
  471000    1.1426229   -6.8878165    176.25184  0.031183977  0.031712895            1 
  472000    1.1834299    -6.890167    176.49799  0.031161368  0.031706184            2 
  473000    1.1903249    -6.874894    176.67566  0.031126791  0.031699173            2 
  474000    1.1799482   -6.9026472    177.47453   0.03120157  0.031692639            3 
  475000    1.1616684   -6.8980935    177.61015  0.031159676  0.031685607            3 
  476000    1.1631017   -6.9210766      177.434  0.031063376  0.031678383            1 
  477000    1.1663824    -6.912883    178.06743  0.031108914  0.031671178            1 
  478000    1.1706691   -6.8819292    178.37851  0.031098066  0.031663711            1 
  479000    1.1687396   -6.8814805    179.30426  0.031194199  0.031656662            2 
  480000    1.1878058   -6.8630288    179.63348  0.031186368  0.031649664            3 
  481000     1.190661   -6.8652194    179.28141  0.031060535  0.031642186            2 
  482000    1.1591281   -6.9254374    179.05853   0.03095756  0.031633691            2 
  483000    1.1810469   -6.8896982    180.21163  0.031092414  0.031626295            2 
  484000    1.1360392   -6.9106324    180.72515  0.031116589   0.03161895            1 
  485000    1.1912213   -6.8625594    181.33956  0.031158001  0.031611626            5 
  486000    1.2030035   -6.8757882    181.19247  0.031068667  0.031605193            3 
  487000    1.1664216   -6.9577267    180.95898  0.030964918   0.03159726            2 
  488000    1.1821915   -6.8959385    181.38677  0.030974517  0.031589157            3 
  489000    1.1589098   -6.8926486    182.01527   0.03101828  0.031581642            1 
  490000    1.1578754   -6.8943495    182.13493  0.030975327  0.031574079            3 
  491000    1.1692925   -6.8948514    182.56063  0.030984493  0.031565487            2 
  492000    1.1874756    -6.917134    182.85065  0.030970638  0.031557078            4 
  493000     1.158712   -6.9152381    182.64525  0.030873098  0.031548792            2 
  494000    1.1813523   -6.9014556    183.76043  0.030998722  0.031540734            2 
  495000    1.1699756   -6.8688987    183.64577  0.030916797  0.031532612            2 
  496000    1.1719518   -6.9026994    184.25991  0.030957646   0.03152423            2 
  497000    1.1908226   -6.8500226     184.8862  0.031000368  0.031516684            2 
  498000     1.170453   -6.8782364    185.44053  0.031030879  0.031509035            2 
  499000    1.1835771   -6.8869068    184.88563  0.030876024  0.031501904            2 
  500000    1.1561489   -6.9286599    184.60351  0.030767252  0.031493386            7 
  501000    1.1635832   -6.8919713    185.18678  0.030802858  0.031483792            2 
  502000    1.1862402   -6.8968572     185.4355  0.030782786  0.031474265            6 
  503000    1.1707835   -6.8841248    185.59069  0.030747297  0.031464726            4 
  504000     1.165692   -6.9004423    185.50177   0.03067159  0.031454819            3 
  505000     1.152543   -6.8813049    186.40476  0.030759861  0.031444878            3 
  506000    1.1559935   -6.8668223    186.62069  0.030734632  0.031435208            4 
  507000    1.1683575   -6.9005461    186.50936  0.030655713  0.031425355            2 
  508000    1.1977014   -6.8922529    187.01104  0.030677664  0.031415621            3 
  509000    1.1621837   -6.8796186    188.13453  0.030801331  0.031406589            2 
  510000    1.1407818   -6.8902518    187.37136  0.030616235  0.031396914            3 
  511000    1.1748812   -6.8736555     188.1794  0.030688095  0.031386825            6 
  512000    1.1559393     -6.89871    188.75814  0.030722353  0.031377193            2 
  513000    1.1804613   -6.9028825    188.32215  0.030591643  0.031367281            4 
  514000    1.1713809   -6.8673338     189.3103  0.030692332  0.031358215            2 
  515000    1.1566911   -6.9149679    189.83501   0.03071764  0.031349521            2 
  516000    1.1989007   -6.8733706    190.28939  0.030731491  0.031340828            6 
  517000    1.1767423   -6.8617016    190.87482  0.030766411   0.03133188            2 
  518000    1.1360539    -6.890721    191.43145  0.030796565  0.031322998            5 
  519000    1.1728446   -6.8798383    192.04495  0.030835734   0.03131438            3 
  520000    1.1698559   -6.9079538    191.90979  0.030754773  0.031305746            4 
  521000    1.1738818    -6.902263    192.22409  0.030746015  0.031297044            3 
  522000    1.1736467   -6.9139832    192.25907  0.030692699  0.031288909            3 
  523000    1.1749789   -6.9037748    192.79864  0.030719988  0.031281253            3 
  524000     1.185281   -6.8946378    193.08504  0.030706908  0.031272932            9 
  525000    1.1727495   -6.9036751    193.51704  0.030716991   0.03126469            5 
  526000    1.1755683   -6.8926641    193.21031  0.030609998   0.03125532            2 
  527000    1.1380071   -6.9108466    193.44238  0.030588612  0.031245857            3 
  528000    1.1823606   -6.9250968    193.91737  0.030605645  0.031236401            3 
  529000    1.1971312   -6.8960958    194.39373  0.030622831  0.031227153            2 
  530000    1.1569053   -6.9380793    195.03449  0.030665801   0.03121801            3 
  531000    1.1725786   -6.8889074    195.45873  0.030674628  0.031209374            5 
  532000    1.1484044   -6.9119908    195.11008  0.030562356  0.031200359            2 
  533000    1.1606158   -6.8974063    195.41568  0.030552796   0.03119177            1 
  534000    1.1788124   -6.8824046    197.03067  0.030747608  0.031182952            2 
  535000    1.1789226   -6.9280108    196.00203  0.030529911  0.031174191            5 
  536000     1.142029   -6.9285131    196.75316  0.030589732  0.031165005            3 
  537000    1.1549747    -6.867801    197.19481  0.030601306  0.031156025            3 
  538000    1.1266793   -6.8950662    197.46618  0.030586459  0.031147393            1 
  539000    1.1658541   -6.9143951     197.4029  0.030519928  0.031138414            4 
  540000    1.1599128   -6.8844223    198.06157  0.030565058  0.031129522            4 
  541000    1.1584161   -6.9000797    198.87057  0.030633175   0.03112057            2 
  542000    1.1466298   -6.8920549    197.93312  0.030432522   0.03111243            3 
  543000    1.1532131   -6.8892861     199.1811  0.030568002  0.031104476            3 
  544000    1.1852288   -6.9218672    199.28475  0.030527689  0.031095751            2 
  545000    1.1640302   -6.9557267    198.76176  0.030391706  0.031086438            3 
  546000    1.1755202   -6.9131829    199.96774  0.030520107  0.031077045            1 
  547000    1.1591757   -6.8723076    200.14016  0.030490578  0.031068743            2 
  548000    1.1631121   -6.9369736    200.60456  0.030505559  0.031060285            3 
  549000    1.1788812   -6.9369328     201.2338  0.030545507  0.031051831            5 
  550000    1.1987498   -6.8662197     201.2225  0.030488257  0.031043347            2 
  551000    1.1737808   -6.9195978    201.72357  0.030508707  0.031034885            5 
  552000    1.1478356   -6.9383236    202.03985  0.030501184  0.031026199            3 
  553000     1.190783   -6.8986892    201.78168  0.030407124  0.031018085            4 
  554000    1.1534853   -6.9274591    202.39247  0.030444114  0.031009588            3 
  555000    1.1650021   -6.9260859    202.62506  0.030424183  0.031000783            2 
  556000    1.1736043   -6.9373133    202.03268  0.030280678  0.030991583            4 
  557000    1.1604442   -6.9203204    203.30196  0.030416212  0.030982427            2 
  558000    1.1673165   -6.9335223    204.14895  0.030488194  0.030973617            2 
  559000    1.1765127   -6.8954575    204.64743  0.030507965  0.030965101            2 
  560000    1.1811702   -6.9256883    204.39322  0.030415657  0.030956748            3 
  561000    1.1815729   -6.9324468    204.94354  0.030443188  0.030948565            2 
  562000    1.1511322   -6.9098331    204.62195  0.030341333  0.030940393            5 
  563000    1.1471907   -6.9311685    204.19507  0.030224255  0.030931525            2 
  564000    1.1426457   -6.9202826    205.61085  0.030379854  0.030923173           11 
  565000    1.1606967   -6.9146911    205.67259   0.03033519  0.030914573            2 
  566000    1.1659696   -6.9375321    206.44077  0.030394695  0.030905945            5 
  567000    1.1647984   -6.9344893    206.52616   0.03035364  0.030897673            2 
  568000    1.1556536    -6.910631    206.88589  0.030352976  0.030889083            3 
  569000    1.1320328   -6.9215395    207.03875  0.030322019  0.030879809            2 
  570000    1.1608873    -6.962127    206.65293  0.030212417  0.030870826            3 
  571000     1.167937   -6.9399979    207.29606  0.030253366  0.030861451            5 
  572000    1.1598091    -6.919842    207.66227  0.030253828  0.030852603            4 
  573000    1.1509037   -6.9271488    208.06724  0.030259925  0.030843639            2 
  574000    1.1722015   -6.9128085    208.73343  0.030303924  0.030834832            3 
  575000    1.1564609   -6.9328701    208.74629  0.030253086  0.030826171            2 
  576000    1.1880883   -6.9625144    209.51287  0.030311468  0.030817258            4 
  577000    1.1443651   -6.9771139     209.0259  0.030188605  0.030808056            3 
  578000     1.135692   -6.9284507    209.00584  0.030133483  0.030798185            2 
  579000    1.1654054   -6.9186047    210.32741  0.030271648  0.030788911            3 
  580000    1.1711156   -6.9207848    210.75417  0.030280772  0.030779418            2 
  581000    1.1508236   -6.9519094    210.31636  0.030165857  0.030769634            4 
  582000    1.1597209   -6.9704278    209.91912  0.030057148  0.030759847            1 
  583000    1.1495472   -6.9332735    210.84127  0.030137403  0.030750231            2 
  584000    1.1495164   -6.9293088    210.59455  0.030050593  0.030740583            3 
  585000    1.1692601   -6.9796685    210.31593  0.029959534  0.030730987            7 
  586000    1.1811592     -6.92159    211.86814  0.030129144  0.030721254            3 
  587000    1.1443677   -6.9105205    211.73761  0.030059286   0.03071129            3 
  588000    1.1285598   -6.9670402    211.38654   0.02995841  0.030701017            1 
  589000    1.1432755   -6.9239313    212.66781  0.030088824  0.030691056            2 
  590000     1.157472   -6.9258223    213.26498  0.030122172  0.030681615            3 
  591000    1.1722045   -6.8729813    213.20479  0.030062718  0.030672216            5 
  592000    1.1395476    -6.917153    213.05016  0.029990169  0.030662718            2 
  593000    1.1582029   -6.9508352    212.84124  0.029910236   0.03065318            2 
  594000     1.190601   -6.8778365    214.72622   0.03012433  0.030643221            4 
  595000    1.1518408   -6.9083083    213.62672  0.029919708  0.030633182            2 
  596000    1.1566743   -6.9445613    213.94623  0.029914182  0.030623134            2 
  597000    1.1544641   -6.8889281    216.57525  0.030231052  0.030613809            2 
  598000    1.1570767   -6.9396668    215.99608  0.030099788  0.030604684            2 
  599000    1.1450533   -6.9117643    216.79321  0.030160436  0.030595868            2 
  600000    1.1412967   -6.9135265    216.15596  0.030021661  0.030587209            5 
  601000     1.148233   -6.9537269    216.86268    0.0300697  0.030578989            3 
  602000    1.1719772   -6.9561552    217.39606  0.030093585  0.030570364            3 
  603000    1.1344858   -6.9659998    217.48663  0.030056195  0.030561988            4 
  604000    1.1722944   -6.9106441    217.99518  0.030076597   0.03055367            4 
  605000    1.1534877   -6.8944595     218.1079  0.030042411  0.030545586            3 
  606000    1.1457148    -6.930662    218.67789  0.030071217   0.03053695            2 
  607000    1.1574788   -6.9155093    218.30947  0.029971096  0.030528093            4 
  608000    1.1680143   -6.9657236    218.43271  0.029938694  0.030518815            8 
  609000    1.1561985   -6.9769093    217.97394  0.029826758  0.030508653            4 
  610000    1.1331343   -6.9662065    217.83087  0.029758315  0.030498426            3 
  611000    1.1453164   -6.9782722    218.67254  0.029824405  0.030488267            2 
  612000    1.1798328   -6.9408886    219.36289  0.029869675  0.030478095            1 
  613000    1.1508212   -6.9445698    219.27224  0.029808625  0.030468087            2 
  614000    1.1479047   -6.9448041    219.19216  0.029749207  0.030457606            2 
  615000     1.151301   -6.9370607    220.65555  0.029899127  0.030447023            4 
  616000    1.1523572   -6.9354235    219.89838  0.029748157  0.030436686            4 
  617000    1.1731834   -6.9677007    220.57626  0.029791499  0.030426454            4 
  618000    1.1431146   -6.9546865      220.476  0.029729773  0.030416683            3 
  619000    1.1599479   -6.9486693    221.19252  0.029778207  0.030406924            2 
  620000    1.1398562   -6.9001339    221.94034  0.029830691  0.030397283            7 
  621000    1.1664639   -6.9662572     222.0671  0.029799665  0.030387579            5 
  622000       1.1514   -6.9521159    222.32126  0.029785806  0.030378284            3 
  623000    1.1546602   -6.9263662    223.40547  0.029883022   0.03036872            2 
  624000    1.1448686    -7.014178    222.77685  0.029751182  0.030359038            3 
  625000    1.1447974   -6.9666214    223.30451  0.029773935  0.030349801            3 
  626000    1.1612289   -6.9526229    223.71704  0.029781289  0.030340163            7 
  627000    1.1458519   -6.9301972    224.25722  0.029805585  0.030331177            2 
  628000    1.1397173   -6.9256121    225.09171  0.029868858  0.030322375            5 
  629000    1.1672936   -6.9492394    224.93912  0.029801155  0.030313397            2 
  630000    1.1320837   -6.9421753    225.46852  0.029823879  0.030303912            3 
  631000    1.1437044   -6.9291982    225.52731  0.029784377   0.03029456            1 
  632000    1.1395676   -6.9608504    225.55069  0.029740334   0.03028551            2 
  633000    1.1539892   -6.9757253    224.39196  0.029540806  0.030276007            3 
  634000    1.1375004   -6.9965187    225.39826   0.02962648  0.030266385            5 
  635000    1.1416686   -6.9894336    225.97124  0.029655018   0.03025652            3 
  636000     1.161952   -6.9306708    226.55271  0.029684579  0.030247025            2 
  637000    1.1547534   -6.9773071    226.73654  0.029662028  0.030237209            3 
  638000     1.143842    -6.997899    226.89344  0.029636029  0.030227164            4 
  639000    1.1517491   -6.9765494    227.33875  0.029647724   0.03021748            2 
  640000    1.1615467   -6.9928847    227.08816  0.029568771  0.030208146            3 
  641000    1.1553105   -6.9396266    227.69353  0.029601342   0.03019813            1 
  642000    1.1560228   -6.9644973    228.01146  0.029596503  0.030188213            2 
  643000    1.1503527   -6.9397947    229.56755  0.029752145  0.030178808            2 
  644000    1.1403356   -6.9511752    228.96733  0.029628277  0.030169263            5 
  645000    1.1506613   -6.9631458    229.00545  0.029587268  0.030159561            2 
  646000    1.1502749   -6.9265931    229.30373  0.029579944  0.030149752            2 
  647000     1.139336    -7.012892    229.13995  0.029513131   0.03013979            2 
  648000    1.1307992   -6.9931717    229.43171  0.029505107  0.030129533            4 
  649000    1.1586502   -6.9300366    229.74441  0.029499796  0.030119574            3 
  650000    1.1431681   -6.9728594    229.96451  0.029482629  0.030109662            2 
  651000    1.1481702   -6.9447526    231.07556  0.029579564  0.030099761            6 
  652000    1.1542353   -6.9406964    231.65676  0.029608481  0.030090158           10 
  653000    1.1605286   -6.9499077    231.67315  0.029565231  0.030080395            2 
  654000    1.1539963   -7.0037491    231.41279  0.029486849  0.030070059            2 
  655000    1.1274251   -7.0166654    230.98123  0.029386925  0.030059753            5 
  656000    1.1444533   -6.9438576    232.56558  0.029543391  0.030049757            2 
  657000    1.1309971   -7.0107189    231.83319  0.029405529  0.030039817            4 
  658000    1.1098394   -6.9771514    232.13212  0.029398698  0.030029816            3 
  659000    1.1244361   -6.9465895    232.87287  0.029447758  0.030019916            3 
  660000    1.1365536   -6.9381579    234.00235  0.029545751  0.030009882            2 
  661000    1.1584109   -6.9713798    232.77601  0.029346446   0.03000003            3 
  662000    1.1615782   -6.9732251    233.76556  0.029426681  0.029989947            3 
  663000    1.1761365    -6.975695    234.76515  0.029507937  0.029979856            1 
  664000     1.148583   -6.9899124    233.98461  0.029365538  0.029970067            7 
  665000    1.1416612   -6.9655246    234.94493  0.029441721   0.02996038            2 
  666000    1.1348322   -7.0080018    235.32217  0.029444716  0.029950748            4 
  667000    1.1524972   -6.9822127    235.24123  0.029390458  0.029941025            2 
  668000    1.1485311   -6.9719113    236.49596  0.029502989  0.029931486            3 
  669000    1.1242786   -6.9480957    236.22358   0.02942496  0.029922357            4 
  670000    1.1322617   -6.9724397    237.06759  0.029486019  0.029913384            5 
  671000    1.1334205   -6.9797832    236.68544  0.029394615  0.029904151            1 
  672000    1.1459372   -6.9733574    236.86187  0.029372752  0.029894622            2 
  673000    1.1230317    -6.995752    236.85378  0.029328106  0.029884951            4 
  674000    1.1560304   -6.9190959    238.20448  0.029451593  0.029875647            5 
  675000    1.1378504   -6.9119684    238.44768  0.029437985  0.029866476            2 
  676000    1.1341128   -6.9640196    238.82068  0.029440419  0.029857651            3 
  677000    1.1322335   -6.9684697    239.90526  0.029530435  0.029848721            4 
  678000     1.139928   -6.9931673    239.20769  0.029401142  0.029839415            4 
  679000    1.1378197   -6.9667778    239.65893  0.029413221  0.029830076            1 
  680000     1.148318   -6.9987649    239.39392   0.02933749  0.029820794            3 
  681000     1.139851   -6.9439049    240.65628  0.029448884  0.029811603            3 
  682000    1.1559177   -6.9605919    240.44556  0.029379956  0.029802119            2 
  683000    1.1400996   -6.9833006    240.30242  0.029319476  0.029792814            4 
  684000    1.1539353   -6.9314259    241.79908  0.029458953   0.02978385            1 
  685000    1.1520059    -6.985386     240.8634  0.029302117  0.029774908            4 
  686000    1.1352745   -6.9895254    242.16971  0.029418089  0.029766224            1 
  687000     1.146344   -6.9516462    242.49503   0.02941473  0.029757719            3 
  688000    1.1615089    -6.960799    242.99729  0.029432811   0.02974939            4 
  689000    1.1621295   -6.9973788    241.79899  0.029245161  0.029741061            4 
  690000    1.1330951   -6.9501109    243.47357   0.02940502  0.029732907            4 
  691000    1.1543719   -6.9956069    243.31579  0.029343438  0.029724641            3 
  692000    1.1309097   -6.9612992     243.8069  0.029360176  0.029716247            2 
  693000    1.1419165   -6.9768164    244.21326  0.029366674  0.029708009            4 
  694000    1.1529275   -6.9277938    245.43323  0.029470849  0.029699712            5 
  695000    1.1509678   -6.9894444    243.84708  0.029238258  0.029691101            4 
  696000    1.1524446   -6.9735407    244.47693  0.029271663   0.02968272            3 
  697000    1.1126562    -6.967595    245.11092  0.029305466  0.029674584            3 
  698000    1.1394385   -6.9761225    245.58094  0.029319597  0.029666287            2 
  699000    1.1385134   -6.9843681    246.38006   0.02937292  0.029658551            1 
  700000    1.1436172   -6.9832045    245.64288    0.0292432  0.029650936            8 
  701000    1.1593814   -7.0215459     247.0221  0.029365442  0.029643024            2 
  702000    1.1477963   -7.0162858    245.70921   0.02916776  0.029634809            3 
  703000    1.1440729   -7.0061092    246.81646  0.029257523  0.029626843            2 
  704000    1.1455093   -6.9816136    247.88545  0.029342501  0.029619188            6 
  705000    1.1194584   -6.9729607    248.04379  0.029319597   0.02961102            6 
  706000    1.1382977   -7.0045957    248.76596  0.029363309  0.029603003            3 
  707000    1.1654305   -6.9964123    248.83977  0.029330477  0.029595215            2 
  708000    1.1403818   -6.9877694    249.30801  0.029344163  0.029587318            5 
  709000    1.1458121    -7.013945    248.80072   0.02924315  0.029579209            3 
  710000    1.1377269   -6.9704639    250.22874  0.029369571   0.02957152            3 
  711000    1.1114295   -6.9984466    249.85901  0.029284928  0.029563569            4 
  712000    1.1198185   -7.0272788     250.1269  0.029275152  0.029555191            3 
  713000    1.1303476   -6.9823762    250.40172  0.029266214  0.029547103            4 
  714000    1.1334671   -7.0036353    250.64918  0.029254105  0.029538982            3 
  715000    1.1388644   -6.9778304    251.01435  0.029255752  0.029530893            3 
  716000    1.1448117   -7.0052893     249.5251  0.029041562  0.029522657            3 
  717000    1.1451688   -6.9716523    251.78035  0.029263174  0.029514724            4 
  718000     1.128588   -7.0406078    249.97725  0.029013144  0.029506568            5 
  719000    1.1156608   -6.9782559    251.78555  0.029182377  0.029497976            3 
  720000    1.1240755   -7.0318802     250.9834  0.029049005  0.029489698            4 
  721000    1.1270184   -7.0052609    251.89977  0.029114629  0.029481356            1 
  722000    1.1371612   -7.0194814    251.86267  0.029070022  0.029472994            4 
  723000    1.1333253   -6.9896295    252.99934  0.029160827  0.029464903            2 
  724000     1.147589   -6.9736749    253.48117  0.029176009  0.029457102            4 
  725000    1.1324127   -6.9500439    254.18853  0.029217072  0.029449327            4 
  726000    1.1342681   -6.9438699    254.08798  0.029165287  0.029441388            1 
  727000     1.142167   -6.9174242    254.86109  0.029213789  0.029433899            1 
  728000    1.1505094   -6.9668217    255.13759   0.02920531  0.029426825            2 
  729000    1.1579855   -7.0341217    254.77099  0.029123342  0.029419343            3 
  730000    1.1455689   -6.9669845    255.60295  0.029178419   0.02941195            2 
  731000    1.1324889   -6.9696898    255.72316  0.029152206  0.029404272            1 
  732000    1.1239105   -6.9787685    256.11136  0.029156575  0.029396627            1 
  733000    1.1394435    -7.005191    256.41602  0.029151434  0.029389144            3 
  734000    1.1579162   -7.0100363    256.35515  0.029104808  0.029381193            2 
  735000    1.1280037   -6.9761512    256.88346  0.029125109  0.029373332            2 
  736000    1.1146438   -7.0077824     256.8638  0.029083311  0.029365374            3 
  737000    1.1512129   -6.9774979     257.3081  0.029094087  0.029357875            4 
  738000    1.1308523   -6.9521147    259.12662  0.029260006   0.02935076            3 
  739000    1.1328984   -6.9796219    257.72633   0.02906251  0.029343537            4 
  740000    1.1369083   -6.9781696    257.97748  0.029051518  0.029335934            3 
  741000    1.1423219   -6.9982026    258.36811  0.029056242  0.029328295            7 
  742000     1.138732   -7.0098023    258.28112  0.029007314  0.029320596            2 
  743000    1.1411874   -7.0363309    258.93258  0.029041339  0.029312465            8 
  744000    1.1228753   -6.9911274    258.29801  0.028931229  0.029304368            1 
  745000    1.1460914    -7.012222    258.68386  0.028935555  0.029296006            6 
  746000    1.1609409   -7.0306446    259.02436  0.028934804  0.029287904            2 
  747000    1.1366389   -7.0017644    259.33255   0.02893045   0.02927982            2 
  748000     1.127926   -6.9980059    260.18632  0.028986889  0.029271585            2 
  749000    1.1248176   -6.9443735    260.69507  0.029004791  0.029263517            2 
  750000    1.1210662   -6.9804051    260.79209  0.028976899  0.029255683            3 
  751000    1.1578109   -7.0123387    260.88938   0.02894911   0.02924768            8 
  752000     1.119371   -6.9756355      262.349  0.029072363  0.029239708            6 
  753000    1.1390713   -7.0369391     261.1696  0.028903231  0.029231882            2 
  754000    1.1474794   -6.9659624     263.4225  0.029113892  0.029224455            3 
  755000    1.1329912   -6.9966014    262.82163   0.02900901  0.029217304            2 
  756000    1.1199154   -6.9826154    262.86496  0.028975414  0.029209845            4 
  757000    1.1208776   -7.0177006    263.28841  0.028983753  0.029202352            6 
  758000    1.1361971   -7.0197014    262.95364  0.028908711  0.029194565            3 
  759000    1.1346512   -6.9904625    263.75058  0.028958123  0.029186561            2 
  760000    1.1387257   -7.0278512    264.39209  0.028990361  0.029178905            3 
  761000    1.1544075   -6.9625224    264.54426  0.028968928  0.029171392            3 
  762000    1.1122571   -6.9786323    265.52648  0.029038329  0.029164124            7 
  763000    1.1287664   -7.0370662    264.31165   0.02886759  0.029156541            1 
  764000    1.1100773   -7.0061098    265.07306  0.028912856  0.029148982            2 
  765000    1.1111884    -7.022578    265.00125  0.028867239  0.029141494            3 
  766000    1.1323551   -7.0272337     265.8214  0.028918777   0.02913391            3 
  767000    1.1524381   -7.0013485    266.21551  0.028923893  0.029126337            5 
  768000    1.1204134   -7.0011305    266.19902  0.028884442  0.029118509            1 
  769000    1.1109819   -7.0830234    265.30994  0.028750535  0.029110792            3 
  770000    1.1195416   -7.0192179    266.29043  0.028819311  0.029103328            3 
  771000    1.1247255    -7.001011    266.42463  0.028796437  0.029096014            2 
  772000    1.1114368   -7.0641847    266.10232  0.028724344  0.029088287            3 
  773000    1.1155377    -7.013503    267.37359  0.028824233  0.029080511            2 
  774000    1.1209231   -7.0459232    266.66251  0.028710434  0.029072498            2 
  775000    1.1613591   -7.0330223    267.83205  0.028799145  0.029064517            3 
  776000    1.1565427   -7.0051513    268.90866  0.028877648  0.029057003            2 
  777000    1.1153318   -6.9912147    269.36168  0.028889069   0.02904952            4 
  778000    1.1189261   -7.0258058    268.66111  0.028776897  0.029042178            3 
  779000    1.1123242   -7.0389671    269.60792  0.028841241  0.029034547            2 
  780000    1.1306474    -7.052965    269.64619  0.028808354  0.029026997            3 
  781000    1.1236041   -7.0271159    268.93855  0.028695961  0.029019232            3 
  782000    1.1428043   -7.0351355    269.33809  0.028701842  0.029011588            3 
  783000    1.1306874   -6.9869629    270.67385  0.028807349  0.029003913            2 
  784000    1.1353603   -7.0208709    270.47279  0.028749233  0.028995908            3 
  785000    1.1295177   -7.0170979    270.96169  0.028764511  0.028987835            3 
  786000    1.1357189   -7.0283211    270.51431  0.028680483  0.028979911            3 
  787000    1.1418207   -7.0224084    271.13311  0.028709563  0.028971903            2 
  788000    1.1246124   -7.0731929    270.43501  0.028599303  0.028963953            6 
  789000    1.1240804   -7.0300777    270.84521  0.028606381  0.028956031            2 
  790000    1.1300553   -7.0016976    272.28637   0.02872219  0.028948202            2 
  791000    1.1155566   -7.0200238    272.02729  0.028658585  0.028940497            3 
  792000     1.147452    -7.025113    271.55191  0.028572381  0.028932331            2 
  793000    1.1054455   -7.0713351    272.10888   0.02859488  0.028923714            2 
  794000    1.1048874   -7.0240282    271.55019   0.02850023  0.028915206            6 
  795000     1.135187   -7.0020642    273.08014  0.028624753  0.028907124            3 
  796000    1.1112113   -6.9794008     275.1043  0.028800702  0.028899394            3 
  797000    1.1319379   -7.0279203    273.69668  0.028617386  0.028891211            9 
  798000    1.1309932   -6.9927235     273.5051  0.028561518  0.028883022            8 
  799000    1.1429582   -7.0053413    274.29346  0.028607996  0.028874914            2 
  800000    1.1339293    -7.052552    274.91342  0.028636814  0.028866608            4 
  801000    1.1260031   -7.0575197    273.92868  0.028498614  0.028858285            6 
  802000     1.122123   -7.0075131    274.87064  0.028560956  0.028849716            5 
  803000    1.1206692   -6.9891298      274.426  0.028479244  0.028841198            2 
  804000    1.1334565   -7.0475291     275.6282  0.028568429   0.02883255            6 
  805000    1.1294682   -7.0431988    274.99495  0.028467386  0.028824427            3 
  806000    1.1263988   -7.0194428    275.66628  0.028501476  0.028816027            2 
  807000    1.1157543   -7.0645079    275.78238  0.028478148  0.028807766            2 
  808000    1.1394249   -7.0384589    276.12824  0.028478572  0.028799768            2 
  809000    1.1420038   -7.0307188    276.65058  0.028497175  0.028791562            2 
  810000    1.1379167   -7.1034134    276.14513  0.028409993  0.028783023            5 
  811000    1.1232066   -7.0349077    277.10136  0.028473218  0.028774597            2 
  812000    1.1134879   -7.0232476    277.28674  0.028457177  0.028766135            2 
  813000    1.1455015   -6.9993744    278.32597  0.028528698  0.028758016            2 
  814000    1.1128154   -7.0602649    277.28276  0.028386851  0.028749911            6 
  815000    1.1167879   -7.0177586    278.90343  0.028517733  0.028741782            2 
  816000    1.1243881   -7.0464528      278.135   0.02840431  0.028733792            2 
  817000    1.1169474   -7.0152453    280.07536  0.028567458  0.028725928            2 
  818000     1.136211   -7.0017254    279.68192  0.028492453  0.028717928            2 
  819000     1.116604   -7.0353213    280.32129   0.02852272   0.02871032            3 
  820000    1.1201053   -7.0121288    280.09347  0.028464783  0.028702388            7 
  821000     1.107081    -7.045139    279.29736  0.028349306  0.028694385            2 
  822000    1.1220699   -7.0173957    280.58288  0.028445142  0.028686306            2 
  823000    1.1148185   -7.0566101    280.02539   0.02835413  0.028678386            4 
  824000     1.119243   -7.0264031    281.12672    0.0284311  0.028670263            3 
  825000    1.1150437   -7.0172803     281.1943  0.028403464  0.028662387            3 
  826000    1.1211402   -6.9992481    281.69374  0.028419466  0.028654428            5 
  827000    1.1226308   -7.0462689    281.34251  0.028349708  0.028646412            3 
  828000    1.1095473   -7.0253598    282.05938  0.028387618  0.028638408            3 
  829000    1.1339294   -7.0491814    281.22053  0.028269052  0.028629987            5 
  830000    1.1282788   -7.0794725    281.72899  0.028286044  0.028621496            3 
  831000    1.1138077   -7.0411774    283.54398  0.028434013  0.028613163            2 
  832000    1.1145298   -6.9950272    283.25826   0.02837122  0.028605286            2 
  833000    1.1366993   -7.0221074    284.46317    0.0284577  0.028597436            5 
  834000    1.1169174   -7.0264506    283.84095  0.028361406  0.028589406            3 
  835000     1.113171   -7.0027924    284.48732  0.028391948  0.028581941            3 
  836000    1.1015376   -7.0609658    283.76057  0.028285543  0.028573981            5 
  837000    1.0908394   -7.0504862    284.98874  0.028374028  0.028565984            5 
  838000    1.0987949    -7.038044    285.61169  0.028402117  0.028558167            7 
  839000    1.1108862   -6.9927009     285.0817  0.028315624  0.028550329            5 
  840000    1.1246035    -7.038804    286.29734  0.028402514  0.028543015            4 
  841000    1.1332072   -7.0663924    285.42106  0.028281912  0.028535374            3 
  842000    1.1199127   -7.0255823    287.43384  0.028447529  0.028527654            2 
  843000    1.1173969   -7.0534771    286.36663  0.028308287  0.028519844            1 
  844000    1.0947029   -7.0259868    286.25184  0.028263413  0.028512016            5 
  845000    1.1158862   -7.0255737    287.28276  0.028331633  0.028504521            2 
  846000    1.1220855   -7.0852768    285.38609  0.028111317  0.028496559            3 
  847000    1.1389502   -7.0598821    286.72214  0.028209577  0.028488547            5 
  848000     1.118066   -7.0582566    286.90843  0.028194618   0.02848069            4 
  849000    1.0857381   -7.0492826    287.54265   0.02822366  0.028472967            2 
  850000    1.0935543   -7.0398716    288.82443  0.028316121  0.028465501            2 
  851000    1.0984802   -7.0944105    288.93235  0.028293415   0.02845801            2 
  852000    1.1137872   -7.0680607     288.6968  0.028237167  0.028450498            2 
  853000    1.1321117   -7.0495172    289.78741  0.028310611  0.028443191            1 
  854000    1.0904083   -7.0592172    288.79568  0.028180687   0.02843568            3 
  855000    1.1173713   -7.0619626    290.27283  0.028291699  0.028428471            5 
  856000    1.0900798   -7.0942565    289.06218  0.028140788  0.028421034            2 
  857000    1.1012858   -7.0412822    289.97887   0.02819709  0.028413593            1 
  858000    1.1068035   -7.0688036    290.99959  0.028263363  0.028406141            3 
  859000    1.1393299   -7.0441492    291.51751  0.028280705  0.028398765            2 
  860000    1.0836148   -7.0392499    291.61775  0.028257534  0.028391391            4 
  861000    1.1434057   -7.0621908     290.9771  0.028162708  0.028384111            2 
  862000    1.0913163   -7.0895833    291.41422  0.028172295  0.028377088            3 
  863000    1.1067892   -7.0408908    292.53797  0.028248162  0.028369694            3 
  864000    1.1244005   -7.0719473    291.74567   0.02813905  0.028362162            4 
  865000    1.1111443   -7.0957684    292.25865  0.028155939  0.028354846            4 
  866000    1.0935203   -7.0787315    292.70718  0.028166588  0.028347652            2 
  867000    1.1143482   -7.0593226    294.07689  0.028265752  0.028340395            3 
  868000    1.1330183   -7.0696689    293.60515  0.028187898  0.028333027            2 
  869000    1.1063952   -7.1004233    293.10927  0.028107909  0.028325624            3 
  870000    1.1215212    -7.057135    294.12084  0.028172495  0.028318308            6 
  871000    1.0905366   -7.0540821    294.02877  0.028131341  0.028311466            9 
  872000    1.1176534   -7.0836595    293.57842  0.028056042  0.028304057            2 
  873000    1.1120205   -7.0505888    294.30159  0.028092936  0.028296457            4 
  874000    1.1146534   -7.0045923    295.91428  0.028214557  0.028289277            2 
  875000    1.1088572   -7.0793748    294.47404  0.028045147  0.028281544            5 
  876000    1.1205461   -7.0731119    294.88401  0.028052132  0.028274096            5 
  877000    1.1256104   -7.0817442    295.93005  0.028119541  0.028266398            3 
  878000    1.1117919   -7.0256335    295.97482  0.028091763  0.028259025            2 
  879000    1.1312911   -7.0689913    296.39027  0.028099192  0.028251642            3 
  880000    1.1202864   -7.0692701    296.86412  0.028112132  0.028244058            4 
  881000    1.0896494   -7.0336779    297.75745  0.028164723  0.028236667            2 
  882000    1.1052922   -7.0838272    296.27311  0.027992546  0.028229555            2 
  883000    1.1316139   -7.0747575     297.9773  0.028121678  0.028222131            2 
  884000    1.1141866   -7.0732381    296.77069   0.02797612   0.02821482            3 
  885000      1.09856   -7.0690193    297.42411  0.028006037  0.028207476            3 
  886000    1.1312446   -7.0954201    297.54568  0.027985862  0.028200103            2 
  887000    1.0805513   -7.0753936    297.90884  0.027988429  0.028192416            4 
  888000    1.1115167   -7.0947393    298.43674   0.02800645  0.028184813            4 
  889000     1.129595   -7.1215043    297.86077  0.027920957   0.02817733            5 
  890000     1.135616   -7.0884413    297.88152  0.027891528  0.028169459            3 
  891000    1.1132268   -7.0824607    298.90874  0.027956298  0.028161869            2 
  892000     1.122479   -7.0958394    299.09382  0.027942248  0.028154286            2 
  893000    1.0881144   -7.1073831    298.61447  0.027866226  0.028146879            2 
  894000    1.1171532   -7.0908586    300.10868  0.027974337   0.02813932            3 
  895000    1.1054311   -7.0299084    301.68094  0.028089473  0.028131877            4 
  896000    1.1072813   -7.0468172    301.09413  0.028003546  0.028124683            2 
  897000    1.1318337   -7.0996342    300.32463  0.027900839  0.028117147            4 
  898000    1.0843072   -7.0271446    301.54807  0.027983302  0.028109412            6 
  899000    1.0803536   -7.0913975      301.331  0.027932054  0.028101691            4 
  900000    1.1026235   -7.0905376    301.40566  0.027907931  0.028093767            2 
  901000    1.1365074   -7.1037584    301.61443  0.027896266  0.028085952            3 
  902000    1.1179752   -7.0781067    301.23635  0.027830409  0.028078376            2 
  903000    1.0845811   -7.0671746    302.77848  0.027941904  0.028070997            2 
  904000    1.1124462   -7.0832494    302.10359  0.027848783  0.028063288            3 
  905000    1.1107413   -7.0747245    302.73823  0.027876448  0.028055706            5 
  906000    1.1123254   -7.0487509    303.44467  0.027910658  0.028047984            2 
  907000    1.1050999   -7.0781242      303.217  0.027858967   0.02804045            3 
  908000    1.1248986    -7.074366    302.55723  0.027767734  0.028032666            4 
  909000    1.1270638   -7.0617966    303.26711  0.027802265  0.028024767            4 
  910000    1.1146265   -7.0821868    304.25902  0.027862547  0.028016807            2 
  911000     1.110703   -7.0678065    303.56721   0.02776868   0.02800901            6 
  912000    1.1017035   -7.1051758     303.3112   0.02771484  0.028001152            2 
  913000    1.1007465    -7.105193    303.40947  0.027693453   0.02799298            6 
  914000    1.1039854   -7.0800604    304.52349  0.027764723  0.027985004            2 
  915000    1.0983594   -7.0948651    304.49071  0.027731394  0.027977141            3 
  916000    1.0898041   -7.0688344    305.21249  0.027766784  0.027969492            3 
  917000    1.1156154   -7.1314931    303.98475  0.027624931  0.027961549            7 
  918000    1.1051771   -7.0822721    305.72829  0.027753113  0.027953365            8 
  919000    1.0907447   -7.0908716    305.70903  0.027721167  0.027945445            4 
  920000    1.0948008   -7.0537416    307.12298   0.02781911  0.027937914            4 
  921000    1.1170427   -7.1117361    306.62777  0.027744098  0.027930336            3 
  922000    1.1066335   -7.0679502    308.11008  0.027847982  0.027922676            1 
  923000    1.0627436   -7.0541277    308.02461  0.027810095  0.027915232            2 
  924000    1.1128431   -7.0876623    307.15623  0.027701681  0.027907677            7 
  925000    1.1161439   -7.0831603    307.16911  0.027672893  0.027900058            3 
  926000    1.0874961   -7.0508056    309.24127  0.027829488  0.027892669            5 
  927000    1.0776467   -7.0471304    309.31359  0.027805968  0.027885527            2 
  928000    1.0807218   -7.0752258    308.00449  0.027658449  0.027877917            3 
  929000    1.1096249   -7.0912111    308.33983  0.027658758   0.02787032            4 
  930000    1.0804621   -7.0623441    308.89061   0.02767837  0.027862897            2 
  931000    1.0827537   -7.1315285     308.7981   0.02764036  0.027855512            4 
  932000    1.1022698   -7.1202375    309.37444  0.027662236  0.027847963            3 
  933000    1.1148678   -7.0976685    310.01681  0.027689961  0.027840642            3 
  934000    1.0943445   -7.0870601    311.15929  0.027762249  0.027833432            3 
  935000    1.0864344   -7.1041293    310.73087  0.027694374  0.027826346            4 
  936000    1.1261494   -7.0586109    311.40608    0.0277249  0.027819063            3 
  937000    1.0682703   -7.0422482    311.45215  0.027699409  0.027811961            2 
  938000    1.1102616   -7.0815682    311.98152  0.027716908  0.027804637            2 
  939000    1.0831691   -7.0958031    311.89719  0.027679907  0.027797117            5 
  940000    1.1072351   -7.1551272    310.46554  0.027523541  0.027789647            2 
  941000    1.1087421    -7.095945    311.20792  0.027560035  0.027782021            2 
  942000    1.1191121   -7.0751844    312.70926  0.027663594  0.027774619            4 
  943000    1.0889578   -7.0714295    312.93456  0.027654168  0.027767265            1 
  944000    1.0835232   -7.0204528    314.84091  0.027793159  0.027760268            4 
  945000    1.0910306   -7.0309895     314.2358  0.027710388  0.027753277            3 
  946000    1.1131247   -7.0656046    314.40746  0.027696217  0.027746244            3 
  947000    1.1059822   -7.1246787    313.82911  0.027616078  0.027739188            3 
  948000    1.0870902   -7.0662926    315.71446  0.027752678    0.0277321            3 
  949000    1.1111767   -7.0985387    315.11871  0.027671119  0.027725159            3 
  950000    1.1177353   -7.0835649     315.6197  0.027685939  0.027718147            3 
  951000    1.0979146   -7.1279424     314.2175  0.027533955  0.027710726            4 
  952000    1.0918516   -7.0982031    315.37953  0.027606752  0.027703447            6 
  953000    1.1015648   -7.0783414    317.08246  0.027726693  0.027695977            2 
  954000    1.1228112   -7.0624564     315.8889   0.02759337  0.027688793            5 
  955000    1.1022247   -7.0756862    316.13534  0.027585981  0.027681631            5 
  956000    1.0866273   -7.1178552    315.85954  0.027533084  0.027674296            1 
  957000    1.0759927    -7.063965    318.20519  0.027708567  0.027666935            2 
  958000    1.0967982   -7.0991525     316.8583  0.027562483  0.027659876            4 
  959000    1.0997838   -7.1191525      315.818  0.027443344  0.027652498            7 
  960000    1.1277096   -7.0800991    316.36668  0.027462386  0.027645274            5 
  961000    1.0978968    -7.133352    316.68503  0.027461414  0.027637923            2 
  962000     1.085113   -7.1498418    318.27004   0.02757017  0.027630562            4 
  963000    1.0920441   -7.1368605    316.82541  0.027416529  0.027623189            4 
  964000    1.0912128    -7.108164    318.55164  0.027537313  0.027615957            2 
  965000    1.1113058   -7.1281286    317.55147  0.027422407  0.027608732            2 
  966000    1.0867071   -7.1470102     318.3768  0.027465217  0.027601515            3 
  967000    1.1228984   -7.1423348    318.29549  0.027429808  0.027594054            4 
  968000    1.0921906   -7.1546525    318.62511  0.027429847  0.027586687            3 
  969000    1.0882335   -7.0772362    320.01399  0.027520983  0.027579528            8 
  970000    1.0781262    -7.055299    320.74019  0.027554999   0.02757255            7 
  971000    1.1039475    -7.120671    319.42566  0.027413805  0.027565459            6 
  972000    1.1048927   -7.1068932    320.97975   0.02751884  0.027558509            4 
  973000    1.1006788   -7.0777451    321.27314  0.027515685  0.027551577            4 
  974000    1.0810876   -7.1030864    320.21343  0.027396768  0.027544273            2 
  975000    1.1057718   -7.0838214    321.57356  0.027484919  0.027537295            3 
  976000    1.0988858   -7.0852859    321.77467   0.02747393  0.027530175            4 
  977000    1.1088939   -7.1006343    321.46541  0.027419431  0.027523179            2 
  978000    1.1047145   -7.1066029     322.3336  0.027465371  0.027516162            2 
  979000    1.0957842   -7.1245214    321.20142  0.027340945  0.027508999            3 
  980000    1.0865633   -7.1321713    322.88807  0.027456469  0.027501905            6 
  981000    1.1012537   -7.1036155    322.49633  0.027395203  0.027494757            6 
  982000    1.0869609   -7.1123739    322.44623  0.027363055  0.027487402            4 
  983000    1.0973042    -7.098608    322.54642  0.027343712  0.027480086            2 
  984000    1.1173393   -7.1163159    323.65794  0.027410056  0.027472964            3 
  985000    1.0975853   -7.0851618    323.18924  0.027342575  0.027465755            4 
  986000    1.0912258    -7.096834    323.74092  0.027361471   0.02745841            5 
  987000    1.1040692   -7.0860184     325.1102  0.027449358  0.027451209            3 
  988000    1.0893365   -7.1152359    323.29674  0.027268619  0.027444147            3 
  989000    1.0723271   -7.0440137    325.06941  0.027390412  0.027437151            3 
  990000    1.1078851   -7.1267891    324.68138  0.027330083  0.027430128            2 
  991000    1.0949299   -7.1176586    325.14474  0.027341469  0.027423061            5 
  992000    1.1197991   -7.0772063    325.79238  0.027368312  0.027415816            4 
  993000    1.0676922   -7.0958492    326.17173  0.027372586  0.027408796            2 
  994000    1.0964222   -7.1209132    326.45551  0.027368839  0.027401712            3 
  995000    1.0951255   -7.1157523    326.07238  0.027309245  0.027394665            6 
  996000    1.0614649   -7.1151745      326.329  0.027303296  0.027387719            4 
  997000    1.0998472   -7.1234591    326.79373  0.027314755  0.027380637            3 
  998000    1.1092237   -7.1263432    327.30334  0.027329938  0.027373542            4 
  999000    1.1029744   -7.1441392     326.7059  0.027252745  0.027366575            2 
 1000000    1.0698229   -7.1325506    327.16273  0.027263561  0.027359526            3 
 1001000    1.0731614   -7.0493011    329.03092  0.027391852  0.027352618            2 
 1002000    1.0925013   -7.0998767    327.77657  0.027260193  0.027345675            5 
 1003000     1.100207   -7.0763328    328.50086  0.027293192  0.027338441            2 
 1004000    1.0905832   -7.1318179    327.85561  0.027212451   0.02733128            3 
 1005000    1.1189593   -7.0640124    330.32347  0.027390006  0.027324355            3 
 1006000    1.1087896   -7.1014379     329.1367  0.027264472  0.027317441            3 
 1007000    1.0866519   -7.1083738    327.74759  0.027122442  0.027310126            2 
 1008000     1.101079   -7.0976223    328.99013  0.027198258   0.02730293            5 
 1009000    1.0905939   -7.1682789    328.66422  0.027144386   0.02729571            2 
 1010000    1.0740316   -7.0903314     330.6574  0.027281964  0.027288553            2 
 1011000    1.0729967   -7.1196928    329.92705  0.027194778   0.02728135            7 
 1012000    1.0782079   -7.0480809    331.82642   0.02732431   0.02727426            2 
 1013000    1.1079555    -7.117239     329.9218  0.027140655  0.027267308            2 
 1014000    1.0831823   -7.1203266    329.91516  0.027113343  0.027260288            2 
 1015000    1.0688524   -7.1259624    330.72295  0.027152951  0.027253198            4 
 1016000     1.084926   -7.1619636    330.51346  0.027109044  0.027246253            4 
 1017000    1.0770274   -7.1249438     330.2903  0.027064102  0.027239032            4 
 1018000    1.1196679   -7.1383113    330.61609  0.027064185  0.027231625            3 
 1019000     1.108605   -7.1464732    331.53036  0.027112394  0.027224207            2 
 1020000    1.1014811   -7.1139702    331.89659  0.027115734  0.027216912            4 
 1021000    1.0619884   -7.1665358    331.36027  0.027045402  0.027209319            2 
 1022000    1.0681443   -7.1271887    332.26966  0.027093091  0.027201878            4 
 1023000    1.0895028   -7.1460322    332.66461  0.027098779  0.027194516            9 
 1024000    1.0887196   -7.1705793    332.80814  0.027083996  0.027187168            3 
 1025000    1.0960535   -7.1691059    332.56977  0.027038193  0.027179803            4 
 1026000    1.0907124    -7.188882    332.61605  0.027015599  0.027172306            2 
 1027000    1.0779322   -7.1224318    334.84923  0.027170499  0.027165109            3 
 1028000    1.1003218   -7.0933302    334.05494   0.02707968  0.027158016            4 
 1029000       1.0802   -7.1084665    334.25686  0.027069717  0.027151109            6 
 1030000    1.0845139   -7.1079561    334.60065   0.02707125  0.027144216            3 
 1031000    1.0720698   -7.1095217    335.20909  0.027094172  0.027137034            5 
 1032000    1.1093569   -7.1503672    334.84234  0.027038303  0.027129636            5 
 1033000    1.1060442   -7.1174274    334.47348  0.026982371  0.027122288            2 
 1034000    1.0852396   -7.1281099    335.26481  0.027020052  0.027115071            3 
 1035000    1.1085201   -7.0901327    335.65498   0.02702536  0.027107915            3 
 1036000    1.0875935   -7.0845606    336.07729  0.027033244  0.027100797            4 
 1037000    1.0793993   -7.1093367    335.69804  0.026976699   0.02709369            2 
 1038000    1.0983995   -7.1389984    335.83959  0.026962074  0.027086333           11 
 1039000    1.0889899   -7.1650121    335.50215  0.026909059   0.02707882            2 
 1040000    1.0967584    -7.129432    336.70899  0.026979887  0.027071239            5 
 1041000    1.0967638   -7.0902775    337.40743  0.027009881  0.027063989            4 
 1042000    1.0796011   -7.1555753    336.70912  0.026928113  0.027056653            1 
 1043000    1.0683527   -7.1435408    336.56291  0.026890612  0.027049139            2 
 1044000    1.0868293   -7.1206574    336.29553  0.026843513  0.027041741            1 
 1045000    1.0828618   -7.1341434    336.69504  0.026849684  0.027034481            2 
 1046000    1.0641559   -7.1094588    337.99933  0.026927926  0.027027153            7 
 1047000    1.0752437   -7.1273435    338.78057  0.026964388  0.027019847            5 
 1048000    1.0676516   -7.1475728    337.24683  0.026816701  0.027012705            2 
 1049000    1.0985373   -7.1444807    337.47977  0.026809642  0.027005514            3 
 1050000    1.0729803   -7.1409152    338.31898  0.026850713  0.026998234            4 
 1051000    1.0631067   -7.1407145    339.14598  0.026890738  0.026990944            2 
 1052000    1.0992674   -7.0938424    339.96928  0.026930393  0.026983716            7 
 1053000    1.0807074   -7.1613284    338.83008  0.026814663  0.026976434            2 
 1054000    1.0837431   -7.1618072     339.5097  0.026842955  0.026968872            3 
 1055000    1.0741946   -7.1430316    338.57164  0.026743415  0.026961471            5 
 1056000    1.0808673   -7.0926758    339.64611  0.026802881  0.026954153            5 
 1057000    1.1077455   -7.1759816    340.59036  0.026851968  0.026946616            4 
 1058000    1.0893779   -7.1198563    340.37515  0.026809637  0.026939139            3 
 1059000    1.0796508   -7.1189809    340.64261  0.026805367  0.026931603            3 
 1060000    1.1008665   -7.1352879    341.50785  0.026848102  0.026924224            2 
 1061000    1.0875199   -7.1657629    340.61243  0.026752469   0.02691668            5 
 1062000    1.0838604   -7.1393368    341.52152  0.026798613  0.026909217            1 
 1063000    1.0818007   -7.1361965    341.48607  0.026770623  0.026901673            5 
 1064000    1.0856743   -7.1619514    341.29812  0.026730742  0.026894054            9 
 1065000    1.0714094   -7.1165501    342.72984  0.026817671  0.026886382            2 
 1066000    1.0984839   -7.1555568     341.2234   0.02667475  0.026878928            2 
 1067000    1.0831396   -7.1736027    340.45299   0.02658958  0.026871223            2 
 1068000    1.0834763   -7.1682431    342.20819  0.026701638  0.026863506            3 
 1069000    1.0857388   -7.0825402     342.7367  0.026717859  0.026855864            5 
 1070000    1.0535642   -7.1565619    342.05583  0.026639862  0.026848161            2 
 1071000    1.0769552   -7.1505674     343.1465  0.026699852  0.026840566            6 
 1072000    1.0566683   -7.1917466    342.11152   0.02659449  0.026832856            7 
 1073000    1.0665724   -7.1631678    344.10505   0.02672453  0.026824986            3 
 1074000     1.077804   -7.1532382    342.75263  0.026594711  0.026817223            2 
 1075000    1.0809501   -7.1271625    343.62578  0.026637657  0.026809424            3 
 1076000    1.0819333   -7.1352856    343.77654  0.026624577  0.026801712            6 
 1077000    1.1015491   -7.1364122    343.03373  0.026542381  0.026794002            2 
 1078000    1.0798119   -7.0960989     344.6744  0.026644589  0.026786363            5 
 1079000    1.0873801   -7.1575991    344.30022  0.026590996  0.026778565            3 
 1080000     1.102897    -7.188644    344.36665  0.026571501  0.026770605            2 
 1081000    1.0806654   -7.1397116    344.41101   0.02655034  0.026762741            3 
 1082000     1.093958   -7.1829845    344.99289  0.026570617  0.026754946            3 
 1083000    1.0581681   -7.1952545    343.98862  0.026468808  0.026746985            2 
 1084000     1.060252   -7.1826975    345.41472  0.026554022  0.026739098            2 
 1085000    1.0597364   -7.1300242    347.49981  0.026689694  0.026731354            3 
 1086000    1.0611057   -7.1519637    346.05979  0.026554618  0.026723646            3 
 1087000    1.0669312   -7.1884948    344.79215  0.026433007  0.026715695            3 
 1088000    1.0958211   -7.1699644    346.81696  0.026563799  0.026707802            6 
 1089000    1.0852003   -7.1652613    346.52271   0.02651689  0.026699673            7 
 1090000    1.0890243   -7.2129067    345.37357  0.026404708  0.026691557           12 
 1091000    1.0618274    -7.144878    346.99923  0.026504677  0.026683541            4 
 1092000    1.0717111   -7.1815692    346.45394  0.026438793  0.026675605            3 
 1093000    1.0798098   -7.0811354    349.08532  0.026615227  0.026667653            3 
 1094000    1.0721689   -7.1861221    346.92342  0.026426221  0.026659869            4 
 1095000    1.0911032   -7.1854628    348.54552  0.026525534  0.026651916            7 
 1096000    1.0730361   -7.1334125    349.28894  0.026557858  0.026644185            2 
 1097000    1.0768987   -7.1392122    349.33642  0.026537255  0.026636728            5 
 1098000    1.0712269   -7.1197114    348.80744  0.026472938  0.026629301            4 
 1099000    1.0835385   -7.1458288    349.80799  0.026524718  0.026621724            4 
 1100000    1.0912421   -7.1650867    349.17417  0.026452589   0.02661427            3 
 1101000    1.0963626   -7.1619168    348.74601  0.026396156  0.026606711            4 
 1102000    1.0713248   -7.1576143    349.07308  0.026396936  0.026599037            6 
 1103000    1.0870927   -7.1718042    349.78633  0.026426891  0.026591332            2 
 1104000    1.0679285   -7.1618156    348.04375  0.026271418  0.026583428            6 
 1105000    1.0690236   -7.1890863    350.53052  0.026435182  0.026575622            3 
 1106000    1.0694119   -7.1838465    350.00234  0.026371485  0.026567849            3 
 1107000    1.0717027   -7.2019267    349.92676  0.026341972  0.026559895            4 
 1108000    1.0722467   -7.1710036    351.58168  0.026442666  0.026552009            3 
 1109000    1.0929275   -7.1632451    351.64259  0.026423399  0.026544464            4 
 1110000    1.0879246    -7.173063    350.87719  0.026342131  0.026536985            2 
 1111000    1.0804269   -7.1126857    352.81405    0.0264637  0.026529642            2 
 1112000     1.073347   -7.1703725    351.52996  0.026343672  0.026522191            7 
 1113000    1.0420652   -7.1340928    352.38516  0.026384034  0.026514509           12 
 1114000    1.0408306   -7.1499008    352.33236    0.0263564  0.026506787            2 
 1115000    1.0661275   -7.1572098    352.41158  0.026338683  0.026499116            2 
 1116000    1.0733237   -7.2120328    351.54033  0.026250024  0.026491217            3 
 1117000    1.0693463    -7.168558    352.64945   0.02630927  0.026483501            2 
 1118000    1.0555737   -7.1798327    352.64676  0.026285537  0.026475801            2 
 1119000    1.0815144   -7.1662792    352.89541  0.026280564  0.026468249            4 
 1120000    1.0649609   -7.1653323    352.91522  0.026258573  0.026460639            3 
 1121000    1.0765401   -7.1063146    354.23688  0.026333399  0.026452954            5 
 1122000    1.0535915   -7.1521503    354.32143  0.026316209  0.026445563            2 
 1123000    1.0830366   -7.1469086    353.51867  0.026233205  0.026437967            3 
 1124000    1.0521487   -7.2237089    353.44847  0.026204661  0.026430228            6 
 1125000    1.0648559   -7.1751397    354.52083  0.026260803  0.026422449            5 
 1126000    1.0805922   -7.1703463    355.72027  0.026326248  0.026414583            3 
 1127000    1.0831618   -7.1746273    355.41543  0.026280348  0.026406889            1 
 1128000    1.0803141   -7.1112353    355.88843  0.026291994  0.026399202            2 
 1129000     1.065504   -7.1972677    354.55875   0.02617056  0.026391542            4 
 1130000    1.0956403   -7.1410828    355.73735  0.026234318  0.026383647            2 
 1131000    1.0609106   -7.1672267    355.78949  0.026214964  0.026375887            3 
 1132000     1.065578    -7.147977    355.23807  0.026151212  0.026368084            2 
 1133000    1.0481056   -7.1816591    355.95572  0.026180915  0.026359953            6 
 1134000    1.0715248   -7.1256557    355.26824  0.026107308  0.026352006            4 
 1135000    1.0741169   -7.1839832    355.56053  0.026105766  0.026344052            4 
 1136000    1.0804088   -7.1452542    356.00251  0.026115208  0.026335699            4 
 1137000      1.06564   -7.1575218    356.29196  0.026113454  0.026327511            2 
 1138000    1.0781228   -7.1414779    357.28026  0.026162878  0.026319246            2 
 1139000     1.089108   -7.1784662    354.78924  0.025957656  0.026310951            4 
 1140000    1.0821539    -7.167886    356.09035  0.026029997  0.026302592            8 
 1141000    1.0799552   -7.2224591    355.16648  0.025939708  0.026294178            5 
 1142000    1.0864461   -7.1728662    356.55999   0.02601868  0.026285895            3 
 1143000    1.0845342   -7.1893588    357.49103  0.026063796  0.026277603            3 
 1144000    1.0580997   -7.1615867    358.38984  0.026106486  0.026269558            7 
 1145000    1.0391721   -7.1341825    358.48725  0.026090775  0.026261453            3 
 1146000    1.0443793   -7.1806898    358.00592  0.026033008   0.02625325            4 
 1147000    1.0581634   -7.1633567    357.72564  0.025989947  0.026245272            3 
 1148000     1.058877    -7.168645    359.15248  0.026070883  0.026237227            6 
 1149000    1.0660079   -7.1988114    358.45771  0.025997803  0.026229092            4 
 1150000    1.0736604   -7.1961195    358.15683  0.025953394  0.026220921            1 
 1151000    1.0741173   -7.1892587    358.93585  0.025987247  0.026212695            6 
 1152000    1.0675238   -7.1770693     359.1827  0.025982545  0.026204602            2 
 1153000    1.0631194   -7.1541081    359.92547  0.026013694  0.026196474            3 
 1154000     1.075375   -7.1812111     360.1917  0.026010377  0.026188521            7 
 1155000    1.0742346   -7.1788605    358.65311  0.025876848  0.026180541            4 
 1156000    1.0579097   -7.2311845    358.68271  0.025856597  0.026172405            4 
 1157000    1.0551884   -7.2263298    358.69364  0.025835036  0.026164088            3 
 1158000    1.0612613   -7.1927688     360.7752  0.025962521   0.02615567            2 
 1159000    1.0650611   -7.2154174    360.12532  0.025893394  0.026147506            3 
 1160000    1.0301868   -7.1930641    360.38677  0.025889854  0.026139308            3 
 1161000    1.0939811   -7.2022963    360.01626  0.025840961  0.026131079            5 
 1162000    1.0593922   -7.2218081    360.69651  0.025867507  0.026122729            4 
 1163000    1.0809767   -7.2182626    360.50971   0.02583188  0.026114575            3 
 1164000    1.0634267   -7.1950527    360.79107   0.02582983  0.026106207            7 
 1165000    1.0727736   -7.2040772    361.75129  0.025876344  0.026097855            7 
 1166000    1.0611414   -7.1660108    361.52582  0.025838037  0.026089626            3 
 1167000    1.0755151   -7.1735801    362.16196  0.025861322  0.026081559            4 
 1168000    1.0545536   -7.1596469     363.7145   0.02594995  0.026073673            3 
 1169000    1.0785946   -7.1858928    363.50515  0.025912828  0.026065763            2 
 1170000     1.056817   -7.1712277    363.26845  0.025873821  0.026057697            4 
 1171000    1.0835409   -7.1753274    363.07405  0.025837891  0.026049809            8 
 1172000    1.0531606   -7.1883967    362.13378  0.025748989  0.026041895            7 
 1173000    1.0352503   -7.1474392    364.51719  0.025896362  0.026033769            5 
 1174000    1.0924964   -7.1386422    364.55061  0.025876676  0.026025986            5 
 1175000    1.0735845   -7.1729615    364.18997  0.025829076  0.026018148            4 
 1176000    1.0615637   -7.1287982    364.17801  0.025806265  0.026010196            7 
 1177000    1.0339116   -7.1629456    365.43314  0.025873205  0.026002414            4 
 1178000    1.0792397   -7.1754687    364.93118  0.025815731  0.025994541            6 
 1179000    1.0511704   -7.2045192     364.1646  0.025739652  0.025986494            3 
 1180000     1.086683   -7.2269611    363.88481   0.02569808  0.025978325           11 
 1181000    1.0955759   -7.1674698    364.28745  0.025704731  0.025970121            2 
 1182000    1.0724059    -7.211731     365.9627  0.025801093  0.025962031            4 
 1183000    1.0313953   -7.2108732    365.26815  0.025730357  0.025954107            5 
 1184000     1.061944   -7.2057342    365.39074  0.025717254  0.025946191            2 
 1185000    1.0536706   -7.1823946     366.3656  0.025764107  0.025938311            2 
 1186000    1.0511076   -7.2075799    365.59524  0.025688255  0.025930473            3 
 1187000    1.0701958    -7.185204    366.91522  0.025759283  0.025922469            5 
 1188000    1.0532339   -7.1996468    366.97711  0.025741941  0.025914584            4 
 1189000    1.0702414   -7.2117062    367.44963  0.025753408  0.025906889            3 
 1190000    1.0734346   -7.1505294    368.46215  0.025802671  0.025899175            6 
 1191000    1.0450054   -7.1786659    368.15082  0.025759224  0.025891543            2 
 1192000    1.0915234   -7.1845507    367.87178  0.025718106  0.025883723            3 
 1193000    1.0817754   -7.1665804    368.11597  0.025713605  0.025875873            8 
 1194000    1.0758017   -7.1979622    367.17455  0.025626365  0.025868077            3 
 1195000    1.0642022   -7.1708826    368.69901  0.025711228  0.025860342            4 
 1196000    1.0707314   -7.2220786    367.72774  0.025622056  0.025852426            6 
 1197000    1.0687725    -7.224208    367.99471  0.025619236  0.025844462            3 
 1198000    1.0669278   -7.1981252    368.73951   0.02564966  0.025836365            2 
 1199000    1.0459549    -7.179224     369.3734  0.025672324  0.025828391            4 
 1200000    1.0417112   -7.1966801    368.39201  0.025582779  0.025820493            8 
 1201000    1.0661004   -7.2242169    368.08337  0.025540062  0.025812419            5 
 1202000    1.0487793   -7.2247919    368.27649  0.025532202  0.025804266            3 
 1203000    1.0679316   -7.2240498    368.54899  0.025529855  0.025796017            3 
 1204000    1.0418591   -7.2020841     369.0341  0.025542227   0.02578774            3 
 1205000     1.060544     -7.12805    370.04846   0.02559118  0.025779679            2 
 1206000    1.0576329   -7.1776627    369.55692  0.025535995  0.025771606            3 
 1207000    1.0688648   -7.1906866    370.73547  0.025596207  0.025763561            7 
 1208000    1.0837075   -7.1888813    370.45949   0.02555598  0.025755376            2 
 1209000    1.0563007   -7.2216118     369.5932  0.025475131  0.025747175            2 
 1210000    1.0591993   -7.2418819    371.08969  0.025557141  0.025739016            4 
 1211000    1.0790036   -7.2448421    370.40072  0.025488626  0.025730933            3 
 1212000    1.0550155    -7.188392    371.99999  0.025577557  0.025723059            2 
 1213000    1.0587815   -7.2534898    369.93436  0.025414561  0.025715161            3 
 1214000     1.060956   -7.2285792    371.97094  0.025533425  0.025707034            4 
 1215000    1.0674015   -7.1824906     372.8701  0.025574081  0.025699022            3 
 1216000    1.0395083   -7.2188145    373.25446   0.02557939  0.025691108            5 
 1217000    1.0592743   -7.1783575     372.4364  0.025502356  0.025683299            5 
 1218000    1.0746422   -7.1800285    371.76927  0.025435774    0.0256754            7 
 1219000    1.0763185   -7.2451149    372.14156  0.025440358  0.025667496           13 
 1220000    1.0301522   -7.2328732      372.641   0.02545362   0.02565934            3 
 1221000    1.0503736    -7.221107    373.02674  0.025459101  0.025651255            3 
 1222000    1.0679818   -7.2249422    372.90801   0.02543017  0.025643185            1 
 1223000    1.0588243    -7.197092    374.86986  0.025543054  0.025635067            3 
 1224000    1.0876025   -7.2569509    373.14068  0.025404458  0.025626949            1 
 1225000    1.0470186   -7.1837113    374.01964  0.025443513  0.025618859            5 
 1226000    1.0657871   -7.2139024    373.42296  0.025382203  0.025610811            3 
 1227000    1.0533237   -7.2393848       374.66  0.025445531  0.025602822            3 
 1228000    1.0648032   -7.1964084    375.04778  0.025451125  0.025594822            3 
 1229000    1.0481976    -7.196541    375.17927  0.025439332  0.025586933            2 
 1230000    1.0721555    -7.196299    375.93517  0.025469862  0.025579309            5 
 1231000    1.0455107    -7.193196    375.98021  0.025452221  0.025571624           14 
 1232000    1.0370094   -7.2279814    375.42725  0.025394159  0.025563987            4 
 1233000    1.0713416   -7.1852826    376.66624  0.025457302  0.025556478            5 
 1234000    1.0450957   -7.2320044    375.85033  0.025381573  0.025548785            3 
 1235000    1.0566708   -7.2000952    376.23287  0.025386833  0.025540966            4 
 1236000    1.0597561   -7.1719121    379.16828  0.025564205   0.02553324            6 
 1237000    1.0292209   -7.2172878     377.0106  0.025398181  0.025525671            3 
 1238000    1.0461824   -7.2412275    377.35367  0.025400758  0.025518125            6 
 1239000    1.0525858   -7.2442274    377.15479  0.025366881  0.025510363            5 
 1240000    1.0546594    -7.248167    377.99967  0.025403204  0.025502583            4 
 1241000    1.0480211   -7.2579075    377.24807  0.025332264  0.025494643            9 
 1242000    1.0557775    -7.184117    377.79639  0.025348657   0.02548674            2 
 1243000    1.0489058   -7.2691728    376.64871  0.025251321  0.025478705            6 
 1244000    1.0494509   -7.2353375    378.20237    0.0253351  0.025470681            7 
 1245000    1.0685088    -7.215355    378.09721  0.025307712  0.025462709            3 
 1246000    1.0873665    -7.211078    377.97709  0.025279367  0.025454817            2 
 1247000    1.0395865   -7.2310849    378.23908  0.025276603  0.025446878            5 
 1248000    1.0471877    -7.255769    378.02236  0.025241878  0.025438824            2 
 1249000    1.0405342   -7.2191531    378.49424  0.025253152  0.025430728            4 
 1250000     1.029818   -7.2382588    379.01858  0.025267905  0.025422838            4 
 1251000    1.0558538   -7.2480466    378.90621  0.025240222  0.025415023            2 
 1252000    1.0773436   -7.2673237    378.29266  0.025179224  0.025407154            2 
 1253000    1.0500821   -7.2162125    379.55179   0.02524287  0.025399352            8 
 1254000    1.0567525   -7.2297182    379.25851   0.02520325   0.02539151            1 
 1255000     1.032949   -7.2040868    380.28545  0.025251358   0.02538367            4 
 1256000    1.0222821   -7.2199923    379.96927  0.025210275  0.025375841            4 
 1257000    1.0292868   -7.2152968     379.2329  0.025141402  0.025367785            4 
 1258000    1.0698369   -7.2281908    378.40792  0.025066767  0.025359796            8 
 1259000    1.0338202   -7.2151833    380.77961   0.02520384  0.025351817            5 
 1260000     1.057626   -7.2047964    381.27942  0.025216893   0.02534373            4 
 1261000    1.0379588   -7.2164874    380.89319  0.025171371  0.025335679            3 
 1262000    1.0458388   -7.2136612    380.09466  0.025098697  0.025327639            5 
 1263000    1.0485623   -7.2441691    379.24357  0.025022669   0.02531956            5 
 1264000    1.0534351   -7.2203633     381.5217  0.025153066  0.025311541            3 
 1265000    1.0461819   -7.2128112    381.21858  0.025113214  0.025303551            3 
 1266000    1.0922652   -7.2744513    380.19738  0.025026157  0.025295534            3 
 1267000    1.0603171    -7.242231    381.49903  0.025092017  0.025287413            3 
 1268000    1.0247809   -7.2982028    380.84009  0.025028923  0.025279243            4 
 1269000    1.0354993    -7.291469    380.62736   0.02499523  0.025270948            3 
 1270000    1.0616809   -7.2363311    381.74947  0.025049178  0.025262684            5 
 1271000    1.0571258    -7.264689    382.89708  0.025104713  0.025254502            6 
 1272000       1.0409   -7.2560879    380.93704  0.024956567  0.025246237            5 
 1273000    1.0488723    -7.239223    382.16984  0.025017664  0.025238127            5 
 1274000    1.0442611   -7.2283128     382.4194  0.025014351  0.025230088            9 
 1275000    1.0481672    -7.232793    383.82987   0.02508692  0.025222156            4 
 1276000    1.0520745   -7.2437961    382.44627  0.024976898  0.025214103            3 
 1277000    1.0373072   -7.2063946    384.54368  0.025094211  0.025206259            4 
 1278000    1.0425783   -7.2700744    382.74523  0.024957305  0.025198125            6 
 1279000    1.0440485   -7.2124365    384.30891  0.025039673  0.025190041            4 
 1280000    1.0279403   -7.2564982    383.16993  0.024945959  0.025182123            3 
 1281000    1.0388422    -7.261205    384.11998  0.024988289  0.025174074            6 
 1282000    1.0324047   -7.2313447    384.89957  0.025019473  0.025165985            4 
 1283000    1.0376974   -7.2845291     384.0311  0.024943563  0.025158161            5 
 1284000     1.037971   -7.2366592    385.55438     0.025023  0.025150222            5 
 1285000    1.0396467     -7.26876    385.51919  0.025001244  0.025142243            7 
 1286000    1.0185391   -7.2586343    384.79804  0.024935073  0.025134123            2 
 1287000    1.0619948   -7.2596183    384.91166  0.024923055  0.025126154            4 
 1288000    1.0336796   -7.2550764    386.04662  0.024977137  0.025118189            8 
 1289000    1.0619155   -7.2510004    386.24831  0.024970799  0.025110022            3 
 1290000    1.0443442    -7.268743    384.73722  0.024853825  0.025102056            5 
 1291000    1.0571375   -7.2196832    387.19315  0.024993103  0.025094096            4 
 1292000     1.048618   -7.2418048    387.22433  0.024975769  0.025086106            2 
 1293000    1.0401648   -7.2040909    387.61857  0.024981862  0.025078154            5 
 1294000     1.054084   -7.2496514    385.75979  0.024842851  0.025070409            3 
 1295000    1.0374119   -7.2628287    386.90395  0.024897294  0.025062433            3 
 1296000    1.0581044   -7.2654688    386.99047  0.024883646  0.025054462            8 
 1297000    1.0211844   -7.2675831    387.27827  0.024882953  0.025046499            3 
 1298000    1.0555886   -7.2426226    387.39011  0.024870962  0.025038549            5 
 1299000    1.0446308   -7.2592525    387.99637  0.024890709   0.02503056            2 
 1300000     1.034817   -7.2915218    386.96152  0.024805226  0.025022531            4 
 1301000    1.0294546   -7.2220951     388.6278   0.02489289  0.025014572            2 
 1302000    1.0529044   -7.2348834    388.49562  0.024865311  0.025006895            6 
 1303000    1.0584277   -7.2164523    389.43844  0.024906526  0.024999165            5 
 1304000    1.0585618   -7.2396711    388.47264  0.024825705  0.024991512            2 
 1305000    1.0207042   -7.2370967    389.87564  0.024896273  0.024983663            4 
 1306000    1.0450247   -7.2484035    389.17584  0.024832557  0.024975759            3 
 1307000     1.059399   -7.2857707    388.18754  0.024750544  0.024967896            5 
 1308000    1.0523247   -7.2614565    389.58029  0.024820355  0.024960059            3 
 1309000     1.041195   -7.2084874    390.49865  0.024859858  0.024952141            3 
 1310000    1.0591627   -7.2713576    388.13155  0.024690302  0.024944268            6 
 1311000    1.0447654   -7.2834465    388.71569    0.0247086  0.024936222            3 
 1312000    1.0353069   -7.2616847     390.3819  0.024795599  0.024928174            2 
 1313000    1.0289995    -7.246531    388.90509  0.024682984  0.024920137            2 
 1314000    1.0291136   -7.3007319    388.80088   0.02465759  0.024912037            7 
 1315000    1.0342038   -7.2954438    389.38304  0.024675731  0.024903828           10 
 1316000    1.0700365   -7.2991184    389.76521  0.024681181  0.024895797            3 
 1317000    1.0573188   -7.3042944    389.23551  0.024628924  0.024887855            3 
 1318000    1.0213141   -7.2901078    389.93948  0.024654747  0.024879826            4 
 1319000    1.0459222   -7.2656453    391.00462   0.02470335  0.024871881            3 
 1320000    1.0280592   -7.2636781    391.25784  0.024700621  0.024864057            4 
 1321000    1.0399618   -7.2544666    392.00577  0.024729105  0.024856271            3 
 1322000    1.0306176   -7.2709245    391.58762  0.024684041   0.02484842            4 
 1323000    1.0321533   -7.2203384    392.98967  0.024753695  0.024840619            3 
 1324000    1.0173391   -7.2524169    392.96098  0.024733193  0.024832911            5 
 1325000    1.0269042   -7.2653445    393.68338  0.024759961  0.024825216            2 
 1326000    1.0430189   -7.2589032    393.11903  0.024705822  0.024817513            3 
 1327000     1.016772   -7.2938722    392.96513  0.024677539  0.024809756            3 
 1328000     1.026797   -7.2363427    393.58395  0.024697788  0.024801942            4 
 1329000    1.0170492   -7.2517376    393.31973  0.024662637  0.024794145            4 
 1330000    1.0554664   -7.2537752    393.53979  0.024657881  0.024786273            4 
 1331000    1.0360963   -7.2783133    393.48361  0.024635838  0.024778439            3 
 1332000     1.025738   -7.2666919    393.79743  0.024636976  0.024770513            3 
 1333000    1.0242856   -7.2970416    393.47571  0.024598381   0.02476257            3 
 1334000    1.0239487   -7.2832773    394.89138  0.024668377  0.024754751            2 
 1335000    1.0280124   -7.2888874    394.76667  0.024642115  0.024747081            3 
 1336000    1.0407382   -7.2767702    393.34457  0.024534965  0.024739234            2 
 1337000    1.0550638   -7.2840893     394.0246     0.024559  0.024731357            4 
 1338000    1.0533428   -7.2712501    394.31604  0.024558797  0.024723509            3 
 1339000    1.0347983   -7.2518021    395.01697  0.024584078  0.024715587            5 
 1340000    1.0529602   -7.2529708     395.8212  0.024615746  0.024707788            2 
 1341000    1.0148535   -7.2850047     395.7419  0.024592462  0.024699993            4 
 1342000    1.0442747   -7.2492852    395.71674  0.024572574  0.024692251            3 
 1343000     1.051759   -7.2098585    396.97679  0.024632464  0.024684729            3 
 1344000    1.0254876   -7.2810506    395.28632   0.02450932  0.024677134            5 
 1345000     1.030928   -7.2668403    396.54231  0.024568916   0.02466951            6 
 1346000    1.0497726    -7.299633     396.3873  0.024541066  0.024661897            4 
 1347000    1.0183957   -7.2416491    398.85236   0.02467535  0.024654167            2 
 1348000    1.0252463   -7.2751963    396.86166   0.02453398  0.024646461            4 
 1349000    1.0427768   -7.2789763    397.40193  0.024549168  0.024638707            6 
 1350000    1.0507475   -7.2768763    396.45904  0.024472781  0.024631027            5 
 1351000    1.0324465   -7.2673294     397.4626  0.024516568  0.024623427            4 
 1352000    1.0284623   -7.2963565    397.13383   0.02447817  0.024615756            5 
 1353000    1.0263062   -7.2550316    397.22262  0.024465547  0.024608075            5 
 1354000    1.0487945   -7.2833509    398.82101  0.024545852   0.02460049            2 
 1355000    1.0189746   -7.3262609    398.43896  0.024504241  0.024593044            3 
 1356000    1.0261243   -7.2878221    399.82695   0.02457147  0.024585351            3 
 1357000    1.0457164   -7.2774801    399.10242  0.024508869  0.024577713            4 
 1358000     1.034317   -7.3104018    397.80005  0.024410901  0.024570051            3 
 1359000    1.0388993   -7.2581386    398.89852  0.024460297  0.024562296            2 
 1360000    1.0401391   -7.2710465     400.4836  0.024539436  0.024554635            4 
 1361000    1.0413213   -7.2717412    400.24958  0.024507077  0.024546955            3 
 1362000    1.0316957   -7.2843521    399.19312  0.024424445  0.024539184            7 
 1363000    1.0204179   -7.2909064    399.57136   0.02442965  0.024531444           11 
 1364000    1.0369299   -7.2758022    400.29395  0.024455886  0.024523651            3 
 1365000    1.0273962   -7.2957498    398.62207  0.024335902  0.024515865            5 
 1366000    1.0505726   -7.3052455    398.97159  0.024339409  0.024507992            2 
 1367000    1.0480998   -7.2511666    400.50142  0.024414863  0.024500199            3 
 1368000    1.0253448   -7.3041421    399.88159  0.024359259  0.024492456            4 
 1369000    1.0362754   -7.2478802    400.50453  0.024379385  0.024484612            6 
 1370000    1.0320306   -7.2776143    400.61771  0.024368474  0.024476881            6 
 1371000    1.0407695   -7.2866179    401.28924  0.024391517  0.024469089            5 
 1372000    1.0558778   -7.2932567    400.02505  0.024296954  0.024461329            3 
 1373000    1.0120181   -7.2712255    400.22711  0.024291522  0.024453537            3 
 1374000    1.0447933   -7.2962529    399.64723  0.024238672  0.024445701            5 
 1375000    1.0483113   -7.2446466    401.18537  0.024314265  0.024437868            3 
 1376000    1.0308478   -7.2769757    402.09897  0.024351924  0.024429965            7 
 1377000    1.0442576   -7.2664222    400.77439  0.024254078  0.024422023            5 
 1378000    1.0379734   -7.2702428    400.58132  0.024224801  0.024414132            5 
 1379000    1.0263601   -7.3312142    399.52323  0.024143294  0.024406231            3 
 1380000    1.0463546   -7.2758337    401.90072  0.024269367  0.024398265            2 
 1381000    1.0395968   -7.2894073    401.75083  0.024242749  0.024390456            3 
 1382000    1.0347665   -7.3007144    400.84113  0.024170353  0.024382296            6 
 1383000    1.0238496   -7.2842427    402.40147  0.024246895  0.024374393            4 
 1384000    1.0575601   -7.2790406    403.22287  0.024278834  0.024366464            3 
 1385000    1.0376715   -7.3156698    401.31421  0.024146462  0.024358427            3 
 1386000    1.0431266   -7.3154714    401.72466   0.02415372  0.024350436            4 
 1387000    1.0434764   -7.3041751    402.25754  0.024168321  0.024342369            8 
 1388000    1.0017486   -7.2559505    402.61836  0.024172572  0.024334292            7 
 1389000    1.0429037   -7.2646893    402.92112  0.024173334  0.024326232            4 
 1390000     1.055215   -7.3184178    402.48666  0.024129895  0.024318151            6 
 1391000    1.0363399   -7.2549531    402.87121  0.024135586      0.02431            2 
 1392000    1.0437377   -7.2711674    402.67475  0.024106487  0.024301991            3 
 1393000    1.0175969   -7.3045185    402.36762  0.024070808  0.024293921            8 
 1394000    1.0310311   -7.3243685    403.18103  0.024102166  0.024285848            4 
 1395000    1.0468068   -7.3331622    402.47816  0.024042901  0.024277631            4 
 1396000    1.0294229   -7.2779912    404.00574  0.024116866  0.024269549            3 
 1397000    1.0145226   -7.2527466    405.64334  0.024197288  0.024261649            5 
 1398000    1.0334772   -7.2585471    405.00845  0.024142135  0.024253793            4 
 1399000    1.0403242   -7.3176731      403.674   0.02404539  0.024245892            7 
 1400000    1.0403245   -7.2726548      404.715  0.024090179  0.024237992            3 
 1401000    1.0281926   -7.3125344      404.366  0.024052225  0.024230006            2 
 1402000    1.0334994   -7.2916499     405.1848  0.024083737  0.024222044            6 
 1403000    1.0354976   -7.3243205    405.31973  0.024074586  0.024213994            4 
 1404000    1.0020737   -7.3115902    405.49111  0.024067611  0.024206023            3 
 1405000    1.0322633   -7.3224815    406.05824  0.024084118  0.024198001            3 
 1406000    1.0079833   -7.3026782      405.704  0.024045993   0.02419011            3 
 1407000    1.0530331   -7.3364754    406.18373  0.024057316  0.024182153            7 
 1408000    1.0191404   -7.3236001    405.89692  0.024023255  0.024174185            6 
 1409000    1.0253204   -7.2990052    406.36732  0.024034027  0.024166286            4 
 1410000    1.0554387   -7.3108243    407.12677  0.024061866  0.024158497            4 
 1411000    1.0002315   -7.3219703     405.6367   0.02395681   0.02415063            6 
 1412000    1.0293172   -7.3175221    407.70825  0.024062102  0.024142743            6 
 1413000    1.0242331   -7.3284187    407.00402   0.02400354  0.024134987            3 
 1414000    1.0504686   -7.3434432     408.0079  0.024045728  0.024127136            5 
 1415000    1.0077409   -7.3342565    406.59143  0.023945314  0.024119292            4 
 1416000    1.0260961     -7.29519    408.51779  0.024041772  0.024111574            2 
 1417000    1.0247933   -7.3063685     408.7203  0.024036715  0.024103878            4 
 1418000    1.0283511   -7.2949874    408.73154  0.024020424  0.024096223            5 
 1419000     1.039389   -7.3109148    409.17189  0.024029357  0.024088438            4 
 1420000    1.0025285   -7.3078845    408.78505  0.023989733  0.024080706            5 
 1421000    1.0082257   -7.2744312    409.46251   0.02401258  0.024072849            8 
 1422000    1.0154981   -7.3317663    407.83335   0.02390022  0.024065078            2 
 1423000    1.0413243   -7.2841268    410.03313  0.024012247  0.024057327            3 
 1424000    1.0198299   -7.2356271    410.20164  0.024005246  0.024049705            5 
 1425000    1.0211682   -7.3108621     410.1383  0.023984696   0.02404206            3 
 1426000    1.0192036   -7.2965177     409.6535  0.023939545   0.02403439            2 
 1427000   0.98319001   -7.3235518    409.85823  0.023934725  0.024026652            4 
 1428000    1.0129274   -7.3530365    409.25754   0.02388291  0.024018905            4 
 1429000    1.0228268   -7.3463436    408.95217  0.023848389  0.024011125            8 
 1430000    1.0062835   -7.3214139    410.59698  0.023927563  0.024003505            4 
 1431000    1.0339299   -7.2426539    411.33621   0.02395389  0.023995793            2 
 1432000    1.0334071   -7.2672288    412.36516  0.023997041  0.023988191            4 
 1433000    1.0199059   -7.2630494     411.5691  0.023934002  0.023980531            2 
 1434000    1.0219711   -7.2995822    411.24862  0.023898688  0.023972926            2 
 1435000    1.0321048   -7.3005982    410.37374  0.023831228  0.023965368            5 
 1436000    1.0192337   -7.2784015    411.45461  0.023877357  0.023957738            2 
 1437000   0.99405392   -7.2808087     411.6678  0.023873104  0.023950067            3 
 1438000    1.0111751   -7.2961766    411.98353  0.023874799  0.023942282            2 
 1439000    1.0259842   -7.3451533     410.5367  0.023774421  0.023934441            5 
 1440000     1.036043   -7.3075908    411.05479  0.023787893  0.023926566            3 
 1441000    1.0245603   -7.3335261    411.10723  0.023774418  0.023918633            5 
 1442000    1.0590758   -7.3057263    412.45465  0.023835798  0.023910866            3 
 1443000    1.0190775   -7.2856837    412.45068  0.023819051  0.023903073            8 
 1444000    1.0253295   -7.3085162    411.53789  0.023749878  0.023895194            9 
 1445000    1.0244918   -7.3083432    411.68242  0.023741778  0.023887315            2 
 1446000   0.99824619    -7.296412    413.10466  0.023807323  0.023879527            9 
 1447000    1.0084727   -7.2942399    412.99655  0.023784643  0.023871665            4 
 1448000     1.009548   -7.2714089    413.34488  0.023788264  0.023864083            3 
 1449000    1.0121266   -7.3174681     412.8396  0.023742788  0.023856555            5 
 1450000    1.0168161   -7.3365996    413.86389  0.023785281   0.02384898            3 
 1451000    1.0169424    -7.305358    413.59518  0.023753456  0.023841352            6 
 1452000    1.0173575   -7.3312246      412.702  0.023685836   0.02383368            4 
 1453000     1.022594   -7.3402878    414.73421  0.023786087  0.023826022            4 
 1454000    1.0165588   -7.3481829    414.79556  0.023773244  0.023818477            7 
 1455000    1.0137782   -7.3391493    414.22738  0.023724363  0.023810861            2 
 1456000    1.0339262    -7.354116    413.88396  0.023688413  0.023803357            3 
 1457000    1.0004068   -7.3536661    415.46338   0.02376249  0.023795733            3 
 1458000    1.0205785   -7.2608309    415.53029  0.023750016  0.023788147            4 
 1459000     1.021093   -7.3097833    415.12674  0.023710689   0.02378059            4 
 1460000    1.0208872   -7.3565823    414.50242  0.023658814  0.023772885            5 
 1461000    1.0370113   -7.3028865    416.96249  0.023782939  0.023765293            4 
 1462000    1.0253827   -7.3720495    415.55962  0.023686709  0.023757713            4 
 1463000    1.0335658   -7.3103955    416.93028  0.023748592  0.023750139            2 
 1464000   0.99403122   -7.3590775     416.0583  0.023682736  0.023742399            7 
 1465000    1.0052646   -7.3363851    416.71909  0.023704158  0.023734766            4 
 1466000    1.0241421   -7.3394682    415.59903   0.02362432  0.023727159            3 
 1467000    1.0105546   -7.3319473    416.41945   0.02365482  0.023719666            2 
 1468000    1.0329774   -7.3116324    416.38581  0.023636797  0.023712092            8 
 1469000     1.036334    -7.286202     418.3463  0.023731921  0.023704531            5 
 1470000    1.0290096   -7.3746721    415.61745   0.02356108  0.023696734            7 
 1471000    1.0219881   -7.3411841    417.64038  0.023659663  0.023689123            5 
 1472000    1.0263831   -7.3379499    416.61592  0.023585593  0.023681602            4 
 1473000    1.0206095   -7.3351693    416.42601  0.023558837  0.023673935            3 
 1474000     1.008463   -7.3278317      418.617  0.023666723  0.023666412            4 
 1475000    1.0217987   -7.3372471    417.87165  0.023608568  0.023658864            4 
 1476000    1.0086476   -7.3422886    417.05571  0.023546506  0.023651216            3 
 1477000     1.015802   -7.3450793     416.9351  0.023523759  0.023643683            6 
 1478000    1.0143162   -7.3477654    418.10158  0.023573612  0.023636097            7 
 1479000    1.0121734   -7.3230043    418.58075  0.023584672  0.023628467            3 
 1480000    1.0131019   -7.3491355    419.07873  0.023596775  0.023620822            3 
 1481000    1.0045386   -7.3057397    418.65494  0.023556996  0.023613382            3 
 1482000    1.0008265   -7.3240304     418.4507  0.023529617   0.02360579           12 
 1483000   0.99471492   -7.3179378    419.65036  0.023581162  0.023598399            5 
 1484000    1.0254228   -7.3084845    419.07519  0.023532973  0.023591006            3 
 1485000    1.0360864   -7.3404602    420.56019   0.02360046  0.023583613            4 
 1486000     1.017853   -7.3443309    419.89891  0.023547494  0.023576114            5 
 1487000    1.0091823   -7.3590246    419.97057  0.023535674  0.023568588            4 
 1488000    1.0204198   -7.3360276    420.60127  0.023555178  0.023561052            5 
 1489000     1.015552   -7.3070712    422.25954  0.023632166  0.023553629            3 
 1490000    1.0068815   -7.3360486    421.67432  0.023583575  0.023546337            5 
 1491000    1.0195641   -7.3377231    421.02832  0.023531652  0.023538936            5 
 1492000    1.0229073   -7.3478383    420.42346  0.023482097   0.02353156            3 
 1493000    1.0212766   -7.3430862    422.33795  0.023573228  0.023524338            3 
 1494000    1.0020514   -7.3209759    421.93648  0.023535056  0.023517007            5 
 1495000    1.0228175    -7.363168    421.57527  0.023499179  0.023509607            6 
 1496000    1.0107862   -7.3489829    422.55538  0.023538067  0.023502304            3 
 1497000    1.0059257   -7.3558799    421.69774  0.023474602  0.023495011            3 
 1498000    1.0066837   -7.3476198    422.81934  0.023521325  0.023487647            2 
 1499000   0.98490545   -7.3468402    421.83413  0.023450863  0.023480263            4 
 1500000    1.0311415   -7.3375729    422.83129  0.023490627  0.023472943            4 
 1501000   0.99810096   -7.3562544    423.12664  0.023491375  0.023465556            4 
 1502000     1.013628   -7.3392589    423.62072  0.023503147  0.023458222            3 
 1503000    1.0152375    -7.368856    422.75641  0.023439588  0.023450821            3 
 1504000    1.0020587   -7.3786603    423.27183  0.023452562  0.023443413            8 
 1505000     1.010574   -7.3259424     424.1316  0.023484585  0.023436044            9 
 1506000   0.99734887   -7.3506034    423.57596  0.023438245  0.023428793            4 
 1507000    1.0101716   -7.3650681    423.15655    0.0233995   0.02342143            4 
 1508000   0.99653613   -7.3669505    424.02939  0.023432216  0.023414155            5 
 1509000    1.0234941   -7.3307019    422.41163  0.023327349  0.023406828            3 
 1510000    1.0105153   -7.3422358    424.76644  0.023441856   0.02339962            6 
 1511000    1.0274795   -7.3710213    424.19348  0.023394743  0.023392279            5 
 1512000     1.018939   -7.3845682    424.08556  0.023373322  0.023384934            7 
 1513000    1.0086659   -7.3602603    424.81462  0.023398029  0.023377646            4 
 1514000    1.0164536   -7.3329388    425.09092  0.023397783  0.023370384            2 
 1515000     1.018979   -7.3596156    424.61441  0.023356128  0.023363033            3 
 1516000   0.99550044   -7.3246491    425.74842  0.023403057  0.023355676            8 
 1517000   0.99780065   -7.3117169    426.03454  0.023403348  0.023348459            4 
 1518000    1.0277803   -7.2889251    426.98195   0.02343994  0.023341289            7 
 1519000    1.0194802   -7.3513817      426.934  0.023421879  0.023334096            3 
 1520000    1.0117531   -7.2951959    426.53469  0.023384578  0.023326965            3 
 1521000    0.9968876   -7.3088719    426.63137    0.0233745  0.023319818            3 
 1522000    1.0218443   -7.4044312    425.71033  0.023308713  0.023312576            3 
 1523000    1.0087647   -7.3740407    426.34169  0.023327954  0.023305247            4 
 1524000    1.0284859   -7.3650247    426.66903  0.023330546  0.023298015            7 
 1525000     1.001676    -7.309695    429.00358  0.023442819  0.023290811            5 
 1526000    1.0128137   -7.3462426    427.44613  0.023342405   0.02328376            5 
 1527000    1.0211138    -7.361392    426.51013  0.023276039  0.023276617            6 
 1528000   0.99744528   -7.3405932    427.93233  0.023338369  0.023269476            4 
 1529000    1.0131428   -7.3529984    427.17132  0.023281629  0.023262331            3 
 1530000    1.0159749   -7.3781498    427.72969  0.023296824  0.023255178           10 
 1531000    1.0138983   -7.3117387    428.54849  0.023326175  0.023248116            4 
 1532000   0.99263266   -7.3368312    429.27436  0.023350433  0.023240993            5 
 1533000    1.0112328   -7.3345673    429.04734  0.023322861  0.023233967            2 
 1534000   0.99105277   -7.3960899    427.37975  0.023217066  0.023226847            4 
 1535000    1.0010982   -7.3442662    428.82407  0.023280351  0.023219708            4 
 1536000   0.99650519   -7.3610311    429.98466  0.023328161  0.023212592            2 
 1537000    1.0259359   -7.3904743    427.96509  0.023203485  0.023205471            8 
 1538000   0.99673035    -7.322663    429.80499   0.02328809  0.023198276            6 
 1539000   0.98504051   -7.3425273    430.96645  0.023335848  0.023191174            6 
 1540000    1.0172934   -7.3603091    429.68678  0.023251449  0.023184033            4 
 1541000    1.0151699   -7.3921291    427.55791  0.023121237  0.023176779            5 
 1542000    1.0033399   -7.4137909    427.77327  0.023117881  0.023169525            6 
 1543000   0.99204962   -7.4009297    428.46612  0.023140318  0.023162248            4 
 1544000    0.9629901   -7.3529449     429.7509  0.023194673  0.023154922           10 
 1545000    1.0034879   -7.3449038    430.27794  0.023208087  0.023147626            4 
 1546000    1.0210479   -7.3511644    430.44226  0.023201933  0.023140481            5 
 1547000    1.0312591   -7.3873706    429.98548  0.023162329  0.023133282            5 
 1548000    1.0226732   -7.3661325    430.19157  0.023158461   0.02312606            3 
 1549000    1.0047921   -7.3155239    432.67788  0.023277269  0.023118892            5 
 1550000    1.0128684   -7.3276324    431.07548  0.023176101  0.023111752            3 
 1551000    1.0073654     -7.35482    431.07111  0.023160924  0.023104697            3 
 1552000    1.0220525   -7.3387109    430.55757  0.023118426  0.023097676            4 
 1553000    1.0278831   -7.3843567    431.85404  0.023173108  0.023090627            5 
 1554000   0.98483069    -7.357315     430.9873  0.023111717  0.023083521            5 
 1555000    0.9950495   -7.3459405    431.65221  0.023132487  0.023076407            6 
 1556000    1.0098185   -7.3387816    432.65808  0.023171491  0.023069282            7 
 1557000    1.0096056   -7.3596801    432.95998  0.023172767  0.023062134            6 
 1558000     1.012348   -7.3988076    431.34927  0.023071741   0.02305497            5 
 1559000   0.99985937   -7.4111101    430.56102  0.023014807  0.023047705            5 
 1560000    1.0033351    -7.394921     431.8298  0.023067831  0.023040376            2 
 1561000   0.99305625   -7.4032409    432.29599  0.023077941  0.023033147            5 
 1562000    1.0207773    -7.382431    432.63749  0.023081386  0.023025919            2 
 1563000    1.0058061   -7.4033448    431.04956  0.022981956  0.023018743            3 
 1564000    1.0167308   -7.3902624    433.54646  0.023100302  0.023011531           10 
 1565000    1.0068964   -7.4014695    434.43411  0.023132807  0.023004289            5 
 1566000    1.0130049   -7.3794298    434.40643  0.023116562  0.022997108            4 
 1567000   0.99556443     -7.35764    433.58682  0.023058223      0.02299            9 
 1568000   0.98969845   -7.3900584    433.10597  0.023017962  0.022982919           14 
 1569000    0.9980742   -7.3508301    434.52751  0.023078793  0.022975742            5 
 1570000   0.98848696   -7.3934338    433.89629  0.023030589  0.022968594            7 
 1571000    1.0018281   -7.3819813    433.23454  0.022980827  0.022961385            8 
 1572000   0.99366223   -7.3733252     433.3411  0.022971856  0.022954272            4 
 1573000    1.0031615   -7.3387879    435.05945  0.023048286    0.0229471            1 
 1574000   0.97126499   -7.3945319    433.13548  0.022931781  0.022939845            3 
 1575000    1.0124788   -7.3583054     433.3886  0.022930614  0.022932637            8 
 1576000    1.0088907   -7.3537207    435.58646  0.023032279  0.022925427            3 
 1577000   0.98514211   -7.3791056    434.19184  0.022943978  0.022918113            3 
 1578000   0.97213037   -7.3670076    434.23893  0.022931925   0.02291088            4 
 1579000     1.016718   -7.3397207     435.4417  0.022980879  0.022903752            3 
 1580000    1.0303913   -7.3914912    435.37566  0.022962851  0.022896634           10 
 1581000   0.99931476   -7.3611946     435.4685   0.02295322  0.022889349           13 
 1582000    1.0178388   -7.3493369    433.95478  0.022858975  0.022881974            8 
 1583000   0.97708985   -7.4042675    433.63405   0.02282765  0.022874522            4 
 1584000   0.99396616   -7.4215822    433.55474  0.022809066  0.022866993            4 
 1585000    1.0114645    -7.397063    434.11352  0.022824055  0.022859512           13 
 1586000   0.99892468   -7.4014571    434.45849  0.022827789  0.022851981            5 
 1587000   0.98942224   -7.3719161    434.71276  0.022826757  0.022844421            4 
 1588000   0.96981042   -7.3831042    434.30927  0.022791209  0.022836908            2 
 1589000   0.99749931   -7.3677718    435.73088   0.02285142   0.02282933            9 
 1590000   0.99790237   -7.4301087    434.88867  0.022792907  0.022821739            5 
 1591000   0.98120452   -7.4053102    434.60701  0.022763828  0.022814105            6 
 1592000    1.0144273   -7.3919827    436.07612   0.02282643  0.022806461            6 
 1593000   0.98996147   -7.3955055     434.9769  0.022754598  0.022799008            7 
 1594000    1.0131464   -7.4286641    433.97438  0.022687912  0.022791412            8 
 1595000    1.0012085   -7.4217456    434.82405   0.02271808  0.022783809            2 
 1596000    1.0023168    -7.447587    433.13957  0.022615892  0.022776148           10 
 1597000   0.99833646   -7.4393033    434.86035  0.022691523  0.022768406            8 
 1598000   0.99368535   -7.3858043    436.48876  0.022762242  0.022760725            6 
 1599000    1.0013245   -7.4131503    435.50638  0.022696809  0.022753046            4 
 1600000    1.0096886   -7.4273066    434.86257  0.022649092  0.022745311            6 
 1601000    1.0115215   -7.3829925    435.97564  0.022692881   0.02273773            4 
 1602000    1.0039787   -7.3711432    436.12019  0.022686236  0.022730064            9 
 1603000     1.008345   -7.4127426    435.86177  0.022658649  0.022722456            4 
 1604000   0.99137813   -7.4041966    436.66821   0.02268642  0.022714892            4 
 1605000   0.99935547   -7.3887567    436.91919  0.022685316  0.022707267            7 
 1606000    1.0049827   -7.3561681    436.93922   0.02267223   0.02269986            7 
 1607000    1.0085169   -7.3385571    437.75896  0.022700631   0.02269244            7 
 1608000    0.9871801   -7.4269159    435.58905   0.02257406  0.022684817            4 
 1609000   0.99495645   -7.4454946    435.86512  0.022574328  0.022677203            5 
 1610000   0.99412872   -7.4371579     437.2531  0.022632148  0.022669457            5 
 1611000    1.0099998   -7.3851452    437.51072  0.022631425  0.022661969            2 
 1612000    1.0012769   -7.3798788    438.55495  0.022671368  0.022654477            4 
 1613000   0.98901757   -7.3534657    438.58596  0.022658915  0.022646968            3 
 1614000   0.99787786   -7.3583767    437.76508  0.022602493  0.022639554            4 
 1615000   0.99232741   -7.3547317     438.9002  0.022647069  0.022632105            3 
 1616000   0.99443634   -7.3933026    438.82881  0.022629373  0.022624593            3 
 1617000   0.98782767   -7.4229213    438.41558  0.022594083  0.022617034            2 
 1618000   0.98137467   -7.4157651      438.906  0.022605377  0.022609505            4 
 1619000   0.99276008   -7.3973481    438.49616  0.022570319  0.022601977            4 
 1620000   0.97924672     -7.38574    438.57485  0.022560434   0.02259442            3 
 1621000   0.99787547   -7.3639308    439.80963  0.022609996  0.022587005            3 
 1622000     1.001969   -7.3693337    439.62358  0.022586497  0.022579667            8 
 1623000   0.98844174   -7.4010072     439.3831  0.022560233  0.022572211           11 
 1624000    0.9678525   -7.4015116    439.21954  0.022537949  0.022564825            7 
 1625000    0.9914561   -7.4092549    440.14052  0.022571309  0.022557351            3 
 1626000   0.99588485   -7.3945402     439.3836  0.022518635   0.02254996            5 
 1627000   0.98871693   -7.4283008    439.32542  0.022501814  0.022542491            4 
 1628000   0.96678639   -7.4086455    439.73905  0.022509165  0.022534942            4 
 1629000   0.98214608   -7.4037574    439.50799  0.022483527  0.022527365            5 
 1630000   0.99302942   -7.3835478    440.18667  0.022504431  0.022519862            6 
 1631000   0.97653049   -7.4599022    439.58021  0.022459647  0.022512221            4 
 1632000    1.0030465    -7.405576    440.58102  0.022496989  0.022504603            6 
 1633000   0.99561963   -7.4007147    440.30541  0.022469147  0.022497136            4 
 1634000    1.0004215   -7.4195909    440.72258  0.022476672  0.022489714            6 
 1635000    1.0093348     -7.43671    438.92212  0.022371158  0.022482267            8 
 1636000   0.96881103   -7.3781503     441.5115   0.02248938  0.022474761            7 
 1637000   0.98373058   -7.3939057    440.22699  0.022410252    0.0224673            3 
 1638000    1.0068446   -7.3755579    441.02608  0.022437224  0.022459803            5 
 1639000   0.96015839   -7.4348119    439.96507  0.022369588  0.022452302            5 
 1640000    1.0012354   -7.4283019    440.98609   0.02240783   0.02244476            6 
 1641000   0.97080592   -7.4259784    440.72781  0.022381059  0.022437072            3 
 1642000    1.0024328   -7.3683357    441.88757  0.022426287  0.022429525            4 
 1643000    1.0028513   -7.4135036    441.08476  0.022371919  0.022422028            3 
 1644000   0.95475352    -7.405249    440.99044   0.02235353  0.022414522            6 
 1645000    0.9818754   -7.4212506     441.0788  0.022344417   0.02240692            3 
 1646000   0.97584872   -7.3941791     443.3605   0.02244636  0.022399438            5 
 1647000    1.0075636   -7.4358191    442.41395  0.022384839  0.022392013            6 
 1648000   0.99057556   -7.3714782     443.0856  0.022405218  0.022384611            3 
 1649000   0.98346426   -7.3894328    443.00971  0.022387796  0.022377203           10 
 1650000    1.0053216   -7.3861572    443.56498  0.022402272  0.022369859            3 
 1651000   0.97455944   -7.4153593    442.77197  0.022348676  0.022362458            7 
 1652000   0.97687847    -7.395076    443.45251  0.022369477  0.022355098            6 
 1653000   0.99952549   -7.3832831    444.54096  0.022410817  0.022347716            5 
 1654000   0.98082402   -7.4063484    444.51509  0.022395964  0.022340419            2 
 1655000   0.99239417    -7.397619    443.63033  0.022337882  0.022332968            5 
 1656000   0.96535008   -7.4335854    442.43159  0.022264069  0.022325496            5 
 1657000   0.97779658   -7.4132915    442.24701   0.02224135  0.022318034            4 
 1658000    0.9942728   -7.4240253    443.63968  0.022297933  0.022310622            4 
 1659000   0.98646077   -7.4016533    443.19204  0.022262007  0.022303129            4 
 1660000   0.98500079   -7.4437855     442.6624  0.022222008  0.022295576            7 
 1661000   0.98883787    -7.437297    442.81406  0.022216238  0.022288038            1 
 1662000    1.0102433   -7.4178752    444.12229  0.022268466  0.022280576            5 
 1663000    1.0058832   -7.4657891    442.80419  0.022189025  0.022273154            3 
 1664000   0.98105887   -7.4197058    445.01235  0.022286275  0.022265744            6 
 1665000   0.98583696    -7.411747     445.4434  0.022294465  0.022258442            6 
 1666000    0.9783254   -7.4216664    445.35197  0.022276509   0.02225117           10 
 1667000    1.0048931   -7.4215223    444.99721  0.022245411  0.022243822            9 
 1668000   0.95094546   -7.4087266    445.34824  0.022249612  0.022236471            8 
 1669000   0.99863112    -7.386084    447.00064  0.022318786  0.022229239            5 
 1670000   0.95421309   -7.3889847    447.40795  0.022325746  0.022221998            2 
 1671000   0.97061331   -7.4301716    445.96214  0.022240282  0.022214725            2 
 1672000   0.99824056   -7.3687465    446.54725  0.022256143  0.022207471            3 
 1673000    1.0139296   -7.4147999    447.13365  0.022272048  0.022200049            5 
 1674000    1.0030278   -7.4374825    444.69796  0.022137493  0.022192698           11 
 1675000   0.97186304    -7.401387    445.57495  0.022167908   0.02218528            3 
 1676000   0.99722213   -7.4140049    446.13532  0.022182544  0.022177944            4 
 1677000    0.9780271   -7.4225181    447.18153  0.022221304   0.02217058            5 
 1678000   0.98236878    -7.425549    447.12124  0.022205067  0.022163209            5 
 1679000    0.9883926   -7.4185686    446.69773  0.022170822  0.022155797            6 
 1680000   0.99526955   -7.4595807    446.69519    0.0221575  0.022148384            3 
 1681000   0.99977416   -7.3992606    446.90096  0.022154519  0.022140978            6 
 1682000   0.96821995   -7.4381564    447.03967   0.02214822  0.022133516            2 
 1683000   0.98995685   -7.4550699    445.88243  0.022077759  0.022126018            8 
 1684000   0.98329277   -7.4503974    445.24289  0.022033001  0.022118415            6 
 1685000   0.95158276   -7.4263329    446.87092  0.022100441  0.022110865            4 
 1686000   0.95146731   -7.4381078    445.61082   0.02202505  0.022103289            3 
 1687000   0.99002956   -7.4706582     445.6281  0.022012848  0.022095648            3 
 1688000   0.97009653   -7.4329395    447.32492  0.022083576   0.02208813            5 
 1689000   0.99040976    -7.430327    446.65657  0.022037526  0.022080578            4 
 1690000   0.98531417   -7.4195981    446.01579  0.021992889  0.022072961            8 
 1691000   0.98919373   -7.4165857     446.2204  0.021989966   0.02206542            4 
 1692000   0.97410427   -7.4358694     446.6384  0.021997557  0.022057838            5 
 1693000   0.99354075   -7.4917565    447.81964  0.022042707  0.022050279            3 
 1694000   0.97573155   -7.4779992    447.77195  0.022027349  0.022042619            3 
 1695000   0.97614108   -7.4585993    446.91186  0.021972068  0.022035063            5 
 1696000    0.9785629    -7.454423    447.75826  0.022000701  0.022027632            5 
 1697000   0.96866445   -7.4362921    449.00877  0.022049144  0.022020178            4 
 1698000   0.98237924    -7.440629    448.41613  0.022007074  0.022012734            7 
 1699000   0.96835437   -7.4265738     448.4675   0.02199664  0.022005379            5 
 1700000   0.97516359   -7.4339554    449.76904  0.022047502  0.021998087            7 
 1701000    0.9814498   -7.4378367    449.58082  0.022025319  0.021990772            5 
 1702000   0.98717429   -7.4991366     448.1889  0.021944227  0.021983389            6 
 1703000    1.0108651   -7.4530841    449.43885  0.021992506  0.021976031            4 
 1704000   0.96719262   -7.4360322     450.0857  0.022011234  0.021968709            6 
 1705000   0.96014834   -7.3998492    450.33729   0.02201062  0.021961463            4 
 1706000   0.97920519   -7.4070726    451.09066  0.022034518  0.021954198            4 
 1707000   0.96893931   -7.4371679    450.46139   0.02199089  0.021947031            5 
 1708000    0.9864183    -7.500314    448.53945  0.021884243  0.021939746           10 
 1709000    1.0093983   -7.4674283    449.63369  0.021924795  0.021932323            5 
 1710000   0.97603915   -7.4412111    449.33932  0.021897627  0.021924897            3 
 1711000   0.98299654   -7.4359906    450.69486   0.02195085  0.021917478            6 
 1712000   0.99871932    -7.427874     449.4672  0.021878271  0.021910083            3 
 1713000   0.98225906   -7.4433055    450.33894  0.021907907  0.021902687            3 
 1714000   0.95885027   -7.4277432    452.04069  0.021977863  0.021895338            2 
 1715000   0.97618774    -7.419902    452.22078  0.021973799  0.021888072           15 
 1716000   0.96892035   -7.4347843    452.17462  0.021958752  0.021880701            8 
 1717000   0.99085126   -7.4609459       452.01  0.021937973  0.021873253            7 
 1718000   0.96371886   -7.4568537    450.61904  0.021857734  0.021865847            4 
 1719000   0.98963375   -7.4573487    449.81147  0.021805869  0.021858394            5 
 1720000   0.98698614   -7.4367012     451.2364  0.021862229  0.021851108           14 
 1721000   0.97485277   -7.4738691    451.59876  0.021867072  0.021843761            6 
 1722000   0.96710053   -7.4203442    451.99865  0.021873725  0.021836378            2 
 1723000   0.98841249   -7.4215874    451.91532  0.021856999  0.021829058            2 
 1724000   0.95554521   -7.4659888    450.23127  0.021762919  0.021821615            6 
 1725000   0.96349856   -7.4446126    451.88101      0.02183  0.021814273            7 
 1726000    0.9661705   -7.4295234    451.08282  0.021778815  0.021806911            5 
 1727000   0.97957628   -7.4638179    451.69618  0.021795801  0.021799465            5 
 1728000   0.98794783   -7.4634359    452.12875  0.021804048  0.021792046            5 
 1729000   0.98823588   -7.4190717    452.97941  0.021832438  0.021784696            8 
 1730000   0.98127444   -7.4395767     452.2724  0.021785761  0.021777335            4 
 1731000   0.97236233   -7.4515147    452.69831   0.02179368  0.021770046            6 
 1732000   0.95934481   -7.4697571    452.00475  0.021747727  0.021762726            4 
 1733000   0.98187249   -7.4415384    452.65331  0.021766364  0.021755338            7 
 1734000   0.97321481   -7.4579283    452.14685  0.021729472  0.021748012            6 
 1735000   0.96174112    -7.437938    453.83037  0.021797808  0.021740691            5 
 1736000    0.9847783    -7.438975    453.87051  0.021787179  0.021733305            3 
 1737000   0.98795075    -7.434138    452.42278   0.02170518  0.021725919           10 
 1738000   0.98137246   -7.4750009    453.75295   0.02175647   0.02171863            5 
 1739000   0.97613787   -7.4562669    453.67881  0.021740407  0.021711295            8 
 1740000   0.95913775    -7.435176    453.67961  0.021727951  0.021703993            3 
 1741000   0.97307771   -7.4771418    452.48007  0.021658054  0.021696637            5 
 1742000   0.95502076   -7.4482589    453.67766  0.021702911  0.021689264            8 
 1743000    0.9810532   -7.5020062    452.91167  0.021653838  0.021681839            5 
 1744000   0.97567662   -7.4886591    454.19366  0.021702679  0.021674548            6 
 1745000    0.9790749   -7.4703658    453.08303  0.021637203  0.021667221            5 
 1746000   0.99317583    -7.466112    454.06789  0.021671816  0.021659839            5 
 1747000     0.942515   -7.4591535    453.43201  0.021629079   0.02165249            3 
 1748000   0.96481185   -7.4530648    454.51519  0.021668344  0.021645085            3 
 1749000   0.96749366   -7.4902193    454.33547  0.021647392  0.021637606            2 
 1750000   0.98086301   -7.4666295    453.16259  0.021579171  0.021630116            6 
 1751000   0.98991003   -7.4464156    454.95836  0.021652311  0.021622545            5 
 1752000   0.95858728   -7.4569929    453.49076  0.021570147  0.021615149            5 
 1753000   0.96277243   -7.4623686    454.12976  0.021588218  0.021607692            4 
 1754000   0.96507746   -7.4501822    455.41118  0.021636791  0.021600231            6 
 1755000   0.98861477   -7.4683608    455.20016  0.021614443  0.021592809            4 
 1756000   0.96561414   -7.4558094    454.78899  0.021582621  0.021585429            5 
 1757000   0.98247335   -7.4164926    456.58397  0.021655472  0.021577992            4 
 1758000   0.98098322   -7.4564367    455.17553   0.02157639  0.021570641            5 
 1759000   0.96201198   -7.4504069    456.30465  0.021617617  0.021563268            3 
 1760000   0.97910222   -7.4389283    455.89364  0.021585873  0.021555963           12 
 1761000   0.96768525   -7.4575355    455.54257  0.021557002   0.02154877            2 
 1762000   0.97233062   -7.4688557    456.91591  0.021609719  0.021541511            6 
 1763000   0.95255335   -7.4551259    456.32662  0.021569608  0.021534326            3 
 1764000    0.9622003   -7.4785163    456.78941  0.021579243  0.021526975            5 
 1765000   0.93850473   -7.4935391    456.27937  0.021542935  0.021519538            6 
 1766000   0.94617923   -7.4765883    456.93949  0.021561886  0.021512065            8 
 1767000   0.95883454    -7.497401    455.32003  0.021473308  0.021504667            5 
 1768000   0.96336286   -7.5036694    456.55083  0.021519176  0.021497245            4 
 1769000   0.95375868   -7.4550958      456.614  0.021509987   0.02148988            3 
 1770000   0.97121493   -7.4560443    457.74904  0.021551273  0.021482528            4 
 1771000   0.97243381    -7.494478    454.54618  0.021388395  0.021475065            7 
 1772000   0.94656343   -7.4771186    456.89406  0.021486741  0.021467609            2 
 1773000   0.97774437   -7.4696384    456.55525  0.021458698  0.021460141            3 
 1774000   0.97313713   -7.4752987    457.18087   0.02147599  0.021452667            9 
 1775000   0.94891115   -7.4742148    457.07504  0.021458922  0.021445271            5 
 1776000   0.95935374   -7.4600162    456.55966  0.021422657  0.021437793            4 
 1777000   0.97915747   -7.5027343    456.60571  0.021412761  0.021430255            5 
 1778000   0.97295242   -7.4726019    457.04679  0.021421391  0.021422705            7 
 1779000   0.99159311   -7.4615186    456.13026  0.021366416  0.021415202            5 
 1780000   0.97429342   -7.4795343    455.78375  0.021338191  0.021407589           10 
 1781000   0.95561846   -7.4569403     457.8899  0.021424757   0.02140014           20 
 1782000    0.9698938   -7.4492041    457.97522  0.021416724  0.021392721            8 
 1783000   0.98523188   -7.4750089    456.85889  0.021352538  0.021385267            5 
 1784000   0.95007765   -7.5012637    457.03347  0.021348723  0.021377755            3 
 1785000   0.94938237   -7.4701072    457.72498  0.021369047  0.021370215            5 
 1786000    0.9495669   -7.4063786     458.4995  0.021393221  0.021362753            4 
 1787000   0.96923385   -7.4849932    457.77156  0.021347303  0.021355283            3 
 1788000   0.97790826      -7.4626      458.121   0.02135165  0.021347836            3 
 1789000   0.96759594   -7.4892172    457.02784  0.021288795  0.021340354            2 
 1790000   0.97709276   -7.4907069    457.59767   0.02130343  0.021332763            4 
 1791000   0.96502212    -7.547924    456.45877  0.021238543  0.021325143            5 
 1792000   0.98333706   -7.4885437    456.86837  0.021245739  0.021317561            4 
 1793000   0.96459517   -7.4866363     458.8093  0.021324099  0.021310036            7 
 1794000    0.9586359   -7.4811225    458.14465  0.021281338  0.021302533            6 
 1795000   0.96535361   -7.4876549    458.33338  0.021278244  0.021295154            5 
 1796000   0.95880733   -7.4566008    458.10025   0.02125558  0.021287771            6 
 1797000   0.96064077    -7.492602    458.19626  0.021248203  0.021280321           12 
 1798000   0.95459247   -7.5000339    458.76954  0.021262956  0.021272895            5 
 1799000   0.95455803   -7.4965067    458.06758   0.02121862  0.021265422            5 
 1800000    0.9574345   -7.4883398    458.53686  0.021228558  0.021257985            7 
 1801000    1.0100821   -7.4607158    458.69657  0.021224161  0.021250667            6 
 1802000   0.97636778   -7.5071441     458.7545  0.021215062  0.021243255            3 
 1803000   0.95644045   -7.4988564    458.84935  0.021207679  0.021235701            7 
 1804000   0.95292104   -7.5103057    458.93411  0.021199839  0.021228142            8 
 1805000   0.96258182   -7.5095133    459.22136  0.021201355  0.021220639            7 
 1806000   0.95108272   -7.5154238    457.99752  0.021133145   0.02121306            8 
 1807000   0.95259645   -7.4931119     460.8563  0.021253288  0.021205602            4 
 1808000    0.9517248   -7.4917163    458.03536  0.021111512  0.021198113            4 
 1809000   0.96048153   -7.5241126    459.56089  0.021170116  0.021190717            6 
 1810000   0.96437596   -7.4939082    459.50838  0.021156003  0.021183278            6 
 1811000   0.93544842   -7.4382349     461.6014  0.021240632   0.02117589            2 
 1812000   0.98627397   -7.5077385    460.47366  0.021177045  0.021168509            2 
 1813000   0.97800154   -7.4862818    461.70144  0.021221798  0.021161195            8 
 1814000   0.97463381   -7.5293241    459.91538   0.02112805  0.021153821            5 
 1815000   0.96663488   -7.4814552    461.73325  0.021199874  0.021146439            6 
 1816000   0.94987771   -7.5018265    460.17764  0.021116815  0.021139021            6 
 1817000   0.97277663   -7.4538383    460.55613  0.021122552   0.02113163            7 
 1818000   0.97389194   -7.4872675    461.19245  0.021140101  0.021124279            4 
 1819000   0.94434084   -7.5005606    461.60699  0.021147471  0.021116986            4 
 1820000   0.95970562   -7.5086991    461.66637   0.02113857  0.021109656            7 
 1821000   0.95288885   -7.5162094    460.50883   0.02107399  0.021102184            5 
 1822000   0.95868776   -7.4910181    461.14252  0.021091407   0.02109478            9 
 1823000   0.94943656   -7.5148411    460.02133  0.021028585  0.021087326            5 
 1824000   0.95257589   -7.4826196    461.58317  0.021088412  0.021079898            2 
 1825000    0.9620577     -7.47296    463.04213  0.021143476  0.021072545            3 
 1826000   0.94420072   -7.4999861    462.88014  0.021124504  0.021065198            4 
 1827000   0.96185691   -7.4955059    461.77432  0.021062503  0.021057815            3 
 1828000   0.95946776   -7.5025964     462.7543  0.021095656  0.021050435            5 
 1829000   0.95479633   -7.5028119    460.55205  0.020983782  0.021042939            9 
 1830000   0.94481119   -7.5383352    461.47932  0.021014541  0.021035483           10 
 1831000   0.96449168   -7.5478732    461.97885  0.021025799   0.02102801           10 
 1832000    0.9536794   -7.5553441     462.2302  0.021025755  0.021020653            9 
 1833000   0.95631102   -7.5226326    461.63594  0.020987268  0.021013347            7 
 1834000   0.96277435   -7.4947192    463.39754  0.021055868  0.021006057            6 
 1835000   0.97074837   -7.4723206    464.87425  0.021111456  0.020998835            3 
 1836000   0.93872446   -7.5639736     463.8199  0.021052101  0.020991593           12 
 1837000   0.95405682   -7.5123804    463.97385  0.021047625   0.02098432            9 
 1838000   0.96456971   -7.4991656    464.91358   0.02107878  0.020977112            5 
 1839000   0.95329187   -7.5056357    464.12641  0.021031648   0.02096995            7 
 1840000     0.975447   -7.4774453    464.98494  0.021059101  0.020962744            3 
 1841000   0.96286986   -7.4687173    465.73769  0.021081735  0.020955653            8 
 1842000   0.95648887   -7.4632578    465.75836  0.021071225  0.020948456            3 
 1843000   0.94336606   -7.5250874    463.72425  0.020967818  0.020941239            7 
 1844000    0.9487548   -7.5329481    464.07289  0.020972202  0.020934002            4 
 1845000   0.94827367   -7.5234843    463.77389   0.02094733  0.020926819            4 
 1846000   0.94591062   -7.4642335    466.89687  0.021076962  0.020919553           13 
 1847000    0.9635078   -7.4964501    463.89246  0.020929997  0.020912423            8 
 1848000   0.97064068   -7.5155248    464.53538  0.020947663  0.020905324           11 
 1849000   0.96132999   -7.5038398    465.59437  0.020984062  0.020898179            3 
 1850000   0.95508269     -7.48678    465.70905  0.020977885  0.020891087            4 
 1851000   0.93482281   -7.5063366    466.30258  0.020993273  0.020884055            4 
 1852000    0.9469568   -7.5116794    465.74473  0.020956836  0.020876976            7 
 1853000    0.9532692   -7.5242848    466.45808  0.020977607  0.020869868            9 
 1854000   0.95052119   -7.5721486    466.12315  0.020951238  0.020862784            5 
 1855000   0.92719805   -7.5828511    465.17418  0.020897313  0.020855622           10 
 1856000   0.97724237   -7.5494932    466.47347  0.020944391  0.020848498            7 
 1857000   0.95773178   -7.5098776    467.20528  0.020965952  0.020841481            7 
 1858000   0.93942583   -7.5158713    466.75303  0.020934384  0.020834409            6 
 1859000   0.94687122   -7.4861262    467.67411  0.020964412  0.020827366            4 
 1860000   0.95295243   -7.4980283    467.94389  0.020965228  0.020820394            3 
 1861000   0.94822015   -7.5394903    467.12502  0.020917294  0.020813415            4 
 1862000   0.93776856    -7.548635    467.29471  0.020913655  0.020806415            4 
 1863000   0.95427658   -7.5248764    468.23268  0.020944385  0.020799414            2 
 1864000   0.95971145   -7.5198485    468.52711  0.020946312  0.020792437            5 
 1865000    0.9689278   -7.5307651    468.29255    0.0209246   0.02078551            4 
 1866000   0.95527562   -7.5140993      468.741  0.020933414  0.020778502            2 
 1867000   0.97665154   -7.5282735    468.69512  0.020920154   0.02077152            4 
 1868000   0.94079805   -7.4934625    470.05489  0.020969615  0.020764586            7 
 1869000   0.98246279   -7.5113332    470.36304  0.020972135  0.020757666            3 
 1870000   0.93635736   -7.5302074    468.30324  0.020869128  0.020750791            7 
 1871000   0.94163238   -7.5545391    467.60291  0.020826782  0.020743747            5 
 1872000   0.95745788   -7.4858389     470.6954  0.020953321  0.020736811            4 
 1873000   0.94376518   -7.5274772    470.09308  0.020915335  0.020729891            8 
 1874000   0.97325805   -7.5551816    468.75293  0.020844581   0.02072288            4 
 1875000     0.954805   -7.5203567    469.87306  0.020883247  0.020715849           12 
 1876000   0.94478409   -7.5608962    468.88775  0.020828347  0.020708793           15 
 1877000   0.95772251   -7.5587789    467.35153  0.020749047  0.020701691            4 
 1878000   0.93632607   -7.5343359    468.61883  0.020794233  0.020694586            9 
 1879000   0.94949366   -7.5215601    469.23641  0.020810556  0.020687535            5 
 1880000    0.9601466   -7.5564078    468.00681  0.020744983  0.020680459           30 
 1881000   0.96101645    -7.512638    469.43014  0.020797011  0.020673366            7 
 1882000   0.96735038   -7.5220463    469.16313  0.020774138  0.020666268            3 
 1883000    0.9552141   -7.5173083     469.0393  0.020757625   0.02065912            5 
 1884000   0.95202323   -7.5731094     468.1211  0.020705993  0.020651992            9 
 1885000   0.93928585   -7.5566735    467.21396  0.020654905  0.020644791            8 
 1886000   0.95844549   -7.5251067    469.25419  0.020734102  0.020637549            6 
 1887000   0.95838788   -7.5103114    469.84043  0.020749003  0.020630422            5 
 1888000   0.93923522   -7.5280047     469.9806    0.0207442  0.020623265            5 
 1889000   0.94523531     -7.54565    469.83456  0.020726776  0.020616143           11 
 1890000   0.95397102   -7.4929399    471.07263  0.020770398  0.020609089            6 
 1891000   0.96370683   -7.4982828    471.39049  0.020773422  0.020602125            4 
 1892000   0.95481602   -7.5430266    469.38596  0.020674152  0.020595093            4 
 1893000   0.94554098   -7.5994045    469.45048  0.020666072   0.02058803            6 
 1894000   0.95299732   -7.5350862    470.77468  0.020713423  0.020580986            7 
 1895000    0.9520377   -7.5243849    470.06337  0.020671212  0.020573928            5 
 1896000   0.93302704   -7.5708791    470.00449  0.020657722  0.020566805           14 
 1897000    0.9381881    -7.536582    470.05992  0.020649267  0.020559723           14 
 1898000   0.91759256   -7.5662681    471.16325   0.02068683  0.020552647            6 
 1899000    0.9583542   -7.5747557    470.60508  0.020651443  0.020545541           15 
 1900000   0.94425354   -7.5495354    470.25598  0.020625262   0.02053846            6 
 1901000   0.96297648   -7.5286673    471.33854  0.020661868  0.020531437            8 
 1902000   0.95611984   -7.4920594    473.11924  0.020729024  0.020524431            6 
 1903000   0.96367165   -7.5044702    471.37454   0.02064173  0.020517448            6 
 1904000   0.94657665   -7.4992739    472.08969  0.020662189  0.020510527            3 
 1905000   0.93681417   -7.5439413    470.85163  0.020597184  0.020503592            9 
 1906000   0.93986941   -7.5646448    471.86122  0.020630518  0.020496574            4 
 1907000   0.94508882   -7.5177255    471.72142  0.020613591  0.020489581            5 
 1908000   0.93388254   -7.4762242    473.99709  0.020702179  0.020482632            5 
 1909000   0.93498892   -7.5244547    473.58236   0.02067323  0.020475692            7 
 1910000   0.97216678   -7.5358058    471.39358   0.02056691  0.020468682            3 
 1911000   0.94609594   -7.5208007    473.78903  0.020660607  0.020461716            3 
 1912000   0.98621399   -7.5268529    472.67133  0.020601087  0.020454813            9 
 1913000   0.94390776   -7.5345228    473.32423  0.020618759  0.020447958           14 
 1914000   0.93436299   -7.4874524    474.15419  0.020644122  0.020441095            6 
 1915000    0.9582713   -7.5549432    472.18241  0.020547537  0.020434204            6 
 1916000   0.95975467   -7.5528425    472.07209  0.020532015  0.020427227            5 
 1917000   0.94321806   -7.5416397    474.42799  0.020623717  0.020420313            8 
 1918000   0.92189157   -7.5538615    473.82499  0.020586765  0.020413425            5 
 1919000   0.93373323   -7.5777118    473.09196  0.020544206  0.020406523            8 
 1920000   0.92869917   -7.6178952    472.30273   0.02049925  0.020399523            5 
 1921000   0.96786476   -7.5966339    472.72728  0.020506996  0.020392557            4 
 1922000   0.92971742   -7.5639353    472.51422  0.020487089   0.02038562           19 
 1923000   0.93444701   -7.5422845    474.05854  0.020543358  0.020378695           11 
 1924000   0.91887559   -7.5775366    473.54217  0.020510316  0.020371825            5 
 1925000   0.95115437   -7.5827903    474.30264  0.020532582  0.020364926            6 
 1926000   0.95468983   -7.5426582    474.57665  0.020533777  0.020358042            4 
 1927000   0.92479267   -7.5714736    474.67434  0.020527346  0.020351118           18 
 1928000   0.95522629   -7.5767569    473.54596  0.020467927  0.020344224           16 
 1929000   0.94197342   -7.5754309    473.13942  0.020439754  0.020337261            9 
 1930000   0.92224143   -7.5629847    474.19037  0.020474541  0.020330344            7 
 1931000   0.92313611   -7.5803148    472.81958  0.020404781  0.020323428            7 
 1932000   0.92676606   -7.5600707     474.1767  0.020452756  0.020316449            5 
 1933000   0.93403416    -7.561946    474.97988  0.020476801  0.020309613            5 
 1934000   0.94483283   -7.5452372    474.63899  0.020451525   0.02030279            7 
 1935000   0.94648928   -7.5174278    475.71294  0.020487207  0.020295967            8 
 1936000   0.95336688   -7.5514395    476.44491  0.020508132  0.020289164            3 
 1937000   0.92847182   -7.4866988    477.39866  0.020538576  0.020282431            9 
 1938000   0.94741912   -7.5403387    476.89186  0.020506186  0.020275649            9 
 1939000     0.941972   -7.5462969    475.78543  0.020448059  0.020268829            4 
 1940000   0.93985868    -7.546044    474.79159  0.020394828   0.02026198           11 
 1941000   0.94431312   -7.5340533    476.31934  0.020449911  0.020255158           10 
 1942000   0.92527396   -7.5883719    476.56475  0.020449912  0.020248322           11 
 1943000   0.95022507   -7.5497846    476.72124  0.020446099  0.020241567           12 
 1944000   0.91863652   -7.5561393      476.868  0.020441872   0.02023481            8 
 1945000   0.96281056   -7.5372006    477.66234  0.020465396  0.020228148            6 
 1946000   0.93025885   -7.5271657    477.89829  0.020464983   0.02022142            6 
 1947000   0.94421128   -7.5335129    477.62627   0.02044283  0.020214699            5 
 1948000   0.94577695   -7.5520544    477.15713  0.020412266  0.020207946            8 
 1949000   0.93052915   -7.5422835    479.76573  0.020513329  0.020201209            3 
 1950000   0.94075585   -7.5696255    477.28271  0.020396697   0.02019445            6 
 1951000   0.95663674   -7.5571768    477.18142  0.020381916  0.020187775            3 
 1952000   0.91008825   -7.5492693     478.5062  0.020428031  0.020181078            3 
 1953000   0.90546405   -7.5615692    478.24548  0.020406447  0.020174429            3 
 1954000   0.94580366   -7.5197389    480.09249  0.020474774  0.020167761            4 
 1955000    0.9432005   -7.5475038    477.80551  0.020366816  0.020161112            5 
 1956000   0.92132386   -7.6181466    477.44448  0.020341023  0.020154388            5 
 1957000   0.95789748   -7.5456955    477.91238  0.020350553  0.020147673            4 
 1958000   0.92754958   -7.5587762    478.65475  0.020371755  0.020140969            6 
 1959000   0.94028896   -7.5742294    478.35569  0.020348634  0.020134235            7 
 1960000   0.92862577   -7.5524672     478.9157  0.020362062  0.020127507           15 
 1961000   0.94300346   -7.5746866    478.12512  0.020318083  0.020120784            7 
 1962000   0.92937874   -7.5634567    479.79106  0.020378486  0.020114149            5 
 1963000    0.9254936   -7.5802974    481.10041  0.020423689  0.020107528            3 
 1964000     0.936442   -7.5358209    480.96433  0.020407516  0.020101023            5 
 1965000   0.92295928   -7.5511331    480.48698  0.020376887  0.020094558            3 
 1966000   0.94242211   -7.5661195    480.17382  0.020353248  0.020087979            4 
 1967000   0.93719087   -7.5365125    479.09862  0.020297349  0.020081282            4 
 1968000   0.93384604   -7.5311168    481.24232  0.020377808  0.020074709            5 
 1969000   0.95807895   -7.5381356    479.52174   0.02029464  0.020068088            6 
 1970000   0.94522831   -7.5784497    478.65843  0.020247818  0.020061419            3 
 1971000    0.9504582   -7.6102272    478.40876   0.02022699  0.020054632            6 
 1972000   0.91985315   -7.5397597    480.21051  0.020292871  0.020047838           14 
 1973000   0.93766903   -7.5847469    479.05843  0.020233926  0.020041108            3 
 1974000   0.92661375   -7.5910243    479.50237  0.020242417  0.020034279            8 
 1975000   0.93343618   -7.5888274    478.65928  0.020196594  0.020027489            3 
 1976000   0.94084136   -7.5245147    481.16573  0.020292077   0.02002082            5 
 1977000   0.93361965   -7.5518046    481.19801  0.020283173  0.020014193            3 
 1978000   0.94227094   -7.5295018    480.27776  0.020234149  0.020007558            4 
 1979000   0.94514071   -7.5185548    482.62184  0.020322631  0.020000963            4 
 1980000   0.92349031   -7.5893309    480.93744  0.020241475  0.019994314            4 
 1981000    0.9224055    -7.540539    480.68195   0.02022051  0.019987655            8 
 1982000   0.94882787   -7.5569458    480.17008  0.020188786  0.019981001            3 
 1983000   0.96600223   -7.5815839    479.54061  0.020152152  0.019974306            6 
 1984000    0.9188041   -7.6053112    479.88509  0.020156464  0.019967535           11 
 1985000   0.92067221   -7.5670422    480.53428  0.020173564  0.019960762            6 
 1986000   0.91935416   -7.5703387    479.29891  0.020111569  0.019954029           12 
 1987000   0.91843005   -7.5330409    481.04543  0.020174695  0.019947293            6 
 1988000   0.93581054   -7.5721189    480.76122  0.020152633  0.019940632            5 
 1989000   0.93521528   -7.5744708    481.38537  0.020168651  0.019933853            9 
 1990000   0.93447279   -7.5922464    480.03078  0.020101792   0.01992708            3 
 1991000   0.93474915    -7.523857    482.87469  0.020210727  0.019920348            4 
 1992000   0.93148137   -7.6011536    481.23412  0.020131949  0.019913605            5 
 1993000   0.93187399   -7.6074639    479.31635   0.02004166  0.019906825           18 
 1994000   0.91002926   -7.5526953    481.22122  0.020111218  0.019900078            6 
 1995000    0.9352808   -7.5542101    481.17575  0.020099238  0.019893377            5 
 1996000   0.92618597   -7.5542745    481.88031  0.020118583  0.019886729            5 
 1997000   0.94494042   -7.6066655    479.37881  0.020004123  0.019880033            3 
 1998000   0.92314923   -7.5907718    481.07838  0.020064998   0.01987328            8 
 1999000   0.94214842   -7.5853592    481.13513  0.020057326  0.019866539            8 
 2000000   0.93957193   -7.5718972    482.24164  0.020093402  0.019859765           10 
 2001000   0.91881407   -7.5941633    482.21813  0.020082381  0.019853002           10 
 2002000    0.9032596   -7.5828091    483.59411  0.020129625  0.019846255           17 
 2003000   0.92215143   -7.6367396     480.7533  0.020001386  0.019839517           11 
 2004000   0.95624849   -7.6102526    482.23364  0.020052962  0.019832746           13 
 2005000   0.94257099   -7.5851893    483.17421  0.020082054  0.019826083            7 
 2006000   0.93298411   -7.6289794    481.63272  0.020008006  0.019819404           18 
 2007000   0.96158926   -7.5546715     484.1666  0.020103247  0.019812784           35 
 2008000   0.94707744   -7.5525908     483.9757  0.020085313  0.019806176           10 
 2009000   0.93422971   -7.6264505    482.45123   0.02001208  0.019799487            9 
 2010000   0.92954823   -7.5757357    483.33305  0.020038683  0.019792847            6 
 2011000   0.95066001   -7.6162412    483.53761  0.020037196  0.019786177            8 
 2012000   0.92547984   -7.5985307    483.60866   0.02003018  0.019779483            8 
 2013000   0.93201498   -7.5713521    483.49501  0.020015524  0.019772884            5 
 2014000   0.93908642   -7.6031303    483.22963  0.019994606   0.01976626            7 
 2015000   0.92035628   -7.5741918    484.41613  0.020033752  0.019759667            6 
 2016000   0.94302333   -7.6064899    484.05074  0.020008711  0.019753076            9 
 2017000   0.92995182   -7.5574358    485.13454  0.020043569  0.019746432            5 
 2018000   0.92707897   -7.5893898     483.7191  0.019975186  0.019739847            4 
 2019000   0.92438612   -7.5673686    485.03851   0.02001975  0.019733319            3 
 2020000   0.92089456   -7.6032077     483.8016  0.019958812  0.019726778           15 
 2021000   0.93895231   -7.5860059    484.87529  0.019993208  0.019720264            5 
 2022000   0.93033359   -7.5821328    486.34042  0.020043703   0.01971376            4 
 2023000   0.93665451   -7.5911723    485.21384  0.019987389  0.019707276            5 
 2024000   0.92320145   -7.5913324     484.6818  0.019955608   0.01970071            8 
 2025000   0.93865648   -7.5271552    486.21652   0.02000891  0.019694212           17 
 2026000   0.90345633   -7.5895623    485.29785  0.019961248  0.019687792            8 
 2027000   0.93195104   -7.5886634    485.78949  0.019971612  0.019681344            5 
 2028000   0.91620536   -7.5590153    485.46587  0.019948466  0.019674859           10 
 2029000   0.94447403   -7.6053314    485.72032  0.019949085  0.019668335            2 
 2030000    0.9074368   -7.5713407    485.47978  0.019929384  0.019661834           10 
 2031000   0.93648293   -7.5986251     486.9511   0.01997994  0.019655339            5 
 2032000   0.93840872   -7.5527617     487.3512  0.019986516  0.019648884           12 
 2033000   0.91208637   -7.6273763     485.0637  0.019882919  0.019642386            6 
 2034000   0.92339985   -7.6222785    485.26666  0.019881459  0.019635844            5 
 2035000   0.95045003    -7.634753    483.69815  0.019807459  0.019629234            8 
 2036000   0.91571531    -7.594162    487.06652  0.019935597  0.019622677            3 
 2037000   0.92661254   -7.5689393    487.45302  0.019941622  0.019616116           11 
 2038000   0.93082504   -7.5586255    485.39311  0.019847608  0.019609527           11 
 2039000   0.90222502   -7.6147336    485.10792  0.019826219  0.019602971           13 
 2040000   0.94452379   -7.6292653     486.5961  0.019877292    0.0195963            8 
 2041000   0.94505755   -7.6215449    486.07261  0.019846179   0.01958967            7 
 2042000   0.93227989   -7.6109401    485.85159   0.01982744  0.019583047            4 
 2043000   0.92553872   -7.6287263    484.39006   0.01975812  0.019576385           10 
 2044000   0.92956887   -7.6241895    485.64141   0.01979947  0.019569702            7 
 2045000   0.94240516   -7.5807467    487.23896  0.019854888  0.019563043           15 
 2046000   0.92759174   -7.5919093    485.77751  0.019785659  0.019556435            4 
 2047000   0.93027685   -7.5836465    486.22815  0.019794339  0.019549899           16 
 2048000     0.935618   -7.5648948    487.50644  0.019836688  0.019543324            6 
 2049000   0.91263372   -7.5600937    485.86724   0.01976034  0.019536803            9 
 2050000   0.93429114   -7.6385217    484.94399   0.01971317  0.019530191            5 
 2051000   0.91168878   -7.6166374    485.77398  0.019737282  0.019523547            5 
 2052000   0.91414531   -7.6173328    487.94659  0.019815895  0.019516904            5 
 2053000   0.90692368   -7.6501552    484.62688  0.019671492  0.019510221            5 
 2054000   0.89827152   -7.6005699    486.76818   0.01974879  0.019503583            4 
 2055000   0.91915089   -7.6044493    486.09598  0.019711921  0.019496937            3 
 2056000   0.92075989   -7.6042706    486.87668  0.019733977  0.019490309           13 
 2057000   0.90012018   -7.5666719    488.50322  0.019790278  0.019483714            5 
 2058000   0.92813401   -7.5801832    488.28683    0.0197719  0.019477186           16 
 2059000   0.91578441   -7.5862511    487.89745  0.019746537  0.019470642            2 
 2060000    0.9256097   -7.5309707    489.54516  0.019803607  0.019464113            5 
 2061000   0.91957607   -7.6024538    487.80814  0.019723764  0.019457643            4 
 2062000   0.92125581    -7.607508    487.85621  0.019716142  0.019451097           13 
 2063000   0.90535309   -7.6336596    487.25203  0.019682179  0.019444524            7 
 2064000   0.94033571   -7.6323228    486.67103  0.019649186  0.019437913            4 
 2065000   0.93420167    -7.651161    486.60514  0.019637011  0.019431265           10 
 2066000   0.92792476   -7.6482967    487.27702  0.019654607  0.019424608           11 
 2067000   0.90096721   -7.6163173    487.80405  0.019666346  0.019417968           16 
 2068000   0.93276124   -7.6360063    486.38725  0.019599744  0.019411262           11 
 2069000   0.90765469   -7.6078581    489.40475  0.019711807  0.019404576            5 
 2070000   0.93463678   -7.6004305    489.15222  0.019692118  0.019398009            7 
 2071000   0.89846635   -7.6259063    488.56866  0.019659129  0.019391418            4 
 2072000   0.91103523   -7.6503234    488.72467  0.019655915  0.019384845            8 
 2073000   0.93758161   -7.6023826      489.205  0.019665742   0.01937819           16 
 2074000   0.92535024   -7.6205709    488.10857  0.019612205  0.019371562           18 
 2075000   0.93258558   -7.5749112    488.95106  0.019636589  0.019364989           16 
 2076000   0.91995568   -7.5926904     488.4117  0.019605479  0.019358432            5 
 2077000   0.91773675   -7.5172961    490.86259  0.019694375  0.019351967           11 
 2078000   0.90859372   -7.6470301    489.10105  0.019614254  0.019345465           16 
 2079000   0.90150559   -7.5690378    489.91853  0.019637588  0.019338995            5 
 2080000   0.90822659   -7.6248765    489.69488  0.019619186  0.019332422            5 
 2081000     0.921664   -7.6005481    489.90996  0.019618371  0.019325892            9 
 2082000   0.92947812   -7.5970919    489.72086  0.019601379  0.019319378            8 
 2083000   0.90526973   -7.6038828    490.18256   0.01961044  0.019312827            7 
 2084000   0.92075228   -7.5940033    489.45866  0.019572083  0.019306308            3 
 2085000   0.90131963   -7.5896547     489.2849  0.019555751  0.019299795           11 
 2086000   0.91886315   -7.6264519    489.73232  0.019564251  0.019293274            6 
 2087000    0.9129032   -7.6113289    490.45241  0.019583629  0.019286719            5 
 2088000   0.90730663   -7.6217262    489.02946  0.019517459  0.019280199           11 
 2089000   0.91119546   -7.6071729    490.05785   0.01954914  0.019273683            8 
 2090000   0.93052893   -7.6101188    489.97188  0.019536359  0.019267145            8 
 2091000   0.92339139   -7.5947542    490.16633  0.019534765  0.019260644           12 
 2092000    0.9147248   -7.5779976    491.69273  0.019586231  0.019254187            8 
 2093000   0.91666322   -7.6110191    489.53414  0.019490928  0.019247735            3 
 2094000   0.94165198   -7.6229949    491.18538  0.019547333  0.019241232            4 
 2095000   0.93418533   -7.6201788    490.22636  0.019499855  0.019234743            3 
 2096000   0.90449912   -7.6066227    490.73115  0.019510621  0.019228244            6 
 2097000   0.89295153   -7.6234985      490.723  0.019500994  0.019221759            5 
 2098000   0.92420443   -7.6356425    491.27698  0.019513703  0.019215314           18 
 2099000   0.93274774   -7.6222502    491.09661  0.019497245  0.019208854            7 
 2100000   0.91697436   -7.5920231     492.0343  0.019525171  0.019202386            7 
 2101000   0.92317733   -7.6233544    491.50617   0.01949493   0.01919589            6 
 2102000   0.90513073   -7.6036434    492.70755  0.019533284  0.019189393            2 
 2103000   0.92469175   -7.6597091     490.2727  0.019427512    0.0191829           11 
 2104000    0.9202345   -7.6171705    491.92843  0.019483857  0.019176442            5 
 2105000   0.92807808   -7.6569293    491.07475  0.019440806  0.019169955           12 
 2106000   0.92211491   -7.6221612    490.94902  0.019426599  0.019163486            7 
 2107000   0.91192222   -7.6604521    492.27034  0.019469638  0.019157022            5 
 2108000   0.89641429   -7.6652667    491.72107  0.019438689  0.019150513           12 
 2109000   0.90387743    -7.634974    492.19681   0.01944827  0.019143997            4 
 2110000   0.92358921   -7.6418368    492.66656  0.019457605  0.019137529            4 
 2111000   0.91600623   -7.6446176    493.50107  0.019481331   0.01913107           10 
 2112000   0.90386553   -7.6358209    493.17614  0.019459286   0.01912462           11 
 2113000   0.94352226   -7.6548967    490.72283  0.019353322  0.019118137            7 
 2114000   0.93990177   -7.6285089    491.40469  0.019371046  0.019111671            4 
 2115000    0.9004464   -7.6574444    491.86649  0.019380082  0.019105245            8 
 2116000    0.9258057   -7.6226496    493.66891  0.019441907  0.019098845            6 
 2117000   0.92989608   -7.6597897    492.13126  0.019372196  0.019092454            4 
 2118000    0.9242921   -7.5896445    492.98345  0.019396579  0.019086085            8 
 2119000   0.92086207   -7.6362144     492.4791  0.019367591   0.01907975            5 
 2120000   0.90342356   -7.6731254    492.52539  0.019360275  0.019073337            4 
 2121000   0.91186899    -7.657561    493.37858  0.019384669  0.019066873            8 
 2122000   0.90088725   -7.6532715     492.1047  0.019325507  0.019060374            4 
 2123000   0.91522594   -7.6354352     492.7225  0.019340654  0.019053931           15 
 2124000   0.92404707   -7.6594215    492.29406  0.019314739  0.019047455            4 
 2125000   0.92009123   -7.6501099     491.9048  0.019290384  0.019040973            8 
 2126000   0.92213358   -7.6238219    493.69379  0.019351434  0.019034497            5 
 2127000   0.90498139   -7.6521583    493.03623  0.019316574   0.01902802            9 
 2128000   0.93851524   -7.6105695    493.67896  0.019332666  0.019021561            4 
 2129000   0.91147889   -7.6559092    493.01324  0.019297528  0.019015112            7 
 2130000   0.91062445   -7.6155604    493.30817  0.019300007  0.019008671            5 
 2131000   0.89878955   -7.6321304    493.93486  0.019315457  0.019002186            8 
 2132000   0.92710863   -7.6476567       494.13  0.019314024  0.018995742            4 
 2133000   0.90181277   -7.6649564    493.82997  0.019293248  0.018989287            6 
 2134000   0.91315058   -7.6543553     493.8332  0.019284333  0.018982815           16 
 2135000    0.9070139   -7.6480573    493.16248  0.019249121  0.018976425            8 
 2136000   0.89739238   -7.6677642    493.40354  0.019249514   0.01896998            3 
 2137000   0.90576055   -7.6457598    494.36534  0.019278012  0.018963526            6 
 2138000   0.91756735   -7.6636452    493.39105   0.01923102  0.018957097           15 
 2139000   0.91661909   -7.6625061    493.73015  0.019235241  0.018950654           13 
 2140000   0.92433046   -7.6562474    493.07692  0.019200815  0.018944199            8 
 2141000   0.89724076   -7.7045547    492.68194  0.019176473  0.018937676           12 
 2142000    0.9104214    -7.671607    493.36649  0.019194152  0.018931158            7 
 2143000   0.90505765   -7.6795522    492.61547  0.019155991  0.018924621           17 
 2144000    0.9047018   -7.6976839    495.04489  0.019241484  0.018918068           10 
 2145000   0.90533737    -7.652739    494.93748   0.01922834  0.018911539           18 
 2146000   0.90428767   -7.6389016    493.07121  0.019146909  0.018905016            6 
 2147000   0.89739489   -7.6545136    494.59466  0.019197122  0.018898512           18 
 2148000   0.90839415   -7.6628024    493.28453  0.019137357  0.018891934           13 
 2149000   0.91922203    -7.706769    492.95681  0.019115744    0.0188854            9 
 2150000   0.91460386   -7.6399492    494.14803  0.019153024  0.018878856           11 
 2151000   0.91327614   -7.6581254    494.40561  0.019154099   0.01887239           16 
 2152000   0.92411313   -7.6793097    493.74656  0.019119678  0.018865864            6 
 2153000   0.92089456   -7.6682537    493.69023  0.019108617  0.018859326            8 
 2154000   0.87799405   -7.6972199    493.97053   0.01911059  0.018852788            9 
 2155000   0.90204761     -7.66425    493.64904   0.01908929  0.018846274            9 
 2156000   0.92937712   -7.6620347    494.16709   0.01910046  0.018839759            6 
 2157000   0.91345502   -7.6903692    493.49288  0.019065557  0.018833236           15 
 2158000   0.91200705   -7.6508922     493.4789  0.019056182  0.018826658            7 
 2159000    0.9160801   -7.6585142    493.69586   0.01905573   0.01882009           11 
 2160000   0.89825715   -7.6792006    492.02821   0.01898257  0.018813471            9 
 2161000   0.92451762   -7.7035139     493.6389  0.019035898  0.018806913            8 
 2162000   0.92842516   -7.6685246     494.0137  0.019041539   0.01880037            5 
 2163000   0.91208258   -7.6953573    494.70228  0.019059265  0.018793872            5 
 2164000   0.90520035   -7.6269554    495.67352  0.019087859  0.018787388            8 
 2165000   0.92191672   -7.6536105    494.97381   0.01905211  0.018780903            7 
 2166000   0.90741885    -7.672169    495.07848  0.019047341  0.018774401            6 
 2167000   0.91842319   -7.6729632    496.17444  0.019080697  0.018767927            7 
 2168000   0.90382835   -7.6807426    494.47334  0.019006509  0.018761415            7 
 2169000   0.90703721   -7.6483665    495.28942    0.0190291  0.018754899           10 
 2170000   0.91741308   -7.6467941     496.1509  0.019053414  0.018748368            7 
 2171000   0.90753402   -7.6910048    495.43261  0.019017066  0.018741819            7 
 2172000   0.88666665   -7.6814299    495.07901  0.018994744  0.018735276            7 
 2173000   0.89331574    -7.692202    494.89533  0.018978959  0.018728765           14 
 2174000   0.89874785   -7.6814782     495.2927  0.018985461  0.018722238            6 
 2175000   0.90595171   -7.6670558    494.99663  0.018965388   0.01871572            4 
 2176000   0.87640432   -7.6494161    495.15621  0.018962784  0.018709244            9 
 2177000   0.91326534   -7.6751368    495.16136   0.01895427  0.018702708            8 
 2178000   0.91340313   -7.6444212    496.53875  0.018998269   0.01869619            3 
 2179000   0.92913106   -7.6547926    496.47534  0.018987125  0.018689689            7 
 2180000   0.91060356   -7.6634723    495.00229  0.018922106  0.018683116            6 
 2181000   0.87903027    -7.664805    495.98606  0.018951019  0.018676594            6 
 2182000   0.91561173   -7.6524675    496.36913  0.018956963  0.018670123            5 
 2183000   0.90460361   -7.6737023    495.65665  0.018921081   0.01866359            5 
 2184000   0.91228676   -7.6638086    496.14003  0.018930862  0.018657027            3 
 2185000   0.90783327    -7.686573    496.25762  0.018926683  0.018650474            7 
 2186000   0.88842301   -7.6782691     496.0213  0.018909016   0.01864397           12 
 2187000   0.91109583    -7.631422    496.42912  0.018915909  0.018637428            6 
 2188000    0.8908162   -7.6565024    496.66932  0.018916412  0.018630898            5 
 2189000   0.88574252   -7.6875741    494.81517  0.018837185   0.01862438            4 
 2190000   0.90303897   -7.6689228    496.80781  0.018904407   0.01861788            4 
 2191000   0.91103924   -7.6654147    496.31328  0.018876969  0.018611409            7 
 2192000   0.90896853   -7.6884569    495.95762  0.018854836  0.018604905            6 
 2193000   0.90958987    -7.670134    495.76352  0.018838863  0.018598402            6 
 2194000   0.87076502   -7.6696304    495.38944  0.018816068  0.018591898            4 
 2195000   0.90677665   -7.6976892    496.84633  0.018862807  0.018585394            8 
 2196000   0.90702796    -7.636417    498.59169   0.01892045  0.018578875            6 
 2197000   0.90222969   -7.6966331    497.05693  0.018853623  0.018572362            5 
 2198000   0.89696152   -7.6697146    496.92088  0.018839888  0.018565781           15 
 2199000   0.89684329   -7.6553068    497.13717  0.018839517  0.018559313           26 
 2200000   0.90161972   -7.6625829    498.04532  0.018865353  0.018552822            9 
 2201000   0.89308227   -7.6295795    497.61404  0.018840453  0.018546402           23 
 2202000    0.9030978   -7.6470983    498.70536  0.018873197  0.018539951           26 
 2203000   0.87864831   -7.6934395    497.77384  0.018829393  0.018533503            7 
 2204000   0.88809071   -7.7130611    496.96483  0.018790261  0.018527028           14 
 2205000   0.89516894   -7.6746893    497.68449  0.018808938  0.018520603            4 
 2206000   0.90784352   -7.6963695    497.51152  0.018793877   0.01851413            9 
 2207000   0.90384183   -7.6752642    498.64799  0.018828273  0.018507678            6 
 2208000   0.90586989   -7.7143482    497.01471  0.018758103  0.018501249           19 
 2209000   0.90106588   -7.6853848    495.61427  0.018696781  0.018494785            5 
 2210000   0.88774766   -7.7159893    497.82819  0.018771802  0.018488321            8 
 2211000    0.8903973   -7.6863076    498.51732  0.018789285  0.018481884           14 
 2212000   0.90918046   -7.6952563    498.99784  0.018798894   0.01847548           11 
 2213000   0.89601388   -7.6663175     499.5878  0.018812615   0.01846912            7 
 2214000   0.89041217   -7.6712804    498.49847  0.018763116  0.018462721            3 
 2215000   0.90230785   -7.7037274    498.09383  0.018739422  0.018456302            4 
 2216000   0.90227743   -7.7021253    498.69041    0.0187534  0.018449889           10 
 2217000   0.90019922   -7.6764392    499.68412  0.018782293  0.018443484           16 
 2218000   0.88413725   -7.7133124    497.42489  0.018688942   0.01843705            8 
 2219000   0.91047982   -7.6985389    499.10103  0.018743467  0.018430607            7 
 2220000   0.89338409   -7.7648906    498.41934  0.018709435  0.018424156           12 
 2221000     0.898415   -7.7278602    498.74892  0.018713377  0.018417715            9 
 2222000   0.89665204   -7.6800023    500.04725  0.018753647  0.018411268           11 
 2223000   0.87849178    -7.704162    498.61818   0.01869164  0.018404879            9 
 2224000   0.89024485   -7.6694334    500.63371  0.018758757   0.01839845           11 
 2225000   0.90438475   -7.7161763     499.9016  0.018722906  0.018392062            8 
 2226000   0.87709469    -7.700802    498.69958  0.018669496  0.018385661           10 
 2227000   0.88733214   -7.6959225    500.44817  0.018726544  0.018379278            6 
 2228000   0.90872775   -7.6931201    499.98011  0.018700632  0.018372936            4 
 2229000   0.89897381   -7.6928701    500.75843  0.018721341  0.018366576            7 
 2230000   0.90119988   -7.7052974    500.03826  0.018686034  0.018360185            7 
 2231000   0.88362128   -7.6598917    500.44437  0.018692827  0.018353843           13 
 2232000   0.91825345   -7.6785887    500.16579  0.018674051   0.01834753            7 
 2233000   0.89427871   -7.7200749    499.96282  0.018658114  0.018341175            5 
 2234000   0.88436738   -7.6486842    501.83683  0.018719667   0.01833487            5 
 2235000   0.89552703   -7.7278512    498.76513  0.018596761  0.018328488            6 
 2236000   0.89303684   -7.7066837    499.80649  0.018627254  0.018322126            4 
 2237000   0.90378366   -7.7517271    500.26451   0.01863599  0.018315718            6 
 2238000   0.88110468   -7.7258252    500.61691  0.018640785   0.01830929            8 
 2239000   0.90292585   -7.7522802     498.6742  0.018560153  0.018302935           17 
 2240000   0.89937098   -7.7085006     499.8331  0.018594981  0.018296536            5 
 2241000   0.90469173   -7.6875342    502.01461  0.018667805  0.018290187            8 
 2242000   0.91999374   -7.7242226     500.7127  0.018611087  0.018283851            8 
 2243000   0.91345655   -7.6866449     500.6415  0.018600145  0.018277518           13 
 2244000   0.88793709   -7.7285318    499.78565  0.018560073  0.018271145           10 
 2245000    0.8849545   -7.7185783    501.24459  0.018605961  0.018264807           14 
 2246000   0.91110768   -7.7347254    501.69065  0.018614227  0.018258461           15 
 2247000   0.87226391   -7.7316188     499.6608  0.018530663  0.018252097            7 
 2248000   0.88959163   -7.7349387    500.27681  0.018545255  0.018245704            5 
 2249000   0.90893765   -7.7367442    500.42509  0.018542504  0.018239288           12 
 2250000   0.90129995   -7.7425826    500.63888  0.018542181  0.018232878           10 
 2251000    0.9197471   -7.7326801    501.11132  0.018551434  0.018226517           14 
 2252000   0.91551061   -7.6977708    500.77635    0.0185308  0.018220155            5 
 2253000   0.87008811   -7.7089607     500.4489  0.018510464  0.018213782            9 
 2254000   0.88659162   -7.7535448    500.11407  0.018489873  0.018207394           19 
 2255000   0.88363539   -7.7078444    501.23019  0.018522919  0.018200982           15 
 2256000   0.89016964   -7.7464892    501.33898  0.018518727  0.018194619           24 
 2257000   0.87870606   -7.7315633    501.00306  0.018498119  0.018188207           13 
 2258000   0.87674509   -7.7425041     500.1396   0.01845806  0.018181798            9 
 2259000   0.89959702   -7.7196109    501.10309  0.018485432  0.018175392            5 
 2260000   0.87598631    -7.721927    500.14145  0.018441794  0.018168972           14 
 2261000   0.87655465   -7.7084604    502.65478  0.018526271  0.018162587           13 
 2262000    0.8953301   -7.7428406    500.72995  0.018447169  0.018156195            9 
 2263000   0.88474831   -7.7302532     499.5856  0.018396877  0.018149818            7 
 2264000   0.88363109   -7.6897614    503.44384  0.018530766  0.018143456            7 
 2265000   0.90054344   -7.7222739    501.33208  0.018444889  0.018137111            4 
 2266000   0.91150409   -7.7119874    502.79491  0.018490545  0.018130853            5 
 2267000   0.88503085    -7.699441    502.31805   0.01846486  0.018124595           13 
 2268000   0.90927325   -7.7019126    502.00444  0.018445196  0.018118316            7 
 2269000    0.8889087   -7.6977141    502.51265  0.018455731  0.018112087            6 
 2270000   0.87642069   -7.7024368    502.92707  0.018462815  0.018105782            4 
 2271000    0.8638581   -7.7273304    502.28483  0.018431118  0.018099519            6 
 2272000   0.89500274   -7.7172116    502.69648  0.018438105  0.018093292            5 
 2273000   0.88673856   -7.6933134    503.00119  0.018441164  0.018087025            3 
 2274000   0.88412696   -7.7090201    501.66153  0.018383961  0.018080788           10 
 2275000   0.89255025   -7.7297098    502.43037  0.018404043  0.018074486           12 
 2276000   0.87893505   -7.7252599    502.81393      0.01841  0.018068211           11 
 2277000   0.87816979   -7.7225777    502.91959  0.018405782  0.018061925           10 
 2278000   0.92710672   -7.7109097    504.26258  0.018446831  0.018055696            6 
 2279000   0.89306875   -7.7467188    503.48082  0.018410152  0.018049417           17 
 2280000   0.89539536   -7.7677965    502.28704  0.018358445   0.01804313           20 
 2281000   0.87515766    -7.726233    502.82965   0.01837022  0.018036861            5 
 2282000   0.88690395   -7.7430775    504.38707  0.018419043  0.018030562            6 
 2283000   0.88382353   -7.7414056    503.12698  0.018364979  0.018024261            6 
 2284000   0.88476712   -7.6924026    504.97976  0.018424539   0.01801799           12 
 2285000   0.89029531   -7.7144725    502.99364  0.018344042  0.018011759            8 
 2286000   0.90887412   -7.7360073    504.30866  0.018383955  0.018005497           10 
 2287000   0.85524391    -7.712649    504.68249  0.018389538  0.017999251            5 
 2288000   0.88230222   -7.7242272    502.90605    0.0183168  0.017992963            6 
 2289000   0.89389231   -7.7481323    503.02623  0.018313173   0.01798667            8 
 2290000   0.87421271   -7.7128033    504.34229  0.018353067   0.01798045            7 
 2291000   0.87556788    -7.750345    504.91593  0.018365922   0.01797419            5 
 2292000   0.89716309   -7.7012956    505.74954  0.018388218  0.017967931            5 
 2293000   0.90269738   -7.7096176    504.16761  0.018322707  0.017961719            7 
 2294000   0.89293143   -7.7379355    504.04531  0.018310277  0.017955464            6 
 2295000   0.87599725   -7.7501273    502.77178  0.018256056  0.017949226            4 
 2296000   0.87415603   -7.7868518    502.63859  0.018243271  0.017942935            8 
 2297000   0.88539087      -7.7499    503.89531  0.018280921  0.017936642            8 
 2298000   0.88751683    -7.690436    504.28688  0.018287166  0.017930335            9 
 2299000   0.89141217   -7.7371082    505.88818  0.018337254  0.017924063            9 
 2300000   0.89213649   -7.7354412    504.13083   0.01826561  0.017917805           11 
 2301000   0.87639289   -7.7368028    502.96613  0.018215491  0.017911553            4 
 2302000   0.89661265   -7.7453487    503.44146  0.018224785  0.017905263            9 
 2303000   0.91539132   -7.7412359    502.84889   0.01819543  0.017898941            5 
 2304000    0.8928493   -7.7012848     505.1113  0.018269361  0.017892699            6 
 2305000   0.87327663   -7.7495843    504.64043  0.018244412  0.017886423            8 
 2306000   0.90102837   -7.7480653    503.52092  0.018196043  0.017880159            6 
 2307000   0.89091743   -7.7724073    504.24968  0.018214481  0.017873886            7 
 2308000   0.91231241   -7.7209583    506.41654  0.018284826  0.017867681           12 
 2309000   0.87719288   -7.7008873    504.18131  0.018196236  0.017861464           20 
 2310000   0.86160572   -7.7329255    504.80688  0.018210926  0.017855215           19 
 2311000   0.89948165   -7.7249292    504.67829  0.018198409  0.017848962            6 
 2312000    0.8673597   -7.7596116     503.6857  0.018154762  0.017842676           20 
 2313000    0.8806137    -7.696558    505.58227  0.018215242  0.017836401            6 
 2314000   0.88278825   -7.7599855    504.92861  0.018183831  0.017830098            7 
 2315000   0.86812876   -7.7545607    504.77501  0.018170447  0.017823743           14 
 2316000   0.87675748   -7.7351756    504.51147  0.018153119  0.017817459            7 
 2317000   0.87753199   -7.7191425    504.12195  0.018131274  0.017811143           11 
 2318000   0.87659347   -7.7754045    503.14304   0.01808826  0.017804771           59 
 2319000   0.90070653   -7.7478652    503.72907  0.018101519  0.017798388           16 
 2320000   0.87535316   -7.7319905     504.2083   0.01811093  0.017792019           10 
 2321000   0.88874159   -7.7720727    503.84665  0.018090143  0.017785658           17 
 2322000   0.88153207    -7.737363    505.26522  0.018133262  0.017779296           14 
 2323000   0.89810291   -7.7285827    504.93212  0.018113507  0.017772989            8 
 2324000   0.87479257   -7.7724798    504.05707  0.018074335  0.017766673           14 
 2325000   0.87021495   -7.7619778    503.72732  0.018054742  0.017760353           12 
 2326000   0.89183109   -7.7177709    505.32527   0.01810423  0.017754085           29 
 2327000   0.88063038   -7.7203819    504.68418  0.018073492  0.017747788           15 
 2328000   0.87552354   -7.7307084    505.17887  0.018083436  0.017741481            5 
 2329000   0.86987639   -7.7824063    505.04291  0.018070807  0.017735141           15 
 2330000   0.87361067   -7.7532981     504.5199  0.018044346  0.017728809            7 
 2331000   0.88098879    -7.739178     505.1434  0.018058895  0.017722491           10 
 2332000   0.86176831   -7.7550215     503.3479  0.017986989  0.017716158           12 
 2333000   0.88621745   -7.7732745     503.0895  0.017970049  0.017709794            8 
 2334000   0.87806611   -7.7417301    503.04703  0.017960834  0.017703437            6 
 2335000    0.8872064   -7.7608025    503.65466  0.017974827  0.017697069            7 
 2336000   0.88744081   -7.7699353    504.15384   0.01798494  0.017690707            9 
 2337000   0.88488523   -7.7572523    504.54663   0.01799125  0.017684312           13 
 2338000    0.8549226   -7.7394012    505.41993  0.018014682  0.017677995           39 
 2339000   0.89419989    -7.753955     504.9255  0.017989365  0.017671662           13 
 2340000   0.88654942   -7.7492129    506.36613  0.018032982  0.017665326           21 
 2341000   0.88609402   -7.7320936    505.08303  0.017979604  0.017659017           17 
 2342000   0.89011235   -7.7729837    504.38353  0.017947037  0.017652681            5 
 2343000   0.88440153   -7.7414406     504.8167  0.017954784  0.017646358            5 
 2344000   0.88067305   -7.7260209    504.71952  0.017943669  0.017640042            6 
 2345000   0.87908028   -7.7698346    504.73976  0.017936736   0.01763373           14 
 2346000   0.87350517   -7.7842332     505.0082  0.017938626  0.017627417           14 
 2347000    0.8835845   -7.7207779    505.53057   0.01794953  0.017621133           26 
 2348000   0.88890307   -7.7657729    505.39496  0.017937073  0.017614836           10 
 2349000    0.8918732   -7.6958115    507.21639  0.017994054  0.017608558           12 
 2350000   0.88792079   -7.7831574    504.80452  0.017900869  0.017602225            8 
 2351000   0.88631765   -7.7584878    504.64218  0.017887501  0.017595886            6 
 2352000   0.87716395   -7.7678238    505.93369  0.017925655  0.017589565           14 
 2353000   0.87682618   -7.7352528    505.25101  0.017893859  0.017583234           10 
 2354000   0.90176463    -7.738151    505.55953   0.01789718  0.017576925           13 
 2355000   0.86854973   -7.7222174     506.0145  0.017905679   0.01757066            6 
 2356000   0.86668209   -7.7837961    504.59879  0.017848005  0.017564381            9 
 2357000    0.8758651   -7.8056419    504.26546  0.017828647  0.017558059            7 
 2358000   0.87257376   -7.7596942    506.66356  0.017905837  0.017551745           12 
 2359000   0.89690807    -7.766275     505.3768  0.017852791  0.017545452           11 
 2360000   0.86663919   -7.7467312    507.37426  0.017915758   0.01753918            5 
 2361000   0.86605402   -7.7355155    507.01742  0.017895575  0.017532864           10 
 2362000   0.86202976   -7.7686677    506.28958  0.017862319  0.017526567           19 
 2363000   0.89433182   -7.7864362    505.75305  0.017835839  0.017520226           14 
 2364000   0.88179672   -7.7873635    506.00478  0.017837168  0.017513886           16 
 2365000   0.87303869    -7.782906    504.66426  0.017782391  0.017507551            5 
 2366000   0.86048841   -7.7832349    504.46324  0.017767795    0.0175012            6 
 2367000   0.87245923   -7.7650772    506.14451   0.01781948  0.017494878           11 
 2368000   0.86266279   -7.7900033    505.65157  0.017794607  0.017488523            8 
 2369000   0.86939654   -7.7343193    506.82698  0.017828443  0.017482198            4 
 2370000   0.86436379   -7.7442678    506.95605  0.017825459  0.017475919           15 
 2371000   0.88324331   -7.7668429    506.10538  0.017788042  0.017469591            5 
 2372000   0.87663134   -7.7717011    505.76153  0.017768463  0.017463253            4 
 2373000    0.8738824    -7.754974    507.31791  0.017815631  0.017456933            7 
 2374000   0.87296617    -7.783287    505.83197  0.017755966  0.017450605            5 
 2375000   0.88116758   -7.7794711    505.73023   0.01774492  0.017444273            7 
 2376000   0.86114091   -7.7855095    505.53055  0.017730449  0.017437948            7 
 2377000   0.87362828   -7.7852776    507.38411  0.017787972  0.017431642           14 
 2378000   0.87929637   -7.7891241    506.38111  0.017745343  0.017425293            7 
 2379000    0.8669004   -7.7659042    506.03793  0.017725863  0.017418968            9 
 2380000    0.8782323   -7.7733498    506.12575   0.01772149   0.01741264            5 
 2381000   0.86512497   -7.7816028    505.71031  0.017699507  0.017406332           10 
 2382000   0.88442098   -7.7565525    506.69373  0.017726481  0.017400018            5 
 2383000   0.86103079   -7.8152202    505.81234   0.01768822  0.017393681           11 
 2384000   0.88414378   -7.8042036    505.67202  0.017675896  0.017387354           17 
 2385000   0.86674442   -7.8047166    506.67929  0.017703679  0.017381008           12 
 2386000   0.87138405   -7.7928531     506.9653  0.017706248  0.017374666           15 
 2387000   0.86403721   -7.7895221    507.02319  0.017700851  0.017368343           27 
 2388000   0.87500295   -7.7960389    506.00782  0.017658006   0.01736205           22 
 2389000    0.8539723   -7.7968737    506.03091   0.01765142  0.017355756           16 
 2390000   0.88138542   -7.8000643    505.79849  0.017635931  0.017349457            8 
 2391000   0.86364766   -7.8314925    506.34463  0.017647589  0.017343144            6 
 2392000   0.88677569   -7.8167725    506.50099  0.017645659  0.017336773           25 
 2393000   0.86660152   -7.8448822     506.4523  0.017636589  0.017330356           15 
 2394000   0.88656262   -7.8207248     506.0198  0.017614167  0.017323966           20 
 2395000   0.86287666    -7.793491    507.28742  0.017650919  0.017317609            9 
 2396000   0.86969446   -7.8031565    506.60949  0.017619974   0.01731123           17 
 2397000   0.87941995   -7.7890986     507.6562  0.017649013  0.017304917            6 
 2398000   0.86650672   -7.7447608    507.87403  0.017649223  0.017298659            9 
 2399000   0.85809203   -7.8219985    507.38186  0.017624769  0.017292397           17 
 2400000   0.87365599   -7.8018315     508.7362  0.017664452  0.017286098            6 
 2401000   0.86554752   -7.7926331    507.03224  0.017597954  0.017279825           17 
 2402000     0.851029   -7.8142193    507.27591  0.017599081  0.017273569            9 
 2403000   0.86898985   -7.8365896    506.76183  0.017573929  0.017267276           10 
 2404000   0.86233173   -7.8109398    507.99132  0.017609239  0.017260959            8 
 2405000   0.87845612   -7.8077986    507.44382  0.017582946  0.017254676           12 
 2406000   0.84231572   -7.7839872    508.79728  0.017622516  0.017248425            7 
 2407000   0.86248869   -7.7636364    508.56422  0.017607126  0.017242227           10 
 2408000   0.86467815   -7.8205425    507.55815  0.017564997  0.017235961           19 
 2409000   0.86601476   -7.7807655    508.49911  0.017590256  0.017229733            9 
 2410000   0.88421876   -7.7921433    507.87717  0.017561451  0.017223445            7 
 2411000   0.86060076   -7.8013769    507.73884  0.017549386  0.017217136           12 
 2412000   0.86358799   -7.7879716      508.102  0.017554657  0.017210881           10 
 2413000    0.8691279   -7.8345856    506.70451   0.01749912   0.01720464            9 
 2414000   0.86283499   -7.8122603    506.41213  0.017481778  0.017198398           17 
 2415000   0.88923548   -7.8144101     508.3555  0.017541598  0.017192159            5 
 2416000   0.87428182    -7.785264    508.79841  0.017549614  0.017185877            4 
 2417000   0.87256357   -7.8102247    507.46973  0.017496543  0.017179614            5 
 2418000   0.86938339   -7.8102886    509.46695  0.017558139  0.017173404            7 
 2419000   0.86739569    -7.817117     507.5178  0.017483733  0.017167176           13 
 2420000   0.85575979    -7.834985    507.27475  0.017468139  0.017160882           10 
 2421000   0.87663386   -7.8122584    508.77486  0.017512559  0.017154683            6 
 2422000   0.84930599   -7.8144535    510.20709  0.017554607  0.017148455           23 
 2423000    0.8473665   -7.8288506    507.63111  0.017458767  0.017142225           12 
 2424000   0.85472226   -7.7961472    509.54552  0.017517379  0.017135991            9 
 2425000   0.88065143   -7.8315771    508.72205  0.017481858  0.017129756           11 
 2426000   0.85884686   -7.8419936    508.44407  0.017465103  0.017123497           15 
 2427000   0.87768902   -7.7974128    508.60672  0.017463491  0.017117242           16 
 2428000   0.87640014   -7.7973284    509.81391  0.017497732  0.017110989           30 
 2429000   0.85297719    -7.794154    509.94151  0.017494906  0.017104759           34 
 2430000   0.88607149   -7.7842647     508.9743  0.017454537  0.017098535            6 
 2431000    0.8721294   -7.7820347    508.34668  0.017425843  0.017092308            9 
 2432000   0.85481616   -7.8308235     507.9955  0.017406644  0.017086076            8 
 2433000   0.86010487   -7.8491052    509.04919   0.01743558  0.017079812            8 
 2434000   0.86610819    -7.834571    508.24466  0.017400872  0.017073549            4 
 2435000   0.88130017   -7.7987826    509.53221   0.01743779  0.017067319           14 
 2436000   0.86774952   -7.7863714    509.95245  0.017445007  0.017061141           17 
 2437000   0.89031832   -7.7952114    509.24353  0.017413607  0.017054944            4 
 2438000   0.85596279   -7.8163827    509.93363  0.017430053  0.017048712            4 
 2439000   0.85588067   -7.7954273    508.35681  0.017369031  0.017042474            5 
 2440000   0.85587233   -7.8069535     509.0289  0.017384867  0.017036258            9 
 2441000   0.86561937   -7.7741008    510.27608  0.017420322  0.017030039            5 
 2442000   0.86564317   -7.7915076    509.22723  0.017377397  0.017023857           10 
 2443000   0.85485454   -7.7993139    509.54134  0.017380998  0.017017681           10 
 2444000    0.8439776   -7.7979861    510.95212   0.01742199  0.017011466           12 
 2445000   0.86716735   -7.8220216    508.35077  0.017326202  0.017005234            7 
 2446000    0.8554473   -7.8194497    509.46468  0.017357069  0.016999008            7 
 2447000   0.85655293   -7.8285492    508.66359  0.017322694  0.016992795           22 
 2448000   0.86059099   -7.8293426    508.58964    0.0173131  0.016986593           32 
 2449000   0.84981078   -7.8361393    508.31166  0.017296572  0.016980342           15 
 2450000   0.86274363   -7.8497064    509.05702  0.017314865  0.016974096           15 
 2451000   0.85581923   -7.8454136    507.63663  0.017259507  0.016967865           12 
 2452000   0.86076704   -7.8575951    507.49719  0.017247729  0.016961614            3 
 2453000   0.85093833   -7.8359151    508.25487  0.017266438  0.016955352            4 
 2454000   0.86223861   -7.8389348     508.7075  0.017274773  0.016949154           12 
 2455000   0.87514727   -7.8304026    509.58076  0.017297378  0.016942948           10 
 2456000   0.85494159   -7.8294618    509.35266  0.017282596  0.016936775            7 
 2457000   0.84349701   -7.8410177    509.42774  0.017278108  0.016930541            8 
 2458000   0.85414473   -7.8060588    510.70752  0.017314467   0.01692435           10 
 2459000   0.86977199   -7.8076806    509.91714  0.017280641  0.016918202            8 
 2460000   0.86618109   -7.8221342    510.73219  0.017301226  0.016912051            5 
 2461000    0.8612867   -7.8197215    509.21062  0.017242673  0.016905867            6 
 2462000   0.85581582   -7.7967025    510.51107  0.017279687  0.016899718           11 
 2463000   0.84265193   -7.8177114    510.72335  0.017279853  0.016893577           19 
 2464000   0.84753045   -7.8164962    510.92115   0.01727953  0.016887442            6 
 2465000   0.85921576   -7.8305804     510.1318  0.017245835  0.016881262            7 
 2466000   0.85979448   -7.8157107    511.30936  0.017278635  0.016875093            5 
 2467000   0.85752906   -7.8035879     511.1403   0.01726592  0.016868934            5 
 2468000   0.85591862   -7.8177368    510.76962  0.017246408  0.016862751            6 
 2469000   0.86078602   -7.8414325    510.59218  0.017233434    0.0168566            9 
 2470000   0.84667643    -7.869928    509.45127  0.017187965  0.016850446           10 
 2471000   0.85550647   -7.7977079    511.37531  0.017245896  0.016844271           11 
 2472000   0.86094357   -7.8486608    510.30733  0.017202917  0.016838124           27 
 2473000   0.86945166   -7.8700852    508.96736  0.017150808  0.016831947           41 
 2474000   0.86269825    -7.832067    509.52099  0.017162523  0.016825748           14 
 2475000   0.87140049   -7.8238148    510.06116  0.017173776  0.016819577           10 
 2476000   0.85422152   -7.8274476    511.23893   0.01720648  0.016813441           15 
 2477000   0.85400492    -7.843554    511.14212  0.017196276  0.016807264           16 
 2478000   0.84946335   -7.8839536    509.60107  0.017137513  0.016801044           11 
 2479000   0.86537602   -7.8713389     510.3529  0.017155873  0.016794837           11 
 2480000   0.86233951   -7.8341213    510.21004  0.017144155   0.01678862           20 
 2481000   0.86320229   -7.8575197    510.75549  0.017155565   0.01678244           10 
 2482000   0.84871753   -7.8177956    511.56795  0.017175932  0.016776276            8 
 2483000    0.8523854    -7.854273    510.89824  0.017146538  0.016770149            8 
 2484000   0.84682309   -7.8214583    511.50189  0.017159886  0.016764004            8 
 2485000   0.86850123    -7.810171    511.61114  0.017156644   0.01675786           14 
 2486000   0.86201744   -7.8241106     511.8469  0.017157646   0.01675174           12 
 2487000   0.86835465   -7.8186547    510.89929  0.017118995  0.016745596           11 
 2488000   0.84875476   -7.8433767    511.11445  0.017119321  0.016739437            5 
 2489000   0.85357604   -7.8435241    511.30576  0.017118848  0.016733276            4 
 2490000   0.87221896   -7.8315139    512.01949   0.01713586  0.016727149           21 
 2491000   0.83922284   -7.8187241    512.35027  0.017140047  0.016721065           12 
 2492000   0.85964594   -7.7707492    512.76845  0.017147153  0.016714995            7 
 2493000   0.84510682   -7.7966444    511.62334  0.017101997  0.016708929            6 
 2494000   0.84926931   -7.8063711     513.1731  0.017146923   0.01670287           15 
 2495000   0.83269731   -7.8278788    511.31014  0.017077827  0.016696792            6 
 2496000    0.8596675   -7.8430632    511.01698  0.017061197  0.016690683            8 
 2497000   0.85214863   -7.8114692     512.0485   0.01708879  0.016684581           11 
 2498000   0.84228999   -7.8201007    510.04149  0.017014995  0.016678447            7 
 2499000   0.85036352   -7.8252924    513.17202  0.017112579  0.016672324            6 
 2500000   0.84596578   -7.8120939    511.56888  0.017052296  0.016666199            5 
 2501000   0.84314148   -7.8424045     511.0595  0.017028505  0.016660066            7 
 2502000   0.83159214   -7.8660003    511.83019  0.017047368  0.016653938           30 
 2503000   0.86603015   -7.8366331    511.86441  0.017041697  0.016647785           14 
 2504000   0.85269844    -7.833135    510.44345  0.016987601  0.016641655           12 
 2505000   0.85424867   -7.8733705    510.31574  0.016976572  0.016635472           35 
 2506000   0.84230781   -7.8423202    510.48255  0.016975344  0.016629283           20 
 2507000   0.83703982   -7.8504156    511.38103  0.016998439  0.016623123            6 
 2508000   0.84099438   -7.8438573    511.22821  0.016986583   0.01661694           10 
 2509000   0.86923701   -7.8909343    509.49552  0.016922264  0.016610735           13 
 2510000   0.87130178   -7.8862267    509.75059   0.01692399  0.016604498            7 
 2511000    0.8538835   -7.8765508    512.00103  0.016991936  0.016598295           14 
 2512000   0.84651679   -7.8722466    511.56863  0.016970828   0.01659211            5 
 2513000   0.85524892   -7.8504534    510.36591  0.016924191   0.01658593            7 
 2514000   0.85100228   -7.8427541    512.30574   0.01698176  0.016579771           14 
 2515000   0.84478691   -7.8418579     511.7709  0.016957286   0.01657363            9 
 2516000   0.87011072   -7.8560825    510.72293  0.016915836  0.016567486           33 
 2517000   0.84453176   -7.8704133    510.81512  0.016912168  0.016561333           20 
 2518000   0.86063513   -7.8801476     510.9924  0.016911318  0.016555152           15 
 2519000   0.84738654   -7.8778956    511.46506  0.016920241  0.016548974           29 
 2520000   0.85489416   -7.8908465    511.84593  0.016926122  0.016542801            8 
 2521000   0.84279893   -7.8703845    511.47655  0.016907198  0.016536649           21 
 2522000   0.82877697   -7.8662651    512.27782   0.01692697  0.016530472           19 
 2523000   0.85036232    -7.897791     509.8084  0.016838697  0.016524284           29 
 2524000   0.83962138   -7.8875099    512.15274  0.016909427  0.016518092           31 
 2525000   0.85967528   -7.8572706    511.27563  0.016873783  0.016511937           20 
 2526000   0.84795461   -7.8547373    512.55604  0.016909344  0.016505779           14 
 2527000   0.85467572   -7.8583679    511.60028  0.016871134  0.016499621           26 
 2528000   0.85083772   -7.8685161    511.27703  0.016853805  0.016493462           29 
 2529000    0.8554767   -7.8793462    509.72604  0.016796034  0.016487314           17 
 2530000   0.85835211   -7.8705526    511.30008  0.016841241  0.016481187           18 
 2531000   0.86105138   -7.8601476     512.9435  0.016888697  0.016475051           25 
 2532000   0.85632159   -7.8853461    510.06347  0.016787239  0.016468938           15 
 2533000   0.83261406   -7.8433002    511.64184  0.016832539  0.016462806           21 
 2534000   0.83973147   -7.8671607     512.1036  0.016841081  0.016456654           20 
 2535000   0.85865029   -7.8748926    511.14567  0.016802948   0.01645047           16 
 2536000   0.85971274   -7.8696484    511.11604  0.016795348   0.01644433           14 
 2537000    0.8403212   -7.8900419    510.11594  0.016755878  0.016438176           13 
 2538000   0.85107221    -7.874025    511.89713   0.01680776  0.016432011           15 
 2539000   0.84529912   -7.8966692     510.2184  0.016746042  0.016425821           19 
 2540000   0.85009356   -7.9024604    510.00092  0.016732314  0.016419637           12 
 2541000   0.84694593    -7.873968    511.84312  0.016786145  0.016413467           17 
 2542000   0.83709242   -7.8954947     511.5536   0.01677005  0.016407326           15 
 2543000   0.83527133   -7.9141163    510.63182  0.016733249  0.016401145            9 
 2544000   0.84315568   -7.8637682    511.65328  0.016760131  0.016394972           14 
 2545000   0.83698707   -7.8746312    511.44915  0.016746861  0.016388809            9 
 2546000    0.8233599   -7.8865746    510.95912  0.016724245  0.016382647            5 
 2547000   0.85251836   -7.8566065    511.64201  0.016740021  0.016376501           10 
 2548000   0.86122681   -7.8826674     511.4495  0.016727155  0.016370337           20 
 2549000    0.8476739   -7.8730262    512.13133  0.016742884  0.016364178            8 
 2550000   0.85680832   -7.8906315    511.92608   0.01672961  0.016358012           23 
 2551000   0.84914542   -7.8501069    512.84423  0.016753045  0.016351865           23 
 2552000   0.83332746   -7.8622038    511.89054  0.016715339  0.016345742           14 
 2553000   0.85433364   -7.8833072    512.53216  0.016729735  0.016339616           15 
 2554000   0.83446733   -7.9014057    510.73575   0.01666457  0.016333453           11 
 2555000   0.83987197   -7.9029074     512.7908  0.016725075  0.016327341           14 
 2556000   0.84534374   -7.8860295    511.11103  0.016663766  0.016321212            8 
 2557000   0.85284499   -7.8736561    512.17586  0.016691952  0.016315077           11 
 2558000   0.84611082   -7.9228933    510.70068  0.016637369  0.016308944           11 
 2559000   0.85265843   -7.9078791    512.39441  0.016686023  0.016302769            8 
 2560000   0.85264434   -7.8955823    512.58216  0.016685617  0.016296639           12 
 2561000   0.82406716   -7.8929567    511.85093  0.016655308  0.016290492            5 
 2562000   0.83114378   -7.8935694    512.68196  0.016675838  0.016284363           10 
 2563000   0.84069042    -7.890743    513.66715  0.016701364  0.016278259            9 
 2564000   0.82200698    -7.895339    512.88201  0.016669332  0.016272162           14 
 2565000   0.83934242   -7.8902276    512.40669  0.016647391  0.016266076           20 
 2566000   0.83447069   -7.8839086    513.74371  0.016684324  0.016259954           11 
 2567000   0.85898621   -7.8564765    513.26148   0.01666217  0.016253862           12 
 2568000   0.84594973   -7.8864432    513.54245  0.016664799  0.016247808           18 
 2569000   0.85255036   -7.8689779     514.0629  0.016675195  0.016241752            6 
 2570000    0.8501367   -7.8609137    513.38186  0.016646623   0.01623572           11 
 2571000   0.83352911   -7.8914275    513.10711  0.016631243   0.01622966           22 
 2572000   0.83446574   -7.8656039    513.08699  0.016624125  0.016223596            8 
 2573000   0.84550009   -7.9093877    512.55839  0.016600544  0.016217531            9 
 2574000   0.83581205   -7.8722889    512.16954  0.016581505  0.016211453            6 
 2575000   0.82593005   -7.8652062    512.37408  0.016581685  0.016205354           17 
 2576000   0.84045378   -7.8992456    511.66994  0.016552469  0.016199276           12 
 2577000   0.83787859   -7.8647757    513.85295  0.016616639  0.016193209           11 
 2578000   0.84196723   -7.8745995    513.39756  0.016595473  0.016187143           13 
 2579000   0.82945496   -7.8886661    515.14955  0.016645649  0.016181102           12 
 2580000   0.83517927   -7.8662636    513.81066  0.016595951  0.016175039           15 
 2581000   0.84904742   -7.9161577    511.82174  0.016525305  0.016168959           16 
 2582000   0.83917711   -7.9133888     511.9456  0.016522902  0.016162889            8 
 2583000   0.85451697   -7.9097665    514.14224  0.016587374  0.016156863           12 
 2584000   0.82127501   -7.8716991    513.26958  0.016552811  0.016150834           11 
 2585000   0.85733993   -7.8867729    513.86776  0.016565692  0.016144794           10 
 2586000   0.82966435   -7.8738612    514.98719  0.016595359   0.01613877           17 
 2587000   0.82838538   -7.9013768    514.22693  0.016564454  0.016132787           13 
 2588000   0.85016966    -7.878656    515.10173  0.016586223  0.016126797           26 
 2589000   0.83849249   -7.8616549    514.48344  0.016559915  0.016120833           17 
 2590000   0.82792542    -7.847207    515.29985  0.016579789  0.016114899           25 
 2591000   0.84718487   -7.8786874    515.76283  0.016588281  0.016108925           22 
 2592000   0.83581396   -7.8788693    514.90673  0.016554357  0.016102963           32 
 2593000   0.84545441   -7.8671752    514.49011  0.016534584  0.016096984           21 
 2594000   0.83684032   -7.8996774     514.2923  0.016521855  0.016090965           13 
 2595000    0.8337565   -7.8939624    514.30938  0.016516037  0.016084975           28 
 2596000   0.83666604   -7.9090156    513.39691  0.016480384  0.016078957           20 
 2597000   0.84790593   -7.9215796     513.8597  0.016488888  0.016072939           38 
 2598000    0.8387489   -7.9166108    514.25602  0.016495253  0.016066962           20 
 2599000   0.84279671   -7.8804508      514.041  0.016482012  0.016060963           33 
 2600000   0.83192748   -7.8961861    515.31423  0.016516482  0.016054974           21 
 2601000   0.84310833   -7.8711894    513.88861  0.016464456  0.016048996           30 
 2602000   0.83950637   -7.9219141    514.15048  0.016466516  0.016043006           37 
 2603000   0.82764092   -7.8920434    514.38196    0.0164676  0.016037004            8 
 2604000    0.8231116   -7.8755862    515.47716  0.016496325  0.016030997           25 
 2605000   0.82498476   -7.8921881    514.91559  0.016472028  0.016025033           28 
 2606000    0.8587829   -7.9075524     514.0451  0.016437871  0.016019031           56 
 2607000   0.82888185   -7.9084504    514.23782  0.016437726  0.016013046           37 
 2608000   0.84181905   -7.9266697    514.43578  0.016437749  0.016007047           42 
 2609000    0.8523567   -7.9209205    513.75939  0.016409844  0.016001015           35 
 2610000    0.8349226   -7.9314185    514.35828  0.016422678  0.015994979           62 
 2611000   0.82568468   -7.8914854    515.00789  0.016437122  0.015988974           59 
 2612000   0.83990632   -7.9433453    514.45553  0.016413206  0.015982967           34 
 2613000   0.84445756   -7.9329109    514.85028  0.016419514  0.015976921           19 
 2614000   0.83470012   -7.9218331    513.65254  0.016375049  0.015970902           43 
 2615000   0.82592759   -7.9504008    513.29213  0.016357302  0.015964867           38 
 2616000   0.83899106   -7.9472512    513.89384  0.016370217  0.015958866           79 
 2617000   0.83107389    -7.927356    515.13052  0.016403341  0.015952885           56 
 2618000   0.82632975   -7.9450562    515.50242  0.016408913  0.015946894           40 
 2619000   0.83800675   -7.9275982    514.14018  0.016359303  0.015940901           61 
 2620000    0.8480083   -7.9024283    514.84451  0.016375461   0.01593496           39 
 2621000   0.83753494   -7.9186125    514.86605  0.016369899  0.015929023           17 
 2622000   0.84366234   -7.9077984    514.12667  0.016340156  0.015923055           31 
 2623000   0.82360233   -7.8986083    516.18311   0.01639926  0.015917104           68 
 2624000   0.82877555   -7.9180509    514.52685  0.016340411  0.015911144           62 
 2625000   0.82435693   -7.9089948    514.53253  0.016334366  0.015905208          139 
 2626000   0.83953148    -7.914405    514.83945  0.016337886   0.01589929          106 
 2627000   0.83335801   -7.9021854    514.23479  0.016312485  0.015893357           99 
 2628000   0.81839219   -7.9219966    513.09878  0.016270255  0.015887403          131 
 2629000   0.82920496   -7.9138666    514.82226  0.016318697   0.01588144          118 
 2630000   0.83409924   -7.9385474    514.76211  0.016310587  0.015875509          137 
 2631000   0.82633363   -7.9174807    516.01321  0.016344014  0.015869559           99 
 2632000   0.82923872   -7.9250843    515.08106  0.016308291  0.015863607           68 
 2633000     0.819399   -7.9394126    513.81788  0.016262118  0.015857668           87 
 2634000    0.8282884   -7.9466226    514.58224  0.016280126  0.015851722           87 
 2635000   0.84372026   -7.9186286    513.80649  0.016249415  0.015845737          112 
 2636000   0.83092807   -7.9526488    513.57105  0.016235807   0.01583975          140 
 2637000   0.83223712   -7.9483846    515.03473  0.016275905  0.015833775          147 
 2638000   0.82598737   -7.9383664    515.47712   0.01628371  0.015827807          206 
 2639000   0.84543384   -7.9179889    516.58017  0.016312371  0.015821848          173 
 2640000   0.84267438   -7.9656652    514.85857  0.016251849   0.01581589          189 
 2641000   0.85355684   -7.9758932     514.5466  0.016235851  0.015809973          177 
 2642000   0.82317389   -7.9568905    514.97915  0.016243349  0.015804031          224 
 2643000    0.8263751   -7.9441819    515.39732  0.016250389  0.015798058          245 
 2644000   0.82599131   -7.9380323    515.48674  0.016247061  0.015792128          239 
 2645000   0.82772229   -7.9334756    514.33358  0.016204587  0.015786197          226 
 2646000   0.83809869    -7.950336    514.94331  0.016217665  0.015780277          274 
 2647000    0.8167413   -7.9413479    514.71896  0.016204475  0.015774341          268 
 2648000   0.83129593   -7.9427282    515.62853   0.01622698  0.015768422          266 
 2649000    0.8467049   -7.9466203     515.2089  0.016207654  0.015762489          305 
 2650000    0.8298477   -7.9718322    515.80567  0.016220304  0.015756534          295 
 2651000   0.84810987   -7.9497937    514.74489   0.01618084  0.015750593          326 
 2652000   0.83051341   -7.9626708    515.34811  0.016193694  0.015744619          343 
 2653000   0.84534446   -7.9772244    513.81354  0.016139387  0.015738665          369 
 2654000   0.83161422   -7.9591157    514.59449  0.016157828  0.015732688          347 
 2655000   0.81523407   -7.9989346    515.11242  0.016167998  0.015726722          414 
 2656000   0.82539308   -7.9891705    515.69684  0.016180247  0.015720764          401 
 2657000   0.83252026    -8.003291    513.94951  0.016119355  0.015714794          372 
 2658000   0.82250886   -7.9887409    514.44021  0.016128675   0.01570881          467 
 2659000   0.83609639    -7.995223    514.68049  0.016130139  0.015702818          448 
 2660000   0.82568047   -8.0139061    514.42692  0.016116132  0.015696807          395 
 2661000   0.82226933   -8.0014967    515.98556  0.016158886  0.015690795          422 
 2662000   0.82425497   -7.9877663    515.39987  0.016134481  0.015684789          435 
 2663000   0.83565602   -7.9930661    514.10154  0.016087794  0.015678743          429 
 2664000   0.81713293   -7.9720199    514.81651   0.01610412  0.015672774          470 
 2665000     0.833518    -7.970451    514.21449  0.016079252  0.015666787          455 
 2666000   0.83170361   -7.9908644    513.95287  0.016065043  0.015660754          462 
 2667000   0.81509669   -8.0197547    513.18161  0.016034921  0.015654718          467 
 2668000    0.8373374   -8.0183172     513.7253  0.016045893   0.01564867          470 
 2669000   0.80998128   -8.0067879    513.27678  0.016025877  0.015642614          558 
 2670000   0.85134498     -8.03994    514.27566  0.016051051  0.015636527          520 
 2671000   0.82397559   -8.0633476    512.84546   0.01600042  0.015630475          548 
 2672000   0.82225677   -8.0162628    513.44984  0.016013281  0.015624428          544 
 2673000   0.81931105   -8.0024967     514.4978  0.016039961  0.015618403          573 
 2674000    0.8270221   -8.0133704    514.70619  0.016040457  0.015612378          614 
 2675000    0.8100545   -8.0200355    512.86795  0.015977195  0.015606367          585 
 2676000   0.83286809   -8.0200923    513.13578  0.015979565  0.015600353          598 
 2677000   0.82173148   -8.0530712    512.93044  0.015967203  0.015594307          582 
 2678000   0.81571426   -8.0128655    513.72302  0.015985904  0.015588273          630 
 2679000   0.82087461   -8.0421864    513.02956  0.015958366  0.015582224          627 
 2680000   0.82718571   -8.0711923    512.54771  0.015937429  0.015576183          673 
 2681000    0.8356406   -8.0496012    513.51775  0.015961636  0.015570137          673 
 2682000   0.84273519   -8.0685017    513.47142  0.015954245  0.015564085          687 
 2683000   0.83414315   -8.0818226    512.56644   0.01592019  0.015558013          729 
 2684000   0.81934959   -8.0795569    513.11524  0.015931298  0.015551938          796 
 2685000   0.82408534   -8.0708418    513.12066  0.015925533  0.015545875          869 
 2686000   0.81351515   -8.0968887    512.20431  0.015891174    0.0155398          855 
 2687000   0.80911622   -8.0809298    512.10061  0.015882043  0.015533708          933 
 2688000   0.81708039   -8.0692108    513.34698  0.015914775  0.015527604          936 
 2689000     0.805663   -8.0801125    511.98873  0.015866764  0.015521473          933 
 2690000   0.81686507   -8.0692394    512.85468  0.015887691  0.015515344          973 
 2691000   0.81148529    -8.121272    513.42644  0.015899493  0.015509201         1051 
 2692000   0.81331044   -8.1338029     512.0134  0.015849845  0.015503027         1061 
 2693000   0.81148638   -8.1312461    510.93705  0.015810653  0.015496828         1111 
 2694000   0.81913509    -8.153329    511.66666  0.015827353   0.01549065         1175 
 2695000   0.81234299   -8.1532619    510.40068  0.015782334  0.015484446         1155 
 2696000   0.83336598   -8.1551799    510.94664  0.015793355  0.015478245         1072 
 2697000   0.82220065   -8.1756286    510.62172   0.01577746  0.015472038         1268 
 2698000    0.7955919   -8.1424163    510.69434  0.015773855  0.015465831         1181 
 2699000   0.81539546   -8.1818206    509.71385  0.015737738  0.015459614         1238 
 2700000   0.83142751   -8.1703803    510.38836  0.015752727  0.015453387         1228 
 2701000   0.81403273   -8.1352251    511.76314  0.015789311  0.015447168         1203 
 2702000    0.8282686   -8.1844963    510.69376  0.015750486  0.015440923         1429 
 2703000   0.81385408   -8.2138467    509.67615  0.015713286  0.015434684         1454 
 2704000   0.81831073   -8.1831908     510.7864  0.015741691  0.015428428         1409 
 2705000   0.81846265   -8.2252154    509.77343  0.015704665   0.01542219         1475 
 2706000   0.82231826   -8.2201214    509.59394  0.015693334  0.015415929         1545 
 2707000   0.81420929   -8.1963718    510.34954  0.015710797  0.015409661         1488 
 2708000   0.83222516   -8.2076119    509.28211  0.015672148  0.015403399         1526 
 2709000   0.82784578   -8.2125658    510.51948  0.015704426  0.015397136         1536 
 2710000     0.797418   -8.2068573    509.55386  0.015668938   0.01539088         1631 
 2711000   0.82587346   -8.2388616    509.14512  0.015650594  0.015384601         1634 
 2712000   0.82106284   -8.2281955    509.20016  0.015646514  0.015378323         1615 
 2713000   0.82490803   -8.2285673    509.18357  0.015640237  0.015372041         1677 
 2714000    0.7987111   -8.2302744    509.91025  0.015656787  0.015365722         1771 
 2715000   0.82675921   -8.2600595    508.60155  0.015610852  0.015359397         1747 
 2716000   0.81284683   -8.2549772    509.41565  0.015630083  0.015353064         1889 
 2717000   0.81406194   -8.2961377    507.65433  0.015570308  0.015346711         1874 
 2718000     0.811302    -8.299411    508.29482  0.015584217  0.015340339         1940 
 2719000   0.81811501   -8.2842867    506.99832   0.01553875  0.015333961         1933 
 2720000    0.8181103   -8.3078585    507.59298  0.015551255  0.015327582         1965 
 2721000   0.82426211   -8.3342895    507.57376  0.015544952  0.015321195         2114 
 2722000   0.82207749   -8.3026946    507.58287   0.01553952  0.015314775         2179 
 2723000   0.82642513   -8.3437421    506.75054  0.015508341  0.015308334         2228 
 2724000   0.80973402   -8.3509896    506.73139  0.015502062  0.015301895         2346 
 2725000   0.83456256     -8.35929    507.60076  0.015522959  0.015295428         2461 
 2726000   0.82268573   -8.3216099     506.6406  0.015487913  0.015288942         2373 
 2727000   0.81799897    -8.367587    505.70826  0.015453742  0.015282451         2477 
 2728000   0.82468392   -8.3882332    505.57459  0.015443994  0.015275939         2534 
 2729000   0.80936726    -8.395722    506.43931   0.01546474  0.015269413         2611 
 2730000    0.8246393   -8.4005813    505.70771  0.015436743  0.015262874         2676 
 2731000   0.81363713   -8.4102357    504.17517  0.015384327  0.015256324         2635 
 2732000   0.82279701   -8.3816401    506.11644   0.01543791  0.015249792         2747 
 2733000   0.82447349   -8.4315012     504.2663  0.015375848  0.015243239         2785 
 2734000   0.80486794   -8.4379261    504.53982  0.015378561  0.015236684         2845 
 2735000   0.78436643   -8.4336888    504.86885  0.015382963  0.015230113         2803 
 2736000   0.80112354   -8.4533178    504.02768   0.01535172  0.015223539         2908 
 2737000   0.80543717   -8.4214985    505.44756  0.015389342  0.015216939         3013 
 2738000   0.80069043   -8.4584427     503.6112  0.015327831  0.015210334         3031 
 2739000   0.83630377   -8.4472734    504.72013  0.015355973  0.015203708         3076 
 2740000   0.81384005   -8.4740875    503.10166  0.015301145  0.015197091         3137 
 2741000   0.81614309   -8.4420412    504.79629  0.015347084  0.015190459         3085 
 2742000   0.83206665   -8.5282486    502.73831  0.015278942  0.015183798         3189 
 2743000   0.80744322   -8.5195905     502.9358  0.015279372   0.01517711         3189 
 2744000   0.81634024   -8.5096197    503.17822  0.015281166  0.015170399         3199 
 2745000   0.80386861   -8.5254683    502.19947  0.015245885  0.015163702         3211 
 2746000   0.80764974   -8.5148253    502.15344  0.015238937  0.015156999         3262 
 2747000   0.82040137   -8.5551221    500.96471  0.015197328  0.015150279         3411 
 2748000   0.80312869   -8.5643154    500.74714  0.015185199  0.015143533         3409 
 2749000   0.81396073   -8.5401102    501.71307  0.015208957  0.015136774         3537 
 2750000   0.81954208   -8.5728213    501.49262  0.015196746  0.015130011         3503 
 2751000   0.81440083   -8.5647852    501.41251  0.015188795  0.015123237         3530 
 2752000   0.82084592   -8.5591263    501.53829  0.015187085  0.015116451         3546 
 2753000   0.81468365   -8.6026568    500.81677  0.015159728  0.015109648         3629 
 2754000   0.79965201   -8.5754396    500.15473  0.015134191  0.015102848         3565 
 2755000   0.82180963   -8.5760591    500.33479  0.015134144  0.015096059         3632 
 2756000   0.79746425   -8.6155082    499.80575  0.015112656  0.015089251         3608 
 2757000   0.81378807   -8.5837535    501.13071  0.015147222  0.015082445         3633 
 2758000   0.80009925   -8.6126671    499.31842  0.015086972  0.015075634         3653 
 2759000   0.82332037   -8.5884896    499.30187  0.015081004  0.015068819         3671 
 2760000   0.81603077   -8.6266098    499.84856  0.015092046  0.015062011         3702 
 2761000   0.80749071   -8.6004291    500.10367  0.015094279  0.015055179         3733 
 2762000   0.79743273   -8.6088362    499.80798  0.015079893  0.015048352         3676 
 2763000   0.82252062    -8.607278    500.74113  0.015102579  0.015041531         3698 
 2764000   0.80228292   -8.6184429    499.29544  0.015053529  0.015034712         3705 
 2765000   0.82176537   -8.6266725    499.54553  0.015055622  0.015027897         3750 
 2766000   0.81708049   -8.6428203    500.14165  0.015068138  0.015021062         3747 
 2767000   0.78101933   -8.6190848    499.69798  0.015049331  0.015014234         3719 
 2768000   0.81448396   -8.6325618    499.15433  0.015027527  0.015007395         3769 
 2769000    0.8185046   -8.5907886    499.72459  0.015039262  0.015000563         3750 
 2770000   0.82954084   -8.6583808    499.05957  0.015013826  0.014993724         3732 
 2771000   0.80022686   -8.6288481    499.83855  0.015031834  0.014986885         3787 
 2772000   0.78854665   -8.6485322    498.54492  0.014987522  0.014980038         3801 
 2773000   0.81106846   -8.6163141    500.35676  0.015036566  0.014973175         3799 
 2774000    0.8228134   -8.6629656     499.0021   0.01499045  0.014966326         3804 
 2775000   0.81055013   -8.6389025    499.58629  0.015002591  0.014959476         3741 
 2776000   0.82380074   -8.6226094    499.20168  0.014985641  0.014952637         3773 
 2777000   0.80207638    -8.645439    499.19944  0.014980178  0.014945791         3801 
 2778000   0.79956417   -8.6492258    498.56322    0.0149557  0.014938945         3767 
 2779000   0.81244219   -8.6582272    497.75423  0.014926059  0.014932093         3806 
 2780000   0.80614813   -8.6364849    500.15165  0.014992556  0.014925254         3827 
 2781000   0.80862393   -8.6491444    499.62954  0.014971519  0.014918413         3800 
 2782000   0.80636576   -8.6678643    497.67138  0.014907482  0.014911575         3801 
 2783000   0.78367368   -8.6532059    498.51477   0.01492738  0.014904737         3747 
 2784000   0.81665566   -8.6812767    498.31223  0.014915955  0.014897897         3798 
 2785000   0.80635672   -8.6814199    498.41194  0.014913583  0.014891056         3830 
 2786000   0.79406137    -8.656479     498.4931  0.014910657  0.014884212         3801 
 2787000   0.80065731   -8.6890928    498.34722  0.014900945  0.014877355         3810 
 2788000   0.82079804   -8.6804947    498.29704  0.014894101  0.014870508         3822 
 2789000    0.8128435   -8.6843951    497.60208  0.014867996  0.014863665         3848 
 2790000   0.81209499   -8.6518575    498.22901  0.014881392  0.014856819         3808 
 2791000   0.79241961    -8.680517    498.10742   0.01487243  0.014849973         3790 
 2792000   0.80670088   -8.6821769    497.39618  0.014845874  0.014843133         3808 
 2793000   0.81179078   -8.6741961    497.87365  0.014854805  0.014836284         3801 
 2794000   0.80903262   -8.6660831    497.49891  0.014838311  0.014829441         3840 
 2795000   0.79339322   -8.6917192    497.84207  0.014843234  0.014822589         3785 
 2796000   0.78205131   -8.7034187    498.08646  0.014845209  0.014815735         3861 
 2797000   0.79707584   -8.6654207    498.24067  0.014844496  0.014808887         3825 
 2798000   0.81102682   -8.6823942    497.99351   0.01483183  0.014802042         3812 
 2799000   0.80374304   -8.6843348     498.2324  0.014833643  0.014795206         3836 
 2800000   0.81873826   -8.6765695    498.85299  0.014846815  0.014788373         3852 
 2801000   0.80725693   -8.6820857    497.47455  0.014800504  0.014781542         3830 
 2802000   0.81241438   -8.6856069    497.73341  0.014802921  0.014774694         3842 
 2803000    0.8167258   -8.6795411    497.97435  0.014804803  0.014767862         3836 
 2804000   0.78900729   -8.7162169     496.8115  0.014764964  0.014761018         3869 
 2805000   0.80522037    -8.701146    497.98959    0.0147947  0.014754184         3887 
 2806000   0.81224161   -8.6952206    497.64407  0.014779166  0.014747346         3883 
 2807000   0.78328502   -8.6883225     498.1362  0.014788511  0.014740512         3860 
 2808000   0.78127865    -8.682228    497.34929  0.014759891  0.014733681         3858 
 2809000   0.80738043   -8.6917923    497.82578  0.014768772  0.014726848         3865 
 2810000   0.77757881   -8.7024613    498.21234   0.01477498  0.014720023         3814 
 2811000   0.80076713   -8.7046792    497.55564  0.014750256  0.014713199         3861 
 2812000   0.80004208   -8.7125666    497.98364  0.014757694  0.014706387         3888 
 2813000   0.80797848   -8.6861098    497.56925  0.014740172  0.014699575         3844 
 2814000   0.80542367   -8.6979102    498.17874  0.014752983   0.01469276         3826 
 2815000   0.80702053   -8.6984619     498.3174  0.014751847  0.014685943         3867 
 2816000   0.79687351   -8.6801391    498.55173  0.014753543   0.01467913         3849 
 2817000   0.81271702   -8.7056078    497.45913  0.014715984  0.014672323         3868 
 2818000   0.80019429   -8.6734204    498.30478  0.014735769  0.014665519         3816 
 2819000   0.80914331   -8.7058504    496.71756  0.014683622  0.014658717         3872 
 2820000   0.78798825   -8.6986223    496.99357  0.014686571  0.014651926         3875 
 2821000   0.80275728   -8.7143976    497.37433  0.014692613  0.014645142         3878 
 2822000   0.80325499   -8.6915559    498.12143  0.014709468  0.014638355         3881 
 2823000   0.80146834   -8.7021681    497.29187  0.014679769  0.014631554         3834 
 2824000   0.80699189   -8.6903276    497.92479  0.014693248  0.014624763         3810 
 2825000   0.80462471    -8.686135       497.27  0.014668732  0.014617975         3863 
 2826000    0.8313119   -8.6884207    497.37821  0.014666732  0.014611191         3858 
 2827000   0.77969761   -8.7056296    496.43524  0.014633747  0.014604415         3827 
 2828000   0.80535872    -8.699429     497.5448  0.014661268  0.014597631         3854 
 2829000   0.79782156   -8.6758414    498.64483  0.014688489   0.01459086         3856 
 2830000   0.79042394   -8.7149199    497.27698  0.014643021  0.014584083         3843 
 2831000   0.80576755   -8.7080397    497.35101  0.014640027  0.014577309         3885 
 2832000   0.79341122   -8.7112863    497.45752  0.014637992  0.014570534         3834 
 2833000   0.79502165   -8.6895869    497.84688  0.014644278  0.014563782         3825 
 2834000    0.8133059   -8.7344095     497.2544  0.014621689  0.014557024         3854 
 2835000   0.79731563     -8.68706    498.41466  0.014650637  0.014550262         3797 
 2836000   0.79768822   -8.7329053    497.27056  0.014611852  0.014543511         3848 
 2837000   0.79931511   -8.6922064    497.90289  0.014625276  0.014536754         3835 
 2838000   0.81032746    -8.704255    497.09578  0.014596423  0.014530008         3824 
 2839000   0.78782417   -8.7234923    497.14177  0.014592632  0.014523263         3864 
 2840000   0.79115483   -8.7093152    497.89758  0.014609671  0.014516523         3855 
 2841000   0.81365953   -8.7133616    497.31606  0.014587471  0.014509785         3807 
 2842000   0.78255641   -8.7177942    497.27333  0.014581085  0.014503054         3824 
 2843000   0.80246403   -8.6690263    497.36195  0.014578554  0.014496312         3827 
 2844000   0.78561246   -8.6931028    497.76443  0.014585221  0.014489591         3867 
 2845000   0.81218281   -8.6994466    497.45599   0.01457106  0.014482861         3824 
 2846000   0.81395298   -8.7232776     497.6944  0.014572921  0.014476134         3843 
 2847000   0.79284882   -8.7156068    497.30615  0.014556438  0.014469412         3848 
 2848000   0.80854385   -8.7043279    497.48562  0.014556578  0.014462698         3849 
 2849000   0.80701573   -8.7117302    497.00731  0.014537478   0.01445599         3853 
 2850000   0.79709111   -8.7191104    497.24253  0.014539255  0.014449273         3835 
 2851000   0.78886873   -8.7082037    497.30572  0.014536002  0.014442563         3871 
 2852000   0.79241507    -8.708925    496.94348  0.014520321  0.014435851         3851 
 2853000   0.80509439   -8.7026831    496.91204  0.014514313  0.014429141         3840 
 2854000   0.78311425   -8.6963913    498.10453  0.014544047  0.014422437         3828 
 2855000   0.76726933   -8.7349109    497.16469  0.014511521  0.014415731         3852 
 2856000   0.79062467   -8.7183422    497.69681  0.014521966  0.014409028         3836 
 2857000   0.79377438   -8.7157573    496.92186  0.014494279   0.01440233         3867 
 2858000   0.80049074   -8.7173895    497.85859   0.01451652  0.014395624         3843 
 2859000   0.79598299   -8.7124352    497.11232  0.014489691  0.014388924         3828 
 2860000   0.79649408   -8.7211369    497.34174  0.014491309  0.014382238         3828 
 2861000   0.78459232   -8.7206394    497.08657  0.014478812  0.014375554         3862 
 2862000   0.77853178   -8.6941929    497.95759  0.014499115  0.014368877         3847 
 2863000   0.80367808   -8.7438071    496.54806  0.014453023    0.0143622         3856 
 2864000   0.80612644   -8.7332514    497.34357  0.014471123  0.014355521         3834 
 2865000   0.79953949   -8.6954885    497.72265  0.014477099  0.014348853         3831 
 2866000   0.78440987   -8.7199129    497.05097  0.014452517  0.014342193         3831 
 2867000   0.79166188   -8.7522088    496.49088  0.014431196  0.014335524         3889 
 2868000   0.79854169   -8.7220251    497.83801  0.014465307  0.014328858         3894 
 2869000   0.79777825    -8.727471    496.37377  0.014417735  0.014322194         3870 
 2870000   0.77098875   -8.7228157    496.78516  0.014424656  0.014315542         3859 
 2871000   0.79241225   -8.7383264    497.61597  0.014443747  0.014308877         3867 
 2872000   0.79865686   -8.7318297    496.33627  0.014401586  0.014302216         3852 
 2873000   0.81056508   -8.7139889    497.72117  0.014436744  0.014295576         3884 
 2874000   0.76731948   -8.7427298    496.90526  0.014408062   0.01428892         3871 
 2875000   0.79237067   -8.6980232    497.39684    0.0144173  0.014282273         3885 
 2876000   0.79081239   -8.7273928    497.05995  0.014402525  0.014275631         3889 
 2877000    0.8000758   -8.7314974    497.20636   0.01440176  0.014268989         3865 
 2878000   0.81291814   -8.7159649    497.23116  0.014397474  0.014262349         3837 
 2879000    0.7832989   -8.7058027    497.20123  0.014391607  0.014255713         3890 
 2880000   0.79399401   -8.7259358    497.58624   0.01439775  0.014249076         3853 
 2881000    0.7803495   -8.7159544    496.86389  0.014371858  0.014242438         3849 
 2882000   0.80148369   -8.7273859    495.41663  0.014325024  0.014235809         3850 
 2883000   0.79063659   -8.7133627    495.99838  0.014336871  0.014229183         3827 
 2884000   0.78208781   -8.7310699     497.3896  0.014372099  0.014222559         3874 
 2885000   0.79338105   -8.7237288    496.41006  0.014338823  0.014215946         3861 
 2886000   0.80116948    -8.715494    496.50633  0.014336635  0.014209324         3837 
 2887000   0.78367476   -8.7276004    496.60867  0.014334623  0.014202705         3850 
 2888000   0.78659704   -8.7203545     496.6519  0.014330907  0.014196086         3844 
 2889000   0.78268654   -8.7467399    496.84568  0.014331536  0.014189469         3866 
 2890000   0.78705294   -8.7082913    497.00457  0.014331158  0.014182866         3834 
 2891000   0.78326089   -8.6891569    497.58483  0.014342927  0.014176266         3827 
 2892000   0.78632032   -8.7003592    497.44029  0.014333803  0.014169669         3836 
 2893000   0.78988347   -8.7237879    497.46255  0.014329489  0.014163075         3853 
 2894000    0.7895723    -8.716416    496.68434  0.014302129  0.014156492         3867 
 2895000   0.78288234   -8.7395742    496.43933  0.014290136  0.014149907         3854 
 2896000   0.79955227   -8.7093537    497.09106  0.014303956  0.014143324         3854 
 2897000   0.79464348   -8.7342684     496.4976  0.014281947  0.014136738         3840 
 2898000   0.79140266   -8.7380863    495.85826  0.014258634  0.014130158         3828 
 2899000   0.80237482   -8.7536783    495.70115  0.014249199  0.014123591         3878 
 2900000   0.80600189    -8.713832    497.81805  0.014305117  0.014117016         3869 
 2901000   0.80769375   -8.7249435    497.62602  0.014294669  0.014110455         3853 
 2902000   0.81199553   -8.7350735    496.93569   0.01426992  0.014103887         3863 
 2903000   0.78710496    -8.741464    496.00162  0.014238191  0.014097319         3861 
 2904000   0.78946047   -8.7279478    497.38249  0.014272914  0.014090757         3843 
 2905000   0.79202797   -8.7141594    497.08503  0.014259467  0.014084201         3868 
 2906000    0.8020547   -8.7585826    495.38878  0.014205918  0.014077637         3855 
 2907000   0.78306232   -8.7336654    496.93283  0.014245294  0.014071077         3867 
 2908000   0.79659434   -8.7478106    496.87388  0.014238706  0.014064518         3840 
 2909000   0.79080965   -8.7514357    496.88144  0.014234028  0.014057967         3877 
 2910000   0.79432943   -8.7115371    496.55537  0.014219799  0.014051429         3871 
 2911000   0.78790452   -8.7475192    495.69589  0.014190309   0.01404488         3850 
 2912000   0.79043363   -8.7492151    496.60366  0.014211414  0.014038342         3869 
 2913000   0.77353808   -8.7327927     496.7903  0.014211875  0.014031809         3868 
 2914000   0.79116692   -8.7684444     496.1162   0.01418772  0.014025276         3869 
 2915000   0.77140711   -8.7336792    496.81977  0.014202966  0.014018742         3856 
 2916000   0.76979691   -8.7258957    497.14351  0.014207348  0.014012212         3859 
 2917000   0.80466928   -8.7558336    496.62882  0.014187773  0.014005685         3873 
 2918000   0.77102334   -8.7562722    495.93986  0.014163236   0.01399916         3875 
 2919000   0.78281114   -8.7403649    497.18039  0.014193799  0.013992644         3857 
 2920000   0.78837977   -8.7382693    496.44851  0.014168051  0.013986128         3858 
 2921000   0.78251242   -8.7425281    496.48562  0.014164259  0.013979609         3878 
 2922000   0.79425674   -8.7265883    497.35236  0.014184131  0.013973108         3867 
 2923000   0.80262727   -8.7217872    497.18564  0.014174525   0.01396661         3898 
 2924000   0.78505811   -8.7351812    495.88724  0.014132673  0.013960118         3875 
 2925000   0.79806896    -8.754235     497.0282  0.014160347  0.013953636         3890 
 2926000   0.79119277   -8.7507971      497.026  0.014155446  0.013947132         3826 
 2927000   0.77780232    -8.729137    496.05809  0.014123052  0.013940646         3899 
 2928000   0.77828307   -8.7228261    496.16793  0.014121355  0.013934174         3897 
 2929000   0.76063033   -8.7466475    496.65187  0.014130303  0.013927695         3873 
 2930000   0.79661844   -8.7014258    497.36993  0.014145902  0.013921225         3890 
 2931000   0.77275898   -8.7339178    496.91747  0.014128212  0.013914756         3873 
 2932000   0.78757378   -8.7266735    495.59755  0.014085878  0.013908282         3853 
 2933000   0.79540535   -8.7602183    496.48096  0.014106176  0.013901802         3886 
 2934000   0.79095438   -8.7551595    496.28653  0.014095846  0.013895349         3862 
 2935000    0.7801165   -8.7199353    496.22562  0.014089314  0.013888887         3866 
 2936000   0.78808096   -8.7479336    495.64147  0.014067935  0.013882432         3912 
 2937000   0.78532262   -8.7297863    497.01695  0.014102172   0.01387598         3865 
 2938000    0.7738064   -8.7254473    495.98252  0.014068031  0.013869524         3904 
 2939000   0.80436707   -8.7148307    495.54392  0.014050809  0.013863073         3881 
 2940000   0.79109725   -8.7433724    496.28992  0.014067175  0.013856625         3875 
 2941000   0.78791669   -8.7440028    496.15302  0.014058512   0.01385018         3874 
 2942000   0.78049622    -8.726861     496.1645  0.014054059  0.013843731         3882 
 2943000   0.77641785   -8.7378746    496.45185   0.01405742  0.013837298         3885 
 2944000   0.78556468   -8.7347687    497.31203  0.014076993  0.013830862         3908 
 2945000   0.78880335   -8.7468494    496.33329  0.014044519  0.013824438         3881 
 2946000   0.75953202   -8.7431893    496.57466  0.014046579  0.013817998         3894 
 2947000   0.77594159   -8.7482858    496.78828  0.014047853  0.013811571         3904 
 2948000    0.7847047   -8.7481172    496.33328  0.014030226  0.013805144         3899 
 2949000   0.76410384   -8.7613244    496.27734  0.014023888  0.013798721         3856 
 2950000   0.76023421   -8.7307047    495.84274  0.014006857  0.013792295         3873 
 2951000   0.78777927   -8.7703942    496.22536  0.014012915  0.013785876         3886 
 2952000   0.77970882   -8.7719305    496.22994  0.014008298  0.013779451         3867 
 2953000   0.78069515   -8.7410444    496.65956  0.014015678   0.01377304         3886 
 2954000   0.78451941   -8.7455657    496.00976  0.013992602   0.01376663         3877 
 2955000   0.77682806   -8.7617428    495.84838  0.013983316  0.013760223         3894 
 2956000    0.7825439   -8.7609521    495.88184  0.013979529  0.013753825         3880 
 2957000   0.76733046   -8.7306056    496.48643   0.01399184  0.013747429         3871 
 2958000   0.77834573   -8.7562469    496.21275  0.013979399  0.013741035         3860 
 2959000   0.78481674   -8.7469512    495.25335  0.013947655  0.013734634         3874 
 2960000   0.80773794   -8.7665487    495.73559   0.01395652  0.013728236         3887 
 2961000   0.77409898   -8.7679141    496.51549  0.013973756  0.013721846         3859 
 2962000   0.77123166   -8.7211535    497.73556  0.014003364  0.013715464         3842 
 2963000   0.78562797   -8.7486882    495.57882   0.01393798  0.013709083         3906 
 2964000   0.78646258   -8.7732814    495.36913  0.013927382  0.013702713         3879 
 2965000   0.77294489   -8.7453365    496.38495  0.013951235  0.013696332         3882 
 2966000   0.77418076   -8.7499513    496.58693  0.013952206  0.013689959         3892 
 2967000   0.77939461   -8.7698568    496.05488   0.01393256  0.013683586         3859 
 2968000   0.79113866   -8.7542866    496.16691  0.013931012  0.013677215         3874 
 2969000   0.78671236   -8.7665541    495.24901  0.013900556  0.013670845         3863 
 2970000   0.78662644   -8.7599309     495.7159  0.013908976  0.013664472         3893 
 2971000   0.77445279   -8.7644074    496.58145  0.013928572  0.013658118         3884 
 2972000   0.77335118    -8.771295    496.09831  0.013910338  0.013651756         3886 
 2973000   0.78052515   -8.7738159    495.49764  0.013888823  0.013645399         3873 
 2974000   0.77921916   -8.7695877    496.46539   0.01391127  0.013639045         3852 
 2975000   0.77575595   -8.7596783    497.01192  0.013921903  0.013632697         3883 
 2976000   0.79099638   -8.7770581    496.22835  0.013895283  0.013626347         3863 
 2977000   0.77951955   -8.7778344    495.44635  0.013868725  0.013619999         3885 
 2978000   0.77593038   -8.7594762    495.58345  0.013867905  0.013613654         3844 
 2979000   0.77151001   -8.7749424    495.47641  0.013860256   0.01360731         3899 
 2980000   0.77033272   -8.7578864    496.54538  0.013885497  0.013600974         3875 
 2981000   0.76853609   -8.7696788    496.94425   0.01389199  0.013594637         3877 
 2982000   0.77660787   -8.7457689    495.67754  0.013851932  0.013588297         3874 
 2983000   0.77588915   -8.7645648    495.91334  0.013853876  0.013581969         3885 
 2984000   0.77503092   -8.7602543    496.19466  0.013857089   0.01357563         3917 
 2985000   0.78184199   -8.7724617    496.62411  0.013864436  0.013569317         3872 
 2986000   0.77702406   -8.7712326    495.54256  0.013829609  0.013562998         3876 
 2987000   0.78103263   -8.7842036    494.78424  0.013803823  0.013556669         3867 
 2988000   0.77270224   -8.7560511    495.96241  0.013832062  0.013550356         3877 
 2989000   0.77166027   -8.7504448    496.21317  0.013834426   0.01354404         3878 
 2990000   0.77691767   -8.7652003     495.6134  0.013813083  0.013537727         3860 
 2991000   0.78510688   -8.7673922    496.16501  0.013823833  0.013531418         3903 
 2992000   0.77880199   -8.7532635    495.59611  0.013803367  0.013525125         3858 
 2993000   0.76279238   -8.7501817    495.96612  0.013809058   0.01351882         3872 
 2994000   0.74907077   -8.7746354     495.3232  0.013786551  0.013512521         3894 
 2995000   0.76319861   -8.7871056    495.82041  0.013795782  0.013506221         3861 
 2996000   0.77710162   -8.7704802    495.03199  0.013769248  0.013499926         3870 
 2997000    0.7728275   -8.7655466    495.59552  0.013780323   0.01349363         3878 
 2998000   0.76576621   -8.7942183    495.82137  0.013782004  0.013487334         3874 
 2999000   0.79962603   -8.7673725    496.26636  0.013789773  0.013481045         3870 
 3000000   0.75988151    -8.795429    495.17439  0.013754844  0.013474765         3844 
 3001000   0.77223704   -8.7700885    495.92878  0.013771209  0.013468493         3887 
 3002000   0.76167236   -8.7613411    496.73148  0.013788904  0.013462208         3906 
 3003000   0.76737984   -8.7662378    495.36045  0.013746266  0.013455928         3889 
 3004000   0.76745843   -8.7727801    495.62556  0.013749045  0.013449659         3880 
 3005000   0.75001659   -8.7626146    496.05666  0.013756424   0.01344339         3862 
 3006000   0.77210133   -8.7564296     496.0632  0.013752029  0.013437126         3852 
 3007000   0.76597432   -8.7678467    495.84752  0.013741479  0.013430862         3884 
 3008000   0.77843317   -8.7706644    495.94975  0.013739743  0.013424603         3920 
 3009000    0.7586974   -8.7867652    496.18028  0.013741561  0.013418358         3903 
 3010000   0.77560002   -8.8059471    494.47053   0.01368966  0.013412103         3886 
 3011000   0.76460371   -8.7574276    495.05296  0.013701233  0.013405852         3864 
 3012000   0.76478533   -8.7902299    496.14363   0.01372686  0.013399611         3917 
 3013000   0.76037941   -8.7750036    495.11786  0.013693933  0.013393373         3887 
 3014000   0.77524954   -8.7762635    495.58711  0.013702364  0.013387148         3887 
 3015000   0.76804481   -8.7669385     495.9609  0.013708151  0.013380914         3885 
 3016000   0.74976642   -8.7690605    495.17488  0.013681888  0.013374684         3870 
 3017000   0.77869407   -8.7782055    496.44741  0.013712502  0.013368462         3877 
 3018000   0.78669974   -8.7660124    496.83736  0.013718725  0.013362246         3872 
 3019000   0.77994779   -8.8115194    494.70246  0.013655252   0.01335603         3902 
 3020000   0.77319188   -8.7766203     495.4896   0.01367245  0.013349803         3878 
 3021000   0.76441445    -8.782099    495.37185  0.013664677  0.013343589         3883 
 3022000   0.77583388   -8.7827975    494.83769  0.013645425  0.013337384         3904 
 3023000   0.76943138   -8.7846976    495.31633  0.013654106  0.013331171         3880 
 3024000   0.77347616   -8.7969895    495.53753  0.013655686  0.013324964         3864 
 3025000   0.77568252    -8.796059     495.1079  0.013639336   0.01331876         3878 
 3026000    0.7678475   -8.7729667    495.99506   0.01365926  0.013312552         3896 
 3027000   0.77447942    -8.779391    494.32851  0.013608868  0.013306347         3845 
 3028000   0.76274182   -8.7793764     495.4255  0.013634563  0.013300148         3891 
 3029000   0.75895484   -8.7799667    495.51345  0.013632482  0.013293952         3886 
 3030000   0.77004725   -8.8130109    495.26652  0.013621191   0.01328776         3918 
 3031000   0.77692843   -8.7601088    496.72861  0.013656896  0.013281574         3862 
 3032000   0.75799901   -8.7722203    495.51713  0.013619094   0.01327538         3877 
 3033000   0.73222022   -8.7810881    494.85053  0.013596289  0.013269197         3879 
 3034000   0.76338361   -8.7793754    495.39913  0.013606876  0.013263015         3868 
 3035000   0.76922542   -8.7610664    495.65011  0.013609284  0.013256839         3874 
 3036000   0.74454514   -8.7839586    495.88515  0.013611252  0.013250668         3881 
 3037000   0.77377859   -8.7787307    494.62122  0.013572089  0.013244496         3847 
 3038000   0.77231754   -8.7906706    496.24851  0.013612259  0.013238321         3865 
 3039000   0.74576201   -8.7883325     494.1118  0.013549188  0.013232146         3874 
 3040000   0.76643461   -8.7926494    495.37711  0.013579417  0.013225982         3855 
 3041000   0.77250154   -8.7682934    495.58637  0.013580685  0.013219821         3873 
 3042000   0.77881721    -8.771358    495.68242  0.013578852  0.013213665         3884 
 3043000   0.76893851   -8.7904365    495.28054  0.013563384  0.013207507         3870 
 3044000   0.78290852   -8.8023325    494.71822  0.013543534  0.013201362         3864 
 3045000   0.76100645   -8.7839339    495.03787  0.013547835  0.013195212         3876 
 3046000   0.75532157   -8.7704993    494.56672  0.013530497  0.013189063         3884 
 3047000   0.77438936   -8.8003844    495.48608    0.0135512  0.013182924         3867 
 3048000    0.7443301   -8.7992521    495.17092  0.013538138   0.01317678         3862 
 3049000   0.77044785   -8.7650407    495.51277  0.013543041  0.013170644         3885 
 3050000   0.76877892   -8.8178907    495.46951  0.013537418  0.013164518         3865 
 3051000   0.74995057   -8.7776624    495.73866  0.013540333  0.013158389         3877 
 3052000   0.77246867   -8.7845476    495.41437  0.013527042  0.013152261         3856 
 3053000   0.77384133   -8.7989726    495.43613  0.013523205  0.013146132         3870 
 3054000   0.77531094   -8.8030688    494.86957  0.013503317  0.013140009         3875 
 3055000   0.75508376   -8.8094195    494.77348  0.013496276  0.013133896         3873 
 3056000   0.76902351   -8.7948992    496.03115  0.013526155  0.013127787         3858 
 3057000   0.74840726   -8.7943751    495.16481  0.013498114  0.013121684         3866 
 3058000   0.76578665   -8.7928547    495.76267  0.013509992  0.013115575         3888 
 3059000   0.75763959   -8.7991843    496.26892  0.013519367  0.013109475         3887 
 3060000   0.75106354   -8.8125898    495.49148  0.013493777  0.013103377         3910 
 3061000   0.76236882   -8.8131055    495.58547  0.013491927  0.013097276         3865 
 3062000    0.7610911   -8.8169313    494.55012  0.013459343  0.013091179         3889 
 3063000   0.72698398    -8.779891    495.20819  0.013472853  0.013085083         3893 
 3064000   0.75665514    -8.805541    495.84765  0.013485848  0.013078992         3848 
 3065000   0.77581595   -8.7849584     494.6561  0.013449051  0.013072905         3886 
 3066000    0.7688828   -8.7998843     494.7933  0.013448394  0.013066829         3870 
 3067000   0.76311997   -8.7720237    494.90322  0.013446996  0.013060747         3863 
 3068000   0.75092815   -8.7812225    495.51344  0.013459187  0.013054663         3881 
 3069000   0.74536176    -8.798447    495.05909  0.013442465  0.013048591         3891 
 3070000   0.78478283   -8.7930839    494.03457  0.013410276  0.013042514         3888 
 3071000   0.74861302   -8.8076743    495.11479  0.013435222   0.01303644         3890 
 3072000   0.76095919   -8.8237295    495.44264  0.013439742  0.013030376         3871 
 3073000   0.76034264   -8.7912537    495.11571  0.013426503  0.013024322         3893 
 3074000   0.76512575   -8.7851169    495.51627  0.013432994   0.01301827         3897 
 3075000   0.75986889   -8.8205863    494.88472   0.01341151   0.01301222         3887 
 3076000   0.76795544   -8.7972488    494.97893  0.013409702  0.013006177         3889 
 3077000    0.7504767   -8.7830657    494.70679  0.013397974  0.013000128         3878 
 3078000   0.76016747   -8.7993088    494.97711   0.01340094  0.012994082         3884 
 3079000   0.76011489   -8.7809543    494.88543  0.013394106  0.012988039         3861 
 3080000   0.75746134   -8.7842728    494.84824  0.013388751  0.012982002         3882 
 3081000   0.77191919   -8.8022107    494.49154  0.013374758  0.012975971         3868 
 3082000   0.73641838   -8.7924739    495.33963  0.013393349  0.012969932         3876 
 3083000    0.7477337   -8.8147519    494.99012  0.013379558    0.0129639         3871 
 3084000   0.74588879   -8.7697261    495.51257  0.013389337  0.012957877         3867 
 3085000   0.73866987   -8.7962722    494.44646  0.013356198  0.012951861         3876 
 3086000   0.77099941   -8.8154959    495.03131  0.013367663  0.012945851         3882 
 3087000   0.75866747     -8.81563    494.34147  0.013344711  0.012939836         3926 
 3088000    0.7544222   -8.8090476    494.56288  0.013346365  0.012933824         3894 
 3089000   0.75853909    -8.814788    495.80557  0.013375568  0.012927812         3880 
 3090000   0.78404993   -8.7954178    494.36774  0.013332463  0.012921795         3880 
 3091000   0.74950712    -8.817884    494.86525  0.013341563  0.012915792         3867 
 3092000   0.75809597   -8.8150361    495.35528  0.013350455  0.012909796         3874 
 3093000   0.75711872   -8.7848391    494.67121  0.013327708  0.012903795         3886 
 3094000   0.75058962   -8.8197867    495.33893  0.013341385  0.012897796         3890 
 3095000   0.77217367    -8.807257    494.37343  0.013311078  0.012891803         3922 
 3096000    0.7549382   -8.8060632    494.83616  0.013319233  0.012885808         3919 
 3097000   0.76221209   -8.8074051    494.70531  0.013311412  0.012879821         3913 
 3098000   0.74017969   -8.8317679    494.62932  0.013305071  0.012873847         3911 
 3099000   0.76908234   -8.8168957    493.43618  0.013268694  0.012867868         3888 
 3100000   0.74801014   -8.8047506    495.37438  0.013316516  0.012861891         3892 
 3101000   0.74117399    -8.794127    494.10037  0.013277985  0.012855923         3888 
 3102000   0.75165133   -8.8198754    495.20114  0.013303276  0.012849969         3914 
 3103000   0.75075673   -8.8014072     494.3966  0.013277382  0.012843999         3916 
 3104000    0.7461617   -8.8046511    495.40889  0.013300282  0.012838038         3907 
 3105000   0.75343414   -8.8149241    495.40398  0.013295866  0.012832076         3888 
 3106000   0.74492437   -8.7806676    495.10812  0.013283648  0.012826115         3875 
 3107000   0.75461369    -8.835328    494.46899   0.01326223  0.012820167         3877 
 3108000   0.76067325   -8.8358228    494.33091  0.013254261  0.012814218         3899 
 3109000   0.75255639   -8.8118169    494.09645  0.013243713  0.012808275         3908 
 3110000   0.76213116   -8.8299741    495.42003   0.01327492  0.012802331         3897 
 3111000   0.75989782   -8.8087322     495.0159  0.013259828  0.012796397         3907 
 3112000   0.74226379   -8.8190513    494.53454  0.013242677  0.012790461         3861 
 3113000   0.76174147   -8.8102491    494.91807   0.01324869  0.012784528         3877 
 3114000   0.74256745   -8.8110361    494.64675  0.013237175  0.012778596         3886 
 3115000   0.75999631    -8.808557    495.21115  0.013248024  0.012772667         3887 
 3116000   0.76987731   -8.8008538    494.41663  0.013222524  0.012766742         3884 
 3117000   0.74443472   -8.8092943    495.06077  0.013235503   0.01276082         3894 
 3118000    0.7603055   -8.8023733    494.58364  0.013218506  0.012754909         3849 
 3119000   0.75892959   -8.8215807    494.47765  0.013211437  0.012748992         3900 
 3120000   0.75525542    -8.813813    493.70304  0.013186513  0.012743079         3894 
 3121000   0.75450619   -8.7934096    494.68787  0.013208584  0.012737175         3881 
 3122000   0.75073424   -8.8078838    495.22916  0.013218801   0.01273127         3884 
 3123000   0.73704324   -8.8188086    494.29356  0.013189603  0.012725364         3884 
 3124000   0.74344619   -8.8135521    495.41712  0.013215352  0.012719475         3883 
 3125000   0.75871039   -8.8319447    495.06517  0.013201738  0.012713588         3866 
 3126000   0.75352263   -8.8037285    494.90877  0.013193345  0.012707692         3882 
 3127000   0.75008326   -8.8091674    493.55325  0.013153002  0.012701806         3894 
 3128000   0.75704647   -8.8083581    493.99145  0.013160471  0.012695922         3915 
 3129000   0.75382268   -8.8240419    494.12225  0.013159749  0.012690041         3896 
 3130000   0.75367829   -8.8243531    494.68802  0.013170607  0.012684166         3901 
 3131000   0.74760008   -8.8231586    494.48733   0.01316106  0.012678294         3897 
 3132000   0.75698768   -8.8024082     495.2519    0.0131772  0.012672421         3923 
 3133000   0.76238823   -8.8244554    494.96953  0.013165484  0.012666552         3907 
 3134000   0.75591454   -8.8365519    493.28824  0.013116577  0.012660695         3925 
 3135000   0.74985372   -8.8254251    494.87118   0.01315447  0.012654833         3894 
 3136000   0.74195261   -8.8215615    495.21714  0.013159469  0.012648973         3902 
 3137000   0.74696432    -8.804774     494.9488  0.013148146  0.012643124         3903 
 3138000   0.74202564   -8.8384254     494.8781  0.013142078  0.012637267         3889 
 3139000   0.75565651   -8.7968376    495.91447  0.013165405  0.012631422         3869 
 3140000    0.7632831   -8.8088293    494.88282  0.013133833  0.012625575         3891 
 3141000   0.75150754    -8.820711    494.72976  0.013125591  0.012619732         3905 
 3142000   0.75413681   -8.8079325    493.18806  0.013080524  0.012613892         3898 
 3143000   0.75671576   -8.8292697    494.77711  0.013118494  0.012608056         3881 
 3144000   0.74834539    -8.793282    494.75306  0.013113684  0.012602235         3903 
 3145000   0.75393522   -8.8155315    493.83047  0.013085068  0.012596402         3911 
 3146000   0.75067648   -8.8156159    494.35771  0.013094875  0.012590577         3904 
 3147000   0.74668392   -8.8129551    494.21615  0.013086965  0.012584759         3882 
 3148000   0.75766633   -8.8144214    494.27776  0.013084439  0.012578941         3886 
 3149000   0.74150583   -8.8111563    495.08513   0.01310165  0.012573117         3872 
 3150000   0.75460128   -8.8058883    494.21737  0.013074534  0.012567302         3890 
 3151000   0.73857083   -8.8123203    494.79897  0.013085766  0.012561487         3904 
 3152000   0.75127603   -8.8521698    493.99474  0.013060352  0.012555683         3888 
 3153000   0.74217551   -8.8004572    494.27872  0.013063715  0.012549869         3888 
 3154000   0.74468945    -8.817915    494.35524  0.013061595  0.012544065         3870 
 3155000   0.74512695   -8.8479472    493.85861  0.013044337  0.012538265         3879 
 3156000   0.74651058   -8.8390191    494.05748  0.013045455   0.01253247         3920 
 3157000   0.74173152   -8.8383199    493.87227  0.013036434  0.012526678         3906 
 3158000   0.74884317   -8.8223735    494.34834  0.013044869  0.012520881         3898 
 3159000   0.74789694   -8.8542235    494.23995   0.01303788  0.012515095         3888 
 3160000   0.73433789   -8.8431246    494.45879  0.013039525  0.012509312         3897 
 3161000   0.75735332   -8.8406105    494.04112  0.013024389  0.012503529         3889 
 3162000   0.74257793   -8.8188128    494.04088  0.013020264  0.012497756         3893 
 3163000   0.74124383   -8.8110357    494.44973  0.013026919  0.012491985         3905 
 3164000   0.74708155   -8.8422868    494.69615  0.013029292  0.012486224         3920 
 3165000   0.74340003   -8.8181157    494.15166  0.013010839  0.012480453         3896 
 3166000   0.75543939   -8.8412529    494.70849  0.013021386  0.012474692         3895 
 3167000   0.74935269   -8.8251665    494.55718  0.013013293  0.012468936         3879 
 3168000   0.73667834   -8.8425852    494.37106  0.013004289  0.012463182         3900 
 3169000   0.73863892   -8.8210899    493.94303   0.01298893  0.012457432         3867 
 3170000   0.72183354   -8.8168383    494.67345  0.013004034  0.012451681         3899 
 3171000   0.73429362   -8.8316667    494.07893  0.012984309  0.012445935         3889 
 3172000   0.75299914   -8.8038991    494.33999  0.012987074  0.012440195         3903 
 3173000   0.73452723   -8.8446178    494.08688  0.012976334  0.012434452         3903 
 3174000   0.75105895   -8.8316265    493.98711  0.012969626  0.012428714         3910 
 3175000   0.73570056    -8.827042    495.25315   0.01299877  0.012422982         3882 
 3176000   0.74333035   -8.8319988     495.0619   0.01298966  0.012417256         3878 
 3177000   0.74041032   -8.8453295    494.97356  0.012983254  0.012411528         3895 
 3178000    0.7543782   -8.8085372    495.96384  0.013005135  0.012405808         3889 
 3179000   0.72613628   -8.8154578    494.58382  0.012964869   0.01240009         3891 
 3180000   0.74886993    -8.847406    493.87218  0.012942143  0.012394364         3903 
 3181000    0.7369722   -8.8464364    493.47499  0.012927669   0.01238865         3875 
 3182000   0.75012665   -8.8435615    494.55194  0.012951811   0.01238294         3912 
 3183000   0.75313377   -8.8007726    494.99213  0.012959266  0.012377238         3883 
 3184000   0.72987546   -8.8184541    495.32569  0.012963926  0.012371535         3895 
 3185000   0.73742102   -8.8321098    494.19944  0.012930388  0.012365835         3904 
 3186000   0.74449098   -8.8350735    494.39095  0.012931339  0.012360133         3903 
 3187000   0.73271928   -8.8152431     494.6868  0.012935017  0.012354436         3879 
 3188000   0.74647916   -8.8397337    494.05235  0.012914376  0.012348742         3895 
 3189000   0.74075299   -8.8464744    493.42921  0.012894042  0.012343053         3906 
 3190000   0.74060098   -8.8341129    494.51614  0.012918394  0.012337364         3891 
 3191000   0.73182615   -8.8253596     495.0399  0.012928024  0.012331672         3907 
 3192000   0.75019508   -8.8320072    493.79573  0.012891493  0.012325992         3900 
 3193000   0.73966842    -8.857298    493.51931  0.012880241  0.012320313         3894 
 3194000    0.7447072   -8.8391994    493.40437  0.012873209  0.012314637         3883 
 3195000   0.74794719   -8.8330459    494.15451  0.012888746  0.012308967         3903 
 3196000   0.74555857   -8.8420621    493.86839  0.012877253  0.012303303         3890 
 3197000   0.74976198   -8.8514609    493.52343  0.012864233  0.012297639         3922 
 3198000   0.73532561   -8.8490206    493.76802  0.012866584  0.012291976         3909 
 3199000   0.74670653   -8.8397174     494.6781  0.012886269  0.012286316         3903 
 3200000   0.75192483   -8.8530909    494.14488  0.012868356  0.012280661         3918 
 3201000   0.72879284   -8.8218804    494.66712  0.012877932  0.012275006         3894 
 3202000   0.73358527   -8.8393179    493.74066  0.012849799  0.012269348         3883 
 3203000    0.7430222   -8.8312707    494.25145  0.012859076  0.012263694         3928 
 3204000   0.73006862      -8.8189    495.47648  0.012886925  0.012258047         3893 
 3205000   0.75044147   -8.8218435     495.0709  0.012872358  0.012252402         3920 
 3206000    0.7320612   -8.8304716    494.81953  0.012861809  0.012246757         3897 
 3207000   0.74691912   -8.8267083    494.37875  0.012846345  0.012241119         3888 
 3208000    0.7325292   -8.8274402    494.40814  0.012843104  0.012235488         3911 
 3209000    0.7555655   -8.8095177    494.32897  0.012837046  0.012229849         3891 
 3210000   0.73456489   -8.8492606    494.12561  0.012827768  0.012224219         3908 
 3211000   0.72499712    -8.839941     493.5516  0.012808876  0.012218593         3895 
 3212000    0.7331887   -8.8535435    494.45151  0.012828235  0.012212971         3923 
 3213000    0.7186873   -8.8398585    495.12057  0.012841596  0.012207352         3889 
 3214000   0.72860118   -8.8286946    493.80026  0.012803367   0.01220174         3911 
 3215000   0.73382474   -8.8170047       494.29  0.012812079  0.012196131         3896 
 3216000   0.74667321    -8.836511    494.26316    0.0128074  0.012190519         3912 
 3217000   0.74541862   -8.8610315    494.10011  0.012799195  0.012184918         3932 
 3218000   0.74872499    -8.846418    494.07209  0.012794492  0.012179317         3928 
 3219000   0.73036923   -8.8325738    494.10819  0.012791451  0.012173723         3912 
 3220000   0.73166612    -8.822478    493.96549  0.012783786  0.012168133         3907 
 3221000   0.74919044   -8.8465713     495.0595  0.012808121   0.01216254         3917 
 3222000   0.73198846   -8.8402143    494.62531  0.012792916  0.012156955         3886 
 3223000   0.74981904   -8.8336416    493.65777   0.01276393  0.012151371         3887 
 3224000   0.71890641   -8.8416296    493.18553  0.012747765  0.012145783         3910 
 3225000   0.73347459   -8.8142925    494.13983  0.012768471  0.012140204         3913 
 3226000   0.74949386   -8.8359131    493.65542     0.012752  0.012134635         3901 
 3227000   0.74555062   -8.8472077    493.20087   0.01273631  0.012129059         3916 
 3228000   0.73832558   -8.8367466     493.6931  0.012745072  0.012123493         3894 
 3229000   0.73213137   -8.8360262    492.51465  0.012710712  0.012117924         3887 
 3230000   0.72682446   -8.8385953    493.89978  0.012742512  0.012112361         3889 
 3231000    0.7348409   -8.8570799    492.52528  0.012703118  0.012106804         3898 
 3232000   0.73224433   -8.8372281    494.00812  0.012737421   0.01210125         3917 
 3233000   0.72853491   -8.8340883     494.2327  0.012739269  0.012095695         3899 
 3234000   0.75228438   -8.8327856    493.80541   0.01272432  0.012090146         3916 
 3235000   0.73921089   -8.8590517    494.79848  0.012745968  0.012084597         3931 
 3236000   0.72199703   -8.8397107    494.16997  0.012725844  0.012079045         3928 
 3237000   0.72882343   -8.8563283    492.76828  0.012685827  0.012073501         3910 
 3238000   0.74601107   -8.8388255    494.13722  0.012717141  0.012067962         3895 
 3239000     0.744807   -8.8495827    493.05781  0.012685443  0.012062428         3911 
 3240000   0.72721059   -8.8410333    494.11187  0.012708639  0.012056897         3935 
 3241000   0.72094003    -8.866689    493.81322  0.012697039  0.012051368         3908 
 3242000   0.72876002   -8.8332169    495.03775  0.012724598  0.012045836         3897 
 3243000   0.72208539   -8.8337789    494.32031  0.012702238  0.012040306         3923 
 3244000   0.73371243   -8.8653152     493.5609  0.012678815  0.012034783         3913 
 3245000    0.7411173   -8.8496468    494.30539  0.012694026   0.01202926         3909 
 3246000   0.70955292   -8.8382376    494.51571  0.012695515  0.012023744         3909 
 3247000   0.72940744   -8.8587826    492.93251  0.012650973  0.012018226         3913 
 3248000   0.72813326   -8.8388039    494.16545  0.012678711  0.012012717         3883 
 3249000   0.73511273   -8.8571038    494.06826  0.012672316  0.012007209         3914 
 3250000     0.736825   -8.8312701    494.56229  0.012681084  0.012001703         3902 
 3251000   0.73946976   -8.8439407    494.47761  0.012675013    0.0119962         3878 
 3252000    0.7435428   -8.8495592    493.37501  0.012642861    0.0119907         3917 
 3253000   0.74316317   -8.8333363     493.6261  0.012645407  0.011985203         3911 
 3254000   0.72947448   -8.8499077    493.80971  0.012646223  0.011979709         3902 
 3255000   0.71984565   -8.8365606    493.74264  0.012640621  0.011974221         3906 
 3256000   0.73671507   -8.8293508    493.69104  0.012635418  0.011968735         3907 
 3257000   0.72347774    -8.841352    493.25159  0.012620294  0.011963259         3892 
 3258000   0.73210849   -8.8814169    492.69095  0.012602081  0.011957782         3899 
 3259000   0.73758136   -8.8699574    492.75708  0.012599905  0.011952298         3921 
 3260000   0.73352148   -8.8539328    493.60548  0.012617727  0.011946819         3918 
 3261000   0.70810415   -8.8613672    493.36306  0.012607663   0.01194135         3914 
 3262000    0.7308714   -8.8703923    493.84906  0.012616213  0.011935879         3893 
 3263000   0.72803538   -8.8355338     494.2523  0.012622645  0.011930411         3901 
 3264000   0.73478316   -8.8323477    493.92261  0.012610361  0.011924947         3899 
 3265000   0.73594002   -8.8493149    495.51228  0.012647072  0.011919486         3877 
 3266000   0.72982658   -8.8569726    493.18581  0.012583839  0.011914027         3910 
 3267000   0.74111915   -8.8551028    494.15937   0.01260482  0.011908574         3900 
 3268000   0.73218265   -8.8293471    494.64544  0.012613358  0.011903127         3903 
 3269000   0.72869798   -8.8524935    494.66184  0.012609917  0.011897679         3902 
 3270000    0.7078718   -8.8425976    494.14728  0.012592948  0.011892234         3909 
 3271000    0.7219869   -8.8405181    494.95496  0.012609675  0.011886791         3913 
 3272000   0.73812236   -8.8579229    493.80818  0.012576614  0.011881358         3928 
 3273000   0.73953223   -8.8372016     493.6933  0.012569847  0.011875925         3897 
 3274000    0.7402133   -8.8359679    493.88068  0.012570777   0.01187049         3898 
 3275000   0.72061708   -8.8659481     493.9787  0.012569432  0.011865066         3920 
 3276000   0.71297556   -8.8538516    493.62432  0.012556581  0.011859639         3920 
 3277000   0.74719006   -8.8496585    494.36589  0.012571607   0.01185422         3916 
 3278000   0.70514293   -8.8604256    493.42263  0.012543793  0.011848799         3944 
 3279000   0.73260473   -8.8663897    492.75728  0.012523058  0.011843381         3925 
 3280000   0.72192432   -8.8380306    493.85745  0.012547191  0.011837961         3929 
 3281000    0.7344518   -8.8492014    494.56131  0.012561244  0.011832543         3932 
 3282000   0.70987585    -8.842317     494.4839  0.012555451   0.01182713         3932 
 3283000   0.72062511   -8.8874872    492.83952  0.012509887   0.01182172         3907 
 3284000   0.73745122   -8.8640856    493.88272   0.01253255  0.011816317         3916 
 3285000   0.71356314   -8.8594852    492.68329  0.012498308  0.011810911         3917 
 3286000    0.7209918   -8.8707666    493.00455  0.012502651  0.011805514         3921 
 3287000   0.72035558   -8.8452569    494.96516  0.012548554  0.011800123         3920 
 3288000   0.71999196   -8.8606348    493.60531  0.012510272  0.011794728         3922 
 3289000   0.71621263   -8.8764308    493.27779   0.01249817  0.011789345         3916 
 3290000   0.72259893     -8.86139    494.24424  0.012518851  0.011783961         3927 
 3291000   0.72017311   -8.8483341    494.13965  0.012512399  0.011778576         3909 
 3292000   0.72846296   -8.8743869    493.72444  0.012498087  0.011773192         3924 
 3293000   0.74406049   -8.8618541    494.07503  0.012503164  0.011767816         3873 
 3294000   0.72573884   -8.8588136    493.18508  0.012476854  0.011762442         3919 
 3295000   0.72491917   -8.8718125    493.20639  0.012473606  0.011757069         3916 
 3296000   0.73065084   -8.8516782    493.60087  0.012479795  0.011751698         3931 
 3297000   0.72880612   -8.8505409    494.09074  0.012488392  0.011746338         3903 
 3298000   0.72109674    -8.860268    493.04917  0.012458287  0.011740974         3871 
 3299000   0.71723429   -8.8617226    492.49753  0.012440576  0.011735611         3932 
 3300000   0.70630841   -8.8710199    492.87325  0.012446294  0.011730249         3903 
 3301000   0.71102301   -8.8644681     493.9887  0.012470683  0.011724888         3893 
 3302000   0.73082652   -8.8770088    492.62558  0.012432505  0.011719526         3912 
 3303000   0.71795107   -8.8764714    493.55205  0.012452116  0.011714172         3914 
 3304000   0.71840327   -8.8551606    492.57867  0.012423796  0.011708823         3894 
 3305000    0.7105955   -8.8611516     493.6569  0.012447224  0.011703485         3910 
 3306000     0.726053   -8.8662152    493.00819  0.012427107   0.01169814         3907 
 3307000   0.73292707   -8.8746281    493.94137  0.012446865  0.011692805         3911 
 3308000   0.70756482     -8.85255    493.07854  0.012421366  0.011687477         3921 
 3309000   0.72345208   -8.8477796    494.24508   0.01244699  0.011682148         3915 
 3310000   0.70912287   -8.8750847     493.2953  0.012419318  0.011676815         3898 
 3311000   0.72782267   -8.8691544    493.34922  0.012416924   0.01167149         3912 
 3312000   0.71394088   -8.8640334    493.02599  0.012405042  0.011666172         3915 
 3313000   0.71057756   -8.8722825    494.09689  0.012428234  0.011660851         3928 
 3314000    0.7164669   -8.8306718    492.87103  0.012393659  0.011655528         3921 
 3315000   0.72389092   -8.8603962    493.38552  0.012402854   0.01165021         3913 
 3316000   0.73074774   -8.8769708    492.80254  0.012384463  0.011644895         3904 
 3317000   0.72509441   -8.8725288    492.69066  0.012377918  0.011639588         3910 
 3318000   0.72059538   -8.8679326    494.05723   0.01240851  0.011634288         3897 
 3319000   0.71827189   -8.8648326    493.42294  0.012388845  0.011628979         3902 
 3320000   0.71032475   -8.8558354    493.71887  0.012392542  0.011623679         3894 
 3321000   0.71944445   -8.8473405    494.22495  0.012401509  0.011618378         3893 
 3322000   0.70744452   -8.8907482    493.08117  0.012369084  0.011613078         3917 
 3323000    0.7311471   -8.8830102    493.77985  0.012382883  0.011607776         3913 
 3324000   0.73778782   -8.8662581     493.3742  0.012368988  0.011602486         3899 
 3325000   0.70901681   -8.8864814    493.10931  0.012358629  0.011597199         3914 
 3326000    0.7200405   -8.8716866    493.50161  0.012364743  0.011591912         3910 
 3327000   0.73164191   -8.8561509      492.607  0.012338618  0.011586632         3927 
 3328000   0.72451384   -8.8712766    493.85673  0.012366204  0.011581354         3907 
 3329000   0.70477099   -8.8725433    491.97166  0.012315301  0.011576078         3926 
 3330000   0.71971234   -8.8658717    493.32304  0.012345421  0.011570804         3914 
 3331000    0.7132363    -8.883604    493.63192  0.012349443  0.011565527         3921 
 3332000   0.71968473   -8.8690888    493.37991  0.012339434  0.011560258         3925 
 3333000   0.71576573    -8.875732    493.73257  0.012344549     0.011555         3926 
 3334000   0.71448214   -8.8555098    493.92369  0.012345623  0.011549741         3904 
 3335000   0.71007487   -8.8717244    493.07695  0.012320763  0.011544476         3925 
 3336000   0.70697523   -8.8504515    493.17208  0.012319447  0.011539218         3899 
 3337000   0.72631937    -8.851518    492.50385  0.012299067  0.011533966         3908 
 3338000   0.70781335    -8.865556    492.91339  0.012305607  0.011528712         3921 
 3339000   0.71491949   -8.8843988    493.36352  0.012313156  0.011523462         3902 
 3340000   0.71515769   -8.8879347    493.48372  0.012312468  0.011518217         3912 
 3341000   0.72581378   -8.8847215    492.43197  0.012282549  0.011512971         3927 
 3342000   0.74219618   -8.8842511    492.11801  0.012271046  0.011507727         3927 
 3343000   0.72021821   -8.8910789    493.39733  0.012299265  0.011502491         3897 
 3344000   0.72387452   -8.8812896     492.9868  0.012285357  0.011497257         3909 
 3345000   0.71792363   -8.8640342    493.51961  0.012294958   0.01149202         3913 
 3346000   0.71520933   -8.8866354    491.55551  0.012242367  0.011486788         3941 
 3347000   0.72031334   -8.8775115    492.63681  0.012265631  0.011481558         3922 
 3348000   0.72060312   -8.8740037    492.81216  0.012266332  0.011476327         3921 
 3349000   0.70551989   -8.8831324    493.59897  0.012282248  0.011471103         3924 
 3350000    0.7083781   -8.8911363    492.74489  0.012257335  0.011465883         3927 
 3351000   0.70622479   -8.8748371    494.20615  0.012290017  0.011460668         3906 
 3352000   0.71551639   -8.8810363    493.72479  0.012274383  0.011455457         3905 
 3353000   0.72765602      -8.8708    493.41797  0.012263097  0.011450249         3916 
 3354000   0.72379761   -8.8849061    493.00255  0.012249119  0.011445045         3906 
 3355000   0.70277249   -8.8708712    492.54081  0.012233999  0.011439842         3923 
 3356000   0.71256701   -8.8867756    493.24581   0.01224786  0.011434646         3916 
 3357000   0.69428166    -8.864737    493.62579  0.012253644  0.011429443         3907 
 3358000   0.69830169    -8.888962     493.7179  0.012252281  0.011424256         3933 
 3359000   0.72853663   -8.8913635    493.60949  0.012245944  0.011419065         3912 
 3360000   0.71259693   -8.8758465    492.93227  0.012225503  0.011413877         3940 
 3361000   0.72423786   -8.8718192    493.14167  0.012227057  0.011408693         3906 
 3362000   0.70306886   -8.8450681    494.43249  0.012255416  0.011403513         3902 
 3363000   0.71577777   -8.8873139    492.71241  0.012209149  0.011398337         3922 
 3364000   0.70015451   -8.8851058    492.79744  0.012207626  0.011393167         3924 
 3365000   0.72284469   -8.9118819    492.02175  0.012184788  0.011387993         3935 
 3366000   0.72586887   -8.8870702    492.53985  0.012193995  0.011382822         3927 
 3367000   0.71247042   -8.8757894    491.90016  0.012174541  0.011377653         3912 
 3368000   0.69616374   -8.8890726    493.11369  0.012200952  0.011372483         3916 
 3369000   0.71241873   -8.8803915    492.53974  0.012183134  0.011367321         3918 
 3370000   0.70853541   -8.8764376     493.8197   0.01221117   0.01136216         3935 
 3371000   0.70688883   -8.8742435     492.5703  0.012176661  0.011357001         3919 
 3372000   0.72529075   -8.8901989    492.22007  0.012164395  0.011351848         3930 
 3373000   0.71109044   -8.8866567     494.0611  0.012206273  0.011346692         3914 
 3374000   0.70544088   -8.8815626    492.63233  0.012167366  0.011341542         3939 
 3375000   0.72181259   -8.8782533    493.27294  0.012179579  0.011336396         3928 
 3376000   0.73363213    -8.869325      493.777  0.012188413  0.011331262         3931 
 3377000   0.71400735   -8.9034667    492.89648  0.012163076  0.011326125         3927 
 3378000   0.70461439   -8.8615823    493.63386  0.012177666  0.011320992         3928 
 3379000   0.72402108   -8.8782499    493.00279  0.012158498  0.011315856         3920 
 3380000   0.72821756   -8.8845737    493.78455  0.012174175  0.011310727         3915 
 3381000   0.72420872    -8.917776    492.10152  0.012129092    0.0113056         3935 
 3382000   0.70706835   -8.8790428    493.08015  0.012149619  0.011300476         3937 
 3383000   0.71725881   -8.9007901    492.62888  0.012134912  0.011295355         3902 
 3384000   0.70447479   -8.8691075    493.47247    0.0121521  0.011290234         3928 
 3385000    0.7091949   -8.8922149    492.88892  0.012134144  0.011285113         3935 
 3386000    0.6880465   -8.8681617    492.85695  0.012129773  0.011279994         3930 
 3387000   0.72123029   -8.9174244    492.83434  0.012125636  0.011274882         3937 
 3388000   0.70167231    -8.879795     492.7351  0.012119616  0.011269779         3921 
 3389000   0.72520782    -8.881118    492.75441  0.012116514  0.011264671         3932 
 3390000   0.69620084   -8.9050344    492.64652  0.012110288  0.011259568         3938 
 3391000   0.71316475   -8.8783403    493.88999  0.012137275  0.011254466         3922 
 3392000   0.70200343   -8.8645808     491.7155  0.012080275  0.011249371         3916 
 3393000   0.71354885   -8.8818098    492.69203  0.012100698  0.011244271         3903 
 3394000   0.71595662   -8.8999145    492.43662  0.012090862  0.011239174         3929 
 3395000   0.70000149   -8.8876874    491.85565   0.01207304  0.011234083         3939 
 3396000   0.69914558   -8.9006483    492.46726  0.012084493     0.011229         3922 
 3397000   0.71301472   -8.8880631    493.16345  0.012098014  0.011223924         3922 
 3398000   0.73213484   -8.8927258    492.65056  0.012081876  0.011218847         3926 
 3399000    0.6961996   -8.8753221     492.8127  0.012082296  0.011213772         3896 
 3400000   0.70597027   -8.9135323    492.46879  0.012070314  0.011208699         3928 
 3401000   0.71111305   -8.9179006    492.26275  0.012061716  0.011203625         3928 
 3402000   0.71560143    -8.884349     492.6645  0.012068011  0.011198557         3926 
 3403000   0.70275518   -8.8822056    492.91567  0.012070616  0.011193494         3908 
 3404000   0.70368924   -8.8894099     493.0259  0.012069769  0.011188429         3928 
 3405000   0.71472734    -8.903918    492.85753  0.012062103  0.011183372         3924 
 3406000   0.71255632   -8.8805972    492.88449  0.012059221   0.01117831         3929 
 3407000   0.70996475   -8.8763529    492.48298  0.012045861  0.011173252         3934 
 3408000   0.70026417   -8.9062805    493.74184  0.012073108  0.011168202         3944 
 3409000   0.70663886   -8.8888811      492.699  0.012044074  0.011163148         3937 
 3410000   0.70749816   -8.9222159    491.95319  0.012022317  0.011158095         3920 
 3411000    0.6946132   -8.9042676    492.84238  0.012040516  0.011153047         3926 
 3412000   0.69341834   -8.8790041    492.79821  0.012035908  0.011147998         3914 
 3413000   0.70748219   -8.9085154    493.18972  0.012041941  0.011142958         3924 
 3414000   0.69467539   -8.9234363    492.47405  0.012020944  0.011137919         3927 
 3415000   0.69624846   -8.8983434    493.17891  0.012034624  0.011132886         3936 
 3416000   0.71938824   -8.8980085    493.28296   0.01203364  0.011127853         3929 
 3417000   0.70143976   -8.9080908    492.07374  0.012000628  0.011122825         3920 
 3418000    0.7152583   -8.9137098    492.66248  0.012011471  0.011117799         3931 
 3419000   0.70873742   -8.9131981     492.5931  0.012006266  0.011112768         3928 
 3420000   0.72392075      -8.8945    492.98749  0.012012366  0.011107749         3940 
 3421000   0.70542083   -8.9284634    492.14875  0.011988423  0.011102731         3930 
 3422000   0.71503676   -8.8771606    492.78454  0.012000403  0.011097713         3933 
 3423000   0.71718313   -8.8906109    493.40822   0.01201208  0.011092703         3911 
 3424000   0.70731697   -8.9204891    492.59083  0.011988679  0.011087691         3929 
 3425000   0.70595449    -8.889014    492.69974  0.011987828   0.01108269         3919 
 3426000    0.7213238   -8.9054486    492.45819  0.011978454  0.011077681         3937 
 3427000    0.6973005   -8.9087079    493.17543  0.011992399  0.011072676         3928 
 3428000   0.70759309   -8.9052872    492.59292   0.01197474   0.01106768         3913 
 3429000    0.7013068   -8.9034644    491.61389  0.011947455  0.011062687         3924 
 3430000    0.6902722   -8.8982816    491.35795  0.011937754  0.011057692         3922 
 3431000   0.70101417   -8.8920254    492.32542  0.011957773   0.01105271         3932 
 3432000   0.70741585    -8.924196    491.92149  0.011944481  0.011047722         3923 
 3433000   0.70251693   -8.9082619    492.37256  0.011951951  0.011042736         3915 
 3434000   0.70832597    -8.903376    492.63185  0.011954762  0.011037756         3911 
 3435000   0.71999413   -8.9175422    493.16911  0.011964316  0.011032777         3919 
 3436000   0.70630209   -8.9189995    492.38405  0.011941794  0.011027805         3933 
 3437000   0.70400995   -8.8960164    493.11201   0.01195597  0.011022835         3911 
 3438000   0.71400045   -8.8999366    492.17391  0.011929753  0.011017866         3917 
 3439000   0.70049693   -8.9067665    493.12699   0.01194938  0.011012903         3932 
 3440000    0.7133654   -8.9253344    491.25207  0.011900486   0.01100794         3917 
 3441000   0.70125499   -8.9247956    492.24745  0.011921134  0.011002981         3944 
 3442000   0.70682367   -8.8808497    493.11704  0.011938724  0.010998022         3926 
 3443000   0.70580754   -8.9111283    492.68862  0.011924887  0.010993071         3927 
 3444000   0.69697766   -8.8960595    492.46461  0.011916004   0.01098812         3919 
 3445000   0.71091466   -8.9118937    492.13413  0.011904551  0.010983168         3914 
 3446000   0.69842867   -8.9086802    492.72258  0.011915326   0.01097822         3925 
 3447000   0.70278357   -8.8951588    491.90073  0.011892001  0.010973274         3920 
 3448000   0.69647159   -8.9161221    491.87751  0.011887991  0.010968334         3921 
 3449000   0.68030419   -8.9017537     492.0673   0.01188913  0.010963394         3920 
 3450000   0.69675706   -8.9077401    492.18752  0.011888588  0.010958464         3936 
 3451000   0.69674803   -8.9058422    491.93203  0.011878973  0.010953531         3941 
 3452000   0.71130105   -8.9060353    492.36922  0.011886086  0.010948599         3916 
 3453000   0.70543713   -8.9114897    490.92198  0.011847717  0.010943674         3938 
 3454000   0.69949484   -8.9247929    492.35629  0.011878891  0.010938751         3930 
 3455000   0.69649218   -8.9105993     492.3953  0.011876394  0.010933831         3934 
 3456000   0.70102612   -8.8957594    493.01115  0.011887807  0.010928911         3928 
 3457000   0.69634431   -8.8918474    492.28489  0.011866862  0.010923992         3931 
 3458000   0.69211979   -8.9109468    492.01676  0.011856968  0.010919081         3935 
 3459000   0.70527939   -8.9149685    491.89068  0.011850503  0.010914174         3926 
 3460000   0.70512183   -8.8908628    492.07629  0.011851548   0.01090927         3886 
 3461000   0.70260908    -8.901697    492.83363  0.011866359  0.010904368         3921 
 3462000   0.68721843   -8.9197206    492.41639  0.011852888  0.010899465         3920 
 3463000   0.71055086   -8.9068434    491.88296  0.011836629  0.010894566         3906 
 3464000   0.69644734   -8.9157602    492.22438  0.011841426  0.010889666         3909 
 3465000   0.69949902   -8.8986966     493.1226   0.01185961  0.010884773         3916 
 3466000   0.69260333   -8.9005601    493.65718  0.011869042  0.010879885         3912 
 3467000    0.6909519   -8.9060285    493.21852  0.011855075  0.010874996         3932 
 3468000   0.69212913   -8.9271256     493.1693  0.011850473  0.010870115         3917 
 3469000   0.68891827   -8.9190533    492.19519  0.011823657   0.01086523         3918 
 3470000   0.70126465   -8.9239183    491.88583   0.01181282   0.01086035         3942 
 3471000   0.69176018   -8.9014357    492.59354  0.011826408  0.010855468         3926 
 3472000   0.70852467   -8.9167117    491.74146   0.01180255  0.010850591         3909 
 3473000   0.69676348   -8.9015721    492.08935    0.0118075  0.010845719         3895 
 3474000   0.69718792   -8.9269332    492.60886  0.011816563  0.010840855         3942 
 3475000   0.69210246   -8.8944854    492.45867   0.01180956  0.010835986         3902 
 3476000   0.69500648   -8.9219322    492.17651  0.011799399  0.010831123         3918 
 3477000   0.70286603   -8.9186456     492.3273  0.011799619  0.010826262         3923 
 3478000   0.69473683   -8.8988299    492.76151   0.01180663  0.010821399         3910 
 3479000   0.70026028   -8.9067094    491.80488  0.011780322  0.010816534         3927 
 3480000   0.70450483   -8.9251395    492.29108  0.011788579  0.010811677         3933 
 3481000   0.70251348   -8.9068652    491.91135  0.011776102  0.010806822         3929 
 3482000   0.69244764   -8.9038989     492.4068  0.011784578   0.01080197         3923 
 3483000   0.68750596   -8.9027042    492.32275  0.011779184   0.01079712         3935 
 3484000   0.69708808   -8.9281874    491.18919  0.011748689  0.010792275         3927 
 3485000   0.69973441   -8.9442553    491.61466  0.011755492  0.010787435         3937 
 3486000   0.68804706   -8.9156476    492.48251  0.011772866  0.010782598         3939 
 3487000   0.68055095   -8.9009699    492.74054  0.011775656   0.01077776         3927 
 3488000   0.69160952   -8.9269173     492.3015   0.01176179  0.010772921         3938 
 3489000   0.70124899   -8.9090027    492.20187   0.01175604  0.010768089         3931 
 3490000   0.68932366   -8.9265191    491.50807  0.011736105  0.010763264         3943 
 3491000   0.69224868   -8.9101889     491.7942  0.011739573  0.010758442         3927 
 3492000   0.70604301    -8.919089    492.05397  0.011742411  0.010753624         3940 
 3493000   0.69674162   -8.9136057    492.13321  0.011740939  0.010748809         3932 
 3494000   0.69540004   -8.9155284      492.174  0.011738552  0.010743991         3913 
 3495000   0.68354491   -8.9346674    491.05769  0.011708576  0.010739181         3938 
 3496000   0.70123652   -8.9090545     491.2934  0.011710846  0.010734371         3921 
 3497000   0.69530556    -8.916115    491.88533  0.011721603  0.010729561         3923 
 3498000   0.68562262   -8.9316231    491.04807  0.011698305  0.010724759         3928 
 3499000    0.6936952   -8.9155888    491.73147  0.011711238  0.010719953         3918 
 3500000   0.68704746   -8.9050606    492.07541  0.011716081  0.010715155         3918 
 3501000   0.68069344   -8.9301374    490.80986  0.011682611  0.010710356         3932 
 3502000   0.69702447   -8.9150798    491.81324  0.011703152  0.010705557         3926 
 3503000   0.71173433   -8.9073741    491.68973  0.011696872   0.01070076         3924 
 3504000   0.68121845   -8.8876136    492.24528  0.011706747  0.010695967         3908 
 3505000     0.676666   -8.9292606    492.23746  0.011703221  0.010691182         3940 
 3506000   0.69592263    -8.905769    492.07801  0.011696093  0.010686396         3896 
 3507000   0.69962715   -8.9327644    492.24627  0.011696756  0.010681615         3931 
 3508000    0.6872689   -8.9297377    492.19733  0.011692259  0.010676835         3935 
 3509000   0.69704633   -8.9132854    491.61226  0.011675032  0.010672059         3932 
 3510000   0.68440358   -8.9215694    491.31864  0.011664735   0.01066728         3920 
 3511000   0.69467286   -8.9272516    491.95222  0.011676451  0.010662506         3932 
 3512000   0.70260859   -8.9081933      491.864  0.011671033  0.010657733         3889 
 3513000    0.6934657   -8.9187693    492.68136  0.011687099  0.010652967         3935 
 3514000   0.69862422   -8.9080858    491.64496  0.011659196  0.010648205         3910 
 3515000   0.68619919   -8.8995524    491.41949  0.011650533   0.01064344         3941 
 3516000   0.68040904   -8.9099039    492.52592  0.011673443   0.01063868         3931 
 3517000   0.70086147     -8.93756    492.20918  0.011662619  0.010633922         3928 
 3518000   0.68307445   -8.9165876    492.32313  0.011662003  0.010629167         3920 
 3519000   0.68490099   -8.9245429    491.99569  0.011650935  0.010624415         3921 
 3520000   0.69698463   -8.9121026    491.35322  0.011632415  0.010619658         3923 
 3521000   0.70001982    -8.898138    491.18564  0.011625145  0.010614912         3917 
 3522000   0.69981617   -8.9130528    492.63419  0.011656118  0.010610169         3934 
 3523000   0.69352983   -8.9460395    492.86972  0.011658381   0.01060543         3935 
 3524000   0.69230448   -8.9183295    492.08592  0.011636538  0.010600692         3928 
 3525000   0.67809124   -8.9298374     491.9065  0.011628995   0.01059596         3926 
 3526000   0.68711342   -8.9365859    491.66962  0.011620099  0.010591231         3936 
 3527000   0.68557103   -8.9384325    492.50128  0.011636454    0.0105865         3938 
 3528000   0.69045377   -8.9419421    491.82783  0.011617248  0.010581779         3939 
 3529000   0.68459228   -8.9502551    491.12308  0.011597315  0.010577056         3935 
 3530000   0.67462252   -8.9126237    492.87631  0.011635418   0.01057233         3937 
 3531000   0.67558738   -8.9219647    491.88469   0.01160872  0.010567612         3916 
 3532000   0.69972671   -8.9405107    491.52478  0.011596942  0.010562891         3938 
 3533000   0.68751645   -8.9459919     492.4013  0.011614334  0.010558178         3940 
 3534000   0.69079729   -8.9265375    491.18248  0.011582307  0.010553465         3922 
 3535000   0.67835901   -8.9443272    491.95594  0.011597264  0.010548758         3933 
 3536000   0.69005252   -8.9158092    490.89419  0.011568962   0.01054405         3929 
 3537000   0.68588209   -8.9449949    490.77859  0.011562967  0.010539345         3931 
 3538000   0.68549215   -8.9400887    491.92348  0.011586666  0.010534642         3925 
 3539000   0.68381006   -8.9102421    492.32452  0.011592835  0.010529937         3912 
 3540000   0.69294834    -8.924221     490.8156  0.011554039  0.010525244         3930 
 3541000   0.68641171   -8.9347253    491.35873  0.011563559   0.01052055         3937 
 3542000   0.68991633   -8.9774957    490.78374  0.011546766   0.01051586         3933 
 3543000   0.69123397   -8.9151787    492.10773  0.011574648  0.010511173         3930 
 3544000   0.68599243   -8.9287655    492.05698  0.011570189   0.01050649         3919 
 3545000   0.67715021     -8.94931    491.56653  0.011555396  0.010501799         3944 
 3546000   0.69266949   -8.9306767    491.16972  0.011542812  0.010497119         3922 
 3547000   0.67614822   -8.9366024     491.3231  0.011543161  0.010492443         3923 
 3548000   0.68332438   -8.9049683    491.06424  0.011533828  0.010487774         3935 
 3549000   0.67207982   -8.9346996    491.48168   0.01154038  0.010483104         3934 
 3550000   0.68705323   -8.9201803    492.82994  0.011568778  0.010478435         3922 
 3551000   0.67244957   -8.9245933    491.57691  0.011536114  0.010473766         3934 
 3552000   0.69184118   -8.9432269    491.01316  0.011519641  0.010469104         3928 
 3553000   0.68443158   -8.9468168    491.49145  0.011527616  0.010464441         3926 
 3554000    0.6997035   -8.9295274    491.70973  0.011529491  0.010459784         3926 
 3555000   0.67514236   -8.9386044    490.71638  0.011502963   0.01045513         3919 
 3556000   0.68838152   -8.9222548    491.56316  0.011519572  0.010450479         3908 
 3557000   0.69716423   -8.9193407    491.63773   0.01151808  0.010445829         3927 
 3558000    0.6862741   -8.9425018    491.90459  0.011521093  0.010441182         3935 
 3559000   0.68392037   -8.9558424    490.76623  0.011491201  0.010436533         3916 
 3560000   0.67125714   -8.9493838    491.48409  0.011504777  0.010431892         3918 
 3561000   0.68264187   -8.9446519    492.10845  0.011516158  0.010427251         3929 
 3562000   0.68735125   -8.9524013    491.74234  0.011504359  0.010422615         3921 
 3563000   0.67864742    -8.951161    491.14912  0.011487256  0.010417972         3927 
 3564000   0.67911196   -8.9560327    491.49198   0.01149205  0.010413336         3923 
 3565000   0.68497342   -8.9478234    492.08268  0.011502634  0.010408703         3936 
 3566000   0.67453905   -8.9392706    491.54607  0.011486868  0.010404074         3936 
 3567000   0.67636753   -8.9418808    491.88933  0.011491667  0.010399448         3939 
 3568000   0.68865327   -8.9298627    491.67291  0.011483392  0.010394824         3928 
 3569000    0.6724264   -8.9491153     491.0889  0.011466538  0.010390208         3909 
 3570000   0.67783886   -8.9061776    491.84775   0.01148104  0.010385586         3915 
 3571000   0.67005981   -8.9392079    491.51692  0.011470104  0.010380975         3928 
 3572000   0.67205058   -8.9317966    491.25003  0.011460667  0.010376362         3938 
 3573000   0.67258633   -8.9217366    491.80897  0.011470496  0.010371755         3896 
 3574000   0.67259285   -8.9372069    492.00642   0.01147189  0.010367143         3932 
 3575000   0.67532646   -8.9421236    491.43999  0.011455478  0.010362541         3925 
 3576000    0.6799455   -8.9379068    491.42209  0.011451857  0.010357937         3923 
 3577000   0.68084064   -8.9413242    491.59079  0.011452586  0.010353335         3931 
 3578000   0.68859323    -8.940917    492.16248    0.0114627   0.01034874         3921 
 3579000   0.66514253   -8.9329457    491.16119  0.011436183  0.010344146         3929 
 3580000     0.687149   -8.9384862    490.67349  0.011421636  0.010339555         3928 
 3581000   0.67928973   -8.9575172    491.40866  0.011435555  0.010334964         3926 
 3582000   0.68170904    -8.942122    491.30014  0.011429838  0.010330377         3923 
 3583000   0.69210081   -8.9429513    491.41766  0.011429381  0.010325798         3922 
 3584000   0.66773161   -8.9214426    492.58856  0.011453417  0.010321217         3926 
 3585000   0.69023774   -8.9525767    490.99002  0.011413064  0.010316644         3917 
 3586000   0.65795708   -8.9365817    491.84599  0.011429773  0.010312063         3951 
 3587000   0.68080373   -8.9453178    491.75876   0.01142456  0.010307486         3924 
 3588000   0.67298381   -8.9496476    491.33316  0.011411491  0.010302911         3925 
 3589000    0.6788523   -8.9426378    490.58878  0.011391028  0.010298347         3916 
 3590000   0.67003456   -8.9326069    491.50149  0.011409041  0.010293782         3929 
 3591000    0.6684333   -8.9170552    490.87552  0.011391338   0.01028922         3945 
 3592000   0.67545864   -8.9546456    489.67829  0.011360391  0.010284661         3936 
 3593000   0.66155526   -8.9400437    491.85756  0.011407773  0.010280105         3935 
 3594000   0.68743498   -8.9370956    491.22629  0.011389962  0.010275555         3935 
 3595000   0.67196778    -8.923212    491.99834   0.01140469  0.010271001         3918 
 3596000   0.67576301   -8.9571555    491.32491  0.011385913  0.010266451         3944 
 3597000   0.67480305   -8.9398297    492.41292  0.011407954  0.010261904         3949 
 3598000   0.67688338   -8.9649066    491.16073  0.011375781  0.010257361         3927 
 3599000   0.67382981   -8.9422369    491.00317  0.011368972  0.010252817         3919 
 3600000   0.65848927   -8.9409914    490.81588  0.011361479  0.010248279         3928 
 3601000   0.67589305   -8.9538532    490.51998  0.011351476  0.010243746         3949 
 3602000   0.65804044   -8.9503592    491.47049  0.011370315  0.010239213         3945 
 3603000   0.68614693   -8.9230508    492.22781  0.011384675  0.010234686         3917 
 3604000   0.67897819   -8.9576894    489.52334  0.011318982  0.010230156         3933 
 3605000   0.67252244   -8.9645196    491.07368   0.01135168  0.010225631         3933 
 3606000   0.68428568   -8.9580015    491.17423  0.011350856  0.010221107         3935 
 3607000   0.67195561   -8.9473784    491.47374  0.011354628  0.010216584         3923 
 3608000   0.67750322   -8.9303057    491.29836  0.011347431  0.010212062         3930 
 3609000   0.66632987    -8.941494    490.82153  0.011333276  0.010207549         3950 
 3610000    0.6775002   -8.9608386    491.30263  0.011341243  0.010203035         3919 
 3611000   0.68646174   -8.9389447    491.66015  0.011346353  0.010198522         3923 
 3612000   0.68861891   -8.9358048    491.18025  0.011332139  0.010194017         3925 
 3613000   0.66684636    -8.938691    490.98331  0.011324461  0.010189512         3926 
 3614000   0.66478098   -8.9440047    491.32188  0.011329134  0.010185011         3924 
 3615000   0.68469959    -8.971176    490.20699  0.011300299   0.01018051         3931 
 3616000   0.66863547   -8.9570457    490.77209  0.011310198   0.01017601         3938 
 3617000   0.66756857   -8.9639739    491.97182  0.011334712  0.010171516         3921 
 3618000   0.68353166   -8.9604483    491.36773  0.011317665   0.01016702         3944 
 3619000   0.66503954   -8.9404625    490.89409  0.011303631  0.010162535         3934 
 3620000   0.67628938   -8.9364112    491.47575  0.011313898  0.010158044         3953 
 3621000   0.68526551   -8.9454097    491.02476  0.011300395  0.010153557         3917 
 3622000    0.6643665   -8.9579477     491.2378  0.011302176  0.010149073         3930 
 3623000   0.68123726   -8.9406136    491.07328  0.011295273  0.010144594         3924 
 3624000   0.67567495   -8.9262075    491.28477  0.011297019  0.010140118         3929 
 3625000   0.67167796   -8.9451061    490.98958  0.011287117  0.010135644         3936 
 3626000   0.67047995   -8.9631465    490.71262  0.011277639  0.010131173         3939 
 3627000   0.66623045   -8.9594429    490.83005  0.011277227    0.0101267         3938 
 3628000   0.67061058   -8.9776099    490.56347  0.011267996  0.010122233         3938 
 3629000   0.66722751   -8.9395432    491.52005  0.011286857  0.010117765         3941 
 3630000   0.67343827    -8.931664    490.34474  0.011256766  0.010113299         3913 
 3631000   0.66345783   -8.9708154    490.14158  0.011249003  0.010108837         3929 
 3632000   0.67264172   -8.9515414     491.2217  0.011270689  0.010104378         3925 
 3633000   0.65955008   -8.9523358    490.69218   0.01125544  0.010099918         3923 
 3634000   0.66953531   -8.9869671    491.13512    0.0112625  0.010095467         3941 
 3635000   0.67787931    -8.955344    490.83062  0.011252421  0.010091011         3941 
 3636000   0.67313929   -8.9457539    490.43346  0.011240224  0.010086562         3938 
 3637000   0.66279358   -8.9426301    491.74464  0.011267176  0.010082117         3932 
 3638000   0.67682145   -8.9591946    490.73239  0.011240892  0.010077676         3914 
 3639000   0.68049744   -8.9258689    491.06296  0.011245373  0.010073238         3925 
 3640000   0.66436897   -8.9527439    491.39224  0.011249822  0.010068804         3926 
 3641000   0.66970569   -8.9614104    491.54367  0.011250198  0.010064372         3929 
 3642000   0.67006111    -8.957865    491.09815  0.011236915  0.010059944         3938 
 3643000   0.68102709    -8.955162    490.99063  0.011231371  0.010055518         3933 
 3644000   0.67590412   -8.9692836    491.74913  0.011245635  0.010051093         3932 
 3645000   0.66262255   -8.9648709    491.14829  0.011228813  0.010046664         3912 
 3646000   0.66779529   -8.9473265     491.9695  0.011244503  0.010042243         3942 
 3647000   0.67330475   -8.9875411    491.10437  0.011221652  0.010037822         3927 
 3648000   0.67025326   -8.9628724    491.02662    0.0112168  0.010033404         3935 
 3649000   0.67426932   -8.9890008    489.89983  0.011187993  0.010028992         3923 
 3650000   0.66278789   -8.9461871    490.87121  0.011207105  0.010024576         3937 
 3651000   0.67452014    -8.962992    490.96698  0.011206221  0.010020163         3925 
 3652000   0.67598009   -8.9586407    491.13845  0.011207066   0.01001576         3931 
 3653000   0.68057121   -8.9639892    490.04855  0.011179135  0.010011353         3924 
 3654000   0.64441365    -8.983001    491.22761  0.011202965  0.010006953         3937 
 3655000   0.66256336   -8.9480455    491.19871  0.011199241  0.010002555         3925 
 3656000   0.65826861   -8.9565508    491.07636  0.011193389 0.0099981543         3927 
 3657000   0.66762687   -8.9573045    491.57176  0.011201617 0.0099937604         3912 
 3658000   0.67487144   -8.9680557    490.64025  0.011177334 0.0099893678         3932 
 3659000   0.66659025   -8.9478917    489.92426  0.011157973 0.0099849767         3925 
 3660000   0.66810711    -8.957657    490.85359  0.011176083 0.0099805921         3912 
 3661000   0.65697617   -8.9755633    490.92383   0.01117463 0.0099762082         3918 
 3662000   0.65465954   -8.9820981    490.44417  0.011160663 0.0099718227         3929 
 3663000   0.67823574   -8.9528998    491.21293  0.011175105 0.0099674443         3941 
 3664000   0.66655273   -8.9420381    490.44025  0.011154482 0.0099630683         3933 
 3665000   0.66212484   -8.9657419    490.68549  0.011157014 0.0099586902         3941 
 3666000   0.66933022   -8.9541623    490.21485  0.011143273  0.009954315         3917 
 3667000   0.67811563   -8.9637516    491.17629  0.011162083 0.0099499453         3938 
 3668000   0.64774588   -8.9535274    490.88876  0.011152507 0.0099455827         3938 
 3669000   0.68446797      -8.9866    490.17628  0.011133285 0.0099412193         3922 
 3670000   0.66694737   -8.9721792     491.0444  0.011149964 0.0099368545         3932 
 3671000   0.67361952    -8.939565    490.55438  0.011135803 0.0099324968         3927 
 3672000   0.66918189   -8.9538383    490.78669  0.011138042 0.0099281373         3910 
 3673000   0.66607664   -8.9697067    491.37431  0.011148342 0.0099237806         3931 
 3674000   0.66102605   -8.9541237    491.59695  0.011150357 0.0099194311         3937 
 3675000   0.65197972   -8.9725973     490.3479     0.011119  0.009915082         3910 
 3676000   0.67121517    -8.947532    490.93203  0.011129217 0.0099107346         3906 
 3677000   0.66024276   -8.9638211    491.19378  0.011132123 0.0099063886         3937 
 3678000   0.64673178   -8.9580857    490.04183  0.011102996 0.0099020465         3921 
 3679000   0.66303779   -8.9733592     490.6715  0.011114241 0.0098977049         3931 
 3680000   0.65635736   -8.9602184    491.39125  0.011127519 0.0098933655         3914 
 3681000   0.65920807   -8.9768551    490.52403  0.011104864 0.0098890301         3932 
 3682000   0.65570204   -8.9806551    490.15124   0.01109341 0.0098847018         3916 
 3683000   0.67511423   -8.9504887    491.14621  0.011112911 0.0098803668         3924 
 3684000    0.6621599    -8.986474    490.21886  0.011088917 0.0098760383         3934 
 3685000    0.6641113   -8.9818659    490.68784  0.011096514 0.0098717052         3925 
 3686000   0.66919452   -8.9794749    490.15749  0.011081513 0.0098673811         3928 
 3687000   0.66713219   -8.9766298    490.16482  0.011078673  0.009863062         3929 
 3688000   0.64528985   -8.9820068    490.47702  0.011082724 0.0098587441         3929 
 3689000   0.66778971   -8.9753772    490.74153  0.011085695 0.0098544262         3945 
 3690000   0.66284674    -8.965267    489.79675  0.011061354 0.0098501133         3930 
 3691000   0.65525255    -8.975526    490.81167  0.011081271  0.009845803         3913 
 3692000   0.67715552   -8.9903355    491.19025  0.011086815 0.0098414922         3936 
 3693000   0.67969672   -8.9556142    491.16203  0.011083176  0.009837183         3927 
 3694000    0.6690535   -8.9687131    491.56768  0.011089327   0.00983288         3936 
 3695000   0.65716438   -8.9666022    490.77714  0.011068497 0.0098285747         3922 
 3696000   0.66560912   -8.9782689    490.66721  0.011063023 0.0098242728         3916 
 3697000   0.66151646    -8.989098    490.92897  0.011065931 0.0098199777         3941 
 3698000   0.65139022   -8.9907494    491.05006  0.011065667 0.0098156828         3925 
 3699000   0.66176747   -8.9720561    491.04244  0.011062504 0.0098113855         3933 
 3700000   0.66354866   -8.9671919    491.08011  0.011060363 0.0098070931         3928 
 3701000   0.66674114    -8.953803    491.04399  0.011056561 0.0098028052         3930 
 3702000    0.6483578   -8.9939091    490.77031  0.011047414 0.0097985188         3917 
 3703000   0.66395976   -8.9920975    490.24539  0.011032618 0.0097942332         3921 
 3704000   0.66538396   -8.9790449    489.52928  0.011013528 0.0097899536         3939 
 3705000   0.65632745   -8.9868606    490.60948  0.011034851 0.0097856782         3917 
 3706000   0.65306479   -8.9552283    490.93736  0.011039246 0.0097814086         3927 
 3707000    0.6760827   -8.9627718    491.21706  0.011042556 0.0097771352         3920 
 3708000   0.64487753   -8.9518557     492.4046  0.011066267 0.0097728679         3937 
 3709000   0.65512217   -8.9860409    491.50817  0.011043142 0.0097686018         3936 
 3710000   0.64722177   -8.9693244    490.76399   0.01102345 0.0097643414         3934 
 3711000    0.6526493   -8.9785601    490.30739  0.011010226 0.0097600747         3936 
 3712000   0.65949778   -8.9592372    490.50484  0.011011693 0.0097558129         3940 
 3713000   0.64712929   -8.9825215    489.72619  0.010991251 0.0097515532         3927 
 3714000    0.6599801   -8.9938466    490.02226  0.010994935 0.0097472956         3935 
 3715000    0.6594048   -8.9816275    490.38806  0.011000181 0.0097430411         3930 
 3716000   0.66777157   -8.9880323    489.93208  0.010986995 0.0097387929         3923 
 3717000   0.65324428    -8.967344    490.85627  0.011004759 0.0097345432         3938 
 3718000   0.65349123   -8.9681804    490.21578  0.010987444  0.009730292         3923 
 3719000   0.65391425    -8.976452    490.62805  0.010993727 0.0097260482         3937 
 3720000   0.64988831   -9.0077627    490.23586  0.010981986  0.009721804         3940 
 3721000   0.65725595   -8.9806271    490.35116  0.010981617  0.009717564         3913 
 3722000   0.64337539    -8.977753    490.14819  0.010974122 0.0097133256         3928 
 3723000    0.6541507   -8.9859378    489.97629  0.010967327 0.0097090885         3936 
 3724000   0.63904395   -8.9748783    490.97476  0.010986725 0.0097048528         3938 
 3725000   0.65488165   -8.9840161    490.78116  0.010979444  0.009700624         3932 
 3726000   0.65777962   -8.9979816    490.87031  0.010978492 0.0096963999         3934 
 3727000   0.65688934   -8.9627906    491.28225  0.010984757 0.0096921769         3910 
 3728000   0.64849244   -8.9891194    489.74836  0.010947522 0.0096879534         3945 
 3729000   0.65919761    -8.993782    490.00304  0.010950278 0.0096837347         3947 
 3730000   0.65525624   -8.9552487    491.22735  0.010974695 0.0096795185         3909 
 3731000   0.64490898   -8.9759048     490.6339  0.010958499 0.0096753038         3939 
 3732000   0.65503658     -8.98321    490.01849  0.010941821 0.0096710855         3910 
 3733000   0.65931396   -8.9795049    491.05806  0.010962096  0.009666875         3930 
 3734000   0.64785762   -8.9823595    489.53329  0.010925131 0.0096626684         3937 
 3735000   0.64429209   -8.9795833    491.30712  0.010961783 0.0096584597         3915 
 3736000   0.65561746    -8.965887    490.48917  0.010940604 0.0096542589         3947 
 3737000   0.66209578   -9.0016707    490.32173  0.010933943 0.0096500638         3933 
 3738000   0.65594875   -8.9703191    490.51116  0.010935241 0.0096458637         3938 
 3739000   0.64182907    -8.985055    490.21766  0.010925775 0.0096416661         3940 
 3740000   0.64677541   -8.9770982    491.12306  0.010943027 0.0096374714         3931 
 3741000   0.66451706   -8.9977155    490.56933  0.010927767 0.0096332795         3937 
 3742000   0.65487929   -8.9699982    490.45645  0.010922333 0.0096290864         3928 
 3743000   0.65882103   -8.9892579    490.32909   0.01091658 0.0096248918         3921 
 3744000    0.6556486   -8.9763209    491.12402  0.010931357 0.0096207069         3912 
 3745000    0.6742401   -8.9982928    491.06558  0.010927138 0.0096165257         3938 
 3746000   0.65605213   -8.9939325    489.90369  0.010898374 0.0096123473         3935 
 3747000   0.64137259   -9.0015629    490.23639  0.010902864 0.0096081659         3944 
 3748000   0.65953133   -8.9694277    491.82729  0.010935328 0.0096039867         3948 
 3749000    0.6526775   -8.9897842    491.03521  0.010914804 0.0095998109         3920 
 3750000   0.65114785   -8.9764655    489.84786  0.010885508 0.0095956402         3936 
 3751000   0.63524039   -8.9901246    489.87201  0.010883143 0.0095914704         3926 
 3752000   0.65361427   -8.9907169    489.89267  0.010880701 0.0095872988         3938 
 3753000   0.65402766    -8.975997    489.62271  0.010871807 0.0095831373         3918 
 3754000    0.6531426   -8.9776961     490.0398   0.01087817 0.0095789755         3927 
 3755000   0.65634512   -9.0058234    490.21437  0.010879147 0.0095748166         3922 
 3756000   0.64842877   -8.9951329    489.19281  0.010853586 0.0095706553         3928 
 3757000   0.63951663   -8.9783838     489.8334  0.010864905 0.0095665031         3926 
 3758000   0.64105479   -8.9990471    489.86783  0.010862778  0.009562351         3930 
 3759000   0.63863616    -8.977447    490.36621  0.010870937 0.0095581973         3939 
 3760000   0.64525879    -8.988942    491.29059  0.010888533 0.0095540464         3932 
 3761000   0.64239221   -8.9791487    490.02304  0.010857552 0.0095498964         3914 
 3762000   0.65871517   -8.9934065    491.29979  0.010882948 0.0095457562         3927 
 3763000   0.65303177   -8.9713391    490.44695  0.010861169 0.0095416124         3924 
 3764000   0.65778438   -8.9947625    489.94556  0.010847183 0.0095374726         3929 
 3765000   0.65042846   -8.9886178    490.24757  0.010850986 0.0095333352         3914 
 3766000   0.64165569   -8.9673241    490.41823  0.010851881 0.0095292018         3932 
 3767000   0.64614785   -8.9720054    490.40553   0.01084872 0.0095250677         3903 
 3768000   0.65345216   -8.9797252    490.68089  0.010851931 0.0095209405         3926 
 3769000   0.65311334   -9.0221582    490.56516  0.010846493 0.0095168136         3916 
 3770000   0.64683505   -8.9926598    489.17212  0.010812823 0.0095126886         3924 
 3771000   0.64284371    -9.000339    491.02969  0.010851005 0.0095085649         3944 
 3772000   0.64494791   -9.0018513    490.14417  0.010828565 0.0095044447         3931 
 3773000   0.65335801   -8.9854735    489.92745  0.010820908 0.0095003262         3936 
 3774000   0.65026657   -8.9844061    490.35079  0.010827389  0.009496217         3926 
 3775000    0.6502361   -9.0113576    489.77263  0.010811758 0.0094921035         3928 
 3776000   0.63662426   -8.9847338    490.40576  0.010822867 0.0094879935         3926 
 3777000   0.64563438   -9.0142647    490.52893  0.010822719 0.0094838866         3928 
 3778000   0.65648976   -8.9850968     490.3614  0.010816159 0.0094797812         3925 
 3779000   0.65150848   -9.0027405      489.553  0.010795471 0.0094756765         3912 
 3780000   0.63678654    -8.986457    490.56245  0.010814869 0.0094715761         3935 
 3781000   0.64856361   -8.9726749    491.22664  0.010826647 0.0094674803         3932 
 3782000   0.65498489   -8.9717764    490.55132  0.010808904 0.0094633862         3924 
 3783000   0.64511751   -8.9893419    490.60811  0.010807298 0.0094592899         3914 
 3784000   0.64094866   -8.9749587    490.53379  0.010802805 0.0094552038         3928 
 3785000   0.64296476   -8.9775806    490.81158  0.010806067 0.0094511155         3943 
 3786000   0.64094123   -8.9840856     489.9308  0.010783826   0.00944703         3927 
 3787000   0.63261482    -8.980907      490.991  0.010804309 0.0094429463         3936 
 3788000   0.65230206   -8.9843025    490.25183  0.010785195 0.0094388678         3924 
 3789000   0.65516833   -8.9836848    490.86928  0.010795928 0.0094347909         3925 
 3790000   0.64391277    -8.977439    489.52388  0.010763498 0.0094307141         3931 
 3791000   0.62670145   -8.9982313    489.60316  0.010762401 0.0094266389         3907 
 3792000   0.65649374   -8.9800187    490.42421  0.010777606 0.0094225689         3924 
 3793000   0.66088437   -9.0069992    490.04605  0.010766457 0.0094184981         3934 
 3794000   0.66123105   -9.0004493    489.21267  0.010745314 0.0094144299         3942 
 3795000    0.6429312    -9.023448    489.44856  0.010747663 0.0094103678         3939 
 3796000   0.64255361   -8.9832696    490.23011  0.010761989  0.009406308         3918 
 3797000    0.6456488   -8.9994808    491.20744  0.010780604  0.009402251         3921 
 3798000   0.65027897    -9.008771     490.9477  0.010772066 0.0093981935         3944 
 3799000   0.65804583   -9.0183655    490.83539  0.010766767 0.0093941413         3921 
 3800000   0.63914492   -9.0064616    490.35691  0.010753441 0.0093900876         3942 
 3801000   0.63505233   -9.0063394    490.35435  0.010750556 0.0093860372         3933 
 3802000   0.64608443   -9.0065341    489.20979  0.010722641 0.0093819939         3942 
 3803000   0.66590797   -8.9896979    490.15395  0.010740511 0.0093779524         3914 
 3804000   0.64674618   -8.9982246    490.86252   0.01075321 0.0093739074         3937 
 3805000   0.63250223   -8.9995443    489.74889  0.010725994 0.0093698671         3944 
 3806000   0.64040251   -9.0190829    489.53025  0.010718389 0.0093658294         3937 
 3807000    0.6479886   -8.9909062    491.30962  0.010754523 0.0093617943         3929 
 3808000   0.64490101   -8.9654775    489.88354  0.010720491 0.0093577584         3933 
 3809000   0.63693236    -8.983337    490.07447  0.010721853 0.0093537251         3930 
 3810000   0.62462238   -9.0019367     488.8956  0.010693255 0.0093496917         3936 
 3811000   0.65111559   -9.0217746    489.08123  0.010694508  0.009345662         3937 
 3812000   0.62832757    -8.998547    490.95958  0.010732765 0.0093416348         3925 
 3813000   0.64911518   -8.9960932     490.6581  0.010723361 0.0093376081         3927 
 3814000   0.63879819   -8.9919249    489.12198  0.010686986 0.0093335865         3932 
 3815000   0.63753205   -9.0086818    489.17962  0.010685444 0.0093295627         3938 
 3816000    0.6467078   -8.9978134    489.98993  0.010700339 0.0093255465         3929 
 3817000   0.64093326   -8.9937841    489.66881  0.010690525 0.0093215312         3935 
 3818000   0.64626452   -9.0009076    490.16109   0.01069847 0.0093175174         3942 
 3819000   0.63384238   -9.0085394    489.88003  0.010689536 0.0093135069         3933 
 3820000   0.64243773   -9.0052621    490.85061   0.01070791 0.0093095014         3935 
 3821000   0.64288307   -8.9734051    489.73088  0.010680687 0.0093054957         3926 
 3822000   0.63822326   -9.0074867    489.89042  0.010681371 0.0093014911         3937 
 3823000   0.63891663   -8.9906132    490.93964  0.010701448 0.0092974929         3934 
 3824000   0.63950881   -8.9889375    490.14462  0.010681324 0.0092934986         3937 
 3825000   0.64119434   -9.0048111    490.92284  0.010695487 0.0092895046         3929 
 3826000   0.64069133   -9.0067126    489.07082  0.010652353 0.0092855096         3940 
 3827000    0.6304176   -9.0027897    489.60829  0.010661273 0.0092815198         3930 
 3828000    0.6299815   -9.0177247    489.95098  0.010665948  0.009277528         3916 
 3829000   0.63404843   -9.0124813    489.25476   0.01064801 0.0092735426         3942 
 3830000   0.65114133   -9.0107021    489.95695  0.010660508 0.0092695568         3916 
 3831000   0.62728036   -9.0145075    489.92577  0.010657047  0.009265574         3934 
 3832000   0.63923686   -9.0234089    489.55801  0.010646269  0.009261593         3922 
 3833000   0.64421562   -9.0204292     490.4608  0.010663119 0.0092576137         3936 
 3834000   0.64118547   -9.0221402    489.63748  0.010642442 0.0092536336         3933 
 3835000   0.63768536   -9.0191908    489.55808  0.010637942 0.0092496568         3946 
 3836000   0.63824471   -9.0293945    489.49568  0.010633813 0.0092456816         3946 
 3837000   0.63797855   -8.9987044    489.74352  0.010636424 0.0092417087         3935 
 3838000   0.63837117   -9.0199891    489.47468  0.010627816 0.0092377438         3933 
 3839000   0.64217239     -9.02191    489.19628  0.010619004 0.0092337833         3923 
 3840000   0.63947018   -9.0026418    490.33599  0.010640972 0.0092298163         3934 
 3841000   0.63217733   -8.9966399    490.23829  0.010636082 0.0092258556         3940 
 3842000   0.63790965   -8.9983707    490.33579  0.010635428  0.009221896         3939 
 3843000   0.63649123    -9.009152    490.68311  0.010640192 0.0092179383         3931 
 3844000   0.63693403   -8.9963246    490.40565  0.010631409 0.0092139833         3940 
 3845000   0.63671807   -9.0337792     489.5459  0.010610011  0.009210028         3940 
 3846000   0.64353007   -9.0006963    489.30077  0.010601941 0.0092060749         3941 
 3847000   0.64992345   -9.0166015    489.81643  0.010610355 0.0092021268         3929 
 3848000   0.62035422   -9.0148342    490.47722  0.010621908 0.0091981811         3948 
 3849000   0.63686758   -9.0019149    489.46057  0.010597137 0.0091942374         3934 
 3850000   0.62930432   -8.9840601    490.18057  0.010609969  0.009190298         3942 
 3851000   0.63635844   -9.0006492    490.61086  0.010616525 0.0091863587         3949 
 3852000   0.62424774   -9.0332774    489.68223  0.010593679 0.0091824217         3938 
 3853000   0.62761952   -9.0288662    489.48609  0.010586688 0.0091784855         3938 
 3854000   0.62308751   -9.0077754    489.94197  0.010593798  0.009174549         3932 
 3855000    0.6283178   -9.0115356    489.95287  0.010591286 0.0091706161         3940 
 3856000   0.62694825   -9.0379407    489.57663  0.010580408 0.0091666849         3937 
 3857000    0.6304802   -9.0149753    489.47309  0.010575428 0.0091627568         3931 
 3858000   0.63850442   -9.0148658    490.18473  0.010588058 0.0091588337         3922 
 3859000   0.63445168   -9.0287869     489.7621  0.010576188 0.0091549125         3932 
 3860000   0.62635289   -9.0308891    488.52186  0.010546672 0.0091509912         3940 
 3861000   0.64186621   -9.0078133    490.52595  0.010587196 0.0091470724         3946 
 3862000   0.64657706    -9.011631    489.54775  0.010563347 0.0091431554         3920 
 3863000   0.63324181   -9.0231519    489.88293  0.010567843 0.0091392405         3945 
 3864000   0.62499187   -9.0170481    488.57635   0.01053693 0.0091353297         3927 
 3865000   0.62569287   -9.0274602    489.74922  0.010559491 0.0091314215         3928 
 3866000   0.64698599   -8.9998468    489.82129  0.010558314 0.0091275137         3936 
 3867000   0.63479617   -9.0280318    490.18839  0.010563494 0.0091236092         3931 
 3868000   0.63142909    -9.036589     489.1194  0.010537733 0.0091197056         3941 
 3869000   0.62871953   -9.0200929    489.16056  0.010535896 0.0091158046         3938 
 3870000   0.64988903   -9.0212458    489.44793  0.010539361 0.0091119055         3957 
 3871000   0.63466005   -9.0173211    490.46567  0.010558548  0.009108012         3947 
 3872000   0.63126853   -9.0268404    489.63913  0.010538032 0.0091041138         3925 
 3873000   0.63215822    -9.019279    488.82788  0.010517856 0.0091002212         3948 
 3874000   0.65060881   -9.0274202    490.00044  0.010540364 0.0090963314         3937 
 3875000   0.63839986   -9.0426159    488.57075  0.010506898 0.0090924399         3950 
 3876000   0.61909062   -9.0046768    489.28561  0.010519556 0.0090885532         3926 
 3877000   0.63551045   -9.0284029     489.4528  0.010520437 0.0090846676         3931 
 3878000   0.64311968   -9.0109358    489.26633  0.010513717  0.009080784         3929 
 3879000   0.65025665   -9.0162415    488.89712  0.010503075 0.0090769048         3935 
 3880000   0.63454868   -9.0294608    488.94517    0.0105014 0.0090730237         3930 
 3881000    0.6354515   -9.0288179    488.76658  0.010494859 0.0090691492         3927 
 3882000   0.62439541   -9.0127036    489.76275   0.01051354 0.0090652746         3911 
 3883000   0.63060186   -9.0212353     490.2089  0.010520407 0.0090614012         3918 
 3884000     0.640255   -9.0249918    488.93704   0.01049041 0.0090575294         3949 
 3885000   0.63708491   -9.0175623    489.35885  0.010496758 0.0090536635         3926 
 3886000   0.61877465    -9.010854    489.93413  0.010506393 0.0090497961         3923 
 3887000   0.62292028   -9.0143251     489.3743  0.010491688 0.0090459306         3937 
 3888000   0.62461824   -9.0226766    489.56302  0.010493035 0.0090420643         3944 
 3889000    0.6245926   -9.0145229    490.22814  0.010504589 0.0090382045         3931 
 3890000   0.64323151   -9.0293367    489.72804  0.010491175 0.0090343499         3930 
 3891000   0.62811606   -9.0244091    489.98983  0.010494085 0.0090304939         3942 
 3892000   0.62387478   -9.0190209    489.50888  0.010481091 0.0090266439         3933 
 3893000   0.62155601   -9.0140368    489.09402  0.010469518 0.0090227973         3931 
 3894000   0.62504828    -9.025566    489.13782  0.010467767 0.0090189509         3921 
 3895000   0.62176671    -9.033693    489.15522  0.010465452 0.0090151043         3937 
 3896000   0.62488428   -9.0128767    490.18722   0.01048484 0.0090112609         3936 
 3897000   0.65017786   -9.0228608    489.63564  0.010470354 0.0090074194         3931 
 3898000   0.61562695   -9.0353391    489.88988  0.010473103 0.0090035802         3943 
 3899000   0.61974735   -9.0167768    489.40598  0.010460075 0.0089997427         3920 
 3900000   0.63606699   -9.0326618    490.03169  0.010470763 0.0089959085         3925 
 3901000   0.62877888   -9.0231253    488.89267  0.010443747 0.0089920777         3945 
 3902000   0.61713603   -9.0333359    488.20463  0.010426376  0.008988247         3930 
 3903000    0.6333575   -9.0203821    488.70222  0.010434329 0.0089844178         3941 
 3904000   0.62548468   -9.0159076    489.50761  0.010448848 0.0089805895         3928 
 3905000   0.62893275   -9.0318362    488.91645  0.010433556 0.0089767641         3941 
 3906000    0.6077878   -9.0195226    490.08581  0.010455833 0.0089729403         3929 
 3907000   0.62003126   -9.0383897    489.12892  0.010432747 0.0089691208         3946 
 3908000   0.62678237   -9.0173616     489.8208  0.010444831 0.0089653048         3939 
 3909000   0.64927173   -9.0133291    489.99121  0.010445792 0.0089614905         3957 
 3910000   0.61527033    -9.024986    489.29459  0.010428274 0.0089576769         3942 
 3911000   0.62494841   -9.0208967    488.85054  0.010416146 0.0089538649         3934 
 3912000   0.62615538   -9.0233133    489.78012  0.010433285 0.0089500523         3946 
 3913000   0.62514322   -9.0138905    488.92774  0.010412466 0.0089462454         3928 
 3914000   0.62033557   -9.0473508    489.18603  0.010415305 0.0089424362         3933 
 3915000   0.63362276   -9.0361497    489.59825  0.010421419 0.0089386295         3939 
 3916000   0.62307837   -9.0170849    489.18501  0.010409964 0.0089348247         3922 
 3917000   0.63201533   -9.0371628    490.01707  0.010425008  0.008931027         3940 
 3918000    0.6198631   -9.0386524    488.47895  0.010389632 0.0089272288         3933 
 3919000   0.62905065   -9.0186799    488.91534   0.01039626 0.0089234343         3935 
 3920000   0.62185461   -9.0164359     489.6116   0.01040841 0.0089196425         3940 
 3921000   0.62844963   -9.0456922    489.05957  0.010394023  0.008915856         3952 
 3922000   0.62804604   -9.0448856    488.88412  0.010387645 0.0089120664         3951 
 3923000   0.62187987   -9.0290094     489.3499  0.010394891 0.0089082813         3941 
 3924000    0.6176408   -9.0093441     489.8546  0.010402961 0.0089045004         3939 
 3925000   0.62454559   -9.0362328    489.56766  0.010394218 0.0089007227         3931 
 3926000   0.61834029   -9.0154692    489.67634  0.010393877 0.0088969446         3949 
 3927000    0.6267498   -9.0302793    488.63869  0.010369211 0.0088931701         3945 
 3928000   0.63085511   -9.0547472    488.60419  0.010365839 0.0088893976         3954 
 3929000   0.62817564   -9.0272782    489.56126    0.0103835 0.0088856236         3944 
 3930000    0.6225355   -9.0307318    489.28339  0.010374966 0.0088818528         3946 
 3931000   0.61296046   -9.0549668    488.69121  0.010359773 0.0088780844         3952 
 3932000   0.60173097   -9.0355655    489.07989  0.010365376 0.0088743165         3949 
 3933000    0.6170886   -9.0055685    490.12955  0.010384981 0.0088705547         3948 
 3934000   0.62459119   -9.0406583    488.87587  0.010355784 0.0088667936         3949 
 3935000   0.62492509   -9.0363126    489.68012  0.010370185 0.0088630357         3950 
 3936000   0.63094467   -9.0447635    489.59176  0.010365679 0.0088592782         3946 
 3937000   0.61812831   -9.0486039    488.99234  0.010350359 0.0088555224         3953 
 3938000   0.62590011   -9.0405218    489.07083  0.010349391 0.0088517677         3940 
 3939000   0.61390384   -9.0431964    488.97616  0.010344761 0.0088480157         3938 
 3940000   0.62870994   -9.0511975    489.03007  0.010343276 0.0088442694         3937 
 3941000    0.6253566   -9.0321162    488.73903  0.010334497 0.0088405202         3933 
 3942000   0.62412799   -9.0422064    488.83538  0.010333912 0.0088367721         3938 
 3943000   0.62766984   -9.0529915    489.87314  0.010353224 0.0088330301         3936 
 3944000   0.61910792   -9.0284434    489.34693   0.01033948 0.0088292902         3947 
 3945000   0.62083903   -9.0161897    489.51278  0.010340363 0.0088255524         3954 
 3946000   0.61605333   -9.0537626    488.89018  0.010324594 0.0088218147         3942 
 3947000   0.61170283   -9.0322036    489.06407   0.01032565 0.0088180801         3944 
 3948000   0.61889736   -9.0264772    489.60038  0.010334355 0.0088143496         3942 
 3949000   0.61686861   -9.0382296    488.95349  0.010318087 0.0088106241         3945 
 3950000   0.62128378   -9.0379632    489.79875  0.010333307 0.0088068986         3945 
 3951000   0.62706899   -9.0516434    488.56557  0.010304682 0.0088031711         3940 
 3952000   0.62803726   -9.0529023     488.2171  0.010294726 0.0087994442         3928 
 3953000   0.62071509   -9.0486956    488.45321  0.010297099  0.008795723         3932 
 3954000   0.62530179   -9.0360141    489.68611  0.010320479 0.0087920034         3943 
 3955000   0.62446375   -9.0518811    489.32643  0.010310291 0.0087882839         3928 
 3956000   0.62056575    -9.023342    488.46239  0.010289484 0.0087845676         3925 
 3957000   0.61892145   -9.0276489    489.83054  0.010315697 0.0087808519         3941 
 3958000   0.61519857   -9.0270934    489.44153    0.0103049 0.0087771377         3934 
 3959000   0.62395177     -9.04121    489.58198  0.010305253 0.0087734281         3924 
 3960000    0.6256657   -9.0445896    489.23211  0.010295288 0.0087697184         3942 
 3961000   0.62457486   -9.0353053    488.81602  0.010283935 0.0087660095         3932 
 3962000   0.61969383   -9.0280363    489.18506  0.010289102 0.0087623058         3932 
 3963000   0.62159669    -9.019835    489.27082  0.010288309 0.0087586047         3919 
 3964000   0.62916708   -9.0514505    488.79995  0.010275815 0.0087549057         3944 
 3965000   0.60826139   -9.0412452    489.85839  0.010295469 0.0087512062         3942 
 3966000   0.61068956   -9.0445591    489.99899  0.010295827 0.0087475091         3939 
 3967000   0.62602328   -9.0562376    489.21836  0.010276833  0.008743816         3939 
 3968000    0.6304854   -9.0663416    488.12494   0.01025128 0.0087401224         3949 
 3969000   0.60108815   -9.0445679    488.78855   0.01026263 0.0087364321         3946 
 3970000   0.60415193   -9.0528579    489.05296  0.010265595 0.0087327413         3933 
 3971000   0.62006527   -9.0507129    489.46232  0.010271601 0.0087290567         3940 
 3972000   0.61895116   -9.0349174    489.34207  0.010266492 0.0087253723         3943 
 3973000   0.61524478   -9.0421759    488.84994  0.010253585 0.0087216878         3916 
 3974000   0.61847248   -9.0634309    488.28054  0.010239065 0.0087180094         3926 
 3975000   0.61861564   -9.0462022    489.00392  0.010251654 0.0087143315         3934 
 3976000   0.63021976   -9.0396528    489.71087  0.010263893 0.0087106579         3937 
 3977000   0.62862725    -9.046892    488.84507  0.010243171 0.0087069877         3934 
 3978000   0.62023592   -9.0368638    488.28086  0.010228776 0.0087033134         3933 
 3979000    0.6151419   -9.0266182    489.25328  0.010246571   0.00869964         3942 
 3980000   0.62057074   -9.0615529    490.22946  0.010264436 0.0086959713         3941 
 3981000   0.61409371   -9.0366483    488.50878  0.010225839 0.0086923015         3943 
 3982000   0.63559431   -9.0532109    488.50233  0.010223136 0.0086886395         3940 
 3983000   0.60707429    -9.052293    489.90233   0.01024986 0.0086849768         3947 
 3984000   0.61749961   -9.0540662    489.17943  0.010232167 0.0086813158         3930 
 3985000    0.6082954   -9.0419698    488.44121  0.010214162 0.0086776566         3934 
 3986000   0.61232091   -9.0444609    489.06997  0.010224744 0.0086739984         3942 
 3987000    0.6028683   -9.0501933    488.70021  0.010214451 0.0086703431         3915 
 3988000   0.60657779   -9.0603728     488.8413  0.010214838 0.0086666892         3938 
 3989000   0.62582023   -9.0586579    489.09473  0.010217572 0.0086630384         3942 
 3990000   0.60354457   -9.0429534    488.81394  0.010209147 0.0086593858         3941 
 3991000   0.61118675   -9.0381145    488.66313   0.01020344 0.0086557414         3933 
 3992000   0.60359217   -9.0364646    488.72115  0.010202095 0.0086520999         3945 
 3993000   0.61350532   -9.0541648     488.7347  0.010199823 0.0086484558         3937 
 3994000   0.60864669   -9.0388282    488.46253   0.01019159 0.0086448144         3927 
 3995000   0.60459298   -9.0613384    488.40128  0.010187761 0.0086411778         3922 
 3996000   0.60795713   -9.0422914    488.50963  0.010187471 0.0086375422         3929 
 3997000   0.61968657   -9.0567677    488.95618  0.010194233 0.0086339096         3930 
 3998000   0.61138307   -9.0420278    489.44598  0.010201892 0.0086302778         3945 
 3999000   0.61329017   -9.0544976    489.11018  0.010192343 0.0086266465         3944 
 4000000   0.60897765   -9.0134883    489.77917  0.010203733 0.0086230173         3933 
 4001000   0.61907494   -9.0619771    488.51978  0.010174952 0.0086193938         3936 
 4002000   0.62743694   -9.0324569    488.37021  0.010169295 0.0086157705         3935 
 4003000   0.60375185   -9.0654365     488.4076  0.010167533 0.0086121475         3947 
 4004000   0.62343091   -9.0345714    488.98279  0.010176964 0.0086085284         3928 
 4005000   0.62462714   -9.0201571    488.50852  0.010164555 0.0086049149         3932 
 4006000   0.61885698   -9.0531489    489.72423  0.010187307 0.0086012998         3944 
 4007000   0.60257731   -9.0698988    487.81945  0.010145151 0.0085976801         3943 
 4008000    0.6077636    -9.038115    489.62858  0.010180235 0.0085940715         3920 
 4009000   0.59796531    -9.052167    489.16201  0.010167997 0.0085904613         3940 
 4010000   0.61740332   -9.0473423    488.14335  0.010144292 0.0085868588         3933 
 4011000   0.61691887   -9.0585037    488.01582  0.010139114 0.0085832535         3943 
 4012000   0.59529205   -9.0439573    489.19121  0.010161001 0.0085796512         3919 
 4013000    0.6159572   -9.0584564     488.0506  0.010134783  0.008576052         3953 
 4014000   0.60739259   -9.0512155    489.65648  0.010165597 0.0085724511         3941 
 4015000   0.59934656   -9.0649287    488.92412  0.010147865 0.0085688548         3934 
 4016000   0.62157189   -9.0567641    488.52437  0.010137043 0.0085652582         3931 
 4017000   0.59983547   -9.0554221    488.17778  0.010127329 0.0085616604         3942 
 4018000   0.61256857   -9.0485065    488.90376  0.010139866 0.0085580698         3941 
 4019000   0.60458513   -9.0446891    489.00482  0.010139438 0.0085544791         3932 
 4020000   0.59688024   -9.0402272    489.27252  0.010142465 0.0085508917         3950 
 4021000   0.60343914    -9.058565    489.20881  0.010138623 0.0085473049         3934 
 4022000   0.61207717   -9.0567685    488.59624   0.01012341   0.00854372         3943 
 4023000   0.59503062    -9.066812     488.4206  0.010117255 0.0085401365         3928 
 4024000   0.60768306   -9.0574197    488.03246  0.010106703 0.0085365582         3944 
 4025000   0.60685305   -9.0327552    488.65632  0.010117108 0.0085329807         3936 
 4026000   0.60208399   -9.0768416    488.98133  0.010121322 0.0085294075         3943 
 4027000   0.61447122   -9.0361156    488.71751   0.01011335 0.0085258372         3956 
 4028000   0.60535234   -9.0482565    489.11652  0.010119094 0.0085222679         3935 
 4029000   0.61163061   -9.0639482    489.53505  0.010125239 0.0085187018         3950 
 4030000   0.60959814   -9.0495219    489.31547  0.010118186 0.0085151369         3951 
 4031000   0.60916484   -9.0508041    489.37392  0.010116884 0.0085115719         3935 
 4032000   0.60690879   -9.0540991    487.80981  0.010082048 0.0085080084         3951 
 4033000   0.60889137   -9.0547909    489.08242  0.010105844 0.0085044488         3941 
 4034000   0.59951788   -9.0555652    489.11628  0.010104038  0.008500889         3940 
 4035000   0.59103249   -9.0655547    487.43753  0.010066863  0.008497334         3939 
 4036000   0.60833316   -9.0650721    489.10026  0.010098701  0.008493776         3948 
 4037000   0.61425584   -9.0844711    488.43352  0.010082436 0.0084902241         3939 
 4038000   0.61291333   -9.0522101    488.73607  0.010086183 0.0084866735         3925 
 4039000   0.60431174   -9.0597641    488.50979  0.010079017  0.008483123         3933 
 4040000   0.61026572   -9.0506729    488.92507  0.010085088 0.0084795729         3934 
 4041000    0.5941643   -9.0476382    488.44027  0.010072595   0.00847603         3949 
 4042000   0.60961577   -9.0695509    488.99969  0.010081636 0.0084724852         3936 
 4043000   0.60398566   -9.0475399    489.44868  0.010088397 0.0084689418         3935 
 4044000   0.60674734   -9.0762567    488.61192   0.01006866 0.0084654047         3923 
 4045000   0.60938062   -9.0752428    489.06384  0.010075481 0.0084618658         3935 
 4046000   0.62572443   -9.0729238    488.74304  0.010066383 0.0084583286         3945 
 4047000   0.62204897   -9.0526065     488.9995  0.010069177  0.008454794         3942 
 4048000   0.59543833   -9.0519533    488.63638  0.010059214 0.0084512585         3933 
 4049000   0.61531254   -9.0725597    488.82711  0.010060655 0.0084477277         3940 
 4050000   0.60442217   -9.0677908    488.81478  0.010057917 0.0084441981         3933 
 4051000   0.60581366    -9.046133    489.25808  0.010064554 0.0084406733         3939 
 4052000   0.59768094   -9.0574179    488.59876   0.01004851 0.0084371483         3934 
 4053000   0.59202415   -9.0797956    488.14886   0.01003678 0.0084336254         3955 
 4054000   0.58605941   -9.0808111    488.32907  0.010038009 0.0084301012         3938 
 4055000   0.59522475   -9.0623856    488.28448  0.010034617 0.0084265826         3942 
 4056000   0.59957842   -9.0677593    488.17444  0.010029883 0.0084230654         3943 
 4057000   0.59984698   -9.0698409    488.64622  0.010037101 0.0084195507         3935 
 4058000     0.607601   -9.0438673    488.88088  0.010039446 0.0084160385         3943 
 4059000   0.60290781   -9.0499645     488.2265  0.010023538 0.0084125323         3931 
 4060000   0.60224605   -9.0645067    487.86827  0.010013716 0.0084090261         3949 
 4061000    0.6034737   -9.0513653    488.64865  0.010027265 0.0084055201         3952 
 4062000   0.60869215   -9.0607109    488.62195  0.010024248  0.008402015         3932 
 4063000   0.61226243   -9.0671204    488.82881  0.010026024 0.0083985097         3941 
 4064000   0.59767241   -9.0446863    488.45225  0.010015835 0.0083950087         3938 
 4065000    0.5871232   -9.0723601    488.67295  0.010017896 0.0083915083         3950 
 4066000   0.60841797   -9.0742727    488.50399  0.010011969 0.0083880085         3948 
 4067000   0.60395885   -9.0640937    488.07247  0.010000665 0.0083845092         3940 
 4068000    0.5948323   -9.0570578    488.65041  0.010010046 0.0083810164         3921 
 4069000   0.59864073   -9.0712534    488.61893  0.010006941 0.0083775229         3943 
 4070000    0.6003131    -9.061634    488.16719 0.0099952332 0.0083740354         3940 
 4071000   0.59982744     -9.06721    488.73467  0.010004394 0.0083705469         3944 
 4072000   0.60187288   -9.0780688    488.04129 0.0099877474 0.0083670609         3940 
 4073000   0.61193094   -9.0746965    488.62219 0.0099971804 0.0083635774         3960 
 4074000   0.59569706   -9.0563018    488.92354  0.010000891 0.0083600952         3936 
 4075000   0.59084034   -9.0691618    488.40195 0.0099877699 0.0083566152         3940 
 4076000   0.59781046   -9.0863247      487.788 0.0099727674 0.0083531373         3940 
 4077000   0.59877448   -9.0764345    488.32621 0.0099813222 0.0083496624         3928 
 4078000   0.60644037   -9.0768302    488.79424 0.0099884389 0.0083461888         3947 
 4079000   0.59972835   -9.0691339    487.98998 0.0099695591 0.0083427177         3937 
 4080000   0.59759943   -9.0580736    487.99495  0.009967217   0.00833925         3940 
 4081000   0.59095258   -9.0677733    488.23081 0.0099695911 0.0083357808         3938 
 4082000   0.59648321   -9.0799207    487.91529 0.0099607075 0.0083323153         3941 
 4083000   0.60777823   -9.0631996    487.91956  0.009958355 0.0083288475         3941 
 4084000   0.60001529   -9.0836579    488.28512 0.0099633757 0.0083253858         3946 
 4085000   0.59534924   -9.0869196    488.44265 0.0099641504  0.008321923         3951 
 4086000   0.59008697   -9.0709209    487.74233 0.0099474289 0.0083184671         3946 
 4087000   0.58573844   -9.0942932    488.60714 0.0099626283 0.0083150101         3944 
 4088000   0.60034995   -9.0688856    488.86207 0.0099653878 0.0083115565         3954 
 4089000   0.58586189   -9.0522667    488.63717 0.0099583674 0.0083081041         3952 
 4090000   0.60815979   -9.0496818    488.78472 0.0099589389 0.0083046535         3957 
 4091000   0.60306039   -9.0677468    488.46069 0.0099499041 0.0083012059         3944 
 4092000   0.59490934   -9.0706896    488.17177 0.0099415886 0.0082977581         3945 
 4093000   0.59266526   -9.0609957    487.85883 0.0099327882 0.0082943134         3938 
 4094000   0.59927248    -9.071062    488.95253 0.0099526244 0.0082908676         3953 
 4095000   0.59367901   -9.0762837    488.47274 0.0099404301 0.0082874243         3946 
 4096000   0.60073924   -9.0662944    487.69819 0.0099222452 0.0082839807         3942 
 4097000   0.59122223    -9.070853    487.78515  0.009921592  0.008280543         3930 
 4098000   0.60350786   -9.0809948    487.85748 0.0099206417 0.0082771101         3938 
 4099000   0.58579004   -9.0915737    487.80204 0.0099170944 0.0082736759         3932 
 4100000    0.5973174   -9.0763131    489.12675 0.0099416006 0.0082702458         3944 
 4101000   0.58499663   -9.0577016     488.6624 0.0099297407 0.0082668169         3936 
 4102000   0.59034921   -9.0765364    488.14655 0.0099168404 0.0082633895         3941 
 4103000   0.59206031   -9.0878877    488.30176 0.0099175757 0.0082599648         3944 
 4104000   0.59758691   -9.0833465    487.34868 0.0098958065  0.008256539         3955 
 4105000   0.59355511   -9.0958033     488.1647 0.0099099615 0.0082531142         3944 
 4106000   0.59132792   -9.0710446    487.96226 0.0099034392 0.0082496926         3939 
 4107000   0.59378332   -9.0667162    487.58057 0.0098932833 0.0082462736         3948 
 4108000   0.60563984    -9.092678    488.05626 0.0099005246 0.0082428587         3938 
 4109000   0.60362709   -9.1051268    488.79991 0.0099131968 0.0082394463         3958 
 4110000    0.5932105   -9.1024072    488.01016  0.009894772 0.0082360341         3955 
 4111000   0.59122377   -9.0693415    488.10202 0.0098942273 0.0082326211         3931 
 4112000   0.59810925   -9.0961606    488.10142 0.0098918089 0.0082292077         3942 
 4113000   0.58902146   -9.0844499    488.17391 0.0098908725 0.0082258013         3945 
 4114000   0.59474059   -9.0797744     488.3385 0.0098918024 0.0082223931         3933 
 4115000    0.6017557   -9.0858592    487.97445 0.0098820262 0.0082189907         3948 
 4116000   0.59311568   -9.0826736    488.36401 0.0098875123 0.0082155893         3949 
 4117000   0.61065694    -9.069506    489.25906 0.0099032276 0.0082121919         3933 
 4118000   0.59622101   -9.0781094    487.76277 0.0098705434 0.0082087962         3920 
 4119000   0.58479769   -9.0790415    487.09634 0.0098546642 0.0082054009         3942 
 4120000   0.58899729    -9.077393    487.65112 0.0098634936 0.0082020071         3945 
 4121000   0.59465585    -9.082085    488.10182 0.0098702139 0.0081986149         3930 
 4122000   0.58413117   -9.0938152    488.19788 0.0098697614 0.0081952221         3947 
 4123000   0.59918547   -9.0645696    488.83962 0.0098803383 0.0081918313         3942 
 4124000   0.58269617   -9.0439402    488.17539 0.0098645205 0.0081884442         3938 
 4125000   0.60493893   -9.0945215    487.67986 0.0098521184 0.0081850608         3938 
 4126000   0.58426888   -9.0897347    487.32735 0.0098426109 0.0081816753         3942 
 4127000   0.60117482   -9.0783581    487.91663 0.0098521249 0.0081782881         3954 
 4128000    0.5968855   -9.0630624     487.7042 0.0098454497 0.0081749059         3948 
 4129000   0.58629609   -9.0806583    488.54576 0.0098600501 0.0081715281         3920 
 4130000   0.58898236     -9.10471    487.84175 0.0098434574 0.0081681484         3938 
 4131000    0.6084984   -9.1034256    487.65502 0.0098373079 0.0081647743         3948 
 4132000   0.59802717   -9.0891529    487.80496 0.0098379509 0.0081614005         3938 
 4133000   0.58815492    -9.088392    487.28573 0.0098251015 0.0081580285         3949 
 4134000   0.59776124   -9.1053623    488.21151 0.0098413867 0.0081546585         3953 
 4135000   0.59939605   -9.0923127    487.88226 0.0098323712 0.0081512902         3941 
 4136000   0.58622947   -9.0912226    487.83848 0.0098291119 0.0081479243         3940 
 4137000   0.58144267   -9.0827441    487.87629 0.0098274975 0.0081445623         3947 
 4138000   0.58507686   -9.0797761      488.432 0.0098363138  0.008141202         3950 
 4139000   0.58796833   -9.0936856     488.1632 0.0098285255 0.0081378442         3947 
 4140000    0.6041364    -9.083278    487.72212  0.009817273 0.0081344872         3956 
 4141000   0.60474262   -9.0757738    487.96402 0.0098197702 0.0081311333         3936 
 4142000   0.58747504   -9.0816696     488.4579 0.0098273358 0.0081277794         3948 
 4143000   0.58603695   -9.0940146    487.72259 0.0098101736 0.0081244281         3942 
 4144000   0.58668736   -9.0728763    488.14377  0.009816276 0.0081210742         3938 
 4145000   0.58328347    -9.094489    488.22561  0.009815553 0.0081177215         3930 
 4146000   0.59458248   -9.0822102    487.93408 0.0098073259  0.008114374         3943 
 4147000   0.58117924   -9.0942314     488.3608 0.0098135359 0.0081110273         3932 
 4148000   0.57554786   -9.0706274    487.82538 0.0098004134 0.0081076786         3937 
 4149000   0.59437413   -9.0805413    487.78004 0.0097971407 0.0081043356         3944 
 4150000   0.58893221   -9.0659135    488.35073 0.0098062396 0.0081009945         3946 
 4151000   0.58739405   -9.1068601    487.57554 0.0097883149 0.0080976579         3960 
 4152000   0.57490303   -9.0645966    488.82573 0.0098110494 0.0080943235         3948 
 4153000   0.59350465   -9.0816989    488.40771 0.0098002992 0.0080909871         3941 
 4154000   0.59002699   -9.0684564    487.86044 0.0097869612 0.0080876541         3950 
 4155000    0.5780204   -9.0766292    488.13151 0.0097900423 0.0080843228         3952 
 4156000   0.57748102    -9.078157    488.40587 0.0097931879 0.0080809955         3949 
 4157000    0.5952239   -9.0956836    488.48022 0.0097923226 0.0080776639         3943 
 4158000   0.57382866   -9.1010587    488.56684 0.0097917035 0.0080743394         3934 
 4159000   0.58914352   -9.0781689    487.85004 0.0097749867 0.0080710102         3930 
 4160000   0.58658018   -9.0986974    487.29038 0.0097614259 0.0080676893         3934 
 4161000   0.58019206   -9.0848411    487.28897 0.0097590517 0.0080643664         3946 
 4162000   0.57866092   -9.0874326    487.68756 0.0097646876 0.0080610466         3948 
 4163000   0.59004804   -9.0850595    487.14936 0.0097515685 0.0080577263         3939 
 4164000   0.58418717   -9.0902981    486.99413 0.0097461201 0.0080544099         3935 
 4165000   0.58873374   -9.1020663    487.35611 0.0097510227 0.0080510967         3942 
 4166000   0.58448092   -9.0740558    487.35983 0.0097487564 0.0080477832         3944 
 4167000   0.59868477     -9.08532     487.2326 0.0097438725 0.0080444754         3938 
 4168000   0.58252284    -9.087483    488.09426 0.0097587623 0.0080411636         3934 
 4169000   0.58157718   -9.1146751    487.68547 0.0097482503 0.0080378563         3951 
 4170000    0.5795082   -9.0925445    487.25679  0.009737346 0.0080345495         3931 
 4171000   0.58290445   -9.0984916    488.60532 0.0097619539 0.0080312477         3937 
 4172000   0.58410056   -9.0983432    487.23363 0.0097322153 0.0080279454         3939 
 4173000   0.58370721     -9.09667    487.63296 0.0097378577 0.0080246476         3945 
 4174000   0.57849519   -9.0855104    487.98754 0.0097426039 0.0080213484         3937 
 4175000   0.58774045   -9.1017784    487.74424  0.009735414 0.0080180534         3945 
 4176000   0.58657997   -9.0968935    487.07279 0.0097196837 0.0080147589         3947 
 4177000   0.59396215   -9.1250923    487.76874 0.0097312414 0.0080114677         3951 
 4178000   0.57797167   -9.0953613    487.97262 0.0097329787  0.008008177         3942 
 4179000   0.57951884   -9.0842915    487.89018 0.0097290057 0.0080048872         3931 
 4180000   0.57995262   -9.0848576    487.10472 0.0097110192 0.0080015972         3948 
 4181000   0.58043713   -9.0980121    487.37943 0.0097141718 0.0079983118         3931 
 4182000   0.57898308   -9.0810811    487.54739 0.0097151958 0.0079950296         3946 
 4183000   0.58706848    -9.086072    487.33662 0.0097086744  0.007991748         3948 
 4184000   0.58385784   -9.1056122    487.23732 0.0097043762 0.0079884678         3942 
 4185000   0.58224427   -9.0837803    487.82591 0.0097137776 0.0079851875         3932 
 4186000   0.59277097   -9.0975518    487.64564 0.0097078683 0.0079819123         3948 
 4187000   0.58663999   -9.0942488    487.85659 0.0097097482 0.0079786363         3940 
 4188000   0.57755366   -9.1149891    487.50038 0.0097003419 0.0079753622         3937 
 4189000   0.58340185     -9.07469    488.12168 0.0097103858 0.0079720946         3914 
 4190000   0.59863962   -9.0874154    487.23065  0.009690347 0.0079688264         3922 
 4191000   0.57693033   -9.1050933    486.62584  0.009676009 0.0079655595         3931 
 4192000   0.58279538   -9.0863758    487.57311 0.0096925316 0.0079622917         3941 
 4193000   0.58966799   -9.1057205    487.25486  0.009683895 0.0079590252         3939 
 4194000   0.57422366   -9.0947382    487.89398 0.0096942851 0.0079557592         3933 
 4195000   0.57913759   -9.1084863    487.16921 0.0096775766 0.0079524939         3946 
 4196000   0.56811613   -9.0878579    487.98657 0.0096915032  0.007949231         3937 
 4197000   0.56707923   -9.0940785    487.44238  0.009678389 0.0079459734         3952 
 4198000   0.58280259    -9.083569    487.33846 0.0096740206 0.0079427183         3948 
 4199000   0.58551858   -9.1006102    487.98832 0.0096846139 0.0079394628         3944 
 4200000   0.58267135   -9.1044031    487.11383 0.0096649569 0.0079362076         3947 
 4201000   0.57946875   -9.0915455    487.66954 0.0096736796 0.0079329532         3941 
 4202000   0.57924806   -9.1106467    487.35188 0.0096650778 0.0079297027         3951 
 4203000    0.5853004   -9.0870216    487.40345 0.0096638006 0.0079264547         3929 
 4204000   0.57072086   -9.0853383    486.82131 0.0096499626 0.0079232097         3938 
 4205000   0.58309932   -9.1055288    487.44967 0.0096601202  0.007919963         3945 
 4206000   0.58561826   -9.1156818    487.95589 0.0096678533 0.0079167209         3944 
 4207000   0.57200666    -9.109247    488.07833 0.0096679805  0.007913478         3949 
 4208000   0.56833269   -9.1016327    486.52544 0.0096349304 0.0079102358         3944 
 4209000   0.58901947   -9.0830195     487.7047 0.0096559891  0.007906996         3941 
 4210000   0.58455429   -9.0863527    487.51844 0.0096500087 0.0079037628         3949 
 4211000   0.57470804   -9.0898772    487.04647 0.0096383771 0.0079005261         3942 
 4212000   0.58422386   -9.0915763    487.76014 0.0096502085 0.0078972918         3924 
 4213000   0.58604026    -9.099489    487.36255 0.0096400536 0.0078940596         3937 
 4214000   0.59550093   -9.1037107    487.53485 0.0096411732 0.0078908275         3946 
 4215000    0.5763432   -9.1169902    487.30357 0.0096343135 0.0078875992         3943 
 4216000   0.58261214   -9.1067392    487.22966 0.0096305673 0.0078843747         3947 
 4217000   0.56258108   -9.1207526    486.25627 0.0096090481 0.0078811501         3938 
 4218000   0.57357832   -9.1019051    487.45025  0.009630359  0.007877926         3949 
 4219000   0.56047555   -9.1063647    487.77439 0.0096344787  0.007874706         3929 
 4220000   0.57207446   -9.0960282    487.15244  0.009619914 0.0078714879         3940 
 4221000   0.57203544    -9.100887    487.86271 0.0096316574 0.0078682712         3951 
 4222000   0.57347674   -9.0988117    487.65132 0.0096252036  0.007865054         3934 
 4223000   0.57022406    -9.108294    487.91837 0.0096281943 0.0078618388         3945 
 4224000   0.59355333   -9.1048971     487.1403 0.0096105647 0.0078586275         3948 
 4225000   0.57936186   -9.1135704    486.83728 0.0096023132 0.0078554176         3939 
 4226000   0.57706283   -9.1199844     487.0585 0.0096044034 0.0078522086         3944 
 4227000   0.56489394   -9.0990412    487.64744 0.0096137418 0.0078489997         3945 
 4228000   0.57730853   -9.0999455    487.36043 0.0096058112 0.0078457942         3941 
 4229000   0.57126085   -9.1092915    487.24931 0.0096013499 0.0078425896         3943 
 4230000   0.57610091   -9.1242652    487.26011 0.0095992929 0.0078393904         3952 
 4231000   0.56815744   -9.0914923    486.83392   0.00958863 0.0078361897         3940 
 4232000   0.57116185   -9.1259677    488.08829 0.0096110644 0.0078329896         3946 
 4233000   0.56770777   -9.1063419    487.37059 0.0095946647  0.007829795         3948 
 4234000   0.56120046   -9.1009335    487.33546 0.0095917073 0.0078266004         3942 
 4235000   0.58192747   -9.1323477    487.78561 0.0095983001   0.00782341         3937 
 4236000   0.58246467   -9.1110413     488.2214 0.0096046073 0.0078202215         3944 
 4237000   0.57069692    -9.097785    487.44992  0.009587167 0.0078170325         3945 
 4238000   0.57131001   -9.0997729    486.99025 0.0095758662 0.0078138459         3939 
 4239000   0.57425225   -9.1219463    487.11879  0.009576134 0.0078106593         3958 
 4240000   0.57645184   -9.1242792    487.39806 0.0095793645 0.0078074741         3953 
 4241000   0.58308565   -9.1049327    487.51195 0.0095793435 0.0078042909         3945 
 4242000   0.56786083   -9.1103196     487.1903 0.0095707665 0.0078011122         3945 
 4243000   0.58160256   -9.1176118    487.99078 0.0095842325 0.0077979326         3937 
 4244000   0.56921794    -9.117979    486.85598 0.0095596916 0.0077947549         3946 
 4245000   0.55596481   -9.1123507    486.10673 0.0095427312 0.0077915757         3946 
 4246000   0.56925926   -9.1105114    487.63796 0.0095705362 0.0077884012         3936 
 4247000   0.58286367   -9.1126327    487.77956 0.0095710612  0.007785229         3952 
 4248000   0.57253874   -9.1251923    487.30713 0.0095595403  0.007782057         3945 
 4249000   0.56338933   -9.1182814    488.02309 0.0095713324 0.0077788879         3942 
 4250000   0.55924823   -9.1093643    487.58498 0.0095604898 0.0077757203         3949 
 4251000   0.58301283   -9.1038878    487.18961 0.0095504903 0.0077725568         3947 
 4252000   0.55872409   -9.1139623    485.99071 0.0095247474 0.0077693911         3957 
 4253000   0.57993587   -9.1160267    487.41586 0.0095504322 0.0077662285         3938 
 4254000   0.56548142   -9.1096777    487.56795 0.0095511665  0.007763065         3941 
 4255000   0.56723067   -9.1202246    487.18956 0.0095415112 0.0077599073         3942 
 4256000    0.5731673   -9.1021291    487.73003 0.0095498517 0.0077567504         3929 
 4257000   0.56868024   -9.1341734     485.4913 0.0095037839 0.0077535951         3947 
 4258000   0.57254272   -9.0914496    487.18834 0.0095347647 0.0077504401         3928 
 4259000   0.58151832   -9.1029563    487.07904 0.0095303874 0.0077472898         3945 
 4260000   0.56316136   -9.0851513    486.87794 0.0095242163 0.0077441401         3947 
 4261000   0.55986385      -9.1241    486.85644 0.0095215606   0.00774099         3929 
 4262000   0.56756302   -9.1170556    487.23725 0.0095267725 0.0077378424         3938 
 4263000   0.55661635   -9.1082906    488.11003 0.0095415987 0.0077346958         3942 
 4264000   0.56667759    -9.134608    486.14629 0.0095009829 0.0077315496         3946 
 4265000   0.56360845   -9.0992275    486.85428 0.0095125884 0.0077284076         3951 
 4266000   0.56996321   -9.1389899    487.00306 0.0095132649 0.0077252672         3940 
 4267000   0.56547032   -9.1252047    486.74713 0.0095060372 0.0077221268         3946 
 4268000   0.57586378   -9.1066222    487.05046 0.0095097325 0.0077189881         3939 
 4269000   0.57300975   -9.1199279    486.92982 0.0095051499 0.0077158506         3943 
 4270000   0.57120804   -9.1054786    486.58747 0.0094962427 0.0077127156         3957 
 4271000   0.56658541   -9.1214229     487.4976  0.009511777 0.0077095827         3944 
 4272000   0.56714004   -9.1283033    487.71123 0.0095137179 0.0077064536         3941 
 4273000   0.57638825   -9.1234112     487.4836  0.009507052  0.007703322         3942 
 4274000   0.57190868   -9.1300618    486.29262 0.0094816061 0.0077001977         3945 
 4275000   0.57745686   -9.1422185    485.73036  0.009468428 0.0076970714         3952 
 4276000   0.57600757   -9.1165209    487.00219     0.009491 0.0076939485         3941 
 4277000   0.57335213   -9.1119904    486.33266 0.0094757358 0.0076908284         3934 
 4278000   0.55729295   -9.1143574    486.98948 0.0094863153 0.0076877113         3932 
 4279000   0.57951015   -9.1157485    486.34215 0.0094714915 0.0076845942         3936 
 4280000   0.56604011   -9.1193363    486.67297 0.0094757198 0.0076814773         3944 
 4281000   0.58936423   -9.1166936    486.55156 0.0094711431 0.0076783624         3940 
 4282000    0.5746393   -9.1353704    486.84198 0.0094745832 0.0076752486         3938 
 4283000   0.55927854   -9.1356599    487.09092 0.0094772146 0.0076721334         3937 
 4284000   0.56523384   -9.1122021    486.40617 0.0094616825 0.0076690223         3940 
 4285000   0.56502376   -9.1301441    487.15789 0.0094740936 0.0076659134         3934 
 4286000   0.56849972   -9.1092076    486.40634 0.0094572705 0.0076628081         3939 
 4287000   0.57127071   -9.1191756    486.88874 0.0094644418 0.0076597025         3951 
 4288000   0.56814273   -9.1170255    487.09564 0.0094662555 0.0076565999         3952 
 4289000   0.57183015   -9.1272837    487.41539 0.0094702609 0.0076534987         3948 
 4290000   0.56955257   -9.1299828    487.14225 0.0094627477 0.0076504024         3952 
 4291000   0.56045924   -9.1113247    487.02101 0.0094581879 0.0076473043         3935 
 4292000   0.56457229   -9.1196077    486.44392 0.0094447794 0.0076442104         3941 
 4293000   0.56371514   -9.1098085    487.00642 0.0094534983 0.0076411144         3928 
 4294000   0.56168604   -9.1295677    486.98537 0.0094508882 0.0076380225         3937 
 4295000   0.56379991   -9.1273102     487.5227 0.0094591134 0.0076349313         3949 
 4296000   0.56458148    -9.128872    486.81703 0.0094432229  0.007631842         3948 
 4297000   0.56488658   -9.1226538    486.30624 0.0094311195 0.0076287528         3945 
 4298000   0.55594412   -9.1314006    486.76867 0.0094378911 0.0076256685         3948 
 4299000   0.57083574   -9.1283779    486.52972 0.0094310638 0.0076225847         3934 
 4300000   0.56170275   -9.1269086    486.76531 0.0094334363 0.0076195009         3939 
 4301000   0.56524589   -9.1253982    486.87284 0.0094333264 0.0076164181         3939 
 4302000   0.55404313    -9.117125    486.32652 0.0094205508 0.0076133375         3940 
 4303000   0.55923586    -9.116439    486.98757 0.0094311638 0.0076102592         3946 
 4304000   0.55830775   -9.1251237    486.88524 0.0094269911 0.0076071842         3938 
 4305000   0.55983671   -9.1378614    487.10294 0.0094290156 0.0076041098         3949 
 4306000   0.55926074   -9.1147105    487.02977 0.0094254097 0.0076010365         3944 
 4307000   0.54579875   -9.1321183    486.94064 0.0094214969 0.0075979624         3943 
 4308000   0.55015576   -9.1274548     486.5235 0.0094112407 0.0075948923         3947 
 4309000   0.55847299   -9.1283052     486.2724 0.0094042006 0.0075918247         3950 
 4310000   0.55548902   -9.1301009    486.11597  0.009398994 0.0075887581         3941 
 4311000    0.5614488    -9.158022    487.41883 0.0094219985 0.0075856917         3953 
 4312000   0.56465933   -9.1169639    486.59914 0.0094039722 0.0075826291         3947 
 4313000   0.56371154   -9.1118783    487.18378  0.009413088 0.0075795678         3946 
 4314000   0.55441752   -9.1245354    487.75326 0.0094219066 0.0075765102         3945 
 4315000   0.56183831   -9.1095016    486.40855 0.0093937534 0.0075734511         3941 
 4316000    0.5558283   -9.1186615    487.47762 0.0094122184 0.0075703939         3944 
 4317000   0.55533153   -9.1272281    486.81926 0.0093973295 0.0075673383         3942 
 4318000    0.5476837   -9.1316054    486.95677 0.0093978071 0.0075642843         3949 
 4319000   0.56986928   -9.1206578    486.46438 0.0093861306 0.0075612317         3939 
 4320000   0.56670877   -9.1298235    485.87946 0.0093726747 0.0075581827         3943 
 4321000   0.55703032   -9.1666517    486.29287 0.0093784786  0.007555134         3946 
 4322000    0.5628124   -9.1458121    486.24621 0.0093754089 0.0075520871         3957 
 4323000   0.56178721    -9.125142    486.21141 0.0093725694 0.0075490437         3952 
 4324000   0.55501474   -9.1221539    486.39034 0.0093738503 0.0075460003         3943 
 4325000   0.55367438   -9.1414897    486.76768 0.0093789534 0.0075429612         3950 
 4326000   0.55905506     -9.13346    486.43376 0.0093703529 0.0075399228         3954 
 4327000   0.55625698   -9.1253632    486.92271 0.0093776041 0.0075368857         3950 
 4328000   0.57067223   -9.1342606    486.48669 0.0093670419 0.0075338496         3942 
 4329000   0.55795458   -9.1395321    485.86161 0.0093528453 0.0075308149         3942 
 4330000   0.56818669   -9.1378869        486.9 0.0093706698 0.0075277808         3948 
 4331000   0.56388237   -9.1437179    486.35471 0.0093580141 0.0075247494         3943 
 4332000    0.5517356   -9.1257099    487.16507 0.0093714425 0.0075217217         3937 
 4333000   0.55339491   -9.1348806    487.53381 0.0093763714 0.0075186942         3951 
 4334000   0.55514434   -9.1372782    486.98681 0.0093636904 0.0075156662         3936 
 4335000   0.56669031   -9.1266963    486.53628 0.0093528696 0.0075126432         3939 
 4336000   0.56145703   -9.1432994    486.92777 0.0093582366 0.0075096229         3965 
 4337000   0.55693345   -9.1364608      486.562 0.0093490509  0.007506599         3950 
 4338000    0.5621057   -9.1311965    486.91456 0.0093536683 0.0075035798         3947 
 4339000   0.56417774   -9.1389751    486.46984 0.0093429714 0.0075005643         3955 
 4340000   0.55682712     -9.13479     486.2945 0.0093374519 0.0074975476         3949 
 4341000   0.56330933   -9.1343949    486.12054 0.0093319616  0.007494533         3941 
 4342000   0.56168202    -9.141417    485.91951 0.0093259541 0.0074915191         3924 
 4343000   0.55091196   -9.1532593    486.64527 0.0093377325 0.0074885076         3941 
 4344000   0.56104714   -9.1426877    486.90215 0.0093405108  0.007485497         3960 
 4345000   0.56145464   -9.1540718    486.59669 0.0093325027 0.0074824863         3942 
 4346000   0.54357981   -9.1526906    486.36104 0.0093258367 0.0074794799         3937 
 4347000   0.55654166   -9.1682367    486.83503 0.0093327779 0.0074764746         3945 
 4348000   0.55671744   -9.1272066    486.41902 0.0093226583 0.0074734716         3951 
 4349000   0.55622145   -9.1501313    487.07899 0.0093331607 0.0074704699         3950 
 4350000   0.56124116   -9.1431861    486.40257 0.0093180569 0.0074674714         3929 
 4351000   0.56232466    -9.132353    487.35914 0.0093342361 0.0074644744         3932 
 4352000   0.55243479    -9.156209    486.43712 0.0093144362 0.0074614789         3941 
 4353000   0.56637804   -9.1492514    486.94476 0.0093220147 0.0074584848         3962 
 4354000   0.54127808   -9.1502552    486.62361  0.009313727 0.0074554938         3951 
 4355000   0.55589043   -9.1599737     487.0426 0.0093196058 0.0074525023         3957 
 4356000   0.55125841   -9.1514837    486.72948 0.0093114762 0.0074495123         3940 
 4357000   0.55095359   -9.1326146    486.77498 0.0093102093 0.0074465254         3950 
 4358000   0.55210865   -9.1535422    486.65424 0.0093057642 0.0074435372         3944 
 4359000   0.54757742   -9.1326601    486.33479 0.0092975223 0.0074405518         3938 
 4360000   0.55541959   -9.1503166    486.51652 0.0092988631 0.0074375708         3945 
 4361000   0.56112872   -9.1296186     486.7244 0.0093007032 0.0074345904         3954 
 4362000   0.55083726   -9.1319566     487.6234 0.0093157458 0.0074316096         3942 
 4363000   0.54543014    -9.140217    486.23701 0.0092871306 0.0074286316         3947 
 4364000   0.55198206   -9.1338792    487.27394 0.0093048033 0.0074256542         3946 
 4365000    0.5500224   -9.1303148    486.28386 0.0092837698 0.0074226799         3947 
 4366000   0.56504617   -9.1440762    486.00403 0.0092763024 0.0074197042         3950 
 4367000   0.54604737   -9.1261762    486.81473 0.0092896484 0.0074167309         3940 
 4368000   0.54921394   -9.1573909    487.08793 0.0092927337  0.007413762         3947 
 4369000   0.55912455    -9.143027    486.21688 0.0092739925 0.0074107922         3945 
 4370000   0.54773195   -9.1424386     485.9775 0.0092673055 0.0074078229         3944 
 4371000   0.55410624    -9.145834    486.38333 0.0092729226 0.0074048576         3950 
 4372000   0.55723703   -9.1514679    486.22185 0.0092677235 0.0074018927         3951 
 4373000   0.54467105    -9.162652    486.47194 0.0092703701 0.0073989265         3957 
 4374000   0.55849668   -9.1670937    486.28327 0.0092646562 0.0073959652         3951 
 4375000   0.54711179   -9.1627235    486.47997 0.0092662851 0.0073930036         3947 
 4376000   0.55030471   -9.1477798    486.14833 0.0092578522 0.0073900461         3939 
 4377000   0.56155265   -9.1453359    486.78971 0.0092679483 0.0073870914         3939 
 4378000   0.54129892   -9.1297857    485.25454 0.0092366099 0.0073841333         3938 
 4379000   0.54462973   -9.1482459     485.9327 0.0092474061 0.0073811805         3948 
 4380000   0.55134478   -9.1484162    486.58565 0.0092577179  0.007378227         3932 
 4381000   0.56503831   -9.1384339    486.30029 0.0092501767 0.0073752761         3958 
 4382000   0.55456328   -9.1526401     486.2852 0.0092477788 0.0073723271         3948 
 4383000   0.55378661   -9.1288171    486.71615 0.0092538624 0.0073693791         3943 
 4384000     0.549702   -9.1500503    486.34144  0.009244629 0.0073664332         3960 
 4385000    0.5495922   -9.1269417    486.96985 0.0092544631 0.0073634891         3948 
 4386000   0.55327226   -9.1595338     486.4815 0.0092430746 0.0073605481         3950 
 4387000   0.54674598   -9.1541396     485.7201 0.0092265044 0.0073576083         3947 
 4388000    0.5508325   -9.1290512    485.77273 0.0092254012 0.0073546692         3932 
 4389000    0.5461501    -9.154431    486.32885 0.0092338583 0.0073517303         3945 
 4390000   0.54686769   -9.1240379    485.91773 0.0092239509 0.0073487935         3945 
 4391000   0.55081226   -9.1452667    486.11112 0.0092255204 0.0073458585         3945 
 4392000   0.54680476   -9.1590405    486.29538  0.009226916 0.0073429228         3952 
 4393000    0.5474796   -9.1555513    485.87727 0.0092168842 0.0073399898         3955 
 4394000   0.55129211   -9.1326876    486.14892 0.0092199385 0.0073370567         3940 
 4395000   0.55335631   -9.1693849    486.53742 0.0092252071 0.0073341285         3950 
 4396000   0.55582909   -9.1586677    485.53584 0.0092041219 0.0073311997         3947 
 4397000   0.55140064   -9.1346406    485.81314 0.0092072841 0.0073282732         3949 
 4398000   0.55007651   -9.1585413    486.41246 0.0092165464 0.0073253489         3946 
 4399000   0.55232154   -9.1413488    486.33689 0.0092130199 0.0073224258         3955 
 4400000   0.55718384   -9.1454387    486.11448 0.0092067136 0.0073195042         3944 
 4401000   0.54135995   -9.1522987    486.08296 0.0092040248 0.0073165872         3956 
 4402000     0.557689   -9.1496962    486.72044 0.0092140019 0.0073136687         3954 
 4403000   0.53773639   -9.1518865    486.59514 0.0092095378 0.0073107548         3935 
 4404000   0.54123708   -9.1538041    486.38294 0.0092034313   0.00730784         3952 
 4405000   0.54885392   -9.1464087     486.3046 0.0091998601 0.0073049252         3938 
 4406000   0.54437676   -9.1431564    486.30758 0.0091978283 0.0073020118         3928 
 4407000   0.55120524   -9.1487281    486.77376 0.0092045564 0.0072991014         3934 
 4408000    0.5409196   -9.1325948    486.89323 0.0092047267 0.0072961933         3961 
 4409000   0.55465986   -9.1431017     486.6331 0.0091977225 0.0072932865         3947 
 4410000   0.53996554   -9.1416021     486.2359 0.0091881312 0.0072903804         3942 
 4411000   0.54918561   -9.1541286    486.02665 0.0091820949 0.0072874765         3944 
 4412000   0.53908328   -9.1437211    486.06096 0.0091806619 0.0072845716         3942 
 4413000   0.54507215   -9.1406281    486.89469 0.0091943253 0.0072816702         3941 
 4414000   0.54053959   -9.1616418    486.52358  0.009185236 0.0072787691         3934 
 4415000    0.5635818   -9.1587466    487.15756 0.0091951219 0.0072758696         3955 
 4416000   0.54663366    -9.137683    487.02123 0.0091904671 0.0072729747         3947 
 4417000   0.55197357   -9.1566215    486.17751 0.0091724683 0.0072700776         3952 
 4418000   0.53444036   -9.1574095    486.03696  0.009167741 0.0072671833         3944 
 4419000   0.54959421   -9.1330726      486.639 0.0091770196 0.0072642927         3948 
 4420000   0.54286325   -9.1438414    486.06948 0.0091642059 0.0072614022         3944 
 4421000   0.54145363   -9.1643084    486.00205  0.009160862  0.007258514         3959 
 4422000   0.54589317   -9.1673084    486.17766 0.0091620998  0.007255628         3955 
 4423000    0.5387271   -9.1592023    486.21795 0.0091607874 0.0072527437         3951 
 4424000   0.53797716   -9.1716696    486.18426  0.009158082 0.0072498594         3948 
 4425000    0.5359279   -9.1435382    485.86921 0.0091500792 0.0072469759         3945 
 4426000   0.53412178   -9.1508801    485.68925 0.0091446236  0.007244097         3946 
 4427000   0.52695339   -9.1606137     485.9304 0.0091470974 0.0072412172         3946 
 4428000   0.54463825    -9.160018    486.87036 0.0091627213  0.007238338         3942 
 4429000   0.53018522   -9.1525444    486.06637 0.0091455251 0.0072354625         3945 
 4430000   0.54320138   -9.1560958    485.82688 0.0091389556 0.0072325878         3954 
 4431000   0.53131398   -9.1574002    485.93625 0.0091389501 0.0072297125         3944 
 4432000   0.53999391   -9.1476443    485.94391  0.009137032 0.0072268413         3952 
 4433000   0.54742315   -9.1402286    486.47547 0.0091449633 0.0072239732         3946 
 4434000   0.53335428   -9.1791179    486.45628 0.0091425402 0.0072211033         3944 
 4435000   0.53306598    -9.148497    486.33613 0.0091382211  0.007218234         3952 
 4436000   0.54287659    -9.168736    486.20633 0.0091337227 0.0072153696         3945 
 4437000    0.5380753   -9.1418434    486.21518 0.0091318304 0.0072125062         3935 
 4438000   0.53844657   -9.1735805    485.31811 0.0091129284 0.0072096461         3950 
 4439000   0.55381182   -9.1458363    486.39431 0.0091310789 0.0072067853         3933 
 4440000   0.54129814   -9.1352778     487.1922 0.0091439977  0.007203927         3934 
 4441000   0.53329577   -9.1555247    486.58125 0.0091304746 0.0072010684         3936 
 4442000   0.54488703   -9.1765584    486.28119 0.0091227899 0.0071982122         3941 
 4443000   0.52671987   -9.1511582    486.55258 0.0091258268 0.0071953563         3959 
 4444000   0.54273051   -9.1630228    485.73482 0.0091084387 0.0071925017         3943 
 4445000   0.53231447   -9.1664996     486.2163 0.0091154163 0.0071896506         3929 
 4446000   0.54556653   -9.1601846     486.3685 0.0091162187 0.0071868002         3952 
 4447000   0.52372612   -9.1614694    486.08461 0.0091088488 0.0071839516         3947 
 4448000   0.53025905   -9.1643288    485.97638 0.0091047733 0.0071811042         3940 
 4449000   0.54402296   -9.1606471    485.24589 0.0090890441 0.0071782583         3948 
 4450000   0.54401848   -9.1857768    485.31654 0.0090883247 0.0071754141         3946 
 4451000    0.5333146   -9.1623542    485.65332 0.0090925881 0.0071725705         3946 
 4452000   0.54269407   -9.1659936    485.48704 0.0090874334 0.0071697307         3952 
 4453000   0.53757141   -9.1755623    486.36272   0.00910178   0.00716689         3944 
 4454000   0.53939595   -9.1476852    486.43266 0.0091010451 0.0071640526         3951 
 4455000   0.53609996   -9.1691574    486.24432 0.0090954792 0.0071612172         3943 
 4456000   0.54090345   -9.1566317    486.11352  0.009090992 0.0071583805         3943 
 4457000   0.53876428   -9.1810284    486.12474  0.009089162  0.007155546         3958 
 4458000   0.54000558   -9.1695789     484.5377 0.0090574567 0.0071527137         3939 
 4459000    0.5385308   -9.1712593    486.01175 0.0090829736 0.0071498803         3950 
 4460000   0.53135597   -9.1625898    485.72673 0.0090756116 0.0071470491         3934 
 4461000   0.53291634   -9.1489578    486.15566 0.0090815898 0.0071442245         3955 
 4462000   0.53997991    -9.147409    485.74992 0.0090719767 0.0071414005         3943 
 4463000   0.52874352   -9.1538197    486.35163 0.0090811792 0.0071385752         3944 
 4464000   0.54111656   -9.1691456    485.33544 0.0090601748 0.0071357523         3956 
 4465000   0.53961959   -9.1554173    485.75846 0.0090660407  0.007132932         3944 
 4466000   0.53809591   -9.1654766     485.9407 0.0090674112 0.0071301105         3960 
 4467000   0.53496107   -9.1534759     486.5196 0.0090761809  0.007127292         3948 
 4468000   0.53030316   -9.1604285    485.80929 0.0090609014 0.0071244755         3953 
 4469000   0.54358481   -9.1790503    485.38134 0.0090508939 0.0071216593         3957 
 4470000   0.54196432   -9.1714106    484.75552 0.0090372021  0.007118846         3951 
 4471000   0.54558628   -9.1787499    485.50247  0.009049103 0.0071160375         3951 
 4472000   0.53012801   -9.1697786     485.8977 0.0090544444 0.0071132267         3938 
 4473000   0.52824933   -9.1656515    486.67297 0.0090668636 0.0071104184         3952 
 4474000   0.53336128     -9.16873    486.21725 0.0090563487 0.0071076088         3945 
 4475000   0.53681622   -9.1683939    485.56342 0.0090421494 0.0071048015         3954 
 4476000   0.54367563   -9.1580807    486.26537  0.009053198 0.0071019957         3950 
 4477000   0.52748459   -9.1706473    487.29596 0.0090703589 0.0070991931         3943 
 4478000   0.53203247   -9.1792868    485.41117 0.0090332583 0.0070963891         3946 
 4479000    0.5476886   -9.1713905    484.97467 0.0090231202 0.0070935866         3953 
 4480000   0.54436365   -9.1780953    485.61394 0.0090329974 0.0070907856         3948 
 4481000   0.54454908    -9.174245    485.90489 0.0090363924 0.0070879877         3958 
 4482000   0.54075855   -9.1562953    486.14731 0.0090388835 0.0070851909         3950 
 4483000   0.53940276   -9.1735643    484.82474 0.0090122823 0.0070823944         3952 
 4484000   0.52909435   -9.1825845    486.03967 0.0090328515 0.0070796015         3952 
 4485000   0.52231651   -9.1602369    485.49202 0.0090206619 0.0070768086         3950 
 4486000   0.53353556   -9.1739649    486.21837 0.0090321439 0.0070740179         3962 
 4487000   0.54148814   -9.1504296    485.45959 0.0090160388 0.0070712273         3930 
 4488000   0.53744136   -9.1732452    486.05582 0.0090251007 0.0070684368         3944 
 4489000   0.52840719    -9.196185    485.26714 0.0090084491 0.0070656514         3944 
 4490000   0.53141763   -9.1964123    485.80617  0.009016447  0.007062865         3957 
 4491000   0.52951226   -9.1760273    485.73267 0.0090130756 0.0070600816         3946 
 4492000   0.52566332   -9.1789694    485.56557 0.0090079691 0.0070573015         3953 
 4493000   0.52994537    -9.171703     485.4705 0.0090042009 0.0070545178         3952 
 4494000   0.54041423   -9.1789571    485.13896 0.0089960496 0.0070517399         3956 
 4495000   0.52368035   -9.1771254    485.54442 0.0090015651 0.0070489634         3958 
 4496000   0.53584152   -9.1647631    486.13323 0.0090104766 0.0070461874         3955 
 4497000   0.52624379    -9.172278    485.64267 0.0089993824 0.0070434155         3955 
 4498000   0.52513946   -9.1746779    486.01118  0.009004209 0.0070406431         3954 
 4499000   0.53130149   -9.1798884    485.42933 0.0089914301 0.0070378728         3957 
 4500000    0.5167651    -9.182243    484.84318 0.0089785774 0.0070351014         3954 
 4501000   0.53499466   -9.1675968    486.03749 0.0089986945 0.0070323332         3950 
 4502000    0.5185459   -9.1736631    485.47467 0.0089862777 0.0070295655         3956 
 4503000   0.53413182   -9.1843106    485.24064 0.0089799511    0.0070268         3957 
 4504000    0.5302363   -9.1738726    485.87821 0.0089897538 0.0070240328         3953 
 4505000   0.52465347   -9.1978865    485.45643 0.0089799561 0.0070212711         3945 
 4506000   0.54089732   -9.1747129    485.59512 0.0089805282 0.0070185075         3961 
 4507000   0.52255199    -9.171699    486.17168  0.008989196 0.0070157498         3963 
 4508000   0.51839519   -9.1657597    486.04962 0.0089849456 0.0070129906         3957 
 4509000   0.52945699   -9.1739623    486.04122 0.0089827976 0.0070102337         3946 
 4510000   0.52605954   -9.1928846    485.52839 0.0089713302 0.0070074777         3953 
 4511000   0.53012001   -9.1797943    485.58997  0.008970479 0.0070047218         3936 
 4512000   0.52732402    -9.177959    485.55106 0.0089677722  0.007001968         3954 
 4513000   0.52418084   -9.1760026    484.61877 0.0089485703 0.0069992155         3962 
 4514000   0.51958373   -9.1746423    485.76371 0.0089677246 0.0069964648         3949 
 4515000   0.50824066   -9.1602072     484.7423 0.0089468863 0.0069937139         3933 
 4516000   0.52938517   -9.1786541    485.37634 0.0089566051 0.0069909654         3940 
 4517000   0.52571684   -9.1860673    485.78023 0.0089620735 0.0069882203         3961 
 4518000   0.53627639   -9.1792743    486.18185 0.0089674977  0.006985474         3941 
 4519000   0.52757628   -9.1785388    485.74683 0.0089574911 0.0069827307         3949 
 4520000    0.5296204   -9.1775291    484.69242 0.0089360697 0.0069799875         3954 
 4521000   0.52368127   -9.1841008    486.00066 0.0089582072 0.0069772465         3951 
 4522000   0.51381463    -9.190053    486.05891 0.0089572998 0.0069745066         3945 
 4523000   0.51633965    -9.173011    485.36138 0.0089424677 0.0069717674         3954 
 4524000   0.53269756   -9.1798995    485.78008 0.0089482037  0.006969028         3951 
 4525000   0.52198415   -9.1722977      485.606 0.0089430202 0.0069662929         3951 
 4526000   0.51897896    -9.174313    486.22617 0.0089524631 0.0069635569         3948 
 4527000   0.52203933   -9.1770909    485.86029 0.0089437502 0.0069608238         3939 
 4528000   0.52199148   -9.1843723    486.13802 0.0089468863 0.0069580931         3946 
 4529000   0.51576959   -9.1864517    485.07194 0.0089252951 0.0069553611         3943 
 4530000   0.53292516   -9.2008109    485.62627 0.0089335222 0.0069526323         3955 
 4531000   0.53262279   -9.1823259    485.15327 0.0089228513 0.0069499093         3951 
 4532000   0.52624505   -9.1946532    484.61997 0.0089110763 0.0069471836         3954 
 4533000   0.52158894   -9.1643858    485.39554 0.0089233682 0.0069444597         3953 
 4534000   0.52093851   -9.1949991    485.41029 0.0089216713 0.0069417365         3949 
 4535000   0.53254501   -9.1773834    485.51654 0.0089216564 0.0069390155         3963 
 4536000   0.51381639   -9.1765008    485.07749 0.0089116235 0.0069362935         3949 
 4537000   0.52693024   -9.1742954    485.57503 0.0089187978 0.0069335753         3952 
 4538000   0.53044166   -9.1811073    485.45624 0.0089146511 0.0069308566         3958 
 4539000    0.5231243   -9.1828154     485.6544 0.0089163252  0.006928142         3952 
 4540000   0.53112034   -9.1895919    485.73477 0.0089158365 0.0069254286         3941 
 4541000   0.52683613   -9.1825669    485.00427 0.0089004674 0.0069227163         3947 
 4542000   0.54092097   -9.1854138    486.21291 0.0089206831 0.0069200041         3952 
 4543000   0.51621798   -9.1931447    485.10651 0.0088984246 0.0069172933         3960 
 4544000   0.51848041   -9.1823352    485.31154 0.0089002263 0.0069145863         3950 
 4545000   0.52334986   -9.1632496    485.45976 0.0089009858  0.006911879         3958 
 4546000   0.53904926   -9.1901563    484.79676 0.0088868742 0.0069091748         3942 
 4547000   0.52627541   -9.1950951    485.24493 0.0088931335 0.0069064721         3958 
 4548000   0.52360974   -9.1859018    485.04637 0.0088875397 0.0069037719         3958 
 4549000    0.5182851   -9.1897213    485.27436 0.0088897626 0.0069010731         3950 
 4550000    0.5174869   -9.2068493    485.03459 0.0088834175 0.0068983727         3955 
 4551000   0.51811199   -9.1777591    485.17134 0.0088839695 0.0068956744         3960 
 4552000   0.52766852    -9.200525    484.88849 0.0088768397 0.0068929784         3955 
 4553000   0.52049461   -9.1734023     485.4976 0.0088860384 0.0068902834         3940 
 4554000   0.53064291   -9.1807432     486.0102 0.0088934672 0.0068875911         3950 
 4555000    0.5272125   -9.1778395    485.43882 0.0088810615 0.0068848977         3940 
 4556000   0.53005382   -9.2063949    484.48771 0.0088617156 0.0068822063         3954 
 4557000   0.51938609   -9.1807238    484.75847 0.0088647223 0.0068795155         3950 
 4558000   0.53027809   -9.1918167     484.9217 0.0088657616 0.0068768281         3939 
 4559000   0.53009712   -9.1932033    485.15125  0.008868013 0.0068741403         3951 
 4560000   0.52726366   -9.1850844    485.24123 0.0088677125 0.0068714556         3941 
 4561000   0.53128263   -9.1917194    485.13541 0.0088638349 0.0068687734         3958 
 4562000   0.54182029   -9.1986006    484.70315 0.0088539958 0.0068660905         3947 
 4563000   0.50536112    -9.190892    485.22223 0.0088615354 0.0068634096         3938 
 4564000   0.52693988   -9.1832626    485.68022 0.0088679561 0.0068607296         3952 
 4565000   0.52160284   -9.1828147    484.71807 0.0088484497 0.0068580492         3962 
 4566000   0.52121446   -9.1894959    485.87587 0.0088676425 0.0068553718         3959 
 4567000   0.53502414    -9.189309    484.52915 0.0088411274 0.0068526964         3960 
 4568000   0.50834908   -9.1943979    485.01263  0.008848012   0.00685002         3934 
 4569000   0.51597121   -9.2084278    484.44023 0.0088356356 0.0068473457         3948 
 4570000   0.52049265   -9.2015936    484.97472 0.0088434486 0.0068446736         3947 
 4571000   0.52477443   -9.1976127    485.05727 0.0088430188 0.0068420034         3957 
 4572000   0.52478999   -9.1994837    485.55361 0.0088501315 0.0068393346         3954 
 4573000   0.52754278    -9.201608    486.29157 0.0088616438 0.0068366655         3951 
 4574000   0.51543764   -9.1780431    485.37988 0.0088430964 0.0068340019         3950 
 4575000   0.52156788   -9.1931149    484.69054 0.0088286074 0.0068313369         3959 
 4576000     0.519568   -9.1901831    485.04211 0.0088330805  0.006828674         3943 
 4577000   0.51916663   -9.1749088     485.2803 0.0088354872 0.0068260125         3948 
 4578000   0.51599218   -9.1855694    485.44433  0.008836543  0.006823353         3955 
 4579000   0.52362351   -9.1979997    484.75535 0.0088220745 0.0068206943         3951 
 4580000   0.51819386    -9.179596    485.13855 0.0088271207 0.0068180372         3955 
 4581000   0.54010183   -9.1902503    484.91838 0.0088211886 0.0068153834         3954 
 4582000     0.527323   -9.1964442    485.06771 0.0088219794 0.0068127275         3958 
 4583000   0.51971869   -9.1948466    485.02952 0.0088193599 0.0068100742         3942 
 4584000   0.52260037   -9.2030448     485.2243  0.008820977  0.006807423         3950 
 4585000   0.51295083   -9.2034837    483.42556 0.0087863607 0.0068047703         3953 
 4586000   0.51671666   -9.1926503    486.11201 0.0088332608 0.0068021201         3954 
 4587000   0.52344232   -9.2055493    484.84459 0.0088083096 0.0067994715         3953 
 4588000   0.51661585   -9.2064402    485.08945 0.0088108372 0.0067968278         3965 
 4589000   0.52211301   -9.2134648    484.56421 0.0087993791 0.0067941825         3959 
 4590000   0.53493408   -9.2063117    485.44177 0.0088133945 0.0067915376         3954 
 4591000   0.51411417   -9.1899795    485.34927 0.0088097959 0.0067888975         3963 
 4592000   0.52854387   -9.2068464    485.40721 0.0088089287 0.0067862558         3943 
 4593000   0.51857866   -9.1799172    485.69088 0.0088121576 0.0067836168         3951 
 4594000   0.51612665   -9.1960014     485.2588 0.0088024017 0.0067809796         3952 
 4595000   0.51918308   -9.2033598    485.91907 0.0088124605  0.006778342         3948 
 4596000   0.52278166   -9.1950578    485.18809 0.0087972891 0.0067757076         3950 
 4597000   0.52798315   -9.2028505    484.96524 0.0087913356 0.0067730754         3960 
 4598000   0.51816996   -9.2078063    485.46678 0.0087985135 0.0067704429         3948 
 4599000   0.51483718   -9.1895642    485.23081 0.0087923246 0.0067678142         3953 
 4600000   0.52130812   -9.1897922    485.29847 0.0087916389 0.0067651849         3961 
 4601000    0.5217983   -9.2042276    485.07318 0.0087856478 0.0067625588         3961 
 4602000   0.50833211   -9.1880506    485.40391 0.0087897275 0.0067599348         3951 
 4603000   0.51977388   -9.2025033    485.12367 0.0087827444 0.0067573089         3959 
 4604000   0.52163766   -9.1864488    485.09965  0.008780402 0.0067546863         3954 
 4605000   0.51344534   -9.1925952    485.39358 0.0087838144 0.0067520663         3960 
 4606000   0.51643723   -9.1917073     485.2474 0.0087792626 0.0067494453         3949 
 4607000   0.52119902   -9.1940361    485.19373 0.0087763862  0.006746825         3947 
 4608000    0.5240381   -9.1985087     484.8668 0.0087685691  0.006744209         3954 
 4609000   0.51565818    -9.201677    485.48152 0.0087777812 0.0067415898         3940 
 4610000   0.51597376   -9.1898929    485.54487 0.0087770222 0.0067389762         3957 
 4611000   0.50796889   -9.1957694    485.41602 0.0087727901 0.0067363631         3955 
 4612000   0.51303501   -9.2141906    484.60495 0.0087562329 0.0067337499         3958 
 4613000   0.51436699   -9.2113128    485.27966 0.0087665232 0.0067311389         3954 
 4614000   0.51705051   -9.1956143    484.81044 0.0087561487 0.0067285276         3949 
 4615000   0.49709947   -9.2029761    485.10714  0.008759609 0.0067259187         3948 
 4616000   0.51208785   -9.2072097    484.92889 0.0087544933 0.0067233104         3966 
 4617000    0.5194704   -9.1993938    484.90041 0.0087520831 0.0067207051         3952 
 4618000   0.51603923   -9.1981732    484.47894 0.0087425823 0.0067181017         3949 
 4619000   0.51947563   -9.1986438    485.00949 0.0087502614 0.0067154995         3961 
 4620000   0.51172432   -9.2004764    484.85898 0.0087456527 0.0067128964         3944 
 4621000   0.50816506   -9.1923357    485.19666 0.0087498496 0.0067102978         3955 
 4622000   0.50141015    -9.197508    484.49499 0.0087353055 0.0067076984         3956 
 4623000   0.51365173   -9.2216557    484.88579 0.0087404605 0.0067051011         3957 
 4624000   0.51378278   -9.1989322    485.21565  0.008744515 0.0067025034         3955 
 4625000   0.50501953   -9.2173542    484.60516 0.0087316244 0.0066999079         3950 
 4626000   0.50578963   -9.2140533    485.07643 0.0087382265 0.0066973135         3955 
 4627000   0.51213514   -9.2070202    485.46133 0.0087432701 0.0066947209         3957 
 4628000   0.51481657   -9.2004721    484.27484 0.0087200165 0.0066921301         3958 
 4629000   0.50970255   -9.2078224    484.88938  0.008729196 0.0066895376         3953 
 4630000   0.50519635   -9.2110724    485.21322 0.0087331393 0.0066869485         3949 
 4631000   0.50554843   -9.2142198     484.2239 0.0087134511 0.0066843622         3953 
 4632000   0.52095452   -9.1853536    484.29492 0.0087128476 0.0066817771         3959 
 4633000   0.50945199   -9.1954818    484.56677 0.0087158568 0.0066791926         3951 
 4634000   0.52115875   -9.2090662    484.97993 0.0087214057 0.0066766106         3952 
 4635000   0.49919136   -9.1931468    485.73141 0.0087330351 0.0066740317         3950 
 4636000   0.50932853   -9.2202444    484.67147 0.0087120985 0.0066714502         3960 
 4637000   0.51803807   -9.2295182     484.2973 0.0087034954 0.0066688718         3952 
 4638000   0.50294183   -9.1972058    484.52036 0.0087056267 0.0066662942         3957 
 4639000   0.53077124   -9.2061401    484.86053 0.0087098607 0.0066637181         3940 
 4640000   0.51188496   -9.2108812    484.81926 0.0087072424 0.0066611428         3948 
 4641000   0.51138474    -9.205889    484.19226  0.008694108 0.0066585685         3951 
 4642000   0.50477855   -9.2079991    484.62805 0.0087000583 0.0066559964         3961 
 4643000   0.50172981   -9.1913723    485.40633 0.0087121532 0.0066534254         3953 
 4644000   0.52038176    -9.238228    484.58397 0.0086955206 0.0066508552         3953 
 4645000   0.50341505   -9.2051832    484.65048 0.0086948417 0.0066482856         3954 
 4646000   0.50611977   -9.2049015     485.3967 0.0087063549 0.0066457177         3954 
 4647000   0.51354196   -9.2145264    485.39231 0.0087044027 0.0066431531         3958 
 4648000   0.51926249    -9.232336    484.82896 0.0086924298 0.0066405879         3955 
 4649000   0.50316918   -9.2055729    485.00139 0.0086936508 0.0066380265         3948 
 4650000   0.51635265     -9.20932    484.41425 0.0086812589 0.0066354626         3963 
 4651000   0.51235292   -9.2285132    484.32102 0.0086777221 0.0066329014         3944 
 4652000   0.51064184   -9.2108302    484.04799 0.0086709657 0.0066303418         3950 
 4653000   0.50584727   -9.2033352    484.78078 0.0086822261 0.0066277852         3953 
 4654000    0.5054235   -9.2071707    485.12432  0.008686512 0.0066252284         3958 
 4655000   0.51334851   -9.1859374    484.98271 0.0086821108 0.0066226727         3961 
 4656000    0.5005823   -9.2147483    484.86337 0.0086781101 0.0066201177         3951 
 4657000    0.4993025   -9.2141944    485.41952 0.0086861986 0.0066175652         3945 
 4658000    0.4967843   -9.1984237    484.48681 0.0086676472 0.0066150116         3958 
 4659000   0.49991902   -9.2171558    484.43566  0.008664872 0.0066124621         3966 
 4660000   0.50160071   -9.2103175    484.85364 0.0086704872 0.0066099131         3950 
 4661000   0.50426504   -9.2194542    484.56065 0.0086633886 0.0066073643         3957 
 4662000    0.5128164   -9.2187259    484.17912 0.0086547105 0.0066048193         3952 
 4663000   0.50154285   -9.2186768    484.39441 0.0086567019 0.0066022743         3950 
 4664000   0.50184263   -9.2285216    484.82964 0.0086626221 0.0065997328         3946 
 4665000   0.50968295   -9.2180915    484.39891  0.008653071 0.0065971893         3960 
 4666000   0.49862828   -9.2142655    485.14388 0.0086645213 0.0065946481         3954 
 4667000   0.49915307   -9.2354295    484.39618 0.0086493139 0.0065921092         3962 
 4668000   0.51138134   -9.2231685     485.4074 0.0086655135 0.0065895709         3958 
 4669000   0.49708535   -9.2206469    484.32814 0.0086443945 0.0065870332         3953 
 4670000      0.51086   -9.2088827    484.14597 0.0086392928 0.0065844976         3951 
 4671000   0.50276451   -9.2080155    484.38727 0.0086417482 0.0065819618         3951 
 4672000    0.5012556   -9.2264719    483.74341 0.0086284142 0.0065794263         3954 
 4673000   0.50286679   -9.2232896    484.47068 0.0086395371 0.0065768943         3948 
 4674000    0.5118494   -9.1975564    484.91253 0.0086455664 0.0065743628         3950 
 4675000    0.5116261   -9.2247163    484.98991 0.0086450965 0.0065718346         3957 
 4676000   0.49495195   -9.2241941    484.67177  0.008637578  0.006569308         3944 
 4677000   0.50456731   -9.2046688    484.46602  0.008632065  0.006566782         3942 
 4678000   0.52002991    -9.218507     485.0912 0.0086413568 0.0065642586         3948 
 4679000   0.50440536   -9.2180115    484.55759 0.0086300062 0.0065617341         3948 
 4680000   0.50403334   -9.2164899    484.84879 0.0086333473 0.0065592145         3950 
 4681000    0.5029874   -9.2305711    484.50658 0.0086254109 0.0065566938         3955 
 4682000   0.50030608    -9.209677    483.71736 0.0086095215 0.0065541739         3950 
 4683000   0.49849021   -9.2150479    484.17049 0.0086157464 0.0065516562         3950 
 4684000   0.50089197    -9.218441    484.73831 0.0086240091 0.0065491377         3932 
 4685000   0.49684608   -9.2296056    485.17459 0.0086299287  0.006546622         3954 
 4686000   0.51031093   -9.2120383    484.91901 0.0086235419 0.0065441076         3955 
 4687000   0.51824051   -9.2323723    484.50117 0.0086142729 0.0065415933         3949 
 4688000   0.49506541   -9.2225566    484.84006 0.0086184595  0.006539082         3944 
 4689000   0.49723485   -9.2202177    485.20458 0.0086230999 0.0065365715         3944 
 4690000   0.49290325    -9.197136    484.62753 0.0086110079 0.0065340621         3949 
 4691000   0.50372187   -9.2367174    483.66674 0.0085921044  0.006531552         3953 
 4692000   0.50306827   -9.2193515    484.09039 0.0085977975 0.0065290437         3953 
 4693000   0.49468158   -9.2264719    484.28459 0.0085994138 0.0065265376         3948 
 4694000    0.4983833   -9.2237583    484.57826 0.0086027954 0.0065240329         3944 
 4695000   0.50125431   -9.2337949    484.27673 0.0085956112   0.00652153         3952 
 4696000   0.50632858   -9.2410732    483.73491 0.0085841658 0.0065190285         3957 
 4697000   0.50086933    -9.233713    484.22026 0.0085909491 0.0065165271         3943 
 4698000   0.49305415   -9.2250132    484.38386 0.0085920225 0.0065140264         3962 
 4699000   0.50018697   -9.2106258    484.80225 0.0085976139 0.0065115282         3951 
 4700000   0.49838842   -9.2268591    484.44138 0.0085893862 0.0065090316         3941 
 4701000   0.50363182   -9.2048623    484.84511 0.0085947159 0.0065065372         3949 
 4702000   0.49224668   -9.2210296     484.2131 0.0085816869 0.0065040407         3958 
 4703000   0.49320506   -9.2342054    484.51917 0.0085852854 0.0065015465         3938 
 4704000   0.50150821   -9.2297924    483.27134 0.0085613546 0.0064990528         3951 
 4705000   0.50279532   -9.2282919    484.19927 0.0085759701 0.0064965618         3956 
 4706000   0.50730103   -9.2302062    483.94276 0.0085696055 0.0064940722         3943 
 4707000   0.49891264   -9.2190215    484.51981  0.008578001 0.0064915823         3959 
 4708000   0.48697419   -9.2269669    484.58549 0.0085773416 0.0064890953         3954 
 4709000    0.5007054   -9.2255649    485.00206 0.0085828919 0.0064866095         3951 
 4710000   0.50097223   -9.2210093    484.22599 0.0085673388 0.0064841254         3943 
 4711000   0.49773076   -9.2276842    484.67109 0.0085733937 0.0064816442         3944 
 4712000   0.49635398   -9.2314965    484.70929 0.0085722497 0.0064791636         3947 
 4713000   0.49686972   -9.2431516    484.17639 0.0085610084 0.0064766811         3958 
 4714000   0.49879122   -9.2357838    484.13671 0.0085584908  0.006474202         3943 
 4715000   0.49702439   -9.2219765    484.23567 0.0085584247 0.0064717233         3949 
 4716000   0.49971333   -9.2043619    483.64885 0.0085462406 0.0064692464         3948 
 4717000   0.49060419   -9.2307467    484.12133  0.008552776 0.0064667724         3950 
 4718000   0.50370764    -9.225975    484.90683 0.0085648374 0.0064642974         3947 
 4719000   0.49043796   -9.2216405    483.40572 0.0085365141 0.0064618232         3944 
 4720000   0.50375132   -9.2351944    484.54997 0.0085549076 0.0064593498         3952 
 4721000   0.49838199   -9.2423194    484.81665 0.0085578028 0.0064568806         3954 
 4722000   0.48734977   -9.2314215     484.4485 0.0085494934 0.0064544108         3945 
 4723000   0.48480945   -9.2278029    483.80626 0.0085363515 0.0064519439         3955 
 4724000    0.4982537   -9.2310182    483.41985 0.0085277281 0.0064494782         3951 
 4725000   0.50155499   -9.2357251     484.6824 0.0085481904 0.0064470136         3952 
 4726000   0.49317642   -9.2364083     483.8856 0.0085323318 0.0064445499         3941 
 4727000   0.49481161   -9.2412733    483.58407  0.008525211 0.0064420888         3948 
 4728000   0.48687553   -9.2440564    484.47043 0.0085390304 0.0064396281         3948 
 4729000   0.50194367    -9.232056    485.80587 0.0085607576 0.0064371688         3956 
 4730000   0.50022496   -9.2340134    484.08128 0.0085285638 0.0064347118         3952 
 4731000    0.4894187   -9.2354254    483.78193 0.0085214883 0.0064322535         3950 
 4732000   0.49660871   -9.2318668    484.27225 0.0085283222 0.0064297965         3955 
 4733000   0.49153129   -9.2251792    484.86023 0.0085368729 0.0064273417         3939 
 4734000   0.48677325    -9.235777    484.53293 0.0085293079 0.0064248885         3946 
 4735000    0.4942436   -9.2383804    483.78297 0.0085143078 0.0064224351         3955 
 4736000   0.48874769   -9.2139752    484.27928  0.008521243 0.0064199841         3945 
 4737000   0.48983231   -9.2201806    484.74076 0.0085275625  0.006417536         3958 
 4738000   0.48590694    -9.213271    484.76073 0.0085261138 0.0064150868         3961 
 4739000   0.50331198   -9.2214514     484.1806 0.0085141134 0.0064126397         3960 
 4740000   0.48860825   -9.2196384    484.07962 0.0085105418 0.0064101931         3943 
 4741000   0.49227937   -9.2286021     484.2965 0.0085125589 0.0064077474         3948 
 4742000   0.49397646   -9.2403725     483.6862 0.0085000387 0.0064053045         3944 
 4743000   0.49542028   -9.2283417    484.14451 0.0085062988 0.0064028634         3948 
 4744000   0.49737057   -9.2363207    483.70057 0.0084967077 0.0064004224         3959 
 4745000   0.50113467   -9.2491357     483.5537 0.0084923376  0.006397982         3960 
 4746000   0.49460033   -9.2351633    484.04598 0.0084991919 0.0063955461         3943 
 4747000   0.48235882   -9.2288986    484.76346 0.0085099969 0.0063931114         3961 
 4748000   0.47327084   -9.2285575    484.31006 0.0085002468 0.0063906744         3947 
 4749000   0.49193557   -9.2243857     484.3278 0.0084987682 0.0063882389         3951 
 4750000   0.49886402   -9.2279495    485.00842 0.0085089197 0.0063858042         3956 
 4751000    0.4885178   -9.2267164     484.4619 0.0084975426 0.0063833728         3942 
 4752000   0.48267707   -9.2325062     484.1054 0.0084895026 0.0063809401         3953 
 4753000   0.50133339   -9.2346501    484.25364 0.0084903156 0.0063785113         3958 
 4754000   0.49522269    -9.245156    483.84271 0.0084813264 0.0063760826         3952 
 4755000   0.48324881   -9.2411219    484.29636 0.0084874932 0.0063736563         3953 
 4756000   0.49064833   -9.2272974    484.72046 0.0084931395 0.0063712298         3943 
 4757000   0.48554286   -9.2330335    484.60208 0.0084892803 0.0063688038         3955 
 4758000   0.48624076   -9.2452092    483.63383 0.0084705379 0.0063663783         3953 
 4759000   0.48847814   -9.2438136     484.3247 0.0084808555 0.0063639549         3959 
 4760000   0.48806355   -9.2264506    484.23762 0.0084775493 0.0063615328         3950 
 4761000   0.48107253   -9.2425316    484.49962 0.0084803546 0.0063591145         3967 
 4762000   0.48297567   -9.2207808    483.76497 0.0084657176 0.0063566969         3951 
 4763000   0.49092726   -9.2395337    484.09812  0.008469769 0.0063542784         3957 
 4764000   0.49403706   -9.2428592    483.85266 0.0084636976 0.0063518609         3957 
 4765000   0.48949283   -9.2634309     483.7821 0.0084606874 0.0063494454         3960 
 4766000   0.49135495   -9.2404213    484.66967 0.0084744313 0.0063470301         3953 
 4767000   0.49060349   -9.2352202    484.45105 0.0084688316 0.0063446179         3955 
 4768000   0.49148386   -9.2532941    484.18241 0.0084623603 0.0063422067         3956 
 4769000   0.49327686   -9.2409746    484.18891 0.0084606994 0.0063397968         3963 
 4770000   0.47142582   -9.2279796    483.68695 0.0084501564 0.0063373875         3949 
 4771000   0.49121889   -9.2301626    483.83772 0.0084510187 0.0063349793         3952 
 4772000   0.49198085   -9.2352458    484.80353 0.0084661136 0.0063325722         3946 
 4773000   0.48759562   -9.2371917    484.79518 0.0084641941 0.0063301673         3956 
 4774000   0.49045331   -9.2402847    484.12476 0.0084507185 0.0063277626         3954 
 4775000   0.49721159   -9.2325594    484.48595 0.0084552521 0.0063253597         3950 
 4776000   0.49460659   -9.2376245    483.14976 0.0084301675 0.0063229582         3940 
 4777000   0.48223402   -9.2401277    483.84983 0.0084406153 0.0063205577         3955 
 4778000   0.49797999   -9.2488189    483.63344 0.0084350746 0.0063181578         3961 
 4779000    0.4930948   -9.2492276    484.64765 0.0084509949 0.0063157621         3957 
 4780000   0.49287787   -9.2323202    484.34846 0.0084440109 0.0063133676         3949 
 4781000   0.48071108   -9.2378944    484.60315 0.0084466839 0.0063109724         3960 
 4782000   0.48588509   -9.2501838    483.50334 0.0084257518 0.0063085792         3936 
 4783000   0.48823788   -9.2438011    482.91161 0.0084136805 0.0063061856         3957 
 4784000   0.48973657   -9.2429814     483.8552 0.0084283584 0.0063037922         3947 
 4785000   0.48368619   -9.2481254    484.38777  0.008435872 0.0063014014         3949 
 4786000   0.47596792   -9.2601421    483.34582 0.0084159671 0.0062990112         3947 
 4787000   0.48706051   -9.2472415    483.80469 0.0084221971 0.0062966232         3952 
 4788000   0.49411389   -9.2252664    483.67352 0.0084181552 0.0062942366         3951 
 4789000   0.48471443   -9.2669557    483.64994 0.0084159869 0.0062918506         3949 
 4790000   0.48674397   -9.2568082    483.87573 0.0084181582 0.0062894662         3956 
 4791000   0.47064674   -9.2522233    483.50251 0.0084099095 0.0062870839         3949 
 4792000   0.47530354   -9.2548351    483.50473  0.008408193 0.0062846998         3963 
 4793000   0.48871829   -9.2472807    484.44863 0.0084228498 0.0062823172         3941 
 4794000   0.47938738   -9.2444162    484.05466 0.0084142445 0.0062799394         3951 
 4795000    0.4691362   -9.2516132    483.84331 0.0084088167 0.0062775609         3944 
 4796000   0.49557343   -9.2459293    483.49843 0.0084010709 0.0062751808         3949 
 4797000   0.48935512   -9.2433519    483.65545 0.0084020473 0.0062728038         3955 
 4798000   0.49736183   -9.2481689    484.03495 0.0084068875 0.0062704302         3943 
 4799000   0.47390761   -9.2474068    483.28147 0.0083920517  0.006268056         3949 
 4800000   0.48350916   -9.2636849    484.50883 0.0084116116 0.0062656837         3950 
 4801000   0.48625284   -9.2346931    484.37072 0.0084074623 0.0062633131         3947 
 4802000   0.48855526   -9.2497335    484.74551 0.0084122155 0.0062609422         3949 
 4803000   0.48180746   -9.2656091    483.88602 0.0083955517 0.0062585738         3952 
 4804000   0.48007344   -9.2458511    483.55566 0.0083880735 0.0062562064         3940 
 4805000   0.48494843   -9.2500343    483.67537  0.008388404 0.0062538405         3944 
 4806000   0.47469588   -9.2537376    483.70445 0.0083871628 0.0062514741         3956 
 4807000   0.48364271   -9.2592682    483.78853 0.0083868756 0.0062491111         3952 
 4808000   0.47769057   -9.2613908    484.05944 0.0083898267  0.006246749         3948 
 4809000   0.48148149   -9.2453737     484.3098 0.0083924204 0.0062443882         3953 
 4810000   0.47699373   -9.2358388    483.17938 0.0083710911 0.0062420274         3968 
 4811000   0.48614113   -9.2586943    483.55513 0.0083758596 0.0062396675         3944 
 4812000   0.47824879   -9.2496359    484.19614   0.00838522 0.0062373102         3952 
 4813000   0.47356279   -9.2489908    484.08963 0.0083816335  0.006234953         3957 
 4814000   0.48374561   -9.2591277    483.62563 0.0083718604 0.0062325966         3956 
 4815000   0.48734692   -9.2493127    484.08734 0.0083781126  0.006230243         3954 
 4816000    0.4989751   -9.2557386    483.66646 0.0083690901 0.0062278895         3952 
 4817000   0.47896374   -9.2376937     483.2552 0.0083602381 0.0062255375         3951 
 4818000   0.48264169   -9.2320981    483.54249 0.0083634719 0.0062231872         3956 
 4819000   0.47565068   -9.2377397    484.32462 0.0083752615 0.0062208377         3956 
 4820000   0.47453672    -9.260318    483.81431 0.0083647011 0.0062184906         3943 
 4821000   0.47929426   -9.2499588    483.59912 0.0083592463 0.0062161428         3951 
 4822000   0.48497173   -9.2389692    483.78193 0.0083606721 0.0062137954         3953 
 4823000     0.491936   -9.2438518      483.353 0.0083515274 0.0062114523         3948 
 4824000    0.4895075   -9.2457348    483.38635 0.0083503722 0.0062091085         3949 
 4825000   0.48103142   -9.2548859    484.12919 0.0083614713 0.0062067658         3963 
 4826000    0.4779597     -9.25754    483.59571 0.0083505268 0.0062044252         3949 
 4827000   0.47956426   -9.2505449    483.27314 0.0083432279 0.0062020851         3954 
 4828000   0.47837457   -9.2513989    483.13354 0.0083390904 0.0061997464         3959 
 4829000   0.48655728   -9.2590419    483.46049 0.0083430056 0.0061974078         3948 
 4830000   0.47992424   -9.2592485    484.33468 0.0083563609 0.0061950716         3953 
 4831000   0.48064064   -9.2545881     484.2497 0.0083531652 0.0061927376         3951 
 4832000   0.47385239   -9.2529496    483.52395 0.0083389203  0.006190404         3947 
 4833000   0.48321288   -9.2627358    483.76266 0.0083413108 0.0061880728         3957 
 4834000   0.47887062   -9.2547472    483.83909 0.0083409028 0.0061857412         3947 
 4835000    0.4816489   -9.2391828    483.29247 0.0083297564 0.0061834106         3946 
 4836000   0.48329903   -9.2601765    483.29051 0.0083280003 0.0061810812         3949 
 4837000   0.47870303   -9.2615854    483.76851 0.0083345136  0.006178753         3949 
 4838000   0.47076634   -9.2581693    484.07815 0.0083381244 0.0061764263         3948 
 4839000   0.47942687   -9.2598264    483.22179 0.0083216537 0.0061741011         3949 
 4840000   0.46957817   -9.2574786    484.28996 0.0083383257 0.0061717769         3948 
 4841000   0.47414298    -9.259052     483.9904 0.0083314466 0.0061694539         3943 
 4842000   0.47749307    -9.252182     483.8051 0.0083265369 0.0061671314         3956 
 4843000   0.46614757   -9.2521136    483.90659 0.0083265639 0.0061648098         3946 
 4844000   0.47641852   -9.2475733    483.97805 0.0083260743 0.0061624903         3952 
 4845000   0.48584649   -9.2572161    483.92554 0.0083234527 0.0061601704         3952 
 4846000   0.47037934    -9.255545    483.68284 0.0083175615  0.006157853         3945 
 4847000   0.46744353   -9.2419838    483.67092 0.0083156405 0.0061555358         3949 
 4848000   0.48137062    -9.270643    483.12195  0.008304489 0.0061532205         3955 
 4849000   0.47507435   -9.2723462    484.16529 0.0083207068 0.0061509073         3954 
 4850000   0.48127056   -9.2738717    483.78037 0.0083123774 0.0061485965         3956 
 4851000   0.47477986   -9.2571813    483.20141 0.0083007183 0.0061462844         3955 
 4852000   0.47516648   -9.2648322    482.74396 0.0082911508  0.006143975         3953 
 4853000   0.46574094   -9.2452503    483.40995 0.0083008783  0.006141665         3948 
 4854000   0.47133004    -9.248499    483.88424 0.0083073107 0.0061393574         3947 
 4855000   0.47506312   -9.2519016    483.79313 0.0083040359 0.0061370517         3947 
 4856000   0.47993634   -9.2628927    483.99552  0.008305799 0.0061347456         3949 
 4857000   0.48049521   -9.2597791    483.72122 0.0082993826 0.0061324412         3954 
 4858000   0.47845278   -9.2638196    484.15092 0.0083050452  0.006130139         3955 
 4859000   0.46937348   -9.2668961    482.86608 0.0082813007 0.0061278366         3956 
 4860000   0.47122919   -9.2615015    483.43344 0.0082893251 0.0061255348         3945 
 4861000   0.47432573   -9.2545948    484.31848 0.0083027923 0.0061232342         3951 
 4862000   0.47034349   -9.2848232    483.70843 0.0082906285 0.0061209356         3952 
 4863000   0.47221809   -9.2636462    483.71853 0.0082890968 0.0061186394         3954 
 4864000    0.4766399   -9.2861126     482.9376 0.0082740131 0.0061163435         3960 
 4865000   0.46739865   -9.2585921    483.61949 0.0082839927 0.0061140477         3961 
 4866000   0.46174002   -9.2661049    483.98417 0.0082885356 0.0061117549         3948 
 4867000   0.47669897   -9.2703101    483.11632 0.0082719731 0.0061094614         3950 
 4868000   0.48228268   -9.2603949     483.7189 0.0082805893 0.0061071697         3956 
 4869000   0.47051123   -9.2590168    484.50771  0.008292389 0.0061048797         3958 
 4870000   0.45974515   -9.2624661    483.58249 0.0082748544 0.0061025912         3952 
 4871000   0.47080164   -9.2700245    483.54994 0.0082725988 0.0061003029         3955 
 4872000   0.46938266   -9.2633114    482.86146 0.0082591245  0.006098016         3952 
 4873000   0.47343457    -9.269301    482.86483 0.0082574873 0.0060957286         3960 
 4874000   0.47079933   -9.2714369    483.12659 0.0082602686 0.0060934449         3960 
 4875000   0.47690432   -9.2665607    483.50257 0.0082650013 0.0060911626         3958 
 4876000   0.46626769   -9.2570113    483.26591 0.0082592615 0.0060888802         3951 
 4877000   0.47380873   -9.2583004    483.25573 0.0082573941 0.0060865981         3947 
 4878000   0.47575821   -9.2565204    483.09422 0.0082529421 0.0060843172         3933 
 4879000   0.46696945    -9.290134    482.63461 0.0082434005 0.0060820376         3955 
 4880000   0.47838604   -9.2621487    482.94716 0.0082470485 0.0060797595         3950 
 4881000   0.47789482   -9.2566627    483.47801  0.008254422 0.0060774834         3955 
 4882000   0.46914858   -9.2686114    483.75091 0.0082573895 0.0060752072         3962 
 4883000   0.47829639   -9.2723768    483.25379 0.0082472147 0.0060729331         3949 
 4884000   0.45706223   -9.2655949    483.28134 0.0082459961 0.0060706605         3950 
 4885000   0.48554673   -9.2699787    484.20803 0.0082601166 0.0060683884         3964 
 4886000   0.46593732   -9.2835722    483.37927  0.008244291 0.0060661183         3952 
 4887000     0.479184   -9.2690224    483.56297 0.0082457365 0.0060638481         3960 
 4888000   0.46976665   -9.2731871    483.58072 0.0082443521 0.0060615796         3946 
 4889000    0.4773833   -9.2703405     483.0893 0.0082342896 0.0060593138         3960 
 4890000   0.46990064   -9.2697722    483.15563  0.008233736 0.0060570474         3951 
 4891000   0.46858192   -9.2787629    483.48725 0.0082377027 0.0060547833         3945 
 4892000   0.46628076   -9.2611175    484.27382 0.0082494178 0.0060525191         3951 
 4893000   0.46685088   -9.2584462    483.16955 0.0082289248 0.0060502557         3946 
 4894000   0.46411821    -9.266211    483.50559 0.0082329654 0.0060479933         3952 
 4895000   0.47222426   -9.2849398    482.96656 0.0082221069 0.0060457332         3950 
 4896000   0.47270836   -9.2602893    483.72271 0.0082332978 0.0060434735         3954 
 4897000   0.46439448   -9.2574891    483.55092 0.0082286931 0.0060412144         3944 
 4898000    0.4651372   -9.2724451    483.10288 0.0082193902 0.0060389583         3953 
 4899000   0.46208057   -9.2646536      483.589 0.0082259814 0.0060367029         3940 
 4900000    0.4673523   -9.2541319    483.32019 0.0082197312 0.0060344488         3957 
 4901000   0.47426442   -9.2473839    483.41528 0.0082196708 0.0060321952         3956 
 4902000   0.47322031   -9.2701837    482.96558 0.0082103493 0.0060299449         3957 
 4903000   0.47189691   -9.2694544    482.68749 0.0082039481 0.0060276936         3956 
 4904000   0.46742545   -9.2775628    482.94957 0.0082067287 0.0060254429         3966 
 4905000   0.47287723   -9.2726559    482.49555  0.008197342 0.0060231957         3964 
 4906000   0.46522744    -9.258762    483.48564 0.0082124887 0.0060209504         3951 
 4907000   0.45997867   -9.2595206    483.34182 0.0082083728  0.006018705         3950 
 4908000   0.47418947   -9.2656335    482.92092 0.0081995538 0.0060164598         3954 
 4909000   0.47042064   -9.2642574    483.24303 0.0082033515  0.006014215         3960 
 4910000   0.47331371   -9.2732844      482.709 0.0081926171 0.0060119714         3947 
 4911000   0.47397825   -9.2786351    483.00948 0.0081960476 0.0060097282         3952 
 4912000   0.46424341   -9.2607559    483.73961 0.0082067659 0.0060074857         3950 
 4913000   0.46173893   -9.2532082    483.58829 0.0082025289 0.0060052458         3954 
 4914000   0.46425205   -9.2743301    482.82592 0.0081879312 0.0060030078         3948 
 4915000    0.4653565   -9.2629195    483.26844  0.008193768 0.0060007696         3965 
 4916000   0.46546306   -9.2739068    483.66799 0.0081988743 0.0059985329         3957 
 4917000   0.46150957   -9.2731596    483.71439 0.0081979931 0.0059962976         3961 
 4918000   0.45808769   -9.2471165    482.84843  0.008181653 0.0059940626         3942 
 4919000   0.46452075    -9.271487    483.34551 0.0081884107 0.0059918294         3949 
 4920000   0.45840691   -9.2613521    482.93735 0.0081798331 0.0059895973         3950 
 4921000   0.46535683   -9.2791219    482.92391 0.0081779434 0.0059873668         3956 
 4922000   0.46586488   -9.2732639    482.18165 0.0081637147 0.0059851391         3950 
 4923000   0.46060763   -9.2600371    483.22822 0.0081797721 0.0059829121         3949 
 4924000   0.46188254     -9.25941    483.50113 0.0081827296  0.005980684         3943 
 4925000   0.45281734   -9.2555537    482.55683 0.0081650902 0.0059784569         3950 
 4926000   0.45807937   -9.2709501    483.26941 0.0081754874 0.0059762309         3957 
 4927000    0.4679103   -9.2663979    482.63272 0.0081630594 0.0059740057         3952 
 4928000   0.45260102   -9.2800885    483.66278 0.0081788214 0.0059717815         3960 
 4929000   0.46238465   -9.2717093    483.15855 0.0081686372 0.0059695592         3941 
 4930000   0.46564318   -9.2768229    482.96006  0.008163625 0.0059673376         3962 
 4931000   0.46309953   -9.2895596    483.27736 0.0081673319 0.0059651183         3948 
 4932000   0.45750213   -9.2932141    482.19184 0.0081473345 0.0059628997         3955 
 4933000   0.45924362   -9.2781778    483.29432 0.0081643071 0.0059606821         3951 
 4934000    0.4547598   -9.2731651    483.40401 0.0081645049  0.005958465         3954 
 4935000   0.45760951   -9.2743347    482.94298 0.0081550656 0.0059562489         3958 
 4936000   0.45809399   -9.2813737    483.53892 0.0081634745 0.0059540358         3964 
 4937000   0.46734791   -9.2765189    482.61733  0.008146265 0.0059518226         3961 
 4938000   0.47262174   -9.2694869    483.21525 0.0081547059 0.0059496106         3952 
 4939000   0.45470309   -9.2752486    483.42045  0.008156517 0.0059473996         3948 
 4940000   0.45632608   -9.2837036    483.85706  0.008162231 0.0059451904         3961 
 4941000   0.46830187   -9.2795828    483.03501 0.0081467148 0.0059429819         3962 
 4942000    0.4546098   -9.2672311    482.46157 0.0081353968 0.0059407748         3960 
 4943000    0.4478563   -9.2798035    483.36802 0.0081490327 0.0059385688         3950 
 4944000   0.46518976   -9.2702988    482.81494  0.008138062 0.0059363635         3944 
 4945000   0.46207683     -9.27572    482.98939 0.0081393561 0.0059341579         3961 
 4946000   0.44396253   -9.2726104    482.84927 0.0081353496 0.0059319541         3960 
 4947000   0.45126857   -9.2948411    483.13033 0.0081384396 0.0059297524         3961 
 4948000   0.45531052   -9.2777083    483.24632 0.0081387483 0.0059275505         3957 
 4949000   0.45576172   -9.2807455    483.21358 0.0081365525 0.0059253509         3948 
 4950000   0.46237921   -9.2638206    482.12918 0.0081166528 0.0059231523         3945 
 4951000   0.45582438   -9.2778163     482.8568 0.0081272605 0.0059209546         3951 
 4952000    0.4619497   -9.2749289    482.77597 0.0081242591 0.0059187573         3955 
 4953000   0.46106355   -9.2715525    483.61488 0.0081367333 0.0059165614         3953 
 4954000   0.46621785   -9.2780174    483.14874 0.0081272497 0.0059143665         3958 
 4955000   0.47229457   -9.2895606    483.12422 0.0081251972 0.0059121723         3952 
 4956000    0.4591601    -9.278455    482.59767 0.0081147039 0.0059099788         3953 
 4957000    0.4627876   -9.2803701    483.22493 0.0081236118 0.0059077882         3957 
 4958000   0.46380023   -9.2725697    482.54116 0.0081104807 0.0059055987         3959 
 4959000   0.46107995   -9.2725624    482.76473 0.0081126021 0.0059034093         3957 
 4960000   0.47009298   -9.2719305    482.68007 0.0081095441 0.0059012217         3948 
 4961000    0.4634388   -9.2768895    483.08515  0.008114714 0.0058990339         3953 
 4962000   0.46533275   -9.2811403    483.40427 0.0081184379 0.0058968487         3956 
 4963000   0.45999622     -9.27316    482.09637 0.0080948413 0.0058946664         3954 
 4964000   0.46082765   -9.2833285    483.22483 0.0081121546 0.0058924827         3957 
 4965000   0.45796466   -9.2878659    482.93842 0.0081057137 0.0058902999         3962 
 4966000    0.4643544   -9.2747802    483.20537  0.008108561 0.0058881196         3965 
 4967000   0.46408385   -9.2870631    482.69923 0.0080984368 0.0058859389         3961 
 4968000   0.45710892   -9.2709354    483.80827 0.0081154097 0.0058837598         3957 
 4969000   0.45933744   -9.2890108    482.35349  0.008089379 0.0058815824         3958 
 4970000   0.45221547   -9.2764583    482.76069 0.0080945791 0.0058794059         3959 
 4971000   0.46105041   -9.2898035    482.53111 0.0080891019  0.005877229         3958 
 4972000   0.45708494   -9.2937317    482.16518 0.0080813418  0.005875054         3948 
 4973000   0.45922587    -9.297011    483.03079  0.008094222  0.005872882         3956 
 4974000   0.44373231   -9.2740409     483.2228 0.0080958115 0.0058707098         3962 
 4975000   0.45623936   -9.2881582    482.77584 0.0080866976 0.0058685375         3950 
 4976000   0.46328038   -9.2817992    483.06414 0.0080899005 0.0058663677         3952 
 4977000   0.44701646   -9.3009528     483.2243 0.0080909568  0.005864198         3962 
 4978000   0.45953814   -9.2701053    483.46257 0.0080933201 0.0058620308         3950 
 4979000   0.45208399   -9.2754756    482.84134 0.0080812972 0.0058598629         3957 
 4980000   0.44870303   -9.2852887    482.90177 0.0080806855 0.0058576969         3954 
 4981000   0.45249965   -9.2856597    483.17271 0.0080835961 0.0058555329         3955 
 4982000   0.45536842   -9.2703524    482.78994 0.0080755711 0.0058533678         3944 
 4983000   0.44918163   -9.2805848    483.33809 0.0080831175 0.0058512048         3962 
 4984000   0.46237545   -9.2853356    483.09036 0.0080773535 0.0058490444         3955 
 4985000   0.46153526   -9.2849256    482.90121 0.0080725712 0.0058468834         3948 
 4986000   0.45914533   -9.2957308    482.94488  0.008071682 0.0058447243         3958 
 4987000   0.46183879    -9.281122    483.53293 0.0080798899 0.0058425655         3957 
 4988000   0.45789024   -9.2925154    482.36285 0.0080587218 0.0058404086         3961 
 4989000      0.45082   -9.2810113     482.5912 0.0080609207 0.0058382533         3962 
 4990000   0.45206848   -9.2713213    483.02046  0.008066474 0.0058360999         3958 
 4991000   0.45737666   -9.2999521    482.73448 0.0080600827 0.0058339461         3952 
 4992000   0.45354232   -9.2842845    482.88431 0.0080609694 0.0058317933         3954 
 4993000   0.44529825    -9.303293    482.88043 0.0080592902 0.0058296415         3954 
 4994000   0.45939705    -9.295607    482.27189 0.0080475218 0.0058274902         3962 
 4995000   0.44375584     -9.29864    482.93692 0.0080570057  0.005825341         3952 
 4996000   0.45743173    -9.304533    483.07482 0.0080576932  0.005823192         3955 
 4997000   0.44619763   -9.2892247     482.4301 0.0080453288 0.0058210431         3950 
 4998000   0.45029817   -9.2990054    483.92478 0.0080686405 0.0058188971         3953 
 4999000   0.45278044   -9.2965334    482.61802 0.0080452427 0.0058167513         3943 
 5000000   0.44336581   -9.2971052    482.51004  0.008041834 0.0058146074         3970 
 5001000   0.45466369   -9.2927356    482.99002  0.008048224 0.0058124638         3962 
 5002000   0.45197212   -9.3001919    482.74842   0.00804259 0.0058103208         3961 
 5003000   0.44844474   -9.2993763     481.8673 0.0080263059 0.0058081785         3953 
 5004000   0.45383386   -9.2796203    483.09845 0.0080452047  0.005806039         3957 
 5005000   0.45884615   -9.2863152    482.91853 0.0080406016  0.005803901         3952 
 5006000   0.44649075   -9.2738831    482.07504 0.0080249541 0.0058017623         3959 
 5007000   0.45783769   -9.2856502    483.45626 0.0080463395  0.005799625         3949 
 5008000   0.45185778   -9.3017469    482.62422 0.0080308876 0.0057974902         3959 
 5009000   0.45091433   -9.2987818      482.403 0.0080256039 0.0057953562         3957 
 5010000   0.45345892   -9.2809759    482.54847 0.0080264217 0.0057932226         3951 
 5011000   0.44808185   -9.2865724    482.79442   0.00802891  0.005791089         3946 
 5012000   0.44040003   -9.2830298    482.25633 0.0080183614 0.0057889577         3952 
Loop time of 13332.2 on 48 procs for 5000000 steps with 4000 atoms

Performance: 64805.399 tau/day, 375.031 timesteps/s
99.4% CPU use with 48 MPI tasks x no OpenMP threads

MPI task timing breakdown:
Section |  min time  |  avg time  |  max time  |%varavg| %total
---------------------------------------------------------------
Pair    | 1010.5     | 1120.4     | 1239.3     | 184.6 |  8.40
Neigh   | 95.382     | 98.773     | 103.9      |  20.9 |  0.74
Comm    | 821.52     | 952.94     | 1069.2     | 205.2 |  7.15
Output  | 20         | 20.006     | 20.114     |   0.4 |  0.15
Modify  | 10987      | 11019      | 11068      |  17.3 | 82.65
Other   |            | 120.8      |            |       |  0.91

Nlocal:        83.3333 ave          88 max          79 min
Histogram: 1 4 5 5 11 8 6 6 1 1
Nghost:        2464.10 ave        2481 max        2447 min
Histogram: 2 4 7 2 8 8 4 6 4 3
Neighs:        17180.8 ave       19986 max       15041 min
Histogram: 5 7 4 5 5 6 9 5 1 1
FullNghs:      34360.7 ave       36655 max       32665 min
Histogram: 4 6 3 12 5 6 6 5 0 1

Total # of neighbors = 1649315
Ave neighs/atom = 412.32875
Neighbor list builds = 265872
Dangerous builds = 1

#clear
#
#next RN
#
#jump SELF
Total wall time: 3:42:15
