
units lj                  # Use reduced LJ style units
atom_style atomic         # Uncharged point particles
atom_modify map hash      # Needed for indexing of clusters etc
                          # Used to be able to find where atoms are in relation to each other.

lattice fcc 1.0 spacing 1 1 1
Lattice spacing in x,y,z = 1.5874011 1.5874011 1.5874011
region box block 0 10 0 10 0 10 units lattice
create_box 2 box
Created orthogonal box = (0.0000000 0.0000000 0.0000000) to (15.874011 15.874011 15.874011)
  3 by 4 by 4 MPI processor grid
create_atoms 1 box
Created 4000 atoms
  using lattice units in orthogonal box = (0.0000000 0.0000000 0.0000000) to (15.874011 15.874011 15.874011)
  create_atoms CPU = 0.003 seconds
set type 1 type/fraction 2 0.31 78393
Setting atom values ...
  1268 settings made for type/fraction
mass 1 1.0
mass 2 1.0
pair_style lj/cut  3.5
pair_modify tail  yes
pair_coeff 1  1  1.0  1.0   # Intearaction between 1 and 1 set with epsilon = 1 and sigma = 1
pair_coeff 1  2  1.5  0.8
pair_coeff 2  2  0.5  0.88

write_data data.0
System init for write_data ...
Neighbor list info ...
  update every 1 steps, delay 10 steps, check yes
  max neighbors/atom: 2000, page size: 100000
  master list distance cutoff = 3.8
  ghost atom cutoff = 3.8
  binsize = 1.9, bins = 9 9 9
  1 neighbor lists, perpetual/occasional/extra = 1 0 0
  (1) pair lj/cut, perpetual
      attributes: half, newton on
      pair build: half/bin/atomonly/newton
      stencil: half/bin/3d
      bin: standard
WARNING: Not all mixed pair coeffs generated from mixing. Use write_data with 'pair ij' option to store all pair coeffs. (../write_data.cpp:312)


#############################
#   M E L T   S Y S T E M   #
#############################

velocity all create 2.4 6583654 mom yes dist gaussian # Assign velocities
                                                    # Temperature 2.4, random number seed, zero linear momentum
                                                                                # Gaussian distribution

timestep 0.002   # simulation timestep
thermo 1000       # output thermodynamic data every 1000 steps bf 100

# Define a fix  in this case with index 1 applied to all
# particles in the simulation. This fix is for simulations
# in the anisotropic NPT ensemble. Note that we use the MTK
# correction.
fix 1 all npt temp 2.4 2.4 0.1 iso 5.68 5.68 0.5 mtk yes tchain 5 pchain 5 # Use NPT ensemble
                                                                         # Set temperature and pressure and damping
                                                                         # Numbers of thermostats in chain and in barostat
run 10000          # run for 10000 steps
Per MPI rank memory allocation (min/avg/max) = 3.642 | 3.644 | 3.648 Mbytes
Step Temp E_pair E_mol TotEng Press Volume 
       0          2.4   -6.3727134            0   -2.7736134   -4.0086663         4000 
    1000     2.383743   -4.9714526            0    -1.396732    6.0920561    4101.4018 
    2000    2.3843423   -4.9326189            0   -1.3569996    5.4230515    4172.5826 
    3000    2.3935156   -4.9847193            0   -1.3953434    5.7322856    4124.3439 
    4000    2.4085135   -4.9927679            0   -1.3809008    5.2193421    4175.0868 
    5000    2.3676815   -4.9872247            0   -1.4365903    5.8127306    4110.6655 
    6000    2.4324156   -4.9972924            0    -1.349581    6.2283586    4076.1843 
    7000    2.3454983   -5.0130707            0   -1.4957028    5.8011287    4102.0157 
    8000    2.4885038   -5.0243121            0   -1.2924896    5.7776983    4099.2819 
    9000    2.3915756   -4.9278197            0   -1.3413531    5.5499604    4172.5692 
   10000    2.3908437   -4.9878251            0   -1.4024561     5.866388    4117.5504 
Loop time of 2.47086 on 48 procs for 10000 steps with 4000 atoms

Performance: 699351.773 tau/day, 4047.175 timesteps/s
99.6% CPU use with 48 MPI tasks x no OpenMP threads

MPI task timing breakdown:
Section |  min time  |  avg time  |  max time  |%varavg| %total
---------------------------------------------------------------
Pair    | 1.0383     | 1.1089     | 1.1623     |   2.7 | 44.88
Neigh   | 0.20264    | 0.21052    | 0.22128    |   0.8 |  8.52
Comm    | 0.77109    | 0.85288    | 0.94443    |   3.7 | 34.52
Output  | 0.00023952 | 0.00024454 | 0.00031032 |   0.0 |  0.01
Modify  | 0.24447    | 0.28346    | 0.31629    |   3.9 | 11.47
Other   |            | 0.01484    |            |       |  0.60

Nlocal:        83.3333 ave          95 max          74 min
Histogram: 3 3 6 6 13 8 3 3 1 2
Nghost:        1609.21 ave        1644 max        1562 min
Histogram: 1 0 2 9 6 7 8 9 5 1
Neighs:        9253.38 ave       10869 max        7673 min
Histogram: 1 2 3 9 12 6 11 1 1 2

Total # of neighbors = 444162
Ave neighs/atom = 111.04050
Neighbor list builds = 906
Dangerous builds = 200

# Equilibrate just above the melting temperature to avoid step fn in T

fix 1 all npt temp 1.25 1.25 0.1 iso 5.68 5.68 0.5 mtk yes tchain 5 pchain 5
run 2000
Per MPI rank memory allocation (min/avg/max) = 3.643 | 3.645 | 3.649 Mbytes
Step Temp E_pair E_mol TotEng Press Volume 
   10000    2.3908437   -4.9878251            0   -1.4024561     5.866388    4117.5504 
   11000     1.227267   -6.8637748            0   -5.0233346    5.6149393    3320.2187 
   12000    1.2438692   -6.9189321            0   -5.0535948    5.6514769    3303.6298 
Loop time of 0.563709 on 48 procs for 2000 steps with 4000 atoms

Performance: 613081.911 tau/day, 3547.928 timesteps/s
99.7% CPU use with 48 MPI tasks x no OpenMP threads

MPI task timing breakdown:
Section |  min time  |  avg time  |  max time  |%varavg| %total
---------------------------------------------------------------
Pair    | 0.24726    | 0.2693     | 0.30348    |   2.4 | 47.77
Neigh   | 0.036603   | 0.039123   | 0.042476   |   0.6 |  6.94
Comm    | 0.16998    | 0.20736    | 0.2333     |   3.0 | 36.79
Output  | 4.8107e-05 | 4.9212e-05 | 6.3592e-05 |   0.0 |  0.01
Modify  | 0.040109   | 0.043284   | 0.04828    |   0.9 |  7.68
Other   |            | 0.004586   |            |       |  0.81

Nlocal:        83.3333 ave          94 max          76 min
Histogram: 1 3 9 15 4 9 4 2 0 1
Nghost:        1868.23 ave        1884 max        1845 min
Histogram: 2 2 3 3 6 5 11 5 9 2
Neighs:        11566.2 ave       13340 max       10200 min
Histogram: 3 4 7 6 9 7 7 3 1 1

Total # of neighbors = 555177
Ave neighs/atom = 138.79425
Neighbor list builds = 142
Dangerous builds = 10

#############################
# L I N E A R  Q U E N C H  #
#############################

# Define solid atoms. This closely follows ten Wolde  Ruiz-Montero and Frenkel  Faraday Discuss  1996  104  93-110
# Compute components of the per-atom q6 vector
compute q6 all orientorder/atom degrees 1 6 components 6 nnn NULL cutoff 1.3 # compute the Q6 parameter.
                                                                             # Use all neighbours within 1.3 unit cell.

# get number of connections
compute coord_number all coord/atom orientorder q6 0.5

# An atom is solid if it has 8 or more connections (of a possible 14)
variable is_solid atom c_coord_number>=8
group solid dynamic all var is_solid    # Must be dynamic to update
dynamic group solid defined

# do clustering
compute cluster solid cluster/atom 1.3 # Create a cluster where all atoms within are solid and max 1.3 units from another member

# define chunks one chunk per cluster
compute clus_chunks solid chunk/atom c_cluster nchunk every compress yes  # Says which atoms are in which chunk

# count the size of each chunk
compute size_chunks solid property/chunk clus_chunks count


# Find the maximum entry in the vector of chunk sizes
variable max_n equal max(c_size_chunks)


# Thermo style which includes this variable
# thermo_style custom step temp pe vol v_max_n

thermo ${N}  # Print the thermo information every 100 steps
thermo 1000  

# Reset the npt fix at a lower temperature (below freezing)
fix 1  all npt temp  ${temp} ${temp}  0.1  iso  5.68  5.68  0.5  mtk yes tchain  5  pchain  5
fix 1  all npt temp  0.45 ${temp}  0.1  iso  5.68  5.68  0.5  mtk yes tchain  5  pchain  5
fix 1  all npt temp  0.45 0.45  0.1  iso  5.68  5.68  0.5  mtk yes tchain  5  pchain  5

dump dmp2 all dcd ${N} traj.dcd
dump dmp2 all dcd 1000 traj.dcd


compute msd all msd com yes
variable twopoint equal c_msd[4]/6/(step*dt+1.0e-6)
fix 9 all vector 10 c_msd[4]
variable fit equal slope(f_9)/6/(10*dt)
thermo_style custom step temp pe c_msd[4] v_twopoint v_fit v_max_n

fix 1 all npt temp 1.25 ${temp} 0.1 iso 5.68 5.68 0.5 mtk yes tchain 5 pchain 5
fix 1 all npt temp 1.25 0.45 0.1 iso 5.68 5.68 0.5 mtk yes tchain 5 pchain 5
run 500000 # 5000000  # Run for this many steps
Neighbor list info ...
  update every 1 steps, delay 10 steps, check yes
  max neighbors/atom: 2000, page size: 100000
  master list distance cutoff = 3.8
  ghost atom cutoff = 3.8
  binsize = 1.9, bins = 8 8 8
  4 neighbor lists, perpetual/occasional/extra = 1 3 0
  (1) pair lj/cut, perpetual
      attributes: half, newton on
      pair build: half/bin/atomonly/newton
      stencil: half/bin/3d
      bin: standard
  (2) compute orientorder/atom, occasional
      attributes: full, newton on
      pair build: full/bin/atomonly
      stencil: full/bin/3d
      bin: standard
  (3) compute coord/atom, occasional
      attributes: full, newton on
      pair build: full/bin/atomonly
      stencil: full/bin/3d
      bin: standard
  (4) compute cluster/atom, occasional
      attributes: full, newton on
      pair build: full/bin/atomonly
      stencil: full/bin/3d
      bin: standard
Per MPI rank memory allocation (min/avg/max) = 9.811 | 9.817 | 9.821 Mbytes
Step Temp PotEng c_msd[4] v_twopoint v_fit v_max_n 
   12000    1.2438692   -6.9189321            0            0 8.3333333e+20            1 
   13000    1.2273857   -6.9471281   0.51399311 0.0032948275  0.042903593            3 
   14000    1.2679733   -6.8912243   0.94835002 0.0056449404  0.038136922            1 
   15000    1.2172476   -6.9248506    1.4006624 0.0077814578  0.038357394            1 
   16000    1.2610379   -6.8749323    1.9194907 0.0099973471  0.038704719            2 
   17000    1.2438087   -6.8864849    2.3602469  0.011569837  0.038924688            2 
   18000    1.2424995   -6.9771435    2.8712843  0.013292982  0.039180383            2 
   19000    1.2389659   -6.9271364    3.3625894  0.014748199  0.039626068            2 
   20000    1.2287975   -6.9374816     3.836548  0.015985616  0.039752032            1 
   21000    1.2272374   -6.9066188    4.3399389  0.017221979  0.039915568            1 
   22000    1.2496029   -6.9244899    4.7825072  0.018115557   0.03994311            1 
   23000    1.2200026   -6.9512391     5.199326  0.018838137  0.039767811            2 
   24000    1.2572396   -6.9853478    5.6346538   0.01956477  0.039512854            1 
   25000    1.2489948   -6.9299241     6.135934  0.020453113  0.039361613            2 
   26000    1.2373408   -6.9746736     6.527055  0.020920048  0.039238374            1 
   27000    1.2460734   -6.9754598    6.9180237  0.021351925  0.038980391            1 
   28000    1.2358399   -6.9561308    7.4557033  0.022189593  0.038775555            2 
   29000    1.2335983   -6.9783446     7.861794  0.022591362  0.038621304            1 
   30000    1.1852371   -6.9552004    8.2943493  0.023039859  0.038417673            2 
   31000    1.2015654   -6.9706059    8.7391758  0.023492408  0.038293303            1 
   32000    1.2146127   -6.9605447    9.0809631  0.023648341  0.038133547            2 
   33000    1.1898426   -6.9451194    9.5099038  0.024014908  0.037887894            1 
   34000    1.1999471   -6.9885222    9.8992379  0.024262838  0.037649166            1 
   35000    1.2038547   -6.9698468    10.300775  0.024525655  0.037452506            2 
   36000    1.2448738   -6.9994738    10.749621  0.024883382  0.037279304            3 
   37000     1.192068   -7.0378925    11.064376  0.024919765   0.03712539            1 
   38000    1.2302754    -7.013621    11.468217  0.025149598   0.03692545            3 
   39000    1.2018606   -6.9840651    11.865311  0.025353228  0.036736128            2 
   40000    1.2067453   -6.9580487    12.405162  0.025844086  0.036593823            1 
   41000    1.2275753   -7.0129271    12.789426  0.025994769   0.03648216            2 
   42000    1.1920841   -6.9920563    13.402002  0.026591274  0.036400358            2 
   43000    1.2008291   -6.9968729    13.856292  0.026853279  0.036393504            2 
   44000    1.2026626    -7.017038    14.389573  0.027252979  0.036433002            2 
   45000    1.1985542   -7.0047313    14.979704  0.027740192  0.036520737            2 
   46000    1.1899867   -7.0377358    15.289797  0.027698907  0.036598542            2 
   47000    1.2082892    -7.062606    15.706344  0.027848127  0.036627543            1 
   48000    1.1781831   -7.0217908    16.126097  0.027996696  0.036662702            1 
   49000    1.1797959   -7.0166059    16.681878  0.028370541  0.036684108            1 
   50000    1.1946658   -7.0426896    17.119138  0.028531896  0.036735681            1 
   51000    1.1730096   -7.0026503    17.487659  0.028574605   0.03676378            2 
   52000    1.1833234   -7.0492729    17.926697   0.02872868  0.036776995            1 
   53000    1.2011691   -7.0611031    18.451887    0.0290124  0.036819232            1 
   54000    1.1859279   -7.0140127    18.820751  0.029044368  0.036852659            1 
   55000    1.1721201   -7.0679625    19.071907  0.028896828  0.036839401            1 
   56000    1.1941816   -7.0610602     19.35721  0.028805371   0.03677977            1 
   57000    1.1571802   -7.0112653    19.692201  0.028789767  0.036689461            1 
   58000    1.1509528   -7.0547512    20.022067  0.028767338  0.036585562            5 
   59000    1.1610398   -7.0489574    20.354076  0.028748695  0.036475882            1 
   60000    1.1683068   -7.0629032    20.766322  0.028842114  0.036368277            2 
   61000    1.1656825   -7.0840328    21.326731  0.029134878   0.03627822            3 
   62000    1.2028983   -7.0614442    21.793407  0.029292214  0.036223729            4 
   63000    1.1805867   -7.1020828    22.169249  0.029324403  0.036175258            2 
   64000    1.1939415    -7.066347    22.467218   0.02925419  0.036109938            1 
   65000    1.1526595   -7.0972042    22.744335  0.029159403  0.036033222            1 
   66000    1.1838613   -7.0779757    23.150686  0.029230664  0.035945776            2 
   67000    1.1574357   -7.1080253    23.496387  0.029224361  0.035850036            3 
   68000    1.1425086   -7.0764476    23.838906  0.029214346  0.035745201            2 
   69000    1.1785242   -7.1122752    24.226825   0.02925945  0.035639351            2 
   70000    1.1572445   -7.0893316     24.68055  0.029381607  0.035546145            1 
   71000    1.1263413   -7.1386578    24.994993  0.029336846   0.03546497            1 
   72000     1.153367   -7.0758724    25.586293  0.029613765  0.035393656            2 
   73000    1.1637062   -7.0865751    26.007004  0.029688361  0.035328734            1 
   74000    1.1471462   -7.1509476     26.22321  0.029530641  0.035264351            1 
   75000    1.1526475   -7.1433991    26.513906  0.029459895  0.035188383            2 
   76000     1.145867   -7.1137138    27.030929  0.029639176  0.035111023            2 
   77000      1.15384    -7.130383    27.406022  0.029660197  0.035037399            2 
   78000    1.1441547   -7.1298727    27.651987  0.029542721  0.034968229            1 
   79000    1.1547142   -7.1298701     27.93392   0.02946616  0.034886825            1 
   80000    1.1367739   -7.1325441     28.27029  0.029448218  0.034815561       -1e+20 
   81000    1.1262276   -7.1718194    28.687694  0.029514088  0.034734658            1 
   82000    1.1496615   -7.1307622    29.106012  0.029579281  0.034658413            2 
   83000    1.1386544   -7.1356254    29.492272  0.029610715  0.034581686            2 
   84000    1.1279405   -7.1655938    29.773592  0.029537294  0.034502854            2 
   85000    1.1557611   -7.1805522    30.118006  0.029527457  0.034427786            2 
   86000    1.1357783   -7.1421782    30.437025  0.029493241  0.034356605            1 
   87000    1.1527097   -7.1758987    30.890824  0.029588912  0.034284446            1 
   88000    1.1172959   -7.2089251    31.214065  0.029558774   0.03421175            1 
   89000    1.1334096    -7.171852    31.559531  0.029550123  0.034138664            2 
   90000    1.1210734   -7.2057239    31.993213  0.029623345  0.034071247            1 
   91000    1.1120485   -7.2122529    32.153707  0.029444786  0.034000511            4 
   92000    1.1484112    -7.184067    32.431742  0.029376577  0.033925708            1 
   93000    1.1007625   -7.2003729    32.838435  0.029425121  0.033843131            2 
   94000    1.1285328   -7.1664288    33.241013  0.029468983   0.03376377            1 
   95000    1.1113386   -7.1728841    33.694209  0.029556323   0.03369607            1 
   96000    1.0935058   -7.2017446    33.965288  0.029483757  0.033631137            2 
   97000     1.093466   -7.1860303    34.291686  0.029460211  0.033561765            1 
   98000    1.1291864    -7.164811    34.576164    0.0294015  0.033493469            2 
   99000    1.1307832   -7.2319047    35.151892  0.029589135  0.033433405            1 
  100000    1.0839438   -7.2259088    35.465112   0.02955426  0.033377377            3 
  101000    1.0969535   -7.2448277    35.833123  0.029565283  0.033316915            1 
  102000     1.117913   -7.2108925    36.051128  0.029453536  0.033258184            4 
  103000    1.0804784   -7.1778437    36.457331  0.029496222  0.033197616            2 
  104000    1.0919559   -7.2372836    36.668516  0.029381823  0.033136375            1 
  105000     1.095346   -7.2102905    37.058524  0.029411527  0.033072923            2 
  106000    1.1128586   -7.2166651    37.369929  0.029378875  0.033011894            2 
  107000    1.0904577   -7.2198291    37.761863   0.02940955  0.032949017            2 
  108000    1.1164562   -7.2198078    38.032876  0.029346355  0.032886055            5 
  109000    1.1031698   -7.2388299    38.226201  0.029224924  0.032818889            3 
  110000    1.0875956   -7.2496278    38.445421  0.029125318  0.032746383            1 
  111000    1.0605782   -7.2147679    38.986453  0.029269109  0.032681887            2 
  112000    1.0732956    -7.243127    39.125897   0.02911153  0.032617501            2 
  113000    1.1055453   -7.2336565    39.488096  0.029121014  0.032546297            1 
  114000     1.075663   -7.2453078    39.619169   0.02896138  0.032469912            1 
  115000    1.0837377   -7.2683358    39.964973  0.028960125  0.032396153            2 
  116000    1.0691585   -7.2482523    40.275626  0.028933639  0.032324353            2 
  117000    1.0879671   -7.2839176    40.616173  0.028928898  0.032253255            2 
  118000    1.0689105   -7.2768872    40.882126  0.028871557  0.032184958            2 
  119000    1.0848535   -7.2192246    41.274155   0.02890347   0.03211369            1 
  120000    1.0771493    -7.282127    41.248776  0.028644983     0.032039            3 
  121000    1.0894695   -7.2951918    41.562573  0.028624361  0.031958182            2 
  122000    1.0544521   -7.2753061    41.913779   0.02862963  0.031879489            2 
  123000    1.0775142   -7.2754521    42.314608  0.028668434  0.031805215            1 
  124000    1.0687465   -7.2591374    42.551192  0.028596231  0.031730239            2 
  125000     1.082571   -7.3165011    42.660326  0.028440217  0.031654605            2 
  126000    1.0786518   -7.3263077    42.995881  0.028436429  0.031577878            1 
  127000    1.0603173   -7.3258212    43.324359  0.028428057  0.031503291            1 
  128000    1.0388714    -7.276134    43.845893  0.028545503  0.031430706            2 
  129000    1.0622688   -7.3095665    44.196448  0.028550677  0.031361614            3 
  130000    1.0505409   -7.3254959    44.477335  0.028511112  0.031298162            2 
  131000    1.0349814   -7.3129228     44.87676  0.028547557   0.03123519            1 
  132000    1.0548751   -7.3015296    45.037478  0.028432751  0.031170724            1 
  133000    1.0667959   -7.3314177    45.276247  0.028368576   0.03110613            2 
  134000     1.065743   -7.3512904    45.269337  0.028152572  0.031036448            1 
  135000    1.0480497   -7.3557955    45.420433  0.028037304  0.030960117            1 
  136000    1.0344852   -7.3806859    45.499586  0.027879648  0.030881959            2 
  137000    1.0782767   -7.3686976    45.707775  0.027802783  0.030799699            1 
  138000    1.0433465   -7.3357157    46.119362  0.027849856  0.030717212            2 
  139000    1.0463289   -7.3339703    46.297684  0.027756405   0.03063388            2 
  140000    1.0343543   -7.3680724    46.491662  0.027673608  0.030549435            2 
  141000    1.0500516   -7.3429623     46.69471  0.027597346  0.030464596            2 
  142000    1.0467931   -7.3457241    46.775618   0.02745048   0.03037749            3 
  143000    1.0341455   -7.3784287    47.016566  0.027398931  0.030291374            2 
  144000    1.0472695   -7.3784681    47.271507  0.027356196  0.030204641            3 
  145000    1.0389466   -7.4023731    47.511195  0.027305284  0.030118162            4 
  146000    1.0414649   -7.3818013    47.728425  0.027242251  0.030029882            2 
  147000    1.0315776   -7.3877913    48.030722    0.0272283  0.029944802            2 
  148000    1.0599088    -7.392222    48.192014  0.027135143  0.029859449            1 
  149000    1.0523035   -7.3624841    48.671499  0.027221196   0.02977573            1 
  150000    1.0261392   -7.3906703      48.8662  0.027147889  0.029693844            1 
  151000   0.98302749   -7.3696249    48.973439  0.027027284  0.029609024            6 
  152000     1.023572   -7.4011651    49.224983  0.026987381  0.029523404            1 
  153000    1.0137463    -7.391313    49.349586   0.02687886  0.029437833            1 
  154000    1.0160167   -7.3739866     49.62399  0.026852808  0.029352027            1 
  155000    1.0278177   -7.4003215    49.961059  0.026860784  0.029270556            3 
  156000    1.0301217   -7.4150864    50.177519   0.02680423  0.029190677            4 
  157000   0.99087338   -7.4195142    50.437031  0.026771248  0.029111385            1 
  158000    1.0210364   -7.4543355    50.718391  0.026750206  0.029033312            2 
  159000    1.0067947   -7.4057466    51.248139  0.026859611  0.028959486            2 
  160000    1.0096362   -7.4511069    51.269628  0.026702931  0.028883669            1 
  161000   0.97685196   -7.4060667    51.422827   0.02661637  0.028809594            1 
  162000    1.0088128   -7.4199221     51.67794  0.026583302  0.028734523            2 
  163000    1.0144188   -7.4680439    51.858164  0.026512354   0.02865977            2 
  164000   0.99843079   -7.4641852    52.191009  0.026519821  0.028587506            3 
  165000    1.0180802   -7.4818917    52.470076  0.026500038  0.028517339            2 
  166000   0.99500071   -7.4233307    52.757653  0.026484766  0.028447097            3 
  167000    1.0121459    -7.427953    53.143303  0.026518614  0.028378436            3 
  168000    1.0099194   -7.4895433    53.041164  0.026310101  0.028307562            2 
  169000   0.99546501   -7.4874152    53.254618  0.026259673  0.028233104            1 
  170000    1.0070895   -7.4627555    53.156785  0.026057247  0.028157123            2 
  171000    1.0060354   -7.4775936    53.516443  0.026080138  0.028082937            1 
  172000   0.96949098   -7.4407826    53.740124  0.026036882  0.028008885            1 
  173000   0.98452064    -7.509524      53.8063  0.025918256  0.027935322            2 
  174000   0.99362321    -7.457116    54.158562  0.025938008   0.02785888            3 
  175000   0.98733698   -7.4683218    54.133206  0.025777717  0.027781863            1 
  176000   0.97678132   -7.4709315    54.374776  0.025745632  0.027703934            1 
  177000   0.97807818   -7.4891034    54.425433  0.025624027  0.027623538            1 
  178000   0.99390619   -7.4866188    54.343383  0.025441659  0.027541755            3 
  179000    0.9870612   -7.4992638    54.563459  0.025401983  0.027459711            1 
  180000   0.97892164   -7.4867553    54.965164  0.025446835  0.027378259            2 
  181000   0.96885709   -7.5231672    54.895328  0.025274092  0.027295589            2 
  182000   0.95923477   -7.5284215    54.962816  0.025166124   0.02721208            2 
  183000   0.98887487   -7.4987676    55.072864  0.025078718   0.02712775            2 
  184000   0.95854373   -7.5332804    55.169863  0.024986351  0.027041593            2 
  185000   0.98786851   -7.5128668    55.274769  0.024898545   0.02695638            1 
  186000   0.97943855   -7.5253037     55.71604  0.024962383  0.026872984            2 
  187000   0.98252172   -7.5247851    55.841795  0.024884935   0.02679037            2 
  188000   0.95519716    -7.515888    55.954744  0.024802635   0.02670679            1 
  189000   0.96829831   -7.5157214    56.157661  0.024760873  0.026624664            2 
  190000   0.95804866   -7.5366643    56.088494  0.024600217  0.026541752            1 
  191000   0.95222577   -7.5358167    56.304837   0.02456581  0.026457441            1 
  192000   0.98691061   -7.5418976    56.562273  0.024549598  0.026374404            2 
  193000   0.96430972    -7.541152    56.715578  0.024488592  0.026292409            3 
  194000   0.96552585   -7.5823631     56.63742  0.024328789  0.026208993            1 
  195000   0.94935996   -7.5438696    56.827473  0.024285245  0.026124581            1 
  196000    0.9734248   -7.5648322    56.884263  0.024185486  0.026039027            2 
  197000   0.96573202   -7.5740784    56.972505  0.024100045  0.025953689            4 
  198000   0.94530997   -7.6139676    57.266388  0.024102015  0.025868984            2 
  199000   0.95167625   -7.5837867    57.231461  0.023966273  0.025784389            3 
  200000   0.95499941   -7.5633411    57.551168  0.023979653  0.025701815            2 
  201000   0.93031541   -7.6121122    57.640375  0.023897336  0.025619984            4 
  202000   0.95615917   -7.5751175    57.974654  0.023916937  0.025538671            1 
  203000   0.93704152   -7.5965004    57.920651   0.02377695  0.025458247            2 
  204000   0.95409206   -7.5997407    58.286796  0.023809965  0.025379265            2 
  205000   0.93233465   -7.6103123    58.614874  0.023827185  0.025300337            3 
  206000   0.95895015   -7.5750686    58.706461  0.023748568  0.025222242            4 
  207000   0.94022535   -7.6627686     58.63978  0.023606997  0.025144618            1 
  208000    0.9433409   -7.6553793    58.647231  0.023496487  0.025066158            3 
  209000     0.954626   -7.6208312     58.92837   0.02349616  0.024986713            2 
  210000   0.93783247   -7.6167087    59.067381  0.023439437  0.024908242            1 
  211000   0.92215288   -7.6062144    59.291965  0.023417048  0.024829186            2 
  212000   0.93141782   -7.6519447    59.353006  0.023330584  0.024751862            3 
  213000   0.92449038   -7.6084455    59.376744  0.023230338  0.024674985            1 
  214000   0.93822907   -7.6197597    59.703595  0.023249064  0.024598147            2 
  215000   0.91987087   -7.6241396    59.590973  0.023097276  0.024519886            2 
  216000   0.94358251   -7.6596584    59.640563  0.023009476  0.024442582            1 
  217000    0.9196818   -7.6619034    60.013355  0.023046603   0.02436606            2 
  218000   0.92529414   -7.6534739    60.224211  0.023021487  0.024290186            2 
  219000   0.92516536   -7.6489926    60.261119  0.022930411  0.024214936            2 
  220000   0.89968237   -7.6551551    60.520329  0.022924367  0.024140264            3 
  221000   0.92108695   -7.6851511    60.441453  0.022790895  0.024065653            1 
  222000   0.91569184   -7.6443981    60.539645  0.022725092  0.023990425            1 
  223000   0.90228378   -7.6663814    60.872514  0.022747576   0.02391532            1 
  224000   0.90667804   -7.6515471    60.816765  0.022625285  0.023840377            2 
  225000   0.91872788   -7.6598605    60.933791  0.022568071  0.023764449            2 
  226000   0.89279658   -7.6783206    60.878522  0.022447833  0.023689949            1 
  227000   0.89896691   -7.6818874    61.229241  0.022477695   0.02361533            1 
  228000   0.91063368   -7.7071136    61.350464  0.022423415  0.023541408            3 
  229000   0.89624998   -7.6906519    61.381241  0.022336696  0.023468061            3 
  230000   0.91485869    -7.672375    61.449193    0.0222642  0.023395095            1 
  231000   0.92373847   -7.7141455     61.70723  0.022260905   0.02332205            1 
  232000   0.89337991   -7.7280029    61.878239  0.022226379  0.023249846            2 
  233000   0.91508093   -7.7263697    61.765134  0.022090534  0.023176798            2 
  234000    0.8834471    -7.711795    61.946271  0.022060638  0.023103457            1 
  235000   0.88547013   -7.7236247    62.036251  0.021998671  0.023030807            3 
  236000   0.87926487   -7.6970159    62.195706  0.021961761   0.02295916            2 
  237000   0.90639829   -7.7356033    62.263896  0.021893072  0.022886794            2 
  238000   0.88345339   -7.7060918    62.419572  0.021855593  0.022815267            1 
  239000   0.87497593   -7.7148463    62.358784  0.021742951  0.022743653            2 
  240000   0.89865087   -7.7334449    62.519927  0.021708308  0.022670948            2 
  241000   0.87443971   -7.7148091    62.591364  0.021642934  0.022599107            1 
  242000    0.8708116   -7.7092349    62.709904  0.021594319  0.022527448            1 
  243000   0.88611206   -7.7346079    62.701946  0.021502725   0.02245527            3 
  244000   0.88469208   -7.7097533    62.737062  0.021426592  0.022382779            2 
  245000   0.86425204   -7.7670673     62.90542  0.021396401  0.022310201            3 
  246000   0.86519186   -7.7788223    62.991893  0.021338717  0.022238293            2 
  247000   0.87766955   -7.7692948    63.128428   0.02129839  0.022167575            2 
  248000   0.84540274    -7.742037    63.182609  0.021230715  0.022097066            3 
  249000   0.85825859   -7.7586956    63.235131  0.021163029  0.022026577            2 
  250000   0.86847427   -7.7775169    63.315898  0.021105299  0.021956347            1 
  251000   0.85337856   -7.7942589    63.441737  0.021062994  0.021885122            3 
  252000   0.86856703   -7.7733493    63.351989  0.020949732  0.021814507            1 
  253000   0.85800856    -7.774918    63.552003  0.020932807  0.021743525            3 
  254000   0.85502706   -7.7579143    63.710868  0.020902516  0.021673384            2 
  255000    0.8767452   -7.7771377    63.721078  0.020823882  0.021604173            3 
  256000   0.87314262   -7.8097632    63.830852  0.020778272  0.021534449            2 
  257000   0.85643325   -7.7963639    63.651533  0.020639278  0.021464568            2 
  258000   0.82906238    -7.786325    63.735734  0.020586477  0.021394424            2 
  259000   0.86946247   -7.8267256    63.821474   0.02053458  0.021324571            2 
  260000   0.82888795   -7.8456888    63.713985  0.020421149  0.021254344            2 
  261000   0.84924296   -7.8176189    64.054443   0.02045161  0.021184734            2 
  262000   0.84487151   -7.8140521    64.125059  0.020396011  0.021116231            2 
  263000   0.84997643    -7.825995    64.269056  0.020364086  0.021047585            2 
  264000   0.85913137    -7.831037    64.285161  0.020292033  0.020978849            2 
  265000   0.85582733   -7.8216402    64.213325   0.02019287  0.020910121            3 
  266000   0.84896221   -7.8174821    64.341272   0.02015704  0.020841802            1 
  267000   0.86034712   -7.8108357    64.497745  0.020130382  0.020773224            2 
  268000   0.83002393   -7.8176151    64.482101  0.020050405  0.020704913            1 
  269000   0.82693387   -7.8035299    64.650869   0.02002815  0.020636714            3 
  270000   0.85657314   -7.8478686    64.372433  0.019868035  0.020569031            3 
  271000   0.82502708   -7.8159797    64.768341  0.019916464  0.020500764            2 
  272000   0.81219064   -7.8475934    64.736787  0.019833575  0.020432843            4 
  273000   0.81940205   -7.8609303    64.537299   0.01970003  0.020364731            1 
  274000   0.83832154   -7.8770968    64.653845  0.019663578  0.020296382            6 
  275000   0.82819454   -7.8940085    64.628757  0.019584472  0.020228075            3 
  276000   0.84414206   -7.8793583    64.673496  0.019527022  0.020159307            2 
  277000    0.8163141   -7.8689461    64.509184  0.019407095   0.02009041            3 
  278000   0.82504992   -7.8222023    64.980835  0.019478667  0.020021853            3 
  279000   0.81305296   -7.8654579    64.902275  0.019385387  0.019954091            4 
  280000   0.81475112   -7.8802042    64.966974  0.019335409  0.019886372            2 
  281000   0.83085756   -7.9146666    64.764854  0.019206659  0.019818385            3 
  282000   0.81452519   -7.9070384     64.89225  0.019176197  0.019751013            1 
  283000   0.81650987   -7.8711356    65.102468  0.019170338  0.019683854            1 
  284000   0.81545947   -7.8717717    65.177439  0.019124835  0.019616828            3 
  285000   0.81695781   -7.9128122    65.106588  0.019037014  0.019550391            3 
  286000   0.80804914   -7.9003976    65.456001  0.019072261  0.019484555            2 
  287000   0.82169978   -7.8952851    65.562537  0.019036741  0.019419047            2 
  288000   0.80770306   -7.9284877    65.460106  0.018941003  0.019353985            2 
  289000   0.80776784   -7.9221249    65.693076   0.01894264  0.019289196            2 
  290000   0.81692735   -7.9197432     65.47348  0.018814218   0.01922447            1 
  291000   0.77869893   -7.9372728    65.344847  0.018712728   0.01915967            2 
  292000   0.80186771   -7.9426891    65.528123  0.018700948  0.019095646            2 
  293000   0.82417179   -7.9386696    65.718812  0.018691357  0.019031941            2 
  294000   0.80581633   -7.9412396    65.769848  0.018642247  0.018968202            3 
  295000   0.77575002   -7.9668506    65.739418  0.018570457  0.018904549            4 
  296000   0.77452775   -7.9293915    65.900644  0.018553109   0.01884072            3 
  297000   0.78965984   -7.9806195    65.769274  0.018453781  0.018776467            3 
  298000    0.7695433   -7.9932524    65.590579  0.018341884    0.0187123            3 
  299000   0.78428765   -7.9910434     65.73771  0.018321547  0.018648035            2 
  300000   0.79792839   -8.0113576    65.638842  0.018233012  0.018583761            2 
  301000   0.78537967   -8.0015353    65.855778  0.018232497  0.018520817            1 
  302000   0.78680384      -7.9694    66.131098  0.018248095  0.018458515            2 
  303000   0.78223518   -7.9913983    66.059617  0.018168211  0.018396358            2 
  304000   0.78709704   -7.9860095    65.946165  0.018077348  0.018334252            3 
  305000   0.76828801   -8.0179444    66.141697  0.018071502   0.01827272            3 
  306000   0.79030878   -8.0111929    66.170265  0.018020225  0.018211432            1 
  307000   0.77458831   -7.9976219    66.169504   0.01796132  0.018150035            1 
  308000   0.78769499    -8.024105    66.224001  0.017917749  0.018088637            2 
  309000   0.76203885     -8.02081     66.25426  0.017867923  0.018027494            3 
  310000   0.79646584   -8.0363537    66.046158  0.017754344  0.017965691            2 
  311000   0.78299989    -8.033188    66.185569  0.017734611  0.017904084            2 
  312000   0.75977003   -8.0366604    66.310061  0.017711021   0.01784309            2 
  313000   0.77552555   -8.0504276     66.19818  0.017624649  0.017781965            2 
  314000   0.77380888   -8.0445038    66.244911  0.017580921  0.017720818            3 
  315000   0.75461357    -8.072654    66.166841  0.017504455  0.017659994            3 
  316000    0.7653705   -8.0243998    66.453703  0.017524711  0.017599602            3 
  317000   0.76115393   -8.0469658    66.547519   0.01749409  0.017540032            2 
  318000   0.75395404   -8.0403809    66.356801  0.017389099  0.017480165            3 
  319000   0.74912566     -8.03719    66.418606  0.017350733  0.017420296            1 
  320000   0.74407857   -8.0482804    66.404186  0.017292757  0.017360615            2 
  321000   0.74447024   -8.0433989    66.527974  0.017271021  0.017301224            3 
  322000   0.76247596   -8.0521515    66.455001  0.017198499  0.017241666            2 
  323000   0.76288989   -8.1011578    66.531156  0.017164901   0.01718232            2 
  324000   0.74899643    -8.113924    66.494967  0.017102615  0.017123194            3 
  325000    0.7479446   -8.0882142    66.554944   0.01706537  0.017064176            2 
  326000   0.74996713   -8.0824541    66.417959  0.016978006  0.017005294            1 
  327000   0.76074106   -8.0835581    66.416823  0.016925796   0.01694629            3 
  328000   0.72464992   -8.0978427    66.593613  0.016919109  0.016887311            3 
  329000   0.74937359   -8.0814175    66.673226  0.016887848  0.016828728            4 
  330000   0.72658774   -8.0800831    66.630473  0.016825877  0.016770571            3 
  331000   0.74239209   -8.1093592    66.558865  0.016757015  0.016712583            5 
  332000   0.73382909   -8.1169226    66.709059  0.016744242  0.016654722            4 
  333000   0.74996769   -8.1165516    66.661541  0.016682067  0.016597029            1 
  334000    0.7207511   -8.1170443    66.850304  0.016679217   0.01653959            1 
  335000   0.73643217   -8.1118388     66.66946  0.016584443  0.016482612            2 
  336000   0.72341537   -8.1249697    66.609276  0.016520158  0.016425768            2 
  337000   0.72745607   -8.1423847    66.770372  0.016510972  0.016369291            2 
  338000   0.73432747   -8.1107295    66.871532  0.016487064  0.016313105            4 
  339000   0.74134612   -8.1015531    66.911463  0.016448246  0.016256974            3 
  340000   0.73384478   -8.1142588     66.84037  0.016382444  0.016201098            2 
  341000   0.71487788   -8.1447791    66.765412  0.016316083  0.016145357            2 
  342000   0.71199731   -8.1040684    66.872299   0.01629442  0.016089984            3 
  343000   0.73528275   -8.1515637    66.917777  0.016257963  0.016034665            3 
  344000   0.71886151   -8.1654483    66.729591  0.016165114  0.015979276            3 
  345000   0.72064233   -8.1315588    66.883417  0.016155415  0.015924176            2 
  346000   0.70546131   -8.1417542    66.870721  0.016105665  0.015869339            3 
  347000   0.70706698   -8.1601222    66.760968  0.016032893  0.015814465            3 
  348000   0.70979546   -8.1595386     66.73003  0.015979413  0.015759912            4 
  349000   0.71468565   -8.1721936    66.952832  0.015986827  0.015705378            6 
  350000   0.71621199   -8.1588017    66.880759   0.01592399  0.015650861            9 
  351000   0.69137768   -8.1783497      67.0251  0.015912892  0.015596563            4 
  352000   0.70986515   -8.1869099    66.783567  0.015810503  0.015542257            4 
  353000   0.71447458   -8.1809575    66.813677  0.015772823  0.015488374            1 
  354000   0.71049264   -8.1850196    67.029642  0.015779106  0.015435143            2 
  355000   0.69324207   -8.2180823    66.893624  0.015702729   0.01538195            2 
  356000     0.701235   -8.2226385    66.937122  0.015668802  0.015328809            2 
  357000   0.68846982   -8.2264837    66.888643  0.015613595  0.015275695            2 
  358000   0.70363575   -8.2126798    66.801165  0.015549619  0.015222408            7 
  359000   0.70293599   -8.2240249    66.808083  0.015507912  0.015169163            4 
  360000   0.68748828   -8.2241286     66.85163  0.015474914  0.015116179            3 
  361000   0.68655025   -8.2396072    66.954476  0.015455789  0.015063586            2 
  362000   0.69214049   -8.2184764    67.084562  0.015443039  0.015011288            1 
  363000   0.68304765   -8.2631618    66.849966   0.01534664   0.01495914            1 
  364000   0.67500643   -8.2534422    66.821905  0.015298055  0.014907142            3 
  365000   0.69766929   -8.2402137    66.785281  0.015247781  0.014855395            2 
  366000   0.70095758   -8.2350401    66.963329  0.015246659  0.014803721            1 
  367000   0.68111439   -8.2484838    66.952362  0.015202625  0.014752541            2 
  368000   0.68566062   -8.2473155    66.968299  0.015164923  0.014701508            4 
  369000   0.67727078   -8.2387653    67.086993  0.015150631    0.0146508            4 
  370000   0.68004685   -8.2404792    67.015488  0.015093578  0.014600269            5 
  371000   0.68605523   -8.2502588      67.0127  0.015052269  0.014549747            1 
  372000   0.66537785    -8.279141    66.925266  0.014992219  0.014499288            2 
  373000   0.67659835   -8.2763065    66.920174  0.014950888  0.014448855            2 
  374000    0.6664631   -8.2707295    66.810714  0.014886523   0.01439851            2 
  375000   0.67536416   -8.2681729    67.007896  0.014890644  0.014348446            1 
  376000   0.67455495   -8.2758601     66.96293  0.014841075  0.014298569            1 
  377000   0.66746864   -8.2883674    66.983734  0.014806307  0.014249125            2 
  378000   0.65640768   -8.2851278    66.925789  0.014754363   0.01419983            2 
  379000   0.66762978   -8.2906881    67.145526  0.014763748  0.014150722            1 
  380000   0.66177386   -8.3038486    67.062113  0.014706604   0.01410174            1 
  381000   0.66764903   -8.2698896    66.907876  0.014634269  0.014053092            1 
  382000   0.65034306   -8.2883877    67.090224  0.014635738  0.014004509            5 
  383000   0.66190456   -8.3021371    67.026656  0.014583694  0.013956288            1 
  384000   0.66086512   -8.3192062    66.967581  0.014532895  0.013907952            2 
  385000   0.64857158   -8.2982624    67.106496  0.014525216   0.01385996            2 
  386000   0.65796725   -8.3023173    67.051208  0.014475649  0.013812098            2 
  387000   0.64545551    -8.302583    67.002093  0.014427669  0.013764174            4 
  388000   0.63727851   -8.3452805    66.814869  0.014350273  0.013716349            2 
  389000   0.64972556   -8.3360858     66.92239  0.014336416  0.013668786            1 
  390000    0.6426966   -8.3453172    67.006354  0.014317597  0.013621321            3 
  391000   0.64685877   -8.3437037    66.932412   0.01426522  0.013573981            1 
  392000   0.62300861   -8.3016994    67.064597   0.01425693  0.013527005            2 
  393000   0.64045749   -8.3063617    67.050751  0.014217716  0.013480473            2 
  394000   0.63243315   -8.3423396     66.93337  0.014156804  0.013434009            2 
  395000   0.65434268   -8.3350943    66.984634  0.014131779  0.013387578            1 
  396000   0.63999158   -8.3594755    66.757241  0.014048241  0.013341207            2 
  397000    0.6403373   -8.3456587    67.013689  0.014066685  0.013295027            2 
  398000   0.62722215   -8.3637453    66.848047   0.01399666  0.013249128            1 
  399000   0.62398976   -8.3617709     66.91858  0.013976312  0.013203396            2 
  400000   0.63429113   -8.3657761    66.977157  0.013953574  0.013157773            2 
  401000   0.62100614   -8.3795939    66.906243   0.01390404  0.013112168            3 
  402000   0.63019574   -8.3640382    66.913064  0.013870867  0.013066857            1 
  403000   0.62939917   -8.3765507    67.003198  0.013855086   0.01302183            2 
  404000   0.62873058   -8.3590581     66.93573  0.013806875  0.012976881            4 
  405000   0.61082309   -8.3871155    66.947902  0.013775288  0.012931927            2 
  406000   0.61580009   -8.3963921    66.924655  0.013736588  0.012887193            9 
  407000    0.6266815   -8.3847008     66.86476  0.013690573  0.012842494            3 
  408000   0.62278694   -8.4232905    66.820453  0.013647968  0.012797965            2 
  409000   0.60409043   -8.4001468    66.880645  0.013626863  0.012753594            2 
  410000   0.60869996   -8.4043903     66.86645  0.013590742  0.012709572            2 
  411000   0.60211124   -8.4015091    66.870063  0.013558407  0.012665653            1 
  412000   0.61390119   -8.4205043    66.938561  0.013539353  0.012621974            2 
  413000    0.6213038    -8.389365    66.997574  0.013518477  0.012578333            2 
  414000   0.61135844   -8.3989027    66.842831  0.013454676  0.012534791            3 
  415000    0.6144778   -8.4123612    66.927659  0.013439289   0.01249146            2 
  416000   0.60431723   -8.4255588    66.822209  0.013385859  0.012448356            2 
  417000   0.60352161   -8.4255131    66.844696  0.013358253  0.012405324            4 
  418000   0.59218193   -8.4333074    66.925254  0.013342355  0.012362549            2 
  419000   0.61112168   -8.4405723    66.857314     0.013297  0.012319959            1 
  420000   0.59984801   -8.4507071    66.785853  0.013251161  0.012277681            1 
  421000    0.6073755   -8.4602615    66.813975  0.013225252  0.012235477            1 
  422000   0.60651753   -8.4295139    66.849797  0.013200987  0.012193496            3 
  423000   0.59232011   -8.4452251    66.706923  0.013141632  0.012151692            3 
  424000   0.59944686   -8.4490029    66.896781  0.013147952  0.012109978            1 
  425000   0.59213337   -8.4522301    66.801147  0.013098264  0.012068413            1 
  426000   0.58435853   -8.4642284    66.846544  0.013076398  0.012027087            4 
  427000   0.58666768   -8.4680313     66.79987  0.013036665  0.011985813            2 
  428000    0.5911583   -8.4745639    66.810881  0.013008349  0.011944673            2 
  429000   0.59056642   -8.4746941      66.8185  0.012979507  0.011903698            2 
  430000   0.57435581   -8.4890425    66.757763  0.012937551  0.011862859            1 
  431000   0.56917979   -8.4809453      66.7693  0.012909764  0.011822218            2 
  432000   0.57925617   -8.4699772     66.83914  0.012893353  0.011781676            2 
  433000   0.58721603   -8.4744486    66.793751  0.012854841  0.011741371            2 
  434000   0.57520517   -8.4645568    66.702336  0.012807668  0.011701165            2 
  435000   0.58280449   -8.4816475    66.679151  0.012773784   0.01166121            2 
  436000   0.57519541    -8.490874     66.75194  0.012758398  0.011621347            1 
  437000   0.55808139   -8.4893791    66.746136  0.012728096   0.01158154            1 
  438000    0.5748513   -8.4884596    66.589413  0.012669219  0.011541877            1 
  439000   0.57148692    -8.511627    66.695787  0.012660552  0.011502327            3 
  440000     0.560055   -8.5246094    66.731381  0.012638519   0.01146295            1 
  441000   0.55977124   -8.5077853    66.618017  0.012588439   0.01142366            1 
  442000     0.558584    -8.510198    66.592392  0.012555127  0.011384628            2 
  443000   0.55227334   -8.4919983    66.596606  0.012527578  0.011345712            3 
  444000   0.54886486   -8.4841271    66.721686  0.012522839  0.011306911            4 
  445000    0.5496904   -8.5020302    66.610323  0.012473843  0.011268315            2 
  446000   0.56168247   -8.5202282     66.53578  0.012431947  0.011229843            3 
  447000   0.54035802   -8.5454719    66.609566  0.012417891  0.011191557            1 
  448000   0.54715709   -8.5259529    66.542453  0.012377688  0.011153303            2 
  449000   0.55331067   -8.5116463    66.464589   0.01233567   0.01111521            3 
  450000   0.55081326   -8.5229604    66.518871  0.012318309  0.011077292            4 
  451000   0.54313241   -8.5260562    66.613227  0.012308431  0.011039549            1 
  452000   0.54253782   -8.5503383    66.647831  0.012287579  0.011002016            2 
  453000   0.52981921   -8.5249023    66.530024  0.012238783  0.010964663            2 
  454000   0.53362138   -8.5484288    66.485002  0.012203561  0.010927333            2 
  455000   0.52870253    -8.558312    66.539818   0.01218678  0.010890226            2 
  456000   0.54032691   -8.5396789    66.544369  0.012160886  0.010853315            1 
  457000   0.54090608   -8.5611398    66.449379  0.012116955  0.010816481            1 
  458000   0.54656327   -8.5445697     66.46226  0.012092842  0.010779809            2 
  459000   0.52978313   -8.5415227    66.448242  0.012063951  0.010743207            1 
  460000   0.52182853   -8.5597063    66.361028  0.012021925  0.010706852            2 
  461000   0.53867233   -8.5619751    66.448262  0.012011616  0.010670692            2 
  462000   0.53467384   -8.5894235    66.463472  0.011988361  0.010634547            3 
  463000   0.52252072   -8.5556655    66.406647   0.01195224   0.01059864            1 
  464000   0.52927853   -8.5789599    66.409803  0.011927048  0.010562862            1 
  465000    0.5197893   -8.5692767    66.519837  0.011921118  0.010527266            3 
  466000   0.52523314   -8.5704157    66.471239  0.011886845  0.010491805            1 
  467000   0.51339697   -8.5787368    66.495389  0.011865701  0.010456467            4 
  468000     0.530677   -8.5952752    66.338942   0.01181249  0.010421144            1 
  469000   0.50901588   -8.5808131    66.461614    0.0118091  0.010386083            1 
  470000   0.51482759   -8.5894505    66.353677  0.011764836  0.010351216            2 
  471000   0.52433352    -8.583665     66.46758  0.011760011  0.010316402            1 
  472000   0.50491508   -8.5866361    66.321882  0.011709372    0.0102818            1 
  473000   0.50257362   -8.5903096    66.340575   0.01168791  0.010247261            2 
  474000   0.51159364   -8.5900457    66.544491  0.011699102  0.010212901            3 
  475000   0.50528241   -8.6015544    66.355614  0.011641336  0.010178696            2 
  476000   0.51379794   -8.6122572    66.424088  0.011628867  0.010144564            1 
  477000   0.50752126   -8.6066115    66.302028  0.011583163   0.01011061            2 
  478000   0.49416457    -8.618142    66.324345  0.011562822  0.010076759            1 
  479000   0.49466239   -8.6034331    66.349126  0.011542993  0.010043142            2 
  480000   0.51399618    -8.601023    66.359968  0.011520828  0.010009655            1 
  481000   0.49133174   -8.6207787    66.244717  0.011476909 0.0099763437            1 
  482000   0.49590271   -8.6098394    66.393467  0.011478815 0.0099431668            2 
  483000   0.49252446   -8.6083135    66.372526  0.011451437 0.0099100778            1 
  484000   0.49322109   -8.5976829    66.278738  0.011411628 0.0098771316            2 
  485000   0.49724182    -8.634939    66.338883  0.011398434   0.00984426            1 
  486000   0.48646181   -8.6154191    66.174718  0.011346831 0.0098115581            2 
  487000   0.49808864   -8.6366843    66.260939  0.011338285  0.009778993            3 
  488000   0.48200458   -8.6332501    66.289954  0.011320006 0.0097465683            2 
  489000   0.48806864   -8.6500108    66.285778  0.011296145 0.0097142352            1 
  490000   0.49066647   -8.6274656    66.180241  0.011255143 0.0096820146            2 
  491000   0.47823759   -8.6332713    66.281397  0.011249388  0.009649935            2 
  492000   0.47619059   -8.6365189    66.269379  0.011224488  0.009617943            2 
  493000   0.48158011   -8.6451361    66.264502  0.011200896 0.0095860742            2 
  494000   0.48223983   -8.6383914    66.169671  0.011162225 0.0095543195            1 
  495000   0.47185711   -8.6614226    66.202721  0.011145239 0.0095227502            1 
  496000   0.47912105   -8.6503641    66.234624  0.011128129 0.0094913624            1 
  497000   0.47485149   -8.6554184    66.171778  0.011095201 0.0094600568            2 
  498000   0.46986692   -8.6566373    66.188023   0.01107564 0.0094288676            2 
  499000   0.47693346   -8.6533011    66.126571  0.011043182 0.0093978553            1 
  500000   0.47331605   -8.6482668    66.212025  0.011035338 0.0093669532            2 
  501000   0.47709633   -8.6520381    66.148574  0.011002757 0.0093361299            2 
  502000   0.46428553   -8.6598274    66.067167  0.010967325 0.0093054671            1 
  503000   0.46395798   -8.6791454    66.147475  0.010958826 0.0092749059            2 
  504000   0.46415763   -8.6633596    66.149203  0.010937368 0.0092444816            2 
  505000   0.47167673   -8.6754127     65.98855    0.0108892 0.0092141849            2 
  506000   0.46430595   -8.6741654    66.074419  0.010881821 0.0091840147            2 
  507000   0.45872112    -8.680724    66.190384  0.010879419 0.0091540359            5 
  508000   0.44275144   -8.6744857    66.072181  0.010838612 0.0091241155            1 
  509000   0.44436333   -8.6721711    66.031313  0.010810628 0.0090942936            1 
  510000   0.45348787   -8.6774531    66.113098  0.010802794 0.0090646588            2 
  511000   0.45570667   -8.6756643     66.06646  0.010774048 0.0090351103            2 
  512000   0.44911087   -8.6950249     66.09382  0.010757458 0.0090056698            3 
Loop time of 1212.2 on 48 procs for 500000 steps with 4000 atoms

Performance: 71275.638 tau/day, 412.475 timesteps/s
99.4% CPU use with 48 MPI tasks x no OpenMP threads

MPI task timing breakdown:
Section |  min time  |  avg time  |  max time  |%varavg| %total
---------------------------------------------------------------
Pair    | 74.095     | 79.902     | 87.46      |  35.4 |  6.59
Neigh   | 7.8457     | 8.2518     | 8.816      |   9.1 |  0.68
Comm    | 72.518     | 80.896     | 86.922     |  38.8 |  6.67
Output  | 0.8391     | 0.83964    | 0.8505     |   0.2 |  0.07
Modify  | 1028.4     | 1031.3     | 1033.8     |   4.2 | 85.08
Other   |            | 10.96      |            |       |  0.90

Nlocal:        83.3333 ave          89 max          77 min
Histogram: 2 4 4 3 5 13 5 5 4 3
Nghost:        2069.62 ave        2088 max        2048 min
Histogram: 3 3 4 4 5 4 8 8 5 4
Neighs:        13461.4 ave       15091 max       11717 min
Histogram: 1 3 4 4 12 8 5 4 5 2
FullNghs:      27002.3 ave       29144 max       24836 min
Histogram: 3 1 8 7 6 4 8 3 5 3

Total # of neighbors = 1296111
Ave neighs/atom = 324.02775
Neighbor list builds = 26755
Dangerous builds = 0

#clear
#
#next RN
#
#jump SELF
Total wall time: 0:20:15
