
units lj                  # Use reduced LJ style units
atom_style atomic         # Uncharged point particles
atom_modify map hash      # Needed for indexing of clusters etc
                          # Used to be able to find where atoms are in relation to each other.

lattice fcc 1.0 spacing 1 1 1
Lattice spacing in x,y,z = 1.5874011 1.5874011 1.5874011
region box block 0 10 0 10 0 10 units lattice
create_box 2 box
Created orthogonal box = (0.0000000 0.0000000 0.0000000) to (15.874011 15.874011 15.874011)
  3 by 4 by 4 MPI processor grid
create_atoms 1 box
Created 4000 atoms
  using lattice units in orthogonal box = (0.0000000 0.0000000 0.0000000) to (15.874011 15.874011 15.874011)
  create_atoms CPU = 0.026 seconds
set type 1 type/fraction 2 0.69 78393
Setting atom values ...
  2781 settings made for type/fraction
mass 1 1.0
mass 2 1.0
pair_style lj/cut  3.5
pair_modify tail  yes
pair_coeff 1  1  1.0  1.0   # Intearaction between 1 and 1 set with epsilon = 1 and sigma = 1
pair_coeff 1  2  1.5  0.8
pair_coeff 2  2  0.5  0.88

write_data data.0
System init for write_data ...
Neighbor list info ...
  update every 1 steps, delay 10 steps, check yes
  max neighbors/atom: 2000, page size: 100000
  master list distance cutoff = 3.8
  ghost atom cutoff = 3.8
  binsize = 1.9, bins = 9 9 9
  1 neighbor lists, perpetual/occasional/extra = 1 0 0
  (1) pair lj/cut, perpetual
      attributes: half, newton on
      pair build: half/bin/atomonly/newton
      stencil: half/bin/3d
      bin: standard
WARNING: Not all mixed pair coeffs generated from mixing. Use write_data with 'pair ij' option to store all pair coeffs. (../write_data.cpp:312)


#############################
#   M E L T   S Y S T E M   #
#############################

velocity all create 2.4 5300450 mom yes dist gaussian # Assign velocities
                                                    # Temperature 2.4, random number seed, zero linear momentum
                                                                                # Gaussian distribution

timestep 0.002   # simulation timestep
thermo 1000       # output thermodynamic data every 1000 steps bf 100

# Define a fix  in this case with index 1 applied to all
# particles in the simulation. This fix is for simulations
# in the anisotropic NPT ensemble. Note that we use the MTK
# correction.
fix 1 all npt temp 2.4 2.4 0.1 iso 5.68 5.68 0.5 mtk yes tchain 5 pchain 5 # Use NPT ensemble
                                                                         # Set temperature and pressure and damping
                                                                         # Numbers of thermostats in chain and in barostat
run 10000          # run for 10000 steps
Per MPI rank memory allocation (min/avg/max) = 3.642 | 3.644 | 3.648 Mbytes
Step Temp E_pair E_mol TotEng Press Volume 
       0          2.4    -4.227286            0  -0.62818599   -3.7882121         4000 
    1000    2.4161013   -3.7851404            0  -0.16189446    5.8444188    3686.1122 
    2000    2.3508479   -3.8394164            0  -0.31402621    5.7779136    3646.3574 
    3000    2.4211333    -3.850957            0  -0.22016498    5.8715208    3649.8473 
    4000    2.4162403    -3.890049            0  -0.26659462    5.5585557     3647.525 
    5000    2.3609172   -3.8058132            0  -0.26532275    5.6485632    3677.3281 
    6000    2.4097331   -3.8661467            0  -0.25245073    5.3214429    3679.2737 
    7000    2.4021335   -3.8871453            0  -0.28484587    5.3119599    3652.8375 
    8000     2.434601   -3.8233489            0  -0.17236039    5.7525333    3671.1157 
    9000    2.4153614   -3.8505137            0  -0.22837734     5.641474     3659.472 
   10000    2.4051371   -3.9142385            0  -0.30743486    5.4412183      3642.58 
Loop time of 2.62151 on 48 procs for 10000 steps with 4000 atoms

Performance: 659162.815 tau/day, 3814.600 timesteps/s
99.6% CPU use with 48 MPI tasks x no OpenMP threads

MPI task timing breakdown:
Section |  min time  |  avg time  |  max time  |%varavg| %total
---------------------------------------------------------------
Pair    | 1.2059     | 1.2634     | 1.3408     |   2.7 | 48.19
Neigh   | 0.21656    | 0.22244    | 0.24608    |   1.0 |  8.49
Comm    | 0.78699    | 0.87916    | 0.9695     |   3.6 | 33.54
Output  | 0.00024725 | 0.00025136 | 0.00031444 |   0.0 |  0.01
Modify  | 0.21137    | 0.24056    | 0.27316    |   3.0 |  9.18
Other   |            | 0.01574    |            |       |  0.60

Nlocal:        83.3333 ave          92 max          74 min
Histogram: 4 0 4 9 6 6 7 4 6 2
Nghost:        1745.79 ave        1767 max        1706 min
Histogram: 1 1 0 3 8 6 8 6 6 9
Neighs:        10479.7 ave       11869 max        8915 min
Histogram: 2 1 6 5 11 5 5 5 5 3

Total # of neighbors = 503025
Ave neighs/atom = 125.75625
Neighbor list builds = 902
Dangerous builds = 188

# Equilibrate just above the melting temperature to avoid step fn in T

fix 1 all npt temp 1.25 1.25 0.1 iso 5.68 5.68 0.5 mtk yes tchain 5 pchain 5
run 2000
Per MPI rank memory allocation (min/avg/max) = 3.644 | 3.646 | 3.649 Mbytes
Step Temp E_pair E_mol TotEng Press Volume 
   10000    2.4051371   -3.9142385            0  -0.30743486    5.4412183      3642.58 
   11000    1.2508692   -5.7070188            0   -3.8311841    5.6217186    2787.1302 
   12000    1.2327862   -5.7374089            0   -3.8886918    5.5198124    2778.3297 
Loop time of 0.668183 on 48 procs for 2000 steps with 4000 atoms

Performance: 517223.773 tau/day, 2993.193 timesteps/s
99.6% CPU use with 48 MPI tasks x no OpenMP threads

MPI task timing breakdown:
Section |  min time  |  avg time  |  max time  |%varavg| %total
---------------------------------------------------------------
Pair    | 0.29774    | 0.32428    | 0.35681    |   2.5 | 48.53
Neigh   | 0.040619   | 0.043651   | 0.048276   |   0.8 |  6.53
Comm    | 0.21603    | 0.24848    | 0.27736    |   3.1 | 37.19
Output  | 5.1196e-05 | 5.2961e-05 | 6.8401e-05 |   0.0 |  0.01
Modify  | 0.041212   | 0.046785   | 0.051507   |   1.3 |  7.00
Other   |            | 0.004937   |            |       |  0.74

Nlocal:        83.3333 ave          90 max          78 min
Histogram: 5 3 6 6 7 11 3 3 1 3
Nghost:        2102.10 ave        2121 max        2086 min
Histogram: 5 2 8 3 6 7 9 3 2 3
Neighs:        13750.8 ave       15696 max       12450 min
Histogram: 4 4 5 14 8 5 3 3 0 2

Total # of neighbors = 660037
Ave neighs/atom = 165.00925
Neighbor list builds = 143
Dangerous builds = 9

#############################
# L I N E A R  Q U E N C H  #
#############################

# Define solid atoms. This closely follows ten Wolde  Ruiz-Montero and Frenkel  Faraday Discuss  1996  104  93-110
# Compute components of the per-atom q6 vector
compute q6 all orientorder/atom degrees 1 6 components 6 nnn NULL cutoff 1.3 # compute the Q6 parameter.
                                                                             # Use all neighbours within 1.3 unit cell.

# get number of connections
compute coord_number all coord/atom orientorder q6 0.5

# An atom is solid if it has 8 or more connections (of a possible 14)
variable is_solid atom c_coord_number>=8
group solid dynamic all var is_solid    # Must be dynamic to update
dynamic group solid defined

# do clustering
compute cluster solid cluster/atom 1.3 # Create a cluster where all atoms within are solid and max 1.3 units from another member

# define chunks one chunk per cluster
compute clus_chunks solid chunk/atom c_cluster nchunk every compress yes  # Says which atoms are in which chunk

# count the size of each chunk
compute size_chunks solid property/chunk clus_chunks count


# Find the maximum entry in the vector of chunk sizes
variable max_n equal max(c_size_chunks)


# Thermo style which includes this variable
# thermo_style custom step temp pe vol v_max_n

thermo ${N}  # Print the thermo information every 100 steps
thermo 1000  

# Reset the npt fix at a lower temperature (below freezing)
fix 1  all npt temp  ${temp} ${temp}  0.1  iso  5.68  5.68  0.5  mtk yes tchain  5  pchain  5
fix 1  all npt temp  0.45 ${temp}  0.1  iso  5.68  5.68  0.5  mtk yes tchain  5  pchain  5
fix 1  all npt temp  0.45 0.45  0.1  iso  5.68  5.68  0.5  mtk yes tchain  5  pchain  5

dump dmp2 all dcd ${N} traj.dcd
dump dmp2 all dcd 1000 traj.dcd


compute msd all msd com yes
variable twopoint equal c_msd[4]/6/(step*dt+1.0e-6)
fix 9 all vector 10 c_msd[4]
variable fit equal slope(f_9)/6/(10*dt)
thermo_style custom step temp pe c_msd[4] v_twopoint v_fit v_max_n

fix 1 all npt temp 1.25 ${temp} 0.1 iso 5.68 5.68 0.5 mtk yes tchain 5 pchain 5
fix 1 all npt temp 1.25 0.45 0.1 iso 5.68 5.68 0.5 mtk yes tchain 5 pchain 5
run 500000 # 5000000  # Run for this many steps
Neighbor list info ...
  update every 1 steps, delay 10 steps, check yes
  max neighbors/atom: 2000, page size: 100000
  master list distance cutoff = 3.8
  ghost atom cutoff = 3.8
  binsize = 1.9, bins = 8 8 8
  4 neighbor lists, perpetual/occasional/extra = 1 3 0
  (1) pair lj/cut, perpetual
      attributes: half, newton on
      pair build: half/bin/atomonly/newton
      stencil: half/bin/3d
      bin: standard
  (2) compute orientorder/atom, occasional
      attributes: full, newton on
      pair build: full/bin/atomonly
      stencil: full/bin/3d
      bin: standard
  (3) compute coord/atom, occasional
      attributes: full, newton on
      pair build: full/bin/atomonly
      stencil: full/bin/3d
      bin: standard
  (4) compute cluster/atom, occasional
      attributes: full, newton on
      pair build: full/bin/atomonly
      stencil: full/bin/3d
      bin: standard
Per MPI rank memory allocation (min/avg/max) = 9.846 | 9.850 | 9.853 Mbytes
Step Temp PotEng c_msd[4] v_twopoint v_fit v_max_n 
   12000    1.2327862   -5.7374089 1.5150074e-30 1.0520884e-32 8.3333333e+20            3 
   13000    1.2665288   -5.7885062   0.59048303 0.0037851475  0.048690001            2 
   14000    1.2245167   -5.7460046    1.1513582 0.0068533224  0.047660192            3 
   15000     1.224909    -5.727781    1.7722684 0.0098459352  0.047809682            5 
   16000    1.2549224   -5.7679285    2.3328338  0.012150175  0.048667928            3 
   17000    1.2526818   -5.7760715    2.8687839  0.014062666  0.048338514            2 
   18000    1.2424682   -5.7694883    3.3880052  0.015685209  0.047387144            1 
   19000    1.2238398   -5.8164531    3.9518019  0.017332464   0.04685406            7 
   20000     1.224125     -5.80933    4.5567348  0.018986394  0.046968286            2 
   21000     1.226721   -5.8079796     5.092244  0.020207317   0.04698046            4 
   22000    1.2559235   -5.7440715    5.7052639  0.021610847  0.046998414            4 
   23000    1.2408278   -5.8118961    6.2758011  0.022738409  0.047110886            3 
   24000    1.2335237   -5.8070925    6.8324925  0.023723932   0.04718423            3 
   25000    1.2171211   -5.8036522    7.4416605  0.024805534  0.047178677            3 
   26000    1.2310926   -5.7976606    7.9945103   0.02562343  0.047310273            4 
   27000    1.2008489   -5.8412499    8.5046662  0.026248969   0.04731561            4 
   28000    1.2541814   -5.8111241    9.0623873   0.02697139  0.047234456            2 
   29000    1.2209879   -5.8127711    9.5196093  0.027355199   0.04707938            3 
   30000    1.2003829   -5.7508274    10.120558   0.02811266  0.046910114            1 
   31000    1.2438886     -5.81194    10.402705   0.02796426  0.046666373            3 
   32000    1.2233309    -5.834278    10.816694  0.028168474  0.046221174            2 
   33000    1.1916973   -5.7821195    11.463328  0.028947797  0.045841904            6 
   34000    1.2282001   -5.8517167    11.836962   0.02901216  0.045468735            2 
   35000    1.2284918   -5.7941449    12.378203  0.029471912  0.045157993            2 
   36000    1.2047617   -5.8543035    12.914131  0.029893822  0.044930975            5 
   37000    1.2210924   -5.8538691    13.368169  0.030108488  0.044724478            2 
   38000    1.2126985   -5.8082459     13.90057  0.030483705  0.044538427            1 
   39000     1.230147   -5.8144783    14.467278  0.030912986  0.044392083            4 
   40000    1.2195834   -5.8342372    15.033729  0.031320269  0.044299602            1 
   41000    1.1859128   -5.8918863    15.492657  0.031489139  0.044210649            3 
   42000    1.2178605   -5.8334148    16.088528  0.031921681  0.044129917            8 
   43000    1.2049545   -5.8213185    16.552533  0.032078552  0.044050895            4 
   44000    1.2029456   -5.8787746    17.036384  0.032265878  0.043973272            5 
   45000    1.2043631   -5.8390175    17.593621   0.03258078  0.043900236            3 
   46000    1.1999776    -5.856381    17.983345  0.032578522  0.043810165            6 
   47000    1.1813033    -5.870377    18.512555  0.032823679  0.043732961            2 
   48000    1.1846026   -5.8849453    19.088761   0.03314021  0.043655923            3 
   49000    1.1972608   -5.9291589    19.599327  0.033332188  0.043600626            2 
   50000    1.1619947   -5.9192266    20.062763  0.033437938  0.043563922            3 
   51000    1.1740618   -5.9019213    20.561484  0.033597195  0.043506684            5 
   52000    1.1949178   -5.8769884    21.061022  0.033751637  0.043464995            3 
   53000    1.1901539   -5.8627496    21.574524  0.033922206  0.043406673            2 
   54000    1.1836892   -5.8729516    22.128856  0.034149468  0.043341846            3 
   55000     1.247156   -5.9269135    22.673987  0.034354525  0.043302879            5 
   56000    1.1952566   -5.9380236    23.136972  0.034430018  0.043278895            5 
   57000    1.1567116   -5.9071122    23.755384  0.034730093  0.043243687            4 
   58000    1.1522868   -5.9141261    24.149887  0.034698114  0.043214314            7 
   59000    1.1876576   -5.8813787    24.744775  0.034950247  0.043181513            2 
   60000    1.1958933   -5.9161509    25.220667  0.035028704  0.043170785            1 
   61000    1.1422629   -5.9293915    25.600967  0.034973999  0.043139239            4 
   62000    1.1569868   -5.9130895    26.177623  0.035184977  0.043105538            2 
   63000    1.1904742   -5.9318077    26.562917  0.035136134  0.043073281            3 
   64000      1.18952   -5.9254056    27.095312  0.035280354  0.043032277            2 
   65000    1.1605607   -5.9451131    27.574996  0.035352559  0.042970664            3 
   66000     1.161133   -5.9283436    27.844001  0.035156567  0.042903786            2 
   67000    1.1557055   -5.9405795    28.297795  0.035196263  0.042812125            5 
   68000    1.1439698   -5.9758925    28.522002  0.034953434  0.042711667            3 
   69000    1.1823122   -5.9377276    29.041244  0.035073965  0.042590737            2 
   70000    1.1655566   -5.9493849    29.449588  0.035059033  0.042480065            3 
   71000    1.1331852   -5.9491708    30.207523  0.035454839  0.042399058            2 
   72000    1.1437124   -5.9642118    30.537124  0.035343893  0.042330804            4 
   73000    1.1391893   -5.9808154    30.985169  0.035371197  0.042248628            2 
   74000    1.1736753    -5.972229    31.108513  0.035032109  0.042169911            2 
   75000    1.1236111   -5.9698103    31.763495  0.035292772  0.042061504            2 
   76000    1.1424125   -6.0039662    32.155921  0.035258685  0.041959902            2 
   77000    1.1428742   -5.9427658    32.767409  0.035462564  0.041860843            1 
   78000    1.1515434   -6.0038197    33.136166  0.035401887  0.041768136            5 
   79000    1.1449092   -6.0039327    33.452329  0.035287266  0.041689107            2 
   80000    1.1637131   -5.9911807    33.757305  0.035163859  0.041592386            7 
   81000    1.1039412   -6.0133779     34.12612  0.035109177  0.041494658            3 
   82000    1.1367061    -6.016739    34.355008  0.034913626  0.041379047            2 
   83000    1.1304519   -5.9447886     34.92373  0.035063986  0.041259304            3 
   84000    1.1279964   -6.0059973    35.380831   0.03510003  0.041151932            4 
   85000    1.1273679   -6.0539718    35.762741  0.035061511  0.041038641            1 
   86000    1.1188056   -6.0453053      36.1134  0.034993605  0.040931259            2 
   87000    1.1328708   -6.0003393    36.532334  0.034992657  0.040829725            1 
   88000    1.1331907   -6.0176781    37.082874  0.035116358  0.040725643            5 
   89000    1.1233403    -6.023694    37.344713  0.034966959  0.040616508            2 
   90000    1.1315194   -6.0038851    38.010397  0.035194812  0.040511069            2 
   91000     1.107693   -6.0629337    38.127613  0.034915397   0.04041529            3 
   92000    1.1242573   -6.0621314    38.575264  0.034941362  0.040316027            2 
   93000    1.1337956   -6.0517137    39.219581  0.035142994  0.040216834            3 
   94000    1.1377498   -6.0120234    39.846648  0.035325042  0.040138625            2 
   95000    1.1129812   -6.0810829    39.908299   0.03500728  0.040055767            2 
   96000    1.1172979   -6.0911545    40.425424  0.035091514  0.039969703            5 
   97000    1.1252594    -6.072156    40.631384  0.034906687  0.039884513            2 
   98000    1.1271727   -6.0501175    41.159415  0.034999502  0.039798133            9 
   99000    1.1094573   -6.0298717    41.662964  0.035069835  0.039709436            2 
  100000     1.113092   -6.0422509    41.771074  0.034809229  0.039622849            2 
  101000    1.0986077   -6.0763384    41.956779  0.034617804  0.039526767            1 
  102000    1.1128687   -6.0684528    42.372474  0.034618034  0.039419438            2 
  103000    1.1058246   -6.0722248    42.726804  0.034568612  0.039317392            3 
  104000    1.1022176   -6.0885749     43.10128  0.034536282  0.039214732            4 
  105000    1.1150178   -6.0511225    43.640978  0.034635697  0.039112686            3 
  106000    1.0832494    -6.086366    44.059167   0.03463771  0.039015815            2 
  107000    1.1218162   -6.1073355    44.401227  0.034580395  0.038922624            3 
  108000    1.0927072   -6.1201309    44.854425  0.034609896  0.038837161            7 
  109000    1.0939454   -6.0832575    45.262349  0.034604242  0.038752277            3 
  110000    1.0971442   -6.1073936    45.526213  0.034489555  0.038663689            6 
  111000     1.096933   -6.1217534     45.75672  0.034351892  0.038572281            3 
  112000    1.1063482   -6.0763513    46.412499  0.034533109  0.038481806            2 
  113000    1.0913566    -6.073571    46.804048  0.034516259  0.038396887            4 
  114000    1.1211125   -6.1069788    47.147254  0.034464367  0.038318365            5 
  115000    1.0627616   -6.1162778    47.700501  0.034565581  0.038245662            3 
  116000    1.0788924   -6.1225466     48.08692  0.034545201  0.038177488            3 
  117000    1.0756161   -6.1514775    48.260385  0.034373493  0.038100107            3 
  118000    1.0818726   -6.0977964    48.888056  0.034525463  0.038024984            2 
  119000    1.0993019   -6.1128461    48.962436   0.03428742  0.037947238            5 
  120000    1.0652273   -6.1474592    49.077279  0.034081444  0.037864634            2 
  121000    1.0711834   -6.1415312    49.407365  0.034027111  0.037778281            1 
  122000    1.0676571   -6.1306256    49.753091  0.033984351   0.03769168            4 
  123000     1.062676   -6.1981316    49.932258  0.033829443  0.037605228            3 
  124000    1.0872671   -6.1903054    50.363175   0.03384622  0.037517587            5 
  125000    1.0796368   -6.1658323    50.587413  0.033724942  0.037425817            4 
  126000    1.0603689   -6.1766676    50.928434  0.033682827  0.037330737            3 
  127000    1.0739259   -6.1509267    51.192909  0.033591147   0.03723229            2 
  128000    1.0407748   -6.1430382    51.575513  0.033577808   0.03713279            1 
  129000    1.0837485   -6.1372295    51.674285  0.033381321  0.037032573            5 
  130000     1.050966   -6.1645896    51.916756  0.033279971  0.036931772            3 
  131000    1.0603064    -6.133084    52.554572  0.033431661    0.0368301            2 
  132000    1.0295387   -6.1809987    52.428717  0.033098937  0.036727322            2 
  133000    1.0662466   -6.1999344    52.865639  0.033123834  0.036623927            5 
  134000    1.0574529    -6.178453    53.258189  0.033120764  0.036521022            2 
  135000    1.0463531   -6.1761721     53.82534  0.033225518  0.036424601            4 
  136000    1.0547329   -6.1895072    53.809988  0.032971806  0.036332334            4 
  137000    1.0533388   -6.1474884    54.485621  0.033142105  0.036236738            4 
  138000    1.0383887   -6.1999038    54.464798  0.032889371   0.03614441            4 
  139000    1.0397513   -6.2087526    54.902179  0.032914975   0.03605289            1 
  140000    1.0621601   -6.2046144    55.070458  0.032780035  0.035959062            3 
  141000    1.0559946   -6.2738722    55.470161  0.032783783  0.035865397            5 
  142000    1.0425297   -6.1930686     55.99889  0.032863198  0.035775974            3 
  143000    1.0429591    -6.221785    56.272865  0.032793045  0.035689615           10 
  144000    1.0457395   -6.2424571    56.350435  0.032610206  0.035602209            4 
  145000    1.0623694   -6.2122097     56.91823  0.032711626  0.035511698            2 
  146000    1.0486556   -6.2144554    57.001796  0.032535272  0.035424419            3 
  147000    1.0198218     -6.24887     57.21101  0.032432545  0.035333183            5 
  148000    1.0434114   -6.2415847    57.576644  0.032419282  0.035241805            3 
  149000    1.0311613   -6.2445669    57.795347   0.03232402  0.035150906            6 
  150000    1.0316445   -6.2210261    58.299242  0.032388468  0.035062151            4 
  151000    1.0484223   -6.2700475    58.217178  0.032128685  0.034970996            4 
  152000    1.0282576   -6.2543542    58.793201  0.032233114  0.034881036            5 
  153000    1.0455097   -6.2598717    59.038605  0.032156103   0.03479629            4 
  154000    1.0126774   -6.2964658     59.32317  0.032101282  0.034709543            6 
  155000    1.0296118   -6.2771761    59.724998  0.032110214   0.03462336            8 
  156000    1.0248275   -6.2880278    60.011063  0.032057192  0.034540774            2 
  157000     1.033686   -6.2440139    60.691438  0.032214139  0.034458719            6 
  158000    1.0053964   -6.2702192    60.893548   0.03211685  0.034381377            4 
  159000    1.0221944   -6.2467568     61.14533  0.032046819   0.03430238            3 
  160000    1.0314508   -6.2870334    61.448371   0.03200436  0.034224101            5 
  161000    1.0106839   -6.2842465    61.530469  0.031848069  0.034146576            2 
  162000    1.0156875   -6.3165892    61.809784  0.031795156  0.034067872            5 
  163000   0.99968758   -6.3254871     62.06952  0.031732883  0.033985936           13 
  164000   0.99264018   -6.3171257    62.333325  0.031673437  0.033906292            5 
  165000    1.0222758    -6.295112    62.803888  0.031719135  0.033828192            4 
  166000    1.0106234   -6.3411396    62.805549   0.03152889  0.033750339            6 
  167000   0.99799412    -6.299161    63.304229  0.031588936  0.033672493            5 
  168000   0.99208096   -6.3307811    63.498796  0.031497418  0.033593143            6 
  169000     1.001235   -6.3105634    63.772541  0.031446026  0.033514128            3 
  170000    1.0045915   -6.3369393    63.732254  0.031241301  0.033434667            4 
  171000   0.98816275   -6.3453225    63.876782  0.031129036  0.033353522            3 
  172000   0.99763663   -6.3261506    64.271039  0.031139069  0.033272897            9 
  173000   0.99347192   -6.3254604    64.714156  0.031172522  0.033193971            4 
  174000   0.99749383   -6.3574657    64.690052  0.030981826  0.033114773            3 
  175000   0.99776097   -6.3374866    65.390686  0.031138422   0.03303448            2 
  176000   0.96799932   -6.3467985    65.579567  0.031050931  0.032956384            3 
  177000   0.98587836   -6.3758528    65.682214   0.03092383  0.032877664            3 
  178000   0.99468931   -6.3642535    65.898077   0.03085116  0.032801034            3 
  179000   0.97142717   -6.3841039    66.140283  0.030791566  0.032723745            3 
  180000   0.97204363   -6.4184015    66.147416  0.030623804  0.032645997            5 
  181000   0.98161069   -6.4106606    66.642027  0.030682333  0.032568551            2 
  182000   0.97746224   -6.3828224    67.113795   0.03072976  0.032491961            5 
  183000   0.95651349   -6.3801019    67.368984  0.030678044  0.032417592            3 
  184000   0.98059869   -6.3757444    67.459294  0.030552217  0.032342814            3 
  185000   0.96493231   -6.4064834    67.490365  0.030401065  0.032266665            7 
  186000   0.97759311   -6.3854385    67.993984  0.030463254  0.032189235            3 
  187000   0.96027407   -6.4002668    67.977721  0.030293102  0.032113859            3 
  188000   0.95519793   -6.4106027    68.306075  0.030277516   0.03203812            2 
  189000   0.97421823   -6.3920573    68.431094   0.03017244  0.031959895            5 
  190000   0.96615021    -6.406937     68.66208  0.030114947  0.031882255            5 
  191000   0.93451338   -6.4133706    68.609319  0.029934258  0.031804512            3 
  192000   0.96811235   -6.4150548    69.067033  0.029977011  0.031724917            4 
  193000   0.94418456    -6.420194    69.070249  0.029823078  0.031644434            4 
  194000   0.96321904   -6.4115525    69.655738   0.02992085  0.031564891            5 
  195000   0.96728663    -6.434473    69.480052   0.02969233  0.031484026            4 
  196000   0.94412005   -6.4672444    69.603723  0.029593419  0.031404412            6 
  197000   0.96472525   -6.4790343    69.793871  0.029523634  0.031321907            6 
  198000   0.95814997   -6.4758316    70.017006  0.029468437  0.031240385            3 
  199000   0.93573683   -6.4502865        70.03  0.029325795  0.031157799           11 
  200000   0.94242379   -6.4306767    70.434302  0.029347626  0.031073884            3 
  201000   0.93921223   -6.4677496    70.362404  0.029171809  0.030988881            6 
  202000   0.93479924   -6.4735138    70.658349  0.029149484  0.030904458            3 
  203000   0.94321548   -6.4564675    70.766248  0.029050184  0.030818813            7 
  204000   0.94048911    -6.499055    70.996752  0.029001941  0.030734516            6 
  205000   0.93442829   -6.4887143     71.04766  0.028881163  0.030651589            6 
  206000   0.93205735   -6.4612371       71.494  0.028921521  0.030568974            9 
  207000   0.94226864   -6.4811826     71.79172  0.028901659  0.030486418            4 
  208000   0.92649441   -6.5290829    71.777707  0.028757094  0.030404579            7 
  209000    0.9302799   -6.4939407    72.341899  0.028844457  0.030323351            5 
  210000   0.93358702   -6.4774272    72.222438  0.028659697  0.030242143            7 
  211000    0.9566088   -6.4956413    72.394864  0.028591968  0.030161034           15 
  212000   0.92745943    -6.475919    72.858424  0.028639318  0.030081419            7 
  213000   0.92268312   -6.5183797    72.598359  0.028403114  0.030000687            4 
  214000   0.93117705   -6.4729583    72.896691  0.028386562  0.029919899           10 
  215000   0.91748689   -6.5122653    72.907994  0.028258912    0.0298389            4 
  216000   0.91547381   -6.5083704    73.509468  0.028360134  0.029757035            5 
  217000   0.91892481   -6.5382689    73.498445  0.028225209  0.029677076            8 
  218000   0.90727725   -6.4942553    73.665582  0.028159626  0.029598428            4 
  219000   0.93633136   -6.5341937    73.788241  0.028077717   0.02951785            3 
  220000   0.93565575   -6.5529834    73.747275  0.027934574  0.029436336            5 
  221000   0.92749742   -6.5512172    73.922194   0.02787413   0.02935488            5 
  222000   0.91449335   -6.5262304    74.301515  0.027890959  0.029273561           10 
  223000   0.89290744   -6.5416381    74.221215   0.02773588  0.029192101           13 
  224000   0.91234908   -6.6061108    74.253311  0.027623999  0.029109936            5 
  225000   0.91413722   -6.5870178     74.44318  0.027571548   0.02902813            7 
  226000   0.92297931   -6.5822906    74.716131  0.027550196  0.028947084            5 
  227000   0.90163871    -6.547373    75.220988  0.027614166  0.028868159            9 
  228000   0.90097948   -6.5714089    75.434592  0.027571123  0.028790618            4 
  229000   0.89471978   -6.5851152    75.048897   0.02731037  0.028711625            4 
  230000   0.89608054   -6.5732445    75.584912  0.027385838  0.028632025           10 
  231000   0.91371871   -6.5862641    75.695234  0.027307083  0.028553626            8 
  232000   0.89955035   -6.5616865    76.004071  0.027300313  0.028475738            3 
  233000   0.88734383   -6.5781399    76.146824    0.0272342  0.028399252            7 
  234000   0.89098825   -6.5852486    76.044111  0.027081236  0.028322646            6 
  235000   0.89220557   -6.6502055    76.333281  0.027068539  0.028244952            5 
  236000   0.90290016   -6.5822928    76.781555  0.027112131  0.028168823            4 
  237000   0.88035233   -6.5858122     76.85024  0.027021884  0.028094439            4 
  238000    0.8960012   -6.5960317    77.147268  0.027012349  0.028020205           17 
  239000   0.88384367   -6.6025063    77.110173  0.026886392  0.027945884            5 
  240000    0.9017262   -6.6135238    77.432826  0.026886398  0.027871889            6 
  241000   0.88525302   -6.6087714     77.26924  0.026718271   0.02779798            6 
  242000   0.87734036   -6.6382516    77.572177  0.026712182  0.027723916            9 
  243000   0.86718253   -6.6044305    77.796934  0.026679333  0.027650353            7 
  244000   0.86925122   -6.6297782     77.79523  0.026569409  0.027576412           12 
  245000   0.88713605   -6.6581223    78.192043  0.026595933  0.027502887            4 
  246000    0.8860452   -6.6339253    78.432317  0.026569213  0.027429915            6 
  247000   0.87637378   -6.6030982    78.388547  0.026446878  0.027357027            6 
  248000   0.89028474   -6.6485746    78.678752  0.026437753   0.02728397            7 
  249000   0.89386887   -6.6675085     78.63238  0.026316057  0.027211091            3 
  250000   0.86338475   -6.6734394    78.891786  0.026297262  0.027138117            7 
  251000   0.86281149   -6.6917391    78.684873  0.026123796  0.027064725           13 
  252000   0.86060678   -6.6870626    79.076708  0.026149705  0.026992142            5 
  253000   0.88972367   -6.6845699    78.975463  0.026012998  0.026919704            5 
  254000   0.87013404   -6.6792226    79.057903  0.025937632  0.026847136            7 
  255000   0.87062828   -6.7076943      79.4161  0.025952974  0.026774147            5 
  256000   0.85328852   -6.6981988    79.424324  0.025854272  0.026701756            7 
  257000   0.85040505     -6.70358    79.736468  0.025854886  0.026630168           10 
  258000   0.86399167    -6.695578    80.084593  0.025867116  0.026559234           12 
  259000   0.86343811   -6.6962381     79.82165  0.025682642  0.026488759            4 
  260000   0.86692926   -6.7109234    79.921111  0.025615741  0.026417905           10 
  261000   0.86557363   -6.7073928    80.241915  0.025620024  0.026347811            5 
  262000   0.85548477   -6.6907389    80.574026  0.025627871   0.02627815            9 
  263000   0.84778336   -6.7142189    80.605868  0.025540516  0.026208537            9 
  264000   0.83457502   -6.7172852     80.51231  0.025414239  0.026138945           14 
  265000   0.83404603   -6.7202261     80.66982  0.025367868  0.026069585           17 
  266000   0.86475974   -6.7215787    80.798041   0.02531267   0.02600028            8 
  267000   0.82617799   -6.7153248    80.736509  0.025198661  0.025930491            5 
  268000   0.84187155   -6.7344098    81.080856  0.025211709  0.025860443            5 
  269000    0.8350802   -6.7338697    81.257322  0.025172653  0.025789949           13 
  270000   0.84116445   -6.7713276    80.981429  0.024994268  0.025719789            3 
  271000   0.83730211   -6.7593782     80.95011  0.024892408  0.025648685           13 
  272000   0.83673773   -6.7579191    81.018135  0.024821732  0.025577613            9 
  273000   0.82109848   -6.7993987    81.145335  0.024769638  0.025505701            6 
  274000   0.84050356   -6.7480524     81.27681  0.024719225  0.025434432            7 
  275000    0.8301472   -6.7855079    81.361639  0.024655042  0.025363484            6 
  276000   0.83214767   -6.7847892     81.28999  0.024544079  0.025293122            7 
  277000   0.82028222   -6.7956865    81.716977  0.024583928  0.025222809           12 
  278000   0.80178792   -6.7724377    81.969336  0.024571144  0.025152256            8 
  279000   0.80658588   -6.7785808    81.855232  0.024448994  0.025081639           15 
  280000   0.83047668   -6.7734347    81.776183   0.02433815  0.025011006            8 
  281000   0.81067124   -6.8082627    81.724802    0.0242363  0.024939749            8 
  282000   0.83398409   -6.8056729    81.948436  0.024216441  0.024868217            7 
  283000   0.79733535   -6.7914213    81.986587  0.024142105  0.024797231            7 
  284000   0.81090234   -6.8203988    82.140639    0.0241023  0.024726759            4 
  285000   0.83437843   -6.8129835    82.269776   0.02405549  0.024655955            6 
  286000   0.80840922   -6.8060615    82.136977  0.023932685  0.024585118            8 
  287000   0.79556051   -6.8179307    82.297662  0.023895953  0.024514089            5 
  288000   0.81491886   -6.8534998    82.155478   0.02377184  0.024442984            8 
  289000   0.80557442    -6.864174    82.456796   0.02377647  0.024371601            8 
  290000   0.81368676   -6.8767175    82.351039  0.023664092  0.024300376            7 
  291000   0.81087088   -6.8166192    82.898604  0.023739577  0.024230713           11 
  292000   0.81066307   -6.8376505    82.787316  0.023626517  0.024160833            6 
  293000   0.80941216   -6.8612145    82.837426  0.023560133  0.024091527            8 
  294000   0.79449116   -6.8217335    82.918542  0.023502988  0.024022398            6 
  295000   0.80193455   -6.8720587    82.869691  0.023409517  0.023953118           11 
  296000    0.7957064   -6.8713707    83.001523  0.023367546  0.023882853           13 
  297000   0.79880808   -6.8838655    83.134177  0.023326088  0.023813313            8 
  298000   0.81743591   -6.8559681    83.318968  0.023299488  0.023743694           11 
  299000   0.78844963   -6.8816992    83.040934  0.023144073  0.023674199           11 
  300000   0.78352413   -6.9200392     83.22643  0.023118453  0.023604085           12 
  301000    0.8023379    -6.883878    83.251402  0.023048561  0.023534672           10 
  302000   0.76823892   -6.9033321    83.185683  0.022954107   0.02346499            9 
  303000   0.78838384   -6.9030563    83.244503  0.022894528  0.023394876           10 
  304000   0.78636257   -6.9169277     83.33565  0.022844202  0.023324742            6 
  305000   0.77490423   -6.9069906    83.329017  0.022767491  0.023254847            5 
  306000   0.76671134   -6.9284957    83.511639  0.022742821  0.023185248           10 
  307000   0.79654948   -6.9168809    83.519642  0.022670913  0.023115774           12 
  308000   0.78422153    -6.929493    83.589123  0.022616105  0.023046027            7 
  309000   0.79096073   -6.9529708    83.324533  0.022471557   0.02297582           16 
  310000    0.7758108    -6.956815    83.461346  0.022435846  0.022906303           11 
  311000   0.77478589   -6.9722557    83.438543  0.022357595  0.022836215            8 
  312000   0.78965581   -6.9782283    83.638312  0.022339293   0.02276588            4 
  313000   0.76472195   -6.9710385    83.573928  0.022250779  0.022696129           30 
  314000   0.77047471   -6.9793071    83.475322  0.022153748  0.022626582           11 
  315000   0.75088263   -6.9519268    83.775384    0.0221628  0.022557208           12 
  316000   0.78206293   -6.9850847    83.715611  0.022076902   0.02248795           16 
  317000   0.76240156   -6.9733464    83.618893  0.021981833  0.022418426           13 
  318000     0.760034    -6.976612    83.833269  0.021968886  0.022349072           14 
  319000   0.76115846   -6.9828863    83.764125  0.021881955  0.022280284           10 
  320000   0.75568672   -6.9956074    83.628415  0.021778233  0.022211593            7 
  321000   0.74963897   -6.9761716    83.852389  0.021768533  0.022142432           52 
  322000   0.75451652   -6.9692858    84.152928  0.021778708  0.022073983           32 
  323000   0.74815122   -6.9666572     84.05259  0.021685395  0.022005945           15 
  324000   0.75091403   -6.9764687    83.969331   0.02159705  0.021938072           17 
  325000   0.74290482    -7.009512    84.080136  0.021559009  0.021870218           10 
  326000   0.74431145   -7.0071419    83.853264  0.021434883  0.021802248           32 
  327000   0.74834101   -7.0306031    84.140879   0.02144263  0.021734638           11 
  328000    0.7401649   -6.9983872    84.148469  0.021379184   0.02166727            7 
  329000   0.72466143    -7.029572    84.251696  0.021340348  0.021599987           29 
  330000   0.75118243   -7.0130018    84.372853  0.021306276  0.021533492           25 
  331000   0.73204607   -7.0413652    84.248888  0.021210697  0.021466957           15 
  332000   0.73347228   -7.0154087    84.355436  0.021173553  0.021399893           18 
  333000   0.73444647   -7.0337474    84.178693  0.021065739  0.021333262           18 
  334000   0.73983687   -7.0695121    84.419378  0.021062719  0.021266636           15 
  335000   0.72737299   -7.0287853    84.380651  0.020990212  0.021200043           12 
  336000   0.75233687   -7.0536571    84.183813  0.020878922  0.021132941            8 
  337000   0.71601323   -7.0718942    84.387825  0.020867415  0.021065625           13 
  338000   0.72078754   -7.0978316    84.308901  0.020786218  0.020998647            8 
  339000   0.72436496   -7.0969025    84.232022  0.020706003  0.020931408           12 
  340000   0.71579773   -7.0892319    84.315449  0.020665551  0.020864312           11 
  341000   0.72852947   -7.0943639    84.165056  0.020568195  0.020797758           14 
  342000   0.73321583   -7.0878109    84.331161  0.020548528  0.020731221           24 
  343000   0.73075348   -7.0861766    84.139073  0.020441952  0.020664807           12 
  344000   0.72123326   -7.0873691    84.531568  0.020477609  0.020598286           11 
  345000   0.72204424   -7.0877214    84.441151  0.020396413  0.020532263           20 
  346000   0.71969065   -7.1050768    84.318842  0.020308006  0.020466247           12 
  347000   0.70691091   -7.1000345    84.436857  0.020277823  0.020400865           25 
  348000   0.69860234   -7.1138763    84.452543   0.02022331  0.020335575           18 
  349000   0.70290305   -7.1234454    84.598874  0.020200304  0.020270425           19 
  350000   0.71963045   -7.0965396    84.672126   0.02016003  0.020205353            8 
  351000   0.71407833   -7.1233476     84.25362  0.020003234  0.020140511           34 
  352000   0.71251242   -7.1197894    84.523427  0.020010281  0.020075657           26 
  353000   0.71227839   -7.1343417    84.299796  0.019900802  0.020010653           23 
  354000   0.70493356   -7.1580672    84.343568  0.019854889  0.019945341           17 
  355000   0.69246469   -7.1443449     84.35231  0.019801012   0.01988029           22 
  356000   0.69056727   -7.1334591    84.634376  0.019811418  0.019815751           28 
  357000   0.69871813    -7.131775    84.595738  0.019746904  0.019751346           45 
  358000   0.72095851   -7.1571706    84.572317  0.019686294  0.019687229           27 
  359000   0.70530381   -7.1512838    84.668394  0.019653759  0.019623882           13 
  360000   0.69577268   -7.1631183    84.621092  0.019588216  0.019560581           34 
  361000   0.70215167   -7.1590425    84.769145  0.019568131   0.01949776           60 
  362000   0.67727724    -7.178048    84.646883  0.019485931   0.01943495           26 
  363000   0.68382671   -7.1630704    84.558457  0.019411951  0.019372059           13 
  364000   0.70143165   -7.1704699    84.585094  0.019364719   0.01930941           29 
  365000   0.67567386   -7.2164203    84.516882  0.019296092  0.019246396           29 
  366000   0.68864106   -7.1855315    84.669821  0.019278192  0.019183588           18 
  367000   0.67686633    -7.195058    84.652871  0.019221814  0.019121001           28 
  368000   0.67505865   -7.1717851    84.780437  0.019198468  0.019058711           42 
  369000   0.68465008   -7.1968328    84.550636  0.019094543  0.018996658           28 
  370000   0.68388324   -7.2225824     84.52342  0.019036806  0.018934468           23 
  371000   0.68075458   -7.2102922    84.536762  0.018988491  0.018872117           22 
  372000   0.66847754   -7.2112505    84.648365  0.018962447  0.018810259           24 
  373000   0.67547991   -7.1962272    84.548231  0.018889238  0.018748767           15 
  374000   0.66837767   -7.2183533    84.638077  0.018858752  0.018687211           12 
  375000    0.6676803   -7.2226059    84.614513  0.018803225  0.018626045           20 
  376000   0.66436434    -7.237612    84.708897  0.018774135  0.018565171           52 
  377000   0.64973987    -7.216595    84.734269  0.018729945  0.018504188           34 
  378000   0.66907931     -7.24275    84.491334  0.018626837  0.018443286           32 
  379000   0.65461558   -7.2347806    84.611849  0.018604188  0.018382674           39 
  380000   0.66184159    -7.254719    84.487425  0.018527944  0.018322265           39 
  381000   0.66232915   -7.2480294    84.787924   0.01854504  0.018261969           28 
  382000   0.66834779    -7.245582    84.899392   0.01852081  0.018201997           24 
  383000   0.64240368   -7.2448837    84.574409  0.018401743   0.01814226           44 
  384000   0.65382317   -7.2605936    84.538535  0.018346036  0.018082595           34 
  385000   0.65398549   -7.2273402    84.433156  0.018275575  0.018022894           20 
  386000   0.66520897   -7.2724238     84.85747  0.018319834  0.017963761           27 
  387000   0.65370778   -7.2655512    84.534992  0.018203056   0.01790465           47 
  388000   0.64392952   -7.2762411    84.848695  0.018223517  0.017845528           48 
  389000   0.64008605   -7.2782194    84.633724  0.018130618  0.017786648           20 
  390000   0.65760923   -7.2689455    84.681046  0.018094241  0.017728134           14 
  391000   0.65410047   -7.3129382    84.430042  0.017994468  0.017669908           21 
  392000   0.63821414   -7.3063305    84.719259  0.018010047  0.017611813           41 
  393000   0.63646308   -7.3059885    84.650285  0.017949594  0.017553885           68 
  394000   0.63838494   -7.2929784    84.680812  0.017910493  0.017496181           33 
  395000   0.63756444   -7.2761588    84.820345  0.017894587  0.017438727           25 
  396000   0.64053404   -7.3138695    84.543685  0.017791179  0.017381376           56 
  397000   0.63537528   -7.3288244    84.544268  0.017746488  0.017324147           48 
  398000   0.62980741   -7.3308389    84.706707   0.01773591  0.017266978           26 
  399000   0.64116889   -7.3098964    84.754857  0.017701516  0.017210273           31 
  400000   0.64398709    -7.304157    84.796416   0.01766592  0.017153715           22 
  401000   0.63338502   -7.3443293     84.60222  0.017581509  0.017097059           26 
  402000   0.62020491   -7.3557167    84.445537  0.017505294  0.017040221           32 
  403000   0.61786461   -7.3426464    84.529284  0.017479174  0.016983719           24 
  404000   0.61122989   -7.3567504    84.559056  0.017442049  0.016927295           24 
  405000   0.63201213   -7.3594393    84.608468   0.01740915  0.016871151           44 
  406000   0.61492864   -7.3653558    84.598919   0.01736431  0.016815133           32 
  407000   0.62289895   -7.3431564    84.512481  0.017303948  0.016759438           61 
  408000   0.62183024   -7.3528326    84.527034  0.017264509  0.016703995           27 
  409000   0.61955072   -7.3659937    84.407664  0.017197976  0.016648483           29 
  410000   0.61187941   -7.3806918    84.332327  0.017140717   0.01659319           15 
  411000   0.62925664    -7.386126    84.347393  0.017102067  0.016537924           24 
  412000   0.60994378   -7.3986055    84.422928  0.017075835  0.016482848           26 
  413000   0.60208114   -7.3851891    84.476973  0.017045394  0.016428157           46 
  414000   0.60573073   -7.3744421     84.40195   0.01698912  0.016373573           29 
  415000   0.61920668   -7.4202938    84.181564  0.016903928  0.016319156           22 
  416000   0.59439855   -7.3981513    84.467024  0.016920478  0.016264919           16 
  417000   0.58488677    -7.403801    84.479554  0.016882405  0.016210848          119 
  418000   0.59620279   -7.3950795    84.337618   0.01681372  0.016156983           27 
  419000   0.58840109   -7.4134555    84.579819  0.016821762  0.016103256           56 
  420000   0.59323996   -7.3722335     84.44676   0.01675531  0.016049783           80 
  421000   0.59867571   -7.4157762    84.261371  0.016678815   0.01599644           68 
  422000   0.59312125   -7.4187264     84.26202  0.016639419  0.015943174           54 
  423000   0.59354013   -7.4279969    84.290149  0.016605624  0.015890134           67 
  424000   0.58837078    -7.422907    84.080455  0.016525247  0.015837033           28 
  425000   0.60222103   -7.4364543    84.223868  0.016514484  0.015784197           37 
  426000   0.58558569   -7.4391262    84.261984  0.016483174  0.015731368          103 
  427000   0.58902737   -7.4376304    84.224013  0.016437161  0.015678855          153 
  428000   0.57778522   -7.4358751    84.302359  0.016414011  0.015626578          141 
  429000   0.59133948   -7.4491399    84.383921  0.016391593  0.015574621           66 
  430000   0.57550107   -7.4580032    84.243309  0.016326223  0.015522945           39 
  431000    0.5759338   -7.4408774    84.340024  0.016307043  0.015471169          102 
  432000   0.58415672   -7.4453491     84.23137  0.016248335  0.015419582           46 
  433000    0.5695845   -7.4645171    84.109889  0.016187431  0.015368266           87 
  434000   0.56999335   -7.4465986    84.321177  0.016190702  0.015317156          129 
  435000   0.57231204   -7.4719559    84.214344  0.016133016  0.015266169           85 
  436000   0.57312054   -7.4697336    84.292304  0.016110914  0.015215429           97 
  437000   0.58722338   -7.4728711    84.229554  0.016062081  0.015164879           36 
  438000   0.57378016   -7.4606974    84.188736  0.016017644  0.015114483           75 
  439000   0.56446988   -7.4853545    84.114291  0.015967026  0.015064187           72 
  440000   0.56972609   -7.4869928    83.981445  0.015905577  0.015014093           84 
  441000   0.56709238   -7.4685549    84.102118  0.015892313  0.014964273           57 
  442000     0.563358     -7.49319    84.079853  0.015852159  0.014914734           65 
  443000   0.56697136   -7.4785664    84.125023  0.015824873  0.014865241           97 
  444000   0.56764899   -7.5020586    84.086021  0.015781911  0.014816018           50 
  445000   0.55469628   -7.4855573    84.120229  0.015752852  0.014766882           60 
  446000   0.56534029   -7.4951038    84.079767  0.015709971  0.014717891           92 
  447000    0.5626183   -7.5066004    84.172715  0.015692154  0.014668995           56 
  448000   0.56307494   -7.5013768    83.952353  0.015616137  0.014620283          106 
  449000   0.55372739   -7.5206951    83.920899  0.015575519  0.014571828           72 
  450000   0.54019081   -7.4973354    83.971173  0.015550217   0.01452351           58 
  451000   0.54598408   -7.5201733    84.099909  0.015539525  0.014475231          115 
  452000   0.54713786   -7.5129701    83.931167  0.015474035  0.014427227          131 
  453000   0.54205552   -7.5231759    84.104049  0.015471679   0.01437927           78 
  454000   0.54941543   -7.5333989    83.880395  0.015396548  0.014331559           45 
  455000   0.54632748   -7.5487429    83.802921   0.01534852  0.014284104          116 
  456000   0.53777707   -7.5197344    83.902591  0.015333076  0.014236712          106 
  457000   0.52635613   -7.5332253    83.761404  0.015273779  0.014189619           66 
  458000   0.54769403   -7.5376063    83.907184  0.015266955  0.014142617           51 
  459000   0.53319663   -7.5595005    84.006141   0.01525166  0.014095788          151 
  460000    0.5251456   -7.5621483    83.727431  0.015168013  0.014049161           63 
  461000   0.52543674   -7.5459295    83.854473  0.015158075  0.014002609          163 
  462000    0.5278498   -7.5413275    83.859813  0.015126229  0.013956327           74 
  463000   0.52405932   -7.5292294     83.81816  0.015086062  0.013910305           73 
  464000   0.51699036   -7.5678127    83.920636  0.015071953  0.013864461           54 
  465000   0.52775864   -7.5782309    83.821415  0.015021759  0.013818832           97 
  466000    0.5168516   -7.5720414    83.798965  0.014985509  0.013773343           76 
  467000   0.52122896    -7.572136    83.869761  0.014966053  0.013728039          106 
  468000   0.51762082   -7.5716202    83.742916  0.014911488  0.013682931           73 
  469000   0.51202853   -7.5667032     83.83163  0.014895457  0.013637941          163 
  470000   0.51847676   -7.5889966    83.830348  0.014863537   0.01359319          105 
  471000   0.50814184   -7.5789379    83.665605  0.014802832  0.013548528           64 
  472000   0.51680525   -7.5795415    83.783338  0.014792256  0.013504088          214 
  473000   0.51816392   -7.5928035    83.760346  0.014756932  0.013459743          213 
  474000   0.51268635   -7.5963073    83.748333  0.014723687  0.013415558          118 
  475000   0.51103833   -7.5816877    83.700448  0.014684289   0.01337161          222 
  476000   0.50786319   -7.5759688    83.758795  0.014663654    0.0133279           95 
  477000   0.50820614   -7.6031881    83.537394  0.014594234  0.013284325           52 
  478000   0.50740036   -7.6087236    83.650661  0.014583448  0.013240858          164 
  479000   0.50569396   -7.5936706    83.576306  0.014540067  0.013197527          189 
  480000   0.50136895   -7.6078458    83.615518  0.014516583  0.013154384           94 
  481000   0.49149577   -7.6088524    83.647089  0.014491873  0.013111426           88 
  482000   0.50129698   -7.5980166    83.549148  0.014444873  0.013068617          117 
  483000   0.50061162   -7.6179075    83.669566  0.014435743  0.013025941           95 
  484000   0.50206634   -7.6089841    83.485116  0.014374159  0.012983423          134 
  485000   0.48898912   -7.6318593    83.534985   0.01435309  0.012941065          103 
  486000   0.48448231   -7.6310238      83.6231  0.014338666  0.012898837          126 
  487000   0.47901379   -7.6246278    83.496266   0.01428752  0.012856719          116 
  488000   0.48681869   -7.6325624    83.629114  0.014280928  0.012814772           94 
  489000   0.49536165   -7.6222814    83.511864  0.014231742  0.012773061          109 
  490000   0.48434944   -7.6301025    83.594834  0.014216809  0.012731453           62 
  491000   0.48147331   -7.6338139    83.347116  0.014145811  0.012690026          106 
  492000   0.48268638   -7.6311094     83.45951  0.014136096  0.012648722          110 
  493000   0.46597869   -7.6455954    83.346873  0.014088383  0.012607607           95 
  494000   0.47094831   -7.6418165     83.54713  0.014093645  0.012566614           80 
  495000   0.47360467   -7.6552821    83.427258  0.014044993  0.012525795          109 
  496000   0.47803001    -7.665598    83.435916  0.014018131  0.012485131           87 
  497000   0.47209189    -7.644587    83.390485  0.013982308   0.01244467           65 
  498000   0.46667235   -7.6532628    83.420847  0.013959312  0.012404376          106 
  499000   0.47207086   -7.6765814     83.49015  0.013942911  0.012364194          145 
  500000   0.46213478   -7.6597884    83.413474  0.013902246  0.012324154           91 
  501000   0.46958312   -7.6776212     83.36614  0.013866623  0.012284258          160 
  502000   0.46746542   -7.6853479    83.300602  0.013828121  0.012244499          122 
  503000   0.46220287   -7.6927855    83.247386  0.013791813  0.012204996           78 
  504000   0.46625901   -7.6784719    83.347666  0.013781029  0.012165606           69 
  505000    0.4526207   -7.6743857    83.239443  0.013735882  0.012126341          226 
  506000   0.45931944   -7.6808846     83.26272  0.013712569   0.01208723          128 
  507000   0.45701778   -7.6883651     83.31871  0.013694726  0.012048357          174 
  508000   0.46067729   -7.6989645    83.248318   0.01365622  0.012009653          358 
  509000   0.46041297   -7.6805433    83.353937  0.013646683  0.011971101          318 
  510000   0.44749943   -7.6858336    83.444057   0.01363465   0.01193267          123 
  511000     0.451825   -7.6947225    83.412081  0.013602753  0.011894394          147 
  512000   0.44871874   -7.7041744    83.124502  0.013529379  0.011856227          188 
Loop time of 1298.75 on 48 procs for 500000 steps with 4000 atoms

Performance: 66525.571 tau/day, 384.986 timesteps/s
99.4% CPU use with 48 MPI tasks x no OpenMP threads

MPI task timing breakdown:
Section |  min time  |  avg time  |  max time  |%varavg| %total
---------------------------------------------------------------
Pair    | 94.765     | 101.3      | 108.97     |  34.7 |  7.80
Neigh   | 9.1248     | 9.4389     | 9.7569     |   5.7 |  0.73
Comm    | 86.21      | 93.004     | 98.251     |  32.3 |  7.16
Output  | 0.94096    | 0.94172    | 0.96234    |   0.3 |  0.07
Modify  | 1077.6     | 1081.6     | 1085.8     |   5.7 | 83.28
Other   |            | 12.49      |            |       |  0.96

Nlocal:        83.3333 ave          92 max          78 min
Histogram: 2 3 15 4 12 7 1 2 1 1
Nghost:        2423.10 ave        2439 max        2409 min
Histogram: 2 5 4 6 10 5 4 5 4 3
Neighs:        16800.0 ave       18922 max       14543 min
Histogram: 2 4 6 5 5 5 9 5 4 3
FullNghs:      33497.7 ave       36601 max       30788 min
Histogram: 1 1 6 11 10 9 6 2 1 1

Total # of neighbors = 1607888
Ave neighs/atom = 401.97200
Neighbor list builds = 26723
Dangerous builds = 0

#clear
#
#next RN
#
#jump SELF
Total wall time: 0:21:42
