
units lj                  # Use reduced LJ style units
atom_style atomic         # Uncharged point particles
atom_modify map hash      # Needed for indexing of clusters etc
                          # Used to be able to find where atoms are in relation to each other.

lattice fcc 1.0 spacing 1 1 1
Lattice spacing in x,y,z = 1.5874011 1.5874011 1.5874011
region box block 0 10 0 10 0 10 units lattice
create_box 2 box
Created orthogonal box = (0.0000000 0.0000000 0.0000000) to (15.874011 15.874011 15.874011)
  3 by 4 by 4 MPI processor grid
create_atoms 1 box
Created 4000 atoms
  using lattice units in orthogonal box = (0.0000000 0.0000000 0.0000000) to (15.874011 15.874011 15.874011)
  create_atoms CPU = 0.004 seconds
set type 1 type/fraction 2 0.5 78393
Setting atom values ...
  2004 settings made for type/fraction
mass 1 1.0
mass 2 1.0
pair_style lj/cut  3.5
pair_modify tail  yes
pair_coeff 1  1  1.0  1.0   # Intearaction between 1 and 1 set with epsilon = 1 and sigma = 1
pair_coeff 1  2  1.5  0.8
pair_coeff 2  2  0.5  0.88

write_data data.0
System init for write_data ...
Neighbor list info ...
  update every 1 steps, delay 10 steps, check yes
  max neighbors/atom: 2000, page size: 100000
  master list distance cutoff = 3.8
  ghost atom cutoff = 3.8
  binsize = 1.9, bins = 9 9 9
  1 neighbor lists, perpetual/occasional/extra = 1 0 0
  (1) pair lj/cut, perpetual
      attributes: half, newton on
      pair build: half/bin/atomonly/newton
      stencil: half/bin/3d
      bin: standard
WARNING: Not all mixed pair coeffs generated from mixing. Use write_data with 'pair ij' option to store all pair coeffs. (../write_data.cpp:312)


#############################
#   M E L T   S Y S T E M   #
#############################

velocity all create 2.4 9622624 mom yes dist gaussian # Assign velocities
                                                    # Temperature 2.4, random number seed, zero linear momentum
                                                                                # Gaussian distribution

timestep 0.002   # simulation timestep
thermo 1000       # output thermodynamic data every 1000 steps bf 100

# Define a fix  in this case with index 1 applied to all
# particles in the simulation. This fix is for simulations
# in the anisotropic NPT ensemble. Note that we use the MTK
# correction.
fix 1 all npt temp 2.4 2.4 0.1 iso 5.68 5.68 0.5 mtk yes tchain 5 pchain 5 # Use NPT ensemble
                                                                         # Set temperature and pressure and damping
                                                                         # Numbers of thermostats in chain and in barostat
run 10000          # run for 10000 steps
Per MPI rank memory allocation (min/avg/max) = 3.642 | 3.644 | 3.648 Mbytes
Step Temp E_pair E_mol TotEng Press Volume 
       0          2.4   -5.2939675            0   -1.6948675   -4.2078901         4000 
    1000    2.4347815    -4.849207            0   -1.1979478    5.5146582    3732.7239 
    2000    2.4377721   -4.9304828            0   -1.2747388    5.3445798    3712.5452 
    3000    2.3496231   -4.9161292            0   -1.3925757    5.6593632    3684.4328 
    4000    2.4112096   -4.8587584            0   -1.2428481    5.3733447    3740.1632 
    5000    2.3922267    -4.907902            0    -1.320459    5.6454079    3693.5181 
    6000    2.4131113   -4.8968438            0   -1.2780818    5.9391266    3679.5466 
    7000    2.4089444   -4.8739402            0   -1.2614269    5.6321336    3713.2837 
    8000    2.4428169   -4.8334328            0   -1.1701235    5.7713286    3719.0219 
    9000     2.359587   -4.8688249            0   -1.3303293    5.7322204    3700.8669 
   10000    2.4539291   -4.9018599            0   -1.2218865    5.6483444    3698.9411 
Loop time of 2.62231 on 48 procs for 10000 steps with 4000 atoms

Performance: 658961.181 tau/day, 3813.433 timesteps/s
99.6% CPU use with 48 MPI tasks x no OpenMP threads

MPI task timing breakdown:
Section |  min time  |  avg time  |  max time  |%varavg| %total
---------------------------------------------------------------
Pair    | 1.1602     | 1.2408     | 1.3172     |   2.8 | 47.32
Neigh   | 0.20993    | 0.22031    | 0.23258    |   0.9 |  8.40
Comm    | 0.79439    | 0.87718    | 0.96325    |   3.8 | 33.45
Output  | 0.00024034 | 0.00024856 | 0.00047515 |   0.0 |  0.01
Modify  | 0.2354     | 0.26816    | 0.29976    |   3.1 | 10.23
Other   |            | 0.0156     |            |       |  0.59

Nlocal:        83.3333 ave          93 max          76 min
Histogram: 1 5 11 5 8 8 4 4 1 1
Nghost:        1727.33 ave        1752 max        1698 min
Histogram: 1 1 3 8 11 6 5 5 3 5
Neighs:        10312.5 ave       11687 max        9081 min
Histogram: 2 4 5 9 8 4 10 1 4 1

Total # of neighbors = 495002
Ave neighs/atom = 123.75050
Neighbor list builds = 902
Dangerous builds = 195

# Equilibrate just above the melting temperature to avoid step fn in T

fix 1 all npt temp 1.25 1.25 0.1 iso 5.68 5.68 0.5 mtk yes tchain 5 pchain 5
run 2000
Per MPI rank memory allocation (min/avg/max) = 3.644 | 3.646 | 3.649 Mbytes
Step Temp E_pair E_mol TotEng Press Volume 
   10000    2.4539291   -4.9018599            0   -1.2218865    5.6483444    3698.9411 
   11000    1.2562563   -6.9768529            0   -5.0929395    5.9289034    2879.7319 
   12000    1.2475833   -7.0885201            0   -5.2176131    5.3554238    2871.2362 
Loop time of 0.69353 on 48 procs for 2000 steps with 4000 atoms

Performance: 498320.171 tau/day, 2883.797 timesteps/s
99.5% CPU use with 48 MPI tasks x no OpenMP threads

MPI task timing breakdown:
Section |  min time  |  avg time  |  max time  |%varavg| %total
---------------------------------------------------------------
Pair    | 0.27843    | 0.31317    | 0.35487    |   2.7 | 45.16
Neigh   | 0.038853   | 0.042772   | 0.046535   |   0.7 |  6.17
Comm    | 0.23004    | 0.2727     | 0.31028    |   3.1 | 39.32
Output  | 5.4253e-05 | 6.3357e-05 | 0.00042051 |   0.0 |  0.01
Modify  | 0.054484   | 0.059576   | 0.063753   |   0.8 |  8.59
Other   |            | 0.005245   |            |       |  0.76

Nlocal:        83.3333 ave          89 max          76 min
Histogram: 4 2 3 2 8 2 13 5 1 8
Nghost:        2047.35 ave        2071 max        2018 min
Histogram: 2 0 3 5 6 11 11 5 3 2
Neighs:        13304.9 ave       14562 max       11431 min
Histogram: 1 2 2 8 2 4 9 14 4 2

Total # of neighbors = 638634
Ave neighs/atom = 159.65850
Neighbor list builds = 143
Dangerous builds = 13

#############################
# L I N E A R  Q U E N C H  #
#############################

# Define solid atoms. This closely follows ten Wolde  Ruiz-Montero and Frenkel  Faraday Discuss  1996  104  93-110
# Compute components of the per-atom q6 vector
compute q6 all orientorder/atom degrees 1 6 components 6 nnn NULL cutoff 1.3 # compute the Q6 parameter.
                                                                             # Use all neighbours within 1.3 unit cell.

# get number of connections
compute coord_number all coord/atom orientorder q6 0.5

# An atom is solid if it has 8 or more connections (of a possible 14)
variable is_solid atom c_coord_number>=8
group solid dynamic all var is_solid    # Must be dynamic to update
dynamic group solid defined

# do clustering
compute cluster solid cluster/atom 1.3 # Create a cluster where all atoms within are solid and max 1.3 units from another member

# define chunks one chunk per cluster
compute clus_chunks solid chunk/atom c_cluster nchunk every compress yes  # Says which atoms are in which chunk

# count the size of each chunk
compute size_chunks solid property/chunk clus_chunks count


# Find the maximum entry in the vector of chunk sizes
variable max_n equal max(c_size_chunks)


# Thermo style which includes this variable
# thermo_style custom step temp pe vol v_max_n

thermo ${N}  # Print the thermo information every 100 steps
thermo 1000  

# Reset the npt fix at a lower temperature (below freezing)
fix 1  all npt temp  ${temp} ${temp}  0.1  iso  5.68  5.68  0.5  mtk yes tchain  5  pchain  5
fix 1  all npt temp  0.45 ${temp}  0.1  iso  5.68  5.68  0.5  mtk yes tchain  5  pchain  5
fix 1  all npt temp  0.45 0.45  0.1  iso  5.68  5.68  0.5  mtk yes tchain  5  pchain  5

dump dmp2 all dcd ${N} traj.dcd
dump dmp2 all dcd 1000 traj.dcd


compute msd all msd com yes
variable twopoint equal c_msd[4]/6/(step*dt+1.0e-6)
fix 9 all vector 10 c_msd[4]
variable fit equal slope(f_9)/6/(10*dt)
thermo_style custom step temp pe c_msd[4] v_twopoint v_fit v_max_n

fix 1 all npt temp 1.25 ${temp} 0.1 iso 5.68 5.68 0.5 mtk yes tchain 5 pchain 5
fix 1 all npt temp 1.25 0.45 0.1 iso 5.68 5.68 0.5 mtk yes tchain 5 pchain 5
run 500000 # 5000000  # Run for this many steps
Neighbor list info ...
  update every 1 steps, delay 10 steps, check yes
  max neighbors/atom: 2000, page size: 100000
  master list distance cutoff = 3.8
  ghost atom cutoff = 3.8
  binsize = 1.9, bins = 8 8 8
  4 neighbor lists, perpetual/occasional/extra = 1 3 0
  (1) pair lj/cut, perpetual
      attributes: half, newton on
      pair build: half/bin/atomonly/newton
      stencil: half/bin/3d
      bin: standard
  (2) compute orientorder/atom, occasional
      attributes: full, newton on
      pair build: full/bin/atomonly
      stencil: full/bin/3d
      bin: standard
  (3) compute coord/atom, occasional
      attributes: full, newton on
      pair build: full/bin/atomonly
      stencil: full/bin/3d
      bin: standard
  (4) compute cluster/atom, occasional
      attributes: full, newton on
      pair build: full/bin/atomonly
      stencil: full/bin/3d
      bin: standard
Per MPI rank memory allocation (min/avg/max) = 9.836 | 9.841 | 9.846 Mbytes
Step Temp PotEng c_msd[4] v_twopoint v_fit v_max_n 
   12000    1.2475833   -7.0885201 4.2069952e-30 2.9215243e-32 8.3333333e+20            2 
   13000    1.2477752   -7.1135578   0.44883872 0.0028771712  0.036595189            1 
   14000    1.2403682   -7.1144556   0.84711593 0.0050423566   0.03425564            1 
   15000    1.2989553   -7.1530544    1.2151596 0.0067508865  0.032885845            2 
   16000     1.246461   -7.0882351    1.6241771 0.0084592556  0.032642669            2 
   17000    1.2466505   -7.0725992    2.0164543 0.0098845796  0.032777338            1 
   18000    1.2657466   -7.0790953    2.4380593  0.011287311  0.032905783            3 
   19000    1.2500491   -7.1252937    2.8700974  0.012588146  0.033206185            1 
   20000    1.2372594   -7.1565801    3.2561164  0.013567151   0.03353887            2 
   21000    1.2187094   -7.1726327    3.5961337  0.014270372  0.033423518            4 
   22000    1.2292043   -7.1304964    3.9515708  0.014968071  0.033100992            3 
   23000    1.2518582    -7.166641    4.3678552  0.015825562  0.032868833            1 
   24000    1.2244703    -7.119652    4.7070155  0.016343803  0.032649466            2 
   25000    1.2491934   -7.1321196    5.1029503  0.017009834  0.032496189            2 
   26000    1.2271199   -7.2172182    5.4737008  0.017543913  0.032348431            3 
   27000    1.2249869   -7.1293518    5.8531806  0.018065372  0.032250737            1 
   28000     1.231083   -7.1644941    6.1053604  0.018170715  0.032066183            1 
   29000    1.2371116   -7.1855945    6.4245482  0.018461345  0.031730169            1 
   30000    1.2408422   -7.1964133    6.7959811  0.018877725  0.031505552            3 
   31000    1.2274579   -7.2333019    7.1535636  0.019230009  0.031301512            2 
   32000    1.2193538   -7.1926491    7.5325996  0.019616144  0.031183694            1 
   33000    1.2453003   -7.1773293    7.9394087  0.020049012  0.031093266            5 
   34000    1.2467364   -7.1626739    8.2753513  0.020282724  0.031021816            4 
   35000     1.194999   -7.2054445    8.6268914  0.020540217  0.030952857            4 
   36000    1.2098803   -7.2335394    8.9199739  0.020648088  0.030849938            2 
   37000    1.1963678   -7.1926893    9.2474907  0.020827682  0.030714569            2 
   38000    1.2069014   -7.2119404    9.5449057  0.020931811  0.030576401            2 
   39000    1.1899656   -7.2048433    9.8505045  0.021048086   0.03042358            2 
   40000    1.1954927     -7.20198    10.296185  0.021450385  0.030300743            2 
   41000    1.1781334   -7.1659145    10.681483  0.021710331  0.030216467            1 
   42000      1.18827   -7.2049173    11.000589  0.021826564  0.030157178            8 
   43000    1.1954177   -7.2591553    11.296382  0.021892213  0.030091893            2 
   44000     1.181293   -7.1986187    11.654502  0.022072919  0.030007758            2 
   45000    1.2063667   -7.2121366    11.913833  0.022062653  0.029911123            3 
   46000    1.2033592   -7.1843483    12.272302  0.022232432  0.029815223            2 
   47000    1.1972521    -7.229839    12.440809  0.022058171   0.02969756            2 
   48000     1.187825   -7.2373296    12.648165  0.021958619   0.02952714            1 
   49000    1.2156257   -7.2427903    12.986679  0.022086188  0.029358779            3 
   50000    1.2054529   -7.2571307    13.287378  0.022145629     0.029206            3 
   51000    1.2044859   -7.2645701    13.577601  0.022185623  0.029060521            1 
   52000      1.19281   -7.2574549    13.922923  0.022312376  0.028919564            6 
   53000    1.1790959   -7.2309438    14.263603  0.022427048  0.028782434            4 
   54000    1.1929678   -7.2815072    14.580748  0.022501155  0.028675505            3 
   55000    1.1790059   -7.2868217    14.997892  0.022724079  0.028594173            1 
   56000    1.1667912   -7.3021165     15.36948   0.02287125  0.028539447            1 
   57000    1.1916352   -7.3107431    15.814892  0.023121187   0.02852461            2 
   58000     1.188671    -7.298975    16.133013  0.023179616  0.028504312            4 
   59000    1.1567235   -7.2656787    16.538697  0.023359741  0.028489196            2 
   60000    1.1947432   -7.2791759    16.771153  0.023293268  0.028463559            4 
   61000    1.1986949   -7.3234723    16.991845  0.023212903  0.028426199            1 
   62000    1.1654069   -7.2752462      17.2613  0.023200672  0.028365205            3 
   63000    1.1420927   -7.3070574    17.400193  0.023016128  0.028287528            2 
   64000    1.1546551   -7.3668573    17.657656   0.02299174  0.028193371            2 
   65000    1.1581227    -7.369096    17.957443  0.023022362  0.028104474            2 
   66000    1.1951242   -7.2712431    18.210877  0.022993531  0.028012445            2 
   67000    1.1647152    -7.325836    18.475009  0.022978867  0.027914428            2 
   68000    1.1672796   -7.3193398    18.798346  0.023037189  0.027814907            2 
   69000    1.1456398   -7.2707721    19.153977  0.023132823  0.027720633            2 
   70000    1.1754746   -7.3825336    19.266055   0.02293578  0.027635155            3 
   71000    1.1532216   -7.3490434    19.746011  0.023176069  0.027550064            4 
   72000    1.1583288   -7.3393542    19.947057  0.023086872  0.027476969            2 
   73000    1.1280075   -7.3462361    20.353009  0.023234029  0.027408323            2 
   74000    1.1770873   -7.2952213     20.71833  0.023331453  0.027352324            3 
   75000    1.1413176   -7.3665183    20.803306  0.023114785  0.027282386       -1e+20 
   76000    1.1251667   -7.4020147    20.924305  0.022943317  0.027202842            2 
   77000    1.1492741   -7.3534889    21.336886  0.023091868  0.027121247            2 
   78000    1.1450598   -7.3504626    21.608486   0.02308599  0.027044987            2 
   79000    1.1598554   -7.3358831    21.885858  0.023086348  0.026965354            4 
   80000    1.1551092   -7.3923415     22.18423  0.023108572  0.026897383            6 
   81000    1.1267981   -7.4148256    22.455761  0.023102634  0.026826494            2 
   82000     1.121269   -7.3730622    22.781796  0.023152232   0.02676075            2 
   83000    1.1308891   -7.4061886    23.030381  0.023122872  0.026697203            2 
   84000    1.1373175   -7.3858676    23.460829  0.023274632  0.026638624            2 
   85000    1.1679284   -7.3911177    23.491783  0.023031159  0.026576017            4 
   86000    1.1301382   -7.4308473    23.784901  0.023047384   0.02650815            2 
   87000    1.1369337   -7.4168397    24.193667   0.02317401  0.026453087            2 
   88000    1.1297602   -7.4392127    24.457593  0.023160599  0.026401359            2 
   89000    1.1219921   -7.4247337    24.580991  0.023015909  0.026345103           11 
   90000    1.1216597   -7.4059888    24.811602  0.022973705   0.02627714            3 
   91000    1.1287402   -7.4551207    24.949958  0.022847947  0.026205498            3 
   92000    1.1435201   -7.4428742    25.288447  0.022906202  0.026129665            2 
   93000    1.1116327   -7.4310289    25.620845  0.022957746  0.026059061            5 
   94000    1.0917599   -7.3945281    26.006814  0.023055686  0.025997903            3 
   95000    1.1308303   -7.4288197    26.308583  0.023077704  0.025940687            1 
   96000    1.1339884   -7.4320959    26.521042  0.023021738   0.02588653            2 
   97000    1.0786418   -7.4276867    26.739623  0.022972185  0.025835289            2 
   98000    1.0981758     -7.42118     27.03589  0.022989702  0.025778709            1 
   99000    1.0963356   -7.4803391    27.099851  0.022811322  0.025721619            3 
  100000    1.1246779    -7.490487    27.476216  0.022896847  0.025663538            5 
  101000    1.1256698   -7.4984737    27.762625  0.022906456  0.025611004            3 
  102000    1.1012826   -7.4570626    27.889351  0.022785417  0.025554562            4 
  103000    1.1187406   -7.4716909    28.158722  0.022782138  0.025491949            2 
  104000     1.098956   -7.4715134    28.371447  0.022733531  0.025429137            1 
  105000    1.1047917   -7.4843997    28.649335  0.022737568  0.025367943            2 
  106000    1.1104295   -7.4705897    29.054448  0.022841547   0.02531232            1 
  107000    1.1109207   -7.4635904    29.384405   0.02288505    0.0252616            2 
  108000    1.1041574   -7.4798744     29.49865  0.022761304  0.025211724            2 
  109000    1.0828866   -7.5254586    29.713626   0.02271684  0.025158715            3 
  110000    1.1102024   -7.4967734    30.046284  0.022762337  0.025106553            2 
  111000    1.0841781   -7.5168625    30.214439  0.022683513  0.025058469            1 
  112000    1.0957785   -7.5036039    30.672436  0.022821753  0.025011381            3 
  113000    1.0884516   -7.5043789    30.759369    0.0226839  0.024960757            2 
  114000    1.0753285   -7.5202299    31.029828  0.022682623  0.024912639            2 
  115000    1.0967777   -7.5342874    31.064866  0.022510772  0.024861592            3 
  116000     1.088722   -7.4993276    31.264066  0.022459817  0.024803645            2 
  117000    1.0703889   -7.5103662    31.506206  0.022440318  0.024741841            1 
  118000    1.0810287   -7.5228872    31.562659  0.022290013  0.024676856            4 
  119000    1.0649102   -7.4960208    31.915722  0.022349945  0.024614256            3 
  120000    1.0917392   -7.5343605     32.02819  0.022241798  0.024548401            2 
  121000    1.0773756   -7.5710144    32.164429   0.02215181   0.02448018            1 
  122000    1.0753836   -7.5383135     32.40793  0.022136564  0.024410868            4 
  123000    1.1050057   -7.5410604    32.449662  0.021984865  0.024338572            1 
  124000    1.0486168   -7.5226264    32.624857  0.021925307   0.02426614            3 
  125000    1.0713097   -7.5654183    32.856621  0.021904414  0.024195268            5 
  126000    1.0546216    -7.586487    33.055357  0.021862009  0.024125015            6 
  127000     1.043138   -7.5975098    33.411981  0.021923872  0.024056715            7 
  128000    1.0644214   -7.5486626    33.744952  0.021969369  0.023993296            2 
  129000    1.0428861   -7.5766822    33.848108  0.021865703  0.023930896            1 
  130000     1.061369   -7.5827326    34.045306  0.021823914  0.023867631            2 
  131000    1.0526062   -7.6586108    34.168596  0.021735748  0.023805524            2 
  132000    1.0580879   -7.6059954    34.403752   0.02171954   0.02374172            2 
  133000    1.0483745   -7.6288592    34.525684  0.021632634  0.023674461            2 
  134000    1.0495009    -7.582256    34.627969  0.021534807   0.02360568            7 
  135000    1.0399362   -7.6006065    34.783126  0.021471066  0.023537001            1 
  136000    1.0464471   -7.6276996    34.861661  0.021361312  0.023465869            5 
  137000    1.0373003   -7.6564997    35.018408  0.021300735  0.023390936            3 
  138000    1.0564243   -7.6336234     35.22294  0.021269891  0.023318153            3 
  139000    1.0433775   -7.6471411    35.443331  0.021248999  0.023247929            5 
  140000    1.0210651   -7.6483898    35.718126  0.021260789  0.023178916            5 
  141000    1.0378429   -7.6349555    35.885742  0.021209067  0.023110022            2 
  142000    1.0648653   -7.6731747    35.949073  0.021096874  0.023040484            5 
  143000    1.0520832    -7.625943    36.359015  0.021188237  0.022970989            3 
  144000    1.0398322   -7.6599206    36.270176  0.020989685  0.022903322            6 
  145000    1.0411425    -7.648403     36.47133  0.020960534  0.022833667            2 
  146000     1.025737   -7.6926303    36.426925  0.020791624  0.022758211            2 
  147000    1.0121911   -7.6742613    36.692497  0.020800735  0.022683131            2 
  148000    1.0366859   -7.7089727    36.807117  0.020724728   0.02260965            3 
  149000    1.0274891   -7.7106557    36.975079  0.020679574  0.022536227            1 
  150000    1.0284646   -7.6700261    36.988849   0.02054936  0.022462669            2 
  151000    1.0163366   -7.6902348    37.248558  0.020556599  0.022389466            5 
  152000    1.0384804   -7.6867281    37.354222  0.020479288  0.022315244            1 
  153000    1.0048655   -7.6546837    37.598562   0.02047852  0.022240978            2 
  154000    1.0331028   -7.6821332    37.793827  0.020451205  0.022167801            3 
  155000    1.0301954   -7.6823258    37.957139  0.020407064  0.022095436            3 
  156000    1.0157563   -7.7149912     38.10586  0.020355694  0.022024701            2 
  157000   0.99549945   -7.7226238    38.187656  0.020269457  0.021953091            2 
  158000    1.0250949   -7.7637176    38.307448   0.02020435  0.021881448            3 
  159000     1.019803   -7.7019124    38.532539  0.020195251   0.02180927            5 
  160000    1.0021651   -7.7206651    38.687059   0.02014951   0.02173727            6 
  161000    1.0221777   -7.6611291    38.848713   0.02010803  0.021666684            3 
  162000    1.0236452   -7.7199002     38.97735  0.020050077  0.021596778            5 
  163000   0.99222656   -7.7539748     38.99917  0.019938226  0.021526811            3 
  164000   0.98806746   -7.7156046    39.140915  0.019888676  0.021456165            4 
  165000   0.98370469   -7.7347617    39.180855   0.01978831  0.021383284            1 
  166000    0.9979683   -7.7730252    39.322423  0.019740172  0.021311388            2 
  167000    1.0030435   -7.7895483    39.295072  0.019608319  0.021239739            3 
  168000   0.98734215   -7.7465652    39.822145  0.019753048  0.021168919            4 
  169000     1.018506   -7.7342655    39.959787  0.019704037   0.02110062            5 
  170000    1.0100177   -7.7524498    40.094046  0.019653944  0.021033771            2 
  171000   0.99382875   -7.7623479    40.152903  0.019567692  0.020965808            5 
  172000   0.98195286   -7.7931846    40.289588  0.019520149  0.020898772            2 
  173000    0.9937359   -7.8083206    40.260394  0.019393254  0.020829659            4 
  174000    1.0029283   -7.7819497    40.472124  0.019383201  0.020760109            2 
  175000   0.97736557   -7.7435747    40.791651  0.019424596  0.020692449            4 
  176000   0.98603806    -7.789645    40.753544  0.019296186  0.020624813            2 
  177000   0.97848321   -7.7808678    40.982378  0.019294905  0.020557763            3 
  178000   0.97957181   -7.8429324    41.034343  0.019210835  0.020492987            2 
  179000   0.95980671   -7.8389696    41.256321  0.019206853  0.020427987            2 
  180000   0.98646489   -7.8172966    41.474931  0.019201357  0.020363447            5 
  181000   0.97549393    -7.814695    41.566823   0.01913758    0.0202988            2 
  182000   0.96432423   -7.8033734    41.682739  0.019085503  0.020233361            3 
  183000   0.98299478   -7.8121069    41.857241  0.019060674  0.020169773            7 
  184000   0.96369766   -7.8279064    42.006027  0.019024469  0.020108988            5 
  185000   0.99071937   -7.8707134    42.189301   0.01900419  0.020048322            7 
  186000   0.97332502   -7.8300256    42.342077  0.018970465  0.019987067            6 
  187000   0.94541866    -7.827612    42.335726  0.018866188  0.019925352            3 
  188000   0.97227292   -7.8825175    42.416543  0.018801659  0.019863956            5 
  189000   0.95779791   -7.8571068    42.633963  0.018798043  0.019802554            7 
  190000   0.94285426   -7.8282613    42.910746  0.018820503  0.019742582            4 
  191000   0.96054731   -7.8615441    43.074141  0.018793255  0.019683299            5 
  192000   0.97432263    -7.867846    43.169185  0.018736625  0.019624908            3 
  193000   0.95377057   -7.8301887     43.20543  0.018655194  0.019566955            2 
  194000   0.96353729   -7.8641682    43.196126  0.018555037  0.019506695            4 
  195000   0.97862484   -7.8866796    43.141828  0.018436679  0.019445748            5 
  196000   0.97848102   -7.8745829    43.367194  0.018438433  0.019385024            3 
  197000   0.92665322   -7.9094229    43.596599  0.018441878  0.019325166            5 
  198000   0.98216996   -7.8789134    43.674433  0.018381495  0.019265749            3 
  199000   0.95655082   -7.8997777    43.776221  0.018331751  0.019205713            3 
  200000   0.95537821   -7.8987918    44.021103  0.018342126  0.019146623            6 
  201000   0.93876525    -7.868103    43.905342  0.018202878  0.019087621            6 
  202000   0.91542434   -7.9436431     43.95716  0.018134142  0.019027439            7 
  203000   0.95401123   -7.9575578     44.12864  0.018115205  0.018967184            3 
  204000    0.9538303   -7.9239771    44.308329  0.018099808  0.018907532            3 
  205000   0.95342023   -7.9474677    44.259704  0.017991749  0.018848146            5 
  206000   0.92895832   -7.9399608    44.378836  0.017952604  0.018788054           11 
  207000   0.94181561   -7.9835552    44.404857  0.017876351  0.018726926            3 
  208000   0.93787829   -7.9402309    44.567287  0.017855484   0.01866686            9 
  209000   0.92404855   -7.9276305    44.760273  0.017846999  0.018607718            4 
  210000   0.93997995   -7.9263297    44.906837  0.017820173  0.018549782            5 
  211000   0.93869051   -7.9604303    45.040512  0.017788512  0.018492153            8 
  212000   0.93174685   -7.9719891    45.039724  0.017704294  0.018434801            6 
  213000   0.93462202   -7.9813944    45.264278  0.017709029  0.018377454           12 
  214000   0.92195718   -7.9732918    45.235824  0.017615196   0.01832123            6 
  215000   0.91071738   -7.9807978    45.396431  0.017595516   0.01826388           11 
  216000   0.94066381   -7.9843831    45.186526  0.017433073  0.018205861            7 
  217000   0.92876519   -7.9736289    45.398078  0.017433978  0.018146243            4 
  218000   0.91265945   -7.9950803    45.285727  0.017311058   0.01808709            5 
  219000    0.9232815   -7.9745798    45.457435   0.01729735  0.018027618            4 
  220000   0.93327673   -8.0114092    45.415389  0.017202799  0.017967702            4 
  221000   0.92911802   -7.9724956     45.55337  0.017176987  0.017907439            3 
  222000   0.93587251   -7.9928643    45.604167  0.017118681  0.017847425            6 
  223000   0.91808173   -7.9556234    45.700676  0.017077981  0.017787791            3 
  224000   0.92620373   -8.0011687    45.782549  0.017032198  0.017728361           17 
  225000   0.91672468   -7.9986538    45.740666  0.016940987  0.017668788            4 
  226000   0.90009032    -8.028764    45.776031  0.016879068  0.017608906            9 
  227000   0.89164432   -8.0234699    45.849806  0.016831794  0.017548614            4 
  228000   0.93820337   -8.0494256    46.042246  0.016828306  0.017488725            5 
  229000   0.90309325   -8.0120028    46.134568  0.016788416  0.017429639           17 
  230000   0.89744271   -8.0565855    46.119649  0.016710018  0.017370595            7 
  231000   0.88675729   -8.0477753    46.167979  0.016655115  0.017311088            7 
  232000   0.88397074    -8.066704    46.201463  0.016595353  0.017251579           10 
  233000   0.89862128   -8.0385937    46.453289  0.016614195  0.017192991            5 
  234000    0.8968605   -8.0612563    46.417081    0.0165303    0.0171346            4 
  235000   0.89920594   -8.0797012     46.42499  0.016462762  0.017076619            7 
  236000   0.88182138   -8.0877332    46.565692  0.016442688   0.01701832            7 
  237000   0.89685678    -8.102628    46.539096  0.016363958  0.016959641            6 
  238000   0.89939245   -8.0679935    46.632155  0.016327785  0.016901124            3 
  239000   0.89320649   -8.0915676    46.682348  0.016276969  0.016842231           11 
  240000   0.89334626   -8.1053783    46.692858  0.016212798  0.016783829            9 
  241000   0.88423094   -8.1203858    46.781502  0.016176176  0.016725858            3 
  242000   0.87671069   -8.0746971      47.0004  0.016184711  0.016668735            3 
  243000   0.84270929   -8.0924176    46.882142  0.016077552  0.016611137            9 
  244000   0.89015596   -8.1020481    47.140943  0.016100049  0.016554142            5 
  245000   0.89201836   -8.1021334    47.068374  0.016009651  0.016498096            5 
  246000   0.88656071   -8.1287778    47.256781  0.016008394  0.016442443            5 
  247000   0.87599081   -8.1444317    47.338929  0.015971298   0.01638701            5 
  248000   0.86063357   -8.1079992    47.380084  0.015920727   0.01633132            3 
  249000   0.86954029    -8.151298    47.522095  0.015904316  0.016276099            8 
  250000   0.86338283   -8.1378917    47.410808  0.015803603  0.016221396            9 
  251000   0.86876985   -8.1401004     47.34402  0.015718466  0.016166324            9 
  252000   0.87177408   -8.1646468    47.486135  0.015703087  0.016111009            6 
  253000   0.86427546   -8.1685385    47.475541   0.01563753  0.016055595            8 
  254000   0.84599335     -8.15855    47.661615  0.015637013  0.016000915            7 
  255000    0.8774418   -8.1535029    47.729142  0.015597759  0.015946753           11 
  256000   0.86780155   -8.1560686     47.74932  0.015543398  0.015892717            4 
  257000   0.84821617   -8.1640826    47.744142  0.015481239  0.015838207            5 
  258000   0.86261824   -8.1410303    47.927174  0.015480353  0.015784165           15 
  259000   0.86343954   -8.1298092    48.069188  0.015466277  0.015730726            5 
  260000    0.8441045   -8.1559482    48.075539  0.015408827  0.015677715            5 
  261000   0.82927624   -8.1435072    48.079462  0.015351042  0.015624738            4 
  262000   0.84710947   -8.1717567    48.175752  0.015323076  0.015571644           12 
  263000   0.84186794   -8.2065244    48.240041  0.015285184  0.015518896           12 
  264000   0.83818762   -8.2161485    48.041395  0.015164582  0.015465509            5 
  265000   0.84912801   -8.2040471    48.288196  0.015184967  0.015412601            7 
  266000   0.86466079   -8.2020595    48.090362  0.015065903  0.015359499            2 
  267000   0.84589906   -8.2536761     48.22884  0.015052697  0.015306414            4 
  268000    0.8303136   -8.2078644    48.343361   0.01503214  0.015254217            7 
  269000   0.84897468   -8.2108543    48.380716   0.01498783  0.015202398            4 
  270000   0.84367979    -8.187713    48.529975  0.014978387  0.015150764            7 
  271000   0.85024153   -8.2042023    48.590291  0.014941664  0.015099394            4 
  272000   0.83093209   -8.2366591     48.69936  0.014920147  0.015048561            5 
  273000   0.82204231   -8.2294704    48.631892    0.0148449  0.014997203           10 
  274000   0.83769675   -8.2394041    48.525444  0.014758347  0.014945834            3 
  275000   0.83072182   -8.2135746     48.66058   0.01474563  0.014894765            9 
  276000   0.82865527   -8.2090452    48.713526   0.01470819  0.014844427            7 
  277000   0.82303586   -8.2265336    48.797993  0.014680503  0.014794189            7 
  278000   0.82192278   -8.2712967    48.803521  0.014629353  0.014743931            9 
  279000   0.82619909   -8.2302672    48.807634  0.014578146  0.014694067            3 
  280000   0.81265534   -8.2774572    48.910161  0.014556595  0.014643881            8 
  281000   0.82067838   -8.2412068    48.825004  0.014479539   0.01459367            9 
  282000   0.82180092   -8.2671611     48.95184  0.014465674  0.014543566           11 
  283000   0.83846261   -8.2613569    48.984322  0.014424123  0.014493489            7 
  284000    0.8177269   -8.2813161    49.007595  0.014380163  0.014443603           12 
  285000   0.82195546   -8.3044071     48.95976  0.014315719  0.014393775           10 
  286000   0.81381856   -8.2950086    48.963666  0.014266803   0.01434367           11 
  287000   0.80337136   -8.3039708    48.921113  0.014204737  0.014293793            5 
  288000   0.81595096   -8.2820657    49.033192  0.014187845  0.014244265            9 
  289000   0.80894961   -8.2906454    49.044918  0.014142133  0.014194826           32 
  290000   0.80920296   -8.3438789    48.945088  0.014064681  0.014145044           12 
  291000    0.8051468   -8.3213944    49.112232  0.014064213  0.014095409           11 
  292000   0.79066619    -8.348646      49.1789  0.014035074  0.014045981            6 
  293000   0.79541722    -8.330377    49.259757   0.01401017   0.01399665           22 
  294000   0.79096977   -8.3358275    49.039567  0.013900104  0.013947667           19 
  295000   0.77640953   -8.3618473    49.001879  0.013842339  0.013898595           25 
  296000   0.78466389   -8.3448772    49.138235  0.013833963  0.013849495            8 
  297000   0.81014066    -8.358487    49.193948  0.013803016  0.013801023           16 
  298000   0.79221761   -8.3663172     49.19348  0.013756566  0.013752726           14 
  299000   0.79683762    -8.382447    49.103655  0.013685523  0.013703874           19 
  300000   0.79580333   -8.3826784    49.119554  0.013644321  0.013654561           11 
  301000   0.77546973   -8.3722045    49.208635  0.013623653  0.013605625           10 
  302000   0.77787076   -8.4019741    49.250565  0.013590112  0.013556936           16 
  303000   0.77806348   -8.3873471    49.391219  0.013583944  0.013508813           11 
  304000   0.76776072   -8.3930547    49.218232   0.01349184  0.013461005           20 
  305000   0.76408376   -8.3796922     49.31485  0.013474003   0.01341326            9 
  306000   0.77970351   -8.3896217    49.353455  0.013440483  0.013365643           13 
  307000   0.78106084   -8.3912363    49.271064  0.013374339  0.013318213            9 
  308000   0.77176053   -8.3882769    49.461585  0.013382464  0.013270775            8 
  309000    0.7732581    -8.373756    49.483784  0.013345141  0.013223635            4 
  310000     0.778556   -8.3996061    49.349726  0.013266055  0.013176633           13 
  311000   0.76385206   -8.4221813    49.327325  0.013217397  0.013129636           11 
  312000   0.77750144   -8.3955927    49.406021  0.013196052   0.01308247           15 
  313000     0.767535   -8.4118556    49.376286  0.013145976  0.013035367           12 
  314000   0.77003091   -8.4040373    49.439707  0.013120941  0.012988211           10 
  315000   0.74953076   -8.4105045    49.405417  0.013070216  0.012941187           13 
  316000   0.76700644   -8.4466179    49.230739   0.01298279  0.012894155            9 
  317000   0.75471774   -8.4258294     49.38624  0.012982713  0.012847185           18 
  318000   0.75088567   -8.4304625    49.445037  0.012957295  0.012800471           16 
  319000   0.74522164   -8.4254532    49.381062  0.012899964  0.012754126           11 
  320000   0.74618033   -8.4546735    49.410126   0.01286722  0.012707547            7 
  321000   0.75285035   -8.4526966     49.31016  0.012801184  0.012661552            4 
  322000   0.74779043   -8.4422518    49.291714  0.012756655  0.012615285            8 
  323000   0.74811932   -8.4812413    49.356085  0.012733768   0.01256921           10 
  324000   0.74923361    -8.466486     49.43134  0.012713822  0.012523604           10 
  325000   0.74495996   -8.4842094    49.458584  0.012681688   0.01247803           12 
  326000   0.71876123   -8.4642635    49.457181  0.012642429  0.012432528           22 
  327000   0.75142057   -8.4854855    49.373077  0.012582334   0.01238696            5 
  328000   0.74475904   -8.4961029     49.55953  0.012591344  0.012341531           22 
  329000   0.73142539   -8.4788519    49.470325  0.012530478  0.012296133           16 
  330000   0.71195873   -8.4593123    49.446132  0.012486397  0.012251307           17 
  331000    0.7464045   -8.4857263    49.496593  0.012461378  0.012206446           15 
  332000    0.7451779   -8.4998122    49.471462  0.012417536  0.012161814           11 
  333000   0.75953044   -8.5092951    49.313775  0.012340785  0.012117204           15 
  334000   0.72536033   -8.4983854    49.381832  0.012320816  0.012072744           22 
  335000    0.7362455   -8.4884707    49.427075  0.012295292  0.012028412           16 
  336000   0.72837364   -8.5486273    49.308749  0.012229352  0.011984207           12 
  337000   0.74540469   -8.5355283    49.413301  0.012218917  0.011940107            9 
  338000   0.72682577   -8.5382379     49.38146  0.012174916  0.011896211           18 
  339000    0.7272768   -8.5508582    49.573813  0.012186286   0.01185218           29 
  340000    0.7189199   -8.5430237    49.494356  0.012130969  0.011808401           25 
  341000    0.7148545   -8.5541022    49.474689  0.012090589  0.011764824           15 
  342000   0.71406525   -8.5573209     49.41135  0.012039803  0.011721473           21 
  343000   0.72569232   -8.5596111    49.476001  0.012020408  0.011678384           22 
  344000    0.7300594   -8.5703751    49.475412  0.011985323  0.011635451           19 
  345000   0.70796338   -8.5869306    49.552082  0.011969102  0.011592685           32 
  346000   0.73152788   -8.5443274    49.568748  0.011938523   0.01155001           25 
  347000   0.71276768   -8.5832705    49.408675  0.011865676  0.011507496           13 
  348000   0.70189798   -8.5943843    49.431877  0.011837135  0.011465057           23 
  349000   0.70774334   -8.5906703    49.394404   0.01179427  0.011422694           21 
  350000   0.70688918   -8.5907211    49.450796  0.011773999  0.011380498           28 
  351000   0.70498609   -8.5845678      49.5544  0.011765052  0.011338703           13 
  352000   0.71174734   -8.6033928    49.503756  0.011719639  0.011297058           15 
  353000   0.70468036     -8.59823    49.553512  0.011698185  0.011255625           14 
  354000   0.68989774   -8.6122614    49.466907  0.011644752  0.011214309           17 
  355000    0.6996892   -8.6012398    49.456076  0.011609408  0.011173199           19 
  356000   0.70187014   -8.6086871    49.602685  0.011611115  0.011132348           23 
  357000   0.69419399    -8.612395    49.476606  0.011549161  0.011091535           14 
  358000   0.68486015   -8.6134331    49.409888  0.011501371  0.011050789           21 
  359000   0.68400937   -8.6314823    49.477895  0.011485119  0.011010191           21 
  360000    0.6877653   -8.6262144    49.466746  0.011450636  0.010969596           27 
  361000   0.70182686    -8.649632     49.44439  0.011413756  0.010929214           18 
  362000   0.70203043   -8.6187938    49.511539  0.011397684  0.010889038           26 
  363000   0.68699495    -8.656552    49.449951  0.011352147  0.010848909           26 
  364000   0.68854029    -8.658502    49.432474  0.011316958  0.010808917           17 
  365000   0.67516351   -8.6441657    49.572345  0.011317887  0.010769036           34 
  366000   0.69198695   -8.6441298    49.443852  0.011257708   0.01072939           29 
  367000   0.67744034   -8.6396572    49.482021    0.0112357  0.010689975           27 
  368000   0.67413979   -8.6684299    49.490133  0.011207005  0.010650651           30 
  369000   0.68939477   -8.6607853     49.51809  0.011182947  0.010611447           24 
  370000   0.66492566   -8.6912094    49.477294  0.011143535  0.010572654           32 
  371000   0.66272914   -8.6755081    49.555518  0.011131069  0.010533999           25 
  372000   0.68616829   -8.6485426    49.624171  0.011116526   0.01049548           26 
  373000   0.65496957   -8.6672623    49.482644  0.011055104  0.010456932           23 
  374000   0.67174232   -8.6801887    49.420282  0.011011649  0.010418519           37 
  375000   0.66476949   -8.6668217    49.518096  0.011004021  0.010380203           26 
  376000   0.65798322   -8.6809367    49.452896  0.010960305  0.010342056           60 
  377000   0.66384307   -8.7010233    49.362799  0.010911317  0.010303943           63 
  378000   0.65930448   -8.6961571    49.415225  0.010894009  0.010265949           69 
  379000   0.66249997   -8.7241649    49.276439  0.010834749  0.010228169           62 
  380000   0.65557723   -8.7054658    49.316111  0.010814937  0.010190475           79 
  381000   0.65514268   -8.7027352    49.384116  0.010801425  0.010152732           61 
  382000   0.64786147   -8.6933647    49.343162  0.010764215  0.010115206           42 
  383000   0.65407468   -8.7333772      49.3507   0.01073775  0.010077821           48 
  384000   0.65159024   -8.7354929    49.315558  0.010702161  0.010040446           49 
  385000   0.64853519   -8.7377721    49.295338  0.010669987  0.010003185           60 
  386000   0.65408057   -8.7388387    49.212462  0.010624452   0.00996606           70 
  387000   0.64759807   -8.7132884    49.340954  0.010624667 0.0099291019           45 
  388000    0.6380356   -8.7190285    49.285967  0.010585474 0.0098923118           48 
  389000    0.6350127   -8.7406489    49.310777  0.010563577 0.0098557316           70 
  390000   0.65299806   -8.7290768    49.281111  0.010530152 0.0098192459           65 
  391000   0.65288921   -8.7435564    49.320438  0.010511602 0.0097829465           64 
  392000   0.63573949   -8.7381821     49.27406  0.010474928 0.0097466752           54 
  393000   0.64364809   -8.7587556     49.12401  0.010416457 0.0097105958           53 
  394000   0.65049772   -8.7702891    49.179733  0.010401805 0.0096746421           62 
  395000   0.62179995   -8.7779452     49.14093  0.010367285 0.0096387467           60 
  396000   0.63139437   -8.7965781    49.135298   0.01033992 0.0096030685           61 
  397000     0.636605   -8.7854259    49.304814  0.010349457 0.0095674986           56 
  398000   0.62669618   -8.7678879    49.245188  0.010310969 0.0095321604           60 
  399000   0.64129065   -8.7924967    49.257515  0.010287701 0.0094969833           47 
  400000    0.6321061   -8.7709858    49.229978  0.010256245  0.009461964           52 
  401000   0.64480644   -8.7865605    49.163963   0.01021695  0.009427028           46 
  402000   0.63114303   -8.7959993    49.132428  0.010184998 0.0093922626           60 
  403000   0.63697351   -8.8022935    49.177258  0.010168995  0.009357722           48 
  404000   0.63160001   -8.7691016    49.165944   0.01014149 0.0093232527           56 
  405000   0.62531532   -8.7828472    49.134173  0.010109912 0.0092888498           66 
  406000   0.62165126   -8.7967799     49.25255  0.010109308 0.0092546476           74 
  407000    0.6115266    -8.792434    49.153457   0.01006418 0.0092205743           70 
  408000   0.61344347   -8.7967817    49.103049  0.010029218 0.0091866439           72 
  409000   0.60440282   -8.8239471    49.083176  0.010000647 0.0091529066           52 
  410000   0.62476876   -8.8273459    49.069357 0.0099734465  0.009119343           57 
  411000   0.62294352   -8.7958971     49.19856  0.009975377 0.0090859204           68 
  412000   0.60146596   -8.7898855    49.153282 0.0099420069 0.0090527205           74 
  413000   0.61782271   -8.8342195    49.182611 0.0099238522  0.009019607           66 
  414000   0.62160693   -8.8189542    49.205926 0.0099045744 0.0089865961           79 
  415000   0.59819331    -8.808145    49.174615 0.0098744207 0.0089537835           71 
  416000   0.61655663   -8.8193823    49.173507 0.0098504621 0.0089211335           53 
  417000   0.59120639   -8.8178848    49.117286 0.0098156047  0.008888491           60 
  418000   0.61104083   -8.8455149    49.118393 0.0097923431 0.0088561296           71 
  419000   0.60215964   -8.8490068    49.175794 0.0097803887 0.0088239438           63 
  420000   0.60052469   -8.8487936    49.213115  0.009764507 0.0087919443           65 
  421000   0.59312853   -8.8611819    49.103729 0.0097196613  0.008760053           59 
  422000   0.60561638    -8.829318    49.087783   0.00969348 0.0087282642           62 
  423000   0.58648874   -8.8402779    49.141927 0.0096812307 0.0086965521           73 
  424000   0.59152212   -8.8479874    49.180563 0.0096659912 0.0086650459           61 
  425000   0.58644616   -8.8554684    49.178572 0.0096428573 0.0086335885           63 
  426000   0.57594461    -8.871642    49.109515 0.0096067126 0.0086023828           92 
  427000   0.58089564   -8.8599609     49.09862 0.0095820882 0.0085712772          105 
  428000   0.58359821   -8.8896339    49.008211 0.0095420972 0.0085403256           61 
  429000   0.58971283    -8.861466    49.052654 0.0095284876 0.0085094455           57 
  430000   0.58611861   -8.8763992    49.110517  0.009517542 0.0084786722           58 
  431000   0.57612844   -8.8627574    49.083401 0.0094902167 0.0084481072           69 
  432000   0.58144799   -8.8737332    49.073879 0.0094664119 0.0084175757           65 
  433000   0.57690603   -8.8861953    48.991336 0.0094286635 0.0083871309           94 
  434000   0.56356234   -8.8852235    49.044954 0.0094172338 0.0083568718           90 
  435000   0.58016649    -8.880234    48.981793 0.0093834851 0.0083267256           81 
  436000   0.57076597   -8.8866475    48.928437 0.0093517654 0.0082966578           80 
  437000   0.57492484   -8.9232688    49.050967 0.0093537313 0.0082667368          112 
  438000   0.56968575   -8.9047078    48.990171 0.0093208089 0.0082369993           93 
  439000   0.56739654   -8.8932214    49.005212 0.0093024321 0.0082073961           83 
  440000   0.55391337   -8.8967009    48.940696 0.0092690711 0.0081778707           89 
  441000   0.56831417   -8.9233017    48.885564  0.009237635 0.0081484469           92 
  442000   0.55832926   -8.9171911    48.960188 0.0092308046 0.0081191617           94 
  443000   0.55830234   -8.9239069     48.93397 0.0092050356 0.0080900355           77 
  444000   0.54762012   -8.9293523    48.928914 0.0091833547 0.0080610442           84 
  445000   0.55341016   -8.9257714    49.042911 0.0091840657 0.0080322632           72 
  446000   0.55770878   -8.9144094    48.930354 0.0091424428 0.0080035195           70 
  447000   0.55763069   -8.9166409    48.980771  0.009131389 0.0079749366           82 
  448000   0.55519102   -8.9237845    48.964417 0.0091079644 0.0079465141           79 
  449000   0.55344255   -8.9309195    48.988919  0.009092227 0.0079182006           65 
  450000   0.53981527   -8.9293345     48.98263 0.0090708574 0.0078899592           65 
  451000   0.54429478   -8.9312987    48.958985 0.0090463757 0.0078619192           73 
  452000    0.5574066   -8.9262051    48.980931 0.0090304076 0.0078339763           64 
  453000   0.55606758   -8.9181639    48.968055 0.0090081043 0.0078061485           60 
  454000   0.53894567   -8.9503867    49.027616 0.0089991954 0.0077785015           56 
  455000   0.54019001    -8.951371    48.950042 0.0089652091 0.0077509225           71 
  456000   0.54464985   -8.9563853    48.858462 0.0089288125 0.0077234563           89 
  457000   0.53977816   -8.9529205    48.889301 0.0089148981 0.0076960456           68 
  458000   0.53221798   -8.9502699    48.855649 0.0088893103   0.00766883           93 
  459000   0.54023809   -8.9599006    48.874059 0.0088732859 0.0076417639           64 
  460000    0.5354979   -8.9813352    48.883622 0.0088557286 0.0076147924          149 
  461000   0.52916909   -8.9814248    48.898811 0.0088392645 0.0075879863           58 
  462000    0.5129939   -8.9629923    48.903139 0.0088209125 0.0075612928           64 
  463000   0.53082272   -8.9829185    48.947872 0.0088099121 0.0075346883           64 
  464000   0.52624411   -8.9668297     48.83274 0.0087702478 0.0075082066           91 
  465000   0.52730468   -8.9804785    48.909739 0.0087651861 0.0074818485           68 
  466000   0.52979238    -8.987888    48.900259 0.0087446815 0.0074555711           69 
  467000   0.51542872   -8.9740337    48.808865 0.0087096475 0.0074294248           77 
  468000   0.52610166   -8.9905654    48.805682 0.0086904705 0.0074033967           66 
  469000    0.5214206    -8.976254    48.818562 0.0086742292 0.0073774973           90 
  470000   0.52071438   -8.9810515    48.988285 0.0086858661 0.0073517109           70 
  471000   0.50377464   -8.9931552    48.817872 0.0086372738 0.0073260009           75 
  472000   0.51133127   -9.0054188    48.787638 0.0086136367 0.0073004379           71 
  473000   0.51467806    -9.004522    48.807798 0.0085989778 0.0072749775           97 
  474000   0.50427152   -8.9806122    48.880361 0.0085935937 0.0072496195           93 
  475000   0.50626764   -9.0049284    48.808735 0.0085629359 0.0072243931           98 
  476000   0.49884636   -9.0039506    48.820666 0.0085470353 0.0071992569           88 
  477000   0.50091246   -9.0004547     48.87728 0.0085390076 0.0071742773           88 
  478000   0.50589805   -9.0101467    48.793947 0.0085066156 0.0071493539           87 
  479000   0.51423641   -9.0224626    48.779327 0.0084863129 0.0071245526           93 
  480000   0.49584586   -9.0118964    48.761258 0.0084654961 0.0070998822           82 
  481000   0.50181887   -9.0252442    48.809796 0.0084563057 0.0070752538          104 
  482000   0.49638979   -9.0290706    48.754496 0.0084292005 0.0070507796          120 
  483000   0.50062287   -9.0190446    48.715531 0.0084050261 0.0070263566           71 
  484000   0.49127495   -9.0310774    48.739736 0.0083918279 0.0070020693           98 
  485000   0.51666453   -9.0249277    48.781206 0.0083816504 0.0069779237           73 
  486000   0.49523318   -9.0275085    48.711005 0.0083523672 0.0069538246           75 
  487000   0.49218703   -9.0169091    48.724321  0.008337495 0.0069298316          103 
  488000   0.48125995   -9.0197327    48.685211 0.0083137313 0.0069059534           99 
  489000   0.48474465   -9.0376414     48.79769 0.0083158982 0.0068822069          118 
  490000   0.48220487   -9.0429459    48.726634 0.0082868424 0.0068585729          116 
  491000   0.47919571    -9.041859    48.777241 0.0082785541 0.0068350647          104 
  492000   0.48529372   -9.0537258    48.713804 0.0082509831 0.0068116679          118 
  493000   0.47931602    -9.045666    48.707395 0.0082331634 0.0067883286          197 
  494000   0.48563249    -9.041654    48.686579 0.0082129857 0.0067650611           99 
  495000   0.46422192   -9.0445755    48.687967 0.0081966274 0.0067419423           96 
  496000   0.48701862   -9.0675308    48.681517 0.0081790183 0.0067189116           98 
  497000   0.47406217   -9.0699064    48.715362 0.0081682364 0.0066959576          120 
  498000   0.48013061   -9.0540121    48.634549 0.0081383114 0.0066731515          181 
  499000   0.46171599    -9.052906    48.650865  0.008124727 0.0066503976           90 
  500000   0.46109465   -9.0594864    48.618828 0.0081031381 0.0066277638           97 
  501000   0.47000246   -9.0737928    48.749153 0.0081086416  0.006605267           71 
  502000    0.4649021   -9.0750801    48.671507 0.0080795994 0.0065828611           83 
  503000   0.45917554   -9.0691388    48.667874 0.0080629348 0.0065605341          131 
  504000   0.46096447    -9.066925    48.635545 0.0080415914 0.0065383193          162 
  505000   0.45509144   -9.0646337    48.604909 0.0080206121 0.0065161679          152 
  506000   0.46264137    -9.076358    48.624993 0.0080080686 0.0064941277          146 
  507000   0.45178212    -9.073288    48.632708 0.0079935418 0.0064722099          163 
  508000     0.454579   -9.0828752    48.674701  0.007984695 0.0064503801          134 
  509000   0.45520884   -9.0889995    48.623901 0.0079606911 0.0064286326          130 
  510000   0.45735039   -9.0857637    48.641993  0.007948038 0.0064069885          115 
  511000   0.45132975   -9.0743738    48.619896 0.0079288806 0.0063854245          179 
  512000   0.44423028   -9.0858555    48.593275 0.0079090616 0.0063639636          150 
Loop time of 1272.63 on 48 procs for 500000 steps with 4000 atoms

Performance: 67890.968 tau/day, 392.888 timesteps/s
99.4% CPU use with 48 MPI tasks x no OpenMP threads

MPI task timing breakdown:
Section |  min time  |  avg time  |  max time  |%varavg| %total
---------------------------------------------------------------
Pair    | 90.091     | 95.563     | 102.41     |  29.0 |  7.51
Neigh   | 8.549      | 8.9103     | 9.3332     |   6.8 |  0.70
Comm    | 82.24      | 87.898     | 95.427     |  31.8 |  6.91
Output  | 0.91982    | 0.92077    | 0.9429     |   0.3 |  0.07
Modify  | 1063.2     | 1068.1     | 1070.9     |   5.5 | 83.93
Other   |            | 11.27      |            |       |  0.89

Nlocal:        83.3333 ave          88 max          77 min
Histogram: 2 4 2 3 8 3 8 8 4 6
Nghost:        2318.67 ave        2347 max        2290 min
Histogram: 2 3 1 6 13 10 5 3 3 2
Neighs:        15753.4 ave       17062 max       14065 min
Histogram: 2 1 4 5 7 7 8 4 6 4
FullNghs:      31507.1 ave       33331 max       29278 min
Histogram: 2 5 1 5 7 6 6 9 2 5

Total # of neighbors = 1512340
Ave neighs/atom = 378.08500
Neighbor list builds = 26647
Dangerous builds = 0

#clear
#
#next RN
#
#jump SELF
Total wall time: 0:21:16
