
units lj                  # Use reduced LJ style units
atom_style atomic         # Uncharged point particles
atom_modify map hash      # Needed for indexing of clusters etc
                          # Used to be able to find where atoms are in relation to each other.

lattice fcc 1.0 spacing 1 1 1
Lattice spacing in x,y,z = 1.5874011 1.5874011 1.5874011
region box block 0 10 0 10 0 10 units lattice
create_box 2 box
Created orthogonal box = (0.0000000 0.0000000 0.0000000) to (15.874011 15.874011 15.874011)
  3 by 4 by 4 MPI processor grid
create_atoms 1 box
Created 4000 atoms
  using lattice units in orthogonal box = (0.0000000 0.0000000 0.0000000) to (15.874011 15.874011 15.874011)
  create_atoms CPU = 0.002 seconds
set type 1 type/fraction 2 0.7 78393
Setting atom values ...
  2825 settings made for type/fraction
mass 1 1.0
mass 2 1.0
pair_style lj/cut  3.5
pair_modify tail  yes
pair_coeff 1  1  1.0  1.0   # Intearaction between 1 and 1 set with epsilon = 1 and sigma = 1
pair_coeff 1  2  1.5  0.8
pair_coeff 2  2  0.5  0.88

write_data data.0
System init for write_data ...
Neighbor list info ...
  update every 1 steps, delay 10 steps, check yes
  max neighbors/atom: 2000, page size: 100000
  master list distance cutoff = 3.8
  ghost atom cutoff = 3.8
  binsize = 1.9, bins = 9 9 9
  1 neighbor lists, perpetual/occasional/extra = 1 0 0
  (1) pair lj/cut, perpetual
      attributes: half, newton on
      pair build: half/bin/atomonly/newton
      stencil: half/bin/3d
      bin: standard
WARNING: Not all mixed pair coeffs generated from mixing. Use write_data with 'pair ij' option to store all pair coeffs. (../write_data.cpp:312)


#############################
#   M E L T   S Y S T E M   #
#############################

velocity all create 2.4 9622624 mom yes dist gaussian # Assign velocities
                                                    # Temperature 2.4, random number seed, zero linear momentum
                                                                                # Gaussian distribution

timestep 0.002   # simulation timestep
thermo 1000       # output thermodynamic data every 1000 steps bf 100

# Define a fix  in this case with index 1 applied to all
# particles in the simulation. This fix is for simulations
# in the anisotropic NPT ensemble. Note that we use the MTK
# correction.
fix 1 all npt temp 2.4 2.4 0.1 iso 5.68 5.68 0.5 mtk yes tchain 5 pchain 5 # Use NPT ensemble
                                                                         # Set temperature and pressure and damping
                                                                         # Numbers of thermostats in chain and in barostat
run 10000          # run for 10000 steps
Per MPI rank memory allocation (min/avg/max) = 3.642 | 3.644 | 3.648 Mbytes
Step Temp E_pair E_mol TotEng Press Volume 
       0          2.4   -4.1690742            0  -0.56997417    -3.744831         4000 
    1000    2.4204485   -3.8301959            0  -0.20043075    5.5228664    3648.6129 
    2000    2.4225994   -3.7750234            0  -0.14203269    5.3576144    3697.1208 
    3000    2.4224941   -3.8153734            0  -0.18254068     5.709879    3642.3968 
    4000    2.3677129   -3.7624949            0  -0.21181352    5.6309181    3671.2335 
    5000    2.4427859   -3.7648363            0  -0.10157351    5.5861952    3680.2529 
    6000    2.4125363   -3.7716655            0  -0.15376582    5.6403546    3673.2469 
    7000    2.4495984    -3.848077            0  -0.17459806    5.5706449    3640.7101 
    8000    2.3971227   -3.8007125            0   -0.2059273     5.593194    3646.7265 
    9000    2.4005382    -3.739488            0   -0.1395809    5.7741664    3678.1797 
   10000    2.3759286   -3.8345221            0  -0.27152011    5.3820878    3659.8547 
Loop time of 2.65004 on 48 procs for 10000 steps with 4000 atoms

Performance: 652066.855 tau/day, 3773.535 timesteps/s
99.6% CPU use with 48 MPI tasks x no OpenMP threads

MPI task timing breakdown:
Section |  min time  |  avg time  |  max time  |%varavg| %total
---------------------------------------------------------------
Pair    | 1.2208     | 1.2729     | 1.3228     |   2.2 | 48.03
Neigh   | 0.21924    | 0.22477    | 0.2341     |   0.6 |  8.48
Comm    | 0.83597    | 0.89266    | 0.94629    |   2.8 | 33.68
Output  | 0.00025464 | 0.00025957 | 0.00032135 |   0.0 |  0.01
Modify  | 0.22134    | 0.24368    | 0.26728    |   2.4 |  9.20
Other   |            | 0.0158     |            |       |  0.60

Nlocal:        83.3333 ave          93 max          73 min
Histogram: 2 1 2 6 8 14 4 4 3 4
Nghost:        1739.77 ave        1766 max        1713 min
Histogram: 3 5 7 3 4 8 4 7 5 2
Neighs:        10417.7 ave       12084 max        8812 min
Histogram: 2 2 2 7 14 12 1 3 1 4

Total # of neighbors = 500051
Ave neighs/atom = 125.01275
Neighbor list builds = 905
Dangerous builds = 214

# Equilibrate just above the melting temperature to avoid step fn in T

fix 1 all npt temp 1.25 1.25 0.1 iso 5.68 5.68 0.5 mtk yes tchain 5 pchain 5
run 2000
Per MPI rank memory allocation (min/avg/max) = 3.644 | 3.646 | 3.650 Mbytes
Step Temp E_pair E_mol TotEng Press Volume 
   10000    2.3759286   -3.8345221            0  -0.27152011    5.3820878    3659.8547 
   11000    1.2489843   -5.6103508            0   -3.7373427    5.5231782    2790.2761 
   12000    1.2340831   -5.6135525            0   -3.7628906    5.6433879    2780.9271 
Loop time of 0.666591 on 48 procs for 2000 steps with 4000 atoms

Performance: 518458.624 tau/day, 3000.339 timesteps/s
99.7% CPU use with 48 MPI tasks x no OpenMP threads

MPI task timing breakdown:
Section |  min time  |  avg time  |  max time  |%varavg| %total
---------------------------------------------------------------
Pair    | 0.31226    | 0.32959    | 0.35516    |   1.8 | 49.44
Neigh   | 0.042472   | 0.044916   | 0.047471   |   0.6 |  6.74
Comm    | 0.21141    | 0.24135    | 0.26126    |   2.4 | 36.21
Output  | 5.4401e-05 | 5.6458e-05 | 7.3333e-05 |   0.0 |  0.01
Modify  | 0.042281   | 0.045672   | 0.04859    |   0.9 |  6.85
Other   |            | 0.005006   |            |       |  0.75

Nlocal:        83.3333 ave          88 max          77 min
Histogram: 2 1 5 4 6 7 5 8 5 5
Nghost:        2104.65 ave        2124 max        2079 min
Histogram: 1 2 6 3 7 8 5 5 7 4
Neighs:        13725.1 ave       15245 max       12386 min
Histogram: 4 3 7 3 9 7 8 1 3 3

Total # of neighbors = 658805
Ave neighs/atom = 164.70125
Neighbor list builds = 144
Dangerous builds = 11

#############################
# L I N E A R  Q U E N C H  #
#############################

# Define solid atoms. This closely follows ten Wolde  Ruiz-Montero and Frenkel  Faraday Discuss  1996  104  93-110
# Compute components of the per-atom q6 vector
compute q6 all orientorder/atom degrees 1 6 components 6 nnn NULL cutoff 1.3 # compute the Q6 parameter.
                                                                             # Use all neighbours within 1.3 unit cell.

# get number of connections
compute coord_number all coord/atom orientorder q6 0.5

# An atom is solid if it has 8 or more connections (of a possible 14)
variable is_solid atom c_coord_number>=8
group solid dynamic all var is_solid    # Must be dynamic to update
dynamic group solid defined

# do clustering
compute cluster solid cluster/atom 1.3 # Create a cluster where all atoms within are solid and max 1.3 units from another member

# define chunks one chunk per cluster
compute clus_chunks solid chunk/atom c_cluster nchunk every compress yes  # Says which atoms are in which chunk

# count the size of each chunk
compute size_chunks solid property/chunk clus_chunks count


# Find the maximum entry in the vector of chunk sizes
variable max_n equal max(c_size_chunks)


# Thermo style which includes this variable
# thermo_style custom step temp pe vol v_max_n

thermo ${N}  # Print the thermo information every 100 steps
thermo 1000  

# Reset the npt fix at a lower temperature (below freezing)
fix 1  all npt temp  ${temp} ${temp}  0.1  iso  5.68  5.68  0.5  mtk yes tchain  5  pchain  5
fix 1  all npt temp  0.45 ${temp}  0.1  iso  5.68  5.68  0.5  mtk yes tchain  5  pchain  5
fix 1  all npt temp  0.45 0.45  0.1  iso  5.68  5.68  0.5  mtk yes tchain  5  pchain  5

dump dmp2 all dcd ${N} traj.dcd
dump dmp2 all dcd 1000 traj.dcd


compute msd all msd com yes
variable twopoint equal c_msd[4]/6/(step*dt+1.0e-6)
fix 9 all vector 10 c_msd[4]
variable fit equal slope(f_9)/6/(10*dt)
thermo_style custom step temp pe c_msd[4] v_twopoint v_fit v_max_n

fix 1 all npt temp 1.25 ${temp} 0.1 iso 5.68 5.68 0.5 mtk yes tchain 5 pchain 5
fix 1 all npt temp 1.25 0.45 0.1 iso 5.68 5.68 0.5 mtk yes tchain 5 pchain 5
run 5000000 # 5000000  # Run for this many steps
Neighbor list info ...
  update every 1 steps, delay 10 steps, check yes
  max neighbors/atom: 2000, page size: 100000
  master list distance cutoff = 3.8
  ghost atom cutoff = 3.8
  binsize = 1.9, bins = 8 8 8
  4 neighbor lists, perpetual/occasional/extra = 1 3 0
  (1) pair lj/cut, perpetual
      attributes: half, newton on
      pair build: half/bin/atomonly/newton
      stencil: half/bin/3d
      bin: standard
  (2) compute orientorder/atom, occasional
      attributes: full, newton on
      pair build: full/bin/atomonly
      stencil: full/bin/3d
      bin: standard
  (3) compute coord/atom, occasional
      attributes: full, newton on
      pair build: full/bin/atomonly
      stencil: full/bin/3d
      bin: standard
  (4) compute cluster/atom, occasional
      attributes: full, newton on
      pair build: full/bin/atomonly
      stencil: full/bin/3d
      bin: standard
Per MPI rank memory allocation (min/avg/max) = 9.845 | 9.850 | 9.853 Mbytes
Step Temp PotEng c_msd[4] v_twopoint v_fit v_max_n 
   12000    1.2340831   -5.6135525 7.0656299e-30 4.9066872e-32 8.3333333e+20            2 
   13000    1.2378208   -5.6175312   0.63629359 0.0040788049  0.052743529            3 
   14000    1.2211741    -5.605931    1.2620408 0.0075121471  0.052617448            3 
   15000    1.2343222   -5.6235354    1.8705756  0.010392086  0.052063479            2 
   16000    1.2415384   -5.6235439     2.464668  0.012836812  0.051473801            1 
   17000    1.2448652   -5.6471725    2.9504202  0.014462844  0.049968867            4 
   18000    1.2529019   -5.6417222    3.5948049  0.016642615  0.049156577            2 
   19000    1.2252792   -5.6330813     4.222144  0.018518175  0.049211327            6 
   20000    1.2160005   -5.6904316    4.8826685  0.020344451  0.049674094            2 
   21000    1.2402102   -5.6435082    5.5233631  0.021918107  0.050341667            2 
   22000    1.2715951   -5.6122093    6.1447598  0.023275605  0.050661069            2 
   23000    1.2494701   -5.6040907    6.7231081  0.024359087  0.050757896            8 
   24000    1.2384851   -5.6071406    7.2997966  0.025346516  0.050688994            3 
   25000    1.2272911   -5.6265039    7.9079387  0.026359795  0.050643792            2 
   26000    1.2578073   -5.6154022    8.5619773  0.027442234   0.05072707            3 
   27000    1.2316241   -5.6764993    9.0403869  0.027902428  0.050622301            3 
   28000    1.2282942   -5.6876486    9.7132802  0.028908571  0.050570216            2 
   29000    1.2440737    -5.625809    10.387581   0.02984937  0.050653046            3 
   30000    1.2242498   -5.6562505    11.019426  0.030609516  0.050715766            2 
   31000    1.2342051   -5.6299328     11.75702  0.031604893  0.050901625            4 
   32000    1.2534995   -5.6125679    12.416206  0.032333868  0.051105429            2 
   33000    1.2498456   -5.6027674     13.01585  0.032868307  0.051245889            3 
   34000    1.2594239   -5.6386269    13.499186  0.033086239  0.051365618            5 
   35000    1.2416028    -5.627951    14.018965  0.033378489  0.051262486            2 
   36000     1.243536   -5.6374443    14.630514  0.033866931  0.051189249            2 
   37000    1.2344231   -5.6042142    15.294761  0.034447659  0.051130304            2 
   38000    1.2406331   -5.6050295    15.929328  0.034932735  0.051067273            3 
   39000    1.2440565    -5.639858       16.432  0.035111111  0.051017067            1 
   40000    1.2304071   -5.6122778    17.072212  0.035567108  0.051029094            4 
   41000    1.2501851    -5.648752    17.597527  0.035767331  0.050969915            1 
   42000    1.2511382   -5.6454754    18.234649  0.036179858  0.050909143            2 
   43000    1.2545876   -5.6370236    18.957044  0.036738457  0.050886553            3 
   44000    1.2164323    -5.620884    19.603746  0.037128307  0.050886469            1 
   45000    1.2355899   -5.6800084    20.064275  0.037156065  0.050878648            5 
   46000    1.2359905   -5.6665178    20.680865  0.037465334  0.050864249            2 
   47000    1.2729432   -5.6661289    21.512046  0.038141925  0.050863325            3 
   48000    1.2440799   -5.6271307    22.298658  0.038712948  0.050932777            2 
   49000    1.2499354   -5.6464171    22.764719  0.038715509  0.051011393            1 
   50000    1.2309395   -5.6945541    23.339767  0.038899612  0.051052947            2 
   51000    1.2408763   -5.6378717    24.184147  0.039516579  0.051120426            4 
   52000     1.238204   -5.6345811    24.927152  0.039947358  0.051218672            2 
   53000    1.2495688   -5.6398835    25.347506  0.039854568  0.051285675            1 
   54000    1.2507936   -5.6077325    25.818527  0.039843406  0.051315441            4 
   55000    1.2440056   -5.6034846    26.433436  0.040050661  0.051312148            1 
   56000    1.2691023   -5.6632023    27.010368     0.040194  0.051301048            2 
   57000    1.2575764   -5.6842518    27.368859  0.040012952   0.05127582            2 
   58000     1.235971   -5.6208814     28.20725  0.040527657   0.05122838            3 
   59000    1.2337376   -5.6812611    28.568298  0.040350702  0.051183839            4 
   60000    1.2381012   -5.6542107    29.033431  0.040324209  0.051119632            4 
   61000    1.2459533   -5.6459003    29.507875  0.040311304  0.051021383            4 
   62000    1.2581748   -5.6266784    29.912522  0.040205003  0.050896413            1 
   63000    1.2344645    -5.601009    30.669214  0.040567742  0.050784265            2 
   64000    1.2487596   -5.6331643    31.196883  0.040620941  0.050694956            5 
   65000    1.2341458   -5.6395896    31.787905  0.040753724  0.050609856            3 
   66000    1.2252629   -5.6625062    32.282739  0.040761034  0.050526684            7 
   67000    1.2454741   -5.6311872    33.129873   0.04120631  0.050466723            7 
   68000    1.2392402   -5.6360072    33.605866  0.041183659  0.050413853            5 
   69000    1.2477551   -5.6511519    34.079042  0.041158263  0.050348557            2 
   70000    1.2355399   -5.6257754    35.025243  0.041696717  0.050296644            2 
   71000    1.2533518   -5.6661218    35.272531  0.041399684  0.050261758            4 
   72000    1.2333281   -5.6142296    36.336908  0.042056606  0.050239116            3 
   73000    1.2534574   -5.6592806    37.045042   0.04228886  0.050251174            2 
   74000     1.213469   -5.6548278    37.827323  0.042598337  0.050280964            2 
   75000    1.2442091   -5.6295588    38.285264  0.042539182  0.050311424            4 
   76000    1.2042809    -5.668899    38.949843  0.042708161  0.050328388            2 
   77000    1.2482865    -5.694376    39.654912  0.042916571  0.050354467            1 
   78000    1.2520871   -5.6445989    40.320905   0.04307789  0.050384144            2 
   79000    1.2429276    -5.628536    40.770781  0.043007153  0.050414211            2 
   80000    1.2398601   -5.6649476    41.248118   0.04296679  0.050423876            2 
   81000    1.2277409   -5.6796363    41.749387  0.042952044  0.050418674            2 
   82000      1.24396     -5.61634     42.64392  0.043337317  0.050418043            3 
   83000    1.2627501   -5.6956889    42.718655  0.042890215  0.050406454            2 
   84000    1.2448931   -5.6562062    43.564279  0.043218531  0.050391997            2 
   85000    1.2441753   -5.6296361    44.122388  0.043257243  0.050388385            2 
   86000    1.2476065   -5.6013249    44.808037   0.04341864  0.050375543            2 
   87000    1.2251975   -5.6425289    45.530757  0.043611836  0.050365895            1 
   88000    1.2483557   -5.6685592    46.060501  0.043617899  0.050369903            3 
   89000    1.2261154   -5.6574022    46.578876   0.04361318  0.050374976            2 
   90000    1.2489808   -5.6885747    47.052819  0.043567425  0.050369493            4 
   91000    1.2601776    -5.636089    47.937894   0.04389917  0.050369921            3 
   92000    1.2225966   -5.6920342     48.22964  0.043686268  0.050365587            2 
   93000     1.211917   -5.6489515     49.05656  0.043957491   0.05036322            1 
   94000    1.2396166   -5.6851436    49.455337  0.043843384  0.050349394            2 
   95000    1.2401806   -5.6372995    50.129733   0.04397345  0.050336728            2 
   96000    1.2544109   -5.5843615    50.924045    0.0442049  0.050328803            8 
   97000    1.2521859   -5.6244835     51.40257  0.044160283  0.050323759            3 
   98000    1.2309434   -5.6418887    51.732433  0.043990164  0.050310789            1 
   99000    1.2680429   -5.6325517    52.033418  0.043799173  0.050281909            3 
  100000    1.2226024   -5.6869433    52.365569  0.043637974  0.050233404            5 
  101000    1.2329688   -5.6760725    52.995758  0.043725872  0.050184226            2 
  102000    1.2030936   -5.6612802    53.661031  0.043840711  0.050137665            3 
  103000    1.2608975   -5.6609434    54.130145  0.043794616   0.05009736            2 
  104000    1.2359665   -5.6930156    54.399159   0.04358907  0.050051949            3 
  105000    1.2069864   -5.6723516    55.170681  0.043786254  0.050002146            1 
  106000    1.2710781   -5.6346455    55.747496  0.043826648  0.049956149            1 
  107000    1.2378975   -5.6512942    56.177132   0.04375166  0.049907408            2 
  108000    1.2586191   -5.6377496    56.759732   0.04379609  0.049852608            3 
  109000    1.2145533   -5.6769874    57.447639  0.043920213  0.049810417            2 
  110000    1.2326931   -5.6689304    57.868383  0.043839684  0.049768221            2 
  111000    1.2454579   -5.6634666     58.50714  0.043924279  0.049720554            2 
  112000    1.2327135   -5.6528009    58.974394  0.043879757  0.049668155            1 
  113000    1.2674781   -5.6351811    59.429824  0.043827304   0.04961785            3 
  114000    1.2533714   -5.6280974    60.355873   0.04411979   0.04956859            5 
  115000    1.2454718   -5.6833648    60.593948  0.043908658  0.049520079            1 
  116000    1.2281896   -5.6087703    61.552818  0.044218978  0.049479367            3 
  117000    1.2108311   -5.6373131    62.221618  0.044317392  0.049444012            1 
  118000    1.2192283   -5.6470287    62.868302  0.044398518  0.049415722            2 
  119000    1.2249282   -5.6251859    63.556461  0.044507326  0.049396096            4 
  120000    1.2585777   -5.7147792    63.690249  0.044229339  0.049380108            2 
  121000    1.2145829   -5.6509127    64.601531  0.044491412  0.049359105            3 
  122000    1.2284026   -5.6565963    65.446813  0.044704107   0.04934893            2 
  123000    1.2253063   -5.6429051    65.897809  0.044646212  0.049337433            5 
  124000    1.2261748   -5.6625085    66.634259  0.044781088  0.049329401            6 
  125000    1.2330594   -5.6359076    67.102084  0.044734723  0.049309187            2 
  126000    1.1933874   -5.6689876    67.475825  0.044626868  0.049290913            3 
  127000    1.2426569   -5.6598151    67.803927  0.044490765   0.04926613            2 
  128000    1.2493884   -5.6056038    68.578256  0.044647302  0.049243677            3 
  129000    1.2391659   -5.6445632    68.681645  0.044367988  0.049216504            1 
  130000    1.2452728   -5.6873787    69.802279  0.044745051  0.049193562            4 
  131000    1.2390407   -5.6629332    70.506266  0.044851314   0.04917969            1 
  132000     1.231658   -5.6576391    70.953912  0.044794136  0.049170845            3 
  133000    1.2509227    -5.678548    71.442735  0.044763618  0.049158849            2 
  134000    1.2180129   -5.7206317    72.098864  0.044837602  0.049149745            1 
  135000    1.2536794   -5.6486811    73.128054  0.045140774  0.049143343            2 
  136000    1.2339994   -5.6708169    73.301425  0.044915089  0.049136504            1 
  137000     1.231289   -5.6659293     74.08998  0.045066898  0.049126906            5 
  138000    1.2462635   -5.6697082      74.7017  0.045109722   0.04912036            2 
  139000    1.2367599   -5.6572494    75.183276  0.045073906  0.049111677            2 
  140000    1.2196825   -5.6735117    75.565147  0.044979254  0.049098509            3 
  141000    1.2428558   -5.6471945     76.64526  0.045298617  0.049091198            4 
  142000    1.2371318   -5.6636588    77.316259  0.045373392  0.049087272            2 
  143000    1.2092684   -5.6772846    77.486274  0.045155171  0.049081445            8 
  144000    1.2494312    -5.649952    78.233997  0.045274304  0.049074271            2 
  145000    1.2382855   -5.6710902    78.399115  0.045056963  0.049064529            6 
  146000     1.209974   -5.6305415    79.106909  0.045152345  0.049053723            3 
  147000    1.2157161   -5.7214361    79.091285  0.044836329  0.049039134            2 
  148000    1.2441188    -5.657177    80.068587  0.045083664  0.049020534            2 
  149000    1.2116736   -5.6412011    80.484222  0.045013547  0.049004563            2 
  150000    1.2411126   -5.6430615    81.492617  0.045273676  0.048986808            3 
  151000    1.2526286   -5.6859711    81.973698  0.045239348  0.048976719            2 
  152000    1.2302746   -5.7069284    82.661664  0.045318894  0.048967418            2 
  153000    1.2199824   -5.6565463    83.330735   0.04538711  0.048961309            2 
  154000    1.2443605   -5.6323265    83.721019  0.045303581  0.048953798            3 
  155000    1.2225528   -5.6746467    84.356956  0.045353202   0.04894509            3 
  156000    1.2162892    -5.700656    84.959516  0.045384357  0.048941263            2 
  157000    1.2146389   -5.6994592    85.876237  0.045581867  0.048939282            3 
  158000     1.240627    -5.635742    86.635649  0.045693908  0.048940479            4 
  159000    1.2005055   -5.6646394    87.208081  0.045706541  0.048938692            2 
  160000    1.2229598   -5.6271667    87.444858  0.045544197   0.04893553            2 
  161000    1.2375393   -5.6686244    87.485792  0.045282501  0.048925361            2 
  162000    1.2231021   -5.6967695    88.211576  0.045376325  0.048911665            2 
  163000    1.2266024   -5.6831159    88.865386  0.045432201  0.048897652            4 
  164000     1.222684   -5.6676868    89.586293   0.04552149  0.048888862            3 
  165000      1.22251   -5.6896136    90.555852  0.045735279  0.048883857            2 
  166000    1.2463025   -5.6934136    90.951951   0.04565861  0.048881791            6 
  167000    1.2294623   -5.6557053    91.187056  0.045502523  0.048879634            2 
  168000    1.2223129   -5.6342309    92.666067  0.045965311   0.04888016            1 
  169000    1.2205277   -5.6958212    93.133799  0.045923964  0.048881942            3 
  170000    1.2793586    -5.663212    93.718913  0.045940643  0.048884339            3 
  171000    1.2366736   -5.7258582    93.953121  0.045786121  0.048886668            1 
  172000    1.2309458   -5.6978234     94.73986  0.045901095  0.048892117            2 
  173000    1.1995987   -5.7074802    95.219149  0.045866642  0.048898729            2 
  174000     1.237569     -5.67341    95.866026  0.045912848  0.048901838            5 
  175000     1.243359   -5.6781412    96.286693  0.045850806  0.048904095            1 
  176000    1.2327207   -5.6574196    96.699681  0.045785834  0.048899503            2 
  177000    1.2472853   -5.6789586    97.803155  0.046046683  0.048894075            2 
  178000    1.2156078   -5.6836258    98.158449   0.04595433  0.048892416            3 
  179000    1.2169474   -5.6959485    98.375104  0.045798465  0.048890522            7 
  180000      1.23837   -5.6394665     99.82341  0.046214541  0.048887783            4 
  181000    1.2383883   -5.6181351    100.22542    0.0461443  0.048888811            2 
  182000    1.2446113   -5.7337033    100.70989  0.046112586  0.048891466            2 
  183000    1.1969976    -5.657476    101.57377  0.046253993  0.048895285            3 
  184000    1.2261803   -5.6898728    101.47542  0.045958071   0.04889576            4 
  185000    1.1811835   -5.6700208    102.56599  0.046200897  0.048896268            2 
  186000    1.2171031   -5.6513793    103.01872  0.046155341   0.04890237            4 
  187000    1.2285002   -5.6495986    103.25371  0.046013241  0.048901865            3 
  188000    1.2527285    -5.706477    103.81875  0.046018949  0.048898712            2 
  189000    1.2109202   -5.6992884    104.11214  0.045904822  0.048892107            1 
  190000    1.2276202   -5.6668116    104.42751  0.045801541  0.048883262            1 
  191000    1.2176368   -5.7031657    105.15348  0.045878481  0.048873293            3 
  192000    1.2535668   -5.6910553    105.60216  0.045834269  0.048863921            2 
  193000     1.220991   -5.6658111    105.97116  0.045756114  0.048856202            2 
  194000    1.2062026   -5.6826162    106.48403  0.045740564  0.048847511            2 
  195000    1.2277421   -5.7002305    106.97796  0.045717079  0.048835337            2 
  196000    1.1999278   -5.7197786    107.38011  0.045654807  0.048820445            2 
  197000    1.1955584   -5.7008142    107.77223  0.045588929  0.048803037            3 
  198000    1.2362254   -5.6265346    108.73993  0.045765962  0.048786147            2 
  199000    1.1952509    -5.655071    109.57657  0.045886335  0.048772033            2 
  200000    1.2129826   -5.6782637    110.01667  0.045840277  0.048758635            3 
  201000    1.2218473   -5.7055969    110.20345  0.045689655  0.048744343            3 
  202000    1.2033134    -5.682699     110.3784  0.045535642   0.04872508            2 
  203000    1.2134157    -5.732905      110.998   0.04556568  0.048707751            2 
  204000    1.2369307   -5.6762866    112.21167  0.045838102  0.048687569            3 
  205000    1.1929397    -5.697397    112.96898   0.04592235  0.048671359            1 
  206000    1.2103734   -5.7059495    112.72282  0.045599845  0.048656816            6 
  207000     1.245625   -5.6757883    114.08999  0.045929948  0.048642657            2 
  208000    1.2118377   -5.7281842    113.91909  0.045640661  0.048627544            3 
  209000    1.1982132   -5.6803421    115.05598  0.045875591  0.048613161            2 
  210000    1.2257828   -5.7231808    115.02051  0.045643059  0.048598892            4 
  211000    1.2449074   -5.7140911    115.99947  0.045813376   0.04858384            2 
  212000    1.2162817   -5.6789287    116.80737  0.045914848  0.048569202            3 
  213000    1.2029748   -5.7022259    117.06403    0.0457997  0.048557736            1 
  214000    1.1999473   -5.6913091      117.949  0.045930296  0.048542967            1 
  215000    1.1842207   -5.7205755    117.82687  0.045669329  0.048528366            2 
  216000    1.2117224   -5.6733082     118.8462  0.045851157  0.048513986            1 
  217000    1.1870097   -5.7251527    119.04679  0.045716894  0.048502685            2 
  218000    1.1941938   -5.6849252    120.40642  0.046026919  0.048494104            1 
  219000    1.2365368   -5.6349969    120.74741  0.045946503  0.048488964            3 
  220000    1.2290329     -5.70347    121.11699  0.045877649  0.048481723            2 
  221000    1.2037547   -5.7269849     121.8342  0.045940498  0.048473131            3 
  222000    1.2330164   -5.7161807    122.25872  0.045892913  0.048465412            5 
  223000       1.2001   -5.7200334    123.23747  0.046052866  0.048456915            4 
  224000    1.2345682   -5.7052886    123.44487   0.04592443  0.048448817            3 
  225000    1.2216387   -5.7294248     123.3474  0.045684221  0.048438723            1 
  226000    1.1833434   -5.7116114    124.20818  0.045799477   0.04842615            4 
  227000    1.1987024   -5.7144332    124.69718  0.045777232  0.048410676            2 
  228000    1.2150982   -5.6719138    125.95247   0.04603526  0.048398391            1 
  229000    1.2345139   -5.6953263    125.67538  0.045733398  0.048387078            7 
  230000    1.1997175   -5.7783728    125.88728  0.045611333   0.04837283            3 
  231000    1.2203081   -5.7183362     126.6356  0.045683838  0.048360311            4 
  232000     1.247823   -5.6639097    128.43124  0.046131912  0.048348228            1 
  233000    1.2186986   -5.7074565     128.7315  0.046041307  0.048338334            2 
  234000    1.2075586   -5.7168974    128.86444  0.045891895  0.048327422            2 
  235000    1.2352391   -5.6652944    129.66591  0.045980818  0.048319249            2 
  236000    1.2097091   -5.6444549    130.54991  0.046098131  0.048310707            3 
  237000    1.2218423   -5.6791883    130.86966  0.046016054  0.048305604            2 
  238000    1.2086439   -5.6966939    131.06254  0.045890243  0.048299051            2 
  239000    1.2231744   -5.7234111    131.87868  0.045982803  0.048290425            3 
  240000    1.2094467   -5.7415993    131.98854  0.045829353  0.048280087            5 
  241000    1.2202304   -5.7125277    132.89651  0.045953148  0.048270389            3 
  242000     1.210874   -5.6925253    133.80146  0.046074884  0.048261311            2 
  243000    1.2100394    -5.704928    133.89789  0.045918343  0.048251783            2 
  244000    1.2162993   -5.6799362     134.7402  0.046017828  0.048243474            2 
  245000    1.2335664     -5.71619    134.59632  0.045781061  0.048234299            5 
  246000    1.2223772   -5.7108103    135.62883  0.045944725  0.048224669            1 
  247000    1.2195339   -5.6850588    136.31733  0.045991001  0.048213184            2 
  248000    1.1995899   -5.7238616    137.15732  0.046087808  0.048203958            4 
  249000    1.1774681   -5.6779533    137.84581  0.046133135  0.048195277            2 
  250000    1.2179146   -5.7018023    138.79902  0.046266341  0.048187792            4 
  251000    1.2038305   -5.7034896    138.95168  0.046132695  0.048184123            3 
  252000    1.1816992   -5.6528851    140.36905  0.046418335  0.048181252            1 
  253000     1.183239   -5.7101073     140.4177   0.04625089  0.048177894            1 
  254000    1.2183649   -5.7387136    140.40513  0.046064674  0.048176258            5 
  255000    1.2342756   -5.7239538     141.4678  0.046231307  0.048175867            1 
  256000    1.2278028   -5.7030397    142.10442  0.046257948  0.048174344            1 
  257000    1.2348327   -5.7379464    142.25261   0.04612601  0.048170997            2 
  258000     1.218201   -5.6999784     143.4361  0.046329489   0.04816834            2 
  259000    1.2089604   -5.6866262    143.81989  0.046274095  0.048166231            2 
  260000    1.2233091   -5.7170299    143.95135  0.046138254  0.048162271            2 
  261000    1.2080802    -5.664324    145.08178  0.046322407  0.048157204            3 
  262000    1.2216326   -5.7060218    145.42096  0.046253484  0.048151929            2 
  263000    1.2092847   -5.6782506    146.19259  0.046322114  0.048146895            6 
  264000    1.2153854   -5.6956604    146.72115  0.046313495  0.048142507            2 
  265000    1.2081013    -5.685039    146.53636  0.046080615  0.048135924            2 
  266000    1.2353224   -5.6947439    147.57899  0.046234021  0.048132496            1 
  267000    1.2032012   -5.7169283    147.80675  0.046131944  0.048126352            3 
  268000    1.2214315    -5.720487    148.60415  0.046207758  0.048121204            3 
  269000    1.2182472    -5.699891    149.47633  0.046306174  0.048115335            3 
  270000    1.1977203   -5.7311408    149.43497  0.046121903   0.04811054            2 
  271000    1.1898074   -5.6617802    150.27465  0.046209918  0.048106032            4 
  272000    1.2094849   -5.6576312    151.61715  0.046451332  0.048100032            1 
  273000    1.2123807   -5.7007676      151.304  0.046185593  0.048095489            2 
  274000    1.2015206   -5.6776207     151.5317  0.046086283   0.04809097            4 
  275000    1.2128351    -5.734231     152.5268  0.046220242  0.048086354            3 
  276000    1.2162943   -5.6982012     153.6253   0.04638445  0.048082722            2 
  277000    1.2126074    -5.710901     153.8625  0.046288357  0.048078185            1 
  278000     1.221098   -5.7125882    154.22082  0.046229263  0.048071748            2 
  279000    1.1893393   -5.6980354    154.46458  0.046136373  0.048065422            2 
  280000    1.1938951   -5.7327983    155.44554  0.046263554  0.048058837            2 
  281000    1.1847346   -5.7075515    155.04181  0.045979184  0.048050104            3 
  282000    1.2060188   -5.6976237    155.25926  0.045880397  0.048040278            3 
  283000    1.1974969   -5.6939543    157.06199  0.046249112  0.048032712            3 
  284000    1.2207086    -5.736813    156.83088   0.04601845  0.048024784            1 
  285000    1.2242376   -5.7235688    157.64019  0.046093621  0.048016468            2 
  286000    1.2036382   -5.7594391    158.14551  0.046079693  0.048010272            2 
  287000    1.1740533    -5.681014    159.67174  0.046362293  0.048006393            6 
  288000    1.1694161   -5.6947962    161.08282  0.046609612  0.048005131            2 
  289000    1.2198623   -5.7201394    160.87553  0.046388561  0.048004261            2 
  290000    1.1843524   -5.7090322    161.84552  0.046507333  0.048002583            3 
  291000     1.238124    -5.693243    162.16709  0.046439601  0.048000723            3 
  292000    1.1861292   -5.7275854    162.81934  0.046466707  0.047999659            5 
  293000    1.2236861   -5.7116951    163.46006  0.046490347  0.047998167            2 
  294000      1.19041   -5.7481558    162.93505  0.046183404   0.04799391            4 
  295000    1.2295787   -5.7104676    164.21948  0.046389684  0.047989598            3 
  296000     1.182803   -5.7088981    164.57066  0.046331829  0.047986384            3 
  297000    1.2052622   -5.7773666    164.31458  0.046103977  0.047980761            2 
  298000    1.1898344   -5.7289802    165.13792  0.046179509  0.047974236            9 
  299000    1.1936827   -5.7007016    165.04444  0.045999007  0.047968182            3 
  300000    1.1699339   -5.6875942    165.98601  0.046107224  0.047959056            2 
  301000     1.179746   -5.7505791    166.03624   0.04596795  0.047950872            2 
  302000    1.2232823   -5.6896414    166.06466  0.045823581  0.047939868            3 
  303000    1.2130179   -5.7014174    167.62532  0.046101574  0.047927233            2 
  304000    1.2099619   -5.6939238    167.94256  0.046036885  0.047916247            2 
  305000    1.2062352   -5.6922259    167.75247  0.045834008  0.047903839            2 
  306000    1.1869808   -5.7573892    167.73378  0.045679135   0.04789113            2 
  307000    1.2138042   -5.7546112     168.1387  0.045640254  0.047876738            2 
  308000    1.1877775   -5.7614792    168.42374  0.045569193  0.047861749            3 
  309000    1.2205684   -5.7572013    168.46552  0.045432989  0.047845154            4 
  310000    1.2219299   -5.7039602     169.6419  0.045602661  0.047829024            3 
  311000     1.198883    -5.730274    170.98971  0.045817178   0.04781254            2 
  312000    1.1964566   -5.7337588    171.43411  0.045789025   0.04779592            6 
  313000    1.2107739   -5.7287194    170.88142  0.045495586  0.047778489            1 
  314000    1.2460157   -5.7156778    171.05326    0.0453963  0.047760132            4 
  315000    1.2052808   -5.7059553    171.53782  0.045380377  0.047740836            3 
  316000    1.2105197   -5.7085119    172.08514  0.045381101  0.047721596            2 
  317000    1.2047452    -5.705362    173.09051  0.045502237  0.047702333            1 
  318000    1.2091691   -5.7349739    173.02948  0.045343154  0.047683257            1 
  319000    1.2082036   -5.7143427    173.69513  0.045374902  0.047662954            2 
  320000    1.1912335   -5.7548092    174.68919  0.045491976  0.047646345            4 
  321000    1.1949622   -5.7430206    174.58605  0.045323482  0.047628399            5 
  322000    1.2003336   -5.7616807    174.79859  0.045237731  0.047610377            1 
  323000    1.1863686   -5.7585859     175.6561  0.045318911  0.047592505            1 
  324000    1.1853071   -5.7379719    176.76401  0.045463995  0.047575008            2 
  325000     1.215183   -5.7744091    177.49941  0.045512668    0.0475595            2 
  326000    1.1725197    -5.728161    178.03629    0.0455103  0.047543179            1 
  327000     1.215336   -5.7231933    178.25847  0.045427744  0.047524734            3 
  328000    1.1952446   -5.7445743    178.76941  0.045419058  0.047506731            1 
  329000    1.2212257   -5.7325844    178.96713  0.045331087  0.047488213            2 
  330000    1.2048614   -5.7055775     180.2744  0.045523839  0.047470589            3 
  331000    1.2137065   -5.7731199    180.68383  0.045489384  0.047454896            2 
  332000    1.2023132    -5.729662    181.63185  0.045590324  0.047440304            2 
  333000    1.1847009   -5.7551955    182.19943  0.045595452  0.047427466            4 
  334000    1.1807022   -5.7329888    183.00457  0.045659824  0.047413345            2 
  335000    1.2030752   -5.7279428    183.04648  0.045533951       0.0474            4 
  336000    1.2025316    -5.734235     182.8926  0.045360267  0.047387321            2 
  337000    1.2058194     -5.73913     183.9452  0.045485954  0.047374013            2 
  338000    1.1903341   -5.7229924    185.78313   0.04580452  0.047360294            3 
  339000    1.1969482   -5.7528876    185.61265  0.045627495  0.047347592            1 
  340000    1.1921263   -5.7322198    186.70078  0.045759996  0.047336538            2 
  341000    1.2071702   -5.7250498     186.5647  0.045592547  0.047325883            2 
  342000    1.1441495   -5.6861534     187.8224  0.045765692  0.047317347            2 
  343000    1.2176409     -5.72871    188.21241  0.045727018  0.047306459            3 
  344000    1.2135082   -5.7159714    188.69641  0.045711339   0.04729513            3 
  345000    1.1886603   -5.7422042    188.34456  0.045493856  0.047282547            2 
  346000    1.2076582   -5.7327064    189.58334  0.045660727  0.047270519            2 
  347000    1.2033838   -5.7755361    189.54207   0.04551923  0.047260245            3 
  348000    1.1961437   -5.7528983    190.60552  0.045643085   0.04725011            4 
  349000    1.1998319   -5.7145701     190.7159  0.045538658  0.047239051            1 
  350000    1.1752648   -5.7553558    191.27805  0.045542394  0.047227605            2 
  351000    1.1850596   -5.6897103    192.13532  0.045616173  0.047217199            3 
  352000    1.1770412   -5.7773477    192.91725  0.045671697  0.047207329            5 
  353000    1.2079711   -5.7416037    194.14925  0.045833157  0.047197747            2 
  354000     1.214736   -5.7524473    194.07966  0.045687302  0.047189734            5 
  355000    1.1858315   -5.7078349    195.85831  0.045976128  0.047181919            3 
  356000    1.1905829   -5.7057522    195.28762  0.045713394  0.047174341            2 
  357000    1.1844518   -5.7187008     196.0801   0.04577033  0.047166643            3 
  358000    1.1832087   -5.7075447    196.25125   0.04568232  0.047159181            3 
  359000    1.1980997   -5.7663409     196.7816   0.04567818   0.04715184            2 
  360000    1.1892492   -5.7417169     197.5187  0.045721922  0.047144649            6 
  361000    1.2031177   -5.7671627    197.74293  0.045647029   0.04713706            3 
  362000    1.1869249   -5.7887982    198.19985  0.045626117  0.047129122            4 
  363000    1.2028605     -5.75899    199.43773  0.045784603  0.047122876            6 
  364000    1.2104615   -5.7476738    199.93734  0.045773202  0.047116381            2 
  365000    1.1941496   -5.7002411    201.37169  0.045975272  0.047111028            2 
  366000    1.1935783   -5.7293413    201.50093  0.045879083     0.047105            1 
  367000    1.1798053   -5.7420693    201.33962  0.045717444  0.047098006            3 
  368000    1.2110181   -5.7414748    202.33643  0.045818939   0.04709201            3 
  369000    1.1905041   -5.7471845    202.42058  0.045713772  0.047086113            1 
  370000    1.1964382   -5.7644069    202.46665  0.045600597  0.047078273            3 
  371000    1.1964911   -5.7483401    203.57561  0.045726777  0.047070591            2 
  372000    1.1924112   -5.7204549    203.88512  0.045673191  0.047063016            2 
  373000    1.2027351   -5.7359481    204.45129  0.045677233  0.047054532            1 
  374000    1.2094107   -5.7377395    205.12385  0.045704958  0.047045149            4 
  375000    1.1853916   -5.7355209    205.79651  0.045732559   0.04703794            2 
  376000    1.1775323   -5.7532005    205.65283  0.045579084   0.04702952            1 
  377000    1.1949354   -5.7623272    206.27953  0.045596714  0.047020573            2 
  378000    1.2113103   -5.7257219    207.19394  0.045677677  0.047011559            2 
  379000    1.1899943   -5.7697805    207.89228  0.045710704  0.047002577            3 
  380000    1.1693896     -5.70929    209.48292  0.045939238  0.046994335            2 
  381000    1.1826458   -5.7466772    208.15749   0.04552876  0.046987469            2 
  382000    1.1639939   -5.7595277    209.05888  0.045606213  0.046978426            1 
  383000     1.180988   -5.7232923    209.57605  0.045599662  0.046969799            1 
  384000    1.1823377    -5.757008    210.27542  0.045632687  0.046960605            3 
  385000    1.1874403    -5.764593    210.58534  0.045581242  0.046951365            1 
  386000    1.1873738   -5.7467618    210.88839  0.045528582  0.046943905            4 
  387000    1.1986264   -5.7296497    212.24672  0.045703427  0.046935668            2 
  388000      1.17932     -5.73348    212.30392  0.045597921  0.046927828            3 
  389000     1.181749   -5.7427734    213.32836  0.045700163  0.046921046            2 
  390000    1.1537112   -5.7439716    213.99927  0.045726339  0.046913321            2 
  391000    1.2127476    -5.742717    213.63275  0.045531277  0.046905406            3 
  392000    1.1991438   -5.7756978    214.85921  0.045675853  0.046895584            4 
  393000     1.201682   -5.7503785    214.49637  0.045482692  0.046887749            2 
  394000    1.2093315   -5.7725805    215.29009   0.04553513  0.046880186            2 
  395000    1.1676088   -5.7979178    215.31161   0.04542439  0.046871905            3 
  396000    1.1749998   -5.7371769    216.37752  0.045533989  0.046862225            4 
  397000    1.1741817   -5.7596627    216.12107  0.045365463    0.0468526            3 
  398000    1.1918998   -5.7503612    216.70978  0.045374744  0.046841659            2 
  399000    1.1668637   -5.7816624    217.37741  0.045400461  0.046830905            9 
  400000    1.1908402   -5.7524186    218.37218  0.045494205  0.046819941            2 
  401000    1.1894906   -5.7381173    218.00671  0.045304803   0.04680872            5 
  402000    1.1753617   -5.7711198    218.36819  0.045267037  0.046796936            3 
  403000    1.1671976    -5.727094    219.65187  0.045420155   0.04678454            2 
  404000    1.1872366    -5.738164    219.09724  0.045193325  0.046772246            2 
  405000    1.1793705   -5.7169539    220.54945  0.045380545  0.046760068            5 
  406000    1.2190818   -5.8090766    219.73175  0.045100934    0.0467479            1 
  407000    1.1738816   -5.7557146    221.44023  0.045339932  0.046734267            1 
  408000    1.1965108   -5.8100414    220.32607  0.045001239   0.04672037            1 
  409000    1.2019464   -5.7298286     221.8008  0.045191688  0.046706036            2 
  410000    1.1831293   -5.7734754    221.51932  0.045024253  0.046693026            5 
  411000    1.1655035   -5.7766102    221.70711  0.044952779  0.046678013            2 
  412000    1.1930202   -5.7733149     221.9936  0.044901619  0.046662614            3 
  413000    1.1746202    -5.761476    222.84421  0.044964531  0.046647225            6 
  414000     1.186271   -5.7788471    223.65076  0.045018268  0.046631981            2 
  415000    1.1793359   -5.8156507    222.91319  0.044761685  0.046615883            2 
  416000     1.203062   -5.7661565    224.84694  0.045041454  0.046600982            1 
  417000    1.1789844     -5.77273    225.86546  0.045136982  0.046587101            4 
  418000    1.1755379   -5.8055089    225.04973  0.044866373  0.046573866            3 
  419000    1.1804559   -5.7719602    227.36201  0.045219175  0.046559741            6 
  420000    1.2135945   -5.7396696    228.05925  0.045249851  0.046547355            4 
  421000    1.1749086   -5.7953065    226.77054   0.04488728  0.046534051            2 
  422000    1.1743943   -5.7682962    228.25994  0.045075027  0.046520534            3 
  423000    1.1907506   -5.7000879     229.1332  0.045140505  0.046506837            1 
  424000    1.1426923   -5.7968298    229.07296  0.045022202  0.046492717            3 
  425000     1.201616   -5.7433119    229.45004  0.044990204  0.046478697            2 
  426000    1.1840311   -5.7566331    229.29625   0.04485451  0.046464766            3 
  427000    1.1527457   -5.7698838    229.99556   0.04488594  0.046451285            4 
  428000    1.1790186   -5.7838696    230.37682  0.044855299  0.046437608            3 
  429000    1.1836784   -5.8165676    230.99311  0.044870457  0.046423497            3 
  430000    1.1796108   -5.7848579    231.67088  0.044897458  0.046409334            4 
  431000    1.1649228    -5.759921    231.65313  0.044789854  0.046395101            3 
  432000    1.1685322   -5.7770297    232.50023  0.044849581  0.046380223            2 
  433000    1.1790719   -5.7590227     232.7139  0.044787125   0.04636573            3 
  434000    1.2006823   -5.7444484     233.0913  0.044756394  0.046350819            2 
  435000    1.2115684   -5.7706367    234.09317  0.044845435  0.046334997            2 
  436000    1.1672485   -5.7605436    234.04773  0.044733892  0.046320315            3 
  437000    1.1721517   -5.7683485    235.79009  0.044963785  0.046306267            4 
  438000    1.1924694   -5.7666382    235.06323  0.044722837  0.046292329            2 
  439000    1.1944645   -5.7555188    236.61356  0.044915254  0.046278603            2 
  440000    1.1702165   -5.7298495    237.29334   0.04494192  0.046265658            2 
  441000    1.1723245   -5.7891503    236.38583  0.044668524  0.046252377            5 
  442000    1.2049659   -5.7833147    237.79034  0.044832267  0.046238189            2 
  443000    1.1703256   -5.7934755    237.24996  0.044629412  0.046223661            1 
  444000    1.1938679   -5.7871694     237.6789  0.044609404  0.046209965            6 
  445000    1.1582233     -5.78113    238.72232  0.044704554  0.046195493            1 
  446000    1.1963762   -5.8209034    238.64847  0.044590521  0.046180591            2 
  447000    1.2114509   -5.7679948    240.51928  0.044839538  0.046166567            2 
  448000    1.1739311   -5.7791128     239.8469  0.044614378  0.046150814            4 
  449000    1.1871399   -5.7958352    240.12866  0.044567308  0.046135706            3 
  450000    1.1989601    -5.745069    241.29391  0.044684057  0.046120672            4 
  451000    1.1614651   -5.7503565    242.61083  0.044828314  0.046106889            2 
  452000    1.1964053    -5.759172    241.59052  0.044541025  0.046093157            2 
  453000    1.1983666   -5.7783018    242.39438  0.044590577  0.046078332            1 
  454000    1.1810896   -5.7799802    242.84276  0.044574662  0.046063675            2 
  455000     1.160436   -5.7573104    243.71575  0.044636584  0.046049633            1 
  456000    1.1882279   -5.7829588    244.43891  0.044670854  0.046035773            2 
  457000    1.1355909   -5.7899905    244.24395  0.044537555  0.046021699            2 
  458000    1.1611391   -5.7597867    245.36899  0.044645012  0.046007207            4 
  459000    1.1849974   -5.7573209    245.92364  0.044648446  0.045992843            3 
  460000    1.1751417   -5.8027782    245.93833  0.044554045  0.045979302            3 
  461000    1.1803835   -5.7860017    246.61728  0.044580131  0.045966283            4 
  462000    1.1663036   -5.7787283    247.37044  0.044619488  0.045952584            1 
  463000    1.1794175   -5.7547527    247.96858  0.044630775  0.045938822            6 
  464000    1.1693567   -5.7655775    248.15048  0.044567255  0.045924936            3 
  465000    1.1819642   -5.7912591    247.37995  0.044333325  0.045911365            3 
  466000     1.180688   -5.7927669    249.46735  0.044611471  0.045896414            2 
  467000     1.183968   -5.7498751    249.30287  0.044486593  0.045881915            4 
  468000    1.1720432   -5.7517152    249.13282  0.044361258  0.045867153            2 
  469000    1.1616498   -5.7645146    249.05125  0.044252176  0.045850875            4 
  470000    1.1794052   -5.7596938    250.56882  0.044427096  0.045835465            2 
  471000    1.1908011   -5.7561723    252.09954    0.0446036  0.045820668            1 
  472000    1.1951498   -5.7840374    251.50034  0.044403309   0.04580605            1 
  473000    1.1571037   -5.7758393    251.73938  0.044351546  0.045792687            3 
  474000    1.1514141   -5.7983909    253.03815  0.044486313  0.045778905            2 
  475000     1.165977   -5.7623872    253.85954  0.044536761  0.045765668            3 
  476000     1.176111   -5.7914192    253.35626  0.044355087  0.045751987            2 
  477000    1.1874181    -5.787171    254.28306  0.044424014   0.04573768            3 
  478000    1.1539771   -5.8260102    254.72123  0.044407466   0.04572338            4 
  479000    1.1913837   -5.7470799    255.40257  0.044433293  0.045709626            3 
  480000    1.1684206   -5.7938921    255.74554  0.044400267  0.045696916            4 
  481000    1.1759666   -5.7721378    256.16335  0.044380344  0.045683056            4 
  482000    1.1728207   -5.7988889    255.92928    0.0442478  0.045669026            4 
  483000    1.1850638   -5.7737455    256.75743  0.044299073  0.045654881            2 
  484000    1.1853281    -5.821799    256.04236  0.044084428  0.045639784            4 
  485000      1.15005   -5.8312779    256.19269  0.044019362  0.045623381            4 
  486000    1.1494458   -5.8090224    257.74268   0.04419456  0.045607103            1 
  487000    1.1578993   -5.7813343    258.77998  0.044281311  0.045592188            1 
  488000    1.1541584   -5.8074047    259.17988   0.04425886  0.045577655            2 
  489000    1.1721623   -5.7824273    259.62434  0.044244094  0.045562336            1 
  490000    1.1661744   -5.7833476    259.24717  0.044089654  0.045546258            3 
  491000    1.1837085   -5.8210469    258.94967  0.043949366  0.045529489            4 
  492000    1.1793491   -5.7925118     260.4107  0.044107503   0.04551277            2 
  493000    1.1501605   -5.8188752    259.65463  0.043890235  0.045495565            2 
  494000    1.1784207   -5.7613368    260.63348  0.043966511  0.045478556            3 
  495000    1.1581635   -5.8335594    260.85891  0.043915641   0.04546025            3 
  496000    1.1933384   -5.7886286    262.05849  0.044028644  0.045443399            4 
  497000    1.1560657   -5.8083475    261.97023  0.043925256  0.045426314            1 
  498000    1.1773034   -5.7792283    261.77949  0.043805135  0.045409467            1 
  499000     1.182512   -5.7721426    263.73699  0.044044253  0.045392805            3 
  500000    1.1508671   -5.7798794    264.62133  0.044103556  0.045376236            4 
  501000    1.1826868   -5.8025649    264.96076  0.044071982  0.045360762            3 
  502000    1.1569772   -5.8166159    264.72217  0.043944583  0.045345009            1 
  503000    1.1828684   -5.7872811    265.80347  0.044036361   0.04532887            3 
  504000    1.1695441   -5.7886679    265.38925  0.043880498    0.0453132            3 
  505000    1.1446838   -5.8098752    265.71538  0.043847423  0.045296911            2 
  506000    1.1718533   -5.8125959    266.41617   0.04387618  0.045280026            3 
  507000    1.1621766   -5.7827006    268.73497   0.04417077  0.045264698            4 
  508000    1.1460283   -5.7610965    268.48637  0.044043039  0.045250084            7 
  509000    1.1592192   -5.8141373    267.53171  0.043800214  0.045234781            1 
  510000    1.1469765   -5.7709621    269.45354  0.044028356  0.045219631            2 
  511000    1.1597106   -5.7729769    269.58174  0.043963102  0.045206473            2 
  512000    1.1612771   -5.8159482    269.64744  0.043887929  0.045192042            2 
  513000    1.1829295   -5.8151606    271.18752  0.044052554  0.045178101            3 
  514000    1.1808334   -5.7868305    271.45892  0.044010849  0.045164882            3 
  515000    1.1818974   -5.8055992    272.09487  0.044028296  0.045152218            2 
  516000    1.1925958   -5.7929789    272.81886  0.044059894  0.045139292            2 
  517000    1.1867687   -5.7912712    273.19608  0.044035475  0.045126146            4 
  518000    1.1632748   -5.8035094    274.38847  0.044142289  0.045113402            3 
  519000    1.1825314   -5.7805389    273.90594  0.043979759  0.045099919            3 
  520000    1.1926157   -5.7927416    274.02916   0.04391493  0.045086838            1 
  521000    1.1688212   -5.7796097    275.91256  0.044131888  0.045073154            5 
  522000     1.197374   -5.7987262    274.92672  0.043889962   0.04505981            2 
  523000    1.1848444   -5.8067066     275.4767  0.043893674  0.045046436            2 
  524000    1.1706243   -5.8391899    275.88194  0.043874355  0.045033191            2 
  525000    1.1763332    -5.773023    277.20675  0.044001071  0.045020563            2 
  526000    1.1652235   -5.7723623    277.57763  0.043976177   0.04500902            2 
  527000    1.1595768   -5.7935682    278.14307  0.043982143  0.044996671            4 
  528000    1.1976921   -5.8090845    278.02197   0.04387973   0.04498468            2 
  529000    1.1835459   -5.8237317    278.05403  0.043801833  0.044972089            3 
  530000    1.1556077   -5.8535581    279.10472   0.04388439  0.044959319            4 
  531000    1.1656043    -5.815945    278.80692   0.04375501  0.044946251            2 
  532000    1.1834243   -5.8207245    281.83942  0.044147779  0.044933984            2 
  533000    1.1542844   -5.8161804    281.01881  0.043936649  0.044922008            2 
  534000    1.1629953   -5.7800002    282.40407  0.044070547  0.044910041            4 
  535000    1.1509311   -5.7960613    281.43349  0.043836993  0.044898374            5 
  536000    1.1789852    -5.800432    282.36579  0.043900153  0.044887225            2 
  537000    1.1604283   -5.8647936    281.56463  0.043694077  0.044874737            6 
  538000    1.1558344   -5.8168919    284.25941  0.044030267  0.044862795            4 
  539000    1.1580754   -5.8015884    283.77818  0.043874178  0.044851879            3 
  540000    1.1488794   -5.8113053    284.49909  0.043904181  0.044840121            4 
  541000    1.1848104   -5.7800069    285.37182  0.043957458  0.044828042            1 
  542000    1.1588333   -5.8325154    285.04928  0.043826765  0.044816919            2 
  543000     1.146749   -5.8062118    286.09157  0.043906011  0.044805804            3 
  544000    1.1834391   -5.7708755     286.9125  0.043951057  0.044794648            6 
  545000    1.1576138    -5.786138    287.73694  0.043996473  0.044782234            4 
  546000     1.162845    -5.801977    286.29422  0.043695699  0.044770844            4 
  547000    1.1408213   -5.8414871    286.99847  0.043723106  0.044758991            3 
  548000    1.1400182    -5.788004    288.18642   0.04382397   0.04474711            5 
  549000    1.1645912    -5.815324     288.0477  0.043723088   0.04473616            1 
  550000    1.1436946   -5.7391531    289.29687  0.043832859   0.04472472            2 
  551000    1.1428984   -5.8443087    289.95525  0.043852881  0.044713356           10 
  552000    1.1673503   -5.7613276    289.63183  0.043724612  0.044701233            3 
  553000    1.1552661    -5.830255    288.77471  0.043516382   0.04468959            2 
  554000    1.1745607   -5.8050239     290.4686   0.04369263  0.044678099            2 
  555000    1.1474151    -5.816254    290.98149  0.043690915  0.044666153            4 
  556000      1.14565   -5.8307961    291.52261  0.043693437  0.044654825            4 
  557000    1.1710638   -5.8403987    291.61324  0.043628552   0.04464274            2 
  558000    1.1697278   -5.8224637    290.46721  0.043379212  0.044630225            2 
  559000    1.1730388   -5.8174106    292.73729  0.043640025  0.044618168            4 
  560000    1.1777575   -5.8167107    292.92244  0.043589649  0.044605464            3 
  561000     1.144589   -5.8148032    293.29505  0.043567298  0.044593001            3 
  562000    1.1711466   -5.8308419    293.94107  0.043585568   0.04458022            2 
  563000    1.1719033   -5.8228117    293.16714  0.043393597  0.044566914            2 
  564000    1.1424509   -5.8106001    294.99769  0.043587129  0.044554337            2 
  565000    1.1488598   -5.8031085    296.66121   0.04375534  0.044541774            3 
  566000    1.1586159   -5.8157457    295.75183  0.043544144  0.044529625            4 
  567000     1.163674   -5.8324043    296.14806  0.043525583  0.044517067            3 
  568000    1.1607104   -5.8306068    295.10925  0.043296545  0.044503575            4 
  569000    1.1599359   -5.7854724    296.42306  0.043412868  0.044490243            2 
  570000    1.1347026   -5.8333278     296.9133  0.043408376  0.044477039            1 
  571000    1.1996781   -5.8497984    296.44143  0.043263489   0.04446391            3 
  572000     1.149897   -5.7894529    298.43274  0.043477963  0.044450632            2 
  573000    1.1797007   -5.8179073    297.74761  0.043302445  0.044437388            2 
  574000    1.1298303   -5.8167103    298.38197  0.043319101  0.044423615            6 
  575000    1.1653327   -5.7977528    300.02264  0.043481542  0.044410439            4 
  576000    1.1432388   -5.8318065    300.12274  0.043420535  0.044396955            4 
  577000    1.1537846   -5.8073652    300.34552  0.043377458  0.044383982            3 
  578000      1.17807   -5.8433522    300.89967  0.043382305  0.044370761            3 
  579000    1.1527698   -5.8119331    300.92677  0.043311279  0.044358093            4 
  580000    1.1570747   -5.8237382    300.89252  0.043231684  0.044345399            4 
  581000    1.1553217   -5.8066266    302.71438  0.043418586  0.044332932            4 
  582000     1.139528   -5.8306542    302.91502  0.043372711   0.04432115            1 
  583000    1.1822735   -5.8345319    303.10392  0.043325318  0.044309031            1 
  584000    1.1348493   -5.7956084    304.96246  0.043516333   0.04429726            2 
  585000    1.1436944   -5.8455921    303.10238  0.043176978  0.044284396            4 
  586000    1.1712928   -5.7860777    305.87315   0.04349732  0.044271547            4 
  587000    1.1652679   -5.8491355    303.89878  0.043142927  0.044258689            3 
  588000    1.1601439   -5.8342962    304.88473  0.043209287  0.044246089            2 
  589000    1.1733121   -5.8633357    305.03278  0.043156873  0.044232614            5 
  590000      1.16566   -5.7825787    306.58566  0.043303059  0.044220196            4 
  591000     1.152418   -5.8201309    306.83491  0.043264934  0.044207564            3 
  592000    1.1646926   -5.8550092    306.15953  0.043096781  0.044194453            2 
  593000    1.1383724   -5.8323103    307.74953  0.043247545  0.044182121            5 
  594000    1.1874749   -5.8217952     308.2086  0.043239142  0.044170239            4 
  595000    1.1616496   -5.8207498     309.5664  0.043356639  0.044158511            2 
  596000    1.1737143   -5.8292134    310.31821  0.043389012  0.044147029            2 
  597000    1.1615608   -5.8186104    311.27695   0.04345016  0.044136363            3 
  598000    1.1717069   -5.7996873    311.46319  0.043403454  0.044126055            3 
  599000    1.1311518   -5.8278311     311.9207  0.043394644  0.044116418            3 
  600000     1.155023   -5.8685306      313.104  0.043486667  0.044106727            2 
  601000    1.1534166   -5.8704085    312.60638   0.04334531  0.044096608            3 
  602000    1.1391474   -5.8018222    314.32532  0.043511257  0.044086369            3 
  603000    1.1675241    -5.813906    314.59233  0.043475999  0.044076638            2 
  604000    1.1573906   -5.8286305    314.07251  0.043332299  0.044066638            2 
  605000    1.1833695    -5.834367    314.27055  0.043287954  0.044056534            3 
  606000     1.160691   -5.8157441    316.12623  0.043471703  0.044047012            4 
  607000    1.1683858    -5.886317     315.3116  0.043288248  0.044037009            2 
  608000    1.1804059   -5.8156853    316.00582  0.043312201  0.044026003            1 
  609000    1.1902662   -5.8190964    315.44454  0.043164278  0.044014953            3 
  610000     1.152141   -5.8397961    317.13078  0.043323877  0.044004337            1 
  611000    1.1773445   -5.8687036    316.26558  0.043134967  0.043993682            2 
  612000    1.1582349   -5.8709422    316.39421     0.043082  0.043982405            3 
  613000    1.1538003   -5.8356563    317.23434  0.043125929  0.043971091            4 
  614000    1.1454974   -5.8286811     318.4319  0.043218228  0.043960367            4 
  615000    1.1592416   -5.7958679    319.53151  0.043296953  0.043950268            4 
  616000    1.1324187   -5.8323206    319.47818  0.043219451   0.04394018            8 
  617000    1.1441934   -5.8325709    320.70333  0.043314874   0.04393018            7 
  618000    1.1661225   -5.7952221    321.74886  0.043385769  0.043920893            1 
  619000    1.1341926   -5.8100416    322.00113  0.043349641  0.043910736            3 
  620000    1.1493093   -5.8095983    322.14472  0.043299021  0.043901684            2 
  621000    1.1480619   -5.8334147    322.70319  0.043304239  0.043892218            2 
  622000    1.1519956   -5.8896262     320.9427  0.042998754  0.043882621            3 
  623000    1.1347474     -5.83165    323.97572  0.043335436  0.043873181            3 
  624000    1.1666951   -5.8291334    324.77499  0.043372729  0.043863161            3 
  625000    1.1446551   -5.8525402    325.05198  0.043340264  0.043854235            2 
  626000    1.1518134   -5.8051736    325.16402  0.043285945  0.043845897            3 
  627000     1.127722   -5.8581034    324.98645  0.043193308  0.043836755            3 
  628000    1.1391187   -5.8227945    326.21172  0.043287117  0.043827295            5 
  629000    1.1391023   -5.8286155    326.80559  0.043296978  0.043818522            4 
  630000    1.1464855   -5.8081865    327.54283  0.043325772  0.043809217            6 
  631000    1.1543568   -5.8140284    328.64941   0.04340325  0.043800799            2 
  632000    1.1551175   -5.8365401    328.39922  0.043301585  0.043792395            3 
  633000    1.1469876   -5.8357527    327.57226   0.04312431  0.043782757            5 
  634000    1.1428647    -5.853316    329.10665  0.043257972   0.04377369            7 
  635000    1.1576852   -5.8705422    329.05431   0.04318298  0.043764824            3 
  636000    1.1434605    -5.863161    329.09178  0.043119992  0.043755463            3 
  637000    1.1558387    -5.872183    329.11374  0.043055172  0.043746004            1 
  638000    1.1642647   -5.8772877    329.71747  0.043066545  0.043736417            3 
  639000    1.1414282   -5.8194589    330.81906  0.043142809  0.043727054            2 
  640000    1.1321611   -5.8520845    331.15867  0.043119618  0.043717209            4 
  641000    1.1605577   -5.9181618    331.05139  0.043038403  0.043706305            4 
  642000    1.1544407   -5.8267254    331.38361  0.043014487   0.04369569            2 
  643000    1.1258203   -5.8662889    332.06785  0.043036269  0.043685661            1 
  644000    1.1479785    -5.851848    332.19147  0.042985438  0.043674978            3 
  645000    1.1368865   -5.8272268    332.90477  0.043010952  0.043664058            3 
  646000    1.1652725   -5.8567603    333.81952  0.043062374  0.043653337            2 
  647000    1.1318441   -5.8474636    333.81573  0.042995328  0.043643389            5 
  648000    1.1350907    -5.846873    333.45505  0.042882594  0.043633341            3 
  649000    1.1481015   -5.8301692    335.38432  0.043064242  0.043622825            2 
  650000    1.1661221   -5.8262087    335.87643  0.043061081   0.04361208            7 
  651000    1.1534097   -5.8855853    333.62903  0.042707249  0.043601417            2 
  652000    1.1547536   -5.7913533    336.00613  0.042945568  0.043590372            4 
  653000    1.1651915   -5.8585433    335.68385  0.042838674  0.043578502            2 
  654000    1.1670112   -5.8626955    335.92705  0.042804161  0.043566859            2 
  655000    1.1374384   -5.8342324     337.4003  0.042926247  0.043555012            2 
  656000    1.1467078   -5.8190458    337.41501  0.042862679  0.043543885            2 
  657000    1.1327244    -5.848458     337.5147  0.042810083  0.043532828            3 
  658000    1.1414406   -5.8691411    337.82799    0.0427847  0.043521262            3 
  659000    1.1584743   -5.8717726    337.95007  0.042735214  0.043509899            6 
  660000    1.1670387   -5.8395281    340.24312   0.04295999  0.043500271            3 
  661000    1.1689442   -5.8318716    340.48366  0.042925323  0.043489931            8 
  662000    1.1623768    -5.855321    338.75203  0.042642502  0.043479032            4 
  663000    1.1310585   -5.8698846    340.25274   0.04276681  0.043468205            5 
  664000    1.1495835   -5.8311059    341.50951   0.04286013  0.043457159            4 
  665000    1.1264919   -5.8427731     341.7016   0.04281975  0.043446798            2 
  666000    1.1374196   -5.8372301    342.61011  0.042869133  0.043436114            4 
  667000     1.127591   -5.8368136    343.40784  0.042904528  0.043425328            4 
  668000    1.1410538   -5.8397845     343.6078  0.042865244  0.043414611            4 
  669000    1.1515342    -5.858206     343.6554    0.0428071  0.043404361            1 
  670000    1.1432131   -5.8662612    342.98732  0.042660114  0.043394172            3 
  671000    1.1260782   -5.8978287    344.17755  0.042744355  0.043384099            3 
  672000    1.1574032   -5.8575257     345.7657  0.042877691  0.043374079            2 
  673000    1.1569371   -5.8146761    347.02666  0.042970116  0.043364537            3 
  674000    1.1284449   -5.8590755    345.30305  0.042693255   0.04335506            3 
  675000    1.1537953   -5.8758528    345.58727  0.042665095  0.043346045            4 
  676000    1.1280204   -5.8307326    349.10305  0.043035386  0.043337943            3 
  677000    1.1389182   -5.8305895     349.5007  0.043020766  0.043329607            3 
  678000    1.1353759   -5.8270793    349.62968  0.042973166  0.043320765            2 
  679000    1.1450563   -5.8626462    348.50983  0.042772439  0.043312045            4 
  680000    1.1404806   -5.8999404    347.93719  0.042639361  0.043302294            3 
  681000    1.1256957   -5.8996201     349.1341  0.042723213  0.043292825            8 
  682000    1.1475577   -5.8654281    349.47126  0.042701767  0.043283316            1 
  683000    1.1379089   -5.8574737    350.64133  0.042782007  0.043273833            4 
  684000    1.1361107   -5.8333766    351.24428  0.042792919  0.043264703            4 
  685000    1.1581151   -5.8145887    351.33723  0.042741755  0.043255852            3 
  686000    1.1179546   -5.8275612    353.10041  0.042893636  0.043246148            2 
  687000    1.1408736   -5.8654699    351.43243  0.042628874  0.043236768            3 
  688000    1.1353084   -5.8925321    350.79299  0.042489461  0.043226817            7 
  689000    1.1479221   -5.8765354    351.00051  0.042452892  0.043216666            4 
  690000    1.1230097   -5.8877057    352.82145  0.042611286  0.043206396            2 
  691000    1.1499695   -5.8926929    352.04927  0.042456496  0.043196754            2 
  692000     1.156096    -5.868424    353.75871     0.042601  0.043187357            2 
  693000    1.1550383   -5.8328194    354.70325  0.042653109  0.043177953            7 
  694000    1.1258745   -5.8894209    353.43624   0.04243951  0.043168473            4 
  695000    1.1652458   -5.8232945     355.6456  0.042643357  0.043158592            2 
  696000    1.1470632   -5.8849052    354.57772  0.042454229  0.043148232            2 
  697000    1.1401642   -5.8494303    356.76308    0.0426546  0.043138491            4 
  698000    1.1474867   -5.8486306    356.16852  0.042522508  0.043128009            6 
  699000       1.1387   -5.8521881    357.35078   0.04260262  0.043118291            3 
  700000    1.1518731    -5.859746    357.21464  0.042525552  0.043108369            1 
  701000    1.1208203   -5.8404707     358.2956  0.042593391  0.043098567            8 
  702000    1.1510901   -5.8497674    358.17397  0.042518277  0.043089038            1 
  703000    1.1351384   -5.8642431    358.68267  0.042518097  0.043079278            3 
  704000    1.1208783   -5.8485304    359.05425  0.042501686  0.043069125            4 
  705000    1.1644937   -5.9038501    357.57468  0.042266511  0.043058239            3 
  706000    1.1164923   -5.8242711     360.4978  0.042551676  0.043047942            4 
  707000    1.1582538   -5.9011572    358.85633  0.042298011   0.04303727            5 
  708000    1.1423704   -5.8343454     361.1846  0.042512312  0.043027273            5 
  709000     1.134081   -5.8711154    359.59924  0.042266013  0.043017248            4 
  710000    1.1443882   -5.8616478    361.80399  0.042465257  0.043006636            3 
  711000    1.1621992   -5.8587736    361.74046  0.042398085  0.042996691            3 
  712000    1.1350641   -5.8596026    364.07527  0.042611806  0.042987233            3 
  713000    1.1392592   -5.8485415    364.46286  0.042597343  0.042977609            2 
  714000    1.1280565     -5.83301    363.39752  0.042413343  0.042968074            4 
  715000    1.1208563    -5.887226     363.6598  0.042384592  0.042958304            5 
  716000    1.1400528   -5.8865001    362.31488  0.042168864  0.042947538            5 
  717000    1.1600308   -5.8471731     364.8332  0.042402742  0.042936636            2 
  718000    1.1571353   -5.8873482    362.89442  0.042118665  0.042925825            4 
  719000    1.1128018   -5.8588611    364.30651   0.04222375  0.042915298            9 
  720000    1.1419228   -5.8929115    364.30782  0.042165257  0.042904037            3 
  721000     1.130126   -5.8369039    366.20232  0.042325741  0.042893127            1 
  722000     1.147902   -5.8651885    367.03288  0.042362982  0.042883257            2 
  723000    1.1423041   -5.8950545    366.88524  0.042287372  0.042873203            4 
  724000    1.1427664   -5.8222907    369.57576  0.042538646  0.042863824            1 
  725000     1.138264   -5.8486947    370.52568  0.042589159  0.042854434            2 
  726000     1.134382   -5.8613953    369.08815   0.04236549  0.042845326            3 
  727000    1.1280379   -5.8794028    369.76009  0.042384238  0.042836271            2 
  728000    1.1212236   -5.8932363    369.57315  0.042304618  0.042826785            2 
  729000    1.1251007   -5.8847612    371.80907   0.04250218  0.042817557            2 
  730000    1.1437306   -5.9057661    372.64389  0.042539257  0.042808672            2 
  731000    1.1529986   -5.8924129    370.62602  0.042251028  0.042799395            2 
  732000    1.1297494   -5.8715692    370.79826  0.042212916  0.042790376            2 
  733000    1.1273243   -5.9077697    372.51069   0.04235001  0.042781333            3 
  734000    1.1292475   -5.8968847    372.54727  0.042296466  0.042771924            3 
  735000    1.1385903   -5.8583697    375.14161  0.042533063  0.042763202            2 
  736000    1.1224334    -5.831125    374.50095  0.042402734  0.042754583            8 
  737000    1.1150277   -5.9070209    373.06289  0.042182597  0.042746017            3 
  738000    1.1440176   -5.8719623    374.38247  0.042274444  0.042737093            5 
  739000    1.1399833   -5.8733678    375.78278  0.042375144  0.042728861            3 
  740000     1.132008   -5.8509322    378.32506  0.042604174  0.042721491            3 
  741000    1.1342218   -5.8654077    378.15642  0.042527712  0.042713941            3 
  742000    1.1351965   -5.9005174    376.91758  0.042331265  0.042706244            3 
  743000    1.1155203   -5.9338443    378.79918  0.042485327  0.042698414            3 
  744000    1.1373774   -5.8674906    378.34136  0.042376945   0.04269134            4 
  745000    1.1152425   -5.8655919    380.54679  0.042566755  0.042684304            2 
  746000    1.1410104   -5.8660043    380.28003  0.042479896  0.042677538            4 
  747000    1.1344485   -5.8817843    381.32017  0.042539064  0.042670721            2 
  748000    1.1274881   -5.8865472    380.94074  0.042439922  0.042663356            2 
  749000    1.1520865   -5.8599358     384.2491  0.042751347  0.042656334            3 
  750000    1.1209289   -5.9370834     381.6383  0.042404256  0.042649476            3 
  751000    1.1518903   -5.8674153    383.35334  0.042538098  0.042642638            2 
  752000     1.129631   -5.8515282    383.57993  0.042506641  0.042635759            2 
  753000    1.1160034   -5.8682849    384.69977  0.042574123  0.042629613            2 
  754000    1.1116687   -5.9135991     383.5278   0.04238813  0.042623087            4 
  755000    1.1362311   -5.9014707     385.4564  0.042544856  0.042616731            3 
  756000    1.1211824   -5.8688164    385.97817  0.042546094  0.042611028            4 
  757000    1.1251227   -5.8727124    386.63527  0.042562227  0.042605026            2 
  758000    1.1233072   -5.8928603    389.61603  0.042833776  0.042599887            5 
  759000     1.140817   -5.8911702    388.46765  0.042651257  0.042594925            1 
  760000    1.1157116   -5.8841387    388.46078  0.042594384   0.04258984            2 
  761000    1.1132295   -5.8667079    389.04137   0.04260199  0.042585095            3 
  762000    1.1260286   -5.9082229    388.32012  0.042467204  0.042579846            4 
  763000    1.1235278   -5.9026318    390.79609  0.042681967  0.042575192            2 
  764000    1.1209429   -5.8819271    391.71231  0.042726037  0.042571174            2 
  765000    1.1509533     -5.89395    391.97291  0.042698574  0.042566256            4 
  766000    1.1659326   -5.8932886    393.40154  0.042798253  0.042562017            2 
  767000    1.1391117   -5.8987119    395.02674  0.042919029  0.042557971            4 
  768000     1.137795   -5.9011378    392.04474  0.042539577  0.042553056            2 
  769000    1.1071064   -5.8908024    393.02243  0.042590207  0.042548407            2 
  770000    1.1261161   -5.8635376    393.75734   0.04261443  0.042543662            3 
  771000    1.1249392   -5.9092214    393.56344  0.042538201  0.042539013            2 
  772000    1.0967752   -5.8901442    393.85473  0.042514543  0.042533827            3 
  773000    1.1429453   -5.9290485    393.33987   0.04240404  0.042528204            2 
  774000    1.1125781   -5.9067921     395.6832   0.04260155  0.042523092            3 
  775000    1.1294214   -5.8980917    396.48051  0.042632313  0.042517914            3 
  776000    1.1096975    -5.879945    397.24501  0.042659472  0.042513284            1 
  777000    1.1192985   -5.9199721    396.58214  0.042533477  0.042508329            2 
  778000    1.1452029   -5.8638877    397.29304  0.042554953  0.042502938            4 
  779000    1.1663349   -5.8970718    398.95271  0.042677868   0.04249859            1 
  780000     1.120956   -5.9165627    399.10826  0.042639772  0.042493879            5 
  781000    1.1171822    -5.868565     399.7734  0.042656146   0.04248964            7 
  782000    1.1278552   -5.9274179    399.45708   0.04256789  0.042485136            3 
  783000    1.1316405   -5.8929397    400.83596  0.042660276  0.042480686            2 
  784000    1.1563827   -5.9196419    399.62113  0.042476736  0.042476192            3 
  785000     1.135296   -5.9148806    400.80399  0.042548194  0.042471935            3 
  786000    1.1181862   -5.8845967    402.41607  0.042664977  0.042468106            3 
  787000    1.1488088   -5.9130142    402.77739  0.042649024  0.042464218            5 
  788000     1.115848   -5.8940365    403.51601  0.042673013  0.042459492            3 
  789000    1.1241776   -5.8718773    404.57734  0.042731024  0.042455235            8 
  790000    1.1394463   -5.9297768    404.21273  0.042638474   0.04245087            5 
  791000    1.1364222   -5.8707593      405.322  0.042701433  0.042446449            3 
  792000    1.1194584   -5.9232906    404.51454  0.042562556  0.042441471            2 
  793000    1.1252465   -5.8946312    405.22107  0.042583131   0.04243626            2 
  794000    1.1083691   -5.9433909    404.51952  0.042455869  0.042431201            5 
  795000    1.1363174   -5.9306111    405.70174  0.042526388  0.042426731            3 
  796000    1.1221802   -5.9311527    406.05658  0.042510111  0.042422538            5 
  797000    1.1282124   -5.8795594    407.30161  0.042586952  0.042418243            3 
  798000    1.1200425   -5.8905121    409.12912  0.042724428  0.042414377            3 
  799000    1.1341312   -5.9022692    408.01707  0.042554971  0.042410907            2 
  800000    1.1248198   -5.9209933    408.73364  0.042576421  0.042406951            2 
  801000     1.123359   -5.9046231    409.33518  0.042585849  0.042403003            3 
  802000    1.1186159   -5.9314951    408.43658  0.042439378  0.042398505            4 
  803000    1.1369886   -5.8930151    412.14155   0.04277102  0.042394551            3 
  804000    1.1134647   -5.8507894    411.65305   0.04266719  0.042391101            3 
  805000    1.1106406   -5.8927183    411.54329  0.042602825  0.042387085            2 
  806000    1.1049658     -5.86618    411.89194  0.042586016  0.042382714            4 
  807000    1.0810201   -5.9366524     409.9021  0.042327767  0.042378402            2 
  808000    1.1177145   -5.9453225    410.41565  0.042328347  0.042372935           11 
  809000    1.1147108   -5.9500253    410.86163  0.042321964  0.042367752            2 
  810000    1.1289612   -5.9470188    410.68455  0.042251497  0.042362242            2 
  811000    1.1256009   -5.9141481    412.87668  0.042424649  0.042357227            2 
  812000    1.1317529   -5.9103909    413.24424  0.042410123  0.042351721            2 
  813000    1.1473823   -5.8990713    413.79733  0.042414651  0.042346664            4 
  814000    1.1200171   -5.9091198    413.82463  0.042365339  0.042341516            6 
  815000     1.094757   -5.9259743    413.03892  0.042233018  0.042336372            1 
  816000    1.1041425   -5.8999688    414.46649  0.042327052  0.042330738            3 
  817000    1.1174971   -5.8939396    415.46708  0.042377303  0.042325139            3 
  818000    1.1202515   -5.8997024    416.29665  0.042410009  0.042320148            3 
  819000     1.135696   -5.8860823    417.75446  0.042506559   0.04231475            2 
  820000    1.1127586   -5.8856967    416.29547   0.04230645  0.042309731            8 
  821000    1.1207529   -5.9187845    416.67584  0.042293529   0.04230438            2 
  822000    1.1364144   -5.8736502    418.62104  0.042439278  0.042299623            4 
  823000    1.1358659   -5.9332778    417.03312  0.042226926  0.042294703            4 
  824000     1.097558   -5.9152135    418.90619  0.042365108  0.042289788            3 
  825000    1.1265484   -5.8904311    419.05819   0.04232911  0.042284843            2 
  826000     1.130588   -5.8957234    419.69351   0.04234196  0.042280179            3 
  827000    1.1189889   -5.8965684    420.98261  0.042420658   0.04227503            4 
  828000    1.1179206   -5.9320724    421.18182  0.042389474   0.04226981            2 
  829000    1.1425988   -5.9458592    421.18757  0.042338919  0.042264668            4 
  830000      1.11621   -5.9151455    421.76803  0.042346187  0.042259274            3 
  831000    1.1190488   -5.9323847    421.17959   0.04223622  0.042253807            6 
  832000    1.1081789   -5.9344034    422.01418  0.042269049  0.042248176            3 
  833000    1.1437184     -5.91111    423.23351  0.042340287  0.042243015            2 
  834000    1.1117152   -5.9150134    424.06777  0.042372878  0.042237873            2 
  835000    1.1061988   -5.9011325    423.95354  0.042310732  0.042232854            5 
  836000    1.0982062   -5.9024821    423.00354  0.042165425  0.042227523            2 
  837000    1.1325128   -5.9242072    423.56167  0.042170616  0.042221758            3 
  838000      1.12795   -5.9473424    422.01996  0.041966981   0.04221581            3 
  839000    1.1269972   -5.8965487    423.08577  0.042022822   0.04220959            5 
  840000    1.1133287   -5.9465275    423.51622  0.042015498  0.042203653            3 
  841000    1.1248368   -5.9041035    424.45201  0.042058265  0.042197875            3 
  842000    1.1475224   -5.9053373      424.958  0.042058392  0.042191817            4 
  843000    1.1366287   -5.9083172    425.50633  0.042062706  0.042186004            4 
  844000    1.1136715   -5.9081826    427.10162  0.042170381  0.042180132            4 
  845000    1.1305189   -5.8972874    426.84371  0.042095041  0.042174207            3 
  846000    1.1344063   -5.9175313    426.59511  0.042020795  0.042168368            1 
  847000    1.0963382   -5.9218031    427.78169  0.042087927  0.042161955            3 
  848000    1.1201741   -5.8827443    429.16609   0.04217434   0.04215549            6 
  849000    1.1160052   -5.9163716    426.89104  0.041901359  0.042149191            2 
  850000    1.1182239   -5.9331423     427.2851  0.041890697  0.042143122            5 
  851000     1.117418   -5.9953378    426.42438  0.041757185  0.042136421            2 
  852000    1.1187381   -5.9836506    426.42698   0.04170843  0.042129467            8 
  853000    1.1185008   -5.9305633    429.27176  0.041937452  0.042122503            5 
  854000    1.1059759   -5.9427538     428.7903  0.041841364  0.042115733            4 
  855000    1.1065701   -5.9323067    428.53271  0.041767321  0.042108671            2 
  856000    1.1187682   -5.9321676    429.23524  0.041786919  0.042101348            2 
  857000    1.1131441   -5.9346155    430.65919  0.041876623  0.042093826            3 
  858000    1.1190299    -5.941516    431.28142   0.04188825  0.042086481            1 
  859000    1.1055834   -5.8888598    432.33159  0.041941365  0.042079321            3 
  860000    1.1124032   -5.9379049      433.353   0.04199157  0.042072048            7 
  861000    1.1249268   -5.9522529    432.12761  0.041824197  0.042065033            6 
  862000    1.1116663   -5.8861549     432.4938  0.041811079  0.042057617            3 
  863000    1.1004062   -5.9691924    432.25786  0.041739847  0.042049988            4 
  864000    1.1351182   -5.9154261    433.20069  0.041782474  0.042042052            2 
  865000    1.1102811   -5.9166415    433.39046  0.041752453  0.042034372            5 
  866000    1.1212362   -5.9458183    434.45025  0.041806221  0.042026986            2 
  867000    1.0974534   -5.9060297    434.57014  0.041769525  0.042019644            3 
  868000    1.1288271   -5.9358635    435.78833  0.041838357  0.042012069            2 
  869000    1.1145883   -5.8921608    437.32935  0.041937989  0.042004871            4 
  870000      1.11176   -5.9378727    436.15547  0.041777344  0.041997847            4 
  871000    1.0985427   -5.9575204    436.40449  0.041753204  0.041990341            4 
  872000    1.1214346   -5.8982838    437.43087  0.041803408  0.041983002            4 
  873000    1.1106103   -5.9380343    437.18784  0.041732325  0.041975579            2 
  874000     1.120606   -5.9484917    438.55471  0.041814904  0.041967838            4 
  875000    1.1073978   -5.9303467     438.3039  0.041743229   0.04196077            4 
  876000    1.0918469   -5.9445613    438.78143  0.041741004  0.041954196           11 
  877000    1.0994005   -5.9040228    439.26086  0.041738964   0.04194756            8 
  878000    1.1211608   -5.9236637    439.43944  0.041708375  0.041940643            3 
  879000    1.1141339   -5.9419982    439.56573  0.041672898  0.041933169            2 
  880000    1.1216905   -5.9280339    439.85733  0.041653156  0.041925402            2 
  881000    1.1284227    -5.966553    438.19163  0.041448319  0.041917545            6 
  882000    1.1222782   -5.9313754    440.31711  0.041602146  0.041909559            3 
  883000    1.0947746   -5.8806022    441.37518  0.041654886  0.041901213            1 
  884000    1.1189136   -5.9119346     441.6059  0.041629516  0.041893322            2 
  885000     1.095985   -5.9147806    441.26143  0.041550041  0.041884843            4 
  886000    1.1089828   -5.9023677     441.6638  0.041540989  0.041876482            2 
  887000    1.1288802   -5.9375764    440.51657  0.041386374  0.041868203            5 
  888000    1.0874225   -5.9337534    441.60137   0.04144157  0.041859953            2 
  889000    1.0938713    -5.920838    443.56672  0.041579182  0.041851515            4 
  890000    1.0860384    -5.936755    443.03496  0.041482674  0.041843433            3 
  891000    1.1273955   -5.9246847    443.65669  0.041494266  0.041835243            2 
  892000    1.1160145   -5.9203092    445.75604  0.041643875  0.041827103            2 
  893000    1.1071987   -5.9459307    444.24378   0.04145612  0.041818886            8 
  894000    1.1150948    -5.953781    445.70567  0.041546017  0.041810415            3 
  895000    1.1259721   -5.9755651     443.4014  0.041285047  0.041801768            2 
  896000    1.1247205    -5.961297    443.67436  0.041264357  0.041792687            4 
  897000    1.1286582   -5.9554817     445.1099  0.041351719  0.041783828            7 
  898000    1.1299751   -5.9216911    446.31408  0.041417416  0.041775416            3 
  899000    1.1160685   -5.9579599    445.96682  0.041339156  0.041766896            7 
  900000    1.1144341   -5.9100835    446.95324  0.041384559  0.041758502            3 
  901000    1.1284588   -5.9649737     447.0511  0.041347678  0.041750137            3 
  902000    1.1079968   -5.9186169    450.36456   0.04160796  0.041741993            2 
  903000    1.1117493   -5.9311661    449.33872  0.041467213  0.041734646            1 
  904000     1.101901   -5.9360871    449.16934  0.041405728  0.041726808            3 
  905000    1.1131354   -5.9580172    448.87919  0.041333259  0.041719336            5 
  906000    1.0958171   -5.9168423    450.70235   0.04145533  0.041712013            4 
  907000    1.0974954   -5.9441731    450.83549  0.041421857  0.041705196            3 
  908000    1.1114422   -5.9432012       452.28   0.04150881    0.0416978            1 
  909000    1.1216791   -5.9708036    449.46773  0.041205329  0.041689756            3 
  910000      1.12389   -5.9378326    451.86667  0.041379732   0.04168225            4 
  911000    1.1149896   -5.9485811    453.79993  0.041511154  0.041674587            2 
  912000    1.0938942   -5.9463021    452.85876  0.041379638  0.041667076            2 
  913000    1.1288004   -5.9147214    453.66509  0.041407912    0.0416593            4 
  914000    1.1132815   -5.9713078    451.68362  0.041181949  0.041651315            4 
  915000    1.0938648    -5.940599    452.61131  0.041221431  0.041643237            4 
  916000     1.120257   -5.9209595    455.25003  0.041416488  0.041634898            2 
  917000    1.0942843   -5.9819661     453.7048  0.041230898  0.041626617            2 
  918000    1.0913888   -5.9268498    455.05017  0.041308113  0.041618557            2 
  919000    1.1191606   -5.9720214    455.40554  0.041295388  0.041610913            7 
  920000    1.0797825   -5.9138417    456.34525   0.04133562  0.041602646            2 
  921000    1.1044157   -5.9532863    455.32553  0.041198473  0.041594655            5 
  922000    1.1211584   -5.9139221    457.37567  0.041339088  0.041586619            2 
  923000    1.1017784   -5.9568891     455.5053  0.041125433  0.041578373            4 
  924000    1.1009085   -5.9633089    457.25935  0.041239119  0.041569813            7 
  925000    1.1101162     -5.97072    457.47793  0.041214228  0.041561651            2 
  926000    1.0965902   -5.9277992    460.77034  0.041466013   0.04155348            3 
  927000    1.1144153   -5.9338372    460.79637  0.041423622  0.041546337            2 
  928000    1.1092595   -5.9357775    462.67521  0.041547702  0.041539464            3 
  929000    1.0925823   -5.9660231    458.36706  0.041116529  0.041532153            4 
  930000    1.1088609   -5.8974966      461.278  0.041333154  0.041524346            3 
  931000      1.08407   -5.9450891    459.86414  0.041162204  0.041516328            3 
  932000    1.0745932   -5.9975734    458.80021  0.041022908  0.041507966            5 
  933000     1.088085   -5.9521378    459.60174  0.041050531  0.041499587            5 
  934000     1.107886   -5.9260013    462.06114  0.041226012  0.041491701            3 
  935000    1.1092621   -5.9414747    461.00004  0.041087348  0.041483592            4 
  936000    1.0739205   -5.9520924    462.50827   0.04117773    0.0414758            3 
  937000    1.0862337   -5.9520726    463.32019  0.041205993  0.041468036            3 
  938000    1.0822571   -5.9646703    463.09475  0.041142035  0.041460236            4 
  939000    1.1079142    -5.932207    465.26109  0.041290477  0.041452724            2 
  940000    1.1034271    -5.961084     464.0454  0.041138777  0.041444774            4 
  941000    1.1127962   -5.9405484     464.5427  0.041139098   0.04143683            7 
  942000    1.0779842   -5.9472312    464.95285   0.04113171  0.041429023            6 
  943000    1.0947054   -5.9412971    465.34827  0.041123036  0.041420895            6 
  944000    1.0875069   -5.9922199    464.45989  0.041001049  0.041412423            2 
  945000    1.1032479   -5.9747913    465.66805  0.041064202   0.04140389            4 
  946000    1.1127549   -5.9453294    466.24617   0.04107172  0.041395531            9 
  947000    1.1039957   -5.9718135    465.34737  0.040949258   0.04138731            3 
  948000     1.094478   -5.9620853    467.30323  0.041077991  0.041378594            4 
  949000    1.0868881   -5.9412058    466.61053  0.040973879  0.041369751            4 
  950000     1.087723   -5.9696612    466.43742  0.040915563   0.04136097            2 
  951000    1.1132937   -5.9706168    465.54686  0.040794502  0.041351914            2 
  952000     1.103607   -5.9616597    467.55033  0.040927025  0.041343194            5 
  953000    1.0839796   -5.9528832    466.97626   0.04083388  0.041334358            3 
  954000    1.1120429   -5.9711809    465.28137  0.040643027  0.041325186            4 
  955000    1.1229089   -5.9532807    468.28051  0.040862174  0.041316086            1 
  956000    1.0905305    -5.971262    469.42509  0.040919203  0.041306924            3 
  957000    1.0830602   -5.9577247    467.55422  0.040713534  0.041297649            2 
  958000    1.0909058    -5.909018    470.52741  0.040929663  0.041288493            7 
  959000    1.1228363   -5.9354925    470.45433  0.040880634  0.041279603            5 
  960000    1.1014353    -5.961628    470.25159  0.040820451  0.041270818            2 
  961000    1.1103118   -5.9293892    470.62821  0.040810632  0.041261614            4 
  962000     1.071901   -5.9449493    471.05103  0.040804837  0.041252296            2 
  963000    1.0848132   -5.9682117    471.61903  0.040811615  0.041243406            2 
  964000    1.0966449   -5.9641323    471.71977  0.040777989  0.041234451            4 
  965000    1.1346475   -5.9658184    472.56118  0.040808392  0.041225853            2 
  966000    1.1002848   -5.9323369    473.19154  0.040820526  0.041217316            4 
  967000    1.0928411    -5.982169    473.11837  0.040772007  0.041208564            4 
  968000    1.0886365    -5.980012    474.28782  0.040830563   0.04119988            2 
  969000    1.1042002   -5.9445722    476.60545  0.040987741  0.041191682            6 
  970000    1.0750981   -5.9285678    477.08811  0.040986951  0.041183881            2 
  971000    1.0790663   -5.9506917    474.84489  0.040752222   0.04117553            4 
  972000     1.109813   -5.9334866    476.05783  0.040814286  0.041167516            1 
  973000    1.0729417   -5.9665559    476.62456  0.040820877  0.041159109            3 
  974000    1.0794527   -5.9539094    476.41662  0.040761176   0.04115064            4 
  975000    1.1058244   -5.9473062    478.26637  0.040877468  0.041142018            5 
  976000    1.0734835   -5.9465797    476.44723  0.040680262  0.041133073            3 
  977000    1.1064883   -5.9580081     476.5762  0.040649625  0.041124128            3 
  978000    1.0996635   -5.9336907     479.4939  0.040856672  0.041115466            3 
  979000    1.0923672   -5.9829015    478.49854  0.040730213  0.041106779            7 
  980000    1.0804926   -5.9537037    478.63999  0.040700679  0.041097844            3 
  981000     1.090052   -5.9737125    479.65886   0.04074574  0.041089402            6 
  982000    1.0758781   -5.9484217    481.57881  0.040867176  0.041081252            2 
  983000    1.0880572   -5.9523494    479.30679  0.040632993   0.04107313            2 
  984000    1.0924851    -5.989674    479.65426  0.040621127  0.041064588            2 
  985000    1.0887638   -5.9638601    481.43876  0.040730859  0.041056042            3 
  986000    1.1216579   -5.9476672    480.38989  0.040600904  0.041047326            3 
  987000    1.0861319   -6.0013445    480.99666  0.040610998  0.041038668            6 
  988000    1.0719694   -5.9865663    480.47209  0.040525648  0.041029581            5 
  989000    1.0782307   -5.9629721    482.34222  0.040642249  0.041020608            2 
  990000    1.0660379   -5.9919949    481.74995  0.040551343  0.041011556            5 
  991000    1.1066821   -5.9448258    482.03152    0.0405341  0.041002451            3 
  992000    1.0939593   -5.9561354    481.21265   0.04042445  0.040993159            6 
  993000    1.0947132   -5.9777912    480.24704  0.040302706  0.040983694            8 
  994000     1.094976    -5.995928    483.17876  0.040507944  0.040974075            2 
  995000    1.0786022   -5.9449789    483.18235  0.040467534  0.040964813            3 
  996000    1.0792661   -5.9997133    482.00246  0.040328184  0.040954983            6 
  997000    1.1096186   -5.9603021    484.51139  0.040497441  0.040945126            5 
  998000     1.103183   -6.0128614    482.84023  0.040317321  0.040935788            5 
  999000     1.099749    -5.967143    483.62292  0.040342252  0.040926384            4 
 1000000    1.0962921   -5.9861045    482.94843  0.040245703  0.040916863            3 
 1001000     1.088251   -5.9510788    486.37871  0.040491068  0.040907338            2 
 1002000    1.0727242   -6.0163209    484.88879  0.040326746  0.040897877            3 
 1003000     1.111488   -5.9486779    487.72958  0.040522564  0.040888543            2 
 1004000    1.0806966    -5.965303    487.75744  0.040484515  0.040879374            4 
 1005000    1.0828945   -5.9669559    486.90369   0.04037344  0.040869784            3 
 1006000    1.0996481   -5.9970924     485.0261  0.040177775   0.04086031            5 
 1007000    1.1007531    -5.982527    486.92172  0.040294747  0.040850768            5 
 1008000    1.0896528   -5.9869634     487.0679  0.040266857  0.040841068            7 
 1009000    1.0655628    -6.001334     487.7774  0.040285547  0.040831352            2 
 1010000     1.078602   -5.9976513    487.32776  0.040208561  0.040821697            2 
 1011000    1.0732926    -5.951994    489.03252  0.040309307  0.040811972            6 
 1012000    1.0921821   -5.9710651    489.00554  0.040267255  0.040802424            6 
 1013000    1.0900056   -5.9489236    490.93453   0.04038619   0.04079278            3 
 1014000    1.0996795   -5.9452314     490.9559  0.040348118  0.040783355            6 
 1015000     1.101815   -5.9782263    490.82711  0.040297793  0.040773688            2 
 1016000    1.1047777   -5.9873997    488.91976  0.040101687  0.040764266            2 
 1017000    1.1067369   -5.9726734     492.0468  0.040318486  0.040754379            2 
 1018000    1.0891944   -5.9935572    491.63396  0.040245085   0.04074457            3 
 1019000    1.0760546   -5.9771726    490.69701  0.040128967  0.040734798            2 
 1020000    1.0804723   -5.9650251    492.82891    0.0402638  0.040725335            4 
 1021000    1.0963301   -5.9522067    494.18282   0.04033487  0.040715762            2 
 1022000    1.1103028    -5.979679     492.4532   0.04015437  0.040706234            4 
 1023000    1.0870811   -5.9926513    491.88393  0.040068746  0.040696478            3 
 1024000     1.087313   -5.9786969    494.79656  0.040266647  0.040687045            6 
 1025000    1.0790706   -5.9722814    494.25436  0.040183282    0.0406773            3 
 1026000    1.1061014   -5.9806751    494.09581  0.040131239  0.040667648            2 
 1027000    1.0756872   -5.9625213    496.57674  0.040293471  0.040658344            2 
 1028000    1.0617423   -6.0468753    492.84797  0.039952008  0.040648708            5 
 1029000     1.075023    -5.986859    494.14046  0.040017854  0.040638893            6 
 1030000    1.0883543   -5.9538926    496.03396  0.040132197  0.040629227            3 
 1031000    1.0704063   -5.9996655    496.07881  0.040096897  0.040619643            3 
 1032000    1.0809404   -5.9888516    494.91571  0.039964124  0.040609959            2 
 1033000    1.0999262   -5.9722086     496.8583  0.040082148  0.040600457            2 
 1034000     1.080548   -5.9838115    497.84295  0.040122739  0.040590683            3 
 1035000    1.0842211   -6.0081024    498.31252  0.040121781  0.040580899            6 
 1036000    1.0760689   -6.0147605    499.22387  0.040156361  0.040571583            3 
 1037000    1.0891398   -5.9603809    498.64941  0.040071473  0.040562367            7 
 1038000    1.1068452   -5.9708292    500.25269  0.040161584  0.040552979            4 
 1039000    1.0828692   -5.9997712    497.51879  0.039903657   0.04054326            4 
 1040000    1.0991461   -5.9370809    501.13027  0.040154669  0.040533756            3 
 1041000    1.0656869   -5.9693979    501.13149  0.040116193  0.040524409            3 
 1042000    1.0735349   -6.0328792    498.82203  0.039892997  0.040514908            2 
 1043000    1.0863307   -6.0237364    498.29116  0.039812333  0.040504702            3 
 1044000    1.0842766   -6.0088736    500.51803   0.03995195  0.040494741            4 
 1045000    1.0847118   -6.0030225    501.84386  0.040019447  0.040484956            2 
 1046000    1.0829164   -6.0418001    499.27697  0.039776686  0.040475227            5 
 1047000    1.0771782   -5.9888497    502.28143  0.039977828  0.040465699            2 
 1048000    1.0729919   -6.0186904     502.5491  0.039960965  0.040456201            3 
 1049000     1.083182   -5.9862323    503.86959  0.040027772  0.040446666            3 
 1050000     1.107237   -6.0071029    503.56307  0.039965323  0.040437257            4 
 1051000    1.1041369    -6.012817    504.16525  0.039975044  0.040428062            6 
 1052000    1.0872983   -6.0471343    505.34339   0.04003037  0.040418847            6 
 1053000     1.077241   -5.9869534    504.70682  0.039941977  0.040409492            6 
 1054000    1.0819693   -5.9787954     505.4629   0.03996386   0.04040006            2 
 1055000    1.1102117   -6.0147186    504.73248  0.039868284  0.040390517            3 
 1056000    1.0577842   -6.0089562    506.85954  0.039998385  0.040380989            2 
 1057000    1.0698532   -5.9779973    506.31059  0.039917265  0.040371567            6 
 1058000    1.0760448   -6.0125582    507.93581  0.040007547  0.040362342            3 
 1059000    1.0605453   -5.9852794    507.66171  0.039948199  0.040352974            2 
 1060000    1.0987752   -6.0179785    506.82374  0.039844634   0.04034345            4 
 1061000    1.0744457   -5.9932901    507.04153  0.039824186  0.040334316            5 
 1062000    1.1086112   -6.0569736    508.05975  0.039866584  0.040324856            4 
 1063000    1.0587099   -6.0067183    510.19537  0.039996501  0.040315832            3 
 1064000    1.0943286   -5.9835726    510.18129  0.039957808    0.0403067            3 
 1065000    1.0764226   -5.9481741    511.46605  0.040020818  0.040297836            3 
 1066000    1.0779345   -5.9870869    511.27361  0.039968231  0.040288816            2 
 1067000    1.0937711   -5.9848046    510.78789  0.039892838  0.040279877            5 
 1068000    1.0825179   -6.0248284    510.82759  0.039858583  0.040270627            1 
 1069000    1.0798541   -6.0295741    510.70464  0.039811712  0.040261663            3 
 1070000    1.0686543   -5.9758164    512.89057  0.039944749  0.040252481            5 
 1071000    1.0745519   -6.0110413    511.31166  0.039784598  0.040243579            3 
 1072000    1.0953113   -6.0274125    512.24478  0.039820023  0.040234616            2 
 1073000    1.0956184   -5.9808317    512.97161  0.039839361  0.040225484            1 
 1074000    1.0737806    -5.992966    513.57218  0.039848865  0.040216789            3 
 1075000     1.079384   -5.9952927    514.28707  0.039867215  0.040208217            3 
 1076000    1.0841541   -5.9737141    515.89056   0.03995435  0.040199854            7 
 1077000    1.0861301   -6.0220438    514.17934  0.039784845  0.040191243            7 
 1078000    1.0543032   -6.0225649    513.68143  0.039709449  0.040182584            3 
 1079000    1.0867318   -5.9504228    515.93131  0.039846409  0.040173668            4 
 1080000    1.0938325   -6.0322166    516.16973  0.039827911  0.040165008            2 
 1081000    1.0982384   -5.9805216    515.54968  0.039743268  0.040156647            9 
 1082000    1.0766856   -5.9824749    518.37044  0.039923786  0.040148283            7 
 1083000    1.0905323   -5.9926695    516.90695  0.039774312  0.040139831            4 
 1084000    1.0623518   -5.9816771    519.47699  0.039935193  0.040131398            4 
 1085000    1.0611029   -5.9875466    519.72908  0.039917748   0.04012289            2 
 1086000    1.0284402   -5.9969011    518.43426  0.039781635  0.040114163            2 
 1087000    1.0643864   -5.9911176    519.89797   0.03985725  0.040105595            4 
 1088000    1.0929364    -5.982275    521.05959  0.039909589  0.040097135            4 
 1089000    1.0600849   -5.9865624    519.40018  0.039745958  0.040088788            6 
 1090000    1.0735473   -5.9896614    521.23586  0.039849836  0.040080435            4 
 1091000    1.0854846   -6.0034274    520.43882  0.039752431  0.040071864            5 
 1092000    1.0725258   -6.0252794     520.9954  0.039758501   0.04006321            4 
 1093000    1.0652145   -6.0203541    520.95282  0.039718879   0.04005433            4 
 1094000    1.0917723   -6.0063329    521.19411  0.039700953  0.040045333            4 
 1095000    1.0475169   -5.9814617    521.87015  0.039716146  0.040036506            2 
 1096000    1.0910883   -5.9339227    524.30925  0.039865363  0.040027826            2 
 1097000    1.0596074   -5.9984869    521.15162  0.039589154  0.040018773            6 
 1098000     1.082361   -6.0007808    522.78095  0.039676757   0.04000997            4 
 1099000    1.0766865   -5.9898394    520.95422   0.03950214  0.040000664            3 
 1100000    1.0808337   -6.0373181    521.83947  0.039533294  0.039991493            8 
 1101000    1.0916137   -5.9813123    524.25301  0.039680065  0.039982008            3 
 1102000    1.0732527   -6.0409199    523.48594  0.039586051   0.03997276            2 
 1103000    1.0894982    -6.059215    522.36434  0.039465423  0.039963215            3 
 1104000    1.0498231   -6.0172949    522.91914  0.039471553  0.039954034            3 
 1105000    1.0784877   -6.0283927    523.84732  0.039505831  0.039944826            3 
 1106000    1.0635512    -6.015307    524.18467   0.03949553  0.039935794            3 
 1107000    1.0553726   -6.0156466    523.17811   0.03938408  0.039926513            3 
 1108000    1.0606998    -6.032994    525.28326  0.039506864  0.039917351            3 
 1109000    1.0798248   -6.0422129    524.90729  0.039442989  0.039908045            6 
 1110000    1.0747965   -5.9905915    528.58515   0.03968357   0.03989923            2 
 1111000    1.0711047   -6.0236515      526.808  0.039514551  0.039890454            3 
 1112000    1.0949472   -5.9977592    528.85874  0.039632699  0.039881837            2 
 1113000    1.0842054   -6.0589878    528.03342  0.039535296  0.039873301            4 
 1114000    1.0726979   -5.9946152    528.24144  0.039515368  0.039864653            5 
 1115000     1.101805   -6.0060469     529.5017  0.039574118   0.03985576            2 
 1116000    1.0650836   -6.0091458     528.7624  0.039483453  0.039846973            3 
 1117000    1.0805381   -5.9967775    530.70334  0.039592908  0.039838025            2 
 1118000    1.0563494   -6.0051264    530.01307  0.039506043  0.039828879            6 
 1119000     1.097166   -6.0086669    529.70419  0.039447736  0.039820042            3 
 1120000    1.0587523   -5.9968093    529.36356   0.03938717  0.039810961            3 
 1121000    1.0719429   -6.0334307    529.72769  0.039379103  0.039801691            4 
 1122000    1.0741466   -5.9901044    529.43555  0.039322308  0.039792341            3 
 1123000    1.0518937    -6.044346    530.91787  0.039397289  0.039783256            2 
 1124000    1.0572232   -6.0097548    530.28477    0.0393153  0.039773821            2 
 1125000    1.0670303   -5.9982132    531.75372  0.039389165  0.039764492            4 
 1126000    1.0905365   -5.9695626    535.05923  0.039598818  0.039755311            4 
 1127000    1.0753392   -6.0406027      531.513  0.039301464  0.039746259            4 
 1128000    1.0930004   -6.0032604    533.50273  0.039413618  0.039737033            4 
 1129000    1.0802928   -6.0419111    532.28733  0.039288997  0.039727867            3 
 1130000    1.0675999   -6.0165827    534.55748  0.039421643    0.0397186            4 
 1131000     1.079345   -6.0024351    533.64143  0.039319292  0.039709541            3 
 1132000    1.0736777   -6.0026414    532.96164  0.039234514  0.039700327            4 
 1133000    1.0458044   -5.9748046    534.74013  0.039330695  0.039690743            1 
 1134000    1.0570461   -6.0279002    534.29159   0.03926305  0.039681469            1 
 1135000    1.0662499   -6.0590284    534.34434  0.039232331  0.039671831            2 
 1136000    1.0507882   -6.0246326    534.36741  0.039199488  0.039662407            2 
 1137000    1.0725884   -6.0546115    533.22137  0.039081015  0.039652517            7 
 1138000    1.0763184   -6.0015726    534.41907  0.039134378  0.039642722            3 
 1139000    1.0705217   -6.0770277    532.39902  0.038952226  0.039632881            3 
 1140000    1.0699243   -6.0555976    535.76552  0.039164146  0.039623064            3 
 1141000    1.0752021   -6.0623361    534.81779  0.039060604  0.039613486            4 
 1142000    1.0558873   -5.9895787    535.53309  0.039078596  0.039603976            3 
 1143000    1.0864514   -6.0257792    534.84068  0.038993926  0.039594419            5 
 1144000    1.0574592   -5.9806767    538.16502  0.039201997  0.039584878            3 
 1145000    1.0838755   -6.0061192    537.39731  0.039111886   0.03957554            2 
 1146000    1.0910496   -6.0166353    538.61151  0.039166049  0.039566016            6 
 1147000    1.0672552   -6.0076721    538.56946  0.039128847  0.039556742            3 
 1148000    1.0680522   -5.9783986    539.52169  0.039163886  0.039547423            8 
 1149000    1.0672972   -6.0002197    539.98401  0.039163331  0.039538272            3 
 1150000    1.0400911   -6.0340528     537.5967  0.038956283  0.039528846            4 
 1151000    1.0643957   -6.0135114     540.4149  0.039126477  0.039519474            3 
 1152000    1.0760362   -6.0311196     538.6684  0.038966174  0.039509841            4 
 1153000    1.0626101   -6.0058118      541.155  0.039112099  0.039500377            2 
 1154000    1.0757273   -6.0060752    539.52251   0.03896032  0.039490403            2 
 1155000    1.0770285   -6.0056943    538.80038  0.038874487   0.03948069            6 
 1156000    1.0650379   -6.0520294    539.62253  0.038900124  0.039471037            4 
 1157000    1.0586454   -5.9978956    541.42857  0.038996584  0.039461181            2 
 1158000    1.0782791   -6.0640736    539.29178  0.038809138  0.039451666            2 
 1159000    1.0447055   -6.0555826    543.06981  0.039047297  0.039441784            3 
 1160000    1.0715196   -5.9944254     543.1306  0.039018003   0.03943225            2 
 1161000    1.0273686   -5.9795449    543.60377  0.039018358   0.03942274            2 
 1162000    1.0617713   -6.0204224    542.57896  0.038911285   0.03941311            3 
 1163000    1.0412621   -6.0440581    541.73803  0.038817572  0.039403347            2 
 1164000    1.0610094   -6.0524492     540.3432  0.038684364    0.0393932            2 
 1165000    1.0590249   -6.0248721    544.31507   0.03893527  0.039382998            3 
 1166000    1.0829657    -6.017994    545.60245  0.038993886  0.039373001            4 
 1167000    1.0651048   -5.9831706    545.10178   0.03892472   0.03936358            4 
 1168000    1.0717973   -6.0474714    545.21522  0.038899488  0.039353962            2 
 1169000    1.0704363   -6.0074055    544.80337  0.038836853  0.039344159            2 
 1170000    1.0627527   -6.0479596    545.47124  0.038851228  0.039334022            2 
 1171000    1.0609744   -6.0029711    547.25528   0.03894501  0.039324415            1 
 1172000    1.0877856   -6.0239874    545.96258  0.038819865  0.039314484            3 
 1173000     1.074928   -6.0332377    546.79128  0.038845644  0.039304886            6 
 1174000    1.0780058   -6.0495286    547.43967   0.03885858  0.039295233            4 
 1175000    1.0598706   -6.0720292    546.29364   0.03874423  0.039285702            4 
 1176000    1.0769518   -6.0080289    548.92047  0.038897426  0.039275856            3 
 1177000    1.0591866   -6.0327172    549.56451  0.038909976   0.03926607            3 
 1178000     1.038458   -6.0798095    545.37255  0.038580401  0.039256116            4 
 1179000    1.0891635   -6.0555963    546.95115  0.038659255  0.039245977            5 
 1180000    1.0651594   -6.0318634    548.95491  0.038768002  0.039236186            4 
 1181000    1.0381422   -6.0442295    548.80677  0.038724723  0.039226142            5 
 1182000    1.0764097   -6.0531928    548.01675  0.038636263   0.03921615            4 
 1183000    1.0651298   -6.0341716    549.67792   0.03872062  0.039206348            4 
 1184000    1.0974477   -6.0251457    548.34214  0.038593901  0.039196612            4 
 1185000    1.0690639   -6.0108257    551.23533  0.038764791  0.039187086            3 
 1186000     1.081713   -6.0637331    549.63546  0.038619692  0.039177126            3 
 1187000    1.0829339   -6.0276643    550.98188  0.038681682  0.039167299            3 
 1188000    1.0753955   -6.0320516    552.54512  0.038758777  0.039157703            3 
 1189000    1.0639507   -6.0707141    552.05214  0.038691627  0.039148105            4 
 1190000    1.0501878   -6.0258462    553.03026  0.038727609  0.039138595            3 
 1191000    1.0679464   -6.0137661      554.057  0.038766933  0.039129132            4 
 1192000    1.0735948   -6.0072002    553.57376  0.038700626  0.039119538            4 
 1193000    1.0878032   -6.0616318    553.44716  0.038659344  0.039109826            2 
 1194000    1.0288111   -6.0516476    553.99803  0.038665412   0.03910029            6 
 1195000    1.0596927   -6.0446055    554.37666   0.03865946  0.039090593            4 
 1196000    1.0515376   -6.0530618     553.2497  0.038548614    0.0390809            3 
 1197000    1.0714583   -6.0974742    552.61527  0.038472241  0.039071018            2 
 1198000    1.0407774   -6.0398914    554.70466  0.038585466   0.03906102            3 
 1199000     1.055506   -6.0150684    555.21806  0.038588967  0.039050989            2 
 1200000    1.0617895   -6.0720021    555.23277  0.038557831  0.039041035            3 
 1201000    1.0632172   -6.0500893    554.83315  0.038497998  0.039030973            6 
 1202000    1.0738628   -6.0887236     554.4172  0.038437132  0.039020776            2 
 1203000    1.0675572   -6.0433044    555.81761  0.038502189  0.039010544            2 
 1204000    1.0479203   -6.0782407    555.17144  0.038425487  0.039000367            3 
 1205000    1.0363926   -6.0157285     558.1519  0.038599716  0.038990442            3 
 1206000    1.0319504    -6.019044    556.28446  0.038438672  0.038980622            1 
 1207000    1.0497634   -6.0400707    556.87166  0.038447367  0.038970802            4 
 1208000    1.0699817   -6.0628778    558.52055  0.038529287  0.038960695            3 
 1209000    1.0603581   -6.0665839    556.48608  0.038357188  0.038950839            3 
 1210000    1.0467988   -6.0455954    558.23938  0.038446238  0.038940929            3 
 1211000     1.050131    -6.027254    559.46891  0.038499099  0.038931068            3 
 1212000    1.0528134   -6.0484923    559.81192  0.038490919  0.038921256            5 
 1213000    1.0463753   -6.0725629    560.65785  0.038517302  0.038911258            5 
 1214000     1.063933    -6.077398    558.56367  0.038341822  0.038901496            6 
 1215000    1.0492196   -6.0538688    561.82493  0.038533946  0.038891835            2 
 1216000    1.0901284   -6.0293638    562.63233  0.038557588  0.038882305            4 
 1217000    1.0438914   -6.0684294    560.52551  0.038381643  0.038872666            5 
 1218000    1.0600014   -6.0685089    560.16192  0.038325254  0.038862836            2 
 1219000    1.0649255   -6.0615948    561.83935  0.038408487  0.038853083            2 
 1220000    1.0533568   -6.0631732    561.65079  0.038364125  0.038843404            2 
 1221000    1.0751852   -6.0808507    563.12264  0.038433159  0.038833533            3 
 1222000    1.0367415   -6.0436483    564.75519  0.038513038  0.038823756            4 
 1223000    1.0623366   -6.0703591    562.00082  0.038293869  0.038814098            3 
 1224000    1.0818732   -6.0803381    563.10958   0.03833807  0.038804719            8 
 1225000    1.0636374   -6.0922711    564.26006  0.038385038  0.038795281            6 
 1226000     1.049221   -6.1000058    563.45518   0.03829902  0.038785771            1 
 1227000    1.0606736   -6.0745625    564.20339  0.038318622  0.038776344            2 
 1228000    1.0602347   -6.0572865    566.39333  0.038436029  0.038766834            3 
 1229000     1.046296   -6.0746052    565.04192  0.038313122  0.038757169            3 
 1230000    1.0396316   -6.0708598    565.64339  0.038322723  0.038747527            4 
 1231000    1.0438146   -6.0182233    567.77966  0.038436208  0.038738162           13 
 1232000     1.069272   -6.0560455     565.3335  0.038239549  0.038728583            3 
 1233000    1.0494944   -6.0680882    566.53375  0.038289656  0.038719094            5 
 1234000    1.0521492   -6.0402578    566.72559  0.038271582  0.038709462            3 
 1235000    1.0216388   -6.0541015    566.13222  0.038200555  0.038699721            2 
 1236000    1.0577229   -6.0494629    567.74728  0.038278538  0.038689975            2 
 1237000    1.0448464   -6.0753274    566.63179  0.038172446  0.038680091            3 
 1238000    1.0640104   -6.0209149    570.18342  0.038380683  0.038670603            1 
 1239000    1.0196161   -6.0814571    566.46781  0.038099799  0.038660887            9 
 1240000     1.056603   -6.0974694    567.98457  0.038171006  0.038651249            2 
 1241000    1.0622711   -6.0696787    569.96612  0.038273309  0.038641734            8 
 1242000    1.0546133   -6.0753058    569.34728  0.038200972  0.038632058            2 
 1243000    1.0459225   -6.0552335    569.00488  0.038147284  0.038622219            3 
 1244000     1.049883   -6.0652617    569.29394  0.038135982  0.038612457            4 
 1245000     1.049063   -6.0604352    571.33522  0.038241983  0.038602871            2 
 1246000    1.0196561   -6.0747581    568.83075   0.03804379  0.038593235            5 
 1247000    1.0444682   -6.0579279    571.01593  0.038159311  0.038583467            2 
 1248000     1.066851   -6.0339143    572.60522  0.038234857  0.038573749            2 
 1249000    1.0435298   -6.0515143    572.37564  0.038188927  0.038564186            2 
 1250000    1.0549439   -6.0510058    571.80539   0.03812036  0.038554717            3 
 1251000    1.0359903   -6.0797329    571.45508  0.038066552  0.038545189            2 
 1252000     1.048284   -6.0606233    571.11996  0.038013842  0.038535496            5 
 1253000    1.0569298   -6.0553298    573.86038  0.038165761  0.038525762            5 
 1254000    1.0544889   -6.0706615    571.69893  0.037991688  0.038516129            3 
 1255000    1.0538934   -6.0671819    572.47368   0.03801286  0.038506242            5 
 1256000    1.0429844   -6.0566679     573.6995  0.038063927  0.038496315            3 
 1257000    1.0624861   -6.0748963    572.79384  0.037973604  0.038486005            3 
 1258000     1.052129   -6.0624795    574.08833  0.038029169  0.038475968            3 
 1259000    1.0518292   -6.0839577    573.81969  0.037981182  0.038465919            2 
 1260000    1.0721381   -6.0737182    574.44673  0.037992509  0.038455953           10 
 1261000     1.065602   -6.0564049    575.64436  0.038041525  0.038446122            2 
 1262000    1.0417086    -6.082909     573.3821  0.037861998  0.038436198            4 
 1263000    1.0799253   -6.0605405     576.1798  0.038016614  0.038426385            6 
 1264000    1.0218682   -6.0592623     577.1683  0.038051707  0.038416814            3 
 1265000    1.0465122   -6.0453251    578.93805  0.038138212  0.038407262            2 
 1266000     1.034785   -6.0675518    577.04858  0.037983714  0.038397768            3 
 1267000    1.0438071   -6.1002615    575.16454  0.037829817  0.038387837            3 
 1268000     1.048716    -6.047563    578.50578   0.03801957  0.038378029            8 
 1269000    1.0426152   -6.0831934      580.328  0.038109273  0.038368439            2 
 1270000     1.029793   -6.0843688    577.90757  0.037920444  0.038358921            5 
 1271000    1.0481852   -6.0957682    577.88128  0.037888886   0.03834924            9 
 1272000     1.031248   -6.0761618    579.32135  0.037953443  0.038339678            5 
 1273000    1.0406613   -6.0734809     580.3157  0.037988721  0.038330065            4 
 1274000    1.0529692   -6.0726472     579.6096  0.037912716  0.038320491            2 
 1275000    1.0401998   -6.0700276    579.71046  0.037889573  0.038310823            3 
 1276000    1.0362984   -6.0522168    579.24255   0.03782932   0.03830103            3 
 1277000    1.0591914   -6.0255255    581.77658   0.03796506  0.038291177            2 
 1278000    1.0648315   -6.0614111    580.01089   0.03782022  0.038281209            3 
 1279000    1.0348326   -6.0462063    578.05161  0.037662993   0.03827123            3 
 1280000     1.048351    -6.095803    579.14137  0.037704516  0.038261286            3 
 1281000    1.0685628   -6.0937576    578.93892  0.037661913  0.038250983            8 
 1282000    1.0442634   -6.0727907     581.3337  0.037788202   0.03824109            2 
 1283000    1.0512199   -6.0850187    580.95771  0.037734327  0.038231007            4 
 1284000    1.0115707   -6.0561183    581.17442  0.037719004  0.038221113            3 
 1285000    1.0311795   -6.0623321    582.32736   0.03776442  0.038211331            5 
 1286000    1.0693098   -6.0677468    582.25214   0.03773018  0.038201223           10 
 1287000    1.0443974   -6.1018463    579.92184  0.037549977  0.038191063            6 
 1288000    1.0529639   -6.1001057    582.34895  0.037677856   0.03818082            5 
 1289000    1.0206218   -6.1043391    583.23268  0.037705759  0.038170655            3 
 1290000    1.0524252   -6.1084578    581.96351  0.037594542  0.038160737            3 
 1291000    1.0576342   -6.0597071    583.20012  0.037645244  0.038150674            4 
 1292000    1.0449111   -6.1244316    583.17615  0.037614561  0.038140428            4 
 1293000    1.0243801    -6.039358    586.44534  0.037796168  0.038130472            6 
 1294000    1.0544473   -6.0696329    585.06287  0.037677928  0.038120586            4 
 1295000    1.0604324   -6.1070253    585.30802  0.037664609  0.038110767            6 
 1296000    1.0536809   -6.1351804    585.20846  0.037629145  0.038100826            4 
 1297000    1.0391849   -6.0954652     585.7841  0.037637118  0.038090914            4 
 1298000    1.0729217   -6.0452617    588.39993  0.037776061  0.038081125            3 
 1299000    1.0242317   -6.1141596    584.57836   0.03750182  0.038071192            5 
 1300000    1.0602079   -6.0703402    586.31525  0.037584311  0.038061441            2 
 1301000    1.0463291    -6.089689    587.02311  0.037600763  0.038051533            3 
 1302000    1.0490952   -6.0676357    589.12107  0.037706162  0.038041848            9 
 1303000    1.0162841    -6.055224    589.27668  0.037687176  0.038032158            1 
 1304000    1.0430771   -6.0883341    588.76014  0.037625265  0.038022539            3 
 1305000    1.0525538   -6.0854228    587.42592  0.037511234  0.038012562            4 
 1306000    1.0396942   -6.0962791    588.23165  0.037533924   0.03800255            3 
 1307000    1.0456879   -6.0962376    589.09403  0.037560191  0.037992526            2 
 1308000    1.0262135   -6.1248605    588.04304  0.037464516  0.037982515            2 
 1309000    1.0136682   -6.0977433    589.60034  0.037535036  0.037972674            3 
 1310000    1.0438059   -6.0797687    591.29477  0.037614171   0.03796288            6 
 1311000    1.0420722   -6.0901524    590.66916  0.037545713  0.037953276            5 
 1312000    1.0606322   -6.1082358    592.56445  0.037637478   0.03794371            3 
 1313000     1.040221   -6.1351033    589.45872  0.037411698  0.037933941            2 
 1314000    1.0515604   -6.0940463    592.26814  0.037561399  0.037924179            3 
 1315000   0.99933367   -6.0862732    589.59683  0.037363551  0.037914227            4 
 1316000    1.0572975   -6.1039457    590.68524   0.03740408  0.037904328            3 
 1317000    1.0416471   -6.1110437    591.91561  0.037453531  0.037894584            3 
 1318000    1.0332773   -6.0833332    593.49071  0.037524703  0.037884656            2 
 1319000    1.0420759   -6.0586467    595.24033  0.037606793   0.03787528            6 
 1320000    1.0493427   -6.0483016    596.22687  0.037640585  0.037865872            5 
 1321000     1.057673   -6.0349641    594.89227    0.0375279  0.037856652            6 
 1322000    1.0430222   -6.0496987    597.20873  0.037645533  0.037847285            3 
 1323000    1.0430391   -6.0845907     596.8242  0.037592857  0.037837794            4 
 1324000    1.0422884   -6.0888516    595.58402  0.037486406  0.037828292            4 
 1325000    1.0232728   -6.0568779    596.38019  0.037508188  0.037818657            8 
 1326000     1.024579   -6.0741912    596.84339  0.037509011  0.037809354            5 
 1327000     1.052248   -6.0855364    595.04276  0.037367669  0.037800148            3 
 1328000    1.0249702   -6.0901532    595.39731  0.037361779  0.037790736            4 
 1329000    1.0246453   -6.1014275     596.3396  0.037392751  0.037781261            4 
 1330000    1.0374417    -6.079727    596.60159  0.037381052  0.037771993            5 
 1331000    1.0202716   -6.0936085    597.31161  0.037397421    0.0377625            3 
 1332000    1.0276758   -6.0876023    596.88459  0.037342629  0.037752963            5 
 1333000    1.0424041   -6.1063361    597.05006   0.03732496  0.037743312            2 
 1334000    1.0490594   -6.1227446    597.44735  0.037321798  0.037733615            6 
 1335000    1.0364349   -6.1068488    596.84174  0.037256039  0.037723774            2 
 1336000    1.0225544   -6.1397667    597.16051  0.037248036  0.037713893            3 
 1337000    1.0333407   -6.1115705    600.09528  0.037403096  0.037704101            3 
 1338000    1.0165615    -6.088594      597.611  0.037220416  0.037694333            4 
 1339000    1.0131389   -6.0998966    598.80979  0.037267226  0.037684315            4 
 1340000    1.0160225    -6.132943    598.42252  0.037215331  0.037674436            4 
 1341000    1.0241651   -6.0747605    599.66067  0.037264521   0.03766449            4 
 1342000    1.0375066   -6.1220177    598.33645  0.037154523  0.037654813            3 
 1343000    1.0429213   -6.1112295    601.11127  0.037299036  0.037645081            6 
 1344000     1.053915   -6.0887352    601.87926  0.037318903  0.037635225            7 
 1345000    1.0286225   -6.1190425    600.46087  0.037203276  0.037625499            2 
 1346000    1.0272544   -6.0704488    602.80916  0.037321023  0.037615506            4 
 1347000    1.0470829   -6.1285517    602.05829  0.037246862  0.037605874            3 
 1348000    1.0537791   -6.0885487    602.36126  0.037237961  0.037595976            3 
 1349000    1.0468757   -6.1361415    601.96465  0.037185857  0.037586222            4 
 1350000    1.0391655   -6.0963364     603.9724  0.037282247  0.037576325            3 
 1351000    1.0360993   -6.1016037     601.4871  0.037101351  0.037566677            5 
 1352000    1.0191056   -6.0770748    603.84164  0.037219036  0.037556687            5 
 1353000     1.039874    -6.080058    604.42928  0.037227721  0.037547113            2 
 1354000    1.0355694   -6.1235208    601.58736  0.037025318  0.037537368            5 
 1355000    1.0351355   -6.1034668    604.55894  0.037180747  0.037527547            3 
 1356000    1.0086404   -6.1417879    603.53431  0.037090358  0.037517763            5 
 1357000     1.045685   -6.1105177    604.69331    0.0371342  0.037507942            6 
 1358000     1.022756   -6.1273187    603.98274  0.037063251  0.037498155            3 
 1359000    1.0373963   -6.1076834    605.92758  0.037155235  0.037488478            3 
 1360000    1.0448327   -6.0824502    607.35875   0.03721561  0.037478673            6 
 1361000    1.0396684   -6.0986179    605.69195  0.037086208  0.037469096            4 
 1362000     1.022132   -6.1176268    604.24536   0.03697047   0.03745933            5 
 1363000    1.0451244   -6.0752953    607.69651  0.037154348  0.037449735            4 
 1364000    1.0173847   -6.1439959    605.24929  0.036977596  0.037439929            3 
 1365000    1.0511863   -6.1306988    604.05904  0.036877841   0.03742996            3 
 1366000     1.023839   -6.1016338    605.83476  0.036959173  0.037419864            6 
 1367000    1.0318059   -6.1224653    606.45717  0.036970079  0.037410043            4 
 1368000    1.0399965   -6.0833978    608.95772  0.037095377  0.037400279            5 
 1369000    1.0452133   -6.0842422     608.6878   0.03705185   0.03739039            5 
 1370000    1.0248995   -6.0894138    608.49178  0.037012882    0.0373804            3 
 1371000    1.0152223   -6.1008968    606.79702  0.036882872  0.037370453            4 
 1372000    1.0333636   -6.1088573    607.23185  0.036882401  0.037360379            2 
 1373000     1.043918   -6.0783163    606.78212  0.036828242  0.037350504            3 
 1374000    1.0383266   -6.0616497     610.5777  0.037031641  0.037340779            7 
 1375000    1.0255829   -6.1435206    609.57372  0.036943862  0.037330756            4 
 1376000    1.0542845   -6.0897929    610.76592  0.036989215  0.037320959            4 
 1377000    1.0104644   -6.1268408    610.15953  0.036925655   0.03731111            2 
 1378000    1.0473466   -6.1045869     608.8184  0.036817755  0.037301357            5 
 1379000    1.0322546   -6.0886295    612.03387  0.036985368  0.037291615            3 
 1380000    1.0298895   -6.0842869    612.62312   0.03699415  0.037282136            2 
 1381000    1.0417571   -6.1351463    610.94766   0.03686626  0.037272672            5 
 1382000    1.0364762   -6.0981731    611.98543  0.036902161  0.037263076            2 
 1383000    1.0232925   -6.1183684    613.20936  0.036949227  0.037253548            3 
 1384000    1.0193355   -6.0687165    614.15181  0.036979276  0.037243925            2 
 1385000    1.0195686   -6.0938289     613.0463  0.036886059  0.037234546            9 
 1386000    1.0353359   -6.1280117    612.34133  0.036817059  0.037225076            5 
 1387000    1.0256792    -6.093155    613.41809  0.036855208  0.037215394            2 
 1388000    1.0621529   -6.0718391    615.00445  0.036923898  0.037206017            2 
 1389000    1.0240281   -6.1651872    612.33915   0.03673741  0.037196564            4 
 1390000     1.039622   -6.1389118    613.37591  0.036773136  0.037186952            7 
 1391000   0.99472339   -6.1162676    615.13288  0.036851958   0.03717738            5 
 1392000    1.0484757   -6.0995353    615.37988   0.03684027  0.037167763            3 
 1393000    1.0224935    -6.075644    618.31621  0.036989484  0.037158347            4 
 1394000    1.0160938   -6.0955016    615.50582  0.036794944   0.03714892            3 
 1395000    1.0239796    -6.146409    617.09583   0.03686355  0.037139558            4 
 1396000    1.0244367   -6.1453254    616.12674  0.036779294  0.037129941            2 
 1397000    1.0117328   -6.1094408    615.94857  0.036742339    0.0371205            3 
 1398000    1.0431963   -6.1018859    617.81586  0.036827364  0.037110992            3 
 1399000    1.0194361   -6.0986519    619.80923  0.036919778  0.037101507            1 
 1400000    1.0331393   -6.1658407    616.34886  0.036687432  0.037091857            4 
 1401000    1.0245628   -6.1034817     619.9532  0.036875637   0.03708212            6 
 1402000    1.0274134   -6.0957314    620.27427  0.036868418  0.037072539            2 
 1403000    1.0242662   -6.1413976    618.67064   0.03674689  0.037063245            2 
 1404000    1.0068975   -6.1403764    619.61103  0.036776533  0.037053577            3 
 1405000    1.0078523   -6.1496003    618.00961  0.036655374  0.037043991            5 
 1406000    1.0386237   -6.1070527    618.54661  0.036661131  0.037034326            5 
 1407000    1.0321979   -6.1507386    619.49096  0.036691007  0.037025009            2 
 1408000     1.034066   -6.1248822    620.17047  0.036705165  0.037015452            4 
 1409000    1.0297337   -6.1508797    619.79878  0.036657131  0.037005741           11 
 1410000    1.0364915   -6.1343014    620.33878  0.036663048  0.036996059            3 
 1411000     1.040556   -6.1372106    620.64726  0.036655284  0.036986535            4 
 1412000    1.0240663   -6.1084656    623.39416   0.03679144  0.036976984            5 
 1413000    1.0177162   -6.1354527     622.3321  0.036702766  0.036967631            3 
 1414000    1.0295856   -6.1527249    621.11116  0.036604854   0.03695819            4 
 1415000    1.0526607   -6.1123081     620.7107    0.0365554  0.036948894            3 
 1416000    1.0074137   -6.1193263     623.3941  0.036687506  0.036939475            2 
 1417000     1.024732   -6.1165528     623.4048  0.036662244  0.036929997            2 
 1418000    1.0208793    -6.112783    624.84925  0.036721277  0.036920768            3 
 1419000     1.042442   -6.0929867    626.10391  0.036769081  0.036911643            7 
 1420000    1.0067407   -6.1501039    623.17715  0.036571429   0.03690251            4 
 1421000    1.0290163   -6.1234241    625.51332  0.036682695  0.036893317            1 
 1422000    1.0480989   -6.1100386    625.66336  0.036665692   0.03688421            2 
 1423000    1.0175503   -6.1470294    624.36916  0.036564134  0.036874904            9 
 1424000    1.0056818    -6.092332    625.34917  0.036595808  0.036865428            8 
 1425000    1.0043517   -6.1154228     626.3413  0.036628146  0.036856126            7 
 1426000    1.0290098   -6.1178961    624.62615  0.036502229  0.036846753            3 
 1427000    1.0149178   -6.1161486    626.81437  0.036604436  0.036837526            4 
 1428000    1.0201951   -6.1337547     625.7365  0.036515902  0.036828328            3 
 1429000    1.0397303   -6.1464593    625.40361  0.036470936  0.036818966            4 
 1430000    1.0291992   -6.1114961    627.13357  0.036546246    0.0368097            3 
 1431000    1.0031916   -6.1104521    628.49794  0.036600159  0.036800517            4 
 1432000    1.0359291   -6.1073568    629.66848  0.036642719  0.036791477           10 
 1433000    1.0252392   -6.1149929    627.99733  0.036519966  0.036782382            7 
 1434000    1.0158984   -6.1151271    627.37437  0.036458297  0.036773108            4 
 1435000    1.0163795   -6.1230006    628.66975  0.036508116     0.036764            3 
 1436000    1.0388901   -6.1531207    628.13499  0.036451659  0.036754565            3 
 1437000    1.0317042   -6.1483925    628.03183   0.03642031  0.036745016            3 
 1438000    1.0344493   -6.1516194    629.01146  0.036451754    0.0367358            6 
 1439000    1.0211526   -6.1230397    627.93448  0.036364054  0.036726504            3 
 1440000    1.0204543   -6.1655299    627.58288  0.036318454  0.036717089           12 
 1441000    1.0228776   -6.1489646    629.14839  0.036383784  0.036707369            3 
 1442000    1.0271096   -6.1471171    630.25781  0.036422666   0.03669789            5 
 1443000    1.0279966    -6.143687    630.44561   0.03640827  0.036688528            4 
 1444000    1.0349624   -6.0884677    631.31828  0.036433419  0.036679046            3 
 1445000    1.0138471   -6.1316429    630.26201   0.03634729  0.036669472            5 
 1446000    1.0007394   -6.1201886    631.80991   0.03641136   0.03665989            4 
 1447000    1.0103017   -6.1342141    629.59176  0.036258452  0.036650432            2 
 1448000    1.0192999   -6.1438302    630.67373   0.03629568  0.036640804            6 
 1449000    1.0005882     -6.13091    629.97275  0.036230317  0.036630994            5 
 1450000     1.014546   -6.1425074    634.16848  0.036446464  0.036621457            4 
 1451000    1.0014948   -6.1156659    631.75345  0.036282647  0.036611958            8 
 1452000    1.0136611   -6.1308685    633.18119    0.0363396  0.036602529            3 
 1453000     1.034642   -6.1547988    633.54709  0.036335575  0.036593047            3 
 1454000     1.005158   -6.1261655    632.22908  0.036235046  0.036583508            2 
 1455000    1.0056215   -6.1453367    632.52538  0.036227112   0.03657395            5 
 1456000    1.0305277   -6.1283587    633.89355  0.036280538  0.036564841            3 
 1457000   0.99668653   -6.1758237    633.32043  0.036222857  0.036555396            2 
 1458000    1.0228552   -6.1249084    634.49885  0.036265366  0.036546212            1 
 1459000    1.0198275   -6.1359157    634.60564  0.036246609  0.036536755            4 
 1460000   0.99657287   -6.1331864    635.68558  0.036283424  0.036527243            2 
 1461000    1.0317396    -6.098825    638.32808  0.036409313  0.036517968            5 
 1462000    1.0163262   -6.1339103    638.09084  0.036370887  0.036508785            2 
 1463000    1.0153588   -6.1598155    636.04116  0.036229275  0.036499451            5 
 1464000    1.0010267   -6.1524413    636.34412  0.036221773  0.036489959            4 
 1465000   0.99868147    -6.146658    636.12669  0.036184681  0.036480336            4 
 1466000    1.0231373   -6.1485812     636.4915  0.036180735  0.036470927            4 
 1467000     1.027006   -6.1852437    634.90483  0.036065941  0.036461444            3 
 1468000    1.0195577   -6.1519828    638.17775  0.036227166  0.036452264            6 
 1469000     1.022785   -6.1184244    639.03495  0.036251132  0.036443111            4 
 1470000    1.0448472   -6.1486094    639.92813  0.036277105  0.036433916            2 
 1471000     1.029907    -6.160985    639.68985  0.036238945  0.036424522            4 
 1472000    1.0106628   -6.1544758    639.73655   0.03621697  0.036415227            4 
 1473000   0.99301428   -6.1551475    637.32368  0.036055877  0.036405894            6 
 1474000    1.0117456   -6.1735694     640.0417   0.03618508  0.036396342            6 
 1475000    1.0051528   -6.1702504       638.82  0.036091525  0.036386835            4 
 1476000    1.0191712   -6.1589028    640.18125  0.036143928  0.036377237            5 
 1477000     1.009659   -6.1689598    637.30948   0.03595743  0.036367746            8 
 1478000    1.0075543   -6.1726898     638.9133  0.036023528  0.036358046            5 
 1479000    1.0036892    -6.171083    638.52993  0.035977571  0.036348497            5 
 1480000    1.0372601    -6.151937    640.01906  0.036037109  0.036338889            3 
 1481000    1.0255605   -6.1899381    638.84068  0.035946471  0.036329555            5 
 1482000    1.0139059   -6.1581933    640.45133  0.036012783  0.036320022            2 
 1483000    1.0151081   -6.1309767    640.88768  0.036013019  0.036310443            4 
 1484000    1.0280396   -6.1204252    643.13735   0.03611508  0.036301028            5 
 1485000    1.0087894    -6.175607    638.81162  0.035848015  0.036291488            4 
 1486000     1.029706   -6.1926686     639.5647  0.035866123  0.036281892            4 
 1487000    1.0135548   -6.1316551    642.05698  0.035981673  0.036272124            4 
 1488000   0.99776001   -6.1543025    642.79154   0.03599863  0.036262246            3 
 1489000    1.0103558   -6.1493887    642.00003  0.035930156  0.036252228            8 
 1490000   0.99979849   -6.1970566     639.8686  0.035786834  0.036242449            1 
 1491000    1.0163447   -6.1627808    641.51919  0.035855086  0.036232506            3 
 1492000    1.0269854   -6.1447147     643.5616  0.035945129    0.0362227            1 
 1493000    1.0110521   -6.1167778    642.17513  0.035843667   0.03621314            5 
 1494000    1.0139929    -6.146687    642.04907  0.035812643  0.036203334            7 
 1495000   0.98294456   -6.1614406    642.41241  0.035808942  0.036193567            4 
 1496000     1.021026   -6.1693554    641.92037  0.035757596  0.036183893            3 
 1497000    0.9934744   -6.1302569    643.89208  0.035843469  0.036174062            5 
 1498000    1.0079711   -6.1314666     642.9803   0.03576882  0.036164294            8 
 1499000    1.0343871   -6.1691332    644.22341  0.035814065   0.03615448            5 
 1500000    1.0013407   -6.1350262    646.46851  0.035914917  0.036145038            3 
 1501000    1.0155752   -6.1291602    644.51482  0.035782524  0.036135402            3 
 1502000    1.0028601   -6.1464401    646.36287  0.035861233  0.036125783            3 
 1503000    1.0325589   -6.1545802    645.21171  0.035773548  0.036116055            3 
 1504000    1.0256575   -6.1365113    646.17268  0.035803008  0.036106351            4 
 1505000   0.99142738   -6.1688224    644.36382   0.03567906  0.036096856            6 
 1506000    1.0049166   -6.1177424    645.96485   0.03574396  0.036087154            3 
 1507000   0.99875334   -6.1743015    646.39224  0.035743875  0.036077475            4 
 1508000    0.9859579    -6.149438     648.0707  0.035812926  0.036067886            6 
 1509000    1.0123101    -6.164044    645.57901  0.035651591  0.036058267            3 
 1510000    1.0290855   -6.1693643    646.96476  0.035704457  0.036048714            2 
 1511000    1.0010118   -6.2027416    645.82354  0.035617888  0.036039138            2 
 1512000    1.0176689   -6.1636379    648.09204  0.035719358  0.036029426            4 
 1513000    1.0226579   -6.1994339    646.06016  0.035583838  0.036019661            2 
 1514000    1.0146746   -6.1817623    649.35628  0.035741759   0.03601009            2 
 1515000    1.0330493   -6.1783772    649.24955  0.035712296  0.036000624            4 
 1516000    1.0146729   -6.1666227    650.26046  0.035744309   0.03599106            6 
 1517000    1.0020272   -6.1629259    648.29904  0.035612999  0.035981609            2 
 1518000    1.0252751   -6.1397572    651.53462  0.035767162  0.035972133            5 
 1519000   0.98752122   -6.1954486    649.84262  0.035650791  0.035962769            4 
 1520000    1.0042654   -6.1615317    650.09257   0.03564104  0.035953251            3 
 1521000   0.98421836   -6.1545698    650.83532  0.035658302  0.035943741            3 
 1522000    1.0072437   -6.1605649     650.7659  0.035631072  0.035934102            4 
 1523000    1.0119184   -6.1490762    650.78259   0.03560859  0.035924585            3 
 1524000    1.0104714   -6.1710808    652.01174  0.035652435  0.035915123            4 
 1525000    0.9916469   -6.1843543    650.99978  0.035573758  0.035905577            3 
 1526000   0.99679722   -6.1878845    651.51276   0.03557846  0.035896003            3 
 1527000     1.004785   -6.1854748    651.68168  0.035564379  0.035886432            4 
 1528000    1.0278964   -6.1645245    653.75732  0.035654304  0.035876887            8 
 1529000    1.0031919   -6.1803377    652.49931  0.035562421  0.035867287            5 
 1530000    1.0078039   -6.1510935    652.95776  0.035564148  0.035857578            6 
 1531000    1.0344073   -6.1831996    651.35957  0.035453928  0.035847969            5 
 1532000    1.0047077    -6.188659    653.09172  0.035525006  0.035838234            5 
 1533000    1.0076625   -6.1264423    656.20227  0.035670921  0.035828618            5 
 1534000    1.0108836   -6.1254752    654.47976  0.035554094  0.035819052            4 
 1535000   0.99671103   -6.1803797    652.86833  0.035443449  0.035809532            6 
 1536000   0.97119664     -6.14781     654.1605  0.035490479   0.03579982            3 
 1537000   0.99799354   -6.1650997    654.53711  0.035487807  0.035790229            4 
 1538000   0.98778012   -6.1533611    653.22664  0.035393728   0.03578065            4 
 1539000     1.015534   -6.1966732     653.7471  0.035398911   0.03577083            3 
 1540000   0.99803527    -6.161856    656.26707  0.035512287  0.035761132            4 
 1541000    1.0045573   -6.1848185    654.30918  0.035383364  0.035751477            1 
 1542000   0.99591402   -6.2029418    654.53694  0.035372727  0.035741855            5 
 1543000    0.9806983   -6.2020703    655.66919  0.035410952  0.035732182            4 
 1544000   0.99948265   -6.1573873    657.24089  0.035472846  0.035722755            6 
 1545000    1.0221962   -6.2132015    653.91558  0.035270527  0.035713366            2 
 1546000   0.98348728   -6.1923107    656.61588  0.035393266  0.035703862            3 
 1547000   0.99739714    -6.139683    659.34407  0.035517349  0.035694344            3 
 1548000    1.0168463   -6.1524389    658.62815  0.035455865  0.035684917            3 
 1549000   0.96383042   -6.2097716    656.10815  0.035297404   0.03567557            4 
 1550000    1.0209132   -6.1895759    655.80649  0.035258413  0.035666035            4 
 1551000   0.99377905   -6.1873019    657.91152  0.035348781  0.035656662            3 
 1552000    1.0310759   -6.1860743    657.05709  0.035280127  0.035647263            6 
 1553000    1.0223424   -6.1852144    658.09696  0.035313209   0.03563794            4 
 1554000    1.0104341   -6.1411529    661.92009  0.035495501  0.035628332            8 
 1555000   0.99599458   -6.1579751    660.42943  0.035392788  0.035618866            3 
 1556000   0.97203846   -6.1547089    660.53989  0.035375958  0.035609543            3 
 1557000     1.004828   -6.1621896    662.63128  0.035465172  0.035600291            6 
 1558000    1.0267314   -6.1806837    659.29062  0.035263726  0.035590947            3 
 1559000    1.0181868    -6.157376    661.77358  0.035373829  0.035581514            1 
 1560000    1.0136547   -6.1879003    660.60106  0.035288518  0.035572038            4 
 1561000    1.0243134   -6.2146592    657.98764  0.035126395   0.03556243            7 
 1562000    1.0028119   -6.1924069    661.52961  0.035292873   0.03555288            4 
 1563000   0.99168922    -6.156935    662.18754  0.035305371  0.035543439            4 
 1564000   0.99729369   -6.2183844    660.69177  0.035203099  0.035534097            3 
 1565000   0.99692395   -6.2080387    660.26475  0.035157867  0.035524572            5 
 1566000   0.98655289   -6.1658752     663.0581  0.035284063  0.035515119            3 
 1567000    1.0091437   -6.1936045    663.51361   0.03528577  0.035505773            5 
 1568000     1.016568   -6.2129745    663.10601  0.035241604  0.035496482            3 
 1569000    1.0122287   -6.2012288    662.80302  0.035203049  0.035487079            7 
 1570000   0.99746083   -6.1973534    661.95567  0.035135651  0.035477599            5 
 1571000   0.98837604   -6.1889818    663.94757  0.035218946  0.035468312            4 
 1572000    0.9978313   -6.1840819    664.92803  0.035248517   0.03545895            2 
 1573000   0.98599631   -6.1753792    665.71069  0.035267572  0.035449767            5 
 1574000   0.99704766   -6.1924118    666.46774  0.035285247  0.035440718            8 
 1575000   0.99721541   -6.1921958    667.22236   0.03530277  0.035431707            6 
 1576000    1.0109617   -6.1833222    668.60498  0.035353478  0.035422696            7 
 1577000   0.99615141   -6.1933364    666.27601  0.035207991    0.0354136            4 
 1578000    1.0050488   -6.1943649    666.01232  0.035171753  0.035404478            3 
 1579000   0.99225343   -6.2172546    666.20122  0.035159448  0.035395345            4 
 1580000     1.004975   -6.1854516    665.13057  0.035080726  0.035386272            4 
 1581000    1.0110647    -6.169436    668.34586  0.035228013  0.035377371            4 
 1582000    1.0214641   -6.1854375    670.59074  0.035323996  0.035368345            6 
 1583000   0.98762219   -6.1953162     668.8253  0.035208744  0.035359402            3 
 1584000    1.0067885   -6.1683439    670.28545  0.035263334  0.035350515            3 
 1585000   0.97898945   -6.1874068    672.06974  0.035334897  0.035341729            8 
 1586000    1.0088641   -6.2270452     669.8561  0.035196306  0.035332997            4 
 1587000   0.99880234   -6.2050073      669.112  0.035135056   0.03532434            5 
 1588000    1.0037031   -6.1962675    668.85328  0.035099354  0.035315498            5 
 1589000   0.98854905   -6.1826888    671.53257  0.035217777  0.035306668            4 
 1590000   0.98989415   -6.2159563    673.13277  0.035279495  0.035297796            6 
 1591000   0.99630411   -6.2063295    670.38741  0.035113525  0.035288938            7 
 1592000    1.0045834   -6.1638822    671.30506  0.035139503  0.035280188            5 
 1593000   0.98059078   -6.2086659    672.75866  0.035193485  0.035271467            5 
 1594000   0.99576607   -6.2204122    672.07665  0.035135751  0.035262549            5 
 1595000    1.0156345    -6.192554    673.40618  0.035183186  0.035253753            5 
 1596000   0.99480531   -6.1923733    673.51801   0.03516698  0.035245045            5 
 1597000    1.0007758   -6.1762246    673.03225  0.035119612  0.035236292            2 
 1598000   0.99232999   -6.1800304    676.46446   0.03527662  0.035227758            5 
 1599000    0.9953955   -6.1641852    676.26187     0.035244   0.03521924            5 
 1600000   0.98537044   -6.1319477    677.40658  0.035281593  0.035210735            3 
 1601000   0.99040378   -6.1837748    673.55421  0.035059037  0.035202348            4 
 1602000    1.0055942   -6.2101584    675.45471  0.035136013  0.035193851            5 
 1603000   0.96855011   -6.2011343    676.52003  0.035169475  0.035185131            3 
 1604000    1.0095219   -6.1909691    676.22477   0.03513221  0.035176521            3 
 1605000   0.99290768   -6.1784091    676.81027   0.03514072  0.035167888           12 
 1606000   0.97808834   -6.1770644    676.49816  0.035102644  0.035159235            2 
 1607000   0.98414281   -6.2189606    673.60608  0.034930827  0.035150453            2 
 1608000   0.99377924   -6.1855083    676.37306  0.035052501  0.035141559            4 
 1609000    1.0078311   -6.2117157    675.91093  0.035006781   0.03513264            6 
 1610000    0.9888481   -6.2048175    676.18429  0.034999187  0.035123731            3 
 1611000   0.99547648   -6.1961208    676.80647  0.035009646  0.035114863            6 
 1612000   0.99915338   -6.1947946    677.58795  0.035028327  0.035106098            8 
 1613000   0.99373564   -6.1808635    678.43286  0.035050262  0.035097368            7 
 1614000   0.98758696   -6.2148556    676.03041  0.034904503  0.035088473            2 
 1615000   0.97795232   -6.2043203    676.70578  0.034917739  0.035079362            4 
 1616000   0.99939079   -6.1966386    679.31008  0.035030429  0.035070244            3 
 1617000    1.0091087   -6.2049816    677.55141  0.034918131  0.035061087            3 
 1618000   0.99509585   -6.2100741    675.55988  0.034793978  0.035051884            2 
 1619000    1.0015709    -6.191963    676.91691  0.034842336  0.035042777            7 
 1620000   0.97376706   -6.2154953    677.95177  0.034874062  0.035033756            5 
 1621000    1.0109276   -6.2186913    677.87282   0.03484849  0.035024789            3 
 1622000    0.9893171   -6.2544651    676.57473  0.034760313   0.03501566            2 
 1623000    1.0032795    -6.222734     676.4099  0.034730432   0.03500637            6 
 1624000   0.99005645   -6.1542073    681.00406  0.034944789  0.034997195            5 
 1625000   0.98568967   -6.2208775    678.79942  0.034810227  0.034988078            5 
 1626000   0.99226654   -6.2010497    680.91616  0.034897302    0.0349791            5 
 1627000    1.0013088   -6.2239345    678.85902  0.034770489  0.034970059            3 
 1628000    1.0142612   -6.2018912    681.32957  0.034875592  0.034960937            2 
 1629000   0.97926082   -6.2149739      679.286  0.034749642  0.034951969            3 
 1630000   0.98908761   -6.2087552    678.03907  0.034664574  0.034943042            5 
 1631000   0.98407081    -6.192546    680.83823  0.034786339  0.034934234            4 
 1632000    1.0229422   -6.2020551    680.94474  0.034770463  0.034925336            3 
 1633000   0.97761671   -6.2317977    680.04285  0.034703146  0.034916379            2 
 1634000   0.99990207   -6.2088003    680.24788  0.034692364  0.034907312            3 
 1635000   0.97615559   -6.1962667    681.78622  0.034749553  0.034898325            2 
 1636000   0.98081693   -6.2083871    682.65686   0.03477266  0.034889406            5 
 1637000   0.97608039   -6.2431691    682.07358  0.034721726  0.034880499            2 
 1638000   0.99942347   -6.2230048    680.82083  0.034636794  0.034871544            3 
 1639000   0.99506525   -6.2027883    683.93459  0.034773978   0.03486253            6 
 1640000   0.99321081   -6.2485481    681.39567  0.034623764  0.034853286            4 
 1641000    1.0162341   -6.2318994    680.95315  0.034580193  0.034844163            8 
 1642000    1.0039565    -6.213679    684.72546  0.034750582  0.034835197            3 
 1643000   0.97927648    -6.215366    683.78035  0.034681495  0.034826085            6 
 1644000   0.98894211   -6.2067624    684.15748  0.034679515  0.034817139            8 
 1645000    1.0044083   -6.2274455    684.63349  0.034682547  0.034807953            3 
 1646000   0.99826763   -6.2441668    683.94134  0.034626435   0.03479884            3 
 1647000   0.96933204   -6.1757358     685.4082  0.034679629  0.034789841            2 
 1648000   0.97313345   -6.2027319    685.59953  0.034668261  0.034780989            4 
 1649000    1.0035477   -6.2319644     686.4167  0.034688534  0.034771898            3 
 1650000    1.0019283   -6.2321831    686.92792  0.034693329  0.034762824            6 
 1651000   0.96669809   -6.2043704    686.45173   0.03464828  0.034753803            6 
 1652000   0.99771298    -6.258437    684.12173  0.034509773    0.0347448            3 
 1653000    0.9739565   -6.2110649    683.62591  0.034463899   0.03473577            6 
 1654000    0.9860869   -6.2270879    686.21405  0.034573461  0.034726582            5 
 1655000   0.95752216   -6.2007249    687.44745  0.034614675  0.034717336            4 
 1656000    1.0011606   -6.2293091    687.48235  0.034595529  0.034708238            9 
 1657000   0.98862533   -6.2246949    685.37656  0.034468747  0.034698936            7 
 1658000   0.98813516   -6.2022738    687.89328  0.034574451  0.034689811            2 
 1659000   0.98562023    -6.218899    687.33639  0.034525637  0.034680558            4 
 1660000   0.99098328   -6.1955902    686.96281  0.034486085  0.034671543            9 
 1661000   0.99279969   -6.2042861    685.55022  0.034394452  0.034662475           15 
 1662000   0.98991512   -6.2374799    686.82638  0.034437745  0.034653351            8 
 1663000    1.0053088   -6.2321959    688.18433  0.034485084  0.034644195            4 
 1664000   0.97012502   -6.2653835    686.56247  0.034383137  0.034635045            4 
 1665000   0.98317964   -6.2150513     688.6204  0.034465486  0.034626087            5 
 1666000   0.95628477   -6.2155016    688.23375  0.034425458  0.034617105            6 
 1667000   0.99126449   -6.2639393    686.91421  0.034338843  0.034607971            6 
 1668000   0.99110302   -6.2409085    689.16695  0.034430803  0.034598864            5 
 1669000   0.99472561   -6.2342607    688.46819  0.034375284   0.03458967           12 
 1670000   0.97444963    -6.179391     692.9867  0.034580175   0.03458065            4 
 1671000   0.98645452   -6.2386401    691.74635  0.034497623  0.034571641            5 
 1672000   0.99454745   -6.2485207    691.04696  0.034442133  0.034562716            2 
 1673000   0.97808944   -6.2417548    691.19145  0.034428743  0.034553628            9 
 1674000   0.98250794   -6.2334864    691.24855  0.034411019  0.034544669            8 
 1675000   0.99212089   -6.2123838    692.47473  0.034451479  0.034535739            6 
 1676000   0.98309054   -6.2204429     692.4212  0.034428262  0.034526646            6 
 1677000   0.96928945    -6.196797     691.2411  0.034349091  0.034517488            4 
 1678000   0.97974706   -6.2331802    690.91658  0.034312504  0.034508194            2 
 1679000   0.98243953     -6.24781    691.86648  0.034339214  0.034499114            3 
 1680000    0.9805711   -6.1963794     695.2796  0.034488075  0.034490145            6 
 1681000   0.96783408   -6.1936519    694.97029  0.034452225  0.034481206            4 
 1682000   0.98422818   -6.2558813    692.99259  0.034333759  0.034472268            6 
 1683000    0.9889379   -6.2367459    692.51901  0.034289909  0.034463032            5 
 1684000   0.99511263   -6.2180506    693.93587  0.034339661  0.034453998            6 
 1685000   0.97158107   -6.2089665    694.18708  0.034331705  0.034444982            4 
 1686000   0.98560831   -6.2330373    694.73214  0.034338283  0.034435991            4 
 1687000   0.99289055   -6.2448195    692.74204  0.034219623  0.034427082           13 
 1688000   0.99417433   -6.2507422    693.56371  0.034239914  0.034418225            5 
 1689000   0.99898173   -6.2481056    693.79535  0.034231071   0.03440943            6 
 1690000   0.96293441   -6.2472676     695.9485  0.034316987  0.034400614            3 
 1691000    1.0174869   -6.2644387    696.59336  0.034328472  0.034391774            4 
 1692000   0.97549088   -6.2368184    695.92206  0.034275121  0.034382824            3 
 1693000   0.97718304   -6.2854524    693.67859  0.034144447  0.034373928            8 
 1694000   0.96596278   -6.2345192    695.34251  0.034206145  0.034364943            3 
 1695000   0.96479362   -6.2433781    695.81413  0.034209151  0.034356067            4 
 1696000   0.98318846    -6.242604    696.63981  0.034229551  0.034347123            5 
 1697000   0.96283409   -6.2363466    696.34786  0.034195043  0.034338244            5 
 1698000   0.96805119   -6.2237503     697.7991  0.034246128  0.034329373            6 
 1699000   0.97501565   -6.2314721    699.43234  0.034306079   0.03432066            4 
 1700000   0.97872017   -6.2223958    699.26355  0.034277625   0.03431196            6 
 1701000   0.98370321   -6.2391697    697.84197  0.034187829  0.034303218            8 
 1702000   0.96857964   -6.2823385    698.97816  0.034223373  0.034294369            5 
 1703000   0.97023024   -6.2398973    699.36737  0.034222322  0.034285613            5 
 1704000   0.98103877    -6.211267    698.52457  0.034161022  0.034276862           10 
 1705000     0.973705   -6.2719357    698.56558   0.03414299  0.034268032            6 
 1706000   0.97651684   -6.2482658    697.39832  0.034065959  0.034259033            5 
 1707000   0.96533271   -6.2684429    698.79071  0.034113977  0.034250012           11 
 1708000   0.99500082   -6.2359652     699.8578  0.034146068  0.034241099            3 
 1709000   0.96332616   -6.2155125    700.18197  0.034141895  0.034232146            4 
 1710000   0.96865469    -6.244232    699.76168  0.034101446  0.034223084            2 
 1711000    0.9680611   -6.1879767    700.52119  0.034118507  0.034214061            3 
 1712000    0.9587911   -6.2037217    703.54081  0.034245561  0.034205158            3 
 1713000   0.97697526   -6.2578998    699.45077  0.034026599  0.034196158            5 
 1714000   0.98052501   -6.2590832    700.92109  0.034078233  0.034187221            5 
 1715000    0.9864353   -6.2574787    700.17873   0.03402229  0.034178212            4 
 1716000   0.98176825   -6.2339287    701.42423  0.034062948  0.034169208            5 
 1717000    0.9576007   -6.2691028    700.02322  0.033975113  0.034160223            3 
 1718000   0.97572899   -6.2727834    703.43575  0.034120865  0.034151191            5 
 1719000   0.99913495   -6.2293009    701.75486   0.03401953  0.034142195            4 
 1720000    1.0026608   -6.2520361    702.06919   0.03401498  0.034133246            3 
 1721000    0.9750071   -6.2183869    703.44869  0.034062013  0.034124331            4 
 1722000   0.97421424   -6.2218631    702.33104  0.033988146  0.034115456            4 
 1723000   0.97571499   -6.2625918    702.92334  0.033997066   0.03410656            4 
 1724000   0.93950014   -6.2321926    703.79978  0.034019711  0.034097493            4 
 1725000   0.96426533   -6.2319302    704.35685  0.034026901  0.034088596            8 
 1726000   0.99302931    -6.240908    703.06518  0.033944823  0.034079659            6 
 1727000   0.98383133     -6.27336     703.3502  0.033938921  0.034070744            3 
 1728000   0.96927872   -6.2528294    703.22445  0.033913216  0.034061781            3 
 1729000   0.95873928   -6.2582884    702.54055   0.03386064  0.034052684            7 
 1730000   0.97148204   -6.2145709    705.04086  0.033961506  0.034043717            7 
 1731000   0.98716762   -6.2064594    708.29707  0.034098646   0.03403487            4 
 1732000   0.97156597   -6.2460245     703.4124  0.033843938  0.034025748            6 
 1733000   0.97155984   -6.2321705    704.33748  0.033868892  0.034016598            6 
 1734000   0.98426036   -6.2809749     703.4948  0.033808862  0.034007426            4 
 1735000   0.99334196   -6.2648354     704.1611  0.033821379  0.033998268            3 
 1736000   0.96880466   -6.2526647    703.68996   0.03377928  0.033989081            5 
 1737000    0.9873412   -6.2454955     704.2755  0.033787925  0.033979937            4 
 1738000   0.98292833   -6.2303369    705.58576  0.033831308  0.033970738           11 
 1739000   0.98513454   -6.2934905    705.53006  0.033809185  0.033961557            5 
 1740000   0.95085062   -6.2436971    706.70184  0.033845873  0.033952394            3 
 1741000   0.97537672   -6.2745837    704.68432  0.033729864  0.033943268            3 
 1742000   0.98785584   -6.2423623    708.98102  0.033916046  0.033934284            3 
 1743000   0.96523773   -6.2400918    706.34117  0.033770375  0.033925309            8 
 1744000   0.98279164   -6.2505867    707.18831   0.03379149   0.03391635            4 
 1745000   0.95377016   -6.2667916    704.82129  0.033659087  0.033907184            4 
 1746000   0.98413228   -6.2786222    705.28064  0.033661734  0.033897888            4 
 1747000    0.9873577    -6.265348    705.38864  0.033647617  0.033888735            5 
 1748000   0.98951408   -6.2549446    707.71349  0.033739201  0.033879595            6 
 1749000   0.96262918   -6.2682067    707.22156  0.033696472  0.033870476            5 
 1750000   0.97686001    -6.241268    708.56389  0.033741138   0.03386114            4 
 1751000   0.96368844   -6.2525688    707.92263  0.033691349  0.033851852            6 
 1752000   0.96654438    -6.294772    707.14034   0.03363491  0.033842519            3 
 1753000    0.9567252   -6.2462485     707.0926  0.033613453  0.033833293            7 
 1754000   0.97364036   -6.2723804     708.2604  0.033649772   0.03382414            5 
 1755000   0.96734314   -6.2643084    709.30397  0.033680151  0.033814982            5 
 1756000    0.9465302   -6.2596056    707.19558  0.033560914  0.033805798            3 
 1757000   0.95786208   -6.2392865    709.03789  0.033629192  0.033796585            8 
 1758000   0.96351182   -6.2810124    709.56032  0.033634827  0.033787408            6 
 1759000   0.95930865   -6.2861316    708.53831  0.033567288   0.03377805            4 
 1760000   0.97837432   -6.2562332    712.91409  0.033755402    0.0337689            3 
 1761000   0.97455806   -6.2634346    709.11811  0.033556602  0.033759651            3 
 1762000   0.96291073   -6.2616299    710.73107  0.033613842  0.033750423           10 
 1763000   0.96660708   -6.2846801    709.68844  0.033545493   0.03374125            6 
 1764000   0.95561339   -6.2421078    713.57834  0.033710239  0.033732116            2 
 1765000   0.96066729   -6.2918631    710.79638  0.033559791  0.033723023            5 
 1766000   0.98184889   -6.2910744    711.88429  0.033592124  0.033713924            6 
 1767000   0.96083168   -6.2647826    711.66517  0.033562779  0.033704724            2 
 1768000   0.98473329   -6.2668465     711.9052  0.033555109  0.033695504            4 
 1769000   0.94424653   -6.2282104    711.55541  0.033519663  0.033686497            7 
 1770000   0.99058312   -6.2681634    712.37713  0.033539413  0.033677251            4 
 1771000   0.98717484   -6.2601345    710.76846   0.03344478     0.033668            5 
 1772000   0.98519252   -6.2748192    712.66008  0.033514864   0.03365892            4 
 1773000   0.98102172   -6.2987477    711.24924   0.03342965  0.033649741            3 
 1774000   0.95786762   -6.2728057    714.31169  0.033554664   0.03364058            4 
 1775000   0.97230565   -6.2751589     714.9781  0.033567047  0.033631396            5 
 1776000   0.94163527   -6.2641978    714.47539  0.033524558  0.033622189            6 
 1777000   0.96046397   -6.2821463    712.02924  0.033390979  0.033613215            4 
 1778000   0.98609478   -6.2541271    716.42822  0.033578375  0.033604209            6 
 1779000    0.9434876   -6.2651844    715.31597    0.0335074  0.033595237            3 
 1780000   0.96409024      -6.2583    715.27217  0.033486525  0.033586282            4 
 1781000   0.96291626   -6.2870106    716.56361  0.033528149  0.033577262            3 
 1782000   0.94733703   -6.2566793    713.01376  0.033343329  0.033568201            4 
 1783000   0.96832603   -6.2807539    716.15372  0.033471383  0.033559173            4 
 1784000   0.98071443    -6.272898    715.65445    0.0334293  0.033550224            7 
 1785000   0.98727871    -6.249865    717.18639  0.033482091  0.033541206            6 
 1786000   0.95896264    -6.240535    715.84784  0.033400888   0.03353223            3 
 1787000   0.97988374    -6.240585    717.66826  0.033467089  0.033523263            3 
 1788000   0.95943915    -6.256491    716.81561  0.033408632  0.033514355            3 
 1789000   0.95519932   -6.2567158    717.25277  0.033410321  0.033505262            4 
 1790000   0.95489526   -6.2571066    715.51799  0.033310893  0.033496194            6 
 1791000   0.95846764   -6.2601334    716.40279  0.033333463  0.033487023            6 
 1792000   0.97659771   -6.3147219    715.94562  0.033293602  0.033477803            3 
 1793000   0.99710577   -6.2829476    715.54511  0.033256419  0.033468451            7 
 1794000   0.96859865   -6.2723631    715.83138  0.033251179  0.033459341            4 
 1795000   0.99214566   -6.3147425    715.83991  0.033233051  0.033450196            3 
 1796000   0.97674352   -6.2933758    715.93883  0.033219136  0.033441022            6 
 1797000   0.96705538   -6.2905617    717.81108  0.033287474  0.033431816            5 
 1798000   0.96971773   -6.2664932    718.84743  0.033316993  0.033422628            6 
 1799000   0.95132789   -6.2715739    717.19931  0.033222129  0.033413492            5 
 1800000   0.98328884   -6.2408057    719.77142  0.033322751  0.033404403            4 
 1801000    0.9730292   -6.2926505    719.63093  0.033297748  0.033395402            4 
 1802000   0.96639461   -6.2606829    719.07058  0.033253357  0.033386232            6 
 1803000   0.96825941   -6.2604054    721.73355  0.033357994  0.033377154            3 
 1804000   0.96692646    -6.283439     720.2457  0.033270773  0.033368094            3 
 1805000   0.97476395   -6.2566985    722.03335  0.033334873  0.033358921            6 
 1806000   0.97140232   -6.3089655     717.7702  0.033119703  0.033349972            5 
 1807000   0.96530496   -6.2944655    718.66844  0.033142799  0.033340856            4 
 1808000   0.95400547   -6.3038263    719.86114   0.03317944  0.033331729            3 
 1809000   0.97926127    -6.294467    720.45698  0.033188547  0.033322552            5 
 1810000   0.92706996    -6.301782    719.96842  0.033147717  0.033313401            3 
 1811000    0.9708354   -6.2306557    721.89264  0.033217957  0.033304368            6 
 1812000    0.9474367   -6.2952571    720.45041  0.033133297  0.033295393            9 
 1813000   0.98319334   -6.2854365     721.1548  0.033147399  0.033286331            4 
 1814000   0.98449256   -6.3134344    718.03508  0.032985808  0.033277038           13 
 1815000   0.95545241   -6.3176466    718.62722  0.032994822  0.033267864            3 
 1816000   0.97484783   -6.2909232    722.01827  0.033132263  0.033258726            5 
 1817000   0.97365159   -6.2626687    724.08776  0.033208941  0.033249681            3 
 1818000   0.97872711    -6.304677    722.42905  0.033114643  0.033240619            4 
 1819000   0.95921125   -6.2790593    724.46186  0.033189567  0.033231568            4 
 1820000   0.95158811   -6.2647965    722.91615  0.033100556  0.033222548            5 
 1821000   0.94776905    -6.307273    722.25827  0.033052273  0.033213381            4 
 1822000   0.97296257   -6.3091979    722.40842     0.033041  0.033204207            7 
 1823000   0.98506802   -6.2837982    722.53109  0.033028483   0.03319495            8 
 1824000   0.95238276   -6.2968656    723.47708  0.033053594  0.033185756            8 
 1825000   0.95450496   -6.3114368    723.60514  0.033041331  0.033176617            2 
 1826000    0.9497791   -6.3039833    725.00455  0.033087101  0.033167527            4 
 1827000   0.93494847   -6.2794209    724.57527   0.03304941  0.033158443            4 
 1828000   0.95328992   -6.2954556    723.74167  0.032993329  0.033149283            5 
 1829000   0.94592859   -6.3004046    726.25815  0.033089947  0.033140355            5 
 1830000   0.95213752   -6.3429226    722.77955  0.032913459  0.033131399            5 
 1831000   0.96003032   -6.2553887    727.19872   0.03309661   0.03312244            3 
 1832000   0.94539936   -6.2835159    726.57199  0.033050036  0.033113511            3 
 1833000   0.95945545   -6.2684786    725.87179  0.033000172  0.033104604            5 
 1834000   0.96769358   -6.2852096    727.01586  0.033034163  0.033095769            3 
 1835000   0.96697991   -6.2842446    728.18972  0.033069469  0.033086984            2 
 1836000   0.94413243   -6.2944387    727.42366  0.033016687  0.033078177            6 
 1837000   0.95689591   -6.2716585    727.34069  0.032994951   0.03306933            3 
 1838000   0.94621261   -6.3156609    726.22236  0.032926295   0.03306048            6 
 1839000   0.94710137   -6.2730544    727.74226  0.032977264  0.033051544            5 
 1840000   0.94055214   -6.3222436    725.96462  0.032878832  0.033042588            4 
 1841000    0.9611763   -6.2857581    728.09762  0.032957524  0.033033692            4 
 1842000   0.96573064   -6.2977321    728.36534  0.032951743  0.033024857            7 
 1843000   0.97479539   -6.2965738     728.1151  0.032922549  0.033015877            4 
 1844000   0.95986142   -6.2811824    728.30779  0.032913403  0.033006976            7 
 1845000   0.95450295   -6.3246539    729.19302  0.032935547  0.032997963            7 
 1846000    0.9541968    -6.305144    728.71126  0.032895958  0.032989014            4 
 1847000   0.95198278    -6.289152     727.6092  0.032828424  0.032980113            5 
 1848000   0.95786134   -6.2736819    729.72325  0.032905991  0.032971205            6 
 1849000   0.94477876   -6.2782741    729.18693  0.032864022  0.032962337            3 
 1850000   0.95394934    -6.284606    729.37195  0.032854592  0.032953413            7 
 1851000   0.95936811   -6.2823045    729.31192   0.03283414  0.032944521            5 
 1852000   0.96278424   -6.3152887    729.70675  0.032834177  0.032935632            9 
 1853000   0.97003504   -6.3048898    730.65786  0.032859231  0.032926676            6 
 1854000   0.95986963     -6.31855    729.30964  0.032780908  0.032917704            4 
 1855000   0.96568838   -6.3108068    729.06036  0.032752038  0.032908679            8 
 1856000    0.9609863   -6.3179689    731.03416  0.032823014  0.032899637            3 
 1857000   0.96279111   -6.3412452    729.03026  0.032715413  0.032890592            4 
 1858000   0.93698753   -6.3175792    730.99608  0.032785974  0.032881497            5 
 1859000   0.96212619    -6.310487    730.83807  0.032761255  0.032872471            5 
 1860000   0.95977298   -6.2917353    730.44217  0.032725904  0.032863439            8 
 1861000   0.95861368   -6.2917234    732.76063  0.032812136  0.032854462            6 
 1862000   0.94600807    -6.292014    729.99592  0.032670781  0.032845459            2 
 1863000   0.94513568   -6.2834432    733.07896  0.032791151  0.032836531            7 
 1864000   0.94181198   -6.2893443     731.0142   0.03268125   0.03282758            6 
 1865000   0.94819745   -6.3384735     729.6261  0.032601702  0.032818476            3 
 1866000   0.94477261   -6.3373184    728.88657  0.032551205  0.032809344            7 
 1867000   0.98162626   -6.3337961    731.62828  0.032656146  0.032800108            6 
 1868000   0.95828702   -6.2898201    732.51407  0.032678179  0.032791038            3 
 1869000   0.96395929   -6.3204446      729.877  0.032543116  0.032781873            4 
 1870000   0.97589558   -6.3104141    729.50415  0.032509098  0.032772577            7 
 1871000   0.95482239   -6.3103063    728.70385  0.032456077  0.032763439            9 
 1872000   0.92212002   -6.2891494    733.08912  0.032633953  0.032754307            5 
 1873000   0.95229068   -6.2642986    735.20123  0.032710501  0.032745131            5 
 1874000   0.93085172    -6.295418     734.6216  0.032667271  0.032736096            3 
 1875000    0.9452004   -6.3290557    732.92509  0.032574448  0.032727072            4 
 1876000   0.95931943   -6.2743284    737.20449  0.032747179   0.03271807            3 
 1877000    0.9412031   -6.3217434    732.99231  0.032542724  0.032708977            5 
 1878000   0.97697723   -6.3366673    731.83929  0.032474232  0.032699754            4 
 1879000   0.98059433   -6.3089902     733.3836  0.032525439  0.032690563            4 
 1880000   0.97457279   -6.2929537     734.0323  0.032536893  0.032681414            2 
 1881000   0.95278062   -6.3193838    733.47823  0.032495048  0.032672239            3 
 1882000   0.93241868     -6.30915    734.24029  0.032511525  0.032663077            2 
 1883000   0.97926885   -6.3162589    733.06542  0.032442265  0.032653831            5 
 1884000   0.94166169   -6.3013502    735.54343  0.032534653  0.032644733            4 
 1885000   0.93715821   -6.3199877    733.55401  0.032429443  0.032635686            6 
 1886000   0.94784692   -6.3298424    736.43491  0.032539542  0.032626603            7 
 1887000   0.95081968   -6.3261888    735.97812  0.032502125  0.032617425           10 
 1888000   0.92679733   -6.2749381    734.24859  0.032408571  0.032608206            4 
 1889000   0.94059065   -6.3216717    736.02262  0.032469676  0.032598992            2 
 1890000   0.94589423   -6.3303087    736.69418  0.032482107  0.032589733            4 
 1891000   0.93416985   -6.3262098    735.31498   0.03240415  0.032580403            4 
 1892000    0.9514365   -6.3382973    733.58488  0.032310821  0.032570972            6 
 1893000   0.96968702   -6.3311404    733.45388  0.032287986  0.032561692            2 
 1894000   0.95396978   -6.3288086    734.91197  0.032335092   0.03255247            4 
 1895000    0.9204755   -6.3248914    735.66662  0.032351215  0.032543244            4 
 1896000   0.94642702   -6.2939269    737.26172   0.03240426  0.032534087           11 
 1897000   0.95466479   -6.3366193    736.74026  0.032364271   0.03252495            3 
 1898000   0.94639198   -6.3155713    734.87309  0.032265239  0.032515764            4 
 1899000   0.94237746   -6.3434692    734.76438  0.032243478  0.032506466            5 
 1900000   0.92334453   -6.3058395    736.25859  0.032292043  0.032497286            4 
 1901000   0.93762216    -6.316595    738.15735  0.032358292   0.03248807            6 
 1902000   0.94005613   -6.3187505    736.73706  0.032279051  0.032478887            5 
 1903000    0.9224092   -6.3085924      740.341  0.032419907  0.032469738            4 
 1904000    0.9368278   -6.2725345     740.9994  0.032431696  0.032460749            4 
 1905000   0.95064324   -6.3348416    741.01186  0.032415217  0.032451695           10 
 1906000   0.93485486   -6.3195673    740.62099   0.03238112  0.032442688            6 
 1907000   0.95502155   -6.2953432    740.90552  0.032376574  0.032433835            5 
 1908000   0.96416443   -6.3144366    741.24677  0.032374509  0.032424907            4 
 1909000   0.95033334    -6.338235    739.73591  0.032291597  0.032415928            6 
 1910000   0.93985009   -6.3234048    739.90571  0.032282099  0.032406877            7 
 1911000   0.94968254   -6.3245007    741.50675  0.032335023   0.03239781            7 
 1912000   0.95375639   -6.2999099    743.29356  0.032395989  0.032388947            3 
 1913000   0.97450142   -6.3574167    740.68603  0.032265465  0.032380022            4 
 1914000   0.94470498   -6.3200787    739.95457  0.032216761  0.032371128            3 
 1915000   0.95215202   -6.3512416    741.75483  0.032278278  0.032362139            4 
 1916000    0.9466505   -6.3172018    744.29124  0.032371749  0.032353197            7 
 1917000   0.94117954   -6.3055077     745.2751  0.032397631  0.032344388            4 
 1918000   0.95121612   -6.3434351    741.51469  0.032217357  0.032335457           11 
 1919000   0.95572793   -6.2925551    744.42822   0.03232709  0.032326586           12 
 1920000   0.94875981   -6.3408469    741.62157  0.032188436  0.032317699            3 
 1921000   0.94231477   -6.3587727    740.96512  0.032143203  0.032308759            7 
 1922000   0.96065871    -6.340903    744.47926  0.032278844  0.032299821            4 
 1923000   0.94466647   -6.3419328    741.57017  0.032135993   0.03229077            9 
 1924000   0.94408149   -6.3528358    742.35637  0.032153342  0.032281799            5 
 1925000   0.94849244   -6.3002061    743.42012  0.032182689  0.032272859            3 
 1926000   0.96674071   -6.3518624    743.40158  0.032165177  0.032263816            9 
 1927000   0.93853837   -6.2961245    744.62712  0.032201484  0.032254856            3 
 1928000   0.93460049   -6.3516326    739.54855  0.031965273  0.032245841            5 
 1929000   0.94894679    -6.337615    743.09078  0.032101727  0.032236702            7 
 1930000    0.9286244   -6.3485418    745.45111  0.032187008  0.032227624            2 
 1931000   0.94470596   -6.3688715    742.93936  0.032061944  0.032218611            5 
 1932000   0.94434213   -6.3374917    744.98623  0.032133637  0.032209624            3 
 1933000   0.95126343   -6.3535361    744.87935  0.032112405  0.032200606           10 
 1934000   0.92341368   -6.3371588    745.73215  0.032132547  0.032191606            3 
 1935000   0.92194106   -6.3158328     745.3563  0.032099755   0.03218254            7 
 1936000   0.92320501   -6.3574492    741.80473    0.0319303  0.032173492            9 
 1937000   0.96474892   -6.3595825    744.64473  0.032035997  0.032164181            2 
 1938000   0.97214288   -6.3503101    746.32478  0.032091709  0.032155008            4 
 1939000   0.93542036   -6.3391864     742.1589  0.031896119  0.032145838           13 
 1940000   0.92255526   -6.3507685    744.75168  0.031991051  0.032136567            8 
 1941000   0.93791478   -6.3214426    745.65123   0.03201319  0.032127375            5 
 1942000   0.93809559   -6.3279069    745.85028  0.032005247  0.032118314            6 
 1943000   0.93307872   -6.3720438    743.83207  0.031902216  0.032109064            4 
 1944000   0.94192955   -6.3597432    742.98292  0.031849405  0.032099808            7 
 1945000    0.9391895   -6.3430122    745.48832  0.031940374  0.032090588            5 
 1946000   0.93352574   -6.3173395    746.81643  0.031980834  0.032081458            4 
 1947000   0.95766943   -6.3655523    742.60356  0.031784094  0.032072176            5 
 1948000   0.94690449   -6.3361333    745.62178  0.031896893  0.032062744            3 
 1949000   0.92541123   -6.3584802    743.26114  0.031779594  0.032053343            5 
 1950000   0.94196785   -6.3357348    744.00117  0.031794922  0.032043892            3 
 1951000   0.93461609   -6.3511789    743.07759  0.031739176  0.032034571            3 
 1952000   0.92524969   -6.3366915    744.66896  0.031790854  0.032025117            5 
 1953000   0.93364234   -6.3706908    744.42768  0.031764281  0.032015678            3 
 1954000   0.94921814    -6.343618     744.2885  0.031742089  0.032006202            5 
 1955000   0.95231662   -6.3428418    743.86333  0.031707729  0.031996714            8 
 1956000   0.96718929   -6.3047575    744.65692  0.031725329  0.031987316            5 
 1957000   0.95313567   -6.3277299    747.12423  0.031814181   0.03197788            3 
 1958000   0.93113439   -6.3350682     747.0371  0.031794225  0.031968405            3 
 1959000   0.95141717    -6.341522    743.67067  0.031634791  0.031959002            4 
 1960000   0.93760034   -6.3553238    748.09294  0.031806673  0.031949502            5 
 1961000   0.93977712   -6.3535853    746.69717  0.031731139  0.031940075            4 
 1962000   0.95585623   -6.3410801     746.5925  0.031710521  0.031930699            9 
 1963000   0.92742621   -6.3636267    745.86601  0.031663526  0.031921412            3 
 1964000   0.92359756   -6.3287133    747.07566   0.03169873  0.031911982            4 
 1965000   0.92343638   -6.3393302    748.75335  0.031753747  0.031902585            3 
 1966000   0.93902033   -6.3625204    748.51601  0.031727535  0.031893309            6 
 1967000   0.93603112     -6.36554    747.45423  0.031666422  0.031884045            4 
 1968000   0.91753217   -6.3842595      745.668  0.031574695  0.031874638            6 
 1969000   0.95930446   -6.3474124    748.51496   0.03167915   0.03186519           13 
 1970000   0.94820295   -6.3370842    750.24633  0.031736308  0.031855969            4 
 1971000   0.93190996   -6.3245664    748.48377  0.031645686  0.031846703            6 
 1972000   0.93955798   -6.3520604    749.87384  0.031688381   0.03183741           12 
 1973000    0.9090246   -6.3459378    750.81281  0.031711979  0.031828228            7 
 1974000   0.94572204   -6.3417041      750.214  0.031670635  0.031818881            2 
 1975000   0.92899265   -6.3661286    747.83176  0.031554083  0.031809559            5 
 1976000   0.93197789   -6.3511816     751.4918  0.031692468  0.031800267            4 
 1977000   0.93431472   -6.3445764    749.60598  0.031596948  0.031791041           14 
 1978000   0.91474412   -6.3493222     751.2824  0.031651601  0.031781848            7 
 1979000     0.938499   -6.3433982    750.55277  0.031604883   0.03177264            3 
 1980000   0.93060307   -6.3750838    749.99316  0.031565369  0.031763465            8 
 1981000   0.93571697   -6.3749285    750.89911  0.031587545  0.031754171            5 
 1982000   0.94846209   -6.3506886    751.17847  0.031583353  0.031744992            5 
 1983000   0.92731192   -6.3034709    754.02241  0.031686939  0.031735828            3 
 1984000   0.93698825   -6.3076051    752.48223  0.031606276  0.031726676           10 
 1985000   0.92323325   -6.3732067    754.95678  0.031694239  0.031717511            8 
 1986000   0.92904041    -6.349898    752.83803  0.031589377  0.031708323            3 
 1987000    0.9429871   -6.3443188    754.52121   0.03164407  0.031699147            6 
 1988000   0.94102981   -6.3535579    753.06748  0.031567215  0.031690005            6 
 1989000   0.94170093   -6.3702726    751.70574  0.031494291  0.031680841            8 
 1990000   0.95269865   -6.3387058    754.50139  0.031595536   0.03167174            2 
 1991000   0.94924264   -6.3369707    751.95198  0.031472961  0.031662613            4 
 1992000   0.92756435   -6.3135159    755.22314  0.031594007  0.031653513            7 
 1993000   0.92817139   -6.3618272    751.74641  0.031432782  0.031644349            6 
 1994000   0.93821237   -6.3714716    753.61395  0.031495067  0.031635023            4 
 1995000   0.92134277    -6.348821    754.41732  0.031512837  0.031625876            6 
 1996000   0.94715021    -6.372865    752.54521  0.031418888  0.031616684            7 
 1997000   0.93024203   -6.3311297     753.9878  0.031463354  0.031607433            9 
 1998000   0.93407076    -6.358403     753.5127   0.03142779  0.031598232            3 
 1999000    0.9434926   -6.3404453    756.37471  0.031531379    0.0315891            4 
 2000000   0.94048468   -6.3541924     753.2412   0.03138505  0.031579992            6 
 2001000   0.94322419   -6.3584465    756.09983  0.031488415  0.031570875            6 
 2002000   0.92437023   -6.3871305    754.51249  0.031406614  0.031561804            3 
 2003000   0.91919758   -6.3734985    753.51687  0.031349512  0.031552635            4 
 2004000   0.92950564   -6.3598891     758.0611  0.031522833  0.031543481            3 
 2005000   0.94298274   -6.3231883    757.30961  0.031475878  0.031534453            5 
 2006000   0.91428978    -6.381428     755.7663  0.031396074  0.031525343            3 
 2007000   0.91994285   -6.3461094    759.42725  0.031532439  0.031516285            3 
 2008000   0.93771454   -6.3568761    756.70166  0.031403621  0.031507215            4 
 2009000   0.92712016   -6.3755079    756.22862  0.031368368  0.031497953            6 
 2010000   0.92910074   -6.3845712    755.51076     0.031323  0.031488711            8 
 2011000   0.94204328   -6.3444351    757.07561  0.031372269   0.03147958            7 
 2012000   0.92397983   -6.3612867    757.38403  0.031369451  0.031470416            4 
 2013000   0.91073023   -6.4034021    756.44943  0.031315178  0.031461262            8 
 2014000   0.95501652   -6.3607826    757.46099  0.031341484  0.031452036            4 
 2015000   0.92988912   -6.3827041    758.02285  0.031349167  0.031442862            6 
 2016000     0.931063   -6.3528685    757.81785  0.031325143  0.031433807            5 
 2017000   0.92547885   -6.3758241     756.8443  0.031269389  0.031424638            5 
 2018000   0.91618208   -6.3137942    759.13977  0.031348686  0.031415542            5 
 2019000   0.92839818   -6.4027449    758.75649  0.031317339  0.031406475            9 
 2020000    0.9486222   -6.3556209    760.59295  0.031377597  0.031397465            4 
 2021000   0.92041439   -6.3482079    758.49347  0.031275502  0.031388413            5 
 2022000   0.92117902   -6.3398635    758.99677  0.031280777  0.031379377            3 
 2023000    0.9326335   -6.3431443    757.56629  0.031206389  0.031370325            3 
 2024000   0.93621152   -6.3593023    759.94106  0.031288746  0.031361326            3 
 2025000   0.91251176   -6.3703349    756.92793  0.031149297  0.031352213            5 
 2026000   0.93908652   -6.3442486    759.09478  0.031223049  0.031343122            9 
 2027000   0.92645692    -6.356447    760.41661  0.031261988  0.031334084            8 
 2028000   0.93671984   -6.3731502    757.80769  0.031139369  0.031325089            7 
 2029000    0.9137294   -6.3804163    758.59745  0.031156458  0.031315971            5 
 2030000    0.9258755   -6.3503127    761.97717  0.031279851  0.031306844            3 
 2031000   0.91642471   -6.3531257    760.80559  0.031216379  0.031297861            3 
 2032000    0.9523555   -6.3742515    757.51785  0.031066185   0.03128876            6 
 2033000   0.91884093   -6.3818477    759.75425  0.031142574  0.031279587            3 
 2034000   0.94436585   -6.3597239    761.57363  0.031201804   0.03127056            4 
 2035000   0.95739583   -6.3892209     761.7708  0.031194545  0.031261632            2 
 2036000   0.93859899   -6.3230344      764.428  0.031287983   0.03125272            7 
 2037000   0.92468306   -6.3449312    762.96613  0.031212818  0.031243714            3 
 2038000   0.91967703   -6.3829842    760.11508  0.031080924  0.031234685            5 
 2039000   0.91786756    -6.367105    762.80326  0.031175546  0.031225738            8 
 2040000   0.94943822   -6.3913482    763.20394  0.031176631  0.031216824            7 
 2041000   0.92203268   -6.4028343    760.07034  0.031033413  0.031207803            5 
 2042000     0.922064    -6.370344     763.9701  0.031177363  0.031198822            5 
 2043000   0.92733885    -6.338779    765.28675  0.031215808   0.03118993            4 
 2044000   0.91917627   -6.3516756    766.52863  0.031251167  0.031181112            4 
 2045000   0.92863171   -6.3722338     763.7021  0.031120705  0.031172164            4 
 2046000   0.90768192   -6.3727136    765.86962  0.031193777  0.031163351            5 
 2047000   0.91887055   -6.4021727    763.23143  0.031071138  0.031154469            3 
 2048000   0.91255055   -6.3805188    762.85227  0.031040538  0.031145473            6 
 2049000     0.930163   -6.3988243    761.90628  0.030986916  0.031136619            5 
 2050000   0.93671676   -6.3915468      764.302  0.031069187  0.031127782            7 
 2051000   0.91220724   -6.3841875    763.66468  0.031028144  0.031118955            4 
 2052000   0.93386156   -6.3368858    766.89804  0.031144332  0.031110122            6 
 2053000   0.92837762   -6.3769948    765.01401  0.031052688  0.031101308            5 
 2054000   0.92293442   -6.4043952    763.35266  0.030970167  0.031092435            4 
 2055000   0.92020972    -6.386851    766.15762  0.031068841  0.031083518            5 
 2056000   0.93350081   -6.4009666    763.16795  0.030932553  0.031074562            4 
 2057000   0.93733465   -6.4309327    762.28307  0.030881667  0.031065494            7 
 2058000   0.91736674   -6.4108929    764.37136  0.030951221   0.03105633            5 
 2059000   0.94055962   -6.3940004    765.12904  0.030966854  0.031047297            5 
 2060000   0.91360166   -6.4124018    763.93957  0.030903704   0.03103827            8 
 2061000   0.92667544   -6.3828607    766.20768  0.030980417  0.031029267           16 
 2062000     0.924909   -6.3732002    766.76588  0.030987952  0.031020342            7 
 2063000   0.91748259   -6.3297337    767.08304  0.030985742  0.031011457            4 
 2064000   0.92022393    -6.399879    767.81358  0.031000225  0.031002539            5 
 2065000   0.94338181   -6.3749305    767.91318  0.030989233  0.030993724            4 
 2066000   0.92610841   -6.3742778     770.0926  0.031062141  0.030984787            5 
 2067000   0.93385445   -6.3896096    768.50857  0.030983252  0.030976039            5 
 2068000   0.91975303   -6.4079756    768.82891  0.030981178   0.03096713            4 
 2069000   0.90835461   -6.3732137    767.74024  0.030922355  0.030958344            3 
 2070000   0.91323849   -6.3767293    767.46317  0.030896263   0.03094967            4 
 2071000   0.93929355   -6.3887207    770.35991  0.030997904  0.030941026            5 
 2072000   0.91973149   -6.4133747    769.57332  0.030951308  0.030932387            3 
 2073000    0.9371007   -6.3802972     772.7496  0.031064062  0.030923847            3 
 2074000   0.91819385    -6.404872    771.07261  0.030981702  0.030915371            5 
 2075000    0.9199411   -6.3611572    771.62276  0.030988866   0.03090674            6 
 2076000   0.90247672   -6.3466242    773.70966   0.03105771  0.030898234            4 
 2077000   0.92828016   -6.3867935    769.57409  0.030876829  0.030889599            4 
 2078000   0.93256614   -6.3860107    771.39413  0.030934958  0.030881001            6 
 2079000    0.9148652   -6.3689031     770.6819   0.03089153  0.030872413            4 
 2080000    0.9188263   -6.4237023    770.17817  0.030856497  0.030863772            6 
 2081000   0.95088396    -6.405937     771.6057  0.030898835  0.030855181            4 
 2082000    0.9077703   -6.3983358    772.81501  0.030932397  0.030846613            6 
 2083000   0.92582966   -6.3713079    774.52153  0.030985819  0.030838047            6 
 2084000    0.9345547   -6.4044196    771.82895  0.030863282  0.030829507            8 
 2085000   0.91623839    -6.377551    773.65471  0.030921451  0.030820963            9 
 2086000   0.92365396   -6.3612513     773.4974  0.030900343  0.030812448            3 
 2087000    0.9344729   -6.3901802    772.25481  0.030835921  0.030803849            3 
 2088000    0.9125468    -6.401408    771.30611   0.03078329  0.030795135            4 
 2089000   0.90558294   -6.4018228    774.01464  0.030876601  0.030786603            6 
 2090000   0.89175486   -6.4080978    774.89182  0.030896803  0.030778074           18 
 2091000   0.90762614   -6.4046147    773.97744  0.030845586  0.030769438            9 
 2092000   0.93149301   -6.3961533    774.12114  0.030836566  0.030760814            5 
 2093000    0.9131305   -6.4094026    775.63829  0.030882238  0.030752263            3 
 2094000   0.90859045   -6.4182479    774.17923  0.030809425  0.030743689           10 
 2095000     0.926072   -6.4100247    775.11021  0.030831751  0.030735017            4 
 2096000   0.93929454   -6.4079844    772.90038  0.030729182   0.03072646            4 
 2097000   0.91738891    -6.399881    774.69209  0.030785729  0.030717919            3 
 2098000   0.91627989   -6.4134351    776.60572  0.030847066  0.030709312            6 
 2099000   0.90230358    -6.405203    775.19928  0.030776532  0.030700818            3 
 2100000   0.91127216   -6.4278666    773.36917  0.030689253  0.030692269            3 
 2101000   0.91855767   -6.4246453     773.5073  0.030680125  0.030683603            7 
 2102000   0.93225629   -6.4097224    774.99361  0.030724453   0.03067506            5 
 2103000   0.91861661   -6.4289964    776.10251  0.030753785  0.030666519            3 
 2104000   0.92547907   -6.4032174    773.70673  0.030644278  0.030657891           17 
 2105000   0.93545731   -6.3972008    774.41387  0.030657714  0.030649252            8 
 2106000   0.91359011   -6.4229666    773.11599  0.030591801  0.030640606            5 
 2107000   0.94505746   -6.4108605    774.97316  0.030650734  0.030631933            3 
 2108000   0.91416916   -6.3890573    777.76267  0.030746469  0.030623219            5 
 2109000   0.90405683   -6.3892677     778.6654   0.03076756  0.030614487            8 
 2110000   0.90179428   -6.4068726    775.51113  0.030628402  0.030605749            4 
 2111000   0.90840037   -6.3935672    775.42498  0.030610492  0.030597116            3 
 2112000    0.8903741   -6.4186371    774.95669  0.030577521  0.030588463            4 
 2113000   0.90438078   -6.4076817    774.56849   0.03054774  0.030579791            8 
 2114000   0.90746391   -6.4180566    775.43703  0.030567527  0.030570989            4 
 2115000   0.91009468   -6.4099493     776.6546  0.030601048  0.030562257           10 
 2116000   0.91056839   -6.4222194    777.87165  0.030634517   0.03055349            3 
 2117000   0.91442459   -6.4236623    775.14791  0.030512829  0.030544782            5 
 2118000   0.91534522   -6.4055512    776.39666  0.030547555  0.030535977            5 
 2119000   0.92391289   -6.3995351    777.68228  0.030583698  0.030527242            3 
 2120000   0.91783692   -6.4431003    778.23653  0.030591058  0.030518449            6 
 2121000   0.91953189   -6.3949224    776.76709  0.030518902  0.030509632           12 
 2122000   0.91539959   -6.4580132    772.45823  0.030335306  0.030500832            4 
 2123000   0.89182315   -6.4269566    779.68458   0.03060467  0.030492066            3 
 2124000   0.92546264   -6.3997246    776.75961  0.030475502  0.030483308            7 
 2125000   0.91619545   -6.3990107    778.04326    0.0305115  0.030474586            7 
 2126000   0.91717833   -6.4241032    778.33147  0.030508446  0.030465949            6 
 2127000   0.92202524   -6.4169126    776.65423   0.03042839  0.030457229            5 
 2128000   0.95806328   -6.4205589    777.43486  0.030444661  0.030448649            4 
 2129000   0.93253774   -6.4241319    777.98109  0.030451742  0.030440045            3 
 2130000   0.92904394   -6.4062717    778.90767  0.030473696  0.030431276            5 
 2131000   0.90656974   -6.4003727    778.26392  0.030434222  0.030422514            6 
 2132000   0.91814551   -6.4081833    777.62769  0.030395079  0.030413788            3 
 2133000   0.90554084   -6.3938472    778.39789  0.030410919  0.030405086            3 
 2134000   0.90005948   -6.4075556    778.73101  0.030409677  0.030396399            5 
 2135000    0.8999889   -6.4322833     779.3193  0.030418396  0.030387607            7 
 2136000   0.91380399   -6.4132599     778.6358  0.030377489  0.030378935           11 
 2137000   0.89766446   -6.3947995    781.23879  0.030464779  0.030370146            8 
 2138000   0.90798003   -6.4201053    777.56845   0.03030747  0.030361309            8 
 2139000   0.90162413   -6.4752695    773.96271  0.030152825  0.030352326            4 
 2140000   0.91803596   -6.4025039    779.46887  0.030353149  0.030343587            8 
 2141000     0.903163   -6.3995862     779.7099  0.030348354  0.030334786            4 
 2142000    0.9384763   -6.3644382     782.3253  0.030435936   0.03032606            4 
 2143000   0.94437595   -6.4660281    779.77447  0.030322541  0.030317261            7 
 2144000   0.88564696   -6.4129316    779.00882  0.030278639  0.030308456            8 
 2145000   0.92418602   -6.4200864    778.36486  0.030239505  0.030299669            7 
 2146000    0.9113495   -6.4581183    780.29393  0.030300323  0.030290846            6 
 2147000   0.90604285   -6.4162733    782.74419  0.030381315  0.030282044            5 
 2148000   0.92586007   -6.4250916    779.13544  0.030227166  0.030273235            8 
 2149000   0.90748654   -6.4245671    777.37314  0.030144763  0.030264335            3 
 2150000   0.91408484   -6.4209061    780.87459  0.030266457  0.030255528            3 
 2151000   0.87809472   -6.4294033    779.48937   0.03019872  0.030246671            7 
 2152000   0.90636922   -6.4520015    778.42459  0.030143455  0.030237786            7 
 2153000   0.90016374   -6.4252858    780.33254  0.030203303  0.030228984            3 
 2154000   0.90674838   -6.4413629    779.93827  0.030174028  0.030220134            5 
 2155000   0.87723364   -6.4212519    781.22792  0.030209897  0.030211269            5 
 2156000   0.89835289   -6.4268663    779.92974  0.030145707  0.030202497            4 
 2157000   0.89122293   -6.4275987    781.87697  0.030206961  0.030193594            8 
 2158000   0.89047937   -6.4211264    781.81895  0.030190722  0.030184789            3 
 2159000   0.92447173   -6.4252479    780.95725  0.030143479  0.030176019           10 
 2160000   0.90982168   -6.4052317    782.08866  0.030173173  0.030167252            7 
 2161000   0.92041844   -6.4474731     781.3606  0.030131135  0.030158461           10 
 2162000   0.89683501   -6.3931691     783.3324  0.030193201  0.030149637            6 
 2163000   0.90504255   -6.4040292    782.15602   0.03013392  0.030140898            4 
 2164000   0.92456049   -6.4188186    783.04944  0.030154399  0.030132349            5 
 2165000   0.90242266   -6.4280544    781.70092  0.030088565  0.030123603            3 
 2166000   0.90526309   -6.3876215    786.47494  0.030258346  0.030114955            4 
 2167000   0.89236836     -6.41152    785.40274  0.030203151  0.030106297            6 
 2168000   0.89455389   -6.4149475    781.43284  0.030036625  0.030097632            5 
 2169000   0.90216679   -6.4279461    785.83187  0.030191788  0.030088939            8 
 2170000   0.92618825   -6.4188539    786.82255   0.03021592  0.030080261            6 
 2171000   0.91583935   -6.4306029    782.91259  0.030051919  0.030071566            5 
 2172000   0.90592629   -6.4010794    784.39891  0.030095109  0.030062953            5 
 2173000   0.91244839   -6.3988682    783.34764  0.030040943  0.030054343            5 
 2174000   0.88742909   -6.4367551    785.01795  0.030091151  0.030045715            9 
 2175000   0.91807841   -6.3884748    788.54731   0.03021254  0.030037115            5 
 2176000   0.91240263   -6.4255796    783.63185  0.030010411  0.030028543            7 
 2177000   0.90482029   -6.4431234    784.67482  0.030036549  0.030019911            5 
 2178000    0.8919645   -6.4252707    789.14594   0.03019383  0.030011298            4 
 2179000   0.90330277   -6.4496104    785.13381  0.030026534  0.030002663            4 
 2180000   0.90611787   -6.4174423    787.33244  0.030096806  0.029994062            6 
 2181000   0.90614799   -6.4109363    786.62438  0.030055952  0.029985414           22 
 2182000   0.89128886   -6.3989458    787.38697  0.030071302  0.029976844            6 
 2183000   0.91439321   -6.4122059    785.31082  0.029978272  0.029968328            4 
 2184000   0.90816789   -6.4470593    786.96614  0.030027707  0.029959686            6 
 2185000   0.91356155   -6.4158861    787.59897    0.0300381   0.02995106            4 
 2186000   0.89085121    -6.439685    785.65988  0.029950438  0.029942429            4 
 2187000   0.87818884   -6.4521758     784.6062  0.029896593  0.029933748            4 
 2188000   0.92271815   -6.4190988     787.8547  0.030006654   0.02992504            4 
 2189000   0.88549938   -6.4405259    787.21026  0.029968413  0.029916383            9 
 2190000   0.89449027   -6.4279117     787.0649  0.029949197  0.029907809            4 
 2191000   0.88468119   -6.3954624    787.92922  0.029968402  0.029899097            3 
 2192000   0.90636693   -6.4336081    785.85992  0.029876062  0.029890412            3 
 2193000   0.92100129   -6.4466028    786.50247  0.029886855    0.0298817            6 
 2194000   0.90277378   -6.4142285    787.26856  0.029902331  0.029873058            4 
 2195000    0.9015291    -6.424876    788.59353   0.02993901  0.029864351           10 
 2196000   0.91560061   -6.4318855     787.1291  0.029869805  0.029855717            6 
 2197000     0.896221   -6.4172709    787.37234  0.029865435  0.029847067            7 
 2198000   0.88562439   -6.4508172    788.60465  0.029898569  0.029838514            4 
 2199000   0.90496473   -6.4466928    787.37237  0.029838274  0.029829895            3 
 2200000   0.90510947   -6.4368427    788.42765  0.029864684  0.029821305            3 
 2201000   0.90816627   -6.4411655    788.28563  0.029845738  0.029812674            4 
 2202000   0.89027082   -6.4311411    790.70732  0.029923831  0.029804057            4 
 2203000   0.89001712   -6.4327416    789.34546  0.029858733  0.029795498            7 
 2204000    0.9172631   -6.4094037    791.59637  0.029930292  0.029786977            4 
 2205000   0.90640173    -6.467958    787.04297  0.029744632  0.029778432            9 
 2206000   0.90028437   -6.4575839    791.28008  0.029891209  0.029769828            7 
 2207000   0.89602996   -6.4594729    790.63234  0.029853207  0.029761342            6 
 2208000   0.90867173   -6.4697608    788.88439  0.029773717  0.029752703           13 
 2209000   0.86911791   -6.4586741    790.12818  0.029807159  0.029744111            2 
 2210000   0.91646345   -6.4625434    790.40106  0.029803962  0.029735487            3 
 2211000   0.89370097   -6.4425078    789.86855  0.029770411  0.029726872            7 
 2212000   0.90592231   -6.4738927    788.68475  0.029712355  0.029718285            5 
 2213000   0.90994929   -6.4467292    791.52334  0.029805819  0.029709672            5 
 2214000   0.90528744    -6.436091    791.35993  0.029786206  0.029701172            9 
 2215000   0.89409536   -6.4321032    791.42865  0.029775344  0.029692698            6 
 2216000    0.8821709   -6.4410718    790.94449  0.029743701   0.02968427            4 
 2217000   0.91436856   -6.4699038    793.78439  0.029837032  0.029675753            9 
 2218000   0.90951992   -6.4574582    790.72375  0.029708587  0.029667277            9 
 2219000   0.88198835   -6.4290304    792.86568  0.029775638   0.02965883            5 
 2220000   0.90486161   -6.4526509    792.25687  0.029739372  0.029650338            7 
 2221000   0.88020313   -6.4668335    793.83273  0.029785109  0.029641828            8 
 2222000   0.91722221   -6.4115705    794.06536  0.029780429  0.029633356            7 
 2223000   0.89621667   -6.4321794    793.73432  0.029754623  0.029625016            5 
 2224000    0.9108579   -6.4481086    795.28689  0.029799419  0.029616715            3 
 2225000   0.90878821   -6.4293447    794.96883  0.029774114  0.029608329            5 
 2226000   0.89974873   -6.3961196    796.33528  0.029811893  0.029599991            6 
 2227000   0.91566934   -6.4618581    796.16645  0.029792189  0.029591685            9 
 2228000   0.88452796   -6.4637663    793.02812  0.029661435  0.029583298           14 
 2229000   0.88158276   -6.4461832    794.18754  0.029691474  0.029574974            5 
 2230000   0.89094789    -6.458495    795.60003  0.029730943  0.029566692           11 
 2231000   0.86601914   -6.4282568    795.24923  0.029704513  0.029558359            5 
 2232000   0.88269842   -6.4601644    794.46439  0.029661902  0.029550019            5 
 2233000   0.90321348   -6.4244805    796.07206  0.029708616  0.029541679            5 
 2234000   0.90775783   -6.4655523    797.54952   0.02975043  0.029533299            7 
 2235000   0.87640128   -6.4511051    794.56713  0.029625918  0.029524811            4 
 2236000   0.88816129   -6.4379516    795.97328  0.029665074  0.029516429            2 
 2237000    0.9109535   -6.4515364    796.72017  0.029679637  0.029508072            6 
 2238000   0.88620685   -6.4690133    794.24969  0.029574385  0.029499639            4 
 2239000   0.91918049   -6.5106654    794.66929  0.029576794  0.029491165            6 
 2240000   0.89792831   -6.4579647    794.38943  0.029553178  0.029482679            5 
 2241000   0.88745871   -6.4799534    796.08059  0.029602878  0.029474282            8 
 2242000   0.90632844   -6.4875436    793.79155  0.029504592  0.029465896            8 
 2243000    0.8704645   -6.4460261    795.66806  0.029561156  0.029457454            4 
 2244000   0.87468413   -6.4503713    795.78155  0.029552197  0.029449059            7 
 2245000   0.89660695   -6.4732496    795.02089  0.029510798   0.02944067            3 
 2246000   0.89671683    -6.439815    798.36476  0.029621726  0.029432321            3 
 2247000   0.85798467   -6.4702004    795.29588  0.029494729  0.029423896            5 
 2248000   0.87196276   -6.4273365    800.22849  0.029664461  0.029415605            6 
 2249000   0.91445252   -6.4534162    798.17755  0.029575276  0.029407315            3 
 2250000   0.87868277   -6.4814654    796.43216  0.029497488  0.029398958            4 
 2251000   0.89620261   -6.4645808    797.61821  0.029528292  0.029390608            4 
 2252000    0.8893618   -6.4706014    799.57886  0.029587732  0.029382219            4 
 2253000   0.91573301   -6.5034972    794.52384  0.029387625  0.029373863            6 
 2254000   0.89161867   -6.4336346    800.36944  0.029590707  0.029365561            4 
 2255000   0.89076263   -6.4435026    800.40043   0.02957873  0.029357266            5 
 2256000   0.88584263    -6.470278     800.5053  0.029569492  0.029348891            5 
 2257000   0.89674134   -6.4931327    797.97663  0.029463027  0.029340546           12 
 2258000   0.89140466   -6.4478959     800.7714  0.029553122  0.029332268            5 
 2259000   0.89284816   -6.4824435     799.7933  0.029503958  0.029323952           10 
 2260000   0.89019956   -6.4744364    799.47941  0.029479329   0.02931564            9 
 2261000   0.88485632   -6.4527035    801.56754  0.029543253   0.02930751            6 
 2262000   0.90135097   -6.4229019      803.137  0.029588012  0.029299391            7 
 2263000   0.89366193   -6.4617938    800.29027  0.029470109  0.029291253            6 
 2264000   0.87081781   -6.4909694    800.22328  0.029454626  0.029282983            4 
 2265000   0.89391409   -6.5036529    802.60577  0.029529278  0.029274734            3 
 2266000   0.89061845   -6.4620518    801.97706  0.029493125  0.029266498            7 
 2267000   0.88928481   -6.4901076    800.61698   0.02943012  0.029258234            6 
 2268000   0.91733961   -6.4433149    802.66609  0.029492434  0.029250084            8 
 2269000   0.90006449    -6.500995    803.04837  0.029493476  0.029241964            4 
 2270000   0.88922368   -6.4500571    802.58782  0.029463576  0.029233789            4 
 2271000   0.89377786    -6.463159    802.91639  0.029462659   0.02922563            4 
 2272000   0.88232186    -6.469653    800.76117  0.029370641  0.029217535           15 
 2273000   0.89091554   -6.4663515    802.72028  0.029429545   0.02920935            4 
 2274000   0.90925147   -6.4872143    802.23705  0.029398895  0.029201137            4 
 2275000   0.88671003   -6.4610664    801.21674  0.029348599  0.029192912            4 
 2276000   0.90256246   -6.4822496    802.69585   0.02938986  0.029184657            8 
 2277000   0.88651425   -6.4524952    805.07224  0.029463923  0.029176391            3 
 2278000   0.89010923   -6.4509251    805.47785  0.029465827  0.029168147            6 
 2279000   0.88648616   -6.4924631    799.89609  0.029248797   0.02915987            5 
 2280000    0.8650495   -6.4723646    802.88185  0.029345097  0.029151613            2 
 2281000   0.90111046   -6.4913914    803.70015  0.029362127  0.029143481           10 
 2282000   0.90036054   -6.4780176    803.16652  0.029329774  0.029135227            4 
 2283000   0.87819773   -6.4928426     804.0611   0.02934958  0.029127104            7 
 2284000   0.89644167   -6.4907957    804.45281  0.029351022  0.029119033            4 
 2285000   0.89071387   -6.4895663       805.41  0.029373085  0.029110946            7 
 2286000   0.89670071   -6.5239587    802.56285  0.029256447  0.029102736            6 
 2287000   0.90241896   -6.4888242     803.5602  0.029279996  0.029094507            8 
 2288000   0.88552566   -6.4649011    806.74887  0.029383336  0.029086387            4 
 2289000   0.88192281   -6.4475806    807.59613  0.029401344  0.029078322            4 
 2290000   0.88269549   -6.4657828    806.07631  0.029333199  0.029070189            4 
 2291000     0.917986   -6.4646636     808.3313  0.029402419  0.029062079            4 
 2292000   0.90194961    -6.455849    806.45151  0.029321244  0.029054072            9 
 2293000   0.90359272   -6.4781158     806.5877  0.029313407     0.029046            5 
 2294000   0.89911234   -6.4468698    806.81071   0.02930873  0.029037959            4 
 2295000   0.89134252   -6.4890389    806.60713  0.029288567  0.029029852            5 
 2296000    0.8881608   -6.4712545    806.74347  0.029280759  0.029021789            4 
 2297000   0.89114144   -6.4955465    805.17719  0.029211188  0.029013689            4 
 2298000    0.8784692   -6.4455335    809.60266  0.029358959  0.029005656            7 
 2299000   0.89278392   -6.4458086    808.04205   0.02928962  0.028997639            5 
 2300000     0.863316    -6.486481    806.00509  0.029203083  0.028989557            6 
 2301000   0.86546939   -6.4800252    806.77505  0.029218276  0.028981471            6 
 2302000   0.88545393   -6.4705649    808.05886  0.029252058  0.028973451            5 
 2303000   0.88613251   -6.4724108    807.33122  0.029213027  0.028965345            2 
 2304000   0.89694878   -6.4798572     807.9642  0.029223242  0.028957265            8 
 2305000   0.88721542   -6.4964298    806.42076  0.029154763  0.028949197            4 
 2306000    0.8599761   -6.5137108    805.63687  0.029113793  0.028941008            5 
 2307000    0.8564009   -6.5156304    806.11581  0.029118473  0.028932754            4 
 2308000   0.87940836   -6.4826822    806.59693  0.029123228  0.028924526           10 
 2309000   0.86516452   -6.5110001    804.93943  0.029050795  0.028916298           15 
 2310000   0.88145628   -6.5249653    804.88405  0.029036221  0.028907988            7 
 2311000   0.89111388   -6.5055331    805.13374   0.02903266  0.028899705            7 
 2312000   0.88771405   -6.5436006    805.55576  0.029035314  0.028891507            3 
 2313000   0.88869822   -6.5040753    807.49685  0.029092695  0.028883224            5 
 2314000   0.87232512   -6.5080518    806.57435  0.029046901  0.028874858            7 
 2315000   0.88263715   -6.5015859    805.23699  0.028986213  0.028866459            7 
 2316000   0.87593371   -6.4747396    808.72568  0.029099226   0.02885813            6 
 2317000   0.87208339   -6.5002341    808.25749  0.029069828   0.02885003            3 
 2318000   0.87454794   -6.4974333    805.70817  0.028965637  0.028841877           10 
 2319000    0.8776459   -6.4454223    808.57011  0.029055991  0.028833737            3 
 2320000   0.88692709   -6.5004875    807.99402  0.029022774  0.028825563            4 
 2321000   0.86829738   -6.4664237       811.29  0.029128608   0.02881737            7 
 2322000   0.88741709    -6.483661    809.21917  0.029041745  0.028809192            4 
 2323000   0.88979162   -6.5074234    807.64437   0.02897275  0.028800919            9 
 2324000   0.87795618   -6.5119258    806.25305  0.028910393  0.028792611           10 
 2325000   0.88470692   -6.4991839    807.06461  0.028927047  0.028784229            3 
 2326000    0.8823284   -6.4804997    808.51811  0.028966685  0.028775892            4 
 2327000   0.88113492   -6.4926977    808.36388  0.028948714  0.028767562           14 
 2328000   0.87792295   -6.4709309     808.0238  0.028924105  0.028759273            9 
 2329000   0.88291787   -6.5030796    809.82562  0.028976156  0.028751009            5 
 2330000   0.86230095   -6.5078698    810.01911   0.02897064  0.028742766            8 
 2331000   0.88349305    -6.535494     807.5762  0.028870878  0.028734501            4 
 2332000   0.88732752   -6.4984013    807.65687  0.028861381  0.028726255            5 
 2333000   0.86428149   -6.4901028    811.16457  0.028974302  0.028718019            4 
 2334000   0.87992457   -6.4857481    812.29486  0.029002244  0.028709811            5 
 2335000   0.87659524   -6.4755316    809.78291  0.028900175   0.02870159            5 
 2336000   0.88348993   -6.5166804    809.91234  0.028892421  0.028693378            3 
 2337000   0.87852873    -6.521749    810.18694   0.02888985  0.028685146           10 
 2338000   0.88066281   -6.5270749    807.55821  0.028783797  0.028676926            8 
 2339000   0.89874726   -6.4972914    811.95785   0.02892824  0.028668693            7 
 2340000   0.87680182   -6.4935681    812.50053  0.028935204  0.028660517            6 
 2341000   0.85686972   -6.5154892    810.75234  0.028860613  0.028652267            5 
 2342000   0.87098555   -6.4797835    813.49057  0.028945722  0.028644055            7 
 2343000   0.87369252   -6.5281879    808.94873  0.028771828  0.028635842           13 
 2344000   0.87202691   -6.5189748    810.75663  0.028823828  0.028627633           11 
 2345000    0.8817615   -6.5345282    811.54881  0.028839687  0.028619461            6 
 2346000   0.85482694    -6.509903    812.28191  0.028853435  0.028611214            5 
 2347000   0.87077953    -6.535502    810.58705  0.028780963  0.028602953            5 
 2348000   0.85651282   -6.5378887    813.02033  0.028855066  0.028594694           11 
 2349000   0.86471721   -6.4971562    809.44972   0.02871611  0.028586443            3 
 2350000   0.86029026   -6.5455614    808.38897  0.028666275  0.028578175            9 
 2351000   0.89114071   -6.4979122     813.4556  0.028833674  0.028570025           11 
 2352000   0.87128371   -6.4739929    814.21976  0.028848489  0.028561885           10 
 2353000   0.85495912   -6.4860009    813.62523  0.028815173  0.028553771            9 
 2354000   0.88340835   -6.5152299    812.74244  0.028771681  0.028545724            5 
 2355000   0.87833314    -6.490431    817.20881  0.028917509  0.028537703            6 
 2356000   0.85911812   -6.5133799    814.98189  0.028826468  0.028529678           10 
 2357000   0.86085459    -6.494429    814.59591  0.028800591  0.028521712            3 
 2358000   0.88182503   -6.5152892     816.4424  0.028853633  0.028513767            5 
 2359000    0.8727767   -6.5295226    812.91334  0.028716735  0.028505803            6 
 2360000   0.85111981   -6.5136958    815.76615  0.028805302  0.028497898           11 
 2361000   0.85800843   -6.5023598    818.36207  0.028884727  0.028490011            5 
 2362000   0.89079536   -6.4995771    816.81299  0.028817845  0.028482105            4 
 2363000    0.8778042   -6.4884937    818.79106  0.028875407  0.028474211            6 
 2364000   0.89099776   -6.5106784    817.05389  0.028801956  0.028466268            5 
 2365000   0.85986053   -6.4965538    818.15599  0.028828611  0.028458236            5 
 2366000   0.88329891   -6.5464181    816.22669  0.028748475  0.028450196            6 
 2367000   0.88868085   -6.4743281    819.12739  0.028838452  0.028442177            5 
 2368000   0.87058043   -6.5301698    816.32804   0.02872776  0.028434196           15 
 2369000    0.8872676   -6.5183853    816.80006  0.028732238  0.028426249            8 
 2370000   0.87474075   -6.5199616     812.9149  0.028583505   0.02841829            8 
 2371000   0.88262244   -6.5014838    815.57317   0.02866488  0.028410296            6 
 2372000     0.882796   -6.5189936    814.64295  0.028620115  0.028402208           11 
 2373000    0.8773283   -6.5120707    816.56836  0.028675669  0.028394081            5 
 2374000   0.86659883    -6.511233    817.91041    0.0287107  0.028386056            4 
 2375000   0.87491454   -6.5376233    814.77629  0.028588642  0.028378118            4 
 2376000   0.85272436   -6.5226198    817.09911  0.028658078  0.028370074            7 
 2377000   0.86325338    -6.521632    815.32046  0.028583665  0.028362012            8 
 2378000   0.85680807   -6.5442741    819.41394  0.028715094  0.028353993            7 
 2379000   0.88568097   -6.5341105    817.15525  0.028623905  0.028345959            5 
 2380000   0.88552361   -6.5193325    817.53018  0.028625006  0.028337965           11 
 2381000   0.87060215   -6.5153793    818.09668  0.028632811  0.028330066            7 
 2382000   0.86997625   -6.5351983    816.51555  0.028565475  0.028322109            6 
 2383000   0.85795011   -6.5358873    817.53067  0.028588987  0.028314137            4 
 2384000   0.88724058   -6.5056282    819.56668  0.028648164  0.028306099            6 
 2385000   0.87050709   -6.5161721    819.28681  0.028626373  0.028298068            9 
 2386000   0.85696245   -6.5075443    819.98285  0.028638686   0.02829002            6 
 2387000   0.86585251   -6.4952728    819.61814  0.028613955   0.02828212            5 
 2388000   0.88786154   -6.5076687    819.42756  0.028595323  0.028274205            4 
 2389000   0.86700205   -6.4947553     819.3363  0.028580169  0.028266144            8 
 2390000   0.86944179   -6.5227438    819.24421     0.028565  0.028258144            4 
 2391000   0.86553929   -6.5059864    819.77985  0.028571722  0.028250223            5 
 2392000   0.86055127   -6.5136363    818.16044   0.02850336  0.028242179            6 
 2393000     0.876074   -6.5101997    821.06554  0.028592615  0.028234276            3 
 2394000   0.88826758    -6.491651    820.99801  0.028578321  0.028226359            6 
 2395000   0.86233894   -6.5141227    819.71981  0.028521914  0.028218393            7 
 2396000   0.86089976   -6.5357284    819.82713  0.028513743  0.028210402            8 
 2397000    0.8543501    -6.491054    820.51313  0.028525696   0.02820243            5 
 2398000    0.8742781   -6.5382966      818.214  0.028433903  0.028194481            4 
 2399000   0.89234176     -6.57339    818.50458  0.028432145  0.028186476            9 
 2400000   0.84685761   -6.5196629    820.22309  0.028479968  0.028178522            7 
 2401000   0.88427304   -6.5398953     819.8547  0.028455321  0.028170509            4 
 2402000   0.87617063   -6.5367103    818.47583  0.028395637  0.028162492            6 
 2403000   0.86275675   -6.5616525    817.47711  0.028349185  0.028154429            4 
 2404000   0.86565843   -6.5391714    819.78707  0.028417466  0.028146366            8 
 2405000   0.85006948   -6.5320478    818.66376  0.028366728  0.028138351            5 
 2406000   0.85405007   -6.5694254    819.42987  0.028381472  0.028130251            5 
 2407000    0.8548282   -6.5108931    819.79886  0.028382456  0.028122245            6 
 2408000   0.88253075   -6.5545204    818.33068   0.02831986  0.028114286            4 
 2409000   0.86673777   -6.5386012    820.96281  0.028399156  0.028106317           11 
 2410000   0.85465121   -6.5075307    822.93637  0.028455615  0.028098432            5 
 2411000   0.86375351   -6.5424278    822.14914  0.028416602  0.028090584           10 
 2412000      0.85889   -6.5335122    821.02903  0.028366122  0.028082768            7 
 2413000   0.86912602   -6.5415137    822.08764  0.028390926  0.028074881            8 
 2414000   0.86364956   -6.5349568    824.77487   0.02847193  0.028066936           12 
 2415000   0.87502539   -6.5336154    822.19229  0.028371024  0.028059071            8 
 2416000   0.86027255    -6.545759    822.92343    0.0283845   0.02805127            5 
 2417000   0.85629027    -6.505364    824.56957  0.028429512  0.028043462            3 
 2418000    0.8545506   -6.5509797    822.86538  0.028359022  0.028035598            7 
 2419000   0.87168424   -6.5296795     822.5101  0.028335059  0.028027769            4 
 2420000   0.86218303   -6.5256274     823.7089  0.028364631  0.028019962            4 
 2421000   0.84922753   -6.5526669    821.40598  0.028273647    0.0280122            4 
 2422000   0.88483518   -6.5276855    825.00638  0.028385851  0.028004444            7 
 2423000   0.86475889    -6.536834    824.60896  0.028360468  0.027996649            3 
 2424000   0.86437089    -6.494244    827.08886  0.028434023  0.027988924            5 
 2425000    0.8353703   -6.5535197    822.62738  0.028268982  0.027981102            6 
 2426000    0.8774514   -6.5038984    825.64699  0.028361053  0.027973343           13 
 2427000   0.83668722   -6.5272645    824.80539  0.028320471  0.027965587            4 
 2428000   0.86981184   -6.5266304    823.50434  0.028264152  0.027957725            4 
 2429000    0.8709014   -6.5225887    823.87525  0.028265241  0.027949958            9 
 2430000   0.87113567    -6.518078    826.35248  0.028338562  0.027942192           12 
 2431000   0.86379389   -6.5221939     827.4726  0.028365302  0.027934441            3 
 2432000   0.85267874   -6.5320088     824.7415  0.028260057  0.027926661            5 
 2433000   0.85916343   -6.5457096    825.68602  0.028280792  0.027918795            3 
 2434000   0.84569165   -6.5452526      825.824  0.028273898   0.02791093            9 
 2435000   0.82839055   -6.5465616    825.27908  0.028243637  0.027903109           10 
 2436000   0.83529179   -6.5282709    825.54194  0.028241035  0.027895366            6 
 2437000   0.88006488   -6.4966297    826.14952  0.028250223  0.027887647            6 
 2438000   0.86721562   -6.5253307    828.95972  0.028334691  0.027879917            4 
 2439000   0.86247507   -6.5362291    824.18184  0.028159828  0.027872228            5 
 2440000   0.85097509   -6.5354385    828.25559  0.028287418  0.027864511            6 
 2441000   0.86269563   -6.5444701    827.60624  0.028253661  0.027856756            5 
 2442000   0.86919982   -6.5439397    825.43728  0.028168075  0.027849043            4 
 2443000   0.86607174   -6.5424896    826.40765  0.028189646  0.027841268            7 
 2444000   0.85512654   -6.5279514    827.91342  0.028229454  0.027833465            5 
 2445000   0.87127362     -6.55892    825.87872  0.028148559  0.027825553            7 
 2446000   0.86548883   -6.5701033     825.7553  0.028132846  0.027817759            5 
 2447000   0.84653735   -6.5190938    827.52161  0.028181501   0.02780993            4 
 2448000   0.85860638   -6.5526716    828.90177  0.028216972  0.027802141            8 
 2449000   0.84235603   -6.5646228    827.32873  0.028151923  0.027794328            5 
 2450000    0.8475745   -6.5183517    828.27089  0.028172479   0.02778646           14 
 2451000   0.85717724    -6.530096    828.40184  0.028165437  0.027778686            4 
 2452000   0.85929759   -6.5255254    827.30465  0.028116662   0.02777095            9 
 2453000   0.87435592    -6.557534     826.0975   0.02806419  0.027763138            5 
 2454000   0.86356704   -6.5589939    829.25251  0.028159892  0.027755329            5 
 2455000   0.87028038   -6.5645936     824.8139  0.027997756  0.027747508            6 
 2456000   0.84704177   -6.5614138    827.31146    0.0280711    0.0277397            9 
 2457000   0.87261865    -6.527917    830.79479  0.028177818  0.027732031            7 
 2458000   0.86855916   -6.5198173    827.81144   0.02806521  0.027724315            6 
 2459000   0.85399013   -6.5470075    828.81227  0.028087714  0.027716597            7 
 2460000   0.84958884   -6.5835117    826.02465  0.027981865  0.027708783            6 
 2461000   0.86021045   -6.5493128    827.67864  0.028026501  0.027700983            4 
 2462000   0.84677722   -6.5812349    828.48563  0.028042433  0.027693156           11 
 2463000   0.85562578   -6.5684525    828.11152  0.028018389  0.027685331            6 
 2464000   0.85460725   -6.5459615    828.88586  0.028033207   0.02767759            7 
 2465000   0.85677296   -6.5499958    827.94303   0.02798996  0.027669785            5 
 2466000   0.86665631   -6.5784192    827.37722   0.02795949  0.027661965            7 
 2467000   0.88253857   -6.5545805     828.7654  0.027995048  0.027654094            7 
 2468000   0.86235451   -6.5845244    826.61583  0.027911123  0.027646216            8 
 2469000   0.84332323   -6.5460929    829.11523  0.027984178  0.027638433            7 
 2470000   0.86911971   -6.5573679    828.20475  0.027942131   0.02763067           20 
 2471000   0.85682644   -6.5651983      828.252  0.027932416  0.027622886            9 
 2472000   0.85527007   -6.5455998    829.38114  0.027959181  0.027615144            7 
 2473000   0.84494811   -6.5659892    830.07246   0.02797117  0.027607408           12 
 2474000   0.86238178   -6.5291016    832.63568  0.028046203  0.027599675            6 
 2475000   0.84635024    -6.575054    830.12663  0.027950392   0.02759191            8 
 2476000   0.83777582    -6.561159    829.62511  0.027922224  0.027584151           11 
 2477000   0.85316588   -6.5780951    830.72885  0.027948084  0.027576383            6 
 2478000   0.85272168   -6.5729747    830.51351  0.027929564  0.027568595            5 
 2479000   0.85903617    -6.580445    830.08933  0.027904038  0.027560783           12 
 2480000    0.8483218   -6.5635471    831.99887  0.027956951  0.027553027            5 
 2481000   0.86063423   -6.5529057    832.62982  0.027966875  0.027545294            5 
 2482000    0.8515852   -6.5519169    830.83645  0.027895395  0.027537603            8 
 2483000   0.85773895   -6.5722601    832.51073  0.027940352  0.027529858            7 
 2484000   0.85595533   -6.5689788    829.90617  0.027841726  0.027522111            9 
 2485000   0.85093225    -6.548917    831.35163  0.027878995  0.027514322           12 
 2486000   0.84505728   -6.5803931    831.47713  0.027871987  0.027506556            5 
 2487000   0.85980973   -6.5090541    833.95465  0.027943796  0.027498827           11 
 2488000   0.83961203   -6.5371636      829.456  0.027781886  0.027491078            4 
 2489000   0.83729169   -6.5612075    831.20391  0.027829246  0.027483307           10 
 2490000   0.86203184   -6.5707511     831.5396  0.027829304  0.027475518            7 
 2491000    0.8564289   -6.5667073    830.51044  0.027783703  0.027467724            6 
 2492000    0.8580307   -6.5459565    833.83071  0.027883585  0.027459987            9 
 2493000   0.84907784   -6.5712274    830.24754  0.027752625  0.027452228            9 
 2494000   0.85025047   -6.5566283    832.90877  0.027830419  0.027444438           12 
 2495000   0.84227651   -6.5399491    834.31231  0.027866143  0.027436661           11 
 2496000   0.83967908   -6.5805573    833.21154  0.027818227   0.02742891           12 
 2497000   0.85108474   -6.5662048    832.63044  0.027787693  0.027421154           13 
 2498000   0.85387608   -6.5991303    833.21492  0.027796068  0.027413399            7 
 2499000   0.86919891    -6.566032    832.05075  0.027746124  0.027405626            7 
 2500000   0.86071002   -6.5863177    831.58374  0.027719458  0.027397854            8 
 2501000   0.86414512   -6.5550461     834.9096  0.027819192  0.027390129            3 
 2502000   0.83569262   -6.5902461    830.09177  0.027647607   0.02738237            7 
 2503000   0.86754243   -6.6019405    830.62372  0.027654272  0.027374506            8 
 2504000   0.86646316     -6.58937    830.08333  0.027625244  0.027366681            6 
 2505000     0.843805   -6.5415849    832.52573  0.027695467  0.027358854            6 
 2506000   0.84907794   -6.5501035    835.48617   0.02778286  0.027351065            4 
 2507000   0.85702067   -6.5685783    833.38338  0.027701881  0.027343262            9 
 2508000   0.85480082   -6.5686824    833.11134  0.027681796  0.027335469           19 
 2509000   0.86146008   -6.6082294    831.34345  0.027612045   0.02732771            9 
 2510000   0.84551211   -6.5736281    833.49535  0.027672488  0.027319922           12 
 2511000   0.85192101   -6.5803272    835.80524  0.027738127  0.027312162           11 
 2512000   0.84610068   -6.5949737    832.51498  0.027617933   0.02730434           10 
 2513000   0.84448732   -6.5787524    832.94567  0.027621225  0.027296565            6 
 2514000   0.84707041   -6.5971067    834.98992  0.027678001  0.027288787            4 
 2515000    0.8620666   -6.5586963    832.82283   0.02759519  0.027280964           13 
 2516000   0.85384746   -6.6052505    833.47749  0.027605905  0.027273131            9 
 2517000   0.87945491   -6.5747056     834.2475  0.027620431  0.027265334            7 
 2518000   0.84356359   -6.6149849    833.09583  0.027571347  0.027257504            4 
 2519000   0.85988824    -6.594946    833.92559  0.027587852  0.027249721            6 
 2520000   0.84968551   -6.5638888    834.41609  0.027593125  0.027242009            3 
 2521000   0.84378136   -6.5808702    835.88942  0.027630881  0.027234202            7 
 2522000   0.85992377   -6.5720521    835.86882  0.027619245   0.02722644            6 
 2523000   0.83256597   -6.5704896    836.75276  0.027637494  0.027218714           28 
 2524000   0.83560054   -6.5819034    836.00795  0.027601953  0.027210968            7 
 2525000   0.84568356   -6.5657907    835.09338  0.027560838   0.02720322            6 
 2526000   0.84631849   -6.6012764    833.48327  0.027496809   0.02719547           10 
 2527000   0.83980737   -6.5580804    837.17847  0.027607785  0.027187756            7 
 2528000   0.85957444   -6.5884872    834.47333  0.027507691  0.027179995            5 
 2529000   0.84789548   -6.5996051    836.19558  0.027553565  0.027172282            9 
 2530000   0.84264961   -6.6096327    835.36071  0.027515175  0.027164556            7 
 2531000   0.84268941   -6.5886398    836.47531  0.027541002  0.027156751            5 
 2532000   0.83900631     -6.56966     837.0955  0.027550536  0.027149002            4 
 2533000   0.85183536   -6.6072579    834.47553  0.027453465   0.02714133           17 
 2534000   0.84200441   -6.5821263    835.27628  0.027468965  0.027133561            8 
 2535000   0.85458309   -6.5857024    836.89975  0.027511497  0.027125797            8 
 2536000   0.84095609   -6.5828904    837.24805  0.027512094  0.027118007            4 
 2537000   0.85814494     -6.60854    835.55777  0.027445729  0.027110252            8 
 2538000   0.83767135   -6.5580478    836.96461  0.027481107  0.027102462           10 
 2539000   0.83884826   -6.6173035    834.14122  0.027377616  0.027094619           11 
 2540000   0.84663457   -6.6151462    834.18264  0.027368197  0.027086728            7 
 2541000   0.83540919    -6.633091    831.50211  0.027269517  0.027078859            6 
 2542000   0.83331573   -6.5949557    836.29642  0.027415959  0.027071059            6 
 2543000   0.83705863   -6.5898602    838.10473  0.027464436  0.027063341            5 
 2544000   0.84567147   -6.6058512    838.59728  0.027469775  0.027055659            5 
 2545000   0.85330584   -6.5779382    836.66842  0.027395823    0.0270479            9 
 2546000   0.84942638   -6.5667714    839.21245  0.027468331  0.027040145            5 
 2547000   0.85448179   -6.5856378      838.382  0.027430376  0.027032391            7 
 2548000   0.85321886   -6.6072442    835.95801  0.027340332  0.027024614            7 
 2549000   0.86548829   -6.5733424    837.22556  0.027371046  0.027016877            6 
 2550000   0.84052099   -6.5875365    837.96566  0.027384499  0.027009078            8 
 2551000   0.83686458   -6.6034972    837.93894  0.027372891  0.027001275           12 
 2552000    0.8462636   -6.5873763    838.02276  0.027364902  0.026993459            5 
 2553000   0.81990198   -6.5957357    837.33575  0.027331758  0.026985709            9 
 2554000   0.83960774   -6.6016323    837.67761  0.027332211  0.026977928            8 
 2555000   0.84255244    -6.584692    838.93813  0.027362627  0.026970193           13 
 2556000   0.83520027   -6.6012538    838.40518  0.027334545  0.026962485            7 
 2557000   0.84584059   -6.6142344    839.93631  0.027373755  0.026954768            4 
 2558000    0.8366184   -6.6396836    837.56036  0.027285652  0.026947081           11 
 2559000    0.8334813   -6.6044395    840.65192  0.027375665   0.02693941            8 
 2560000   0.82830124    -6.604274    837.81306  0.027272561  0.026931733           15 
 2561000   0.86900294   -6.6022845    838.43653  0.027282199   0.02692405           22 
 2562000   0.82580136   -6.6105811    839.05243  0.027291583  0.026916295            8 
 2563000   0.82635819   -6.6039776    837.63836  0.027234958   0.02690856            8 
 2564000   0.85905999   -6.6241224    837.87861  0.027232144  0.026900881           19 
 2565000   0.84020344    -6.622584    836.70925  0.027183536   0.02689311            7 
 2566000    0.8475857   -6.6264623    836.63206  0.027170436  0.026885339            7 
 2567000    0.8358826   -6.6387286    837.35913  0.027183455  0.026877489            6 
 2568000   0.84876207   -6.6198421    837.32782  0.027171853   0.02686966            5 
 2569000   0.85122846   -6.6146625    838.94872  0.027213855  0.026861886            6 
 2570000   0.84153305   -6.5822881    838.17722   0.02717825  0.026854115            4 
 2571000   0.84171458   -6.6053579     839.9805  0.027226128  0.026846413           20 
 2572000   0.84145816   -6.6150719    840.15618  0.027221235  0.026838694            6 
 2573000   0.82461646   -6.6303696     838.3963  0.027153657  0.026830901            5 
 2574000   0.85299715   -6.6129744    839.74625  0.027186812  0.026823136           15 
 2575000   0.82260604   -6.5884729     840.1738  0.027190091  0.026815392            6 
 2576000    0.8528174   -6.5679593    841.29906  0.027215937  0.026807739            8 
 2577000    0.8517614   -6.5959602    839.73543  0.027154813   0.02680003            6 
 2578000   0.84724958   -6.5996844    839.21453  0.027127442  0.026792335            4 
 2579000   0.84950517   -6.5935014    840.98665  0.027174184  0.026784581            5 
 2580000   0.83488133   -6.6232829    840.02236  0.027132505  0.026776814            8 
 2581000   0.84723678   -6.6011639    838.87551  0.027084964   0.02676908           17 
 2582000   0.83914672   -6.6528017    838.30154   0.02705595  0.026761345            7 
 2583000   0.85059695   -6.6069898    839.73591  0.027091751  0.026753577            5 
 2584000     0.841622   -6.6176394    840.32083   0.02710013  0.026745784            4 
 2585000   0.83090289   -6.6377474    840.20344  0.027085862  0.026737994            8 
 2586000   0.83224036   -6.6315826    840.38867  0.027081357  0.026730199            7 
 2587000   0.82605607   -6.6292988    841.04444  0.027092012  0.026722438            6 
 2588000   0.84061318   -6.6131014    840.46244  0.027062804  0.026714682           17 
 2589000   0.83587151   -6.6177285    839.17275  0.027010839  0.026706843           10 
 2590000   0.83804983   -6.6094836    840.66334   0.02704837  0.026698977            5 
 2591000   0.84391843   -6.5707825    842.54059  0.027098308  0.026691231            6 
 2592000    0.8281637   -6.5587302    841.08163  0.027040947  0.026683535            7 
 2593000   0.83807203   -6.6062575    839.51529   0.02698018    0.0266758            9 
 2594000   0.82504168   -6.5712795    843.22872  0.027089075  0.026668051            5 
 2595000   0.82508203   -6.6487276    838.35727  0.026922199  0.026660308           14 
 2596000    0.8426862   -6.5966204    840.97405  0.026995829  0.026652494            5 
 2597000   0.82990496    -6.596662    842.91577   0.02704774  0.026644686           10 
 2598000   0.83149455   -6.5906836    844.03677  0.027073286  0.026636903           10 
 2599000   0.82139971   -6.6084589    840.22388  0.026940614  0.026629131            6 
 2600000   0.83497147   -6.6374063     840.6017  0.026942362  0.026621281            8 
 2601000   0.82711564     -6.62009    841.91444  0.026974063  0.026613484           11 
 2602000   0.82664411   -6.6489292    841.28205  0.026943443  0.026605707            6 
 2603000   0.82800029   -6.5864676    843.05347  0.026989802  0.026597925            6 
 2604000   0.85011518   -6.6185631    839.87915  0.026877853  0.026590169            7 
 2605000   0.83039611   -6.6305089    840.77672  0.026896248   0.02658241            6 
 2606000   0.83353237   -6.6328404    840.67214  0.026882583  0.026574632            8 
 2607000   0.84907309   -6.6308012    841.84183  0.026909661  0.026566955           10 
 2608000   0.82866187   -6.6727003    843.60464   0.02695567  0.026559239            5 
 2609000   0.82050652   -6.6188631    844.77885  0.026982843   0.02655149            6 
 2610000   0.84635174   -6.6080005    842.91986   0.02691315  0.026543771            5 
 2611000   0.84920409    -6.583981    843.89809  0.026934064  0.026536115           10 
 2612000    0.8511506   -6.6237641    842.52755  0.026880027  0.026528475            4 
 2613000   0.82987557   -6.6048449    843.96118   0.02691546  0.026520846            7 
 2614000   0.81353879   -6.5944125    843.36057  0.026886017  0.026513155            5 
 2615000   0.84471399   -6.6321962    841.51568  0.026816943  0.026505462            9 
 2616000   0.82493428   -6.6406424    843.75877  0.026878146  0.026497733            9 
 2617000   0.82699643   -6.6103899    842.40782  0.026824857  0.026489994            9 
 2618000   0.82784039   -6.6169543    843.35954  0.026844905  0.026482258            7 
 2619000   0.84531831   -6.5963758    845.22683   0.02689407  0.026474581            3 
 2620000   0.84988722   -6.6074208    844.42961  0.026858448  0.026466864            4 
 2621000   0.82601927    -6.623256    842.57325  0.026789179  0.026459145            6 
 2622000   0.82319965   -6.6361484    841.92282   0.02675829   0.02645142           16 
 2623000   0.84538097   -6.6103403    843.97245  0.026813205    0.0264437            7 
 2624000   0.82348237   -6.6285876    842.76452  0.026764625  0.026435952            6 
 2625000   0.81490454   -6.6398445    844.12475  0.026797611  0.026428194            6 
 2626000   0.84242882   -6.6645622    844.20433  0.026789932  0.026420433            5 
 2627000   0.83308876   -6.6282486    844.46245  0.026787922  0.026412637            8 
 2628000    0.8443105   -6.6385027      843.104  0.026734652  0.026404848            6 
 2629000   0.82235419   -6.6234699    845.63432  0.026804689  0.026397013            8 
 2630000   0.83489637    -6.641509    846.62103  0.026825761  0.026389222           14 
 2631000   0.82915851   -6.6644868    844.67493  0.026753925  0.026381416           18 
 2632000   0.82396482   -6.6306282    843.36832  0.026702391  0.026373599            6 
 2633000   0.83463938   -6.6321774    843.65727  0.026701395  0.026365779            7 
 2634000   0.83567878   -6.6281588    843.92639  0.026699772  0.026358015            7 
 2635000   0.83226567   -6.6296147    841.70003  0.026619229  0.026350247            6 
 2636000   0.83447831   -6.6747407    842.55234  0.026636075  0.026342397           10 
 2637000   0.84751187   -6.6579325    844.42818  0.026685254  0.026334585           11 
 2638000   0.83112716   -6.6173899    846.74035  0.026748179  0.026326815            6 
 2639000   0.82177579   -6.6277781    846.83403  0.026741001  0.026319038            4 
 2640000   0.83300312   -6.6297935    844.88685  0.026669408  0.026311292            4 
 2641000   0.82398082   -6.6336447    844.11088  0.026634825  0.026303509           10 
 2642000   0.82458687   -6.6222855    845.44998  0.026666981  0.026295768            9 
 2643000   0.82300084   -6.6421681    845.93618  0.026672222  0.026288103            4 
 2644000   0.83296688   -6.6403216    845.13188  0.026636784  0.026280351           13 
 2645000   0.82237976   -6.6166955    847.32481  0.026695804  0.026272622            6 
 2646000   0.81620004   -6.5999944     845.1989  0.026618761  0.026264864           12 
 2647000   0.83224178   -6.6208123    847.08996  0.026668239  0.026257115            5 
 2648000   0.82135967     -6.63433    846.42905  0.026637369  0.026249378           10 
 2649000   0.80067554    -6.614803    843.97862  0.026550227  0.026241619            5 
 2650000   0.80216701   -6.6365755    845.75525  0.026596077  0.026233841            8 
 2651000   0.82229156   -6.6328158    845.58108  0.026580569  0.026226063            6 
 2652000   0.81840519   -6.6473379    844.47226  0.026535705  0.026218331            8 
 2653000   0.82727309   -6.6318037    846.84492   0.02660023  0.026210632            7 
 2654000   0.83245574   -6.6120266    844.98956  0.026531951  0.026202896            4 
 2655000   0.81998391   -6.6239602    846.94767  0.026583417  0.026195224            7 
 2656000   0.83097214   -6.6302144    849.19715  0.026643987  0.026187603            8 
 2657000   0.82459053    -6.619182    848.20904  0.026602968  0.026179995            8 
 2658000   0.82521593   -6.6527983    845.47895  0.026507366   0.02617232            7 
 2659000   0.84102952   -6.6387179     846.5073  0.026529626  0.026164565           10 
 2660000   0.82888477   -6.6514344    844.93837    0.0264705  0.026156831            4 
 2661000   0.82436096    -6.628312    846.68914  0.026515381  0.026149157           14 
 2662000   0.80715652   -6.6318756    846.12007  0.026487606  0.026141463            9 
 2663000   0.82185947   -6.6339526    846.57368  0.026491854  0.026133737           12 
 2664000   0.82907677    -6.664637    846.06222   0.02646591  0.026125931            6 
 2665000   0.81908836   -6.6461636    846.23547  0.026461397  0.026118176            7 
 2666000   0.82437318   -6.6602719    844.97225  0.026411986  0.026110442           13 
 2667000   0.81375787   -6.6438183    847.78193  0.026489874   0.02610279            6 
 2668000    0.8497872   -6.6045061    852.73446  0.026634635  0.026095179            5 
 2669000   0.80758735   -6.6145122    850.22501  0.026546304  0.026087579            6 
 2670000   0.83303686   -6.6188391    849.47875   0.02651307  0.026079966            9 
 2671000   0.83819537   -6.6418053    848.83603  0.026483091  0.026072362           15 
 2672000   0.83865908   -6.6155023    848.57325  0.026464984  0.026064748            6 
 2673000   0.81740909   -6.6350829    846.70961  0.026396982  0.026057121            8 
 2674000   0.84489516   -6.6361222    848.49711  0.026442817  0.026049476            7 
 2675000   0.81350338   -6.6529794    848.88352  0.026444969  0.026041819            4 
 2676000    0.8291263   -6.6226984    851.18793  0.026506849  0.026034131           13 
 2677000   0.81844012   -6.6454745    848.99324  0.026428628  0.026026444            6 
 2678000   0.80984574   -6.6575324    847.54473  0.026373685  0.026018754           17 
 2679000   0.83351388   -6.6598364    847.12475  0.026350776  0.026011032            5 
 2680000   0.82479468   -6.6231651    848.15651  0.026373026  0.026003271            5 
 2681000   0.82814388    -6.646897     848.0538  0.026359996  0.025995517            6 
 2682000   0.81749559   -6.6468247    848.51197  0.026364404  0.025987767            7 
 2683000   0.82154644   -6.6175494    848.55629  0.026355954   0.02598002            6 
 2684000   0.84207128   -6.6550889    845.81054  0.026260883   0.02597223            9 
 2685000   0.81959458   -6.6670923    847.37395  0.026299626  0.025964452            8 
 2686000   0.83652352   -6.6697235    845.03178  0.026217169   0.02595669            8 
 2687000   0.83524245   -6.6496299    848.81428   0.02632472  0.025948918            6 
 2688000   0.82049046   -6.6818131    845.58032  0.026214668  0.025941151            9 
 2689000   0.80959997    -6.634553    848.34236  0.026290516  0.025933318            5 
 2690000   0.84124819   -6.6510714    849.79688  0.026325802  0.025925532           10 
 2691000   0.81139843   -6.6395307    849.04759  0.026292815  0.025917752            9 
 2692000   0.81358206   -6.6730526    849.15192  0.026286278  0.025909978           15 
 2693000   0.82587445   -6.6544023    846.95975  0.026208681  0.025902235           16 
 2694000   0.83532886   -6.7079199    845.04304  0.026139663  0.025894468            6 
 2695000   0.81569211   -6.6604739    846.96845  0.026189501  0.025886638            5 
 2696000   0.82379309   -6.6521438    849.88135  0.026269824  0.025878873           13 
 2697000   0.81400595   -6.6231918    852.75455  0.026348862   0.02587114           10 
 2698000    0.8055605   -6.6646353    848.43336  0.026205626  0.025863355           13 
 2699000   0.81309707   -6.6921969    846.56844  0.026138336   0.02585556            4 
 2700000   0.82739692   -6.6582777     846.8936  0.026138691  0.025847779            5 
 2701000   0.78924704    -6.636114      849.723  0.026216309  0.025840023            4 
 2702000   0.83603635   -6.6194888    849.15161  0.026188984  0.025832318           21 
 2703000   0.80764079   -6.6220585    851.12932  0.026240268  0.025824747            7 
 2704000    0.8050802   -6.6311693    850.89142  0.026223232  0.025817081            7 
 2705000    0.8283402   -6.6599571     852.2964  0.026256821  0.025809438           16 
 2706000   0.81739358   -6.6513596    851.40516  0.026219671  0.025801772           25 
 2707000   0.81977767   -6.6687113    848.32766  0.026115246  0.025794058           14 
 2708000   0.82319925   -6.6650392    847.30461   0.02607412  0.025786318            5 
 2709000   0.82616802   -6.6166574    852.17949  0.026214455  0.025778654           14 
 2710000   0.82940029   -6.6458425    850.83561  0.026163457  0.025771021            6 
 2711000   0.82549902   -6.6755328    847.91155  0.026063923  0.025763314           14 
 2712000   0.80855998   -6.6494433    849.73544  0.026110356  0.025755601            6 
 2713000   0.82025132    -6.660404    850.18872  0.026114655  0.025747909           10 
 2714000    0.8097138   -6.6348769    850.64094  0.026118919  0.025740198            6 
 2715000    0.8132989   -6.6579228    850.78613  0.026113755  0.025732468            4 
 2716000    0.8060047   -6.6598308    848.04785  0.026020123  0.025724771            6 
 2717000   0.83035093    -6.678862    848.15299  0.026013771  0.025717017            7 
 2718000   0.81302352   -6.6410444    851.38529  0.026103302  0.025709307            7 
 2719000   0.81811028   -6.6652978    851.20618  0.026088212  0.025701578            8 
 2720000    0.8074871   -6.6724488     851.4265  0.026085371  0.025693787            8 
 2721000   0.81155584   -6.6596196    851.47611  0.026077303  0.025685957           13 
 2722000   0.80149632   -6.6774889    848.18449  0.025966951  0.025678139            6 
 2723000   0.82367355   -6.6841902    849.89453  0.026009748  0.025670367           11 
 2724000   0.82086417   -6.6782313    849.16251  0.025977806   0.02566252           18 
 2725000    0.8336635   -6.6533454    849.90078   0.02599085  0.025654693           16 
 2726000   0.80907042    -6.692664     848.4611  0.025937304  0.025646912           15 
 2727000   0.81199271   -6.6800268    849.09555  0.025947181  0.025639181            9 
 2728000   0.80712351   -6.6610518     850.6323  0.025984613  0.025631451            6 
 2729000   0.79592967   -6.6295622    851.32875  0.025996359  0.025623728            5 
 2730000   0.81841394   -6.6006884    852.09664  0.026010276  0.025616088            7 
 2731000    0.8197692   -6.6555297    851.36158  0.025978322    0.0256084           13 
 2732000   0.81051969   -6.6678633    850.25684  0.025935116  0.025600682           14 
 2733000    0.7935984   -6.6566258    851.67676  0.025968922  0.025593002           12 
 2734000   0.81035595   -6.6846238    850.28068   0.02591687  0.025585304           10 
 2735000    0.7988509   -6.6404074    853.65136  0.026010096  0.025577605            9 
 2736000   0.81021613   -6.6607071    853.91234  0.026008539  0.025569899            6 
 2737000   0.80061906   -6.6579566    853.30973  0.025980688  0.025562242            4 
 2738000   0.81412767   -6.6464267    851.48419  0.025915638  0.025554553            7 
 2739000   0.80232785   -6.6803127    853.07255  0.025954501   0.02554688           19 
 2740000   0.81094577   -6.6687807    852.70489  0.025933847  0.025539189           22 
 2741000    0.8036419   -6.6901536     851.9526  0.025901514  0.025531477            8 
 2742000   0.81989807   -6.6838342    852.09599  0.025896426  0.025523841           15 
 2743000   0.80301317   -6.6832099     852.6069  0.025902506  0.025516088           10 
 2744000   0.79488687   -6.6644441    853.25597  0.025912778  0.025508387            9 
 2745000   0.82517862   -6.6651338    853.59289  0.025913567  0.025500785            7 
 2746000   0.81716317   -6.6753716     854.1373  0.025920651  0.025493213            5 
 2747000   0.81990624   -6.6653096    853.40002  0.025888849  0.025485593            9 
 2748000   0.80698282   -6.6812481    854.07088  0.025899772  0.025477976            8 
 2749000   0.80206999   -6.6540952    856.03144  0.025949783  0.025470358           13 
 2750000   0.81566616   -6.6561395    854.95903  0.025907849  0.025462759            6 
 2751000    0.8056794   -6.6386082    854.03607  0.025870474  0.025455227           10 
 2752000   0.80505836   -6.6646334    854.83306  0.025885206  0.025447683            6 
 2753000   0.80630501   -6.6612818    855.38816  0.025892607  0.025440101           22 
 2754000   0.82008241   -6.6539886    852.34488  0.025791118  0.025432556           16 
 2755000   0.79977545   -6.6665609    855.12589  0.025865877  0.025424931            6 
 2756000   0.80188773   -6.6826184    853.22657  0.025799062  0.025417318           10 
 2757000   0.82052428   -6.6849306    854.35106  0.025823693  0.025409659            9 
 2758000   0.80329418   -6.7069318    852.64262  0.025762709  0.025402018            5 
 2759000   0.81153682   -6.6625955    851.83389  0.025728944  0.025394395            3 
 2760000   0.80407885   -6.6768429    855.83453  0.025840415  0.025386816            9 
 2761000   0.81015976    -6.696809     854.0048   0.02577583  0.025379223           10 
 2762000   0.82590954   -6.6927264    852.90293  0.025733253  0.025371591           10 
 2763000   0.79907919   -6.7027253    855.09535  0.025790064   0.02536397            3 
 2764000   0.81040353   -6.6944495    855.57415  0.025795169  0.025356411            9 
 2765000    0.8070393     -6.70265    853.46429  0.025722251  0.025348781           13 
 2766000   0.82235193   -6.6930321    852.78536  0.025692497  0.025341134            4 
 2767000   0.79602289   -6.7103199    853.46325  0.025703628  0.025333501           17 
 2768000   0.81601078   -6.6999165    854.03767  0.025711635  0.025325832           12 
 2769000   0.81485284   -6.6676377    855.45496  0.025745003  0.025318182            5 
 2770000   0.80563889   -6.6998527    854.03252  0.025692916  0.025310549            7 
 2771000   0.80053942   -6.6908389    854.69481  0.025703561  0.025302939            9 
 2772000   0.80172594   -6.6891381    855.13027   0.02570738  0.025295338           13 
 2773000   0.79334232   -6.7219327    853.75654  0.025656826   0.02528779           17 
 2774000   0.81078577   -6.6866969    856.55338  0.025731596  0.025280164            8 
 2775000   0.80024487   -6.6931124    853.01351  0.025616021  0.025272593           11 
 2776000   0.82409599   -6.6951523     855.8146   0.02569088   0.02526499           19 
 2777000   0.81411915   -6.6720302     857.2892  0.025725879  0.025257441           12 
 2778000   0.80580322   -6.6989892    857.21091   0.02571427  0.025249903            8 
 2779000    0.8448217   -6.6705644    856.64297  0.025687986  0.025242413           10 
 2780000   0.81260927   -6.7081875    858.31683  0.025728922  0.025234916            9 
 2781000   0.79144516   -6.6853974    855.86793  0.025646288  0.025227413           10 
 2782000   0.79376719   -6.6822707     856.5772  0.025658315  0.025219893            9 
 2783000   0.79479197   -6.6953535    857.64195  0.025680978  0.025212369           13 
 2784000   0.82118116   -6.6656536    859.11449  0.025715831  0.025204863            7 
 2785000   0.81231908   -6.6985388    856.46033  0.025627179  0.025197405            4 
 2786000   0.78136281   -6.6904837    858.41476   0.02567644  0.025189856            7 
 2787000   0.80350818   -6.6764947    858.32874  0.025664655  0.025182331            9 
 2788000   0.80137614   -6.6914911    858.53861  0.025661723  0.025174835            7 
 2789000   0.79172939   -6.7304409    856.81781  0.025601106  0.025167342            8 
 2790000   0.80788959   -6.6969713    857.85968  0.025623049  0.025159876           12 
 2791000   0.81941473   -6.7037137    857.42984  0.025601034  0.025152365            5 
 2792000   0.80077107   -6.6892129    857.62154  0.025597586   0.02514489            7 
 2793000   0.80185121   -6.7010353    859.80101  0.025653449  0.025137456           13 
 2794000   0.80289659   -6.6682515    858.34847  0.025600945  0.025130043            5 
 2795000   0.80084285   -6.6757068    859.58692   0.02562871   0.02512259           14 
 2796000   0.79519896   -6.6948059    856.99705  0.025542354  0.025115143           10 
 2797000   0.80485514    -6.704201    859.51996  0.025608389  0.025107669            4 
 2798000   0.80588885   -6.6811728    859.46783  0.025597684  0.025100174            8 
 2799000   0.80118733     -6.67158    860.22264  0.025611011  0.025092687            7 
 2800000   0.81791718    -6.711251      858.457  0.025549315  0.025085203            7 
 2801000   0.80021582   -6.7047274    856.94894  0.025495327  0.025077711            7 
 2802000   0.81231204   -6.6885383    857.87958  0.025513906  0.025070235            8 
 2803000   0.80600462   -6.7218729    857.05249  0.025480214  0.025062699           16 
 2804000   0.79742398   -6.7209645    859.22056  0.025535561  0.025055225            7 
 2805000   0.82487865   -6.6998574    858.40015  0.025502084  0.025047726            5 
 2806000   0.80432626   -6.7238752    860.23131  0.025547378  0.025040218            8 
 2807000   0.80205376   -6.7110164    859.65687  0.025521223  0.025032724            8 
 2808000    0.8029522   -6.7156559    857.63391  0.025452099  0.025025173            7 
 2809000    0.7937334   -6.6971561     856.8417  0.025419535  0.025017648            6 
 2810000     0.800788   -6.6985749    857.50584  0.025430185  0.025010144            8 
 2811000   0.80240703   -6.6817521     859.1685  0.025470429  0.025002672            6 
 2812000   0.79417149   -6.7153444    858.34653  0.025437012  0.024995216           12 
 2813000   0.80284186   -6.7555182     854.7791  0.025322286  0.024987669            4 
 2814000   0.81301013    -6.697563    858.01809  0.025409207  0.024980107            9 
 2815000   0.80333302   -6.7322896    858.14974  0.025404078  0.024972605            8 
 2816000   0.79839769    -6.693596    857.73981  0.025382925  0.024965127            8 
 2817000   0.80641966   -6.6634241     861.4269  0.025482987  0.024957725            9 
 2818000   0.79744392   -6.7038069    858.06464  0.025374516  0.024950296           11 
 2819000   0.81209715   -6.6838066    860.76884  0.025445455  0.024942803            8 
 2820000   0.80335229   -6.7210991    860.01775  0.025414236  0.024935304           11 
 2821000   0.80538607   -6.6907994    857.96429  0.025344567  0.024927814           12 
 2822000    0.8029885   -6.7182027    859.33803  0.025376153  0.024920322           17 
 2823000    0.7915092   -6.7220911    858.81056  0.025351593   0.02491283           13 
 2824000   0.79383324   -6.7301272    858.19177  0.025324356  0.024905362           11 
 2825000   0.78895992   -6.7034427    859.46988  0.025353094  0.024897836            6 
 2826000   0.81737909   -6.7151473    859.56942  0.025347058  0.024890329           10 
 2827000   0.80359085   -6.6792164    863.21335  0.025445506  0.024882888            7 
 2828000   0.80828437   -6.6590547    861.93897  0.025398956  0.024875466            6 
 2829000   0.81728278    -6.720986    859.29709  0.025312156  0.024868027            9 
 2830000    0.7923141   -6.6786367    862.10356  0.025385853  0.024860561            9 
 2831000   0.80020018   -6.6831067    861.45142  0.025357689   0.02485317           12 
 2832000   0.81374394   -6.7282954    860.02797  0.025306849  0.024845726           19 
 2833000   0.80248372   -6.6997257     859.3011  0.025276536  0.024838314           16 
 2834000   0.81173857   -6.7050411    859.35289  0.025269139  0.024830879            6 
 2835000   0.79644815    -6.709713    860.79179  0.025302522  0.024823476           16 
 2836000   0.79467155   -6.6983963     860.0005  0.025270349  0.024816018           14 
 2837000   0.79018836   -6.6996039    862.04681  0.025321549  0.024808546           10 
 2838000   0.78693717   -6.7184968    860.13193  0.025256399  0.024801115            8 
 2839000   0.80208346   -6.7032071    860.21395   0.02524991  0.024793753            6 
 2840000   0.79892988   -6.7235073    862.24788  0.025300701  0.024786367            9 
 2841000   0.80469341   -6.6947098    861.80559  0.025278822  0.024778977            5 
 2842000   0.79878334   -6.7330189    861.60725  0.025264111  0.024771487            9 
 2843000   0.77272115   -6.7580708    859.15718  0.025183409  0.024763999           10 
 2844000   0.78987137   -6.6733514    861.79926  0.025251971  0.024756548            5 
 2845000   0.80147851   -6.7173722    862.76944  0.025271513  0.024749113            6 
 2846000   0.80035868   -6.7062053    860.84813  0.025206375  0.024741699            7 
 2847000   0.81012286   -6.7481278     858.5227  0.025129455  0.024734229            7 
 2848000   0.79251665   -6.7204629    861.25082  0.025200457   0.02472677            6 
 2849000   0.78877879   -6.7292989    859.67152  0.025145417  0.024719304           11 
 2850000    0.8003431   -6.7243335    861.54946  0.025191505  0.024711852            7 
 2851000   0.80542272   -6.7193823    862.15602  0.025200398  0.024704418            5 
 2852000   0.81011262   -6.6955304    862.64734  0.025205918  0.024697004           24 
 2853000   0.78768564    -6.701721    861.97784  0.025177528  0.024689597           12 
 2854000   0.78557756   -6.7311299    861.61036  0.025157976  0.024682209           53 
 2855000   0.78960683   -6.7219476    860.98646  0.025130953  0.024674762           26 
 2856000   0.79250445   -6.7246027    863.11465  0.025184251  0.024667335           23 
 2857000   0.80763717   -6.7129824    861.04945  0.025115198  0.024659955           25 
 2858000   0.79855652   -6.7146845    862.53199  0.025149638  0.024652533            8 
 2859000   0.79811904   -6.7332805     864.0207  0.025184234  0.024645116            8 
 2860000   0.79449997   -6.7083972    861.46559  0.025100979    0.0246377           20 
 2861000   0.79242096   -6.6939127    862.99057  0.025136624  0.024630312           11 
 2862000   0.78546946    -6.757846    860.66947  0.025060257   0.02462287           13 
 2863000   0.79476157   -6.7629455    861.13298  0.025064995  0.024615411           12 
 2864000   0.79044212   -6.7742327    861.02396  0.025053072  0.024607951           20 
 2865000    0.8134885   -6.7429526    862.74571  0.025094407  0.024600555            9 
 2866000   0.80791734   -6.7325722    864.19044  0.025127659   0.02459319            8 
 2867000   0.78889302   -6.7454922    864.05121  0.025114847  0.024585797            9 
 2868000   0.79631867   -6.7545774    859.48088  0.024973294  0.024578392           22 
 2869000   0.78776444   -6.7219312    863.53886  0.025082458  0.024571019           15 
 2870000   0.78677503   -6.7272489    865.40349   0.02512786   0.02456362           13 
 2871000   0.79658304   -6.7328311    863.47924  0.025063254  0.024556251           15 
 2872000   0.80088437   -6.7449524    862.73446  0.025032917  0.024548842            7 
 2873000    0.7936889   -6.7335388    862.88249  0.025028498  0.024541491           10 
 2874000   0.79249203   -6.7653606    862.94497  0.025021601    0.0245341            6 
 2875000   0.80142288    -6.737769    864.59878  0.025060834  0.024526721           12 
 2876000   0.78508315   -6.7555857    863.25668  0.025013233   0.02451929            7 
 2877000   0.79537075   -6.7779149    859.64802  0.024900012  0.024511849            7 
 2878000    0.7849475   -6.7601256    861.61657   0.02494836  0.024504374            8 
 2879000   0.80888244    -6.777725    862.44766  0.024963751  0.024496957            9 
 2880000   0.78725217   -6.7413278    863.02054  0.024971659  0.024489525           10 
 2881000   0.77810324    -6.728811    863.83735  0.024986618  0.024482144           11 
 2882000   0.77080414   -6.7252137    863.75058  0.024975439  0.024474772           12 
 2883000   0.79305644   -6.7036935    864.19393  0.024979591  0.024467421           10 
 2884000   0.80453893    -6.733072    864.07674  0.024967543  0.024460016            7 
 2885000   0.78608898    -6.744026    861.55887   0.02488616  0.024452628            5 
 2886000   0.80724664   -6.7386896    863.49146  0.024933341  0.024445226           12 
 2887000    0.7806737   -6.7122632    863.33486  0.024920184  0.024437863            9 
 2888000    0.7895637   -6.7542136    864.40771  0.024942512  0.024430538            7 
 2889000   0.79034659   -6.7830371    859.05417  0.024779456  0.024423115            9 
 2890000   0.78565622    -6.752257    860.65212  0.024816958   0.02441565           11 
 2891000   0.79256152    -6.739834    862.52802  0.024862447  0.024408202           11 
 2892000   0.80208937   -6.7383999     863.9847  0.024895825  0.024400784            6 
 2893000   0.79250275   -6.7476717    863.81372  0.024882294   0.02439335            9 
 2894000   0.79478298   -6.7280057    865.72124  0.024928624   0.02438599            5 
 2895000   0.77479686   -6.7063664    862.02063   0.02481349  0.024378632           17 
 2896000   0.79042024   -6.7227767    865.19339  0.024896219  0.024371265            5 
 2897000   0.77480104    -6.761332    863.88317  0.024849936  0.024363849           30 
 2898000    0.8082832   -6.7407357    866.29793  0.024910799  0.024356426           13 
 2899000   0.78795608   -6.7623886    862.16027  0.024783266  0.024349036            7 
 2900000   0.79591401   -6.7893565    861.71071  0.024761802  0.024341628           20 
 2901000   0.78830629   -6.7520763    864.98191  0.024847234  0.024334186            7 
 2902000    0.7857455   -6.7550644    864.46839  0.024823926  0.024326791           10 
 2903000   0.76916571   -6.7211812     865.6199   0.02484843  0.024319422           18 
 2904000   0.76661778   -6.7643322    864.80241  0.024816414  0.024311996           13 
 2905000   0.79991439   -6.7243714     864.4705  0.024798351  0.024304577            5 
 2906000   0.79116275   -6.7310721     865.7076  0.024825293  0.024297232            7 
 2907000   0.76127636   -6.7564181    866.26981  0.024832869  0.024289852           17 
 2908000   0.78707006   -6.7302926    865.96289  0.024815534  0.024282491            6 
 2909000   0.79041451   -6.7539496     866.0277   0.02480886  0.024275159           10 
 2910000   0.77718437   -6.7556964    863.97117  0.024741442  0.024267787            7 
 2911000   0.79012261   -6.7411869    865.73672  0.024783486  0.024260413           10 
 2912000   0.79032757   -6.7461498    866.22186  0.024788858  0.024253031            9 
 2913000    0.7832508   -6.7635214    865.34995  0.024755405  0.024245676            7 
 2914000   0.78487595   -6.7261511     866.2913   0.02477383  0.024238325            7 
 2915000    0.7770688     -6.73674    865.55131  0.024744177  0.024230985            8 
 2916000   0.77121337   -6.7714268    863.81611  0.024686103  0.024223677            6 
 2917000   0.77872904   -6.7580467    865.58319  0.024728122  0.024216329           12 
 2918000   0.79338201   -6.7419415    866.15663  0.024736024  0.024208943           18 
 2919000   0.78084621    -6.767211    863.84674  0.024661606  0.024201574            5 
 2920000   0.79324591   -6.7572277    864.39984  0.024668945  0.024194232           11 
 2921000   0.77886321   -6.7677063    864.13361  0.024652904  0.024186891            9 
 2922000   0.79985943   -6.7609189    865.75389  0.024690677  0.024179531            7 
 2923000   0.79061538   -6.7634811    864.72884  0.024653006  0.024172163           10 
 2924000   0.79617874   -6.7971938    866.03162  0.024681704  0.024164795            6 
 2925000   0.77738403   -6.7928667    862.94135  0.024585224  0.024157401            8 
 2926000   0.78194604   -6.7913213     866.1668  0.024668683  0.024150062           12 
 2927000    0.7771112   -6.7533091    866.10591  0.024658522  0.024142727            7 
 2928000   0.79763344   -6.7595704    866.78966   0.02466956  0.024135371           10 
 2929000   0.76145823   -6.7721811     867.9979  0.024695513  0.024128106           33 
 2930000   0.79775599   -6.7456037    866.97727  0.024658057   0.02412087           15 
 2931000   0.79024863   -6.7437426    865.89727  0.024618937  0.024113597           18 
 2932000   0.79341865   -6.7633962    867.11616  0.024645184  0.024106325            7 
 2933000   0.78327715   -6.7600702    867.25399  0.024640698  0.024099022            3 
 2934000   0.78626774   -6.7677512    867.40577   0.02463661  0.024091728           29 
 2935000    0.7792429   -6.7828954    863.87757   0.02452804  0.024084415           23 
 2936000   0.77475644   -6.7865643    866.22289  0.024586254  0.024077092           17 
 2937000    0.7980985   -6.7799738    866.44497  0.024584184  0.024069788           14 
 2938000   0.77981888   -6.7435363    867.36268  0.024601846   0.02406254           14 
 2939000   0.77760283   -6.7707503     869.6055  0.024657069  0.024055319           22 
 2940000    0.7865093   -6.7482549    868.08536  0.024605594  0.024048094           18 
 2941000    0.7898654   -6.7502658      868.821  0.024618072  0.024040895           10 
 2942000   0.77789595   -6.7778722    867.04945  0.024559524  0.024033713           13 
 2943000   0.76970645   -6.7913676    867.38912  0.024560797  0.024026483            8 
 2944000   0.78905455   -6.7717255    870.56091  0.024642236  0.024019222           18 
 2945000   0.76768179   -6.7607619    869.45781  0.024602655  0.024011997           16 
 2946000   0.78038399   -6.7566019     869.1988  0.024586977  0.024004781           13 
 2947000   0.78862035   -6.7217963    869.70111  0.024592838  0.023997588           14 
 2948000   0.77447685   -6.7833574     870.2494  0.024599994  0.023990384           15 
 2949000   0.78106343   -6.7698175    869.99443  0.024584448  0.023983214           12 
 2950000   0.77714672   -6.7531775    870.30483  0.024584882  0.023976069           11 
 2951000   0.78774266   -6.7650176    869.55665  0.024555423  0.023968923           12 
 2952000   0.78080238   -6.7692203    869.94158  0.024557971  0.023961797           10 
 2953000   0.77508341   -6.7451063    871.14642  0.024583656  0.023954698            9 
 2954000   0.78892794   -6.7331254     872.4312  0.024611578  0.023947601           19 
 2955000   0.77042093   -6.7193588      872.163  0.024595685  0.023940506            7 
 2956000   0.77433064   -6.7785746    869.52626  0.024513032  0.023933339            9 
 2957000    0.7696742   -6.7642249     869.0415  0.024491081  0.023926158           13 
 2958000   0.77734615   -6.7723415    870.26602  0.024517298  0.023918964           14 
 2959000   0.77968914    -6.760463    870.71105  0.024521546  0.023911777           10 
 2960000    0.7881221   -6.7307867      871.702   0.02454116  0.023904646            7 
 2961000    0.7929562   -6.7588475    870.46591  0.024498084  0.023897526            8 
 2962000   0.77977421   -6.7449611     870.3609  0.024486859  0.023890378            8 
 2963000   0.78634401   -6.7610721    871.69927  0.024516236   0.02388327            8 
 2964000   0.76454768   -6.7763359    871.20771  0.024494144  0.023876156           11 
 2965000   0.79417471   -6.7360102    871.98457  0.024507717  0.023868999            9 
 2966000    0.7765741   -6.7982639    869.46001  0.024428524  0.023861817           13 
 2967000   0.77894779   -6.7729188    871.10848   0.02446659  0.023854638           10 
 2968000    0.7898672   -6.8111458    870.38736    0.0244381   0.02384745            8 
 2969000   0.77834235   -6.7714544    871.54904  0.024462474  0.023840276            8 
 2970000    0.7729805     -6.78337      868.653   0.02437298  0.023833126           10 
 2971000     0.767226   -6.7826192    871.92185  0.024456464  0.023825982            6 
 2972000   0.77010566   -6.7888782    869.27407  0.024373993   0.02381883            4 
 2973000   0.76186695   -6.7503577    870.48906   0.02439985  0.023811673           11 
 2974000    0.7768129   -6.7783139    871.95449  0.024432708  0.023804526            7 
 2975000   0.78517621   -6.7451562    875.29974    0.0245182  0.023797446            5 
 2976000   0.75838918   -6.7670333    873.45951  0.024458432  0.023790365           10 
 2977000   0.77446378   -6.7773009    871.19199  0.024386743  0.023783313           10 
 2978000   0.77202434   -6.7928747    870.18993  0.024350513  0.023776231            9 
 2979000   0.77299441   -6.7600266    873.09338  0.024423559  0.023769131            8 
 2980000   0.78609316    -6.780951    871.96334  0.024383762   0.02376207            9 
 2981000   0.76311094    -6.810648    872.21881  0.024382724  0.023754956            8 
 2982000   0.78112051   -6.8137354    872.45046  0.024381021  0.023747809           16 
 2983000   0.78193256   -6.7785181    872.87936   0.02438483  0.023740624            7 
 2984000    0.7617079   -6.8087667    870.90109  0.024321411  0.023733439           13 
 2985000   0.76963477   -6.7575362    870.96781  0.024315126   0.02372628           16 
 2986000   0.78223489   -6.7828004    871.73568  0.024328412   0.02371915           20 
 2987000   0.79161646   -6.7942631    871.26235  0.024307063  0.023712042            8 
 2988000   0.76194516   -6.8117754    869.55675   0.02425136  0.023704912           22 
 2989000   0.79502997   -6.7928157    871.79737  0.024305715  0.023697763           40 
 2990000   0.78073308   -6.7872676    870.86481  0.024271594  0.023690622           14 
 2991000   0.77462125   -6.7900014    873.04152  0.024324126  0.023683499            9 
 2992000   0.80153636    -6.778494    872.35182  0.024296787  0.023676401            8 
 2993000    0.7842818   -6.7553086    872.64789  0.024296912  0.023669303            9 
 2994000   0.76438581   -6.7630027    873.26511  0.024305976  0.023662193           15 
 2995000    0.7850806   -6.8177992    871.46058  0.024247651  0.023655084           29 
 2996000   0.78478051   -6.8113884    869.91735  0.024196633  0.023647963           15 
 2997000   0.78422772   -6.8180602    867.88105  0.024131939  0.023640837           30 
 2998000   0.77177789   -6.7824567    871.51055  0.024224776  0.023633737           11 
 2999000   0.78883809   -6.7596224    872.20279  0.024235934  0.023626622            9 
 3000000   0.77711671   -6.7993442    872.65677  0.024240466  0.023619507            8 
 3001000   0.75231128   -6.7857418    872.39697  0.024225174  0.023612407            9 
 3002000   0.76749112   -6.7746938    873.47535  0.024247039  0.023605284           11 
 3003000   0.76662057    -6.785246    871.11754  0.024173536  0.023598175           16 
 3004000   0.77276005   -6.7704007    871.55674  0.024177672  0.023591003           21 
 3005000   0.77944555   -6.7796549    871.70006  0.024173601  0.023583868           21 
 3006000   0.75378944   -6.7967176    873.06147  0.024203301  0.023576762           11 
 3007000   0.76517885    -6.806432    872.22234  0.024171997  0.023569677            9 
 3008000   0.76395853   -6.7801258     872.8782  0.024182131  0.023562589           12 
 3009000    0.7505742   -6.7554572    871.13789  0.024125897  0.023555475            7 
 3010000   0.74731095   -6.8158766    871.67107  0.024132643  0.023548361           14 
 3011000   0.76654774   -6.8037064    873.34742  0.024171023  0.023541218           14 
 3012000   0.76875303   -6.7937659    870.73266  0.024090656  0.023534088           16 
 3013000   0.78417867   -6.8267169    868.39072  0.024017887  0.023526941           12 
 3014000   0.77061249   -6.7933575    873.07816   0.02413952  0.023519793           13 
 3015000   0.76956734     -6.80913    872.42132  0.024113359  0.023512649           19 
 3016000   0.77386792   -6.7708013    873.57735  0.024137305  0.023505544           12 
 3017000     0.784667   -6.7937059    874.55338  0.024156264  0.023498451            5 
 3018000   0.75396665   -6.7886197    873.36826  0.024115536  0.023491371           11 
 3019000   0.77659251    -6.802506    873.98207  0.024124491  0.023484301           13 
 3020000   0.76728173   -6.8084589    873.53351  0.024104125   0.02347725            6 
 3021000   0.77301519    -6.773586    875.04865  0.024137941  0.023470178           12 
 3022000    0.7782684   -6.7747637    873.82066  0.024096091  0.023463098            8 
 3023000   0.75042154   -6.7948791    872.09146  0.024040453  0.023455964           11 
 3024000   0.76426894   -6.8098792    872.82314  0.024052666  0.023448841           11 
 3025000   0.76067266   -6.7698676    874.21821  0.024083146   0.02344174            6 
 3026000   0.76944273   -6.7649168    874.02363  0.024069829  0.023434672           14 
 3027000   0.77414348   -6.8090311    872.53101  0.024020785  0.023427573           10 
 3028000   0.77179261   -6.7835227    874.68783   0.02407221  0.023420474            9 
 3029000   0.77643923   -6.8025504    873.40823  0.024029059  0.023413391           13 
 3030000   0.77297577   -6.8124732    871.69749  0.023974078  0.023406263           10 
 3031000   0.77615868   -6.8020065    873.18204  0.024006985  0.023399137            6 
 3032000   0.77249209    -6.819453    871.20545  0.023944741  0.023392025           11 
 3033000   0.77397527   -6.8133132    871.35113  0.023940849  0.023384882           19 
 3034000   0.77171622   -6.7988019    872.01267  0.023951128  0.023377727            6 
 3035000   0.78371295   -6.7995815     872.0752  0.023944953  0.023370616            7 
 3036000   0.76188086   -6.7529374    875.40622  0.024028497  0.023363551            9 
 3037000    0.7504301   -6.8058093    871.15667  0.023903981   0.02335642            8 
 3038000   0.75598201   -6.7998447    872.39225  0.023930005  0.023349329           11 
 3039000   0.77008387   -6.7998812    871.97452  0.023910676  0.023342215           13 
 3040000   0.76430889   -6.8195421    872.09751  0.023906182  0.023335083            8 
 3041000   0.76573073   -6.8047564    870.91217  0.023865838  0.023327995           28 
 3042000   0.75451314   -6.8032328    874.58075  0.023958491  0.023320912            7 
 3043000   0.77027448   -6.8038329    874.72454  0.023954555  0.023313812           14 
 3044000   0.75442116   -6.7968113    873.07203  0.023901446  0.023306715           17 
 3045000    0.7635498   -6.8345528    874.79347  0.023940708   0.02329964            7 
 3046000   0.77852275   -6.8259264    873.47116  0.023896672  0.023292561           10 
 3047000    0.7578497   -6.8223428    874.12363  0.023906674  0.023285422           22 
 3048000   0.76399199   -6.8357314     871.6081  0.023830055   0.02327832           11 
 3049000   0.76272553   -6.8273993     873.1891   0.02386545  0.023271168           13 
 3050000   0.74740985   -6.8217945    872.98611   0.02385208  0.023264038           24 
 3051000   0.77092849   -6.8428375    873.08832  0.023847053  0.023256931            8 
 3052000   0.77791985   -6.8169902     874.8333  0.023886886  0.023249837           15 
 3053000   0.78444368   -6.8276157    873.54199  0.023843814  0.023242772           23 
 3054000   0.76521821   -6.8300496     871.2328  0.023772997  0.023235691           14 
 3055000   0.75901256   -6.8237947    871.20714  0.023764516  0.023228598           21 
 3056000   0.76211944   -6.8128485    873.85336  0.023828898  0.023221532           12 
 3057000   0.77295423   -6.8063849    873.90654  0.023822553  0.023214409            6 
 3058000   0.75813984   -6.8234961    874.08595  0.023819652  0.023207293            6 
 3059000    0.7700513   -6.8078073    875.64436  0.023854319  0.023200195           17 
 3060000   0.76600756    -6.835977    873.34703   0.02378396  0.023193098           18 
 3061000   0.74649425   -6.8129044    874.37608  0.023804205  0.023186009           10 
 3062000   0.75343696   -6.8358885    873.42804   0.02377063  0.023178908           10 
 3063000   0.74594954    -6.813168    875.00111  0.023805667  0.023171825           15 
 3064000   0.75391799   -6.8125144    873.50562  0.023757224  0.023164779           23 
 3065000   0.75343268    -6.811043    874.50649  0.023776686  0.023157683           21 
 3066000   0.76010801   -6.8286598    874.93789  0.023780656  0.023150571           10 
 3067000   0.75649498   -6.8473072    871.99375  0.023692907  0.023143447            6 
 3068000   0.76785072   -6.8385613    875.70555  0.023786005  0.023136298            6 
 3069000    0.7586644   -6.8274376    873.37771  0.023715046  0.023129167           14 
 3070000   0.77039354   -6.8608673    872.75544   0.02369043  0.023122044            6 
 3071000     0.756232   -6.8174318    874.83243  0.023739076   0.02311491           29 
 3072000   0.74837914   -6.8333021    873.99753    0.0237087  0.023107812           18 
 3073000   0.75360883   -6.8122659    875.06889  0.023730038  0.023100754           16 
 3074000   0.77487082   -6.8385144    871.27293  0.023619414  0.023093664           12 
 3075000   0.77170987   -6.8435207    873.88701  0.023682575  0.023086586            5 
 3076000   0.75560164   -6.8335325    873.77253  0.023671774  0.023079488           11 
 3077000   0.75217339   -6.8424036    875.35772  0.023707012    0.0230724           11 
 3078000   0.76570937   -6.8464154    874.37951  0.023672826  0.023065308            8 
 3079000   0.76940832   -6.8625809    873.24296  0.023634377  0.023058205           13 
 3080000   0.75574856   -6.8442132    874.74175  0.023667255  0.023051137           14 
 3081000   0.74666771   -6.8124698    876.61373  0.023710206  0.023044072           14 
 3082000   0.76422149   -6.8213062    874.68451  0.023650349  0.023036998           13 
 3083000   0.74588089   -6.8252221    875.54862  0.023666035  0.023029964           29 
 3084000   0.76654204    -6.798183    877.15936  0.023701885  0.023022951           17 
 3085000   0.74774939   -6.8173916    875.71911  0.023655297  0.023015929           13 
 3086000   0.75086417   -6.8510791    873.62858   0.02359118  0.023008849           15 
 3087000    0.7519051   -6.8085423    874.27978  0.023601117  0.023001742           18 
 3088000   0.76232367   -6.8229891    874.70537  0.023604959  0.022994613            7 
 3089000   0.75545112   -6.8589957    872.18513  0.023529328   0.02298749           17 
 3090000    0.7482844   -6.8282814    874.76515  0.023591293   0.02298043           15 
 3091000   0.75153171   -6.8298354    874.30446  0.023571241  0.022973357           14 
 3092000   0.76470718   -6.8024475    875.82311  0.023604547  0.022966303            8 
 3093000     0.732856   -6.8384985    874.19767  0.023553122  0.022959246           14 
 3094000   0.75446556   -6.8219814    875.37662  0.023577263  0.022952165           27 
 3095000   0.76084585   -6.8466338    873.86103  0.023528838  0.022945092           12 
 3096000   0.75767547   -6.8345883    874.19319  0.023530178  0.022937999            9 
 3097000   0.75110908   -6.8102576    875.53758  0.023558755  0.022930928           10 
 3098000   0.75370998    -6.854076    874.82872  0.023532083  0.022923795           12 
 3099000   0.75800503   -6.8483561    875.98428  0.023555563  0.022916702            8 
 3100000   0.75275742   -6.8856838     871.7996  0.023435473  0.022909593           11 
 3101000   0.75252284   -6.8396105    874.99437  0.023513769  0.022902508           10 
 3102000   0.74534833   -6.8278746    874.70691  0.023498466  0.022895448            9 
 3103000   0.74794407    -6.845682    875.27652  0.023506191  0.022888397           10 
 3104000   0.76540861   -6.8277129    874.12984  0.023467833   0.02288138            9 
 3105000   0.76313652   -6.8409803    877.68586  0.023555713  0.022874372           11 
 3106000   0.73850269   -6.8273518    875.36159  0.023485769  0.022867359            9 
 3107000    0.7502915   -6.8449346    873.59313  0.023430778   0.02286033           14 
 3108000   0.76540164   -6.8618479    874.42617  0.023445575  0.022853315           27 
 3109000   0.74954053    -6.828146    875.73913  0.023473226  0.022846298            7 
 3110000   0.76498346   -6.8564911    875.39979  0.023456586  0.022839234           14 
 3111000   0.74971251   -6.8853471    873.68822  0.023403199  0.022832163            7 
 3112000   0.74411423    -6.851537    874.24068  0.023410472   0.02282509           40 
 3113000   0.76016673   -6.8458518    876.11882  0.023453229  0.022818045            6 
 3114000   0.75797573   -6.8420824    875.30219  0.023423844  0.022811002           15 
 3115000    0.7525947   -6.8266778    876.22385  0.023440981  0.022804007           18 
 3116000   0.74141739   -6.8278528    874.63332  0.023390921   0.02279699           16 
 3117000   0.75593698   -6.8518103    876.33589  0.023428935  0.022789935           11 
 3118000    0.7549655   -6.8375301     874.5473  0.023373618  0.022782866           12 
 3119000   0.74470222   -6.8270953    875.11497  0.023381291   0.02277586           12 
 3120000   0.77152509   -6.8639044    877.02321  0.023424765  0.022768836            7 
 3121000   0.74320691   -6.8265303    875.11345  0.023366268  0.022761798           29 
 3122000   0.76747948   -6.8213474    876.39202  0.023392911  0.022754742           16 
 3123000   0.75246106   -6.8255577    876.17486  0.023379626   0.02274771           21 
 3124000   0.74765542   -6.8564463    876.74956  0.023387472  0.022740676            6 
 3125000   0.76294008   -6.8621524    875.14729  0.023337261  0.022733633            6 
 3126000   0.76139184   -6.8498214    876.56135  0.023367492  0.022726595           11 
 3127000   0.75873549   -6.8587256    874.25898  0.023298662  0.022719592           36 
 3128000   0.75003909   -6.8390196    877.12358  0.023367529  0.022712579           13 
 3129000   0.76391729   -6.8465257    876.71778  0.023349254  0.022705554            8 
 3130000   0.75659329   -6.8478584    875.38895  0.023306415  0.022698541           11 
 3131000   0.74345012   -6.8237315    876.98951  0.023341571   0.02269159            6 
 3132000   0.76159658   -6.8562984    876.37862  0.023317865  0.022684596           20 
 3133000   0.75180989   -6.8361138    878.32591  0.023362217  0.022677602           13 
 3134000   0.76518673   -6.8430549    876.03025  0.023293721  0.022670616           16 
 3135000   0.74751977   -6.8282836     874.6686  0.023250096  0.022663588           46 
 3136000   0.73902136    -6.887779    875.09753   0.02325408  0.022656534           24 
 3137000   0.74372493   -6.8710735    876.16419  0.023275002  0.022649435           30 
 3138000    0.7522506   -6.8685453    874.96522  0.023235745  0.022642333           25 
 3139000   0.74949137   -6.8741542    873.44472  0.023187977  0.022635212           18 
 3140000   0.76175572   -6.8947788    872.94766  0.023167401  0.022628071           16 
 3141000   0.74436625   -6.8577599    875.99209  0.023240796  0.022620979           16 
 3142000   0.75529879     -6.83708    877.13949  0.023263831  0.022613914           17 
 3143000   0.73719311   -6.8340697    877.04508  0.023253926  0.022606869           17 
 3144000   0.75183967   -6.8376231    878.98629  0.023297983  0.022599862           14 
 3145000   0.75576206   -6.8541144    877.75596  0.023257975  0.022592812           16 
 3146000   0.75816156   -6.8308647    879.24975   0.02329015   0.02258583           10 
 3147000   0.75676674   -6.8331984    876.89457  0.023220384  0.022578824           15 
 3148000   0.75911862   -6.8342667    876.95669  0.023214652  0.022571825           19 
 3149000   0.74871279   -6.8323361     875.8319  0.023177514  0.022564838            9 
 3150000   0.74279165   -6.8580218    877.04485  0.023202245  0.022557837           16 
 3151000   0.75115287   -6.8684354    877.34683  0.023202868  0.022550828           10 
 3152000   0.72873903   -6.8702195    876.84784  0.023182314  0.022543797           18 
 3153000   0.74837861   -6.8721627    879.56223  0.023246702  0.022536797           19 
 3154000   0.75062037   -6.8631258     877.1106  0.023174556   0.02252978           17 
 3155000   0.75460971   -6.8651817     877.1199  0.023167457  0.022522728           46 
 3156000   0.75714185   -6.8560488    876.48097  0.023143245  0.022515695           13 
 3157000   0.73163339   -6.8451436    879.70358  0.023220979  0.022508697           21 
 3158000   0.75331047   -6.8352654    878.30961  0.023176842  0.022501712           12 
 3159000   0.74862997   -6.8555883    875.05874  0.023083749   0.02249473            8 
 3160000   0.74880019   -6.8604551    876.00043  0.023101277   0.02248773            9 
 3161000   0.73609561   -6.8828274     876.3292  0.023102636  0.022480715           16 
 3162000   0.75460773   -6.8868696    876.45539  0.023098656  0.022473723           16 
 3163000   0.75941706   -6.8551917    874.95644  0.023051861  0.022466705           44 
 3164000   0.76754039   -6.8892511    875.36237  0.023055267  0.022459692           17 
 3165000    0.7506062   -6.8764701    876.63036  0.023081368  0.022452689           30 
 3166000   0.75234812   -6.8750367    876.66434  0.023074972  0.022445672           20 
 3167000   0.73641425   -6.8650432    876.83768  0.023072247  0.022438657           32 
 3168000   0.73453285   -6.8546235    878.90363  0.023119308  0.022431645           18 
 3169000   0.73806935   -6.8656527    876.25427  0.023042344  0.022424648           24 
 3170000   0.76344066   -6.8639438    876.96371  0.023053725  0.022417687           18 
 3171000   0.75166646   -6.9042181    875.72915  0.023014011  0.022410695           20 
 3172000   0.74511471    -6.870159    874.93437  0.022985876  0.022403706           14 
 3173000   0.73974395    -6.873537    877.53457  0.023046921  0.022396746           14 
 3174000   0.73979711   -6.8572894    876.93052  0.023023801  0.022389748           10 
 3175000   0.74414916   -6.8627678    878.59382  0.023060205  0.022382743           33 
 3176000   0.73400261   -6.8601273    878.33313  0.023046104  0.022375767           18 
 3177000   0.73725259   -6.8545911    878.51833  0.023043708  0.022368793           25 
 3178000   0.75559364   -6.8906679    875.42749  0.022955409  0.022361801           85 
 3179000   0.74333531   -6.8684318    876.91278  0.022987123  0.022354805           12 
 3180000   0.74967408   -6.8845109     877.2414  0.022988506  0.022347792           19 
 3181000   0.73508848   -6.8706944    877.01794  0.022975425  0.022340794            8 
 3182000   0.73199846   -6.8676236     878.8323  0.023015721  0.022333814           26 
 3183000   0.73598315     -6.84869    875.82188  0.022929675  0.022326866           11 
 3184000   0.73208412    -6.845572    876.99793  0.022953254  0.022319894           11 
 3185000   0.73415904   -6.8650389    875.99825  0.022919891  0.022312954            5 
 3186000   0.74872457   -6.8816721    875.85938  0.022909065  0.022305951           15 
 3187000   0.73499007    -6.873515    878.05713  0.022959343   0.02229898            7 
 3188000   0.74931983   -6.8521688     879.2174  0.022982471  0.022292033            7 
 3189000   0.73905283   -6.8553481    878.31791  0.022951759  0.022285056            8 
 3190000   0.75257108   -6.8924531    877.80986  0.022931292  0.022278071            9 
 3191000   0.75461548   -6.8526318    877.75032  0.022922551  0.022271081           13 
 3192000   0.74550164   -6.8637546    876.48383  0.022882305  0.022264098           19 
 3193000    0.7457117   -6.8749133    877.48764  0.022901337  0.022257148           20 
 3194000   0.73644273   -6.8724094    879.59496  0.022949148  0.022250172           15 
 3195000   0.74650553    -6.888116    877.53543  0.022888248  0.022243166           13 
 3196000   0.72663685   -6.8484368     879.4897  0.022932043  0.022236227            9 
 3197000    0.7426749   -6.8818065    877.79304  0.022880644  0.022229272           18 
 3198000   0.73427156   -6.8832691    875.04366  0.022801846   0.02222231           14 
 3199000   0.73746273   -6.8671766    878.22439  0.022877576  0.022215316           19 
 3200000   0.72782324   -6.8972445    874.30878  0.022768458  0.022208294           26 
 3201000   0.73612433   -6.8847066    878.12099   0.02286059  0.022201266           38 
 3202000   0.72806771   -6.9190164    874.75419  0.022765828  0.022194247           33 
 3203000   0.73485976   -6.9068653    875.20186  0.022770368  0.022187218           22 
 3204000   0.74456495   -6.8968111    876.84148  0.022805906  0.022180214           18 
 3205000   0.74043472   -6.9069504    877.90823  0.022826527  0.022173225           14 
 3206000   0.73761519   -6.9102505    878.37224  0.022831468  0.022166244           18 
 3207000   0.73959048   -6.9159018    877.25909  0.022795424  0.022159262           14 
 3208000   0.73731525    -6.895772    877.70914  0.022800009  0.022152264           23 
 3209000   0.73974739   -6.9283226    877.79152  0.022795043  0.022145258           26 
 3210000   0.76766386   -6.9102113    878.78334   0.02281369  0.022138263           34 
 3211000   0.74313644    -6.877885    878.30527  0.022794178  0.022131301           42 
 3212000   0.74165709    -6.873487    877.88759  0.022776245  0.022124371           17 
 3213000   0.73632665   -6.8827706    878.78139  0.022792338  0.022117453           15 
 3214000   0.74286202   -6.8990951    877.18717  0.022743911  0.022110532           10 
 3215000   0.73042634   -6.8647029    879.23287  0.022789862  0.022103623           14 
 3216000    0.7362036   -6.8772835    878.82067  0.022772094   0.02209673            7 
 3217000    0.7254756   -6.8787715    877.19508  0.022722906  0.022089831           10 
 3218000    0.7264356   -6.9198605     877.1708  0.022715217  0.022082865            8 
 3219000   0.73892086   -6.8769627     882.1127  0.022836096  0.022075939           16 
 3220000   0.73055447    -6.867512    879.79892  0.022769123  0.022069047            9 
 3221000   0.74272451    -6.867667      879.643   0.02275802  0.022062159           17 
 3222000   0.73206236    -6.871601    881.89014  0.022809077   0.02205528            6 
 3223000   0.71911012   -6.9124382    878.52066  0.022714879  0.022048389            8 
 3224000   0.74348623   -6.8895325    880.26992  0.022753048  0.022041526           16 
 3225000   0.75752888   -6.9036732    876.63484  0.022652063  0.022034615            9 
 3226000   0.74422634   -6.9149232    879.55202  0.022720397  0.022027767           13 
 3227000   0.72395826   -6.8726352    880.97119  0.022750005  0.022020883           26 
 3228000    0.7287296   -6.8757147    880.56322  0.022732425  0.022013996           11 
 3229000   0.73786523   -6.8842402    880.78617  0.022731139  0.022007116            7 
 3230000   0.74494908   -6.8885873    879.97948  0.022703289  0.022000255           14 
 3231000   0.74649525   -6.8827013    881.98212  0.022747914  0.021993413           12 
 3232000   0.74371862   -6.9039756    878.68634  0.022655898  0.021986554           14 
 3233000   0.74003762   -6.8862981    881.78201  0.022728684  0.021979706           17 
 3234000    0.7381728   -6.8892339    878.42026  0.022635031  0.021972844           17 
 3235000   0.73575679   -6.8967951     879.5266  0.022656533   0.02196595           16 
 3236000   0.74606736   -6.8634336    880.13898  0.022665301  0.021959108            9 
 3237000   0.73239939   -6.8783548     881.3797   0.02269024  0.021952263           14 
 3238000    0.7387305   -6.8507381    880.82277    0.0226689  0.021945476           11 
 3239000   0.74626485   -6.8860266    879.19292  0.022619968  0.021938643           36 
 3240000   0.73532239   -6.9025185    880.07023  0.022635551  0.021931781           32 
 3241000   0.72886478   -6.8906969    881.66042  0.022669454  0.021924892           11 
 3242000    0.7371122      -6.8612    880.40818  0.022630274  0.021918036           20 
 3243000   0.73993514     -6.91341     880.2223  0.022618519  0.021911183           15 
 3244000   0.74945646   -6.9004397     880.9782  0.022630965  0.021904328           12 
 3245000   0.73370195    -6.893385    879.50697  0.022586209  0.021897444           16 
 3246000   0.73698575   -6.8913001    881.56592  0.022632109  0.021890562           18 
 3247000   0.73174829   -6.9185596    878.36487  0.022542985  0.021883688           15 
 3248000   0.71642736   -6.9018823     878.4676   0.02253868  0.021876798           15 
 3249000   0.72624298   -6.9147899    880.44761  0.022582528    0.0218699           16 
 3250000   0.72420765   -6.8990577    877.82025  0.022508212  0.021863014           17 
 3251000    0.7382032   -6.8807901    880.26716   0.02256401  0.021856175           20 
 3252000   0.72997089   -6.8978238    879.39154  0.022534634  0.021849293            7 
 3253000    0.7305117   -6.9041433    879.50432  0.022530595  0.021842397           24 
 3254000   0.74630742   -6.8967706    880.66073  0.022553287  0.021835542           25 
 3255000   0.75370156   -6.8918382    879.16422  0.022508045  0.021828672           25 
 3256000   0.74992582   -6.9091827    879.26217  0.022503639  0.021821778            8 
 3257000   0.72653664   -6.8957025    879.72942  0.022508684   0.02181488           17 
 3258000   0.73335452   -6.8907563     879.7019  0.022501072  0.021808003           10 
 3259000   0.73203369    -6.900965    880.26361  0.022508531  0.021801125           10 
 3260000   0.72820727   -6.8760001    879.08981  0.022471621  0.021794242           14 
 3261000   0.74079372   -6.8985224    880.66137   0.02250489  0.021787386           17 
 3262000   0.73390026   -6.8963409    880.43431  0.022492191  0.021780537           18 
 3263000   0.73746152   -6.8976411    880.24975  0.022480584  0.021773673            9 
 3264000   0.72436318   -6.9008422    877.24556  0.022396997  0.021766833           10 
 3265000   0.73464033   -6.9207657    879.33098  0.022443363  0.021759972           11 
 3266000   0.75054144   -6.9077576    880.40216  0.022463823  0.021753094           20 
 3267000   0.73883616   -6.8916313    880.53569  0.022460353  0.021746244           28 
 3268000   0.72526992   -6.9333015    878.06854  0.022390569  0.021739371           13 
 3269000   0.73723725   -6.8993867    880.71219  0.022451111   0.02173251           24 
 3270000   0.73124359   -6.9452225    877.82647  0.022370705  0.021725612           24 
 3271000   0.71554783   -6.8679679    879.99445  0.022419098  0.021718736           26 
 3272000   0.74068127   -6.9165301    880.09458  0.022414797  0.021711884           24 
 3273000   0.72430207   -6.9191492    878.72581  0.022373098  0.021705012           13 
 3274000   0.73257024   -6.9367634    879.08787   0.02237548  0.021698133            8 
 3275000   0.73656641   -6.9135338    878.76987  0.022360557  0.021691251           22 
 3276000   0.72920993   -6.8928633    881.57234  0.022425019  0.021684432           13 
 3277000   0.71119998   -6.9196119    879.24987  0.022359116  0.021677589           12 
 3278000   0.73251866   -6.9539871     878.2925  0.022327957  0.021670719           15 
 3279000   0.73504958   -6.9340349    879.43563  0.022350199  0.021663856           23 
 3280000   0.70327445   -6.9348304    879.01554  0.022332712  0.021656981           23 
 3281000   0.74164808   -6.9485889    877.58214  0.022289499  0.021650111           57 
 3282000   0.73257917    -6.928461    878.40352  0.022303563  0.021643228           20 
 3283000   0.73000713   -6.9008416    880.85079  0.022358889  0.021636368           27 
 3284000   0.71889626   -6.9120211     880.1356  0.022333932  0.021629547           10 
 3285000   0.70823415   -6.8942549    882.05451  0.022375812  0.021622765           19 
 3286000   0.72513561   -6.9030653    881.54754  0.022356146  0.021615936           17 
 3287000   0.72039533   -6.9269637    879.47769  0.022296869  0.021609121           14 
 3288000   0.73648086   -6.9269783    880.82978  0.022324356  0.021602297           15 
 3289000   0.72701003   -6.9186607    880.33366  0.022304998  0.021595484           15 
 3290000   0.71701157   -6.9087345    880.62234   0.02230553  0.021588668           20 
 3291000   0.71723657   -6.9111307    880.06292  0.022284587  0.021581852           23 
 3292000   0.73639237   -6.9156429    879.85366  0.022272521  0.021575056            8 
 3293000    0.7386972   -6.8958518      879.653  0.022260679  0.021568235            6 
 3294000   0.74430859   -6.9405791    877.27014  0.022193639  0.021561357           10 
 3295000   0.70720903   -6.9045499     880.8414  0.022277223  0.021554505           14 
 3296000    0.7327935   -6.9351239    880.55181  0.022263143  0.021547668            8 
 3297000   0.72329442   -6.9193582    879.74948  0.022236111  0.021540813           21 
 3298000   0.71431878   -6.9238201    881.62227   0.02227669  0.021534005           20 
 3299000   0.71262642   -6.8915965     881.8586  0.022275907  0.021527171           11 
 3300000    0.7243986   -6.9191184    880.69179  0.022239692  0.021520342            6 
 3301000   0.73268525   -6.9034311     879.7161  0.022208323  0.021513504           37 
 3302000   0.71809092   -6.9144457    881.03024  0.022234763  0.021506666            9 
 3303000   0.74639107   -6.9336433     878.4735  0.022163526  0.021499806           17 
 3304000   0.72706504   -6.9261238     878.1518  0.022148704  0.021492935           11 
 3305000   0.73085775   -6.9296384    879.52489  0.022176624  0.021486073           24 
 3306000   0.72464973   -6.9129765     878.7763  0.022151046  0.021479239            9 
 3307000   0.72850807   -6.9293508    877.76577  0.022118883   0.02147238           13 
 3308000   0.71891225   -6.9325738    879.69975  0.022160917  0.021465521           18 
 3309000   0.72461678   -6.9329318    878.98522  0.022136225  0.021458689            9 
 3310000   0.73155431   -6.9354059    879.14717  0.022133614  0.021451873           14 
 3311000   0.72648269   -6.9278129    878.54633  0.022111807  0.021445064           27 
 3312000   0.69854185   -6.8983365    878.05572  0.022092787  0.021438223           26 
 3313000   0.69947091   -6.9638213    879.26139  0.022116445   0.02143136           26 
 3314000   0.73072235   -6.9521387    879.70559  0.022120941  0.021424473           33 
 3315000   0.72598676    -6.923636    882.15545  0.022175853  0.021417618           28 
 3316000   0.72049793   -6.9197766    879.23509  0.022095775  0.021410743           12 
 3317000   0.70617123   -6.9199906    880.99347   0.02213329  0.021403879           14 
 3318000   0.71854042      -6.9257    881.03507  0.022127664  0.021397041           14 
 3319000   0.72577465   -6.9385343    879.14321  0.022073496  0.021390218           13 
 3320000   0.70863113   -6.9097515     879.0395  0.022064244  0.021383369           31 
 3321000   0.72078497   -6.9441046    877.24727  0.022012628  0.021376509           14 
 3322000   0.72613979   -6.9446896     879.0549  0.022051347  0.021369634           16 
 3323000   0.71569737   -6.9405732    879.62089  0.022058905  0.021362738           13 
 3324000   0.73656469   -6.9670364    877.77883  0.022006088  0.021355838           20 
 3325000   0.72055319   -6.9551872    878.82914  0.022025793  0.021348968           22 
 3326000   0.73442043   -6.9711342    879.02301  0.022024028   0.02134209           13 
 3327000   0.72599607   -6.9709498    878.72346  0.022009905  0.021335184           24 
 3328000   0.71753245   -6.9593147    877.87596   0.02198207  0.021328285           17 
 3329000   0.71336713   -6.9444736    878.28601  0.021985732  0.021321401           28 
 3330000   0.71003687   -6.9327398    878.41881  0.021982453  0.021314519           31 
 3331000    0.7107817   -6.9549992    879.51506  0.022003279  0.021307629           19 
 3332000   0.71508374   -6.9619426    877.46189  0.021945325  0.021300737           13 
 3333000   0.71729198   -6.9571918    879.86388  0.021998797  0.021293838           32 
 3334000    0.7155199   -6.9531408    880.14069  0.021999117  0.021286942           13 
 3335000    0.7361495   -6.9479919    878.00438   0.02193914   0.02128009           30 
 3336000   0.73340182   -6.9726428    878.14297  0.021936025  0.021273213           27 
 3337000   0.71169704   -6.9333164    880.02181  0.021976371  0.021266351           27 
 3338000   0.72019034    -6.936675     877.8462  0.021915473    0.0212595           17 
 3339000   0.71266464   -6.9316667    879.87602  0.021959569  0.021252691           21 
 3340000   0.72183529    -6.899591    880.18927   0.02196081  0.021245881            5 
 3341000   0.71469109   -6.9399773    879.01329  0.021924905  0.021239055            7 
 3342000   0.71962089   -6.9266742    879.59041  0.021932735  0.021232206           21 
 3343000    0.7195289   -6.9430435    881.51628  0.021974182  0.021225382           27 
 3344000   0.71747798   -6.9182909    881.54866  0.021968418  0.021218567           13 
 3345000   0.72757576   -6.9644462    879.40402  0.021908421  0.021211732           16 
 3346000    0.7238447   -6.9598019    878.27303  0.021873706   0.02120487           16 
 3347000   0.72186627   -6.9621102    879.98735  0.021909853  0.021198009           21 
 3348000   0.70183587    -6.953179    880.59671  0.021918476   0.02119112           30 
 3349000   0.70815811   -6.9669009    878.32358  0.021855369  0.021184276           25 
 3350000   0.72004654   -6.9624573    877.80373  0.021835914  0.021177428           30 
 3351000   0.72260904   -6.9538061     878.3431  0.021842811  0.021170584           27 
 3352000   0.71020578   -6.9422686    879.68101  0.021869556  0.021163765            9 
 3353000    0.7303921   -6.9589023    879.28835  0.021853274  0.021156944            9 
 3354000   0.71460187   -6.9396933    879.43047   0.02185029  0.021150117            6 
 3355000   0.71881835   -6.9694604    878.95044  0.021831854  0.021143265           19 
 3356000   0.71803468    -6.945554    877.81587  0.021797176  0.021136413           11 
 3357000   0.71769671   -6.9515595    879.40541  0.021830141  0.021129583           12 
 3358000   0.70424375   -6.9642378    877.32595  0.021772036  0.021122754           28 
 3359000   0.72073556   -6.9896876    875.83672  0.021728608  0.021115889           13 
 3360000   0.71223231   -6.9538611    880.16459  0.021829479  0.021109063           12 
 3361000   0.72592997   -6.9761364    877.38803  0.021754141  0.021102228           15 
 3362000   0.72279426   -6.9483953    880.19136  0.021817156   0.02109539            7 
 3363000   0.70355517   -6.9691247    880.01445  0.021806285  0.021088561           11 
 3364000   0.71966041   -6.9785045    877.57032  0.021739257  0.021081712           15 
 3365000   0.71984299   -6.9721939     879.5788  0.021782536  0.021074878           13 
 3366000   0.70675929   -6.9680592    878.87241  0.021758576  0.021068049           29 
 3367000   0.71157459    -6.968148    878.11162  0.021733284  0.021061217           14 
 3368000   0.72051326    -6.952961     878.0265  0.021724725  0.021054438           19 
 3369000   0.71141455    -6.959143    878.60225  0.021732518  0.021047639           21 
 3370000   0.71480319   -6.9709322    881.32219  0.021793328  0.021040873           24 
 3371000   0.71618978   -6.9596104    880.28984  0.021761343  0.021034115           19 
 3372000   0.72262106   -6.9507721    881.44585  0.021783458  0.021027378           12 
 3373000   0.71570309   -6.9470561     880.8294   0.02176177  0.021020607            8 
 3374000   0.71919815   -6.9814536    879.67087  0.021726706  0.021013852           15 
 3375000   0.71181206   -6.9817318    879.78262  0.021723028  0.021007089            9 
 3376000   0.71446035   -6.9763536    878.14262  0.021676111  0.021000283           14 
 3377000   0.69193504   -6.9994877    878.97954  0.021690345  0.020993463           11 
 3378000   0.72010562   -6.9749137    880.39734    0.0217189   0.02098667           11 
 3379000     0.710338   -6.9956585    877.18028  0.021633133  0.020979862           20 
 3380000   0.68930045   -6.9611383    878.05867  0.021648389   0.02097306           13 
 3381000   0.71456814   -6.9673453    879.34714  0.021673744  0.020966272           24 
 3382000   0.70965173   -6.9593575    881.38664  0.021717589  0.020959492           24 
 3383000   0.71056134    -6.952952    879.05462  0.021653725  0.020952725           51 
 3384000    0.7079287   -6.9598105    882.39285  0.021729532  0.020945984           31 
 3385000    0.6979655   -6.9422301    880.30754  0.021671776  0.020939247           18 
 3386000   0.70734947   -6.9619935    879.03526  0.021634063  0.020932492           29 
 3387000   0.70945424   -6.9625701    879.84451  0.021647587  0.020925769           18 
 3388000   0.70833177    -6.954874    881.25419   0.02167587  0.020919072           17 
 3389000   0.70600383   -6.9551401    883.03952  0.021713375  0.020912351           18 
 3390000   0.70323887   -6.9344453    882.52126   0.02169423  0.020905625           21 
 3391000   0.70319104   -6.9399873    882.23993  0.021680918  0.020898903           14 
 3392000   0.71001176   -6.9737357    879.85705  0.021615985  0.020892172           17 
 3393000   0.70266038   -6.9676903    879.42263  0.021598945  0.020885453           24 
 3394000   0.71007038   -6.9700226    878.04198  0.021558682  0.020878724           21 
 3395000   0.71984057   -6.9409391    881.95615  0.021648408  0.020872001           30 
 3396000   0.72607129   -6.9542216    879.22689  0.021575061  0.020865239           23 
 3397000    0.6961591   -6.9661247    880.86472  0.021608888  0.020858461           30 
 3398000   0.71904442   -6.9912116    880.79718  0.021600872  0.020851677           15 
 3399000   0.70637255   -6.9775084    878.90908  0.021548227  0.020844902           17 
 3400000   0.69958345   -6.9531823    880.07056  0.021570357  0.020838124           19 
 3401000   0.71459163   -7.0035412    879.78418  0.021556997  0.020831361           45 
 3402000   0.71221401     -6.97029    880.87354  0.021577345  0.020824583           23 
 3403000   0.69056441    -6.992409    879.58305  0.021539403  0.020817825           25 
 3404000   0.71495725   -6.9893761    880.43047  0.021553821   0.02081106           14 
 3405000   0.71170356   -6.9818507    879.40485   0.02152239  0.020804306           18 
 3406000   0.70710234   -6.9957853    880.97948  0.021554597  0.020797569           13 
 3407000   0.70582586   -7.0124282    880.59184  0.021538789  0.020790835           54 
 3408000   0.70243805    -6.993155    879.40323  0.021503405  0.020784098           19 
 3409000   0.69715971   -6.9749882    878.75825   0.02148133  0.020777346           21 
 3410000   0.71046851   -6.9722623    879.70229  0.021498101  0.020770605           33 
 3411000   0.70559401   -7.0051419    878.24683   0.02145624  0.020763883           22 
 3412000   0.70309243   -7.0116084     878.6394   0.02145954  0.020757155           18 
 3413000   0.69916069   -7.0034224     880.1284  0.021489608  0.020750372           23 
 3414000   0.70964979   -6.9997324    880.90158  0.021502187  0.020743617           15 
 3415000   0.69613375    -7.003567    880.06729  0.021475532  0.020736866           32 
 3416000   0.71274981   -7.0084423    878.14008  0.021422231  0.020730099           35 
 3417000   0.69098649   -7.0304806    877.46862  0.021399586  0.020723306           18 
 3418000   0.68834421   -7.0222375    878.33925  0.021414552  0.020716524           32 
 3419000   0.70378546   -7.0260503    880.44911  0.021459713   0.02070975           32 
 3420000   0.70315668   -7.0373858    879.98646  0.021442165  0.020702983           29 
 3421000   0.70247624   -7.0070072    880.29147  0.021443327  0.020696242           17 
 3422000   0.69864103     -7.00933     881.4866  0.021466165  0.020689503           34 
 3423000    0.7096823   -7.0173255    881.93807  0.021470885  0.020682755           61 
 3424000   0.70822312   -6.9974808    880.21929  0.021422783  0.020676003           51 
 3425000   0.69833067   -7.0040383    878.78774  0.021381697  0.020669269           65 
 3426000   0.71534152   -6.9846355     880.9701  0.021428539  0.020662551           31 
 3427000   0.69148634   -6.9954232    880.87396  0.021419948  0.020655827           33 
 3428000   0.68917223   -7.0128844    880.35844  0.021401168  0.020649114           14 
 3429000   0.70615665   -7.0034538    880.07106  0.021387942  0.020642393           25 
 3430000   0.70344827   -7.0100399    878.41078   0.02134137  0.020635684           25 
 3431000   0.68936538   -6.9804536    881.17493  0.021402286  0.020628982           32 
 3432000     0.716189   -7.0114313    879.60891  0.021358025   0.02062228           28 
 3433000   0.71369757   -6.9906287    881.29993  0.021392852  0.020615574           15 
 3434000   0.69629927   -6.9780573    880.27791  0.021361821  0.020608868           21 
 3435000   0.68983794   -7.0003808    880.42885  0.021359264  0.020602131           54 
 3436000   0.69991045   -7.0047897    879.09981  0.021320814  0.020595401           19 
 3437000   0.71519556   -7.0060006    880.51501  0.021348924  0.020588668           24 
 3438000   0.70988595   -6.9871984    880.65094  0.021346009  0.020581948           22 
 3439000   0.70345537   -6.9798797    880.26729  0.021330505  0.020575236           35 
 3440000   0.70194588   -6.9980983    881.57054  0.021355875  0.020568561           35 
 3441000   0.70110854   -7.0211682    880.19614  0.021316384  0.020561858           21 
 3442000   0.69718361   -7.0211795    879.25163  0.021287324  0.020555143           13 
 3443000   0.70558838   -7.0145275    881.54344  0.021336612  0.020548443           36 
 3444000   0.70576307   -6.9938663    880.13464  0.021296328  0.020541738           17 
 3445000    0.7215944   -7.0069099    879.14012  0.021266089  0.020535027           38 
 3446000   0.70659346   -7.0248297    877.67401  0.021224463  0.020528311            8 
 3447000   0.70410631    -7.006512    880.65951  0.021290482  0.020521612           23 
 3448000   0.71697817   -7.0155112     879.5083  0.021256484  0.020514889           26 
 3449000   0.70854294   -7.0111673    878.30057  0.021221141  0.020508166           22 
 3450000   0.71331198   -7.0174007    879.56214  0.021245462  0.020501475           17 
 3451000   0.68730304   -7.0174816    879.35931  0.021234408    0.0204948           30 
 3452000   0.69447172    -6.986711    878.59371  0.021209775   0.02048811           18 
 3453000   0.70780286   -7.0260805    879.86993  0.021234432  0.020481456           21 
 3454000   0.70767602   -7.0184652    880.44124  0.021242068  0.020474784           19 
 3455000   0.69743073   -7.0159989    879.76947  0.021219717  0.020468127           13 
 3456000   0.70555272   -6.9864298    880.31396  0.021226706   0.02046147           30 
 3457000    0.6941397   -6.9936515    879.81432  0.021208522  0.020454807           46 
 3458000   0.70093604   -7.0089609     881.1881  0.021235495  0.020448141           49 
 3459000   0.70886824   -6.9868212     881.5249   0.02123747  0.020441467           25 
 3460000    0.7137221   -7.0061892    879.82117  0.021190298  0.020434802           19 
 3461000   0.69661869   -7.0013531    880.17016  0.021192578  0.020428104           27 
 3462000   0.69123618    -6.992623    880.97163  0.021205749  0.020421399           15 
 3463000   0.69411125   -7.0183149    878.96002  0.021151218  0.020414702           16 
 3464000   0.68746244   -7.0108866    879.65428  0.021161814  0.020408012           10 
 3465000   0.69860757   -6.9925987    880.26627  0.021170425  0.020401346           20 
 3466000   0.70081697   -7.0254277     877.8333  0.021105821  0.020394674           16 
 3467000     0.708376   -6.9968196    878.53351  0.021116564  0.020388013           11 
 3468000   0.69669731   -6.9803381    880.36728  0.021154539  0.020381357           13 
 3469000   0.68937889   -7.0050757    878.00136  0.021091606  0.020374702           18 
 3470000   0.69714839   -6.9580636    882.81558  0.021201143  0.020368043           16 
 3471000   0.68998679   -7.0076226    879.85358  0.021123921  0.020361373           33 
 3472000   0.69401351   -7.0145863    877.84459  0.021069619  0.020354687           39 
 3473000   0.69938704    -6.983483    880.11407  0.021118007   0.02034801           57 
 3474000   0.67742992   -7.0451633    878.06005  0.021062657  0.020341291           43 
 3475000   0.68166345   -7.0033337    878.14346  0.021058596   0.02033459           34 
 3476000   0.68724225   -7.0323827     877.5601  0.021038552  0.020327898           14 
 3477000   0.68718174   -6.9943263    880.82657  0.021110789  0.020321228           20 
 3478000   0.69133258   -6.9864911    878.91632   0.02105895  0.020314548           17 
 3479000   0.70154622   -7.0529135    879.21896  0.021060146   0.02030787           25 
 3480000   0.68683525   -7.0111541    879.30491  0.021056152  0.020301174           32 
 3481000   0.69096146   -6.9873041    880.13884  0.021070067  0.020294513           21 
 3482000   0.69600332   -7.0159947    879.14358  0.021040197  0.020287829           15 
 3483000   0.68362592   -7.0338095      876.213   0.02096404  0.020281139           30 
 3484000    0.6862662   -6.9977495    881.93222   0.02109482  0.020274463           24 
 3485000   0.69714696   -7.0280664    879.67765  0.021034855  0.020267784           34 
 3486000    0.6969667   -7.0179504    881.18926  0.021064956  0.020261105           20 
 3487000   0.70684391   -6.9975413    879.68045  0.021022857  0.020254455           25 
 3488000   0.68404787   -7.0323021    879.28873  0.021007472  0.020247782           16 
 3489000   0.69847364   -7.0025825    880.10889   0.02102104   0.02024111           11 
 3490000   0.67971527   -7.0270031     881.5299  0.021048947   0.02023443           33 
 3491000   0.68725738     -7.03005    880.36954  0.021015219  0.020227777           18 
 3492000   0.69560694   -7.0291413    878.24723  0.020958554   0.02022111           24 
 3493000   0.69170818   -6.9970173    880.58627  0.021008357  0.020214449           25 
 3494000   0.70547415   -7.0321697    876.53363  0.020905687    0.0202078           37 
 3495000   0.68336192   -7.0311119      878.652  0.020950215  0.020201137           44 
 3496000    0.6822169   -7.0553051    877.84186  0.020924911  0.020194474           19 
 3497000   0.68144662   -7.0228751    879.24948  0.020952471  0.020187807           20 
 3498000   0.69457339   -7.0558019    877.06733  0.020894495  0.020181162           36 
 3499000    0.7019028   -7.0041734    878.45747  0.020921632  0.020174503           31 
 3500000   0.69928927   -7.0233928    880.11876  0.020955209  0.020167857           14 
 3501000   0.68314694   -7.0335149    878.74411  0.020916503  0.020161214           38 
 3502000   0.69006907   -7.0290427    879.40961  0.020926366  0.020154573           44 
 3503000   0.68707034   -7.0025915    881.40299  0.020967813  0.020147945           40 
 3504000   0.69282651   -6.9932124    881.92569   0.02097426  0.020141384           31 
 3505000   0.69033721   -7.0068221    882.75541  0.020988003  0.020134824           13 
 3506000   0.70377034    -6.999812    883.20005  0.020992585  0.020128266           23 
 3507000   0.70402303   -7.0131606    879.87273  0.020907536  0.020121699           48 
 3508000   0.68184809    -7.019685    879.69071  0.020897252  0.020115116           36 
 3509000   0.69282717   -7.0217108     881.7082  0.020939209  0.020108545            9 
 3510000   0.67939296   -7.0082198     880.2668  0.020899022  0.020101979           12 
 3511000   0.68777315    -7.021824    880.62235  0.020901508  0.020095396           11 
 3512000   0.68980199   -6.9944451    881.30908  0.020911852  0.020088849           26 
 3513000   0.70344073   -7.0036246    880.98393  0.020898186  0.020082312            9 
 3514000   0.68088151   -7.0159977    880.35182  0.020877249  0.020075768           11 
 3515000   0.69447881   -7.0161099    882.21528  0.020915488  0.020069223           18 
 3516000   0.67749221   -6.9973208    881.42383  0.020890781  0.020062678           18 
 3517000   0.68563465   -7.0234215    879.95053  0.020849932  0.020056131           36 
 3518000   0.68184052   -7.0260719    880.33691  0.020853158  0.020049559           21 
 3519000   0.68159568   -7.0108624    880.88005  0.020860094  0.020042997           31 
 3520000   0.68853542   -7.0119198    878.84568  0.020806006  0.020036409           13 
 3521000   0.69053103   -7.0347062    879.43164  0.020813965  0.020029826           21 
 3522000   0.70310888   -7.0412578     879.5891  0.020811781  0.020023241           15 
 3523000   0.67457833   -7.0324013     881.1549  0.020842911  0.020016634           34 
 3524000     0.709653   -7.0281894    880.30333  0.020816859  0.020010029           26 
 3525000   0.69142685   -7.0497237    879.64599  0.020795413  0.020003417           23 
 3526000   0.69627442   -7.0627645    876.67451  0.020719288  0.019996811           29 
 3527000   0.69833949   -7.0410982     881.3189  0.020823148  0.019990224           21 
 3528000   0.69555801   -7.0499352    880.56198  0.020799367  0.019983649           12 
 3529000   0.69029804   -7.0585186    877.88932  0.020730361  0.019977047           19 
 3530000   0.68853617   -7.0141708    879.71083  0.020767489  0.019970453           21 
 3531000   0.68931427   -7.0313111    877.50055  0.020709444  0.019963861           32 
 3532000   0.67790697   -7.0683042    879.10385  0.020741408   0.01995726           35 
 3533000   0.67816137   -7.0745204    877.80516  0.020704905  0.019950657           35 
 3534000    0.6830321   -7.0459836    879.96128  0.020749889  0.019944054           26 
 3535000   0.68982963   -7.0637594    878.71863  0.020714725  0.019937456           20 
 3536000   0.68002711   -7.0586426    879.29968   0.02072256  0.019930857           44 
 3537000   0.68706071   -7.0474245    880.80219  0.020752101  0.019924259           33 
 3538000   0.69014385   -7.0204651    879.49431   0.02071543  0.019917705           24 
 3539000   0.68651377   -7.0057231    880.35728  0.020729897  0.019911168           41 
 3540000   0.68678662   -7.0219327    880.69897  0.020732085   0.01990462           29 
 3541000   0.67771733   -7.0297587    882.44759  0.020767382  0.019898069           55 
 3542000   0.68213482   -7.0494939    879.85648  0.020700557  0.019891524           38 
 3543000    0.6918092   -7.0536542     879.4048  0.020684091  0.019884988           74 
 3544000   0.67915644   -7.0406617     879.9957  0.020692149  0.019878451           51 
 3545000   0.69158887   -7.0266055    879.50699  0.020674824  0.019871905           52 
 3546000   0.67717139   -7.0537819    879.59666    0.0206711  0.019865355           77 
 3547000   0.67477908   -7.0492456    879.49546  0.020662895  0.019858814           43 
 3548000   0.66712563   -7.0403921    880.62787  0.020683669  0.019852279           70 
 3549000   0.69998123   -7.0487086     880.0254  0.020663694  0.019845758           51 
 3550000   0.68403058   -7.0372132    880.40271   0.02066673  0.019839236           50 
 3551000   0.68730873   -7.0683441    879.18551  0.020632346  0.019832698           80 
 3552000   0.68300043    -7.050516    880.55371  0.020658636  0.019826157           80 
 3553000   0.68605847   -7.0699226     880.1231  0.020642722   0.01981961           59 
 3554000   0.67775179   -7.0554239    881.23075  0.020662886  0.019813073           35 
 3555000   0.68402295   -7.0480751    880.04802  0.020629349  0.019806527           61 
 3556000   0.68725044   -7.0705056    879.43764  0.020609244   0.01979997          121 
 3557000   0.68488187   -7.0531855    878.33401  0.020577594  0.019793407           64 
 3558000   0.67563247   -7.0488635    878.84097  0.020583684  0.019786868          120 
 3559000   0.68339333   -7.0509755    880.05902  0.020606421  0.019780303           79 
 3560000   0.66632215    -7.053369     878.1905  0.020556894  0.019773755          123 
 3561000   0.67978733    -7.067769    876.52261  0.020512089  0.019767214           87 
 3562000   0.68956522   -7.0561879    879.33778  0.020572192  0.019760664           56 
 3563000    0.6659823    -7.028617    879.74933  0.020576044  0.019754128           41 
 3564000   0.67636768   -7.0701105    880.56389  0.020589317  0.019747582           66 
 3565000   0.68801444   -7.0666643    878.78595  0.020541981  0.019741015           50 
 3566000     0.688972   -7.0739977    880.30717   0.02057177  0.019734459           98 
 3567000   0.66208129   -7.0515452    880.78502  0.020577166  0.019727931           23 
 3568000   0.68538957   -7.0518106    879.79273  0.020548223  0.019721386           38 
 3569000   0.68458599   -7.0463976    879.31384  0.020531284   0.01971484           52 
 3570000    0.6807544     -7.08622    878.27469  0.020501277  0.019708312           42 
 3571000   0.67495663    -7.054346    879.61046  0.020526707  0.019701782           31 
 3572000   0.68744585   -7.0491063    880.78224  0.020548298  0.019695288           24 
 3573000   0.68742878   -7.0658859    879.51072  0.020512891  0.019688792           65 
 3574000   0.69253656   -7.0304257    882.21369  0.020570176  0.019682273           54 
 3575000   0.68578246    -7.042916    879.64903  0.020504639  0.019675772           71 
 3576000   0.66623716   -7.0683551     879.8835  0.020504369  0.019669249           42 
 3577000   0.68238189   -7.0536022    880.76219  0.020519108  0.019662741           32 
 3578000   0.67232025   -7.0505725     879.3206  0.020479798  0.019656222           49 
 3579000   0.68830078   -7.0521333    878.01996  0.020443792  0.019649728           43 
 3580000   0.66749352   -7.0811773    878.17393  0.020441665   0.01964323           48 
 3581000   0.67603905   -7.0496985    882.39453  0.020534174  0.019636722           44 
 3582000   0.67364116   -7.0600721    879.10052  0.020451808   0.01963023           24 
 3583000   0.67432812   -7.0662074    877.72387  0.020414082  0.019623711           26 
 3584000   0.67888774   -7.0901629    877.74725   0.02040893    0.0196172           22 
 3585000   0.67108197   -7.0901781    879.22893  0.020437679  0.019610682           40 
 3586000   0.67825501   -7.0845046    879.28122  0.020433194  0.019604151           60 
 3587000   0.67925469   -7.0558282    879.62145  0.020435402  0.019597625           22 
 3588000   0.68373686   -7.0679521    877.90098  0.020389748  0.019591117           86 
 3589000   0.67704921   -7.1090687    879.68821  0.020425564  0.019584593           47 
 3590000   0.68738129   -7.0526451    881.50362  0.020462015  0.019578092           47 
 3591000   0.66529497   -7.0804579    879.42016  0.020407968  0.019571581           14 
 3592000   0.66628234   -7.0609038     879.1836  0.020396798  0.019565078           29 
 3593000   0.67619897   -7.0832409    880.89697   0.02043086  0.019558591           12 
 3594000   0.67476409   -7.0885892    879.48115  0.020392347  0.019552096           21 
 3595000   0.66068786   -7.0835169    880.45847  0.020409329  0.019545598           40 
 3596000   0.66892127   -7.0707056    881.11494  0.020418867  0.019539112           46 
 3597000   0.68871447   -7.0610793    880.13362  0.020390455  0.019532678           23 
 3598000   0.67585786   -7.0576151    881.61637   0.02041913  0.019526217           18 
 3599000   0.68073171   -7.0775257     880.8865  0.020396557  0.019519749           36 
 3600000   0.66449131   -7.0702936    879.42637  0.020357092  0.019513284           17 
 3601000    0.6650945   -7.0505885    880.51096  0.020376538  0.019506808           20 
 3602000   0.68988268   -7.0423896    879.78171   0.02035401  0.019500357           27 
 3603000   0.68586998   -7.0753542    879.80361  0.020348867  0.019493904           15 
 3604000   0.67338369   -7.0670596    880.02582  0.020348359   0.01948745           12 
 3605000   0.67707876   -7.0838013    880.55752  0.020355005   0.01948099           13 
 3606000   0.67325862   -7.0625686    880.30401  0.020343502  0.019474518           37 
 3607000   0.67169638   -7.0562156     879.7705  0.020325536  0.019468069           58 
 3608000   0.66585665   -7.0659625    880.55621   0.02033805  0.019461616           39 
 3609000   0.67354485   -7.0668191    880.71674  0.020336121  0.019455171           17 
 3610000   0.68904478   -7.0879038    878.80232  0.020286295  0.019448748           37 
 3611000   0.67531672     -7.07625    880.34287   0.02031623  0.019442307           31 
 3612000   0.67873297   -7.0609643    879.11278  0.020282225  0.019435871           16 
 3613000   0.67039167    -7.054765    880.20279  0.020301753  0.019429434           16 
 3614000   0.68064862   -7.0700482    880.37931  0.020300205  0.019423016           25 
 3615000   0.67245576   -7.0714604    879.23797   0.02026828  0.019416601           71 
 3616000    0.6832389   -7.0436698    881.04114   0.02030423  0.019410197           34 
 3617000   0.66378552   -7.0685252    880.95056  0.020296529  0.019403786           32 
 3618000   0.69325966   -7.0813857    878.71808  0.020239499  0.019397357           56 
 3619000   0.67947521   -7.0856998    880.39222  0.020272456  0.019390913           15 
 3620000   0.67211994   -7.0723871    880.44205  0.020268003  0.019384464           21 
 3621000    0.6660811   -7.0731302    880.03942  0.020253139  0.019378039           33 
 3622000   0.67488782   -7.0608814    880.59149   0.02026025  0.019371615           21 
 3623000   0.68158133   -7.0799318    881.88561  0.020284424  0.019365202           25 
 3624000    0.6828067   -7.0488717    880.80131  0.020253893  0.019358804           47 
 3625000    0.6653927   -7.0425068    881.64483  0.020267697   0.01935242           30 
 3626000   0.66830478   -7.0555739    882.80319  0.020288729  0.019346045           14 
 3627000   0.67954939   -7.0766911    879.08357  0.020197674  0.019339641           32 
 3628000   0.67970741   -7.0661478    879.96308  0.020212309  0.019333232           27 
 3629000   0.66071912   -7.0779641    878.69225  0.020177557  0.019326841           29 
 3630000   0.66289295   -7.0870139     879.2806  0.020185505  0.019320436           33 
 3631000    0.6539761   -7.0461578    881.83488  0.020238568  0.019314055           25 
 3632000   0.67038612   -7.0893605      879.048  0.020169053  0.019307663           18 
 3633000   0.66163068   -7.0785035     881.5911  0.020221835  0.019301291           20 
 3634000   0.66741624   -7.0735453    879.80589  0.020175332  0.019294891           28 
 3635000   0.67088869   -7.0845749    882.26734  0.020226211  0.019288509           20 
 3636000   0.67078229   -7.0556829    881.29053  0.020198261  0.019282118           35 
 3637000   0.67820224   -7.0667901    879.90376  0.020160933  0.019275722           53 
 3638000   0.68407652   -7.0938787    879.39164   0.02014366  0.019269311           24 
 3639000   0.67201891   -7.1100147    880.50644  0.020163654  0.019262889           35 
 3640000   0.67093363    -7.073429    879.48959  0.020134835  0.019256481           45 
 3641000   0.67440123   -7.0823489    878.90491  0.020115923  0.019250111           30 
 3642000    0.6607394    -7.085859    880.81665  0.020154143  0.019243711           39 
 3643000   0.65097303   -7.0909539    878.73086  0.020100898  0.019237299           31 
 3644000   0.66985509   -7.0820643    878.20022  0.020083247  0.019230868           40 
 3645000   0.67441034   -7.0672276    879.53646  0.020108287  0.019224458           33 
 3646000   0.65573775   -7.0864194    880.10299   0.02011572  0.019218045           19 
 3647000   0.67609844    -7.103223    876.77237    0.0200341  0.019211634           31 
 3648000   0.67395718     -7.07177    880.97988  0.020124723  0.019205252           27 
 3649000   0.67612935   -7.0853373    880.41507  0.020106309  0.019198887           16 
 3650000   0.67852465   -7.0793119    879.06921  0.020070073  0.019192531           22 
 3651000    0.6642678   -7.1000796    879.89994  0.020083537  0.019186141           24 
 3652000   0.66396661   -7.0833117     880.7083  0.020096484  0.019179754           41 
 3653000   0.66715739   -7.0871841      880.251   0.02008055  0.019173364           40 
 3654000   0.66596302   -7.0917547    880.29586  0.020076078  0.019166984           33 
 3655000   0.67507416     -7.08748    880.77021    0.0200814  0.019160612           49 
 3656000   0.66901236   -7.1039933    876.58626   0.01998054  0.019154232           18 
 3657000   0.67216068   -7.0699892    881.48496  0.020086705   0.01914786           65 
 3658000   0.65213806   -7.0898931    880.53063  0.020059473  0.019141497           55 
 3659000   0.66584102   -7.0825501    880.20802  0.020046643  0.019135147           37 
 3660000   0.66453706   -7.0923102    879.79962  0.020031867  0.019128783           25 
 3661000   0.66524642   -7.1001436    880.11609  0.020033599  0.019122415           32 
 3662000    0.6681566   -7.0785042    879.84529  0.020021966  0.019116051           23 
 3663000     0.662264    -7.088597    881.27831  0.020049102  0.019109688           22 
 3664000   0.67857074   -7.0810585    879.06931  0.019993389  0.019103315           31 
 3665000   0.66795363   -7.0907231    882.02861  0.020055221  0.019096967           27 
 3666000   0.65311265   -7.1088352    879.25774  0.019986764  0.019090607           39 
 3667000   0.67078735    -7.114049    878.32492  0.019960116  0.019084209           35 
 3668000   0.66606177   -7.0893468    877.05479  0.019925818  0.019077813           31 
 3669000   0.67557928   -7.1067975    877.47883  0.019930018  0.019071409           64 
 3670000   0.66136268   -7.1288555    878.95019  0.019957997  0.019065009           46 
 3671000   0.67790045   -7.1105129     878.5572  0.019943639  0.019058601          125 
 3672000   0.65963315   -7.1253596    878.05521  0.019926816  0.019052213           49 
 3673000   0.67540444   -7.1158931    880.20776  0.019970228  0.019045821           66 
 3674000   0.67048233    -7.110415    877.74281  0.019908883  0.019039435           56 
 3675000   0.66059555   -7.1278726    877.53321  0.019898712  0.019033053          119 
 3676000   0.66604985   -7.1110108    878.92323   0.01992481  0.019026672           32 
 3677000   0.65929162   -7.1054699    879.09847  0.019923363  0.019020296           42 
 3678000   0.64943008   -7.0957648    879.90457   0.01993621  0.019013922           43 
 3679000   0.66990384    -7.130706    877.89405  0.019885251  0.019007549           56 
 3680000   0.67063838   -7.1254491     879.0775  0.019906646  0.019001173           30 
 3681000   0.66122373   -7.1224277    877.12354  0.019857003  0.018994776           53 
 3682000   0.64551585   -7.1109395    879.14294  0.019897314  0.018988403           26 
 3683000   0.65705113   -7.1016044    878.49002  0.019877139  0.018982027           34 
 3684000    0.6495064   -7.1146769     879.4494  0.019893445  0.018975655           25 
 3685000   0.65400251     -7.12596    876.88512  0.019830057  0.018969287           43 
 3686000   0.65413609   -7.1254789     878.3212  0.019857144  0.018962929           45 
 3687000    0.6571835   -7.1076547    878.15082  0.019847908  0.018956562           44 
 3688000   0.65938704   -7.1388679     879.4783  0.019872521  0.018950186           44 
 3689000    0.6747016   -7.1321519    877.76099  0.019828341  0.018943809           48 
 3690000   0.66895774   -7.1138125    879.49451  0.019862116  0.018937435           52 
 3691000   0.67213972   -7.1490741    876.06832  0.019779381  0.018931087           25 
 3692000   0.67493623   -7.1165022    877.71374  0.019811163  0.018924733           21 
 3693000   0.66467627   -7.1317514    876.84029  0.019786088  0.018918379           36 
 3694000    0.6508023    -7.119418    878.74877  0.019823786   0.01891202           40 
 3695000   0.65839492   -7.1467107    878.39382  0.019810415  0.018905668           57 
 3696000   0.65414827   -7.1182581    877.17238  0.019777516  0.018899293           58 
 3697000   0.66406709   -7.1350982    879.08289  0.019815231  0.018892943           69 
 3698000   0.66829641   -7.1213708    880.84166  0.019849506  0.018886613           42 
 3699000   0.65623613   -7.1382168    877.21605  0.019762459  0.018880282           42 
 3700000   0.67724847   -7.1197664    878.93443  0.019795821  0.018873935           43 
 3701000   0.66784731   -7.1301237    880.39777  0.019823421  0.018867609           16 
 3702000   0.66628264   -7.1297512    876.34641  0.019726869  0.018861288           51 
 3703000    0.6526487   -7.0848932    880.29061  0.019810303  0.018854999           38 
 3704000   0.67349041   -7.1314844    880.14608  0.019801703  0.018848706           44 
 3705000   0.65141293    -7.119721    881.38514  0.019824227  0.018842403           34 
 3706000   0.65660143    -7.116799    878.73369  0.019759257  0.018836117           35 
 3707000   0.65409512   -7.1119835    880.22342  0.019787416  0.018829826           68 
 3708000   0.65880128    -7.118184    880.92266  0.019797794  0.018823541           33 
 3709000   0.65943478   -7.1429108    878.16993  0.019730609  0.018817228           60 
 3710000   0.65751475   -7.1159211    878.71341  0.019737498  0.018810935           34 
 3711000   0.66342804   -7.1413365    879.78381  0.019756216  0.018804645           38 
 3712000   0.64361025   -7.1450525     879.7763  0.019750725  0.018798352           43 
 3713000   0.67383835    -7.104879     878.5143  0.019717082  0.018792061           49 
 3714000   0.64622914   -7.1350965     877.6592  0.019692587  0.018785762           38 
 3715000   0.66237802   -7.1483166     878.3832  0.019703526   0.01877945           77 
 3716000   0.66733185   -7.1385377    876.40241  0.019653804  0.018773128           50 
 3717000   0.66135907   -7.1450939    878.51452  0.019695869  0.018766826           67 
 3718000   0.67637749   -7.1495442    877.32717  0.019663958  0.018760536           27 
 3719000   0.66150331   -7.1374367    876.62289   0.01964289  0.018754254           21 
 3720000   0.66715771   -7.1211358    878.24873  0.019674031  0.018747964           62 
 3721000   0.64916208   -7.1200291    877.68486  0.019656115  0.018741701           32 
 3722000   0.64614149   -7.1243663    879.72859  0.019696592  0.018735422           33 
 3723000   0.64941419   -7.1465955     879.4758  0.019685643  0.018729155           59 
 3724000   0.64757588   -7.1348963    877.38128  0.019633487  0.018722865           87 
 3725000   0.65003725   -7.1586027     878.2236   0.01964706   0.01871658           77 
 3726000   0.64315845   -7.1470473    877.60976  0.019628059  0.018710269           59 
 3727000   0.65201113   -7.1516974    877.22782  0.019614252  0.018703967           42 
 3728000   0.65730399   -7.1691506    878.50021  0.019637433  0.018697662           51 
 3729000   0.64995499   -7.1621679    878.39361  0.019629785  0.018691366           51 
 3730000   0.63770742   -7.1707697    877.95332  0.019614685  0.018685078           66 
 3731000   0.65735965   -7.1623842     877.3414  0.019595761  0.018678788           61 
 3732000    0.6526473   -7.1583811    878.21231  0.019609957  0.018672492           75 
 3733000   0.64710994   -7.1363215    878.88526  0.019619726  0.018666209           61 
 3734000   0.64912254   -7.1423884     877.3294  0.019579749  0.018659913           54 
 3735000   0.66595671   -7.1500573    877.42077  0.019576545  0.018653625           63 
 3736000   0.66568163   -7.1533584    876.23112   0.01954477  0.018647351           57 
 3737000   0.66237119   -7.1402332    880.58033  0.019636525  0.018641079           59 
 3738000   0.64996238   -7.1464152    876.76386  0.019546189  0.018634794           40 
 3739000   0.65310796   -7.1588369    876.99688  0.019546155  0.018628486           98 
 3740000   0.65020293   -7.1338647    879.51116  0.019596951  0.018622196           44 
 3741000   0.64880225   -7.1587076    877.77648  0.019553071  0.018615923           39 
 3742000   0.65300552   -7.1881664    875.90873  0.019506252  0.018609646           50 
 3743000   0.65228412   -7.1712419    878.90621  0.019567776  0.018603355          102 
 3744000   0.67299442   -7.1603747    878.47859  0.019553031  0.018597077           32 
 3745000   0.65256347   -7.1268882    878.05453  0.019538374  0.018590819           26 
 3746000   0.66713032    -7.164634    877.20671  0.019514298  0.018584559           36 
 3747000   0.65653165   -7.1713634    878.19579  0.019531087  0.018578302           36 
 3748000   0.64754161   -7.1626768    879.15578   0.01954722  0.018572044           37 
 3749000   0.65389757   -7.1477448    877.57858  0.019506948  0.018565801           24 
 3750000   0.64820074   -7.1552864    877.60596  0.019502355  0.018559554           40 
 3751000     0.643984    -7.159592    879.52439  0.019539776  0.018553319           18 
 3752000   0.64939167    -7.142543    877.51087  0.019489847   0.01854708           33 
 3753000   0.66049665   -7.1733085    877.04544  0.019474319  0.018540841           40 
 3754000   0.65240396   -7.1404314    878.93304  0.019511034    0.0185346          120 
 3755000   0.63488488   -7.1188897    879.05503  0.019508545  0.018528372           42 
 3756000   0.63961606   -7.1332781    877.55382  0.019470044  0.018522137           47 
 3757000   0.66269139   -7.1509968    877.24669  0.019458049  0.018515905           44 
 3758000   0.67413329   -7.1542651    879.35897  0.019499711  0.018509681           44 
 3759000   0.64810057   -7.1553665     880.0246   0.01950928  0.018503471           44 
 3760000   0.64366204   -7.1472891    877.77944  0.019454332  0.018497241           45 
 3761000   0.65736808   -7.1524981    877.26358  0.019437729  0.018491005           52 
 3762000   0.65259922   -7.1388025    877.53152  0.019438497    0.0184848           37 
 3763000   0.65005991   -7.1351421    879.20748  0.019470447  0.018478576           29 
 3764000   0.64954947   -7.1658494    877.63427  0.019430443  0.018472345           47 
 3765000   0.64094403   -7.1658428    876.83737  0.019407644  0.018466106          126 
 3766000   0.63527804   -7.1655375    878.83562  0.019446708  0.018459878          132 
 3767000   0.64357484   -7.1889066    877.03248  0.019401657  0.018453655           92 
 3768000   0.64655888   -7.1896431    877.14819  0.019399067  0.018447431           87 
 3769000   0.64479602   -7.1867354    876.30761  0.019375334  0.018441207           63 
 3770000   0.64907117   -7.1592642     876.3066  0.019370172  0.018434978          200 
 3771000   0.64828542   -7.1634856    876.62219   0.01937201  0.018428745           73 
 3772000   0.63545954   -7.1633876    877.14599  0.019378446  0.018422528           96 
 3773000   0.63806854   -7.1839885    879.07641  0.019415947  0.018416314           61 
 3774000   0.64344831    -7.178204    877.81421  0.019382932  0.018410105           86 
 3775000   0.64306433   -7.1607485    878.29538  0.019388419    0.0184039           57 
 3776000    0.6501703   -7.1766126    876.96685  0.019353965  0.018397688           51 
 3777000   0.64116776   -7.1819018    876.95325  0.019348541  0.018391463           75 
 3778000   0.65260846   -7.1508107    878.33849  0.019373974  0.018385247          122 
 3779000   0.64992248   -7.1571072    876.80666  0.019335068  0.018379037           82 
 3780000   0.65273241   -7.1875017    874.50304  0.019279167   0.01837282          142 
 3781000   0.65281059   -7.1811071    877.80531  0.019346851  0.018366578           56 
 3782000   0.65132427    -7.179566    876.21487  0.019306691  0.018360353           57 
 3783000   0.64501427   -7.1699527    880.17118  0.019388739  0.018354122          100 
 3784000   0.64194421   -7.1800558    876.70224   0.01930722   0.01834792           78 
 3785000   0.64137304   -7.1829103    876.50862  0.019297856  0.018341688          124 
 3786000   0.64124954   -7.1847355    877.44774   0.01931343  0.018335472          103 
 3787000   0.63671925   -7.1729426    877.94762   0.01931933  0.018329265          113 
 3788000   0.63264956   -7.1826053    876.25959  0.019277094  0.018323062           69 
 3789000   0.65298382   -7.1720455    876.91489  0.019286419  0.018316866          128 
 3790000   0.64943478   -7.1848631    874.89871  0.019236999  0.018310656           56 
 3791000   0.64400642   -7.1948791     876.5668  0.019268592  0.018304423          107 
 3792000   0.64932729   -7.1915902    876.47734  0.019261545  0.018298203          195 
 3793000   0.64960868   -7.1650621    878.09059   0.01929191  0.018291975           45 
 3794000    0.6451126    -7.182908     876.6937  0.019256143  0.018285763           55 
 3795000   0.65560069   -7.1853555    878.25193  0.019285286  0.018279559          193 
 3796000   0.64853889   -7.1745108    875.17978  0.019212763  0.018273352          265 
 3797000   0.66024285   -7.1666474    877.73496  0.019263782  0.018267148           82 
 3798000   0.63289176   -7.1731237    878.26603  0.019270362  0.018260943           98 
 3799000   0.63784925    -7.176784    876.80853  0.019233319  0.018254745          105 
 3800000   0.63784299   -7.1723727    875.98744  0.019210251  0.018248546          140 
 3801000   0.64436658   -7.1849116    875.39494  0.019192207  0.018242343          134 
 3802000   0.64123866   -7.1716893    875.72739  0.019194446  0.018236144          206 
 3803000   0.64900453   -7.1772866    876.42301  0.019204641  0.018229953          163 
 3804000   0.64049506   -7.1602741      877.998  0.019234096  0.018223765          117 
 3805000   0.65140042   -7.1952416    878.17116  0.019232833   0.01821758          234 
 3806000   0.63321423   -7.1951706    876.39225   0.01918883  0.018211376          215 
 3807000   0.64465328    -7.190485    876.34294   0.01918271   0.01820519          103 
 3808000   0.64115749   -7.1801522    875.92966  0.019168629  0.018199003          165 
 3809000   0.64941756    -7.167398    878.79846   0.01922636  0.018192822          116 
 3810000   0.62496697   -7.2091269    876.78499  0.019177274  0.018186642           78 
 3811000   0.62808632   -7.2144352    877.32437  0.019184037  0.018180438          233 
 3812000   0.63778849    -7.203747     875.4423  0.019137861  0.018174239          220 
 3813000    0.6481138   -7.1999028      876.687  0.019160045  0.018168055           90 
 3814000   0.64147513   -7.1698036    877.40582  0.019170727  0.018161875          217 
 3815000   0.62866633   -7.1914935    874.23842  0.019096514  0.018155695          216 
 3816000   0.64529809   -7.1826699    876.42967  0.019139362  0.018149511          240 
 3817000   0.64435232   -7.2105481    874.91052  0.019101182  0.018143326          210 
 3818000   0.64155437   -7.1787054    876.04717  0.019120988   0.01813714          329 
 3819000   0.63715819   -7.1899548    877.56172  0.019149029  0.018130977           84 
 3820000   0.63047154    -7.201069    875.78741   0.01910531  0.018124812          126 
 3821000   0.64722948   -7.1932013    876.89756  0.019124521  0.018118647          222 
 3822000   0.64840866   -7.1857586    877.69854  0.019136982  0.018112493          127 
 3823000   0.63815691    -7.199281    875.79886  0.019090567  0.018106322           86 
 3824000   0.63040541   -7.1937212    876.76307  0.019106587  0.018100149          109 
 3825000   0.64688305   -7.2016981    875.51116  0.019074317   0.01809399          179 
 3826000   0.64134585   -7.2161316    875.87745   0.01907731  0.018087842          231 
 3827000   0.63669848    -7.160932    876.56497  0.019087296    0.0180817           71 
 3828000   0.63735243   -7.1793556    877.16826  0.019095443  0.018075557           68 
 3829000   0.62324212   -7.1861852    877.79904  0.019104184  0.018069409          135 
 3830000   0.65355024   -7.1859991    876.23084  0.019065075  0.018063262           75 
 3831000   0.63189976   -7.2138245    875.19206  0.019037502  0.018057113           76 
 3832000   0.64997714   -7.1887916    874.20364   0.01901104  0.018050967           66 
 3833000   0.63839091   -7.1799898    877.27516  0.019072858  0.018044823          115 
 3834000    0.6462524   -7.1762373    874.80075  0.019014101  0.018038673          102 
 3835000   0.64603923   -7.1997926    877.97182  0.019078049  0.018032514           72 
 3836000   0.63760984   -7.2240278     874.4173  0.018995857  0.018026369           53 
 3837000   0.64415643      -7.1834    875.67846  0.019018297  0.018020229          110 
 3838000   0.64128306   -7.2069952    876.58735  0.019033076  0.018014097          143 
 3839000   0.62613009   -7.2078532    874.01163  0.018972207  0.018007948           87 
 3840000   0.63860682   -7.1962885    876.56786   0.01902274   0.01800181           98 
 3841000   0.62215452   -7.2056842    874.62686  0.018975676  0.017995681           64 
 3842000   0.64076595    -7.227068    875.03052  0.018979492  0.017989557          139 
 3843000   0.65675795   -7.2032735    875.27601  0.018979877  0.017983446          146 
 3844000   0.62721037   -7.1858601     878.3786    0.0190422   0.01797734           66 
 3845000   0.63170195    -7.202131    874.25601  0.018947898  0.017971206           57 
 3846000   0.64065373   -7.1939666    876.93859  0.019001096  0.017965083          104 
 3847000   0.62660161   -7.2018752    876.73244  0.018991691  0.017958972          112 
 3848000   0.63296379   -7.1893448     876.3259  0.018977952  0.017952873           58 
 3849000   0.63495675   -7.1971397    876.66684  0.018980403  0.017946776          100 
 3850000      0.64059   -7.1994133    877.42806  0.018991949  0.017940688           59 
 3851000    0.6355743   -7.2063144    875.44373  0.018944078  0.017934602          168 
 3852000   0.63522102   -7.2151716    875.75647  0.018945926  0.017928495          179 
 3853000   0.63786365   -7.2253407    875.12427  0.018927335  0.017922386          111 
 3854000   0.63255695   -7.2225768    874.97531  0.018919203  0.017916287          103 
 3855000   0.62673165   -7.2130537     876.5785  0.018948952  0.017910189           41 
 3856000   0.62867948   -7.2114861    873.55307  0.018878654  0.017904073          177 
 3857000   0.63764716   -7.1834248     876.1104  0.018929012  0.017897973          108 
 3858000   0.64577366   -7.2012768     876.3121  0.018928462  0.017891868          131 
 3859000   0.63248642   -7.2155801    875.77548  0.018911969  0.017885783          116 
 3860000   0.63013589   -7.2360138    874.90569  0.018888292  0.017879686           86 
 3861000   0.63143978   -7.2200666    874.86178  0.018882452  0.017873597           92 
 3862000   0.63657095   -7.1978649    875.86686   0.01889925  0.017867515          184 
 3863000   0.62650257   -7.2089069    875.60201  0.018888645  0.017861438           58 
 3864000   0.62105569   -7.2021533    876.65398  0.018906444  0.017855359          157 
 3865000   0.63561178   -7.2060077    873.54522  0.018834524  0.017849283          203 
 3866000    0.6354696   -7.2127048    874.66346  0.018853756  0.017843203          198 
 3867000   0.62331656   -7.2009772    876.21948  0.018882413  0.017837149           67 
 3868000   0.63324955   -7.1983992    876.92289  0.018892686  0.017831093          114 
 3869000   0.63504175   -7.2241555    879.00342  0.018932614  0.017825041          253 
 3870000   0.62253483   -7.1939593    876.56645  0.018875247  0.017818977           83 
 3871000   0.63276495   -7.2210031    873.99428  0.018814998  0.017812914           82 
 3872000   0.63679296    -7.246683    873.94796  0.018809142  0.017806842          119 
 3873000    0.6339976   -7.2295645    873.97561   0.01880488  0.017800746           54 
 3874000   0.62906762   -7.2052235    876.50453  0.018854426   0.01779467          174 
 3875000   0.64351661   -7.2145842    873.94911  0.018794605  0.017788617           65 
 3876000   0.63046184   -7.1934553    876.35453  0.018841472  0.017782566           92 
 3877000   0.62383625   -7.2191246    875.36837  0.018815415   0.01777651           77 
 3878000   0.63171622   -7.2054136    874.95702  0.018801724  0.017770455          187 
 3879000   0.63086896   -7.2125765    875.18522  0.018801779  0.017764409          140 
 3880000   0.63494774   -7.2216219    876.44743  0.018824043  0.017758383          141 
 3881000   0.62800975   -7.2350584    874.68747  0.018781402  0.017752328          194 
 3882000    0.6369269    -7.209767    876.09513  0.018806782  0.017746275          116 
 3883000   0.63372716   -7.2233678    874.32327  0.018763913  0.017740216          267 
 3884000   0.62377921   -7.2163736    874.57196  0.018764417  0.017734172          107 
 3885000    0.6306055   -7.2243969    875.24387     0.018774  0.017728134          339 
 3886000   0.63317323   -7.2474384    873.27499  0.018726947  0.017722097          296 
 3887000   0.63375558   -7.2435349    874.18045  0.018741541  0.017716047          250 
 3888000   0.63473475    -7.208256    875.82088  0.018771881  0.017710009          276 
 3889000   0.62518543   -7.2312843      876.242  0.018776078  0.017703954          302 
 3890000   0.63247726   -7.2263844    875.34205  0.018751972  0.017697904          281 
 3891000   0.63423161   -7.2403696    875.81608  0.018757305  0.017691867          223 
 3892000   0.63042815   -7.2297262    873.30384  0.018698695  0.017685834          321 
 3893000    0.6246496   -7.2613343    876.19277  0.018755732  0.017679798          375 
 3894000   0.63270974   -7.2471068    874.51102  0.018714925  0.017673764          222 
 3895000   0.62900339   -7.2274556    874.72778  0.018714758  0.017667733          323 
 3896000   0.64039029    -7.205979    874.09812  0.018696486  0.017661717          134 
 3897000   0.63652873   -7.2154085    876.86437  0.018750842  0.017655708          132 
 3898000   0.64595871   -7.2323135    875.21072  0.018710679  0.017649704          152 
 3899000   0.62938325   -7.2300471    874.35375  0.018687564  0.017643698          225 
 3900000   0.61626789   -7.2133765    876.50561  0.018728752    0.0176377          170 
 3901000   0.62246044    -7.227405     873.3465  0.018656466  0.017631699          185 
 3902000    0.6296257   -7.2157344    873.46648  0.018654247   0.01762569          194 
 3903000   0.63950802   -7.2205039    875.92254  0.018701907  0.017619681          161 
 3904000   0.62870957    -7.225036    874.53422  0.018667482  0.017613679          196 
 3905000   0.62783967   -7.2208552    876.07423  0.018695566  0.017607677          166 
 3906000   0.62773648   -7.2391036    874.62359  0.018659831  0.017601655          186 
 3907000   0.63272644   -7.2111472    876.04776  0.018685431  0.017595654          266 
 3908000   0.62019595   -7.2252757    873.94243  0.018635756  0.017589646          285 
 3909000   0.63212719   -7.2340465    874.98803  0.018653279  0.017583624          319 
 3910000   0.62593585   -7.2500204    874.70479  0.018642472  0.017577608          396 
 3911000   0.61772075   -7.2320517    874.77716  0.018639247  0.017571602          295 
 3912000   0.63793926   -7.2317339    874.06532  0.018619319  0.017565601          269 
 3913000   0.62277469    -7.236494    874.27904  0.018619112  0.017559585          368 
 3914000   0.62514698   -7.2377629    872.80824   0.01858304  0.017553576          275 
 3915000   0.62879599   -7.2321878    875.03462  0.018625684  0.017547562          248 
 3916000   0.63229124   -7.2468128    875.70398  0.018635172  0.017541564          216 
 3917000   0.63716645    -7.225397    873.42238  0.018581873  0.017535575          336 
 3918000   0.61760598   -7.2130866    875.73068  0.018626227  0.017529581          452 
 3919000   0.62209769   -7.2380231    873.60415  0.018576256  0.017523594          446 
 3920000    0.6180244   -7.2338469    875.17742  0.018604962  0.017517595          386 
 3921000   0.61807675   -7.2449463     875.8189  0.018613851  0.017511603          441 
 3922000   0.62169646    -7.234226    873.40592  0.018557835  0.017505614          373 
 3923000   0.61835301   -7.2422166    876.69384  0.018622947  0.017499623          286 
 3924000   0.60899502   -7.2344319    874.11925  0.018563525   0.01749363          323 
 3925000   0.62247895   -7.2524258    875.40669  0.018586129  0.017487622          353 
 3926000   0.62953344   -7.2556974    875.92654   0.01859243  0.017481633          377 
 3927000    0.6208051   -7.2542729    872.61582  0.018517439  0.017475638          314 
 3928000   0.63105268   -7.2573673    874.11503  0.018544531  0.017469645          327 
 3929000   0.62553703   -7.2614926    874.61963  0.018550514  0.017463638          237 
 3930000   0.61818753   -7.2586777    873.64394  0.018525105  0.017457644          308 
 3931000   0.62265608   -7.2492974    873.97956  0.018527507  0.017451644          358 
 3932000   0.63478865   -7.2433923    875.10749    0.0185467  0.017445655          385 
 3933000   0.61574209   -7.2627887    874.03883  0.018519341   0.01743966          262 
 3934000   0.62138482   -7.2631538    873.34566   0.01849995  0.017433671          386 
 3935000   0.61782917   -7.2612901    875.31309  0.018536914  0.017427675          312 
 3936000   0.61852647   -7.2668682    872.06514  0.018463439   0.01742168          446 
 3937000   0.62231144   -7.2719505    872.30604  0.018463848  0.017415696          426 
 3938000    0.6132136   -7.2804913    871.87288  0.018449993  0.017409713          477 
 3939000   0.63422619   -7.2619802    874.14162  0.018493307  0.017403724          265 
 3940000   0.62743699   -7.2732708    872.53165  0.018454561  0.017397731          403 
 3941000   0.61633337   -7.2546643    875.45524  0.018511698  0.017391758          308 
 3942000   0.63077167   -7.2481188      872.597   0.01844658  0.017385766          517 
 3943000   0.61163569   -7.2848379    872.96561  0.018449692  0.017379791          432 
 3944000    0.6199643   -7.2671363    871.48128  0.018413651  0.017373809          283 
 3945000   0.61527346   -7.2717525    874.34376   0.01846945  0.017367827          423 
 3946000   0.62110351   -7.2837391    874.28884   0.01846361  0.017361868          518 
 3947000   0.61507665   -7.2493153    875.28995  0.018480068  0.017355894          451 
 3948000   0.62630312   -7.2763468    872.85873   0.01842407  0.017349924          408 
 3949000   0.61774094   -7.2488543    874.41042  0.018452149  0.017343965          309 
 3950000    0.6118276   -7.2512791    874.00681  0.018438962  0.017338023          299 
 3951000   0.63563905   -7.2751707    873.33079  0.018420037  0.017332073          597 
 3952000   0.61232884   -7.2725433    873.91529  0.018427701  0.017326121          364 
 3953000   0.62671983   -7.2799927    872.08607  0.018384477  0.017320183          356 
 3954000   0.61335852   -7.2622948    875.57639  0.018453389  0.017314236          193 
 3955000   0.62552626   -7.2843356    873.20462  0.018398749  0.017308287          436 
 3956000   0.63148395   -7.2706217    872.23907  0.018373759  0.017302341          374 
 3957000   0.61999756   -7.2526227    874.26337  0.018411746  0.017296398          436 
 3958000   0.61857951   -7.2651178    873.42169  0.018389374  0.017290458          323 
 3959000   0.61965255   -7.2812298    872.33778  0.018361913  0.017284528          478 
 3960000   0.63271637   -7.2553376    873.48445  0.018381407  0.017278594          363 
 3961000   0.60376185   -7.2800183    872.97561  0.018366061  0.017272659          403 
 3962000   0.61442162   -7.2890606    873.50416  0.018372543  0.017266719          525 
 3963000   0.63651362   -7.2633121    875.61689  0.018412333  0.017260801          385 
 3964000   0.62800733   -7.2583056    872.73323  0.018347066  0.017254882          451 
 3965000   0.60354054   -7.2724415    873.65889  0.018361893  0.017248963          473 
 3966000   0.61558051    -7.262282    873.54009  0.018354767  0.017243038          447 
 3967000   0.61330924   -7.2677648    871.82402  0.018314092  0.017237117          436 
 3968000   0.62691419   -7.2691572    874.74727  0.018370868  0.017231197          659 
 3969000   0.61315919   -7.2639459    873.66289  0.018343472  0.017225287          600 
 3970000   0.61305861   -7.2576155    873.26176  0.018330432   0.01721937          643 
 3971000   0.62791323    -7.264816    874.76895  0.018357444  0.017213481          498 
 3972000   0.61648788   -7.2679886    874.17845  0.018340434  0.017207598          591 
 3973000   0.60891278   -7.2767332    872.16446  0.018293574  0.017201698          463 
 3974000   0.60665761   -7.2627963    874.15631   0.01833074  0.017195814          568 
 3975000   0.62713658   -7.2794625    874.55097  0.018334402  0.017189927          655 
 3976000   0.61760103   -7.2747608    874.48408  0.018328389  0.017184043          496 
 3977000   0.62023822   -7.2626795    873.42403  0.018301568  0.017178154          581 
 3978000   0.60168344   -7.2921475    871.47637  0.018256167  0.017172251          456 
 3979000   0.60967001   -7.2680584    873.54997  0.018295006  0.017166335          379 
 3980000   0.62677319   -7.2709842    872.85509   0.01827586  0.017160431          603 
 3981000   0.61826205   -7.2810046    872.54965  0.018264876  0.017154539          546 
 3982000   0.62157375   -7.2734379    872.59483  0.018261234   0.01714865          592 
 3983000   0.62519455   -7.2678734    874.54327  0.018297415  0.017142768          600 
 3984000   0.62463803   -7.2660507    875.05609  0.018303549  0.017136884          673 
 3985000   0.61790014   -7.2578921    872.99471  0.018255849  0.017131019          606 
 3986000   0.59977892    -7.285379    872.44183   0.01823971  0.017125135          581 
 3987000   0.61467859   -7.2985624    873.13969  0.018249722  0.017119244          626 
 3988000    0.6133817   -7.2742394    873.09506  0.018244213  0.017113342          466 
 3989000   0.61142643   -7.2863057    872.05973  0.018218011  0.017107458          578 
 3990000   0.61489373   -7.2686088    873.63984  0.018246446  0.017101579          517 
 3991000   0.60050179   -7.2738877    872.36314  0.018215216  0.017095701          625 
 3992000   0.60725225   -7.2830845    872.31283  0.018209603  0.017089822          697 
 3993000   0.61127059   -7.2738887    873.74626  0.018234958  0.017083949          606 
 3994000   0.61515884   -7.2840133    871.54972  0.018184563   0.01707807          471 
 3995000   0.60739609   -7.2864331    871.91641   0.01818766  0.017072195          535 
 3996000   0.61837983    -7.287706    870.18634  0.018147029  0.017066326          638 
 3997000   0.62835926    -7.283514    872.51265   0.01819099  0.017060469          526 
 3998000   0.61701396   -7.2840395    873.63048   0.01820974  0.017054611          567 
 3999000   0.61594155   -7.2834311    873.31035  0.018198515  0.017048746          586 
 4000000   0.62225183    -7.286939    872.08169  0.018168369  0.017042904          640 
 4001000   0.61464787   -7.2881943    872.44675  0.018171431  0.017037048          622 
 4002000   0.61798798   -7.2846787    872.01645   0.01815793  0.017031179          582 
 4003000   0.61048715    -7.297696    872.22743  0.018157786  0.017025328          581 
 4004000   0.60551161   -7.2931864    873.44886  0.018178673  0.017019468          531 
 4005000    0.6208121   -7.3167046    872.57078  0.018155863  0.017013608          629 
 4006000   0.60751595   -7.2886443    873.34872  0.018167514   0.01700775          559 
 4007000   0.61166626   -7.3039401    871.63979  0.018127439  0.017001896          533 
 4008000   0.59972237   -7.3037105     871.8863  0.018128042   0.01699605          584 
 4009000   0.61651133   -7.2941478    872.35781  0.018133321  0.016990213          481 
 4010000   0.60916081   -7.2796092    872.42939  0.018130287  0.016984378          525 
 4011000   0.61453028   -7.2923299    872.54113  0.018128088  0.016978535          620 
 4012000   0.60931871   -7.2807409    872.84173  0.018129813  0.016972699          654 
 4013000   0.60585705   -7.2984707    872.14976  0.018110926  0.016966864          588 
 4014000   0.60766066   -7.2879181    871.65829  0.018096211  0.016961027          623 
 4015000    0.5982296   -7.2739453    873.39245  0.018127697  0.016955194          597 
 4016000   0.61681453   -7.2837887    873.89681  0.018133649  0.016949358          661 
 4017000   0.60760472   -7.2631317    873.29269  0.018116602   0.01694353          539 
 4018000   0.61705893   -7.2959725    873.33871  0.018113048  0.016937713          576 
 4019000   0.60933798    -7.292353    873.70545  0.018116145    0.0169319          599 
 4020000   0.60711616   -7.2901859    871.98379  0.018075949  0.016926081          655 
 4021000   0.61392523   -7.3134547     870.5612  0.018041971  0.016920261          577 
 4022000   0.61375043   -7.3005842    873.49423  0.018098256  0.016914444          652 
 4023000   0.61453452   -7.2865004    873.45438  0.018092932  0.016908632          665 
 4024000   0.60226974   -7.2836334    873.10497    0.0180812  0.016902818          612 
 4025000    0.5998837   -7.3034425    872.42077  0.018062542  0.016897011          727 
 4026000   0.60347198   -7.2876566    871.18643  0.018032506    0.0168912          731 
 4027000   0.61675161   -7.2743621    872.14945  0.018047957  0.016885406          661 
 4028000   0.60766388   -7.2978559    872.69014  0.018054662  0.016879612          688 
 4029000   0.60918484   -7.3020205    872.28363  0.018041773  0.016873805          605 
 4030000   0.60523038   -7.2943156    871.16867  0.018014241  0.016867981          691 
 4031000   0.61220285    -7.296817    871.70325  0.018020823  0.016862175          610 
 4032000   0.60683011   -7.3036947    870.88894  0.017999523  0.016856372          491 
 4033000   0.62731131   -7.3040715    873.18422  0.018042487   0.01685058          600 
 4034000   0.59847525   -7.2990289    873.85246  0.018051819  0.016844788          735 
 4035000   0.60214906   -7.2973725    871.01884  0.017988824  0.016839003          636 
 4036000   0.60932225   -7.2947472    871.03993  0.017984802  0.016833215          620 
 4037000   0.59619615   -7.3021757    872.30162  0.018006391  0.016827416          702 
 4038000   0.61361658   -7.2937739     873.1784  0.018020026  0.016821625          754 
 4039000     0.605087   -7.3003551    870.82751  0.017967061  0.016815842          632 
 4040000   0.60022432   -7.3038119    871.14212  0.017969103  0.016810056          583 
 4041000   0.60139606   -7.3006983    873.79212  0.018019305  0.016804277          669 
 4042000   0.59870202   -7.3118388    870.89667  0.017955152  0.016798494          698 
 4043000   0.60889029   -7.2974944    872.22066     0.017978  0.016792716          658 
 4044000   0.60712765   -7.3014837     872.5729  0.017980813  0.016786935          620 
 4045000    0.5975628   -7.3057008    872.87863  0.017982667   0.01678117          427 
 4046000   0.59821095   -7.3170782    870.66736  0.017932678  0.016775397          774 
 4047000   0.61981329   -7.2992612    870.82483  0.017931489  0.016769629          634 
 4048000   0.61142672   -7.3040744      872.656  0.017964756  0.016763866          727 
 4049000   0.59854915   -7.3065447    871.67547  0.017940139  0.016758101          645 
 4050000   0.59933217   -7.3046144    873.49475  0.017973143  0.016752345          549 
 4051000   0.60311019   -7.3070693    871.54162  0.017928528  0.016746587          702 
 4052000   0.59820127   -7.2986623     871.9125  0.017931731  0.016740839          741 
 4053000   0.59894501   -7.2971762    874.06232  0.017971509  0.016735089          650 
 4054000   0.59109628   -7.2881351    873.40748  0.017953615  0.016729333          736 
 4055000   0.60188189   -7.3025347    870.77674  0.017895124  0.016723582          673 
 4056000   0.60575269   -7.2733273    875.05685   0.01797865  0.016717843          684 
 4057000   0.60840837   -7.2941276     873.2509  0.017937123  0.016712106          782 
 4058000   0.60367011   -7.3017568    871.44104  0.017895536  0.016706366          755 
 4059000   0.59402195   -7.2942412    872.11545  0.017904974  0.016700619          788 
 4060000   0.60288336   -7.2998257      871.468  0.017887274   0.01669488          603 
 4061000   0.60373261   -7.3073487    870.09856  0.017854768  0.016689133          724 
 4062000   0.59924165   -7.3053172    871.31154  0.017875257  0.016683382          713 
 4063000   0.59926849   -7.3122305     872.7074  0.017899487  0.016677644          790 
 4064000   0.60796973   -7.3020229    871.40524  0.017868382  0.016671905          664 
 4065000   0.60840172   -7.3335477    871.05977  0.017856904  0.016666157          768 
 4066000   0.59564493   -7.3167632    870.75885  0.017846345  0.016660412          672 
 4067000   0.60241294   -7.3224846    870.20774  0.017830664  0.016654672          694 
 4068000   0.59943296   -7.3041754    873.34592  0.017890567   0.01664894          725 
 4069000   0.59777746   -7.2959959    871.86906  0.017855924  0.016643208          510 
 4070000   0.60791732   -7.3141873     871.1838  0.017837506  0.016637482          751 
 4071000   0.59908062   -7.3131776    871.70172  0.017843726  0.016631751          584 
 4072000   0.60627979   -7.3360814    869.41341  0.017792514  0.016626013          743 
 4073000   0.60907653   -7.3104967    871.41256  0.017829048  0.016620275          737 
 4074000   0.59698229   -7.3063043    870.17502  0.017799358  0.016614555          666 
 4075000   0.58998506   -7.3135899    872.55331  0.017843626   0.01660884          790 
 4076000   0.59859656    -7.294976    871.10538  0.017809645  0.016603127          845 
 4077000    0.5945284    -7.300585    873.43993  0.017852995  0.016597409          787 
 4078000   0.60556079   -7.3023354    871.59077   0.01781083  0.016591702          869 
 4079000   0.60610247   -7.3010415    873.06722  0.017836627  0.016586001          707 
 4080000   0.60282818   -7.3109382    869.84561  0.017766454   0.01658029          797 
 4081000   0.59887009   -7.3289682    871.44875  0.017794837  0.016574564          859 
 4082000   0.60472184   -7.3041957    871.46801  0.017790871  0.016568845          761 
 4083000   0.58715284   -7.3364066    872.06447  0.017798687  0.016563137          761 
 4084000   0.60736587   -7.3154677    871.21717   0.01777704  0.016557424          816 
 4085000   0.60765348    -7.317247    870.44989  0.017757036  0.016551704          732 
 4086000   0.60014281   -7.3243782    871.01664  0.017764249  0.016545993          829 
 4087000   0.58855701   -7.3176729    872.34555  0.017786998  0.016540288          882 
 4088000   0.58579224   -7.3365357    870.07962  0.017736457  0.016534576          707 
 4089000   0.58459481   -7.3179015    870.48414  0.017740363  0.016528859          828 
 4090000    0.6084591   -7.3139798    870.10304  0.017728261  0.016523159          748 
 4091000   0.59441918   -7.3256455     872.4219  0.017771162  0.016517463          865 
 4092000   0.59536854   -7.3317824    871.01865  0.017738242  0.016511763          825 
 4093000   0.59250888   -7.3177281    870.76021  0.017728647  0.016506066          820 
 4094000   0.60271654   -7.3422521    870.45598  0.017718124  0.016500373          875 
 4095000   0.60422092   -7.3396938    867.95873  0.017662978  0.016494678          717 
 4096000   0.59926316   -7.3160622    870.61928  0.017712795   0.01648898          732 
 4097000   0.59228763   -7.3221678    870.45582  0.017705147   0.01648328          914 
 4098000   0.60763889   -7.3366995    869.53459  0.017682093  0.016477575          779 
 4099000   0.60336468   -7.3281971    869.89119  0.017685029  0.016471888          833 
 4100000   0.60166861   -7.3309042    870.08957  0.017684747  0.016466186          826 
 4101000   0.60169482   -7.3380026    871.08031  0.017700567  0.016460484          888 
 4102000   0.60603754   -7.3495148    870.14283  0.017677207  0.016454776          940 
 4103000   0.59109105   -7.3322602    871.49761  0.017700414  0.016449076          847 
 4104000   0.60712859   -7.3345081    870.96769  0.017685341  0.016443378          939 
 4105000   0.60751953   -7.3229262    869.73552  0.017656019  0.016437687          817 
 4106000   0.59652816   -7.3448495    868.54771  0.017627612  0.016431995          926 
 4107000   0.58482365   -7.3553598    870.73316  0.017667664  0.016426307          933 
 4108000   0.59762342    -7.333854    870.25351  0.017653633  0.016420623          975 
 4109000   0.60048594    -7.359155    868.73117  0.017618463   0.01641494          929 
 4110000   0.58628682   -7.3623536    869.64252  0.017632654  0.016409259          898 
 4111000   0.60212611   -7.3482584    869.76441  0.017630836  0.016403581          914 
 4112000   0.58165828   -7.3164382    870.97985   0.01765118  0.016397898          902 
 4113000    0.6027322   -7.3701225    870.48827  0.017636929   0.01639221          823 
 4114000   0.58623094   -7.3425097    872.26946  0.017668722  0.016386533          937 
 4115000   0.59381074   -7.3453321    870.08588  0.017620208  0.016380859          904 
 4116000   0.58667642   -7.3539832    868.38511  0.017581493  0.016375179          956 
 4117000   0.60046827   -7.3370934    869.77281  0.017605312  0.016369499          933 
 4118000   0.60241819   -7.3374537    871.67857  0.017639602  0.016363831          940 
 4119000    0.5796532   -7.3208571    871.06917   0.01762299  0.016358163          925 
 4120000   0.59051581   -7.3295312    870.20099  0.017601153  0.016352503          944 
 4121000   0.59191421   -7.3383049    872.03603  0.017633989  0.016346845          970 
 4122000   0.59207827   -7.3293483    870.39754  0.017596586   0.01634118          939 
 4123000   0.58585258   -7.3626014    870.65559  0.017597534  0.016335514         1054 
 4124000   0.60367288   -7.3449173    870.89947  0.017598195  0.016329849         1006 
 4125000   0.60345234   -7.3575551     868.4997  0.017545449  0.016324179         1032 
 4126000    0.6018749   -7.3550931    869.12702  0.017553866  0.016318515         1014 
 4127000   0.59141534   -7.3459026    868.17855  0.017530461  0.016312855          995 
 4128000   0.60341001    -7.341294    869.09922    0.0175448  0.016307196         1010 
 4129000   0.58797072   -7.3377862    869.68532   0.01755238  0.016301542          969 
 4130000    0.5955785   -7.3826206     868.9837  0.017533973  0.016295887         1103 
 4131000   0.60360968   -7.3444301    870.45589  0.017559426  0.016290233          932 
 4132000   0.59999686   -7.3478497    870.15571  0.017549123  0.016284578         1000 
 4133000   0.59979834   -7.3642147    869.84168  0.017538545  0.016278932          995 
 4134000   0.59779428   -7.3349451    870.95694  0.017556784  0.016273288         1026 
 4135000   0.58830726   -7.3716479    868.31916  0.017499378  0.016267647          991 
 4136000   0.58865293   -7.3541671    870.97791  0.017548717  0.016262007          991 
 4137000   0.59629688   -7.3642635    870.28994  0.017530617   0.01625637          987 
 4138000    0.5891271   -7.3642427    868.39347  0.017488188  0.016250736          959 
 4139000   0.57288005   -7.3490534    869.15624   0.01749932  0.016245106         1002 
 4140000   0.58102851   -7.3643946    870.41037  0.017520338  0.016239471         1000 
 4141000     0.590304   -7.3730538    869.00577   0.01748784  0.016233837          955 
 4142000   0.58574917   -7.3761983    868.49824  0.017473407  0.016228196         1005 
 4143000   0.58485078   -7.3677398    868.91423  0.017477557  0.016222562          998 
 4144000   0.58402477   -7.3494001    868.22783  0.017459537  0.016216938         1075 
 4145000   0.59596686   -7.3461181    869.39003   0.01747869  0.016211314          968 
 4146000   0.58386001   -7.3544737    869.08576  0.017468358  0.016205692         1070 
 4147000   0.58713847   -7.3528952     868.5771  0.017453925  0.016200064          970 
 4148000   0.59032309   -7.3613368    868.46702  0.017447505  0.016194442          979 
 4149000   0.59107557   -7.3670686    868.84483  0.017450888  0.016188834          904 
 4150000   0.58613208   -7.3626452     869.1826  0.017453466  0.016183232          982 
 4151000    0.5912277    -7.359154     869.1376  0.017448358  0.016177621         1013 
 4152000   0.58911987   -7.3401159     868.1422  0.017424177  0.016172011          929 
 4153000   0.59212489   -7.3612333    869.66371  0.017450512  0.016166405          965 
 4154000   0.58199462   -7.3623885    868.35615   0.01742008    0.0161608         1004 
 4155000   0.59277207    -7.358749    869.85365  0.017445922  0.016155196          974 
 4156000    0.5999533   -7.3509718    868.80988  0.017420795  0.016149597          945 
 4157000   0.59152013   -7.3463058     869.1542  0.017423507  0.016143993          970 
 4158000   0.58965031   -7.3720873    869.61167  0.017428485  0.016138399         1034 
 4159000   0.58399982   -7.3673031    868.57629  0.017403548  0.016132805          892 
 4160000   0.59096792   -7.3606023    869.25384  0.017412937  0.016127205          941 
 4161000   0.58758401   -7.3453925    869.74072  0.017418504  0.016121613         1040 
 4162000   0.58885709   -7.3684021    869.17762  0.017403044  0.016116021         1007 
 4163000    0.5790288   -7.3797242    867.86347  0.017372557   0.01611044         1107 
 4164000   0.58562199   -7.3837672    868.46738  0.017380471  0.016104852          962 
 4165000   0.59101391   -7.3669738    868.34596  0.017373869  0.016099264         1004 
 4166000   0.58742127   -7.3724858     868.2447  0.017367673  0.016093682         1025 
 4167000   0.58526165   -7.3692547    870.38279  0.017406263  0.016088103         1033 
 4168000   0.57802171   -7.3662177    867.05008  0.017335454  0.016082515         1106 
 4169000   0.57890882   -7.3715903    869.30057  0.017376281  0.016076938         1025 
 4170000   0.58347976   -7.3631779    868.87472  0.017363603  0.016071372         1036 
 4171000   0.61519969   -7.3506207     869.9702  0.017381327  0.016065806         1084 
 4172000   0.57197937   -7.3626336    868.08341  0.017339474  0.016060244         1031 
 4173000   0.59182259   -7.3847776    868.46637  0.017342966  0.016054675         1027 
 4174000   0.58355419   -7.3668814    868.10803  0.017331657   0.01604911          942 
 4175000   0.57906617   -7.3568576    867.97353  0.017324821  0.016043542          943 
 4176000   0.57849363   -7.3623752    868.52311  0.017331639   0.01603797          958 
 4177000    0.5905732   -7.3615172    868.30017  0.017323042  0.016032399         1051 
 4178000   0.57986833   -7.3695128    869.18103  0.017336465   0.01602684         1101 
 4179000   0.59516378    -7.371535    867.37674  0.017296338  0.016021286         1074 
 4180000   0.58115662   -7.3666651    867.90417  0.017302715   0.01601573         1075 
 4181000   0.58275075   -7.3735131    866.86099  0.017277784  0.016010174          979 
 4182000   0.58751072   -7.3544644    869.44369  0.017325117  0.016004625         1031 
 4183000   0.58820016   -7.3783457    866.97455  0.017271786  0.015999073          978 
 4184000   0.57945132   -7.3777383    868.60866  0.017300204  0.015993519         1034 
 4185000   0.56801807   -7.3610674    869.01311  0.017304124   0.01598797         1013 
 4186000   0.57761548   -7.3871989    866.48541   0.01724967  0.015982417          951 
 4187000   0.59397986   -7.3836682    867.57195  0.017267175  0.015976865         1102 
 4188000   0.58720893   -7.3738546    868.75488   0.01728659  0.015971325         1084 
 4189000   0.57417657   -7.3896252    869.08763  0.017289083  0.015965774         1015 
 4190000     0.576841   -7.3540112    867.43943  0.017252176  0.015960231         1137 
 4191000   0.57905382   -7.3792993    869.07263  0.017280534  0.015954683         1039 
 4192000   0.58098523   -7.3951776    866.81668  0.017231566  0.015949128         1136 
 4193000   0.58258745   -7.3712754    868.69281  0.017264743  0.015943584          953 
 4194000   0.56902627   -7.3834186    867.43369  0.017235608  0.015938045         1010 
 4195000   0.58472841   -7.3833288    867.75523  0.017237887  0.015932506         1166 
 4196000   0.58457592   -7.3701353    869.07309  0.017259952  0.015926962         1130 
 4197000   0.57814352   -7.3894433    867.35747  0.017221775  0.015921425          997 
 4198000   0.58257903   -7.3738669    867.98304   0.01723009  0.015915898         1098 
 4199000   0.58465941   -7.3719775    867.21133  0.017210672  0.015910357         1155 
 4200000   0.58245961   -7.3798259    868.60476  0.017234221  0.015904835         1096 
 4201000   0.58741777   -7.3853202    864.82318  0.017155106  0.015899306         1053 
 4202000   0.57699012    -7.368808    867.11544  0.017196483  0.015893782         1110 
 4203000   0.58204449   -7.3854167     867.7031  0.017204043  0.015888257         1088 
 4204000    0.5805662   -7.3752069    868.02928  0.017206416  0.015882735          988 
 4205000   0.57814314   -7.3868435    868.81764  0.017217948   0.01587722         1070 
 4206000   0.57377198   -7.4029064     866.0239  0.017158502  0.015871702         1138 
 4207000   0.58038181   -7.3728253    870.34118  0.017239941  0.015866194         1058 
 4208000   0.58519083   -7.3995422    868.95161  0.017208326  0.015860686         1115 
 4209000   0.57921508   -7.3883861    868.12143  0.017187801  0.015855171         1199 
 4210000   0.58456849   -7.3980483    868.02314  0.017181772  0.015849658         1124 
 4211000   0.57989616   -7.3716234    865.82739  0.017134239  0.015844155         1064 
 4212000   0.57957351    -7.382944    867.72971  0.017167808  0.015838645         1069 
 4213000   0.57206809    -7.363333     867.9607  0.017168302  0.015833144          975 
 4214000     0.582692   -7.3770061    869.78849  0.017200374   0.01582765         1111 
 4215000   0.56006897   -7.3888405    866.15133  0.017124384  0.015822161         1127 
 4216000   0.57015681   -7.3843442    867.43188  0.017145633  0.015816677         1040 
 4217000   0.58032685   -7.3707086    868.00488  0.017152891  0.015811194         1053 
 4218000     0.572513   -7.3951246    868.89368  0.017166384  0.015805713         1133 
 4219000    0.5705801   -7.3620923    867.03285   0.01712556  0.015800226         1007 
 4220000   0.57707843   -7.3924308    867.89814  0.017138589  0.015794739         1107 
 4221000   0.58006441   -7.3820344    866.62902  0.017109473  0.015789265         1013 
 4222000   0.57263378   -7.4031155    868.54225  0.017143184  0.015783792         1113 
 4223000   0.58390961   -7.3749747    867.45192  0.017117608  0.015778322         1122 
 4224000   0.58272784    -7.393994    868.20138  0.017128342  0.015772847         1118 
 4225000   0.58472042    -7.405721    866.37175    0.0170882  0.015767378         1128 
 4226000   0.58516331   -7.3888556    867.64932  0.017109349  0.015761907         1070 
 4227000   0.57333801   -7.3972851    866.36292  0.017079941  0.015756438         1117 
 4228000   0.56276735   -7.3735783    868.02569  0.017108674  0.015750962         1112 
 4229000   0.57408579    -7.380437    866.61593  0.017076849  0.015745491         1147 
 4230000   0.57987348   -7.3748652    867.63878  0.017092962  0.015740025         1120 
 4231000    0.5761222   -7.3803111    867.66235  0.017089387  0.015734567         1091 
 4232000   0.58126262   -7.3885114    868.93894  0.017110486  0.015729113         1225 
 4233000   0.57840274   -7.3909582    868.56621  0.017099106  0.015723658         1162 
 4234000     0.574702   -7.3896318    865.64365  0.017037546  0.015718202         1119 
 4235000   0.58612407   -7.4261841     866.0404   0.01704133  0.015712748         1180 
 4236000   0.58009208    -7.398106    865.09659   0.01701874  0.015707288         1197 
 4237000   0.56833593    -7.400827    866.28862  0.017038168  0.015701838         1134 
 4238000    0.5831312   -7.4015816    868.15935  0.017070933  0.015696377         1184 
 4239000   0.55991411   -7.4021611    866.34167  0.017031172  0.015690922         1212 
 4240000   0.56005794   -7.3958747     867.4087  0.017048127  0.015685469         1185 
 4241000   0.58271657   -7.3979863    866.80268  0.017032199  0.015680019         1283 
 4242000   0.57640152    -7.411428    866.57187   0.01702365  0.015674576         1146 
 4243000   0.57608357   -7.4041757    868.80241  0.017063446  0.015669138         1229 
 4244000   0.57599793   -7.4011745    868.66591  0.017056745    0.0156637         1226 
 4245000   0.57251304   -7.3940479    867.28432  0.017025605  0.015658258         1163 
 4246000   0.56889279   -7.3832888    866.53337  0.017006857  0.015652816         1172 
 4247000   0.57319003    -7.409165    866.39583  0.017000154  0.015647376         1275 
 4248000   0.56915343   -7.4004152    866.24133  0.016993121  0.015641935         1292 
 4249000   0.57059722    -7.374486    868.71412  0.017037619  0.015636504         1198 
 4250000    0.5733049    -7.413371    866.07424  0.016981848  0.015631075         1193 
 4251000   0.57896687   -7.4085185    866.16738  0.016979679  0.015625639         1249 
 4252000   0.57828183   -7.3901431    866.87253  0.016989506  0.015620217         1201 
 4253000   0.55777763   -7.3897669    867.07311  0.016989441  0.015614793         1272 
 4254000   0.56261072   -7.3842204    867.54483  0.016994688  0.015609373         1279 
 4255000   0.56430991   -7.4096414    866.04536  0.016961327  0.015603952         1294 
 4256000   0.56878073   -7.3960555    866.80982   0.01697231  0.015598541         1242 
 4257000   0.56964097   -7.4125483    867.87409  0.016989157  0.015593119         1296 
 4258000   0.56792917   -7.4108848    866.00335  0.016948555  0.015587703         1317 
 4259000   0.57952865   -7.4091924    866.13851   0.01694722  0.015582292         1255 
 4260000   0.56386968   -7.4081814    868.72781  0.016993893  0.015576875         1239 
 4261000   0.56682416   -7.4149355    866.31611  0.016942739  0.015571453         1332 
 4262000   0.57883089   -7.4126434    867.25182  0.016957059  0.015566038         1354 
 4263000   0.57613527   -7.3951055    865.86186   0.01692591  0.015560623         1285 
 4264000   0.57201303    -7.404078    865.82897  0.016921298  0.015555216         1334 
 4265000    0.5705626   -7.4018966    865.84481   0.01691764  0.015549804         1403 
 4266000   0.55467779   -7.4058806    865.62527  0.016909386  0.015544396         1387 
 4267000   0.55860805   -7.4164024    866.83076  0.016928966     0.015539         1371 
 4268000   0.57692348   -7.4001153    867.03193  0.016928927  0.015533599         1179 
 4269000   0.57222021   -7.4176969    867.49636  0.016934027  0.015528196         1330 
 4270000   0.57027109   -7.4150273    866.34501  0.016907592  0.015522788         1404 
 4271000   0.56817911   -7.4113806    864.64668  0.016870496   0.01551739         1368 
 4272000   0.55532984    -7.407196    865.81672  0.016889371  0.015511999         1369 
 4273000   0.56386094   -7.4056439    865.83027  0.016885683  0.015506598         1370 
 4274000   0.56483135   -7.4052649    865.66375  0.016878485  0.015501208         1194 
 4275000    0.5574173   -7.4248915    865.26851  0.016866833  0.015495814         1278 
 4276000   0.57217374   -7.4249239     865.6172  0.016869683  0.015490425         1362 
 4277000   0.57482695   -7.4213985    866.06837   0.01687453  0.015485037         1383 
 4278000   0.57049277   -7.4067033    865.33351  0.016856271  0.015479652         1273 
 4279000   0.57974135   -7.4007223    866.01035  0.016865513  0.015474263         1353 
 4280000   0.57172165   -7.4323917    864.48978  0.016831966  0.015468877         1367 
 4281000   0.56796463    -7.397079    865.36804   0.01684513  0.015463492         1290 
 4282000   0.56596562   -7.4311112    866.83464  0.016869738  0.015458117         1306 
 4283000   0.55899733   -7.4296792    865.10646  0.016832175  0.015452735         1336 
 4284000   0.56081256   -7.4080038    865.96316   0.01684491  0.015447355         1340 
 4285000   0.56548088   -7.4199235     865.2426  0.016826966   0.01544198         1415 
 4286000   0.56676664    -7.436722    864.38478  0.016806361  0.015436603         1371 
 4287000    0.5612344   -7.4156246    864.65332  0.016807661  0.015431232         1287 
 4288000   0.56973473   -7.4122456    865.87593  0.016827502  0.015425864         1349 
 4289000   0.58251262   -7.4259152    865.19626  0.016810373  0.015420503         1279 
 4290000   0.56059799   -7.4251602    865.24818  0.016807463  0.015415138         1351 
 4291000   0.56179969   -7.4146228    867.52682  0.016847798  0.015409775         1308 
 4292000   0.56084227    -7.431664    865.42649  0.016803093  0.015404414         1377 
 4293000   0.57232988   -7.4125421    865.19344  0.016794655  0.015399056         1376 
 4294000   0.58157679    -7.422514    864.60063  0.016779239  0.015393704         1264 
 4295000   0.56544921    -7.423754    865.61953  0.016795101  0.015388357         1386 
 4296000   0.56420141   -7.4233883    866.62522    0.0168107   0.01538301         1356 
 4297000    0.5706798   -7.4213089    864.97566  0.016774798  0.015377664         1386 
 4298000   0.57283462   -7.4099399    864.31441  0.016758074  0.015372312         1242 
 4299000   0.57338891   -7.4175352    865.61904  0.016779465  0.015366961         1406 
 4300000   0.55189992   -7.4158351    866.52235  0.016793069  0.015361618         1396 
 4301000     0.558547   -7.4203103    865.53469  0.016770028  0.015356276         1355 
 4302000   0.56117317    -7.424527     865.6284  0.016767945  0.015350933         1410 
 4303000   0.56150212     -7.43237    865.39381  0.016759505  0.015345598         1347 
 4304000   0.56230419   -7.4152195    865.52882  0.016758225  0.015340258         1403 
 4305000   0.56220395   -7.4398755    863.46695   0.01671442  0.015334922         1296 
 4306000   0.56073445   -7.4467166    865.35577  0.016747093  0.015329586         1430 
 4307000   0.55289327   -7.4403789     864.3339  0.016723433  0.015324249         1423 
 4308000    0.5663689   -7.4354237    865.52518  0.016742595  0.015318921         1373 
 4309000   0.57383288   -7.4244192    863.47249  0.016699012  0.015313598         1373 
 4310000   0.55703673   -7.4480565    864.71823  0.016719223  0.015308271         1355 
 4311000   0.54803913   -7.4338147    865.42282  0.016728965  0.015302941         1354 
 4312000   0.56896776   -7.4295685    865.28641  0.016722449  0.015297614         1353 
 4313000    0.5761439   -7.4314393    867.15129  0.016754604  0.015292296         1367 
 4314000   0.57118351    -7.423343    864.31001  0.016695835  0.015286972         1301 
 4315000   0.56874257   -7.4372557    864.56595  0.016696909  0.015281653         1380 
 4316000   0.56452057   -7.4428398     866.4799  0.016729995  0.015276333         1397 
 4317000   0.55867788   -7.4309932    864.31492  0.016684328   0.01527102         1369 
 4318000    0.5529525   -7.4321206    864.42406   0.01668257  0.015265706         1248 
 4319000   0.55988523   -7.4378076    865.21261  0.016693922  0.015260398         1371 
 4320000   0.54767065   -7.4336433     865.6429  0.016698358  0.015255095         1368 
 4321000   0.55089734    -7.422959    864.59876  0.016674357   0.01524979         1382 
 4322000   0.55351221    -7.431339    864.78772  0.016674142  0.015244495         1300 
 4323000   0.57490866   -7.4228943    865.24076  0.016679018  0.015239203         1362 
 4324000   0.55748396    -7.434373    864.68913   0.01666453  0.015233913         1301 
 4325000   0.55044499   -7.4492911    865.50763  0.016676448  0.015228609         1284 
 4326000   0.55780518   -7.4289145    865.22594  0.016667166   0.01522332         1250 
 4327000   0.56184328   -7.4451421      865.078  0.016660465  0.015218024         1469 
 4328000   0.57393464   -7.4333423    864.95223  0.016654194  0.015212742         1403 
 4329000   0.55978917   -7.4506952    864.87168  0.016648797  0.015207455         1367 
 4330000    0.5550309   -7.4291497    864.74446  0.016642503  0.015202168         1368 
 4331000    0.5559009   -7.4403452    864.48056  0.016633583  0.015196888         1379 
 4332000   0.56134711   -7.4549379    865.29763  0.016645461  0.015191609         1336 
 4333000   0.57246336   -7.4380569    863.26462   0.01660252  0.015186332         1440 
 4334000   0.56517962   -7.4454279    865.46855  0.016641066  0.015181057         1430 
 4335000   0.55715239   -7.4383421    865.52341  0.016638282  0.015175782         1336 
 4336000   0.56364054   -7.4403241    864.34636  0.016611823  0.015170509         1442 
 4337000   0.54304586   -7.4329105    864.40893  0.016609195  0.015165234         1445 
 4338000   0.56012825    -7.444741    865.57976  0.016627858  0.015159962         1375 
 4339000   0.55173009   -7.4312773    864.16414  0.016596838  0.015154687         1294 
 4340000   0.55606138   -7.4217005    865.35589  0.016615896  0.015149423         1277 
 4341000   0.53786332   -7.4209531    864.79972  0.016601392  0.015144165         1326 
 4342000   0.55666626     -7.44757    864.59984  0.016593733  0.015138902         1385 
 4343000   0.54648641   -7.4474431     865.4482   0.01660619  0.015133643         1287 
 4344000   0.56667045   -7.4250756    866.09274  0.016614732  0.015128388         1429 
 4345000   0.55409484   -7.4390248    865.03924  0.016590703  0.015123136         1378 
 4346000   0.54383747   -7.4576424      864.106  0.016568991  0.015117888         1320 
 4347000   0.56750159   -7.4425279    864.89011  0.016580211   0.01511264         1325 
 4348000   0.56853143   -7.4541726    864.89126   0.01657642  0.015107408         1429 
 4349000    0.5593618   -7.4398168    864.58826  0.016566802  0.015102165         1311 
 4350000   0.56019711   -7.4603124    864.92252  0.016569397  0.015096927         1379 
 4351000   0.56752658   -7.4401838    865.15738  0.016570087  0.015091698         1300 
 4352000   0.55470883   -7.4502938    864.65431  0.016556647  0.015086466         1363 
 4353000   0.56169402   -7.4438307    864.69942  0.016553707  0.015081241         1386 
 4354000   0.55519467    -7.438692    864.33107  0.016542855   0.01507601         1338 
 4355000    0.5444053   -7.4406314    864.91085   0.01655015  0.015070782         1389 
 4356000   0.56265979    -7.426648    864.49283  0.016538354  0.015065555         1407 
 4357000   0.55413404   -7.4746335    863.71104  0.016519605  0.015060326         1405 
 4358000   0.54788264   -7.4362032    865.57353  0.016551429  0.015055096         1371 
 4359000   0.56021936   -7.4471644    864.24703  0.016522272  0.015049876         1470 
 4360000     0.540418   -7.4424262    863.86426  0.016511167  0.015044657         1418 
 4361000   0.56019297    -7.435687    865.17386  0.016532406   0.01503944         1373 
 4362000   0.55746184   -7.4538058    863.06745  0.016488374  0.015034217         1409 
 4363000   0.55553298   -7.4407787    865.12476   0.01652389  0.015029005         1400 
 4364000   0.54042498   -7.4567238    863.42867  0.016487715  0.015023786         1444 
 4365000   0.54168354   -7.4485702    863.31491  0.016481766  0.015018568         1439 
 4366000   0.55310922   -7.4360921    865.74261  0.016524328  0.015013355         1307 
 4367000    0.5478646   -7.4357708    865.02057  0.016506766  0.015008142         1447 
 4368000   0.54347616   -7.4558346    863.63939  0.016476637  0.015002931         1363 
 4369000   0.54349643   -7.4398996    862.95338  0.016459781  0.014997718         1436 
 4370000   0.54524392   -7.4537112    863.90512  0.016474163  0.014992516         1357 
 4371000   0.55666306   -7.4327454     865.4201  0.016499277  0.014987316         1343 
 4372000   0.55397211   -7.4516086     864.4474  0.016476963  0.014982121         1402 
 4373000   0.54794956    -7.433892    864.09387  0.016466458  0.014976912         1429 
 4374000   0.55206963    -7.460944    863.49085  0.016451205  0.014971709         1497 
 4375000   0.55785884   -7.4413265    864.92623  0.016474785  0.014966506         1391 
 4376000   0.55248724   -7.4569166    862.48651   0.01642456  0.014961309         1413 
 4377000   0.53786748   -7.4442599    864.67367  0.016462449  0.014956116         1384 
 4378000   0.54831509    -7.452082    865.17276  0.016468189   0.01495092         1440 
 4379000   0.56661734   -7.4274769    863.04521   0.01642394  0.014945727         1464 
 4380000   0.55369298   -7.4407611    863.94196  0.016437252  0.014940543         1391 
 4381000   0.55876172   -7.4411588    863.45422  0.016424222  0.014935361         1381 
 4382000   0.56253153   -7.4345826    865.50976  0.016459565  0.014930177         1342 
 4383000   0.53586052   -7.4496058    864.00237   0.01642715  0.014924992         1382 
 4384000    0.5461909   -7.4579752    863.27422  0.016409562  0.014919808         1439 
 4385000   0.55166073   -7.4669407    863.93334  0.016418346  0.014914633         1493 
 4386000    0.5571465   -7.4393845    864.79436  0.016430961  0.014909458         1404 
 4387000   0.53982566   -7.4647195    863.39449  0.016400625  0.014904287         1478 
 4388000    0.5409153   -7.4473591     863.3929  0.016396857  0.014899121         1507 
 4389000   0.55355841   -7.4626617    864.62489  0.016416513  0.014893948         1406 
 4390000   0.53197239   -7.4368488    863.59824  0.016393285  0.014888785         1478 
 4391000   0.55509958   -7.4591531    864.81155  0.016412578  0.014883625         1584 
 4392000   0.55448793   -7.4458993    864.22069   0.01639763  0.014878468         1461 
 4393000   0.55123468   -7.4636133    862.57187   0.01636262  0.014873311         1467 
 4394000   0.55838295   -7.4591475    862.43498    0.0163563  0.014868155         1475 
 4395000   0.53645242   -7.4450995    864.55173  0.016392714  0.014863001         1582 
 4396000   0.54574766   -7.4582046    864.30571  0.016384321  0.014857852         1510 
 4397000   0.54979791   -7.4665706    862.39694  0.016344419  0.014852703         1475 
 4398000   0.55347506    -7.447033    862.73392  0.016347088  0.014847555         1492 
 4399000   0.53928346   -7.4530113    865.65262  0.016398663    0.0148424         1498 
 4400000   0.54571957   -7.4641324    864.48504  0.016372823  0.014837248         1567 
 4401000   0.54598896   -7.4786334    862.54235  0.016332317  0.014832094         1595 
 4402000   0.54878011   -7.4574661    862.88001  0.016334999  0.014826949         1496 
 4403000   0.54563834   -7.4750384    864.01847  0.016352837  0.014821808         1577 
 4404000   0.54749613   -7.4749745    863.06485  0.016331079   0.01481667         1475 
 4405000    0.5549919   -7.4737831    862.88115  0.016323896  0.014811533         1559 
 4406000   0.55407712   -7.4676131    862.86311   0.01631985  0.014806388         1619 
 4407000   0.54228318   -7.4607197    862.88364  0.016316535  0.014801252         1486 
 4408000    0.5471563    -7.467459    863.79472  0.016330057  0.014796121         1441 
 4409000   0.54845184   -7.4655347    863.68744  0.016324326  0.014790989         1562 
 4410000   0.54335637   -7.4564082    864.08919  0.016328216  0.014785861         1604 
 4411000   0.54574646   -7.4499453    863.47698  0.016312948  0.014780741         1571 
 4412000   0.54819858   -7.4711733     863.0138  0.016300502  0.014775615         1561 
 4413000   0.54744336   -7.4604591    863.81465  0.016311932  0.014770503         1598 
 4414000   0.53997532   -7.4497078    863.89543  0.016309761  0.014765394         1548 
 4415000   0.54654844   -7.4640035    863.58087   0.01630013   0.01476028         1618 
 4416000   0.53190343   -7.4737292     863.1167  0.016287679  0.014755168         1614 
 4417000   0.54486636   -7.4598407    863.45745  0.016290421  0.014750063         1458 
 4418000   0.56586425   -7.4549665    863.62518  0.016289897  0.014744966         1454 
 4419000   0.54656454   -7.4581068    862.80228  0.016270692  0.014739862         1528 
 4420000   0.54319055   -7.4673452    863.61886  0.016282407  0.014734755         1611 
 4421000   0.54790718   -7.4484626    863.38202   0.01627426   0.01472965         1502 
 4422000   0.54859171   -7.4718941    862.27337  0.016249687   0.01472455         1471 
 4423000   0.54372372   -7.4474742    863.80636  0.016274896  0.014719445         1542 
 4424000    0.5428079   -7.4717188    863.60547  0.016267433  0.014714343         1609 
 4425000   0.55193936   -7.4727415    862.72638  0.016247201  0.014709242         1533 
 4426000   0.55116098   -7.4702145    864.19787  0.016271236  0.014704151         1575 
 4427000   0.54522739   -7.4686388    862.72083  0.016239757  0.014699054         1586 
 4428000   0.53612898   -7.4668021    863.11732  0.016243551  0.014693958         1669 
 4429000   0.55392823   -7.4720312    860.83304  0.016196904  0.014688867         1602 
 4430000   0.56179215    -7.470706    862.90038  0.016232137  0.014683778         1638 
 4431000   0.54049887   -7.4578234    862.22289  0.016215732  0.014678686         1571 
 4432000   0.54873709   -7.4596956    863.85076  0.016242681    0.0146736         1562 
 4433000   0.53300344   -7.4651352    863.55927  0.016233538  0.014668518         1492 
 4434000   0.54309058   -7.4488519    862.92316  0.016217921  0.014663438         1578 
 4435000   0.52904172   -7.4541066    863.08544  0.016217314  0.014658358         1560 
 4436000   0.53919075   -7.4791417    863.81046  0.016227278  0.014653278         1613 
 4437000    0.5383889   -7.4561782    862.83603  0.016205319  0.014648205         1602 
 4438000   0.53920416   -7.4570211    862.31447  0.016191874  0.014643126         1615 
 4439000   0.54310485   -7.4634966    861.87615  0.016179998  0.014638054         1609 
 4440000    0.5474451   -7.4756921    862.63988  0.016190688  0.014632986         1600 
 4441000   0.53941539   -7.4868726    862.17442  0.016178309  0.014627917         1507 
 4442000   0.53336132   -7.4545002    862.47533  0.016180312  0.014622846         1480 
 4443000   0.53230085   -7.4605471    863.73309   0.01620026  0.014617784         1590 
 4444000   0.55293353   -7.4622093    863.37286   0.01618986  0.014612728         1596 
 4445000   0.53653559   -7.4829062    861.70947  0.016155033   0.01460767         1489 
 4446000   0.53032283   -7.4774341    863.17276  0.016178827   0.01460261         1634 
 4447000   0.54043541   -7.4586159     862.1844  0.016156667  0.014597551         1546 
 4448000   0.54123014   -7.4768228    865.10471  0.016207747    0.0145925         1675 
 4449000   0.54467843   -7.4706906    863.41851   0.01617252   0.01458745         1689 
 4450000    0.5527688   -7.4883101    862.27604  0.016147491  0.014582399         1561 
 4451000   0.54380609   -7.4814522    863.35072  0.016163984  0.014577351         1578 
 4452000   0.53322759    -7.480532    864.64252  0.016184534  0.014572307         1659 
 4453000   0.54585849   -7.4673698    863.45285  0.016158635  0.014567262         1535 
 4454000   0.53856306   -7.4886042    863.55629  0.016156943  0.014562226         1581 
 4455000   0.54777442   -7.4739879    863.20212  0.016146691  0.014557194         1493 
 4456000    0.5403032   -7.4853905    862.44712  0.016128948  0.014552154         1545 
 4457000   0.53418202   -7.4654319    861.95926  0.016116208  0.014547112         1546 
 4458000   0.54694668   -7.4726708    862.95479  0.016131202  0.014542078         1474 
 4459000   0.54382036    -7.465311    862.29329  0.016115222  0.014537047         1574 
 4460000   0.53675068   -7.4907195    864.13045  0.016145935   0.01453202         1621 
 4461000   0.54223537   -7.4864594    862.48111  0.016111505  0.014527004         1613 
 4462000   0.53539656   -7.4765774     863.5233  0.016127359  0.014521988         1584 
 4463000   0.55828161   -7.4770743    862.59089  0.016106335  0.014516977         1569 
 4464000   0.53190218   -7.4808081    862.84317  0.016107437   0.01451196         1628 
 4465000   0.53464281   -7.4538284    862.79493  0.016102929  0.014506945         1571 
 4466000   0.53678422   -7.4770714    863.01197  0.016103373  0.014501928         1608 
 4467000   0.53384211   -7.4562656    863.73156  0.016113192   0.01449691         1564 
 4468000   0.53027029   -7.4877091    862.11991  0.016079527  0.014491898         1556 
 4469000   0.54122322   -7.4527504    864.96162  0.016128918  0.014486892         1502 
 4470000    0.5416869   -7.4771256    861.83345  0.016066992  0.014481889         1529 
 4471000   0.53023393   -7.4860499     862.0896  0.016068173  0.014476885         1564 
 4472000    0.5360196   -7.4987365    863.74295  0.016095389  0.014471881         1607 
 4473000   0.53478783   -7.4763226    863.25911  0.016082777   0.01446688         1675 
 4474000   0.53244754   -7.4712142    863.70348  0.016087459  0.014461889         1622 
 4475000   0.55125891   -7.4977932    863.50297   0.01608013  0.014456893         1592 
 4476000   0.54747909   -7.4894569    861.35142   0.01603648  0.014451894         1544 
 4477000   0.53395735   -7.4803951    862.44144  0.016053187  0.014446907         1594 
 4478000   0.53043858   -7.4657876    864.08024    0.0160801  0.014441921         1613 
 4479000   0.53081455   -7.4970327    862.26233  0.016042687  0.014436939         1631 
 4480000   0.54750949   -7.4626606    861.33567  0.016021869  0.014431964         1521 
 4481000   0.54715224    -7.477532    862.55844  0.016041033  0.014426992         1624 
 4482000   0.52372439   -7.4542248     863.0563  0.016046711  0.014422024         1583 
 4483000   0.54209036   -7.4882244     861.2144  0.016008893  0.014417061         1638 
 4484000   0.53331223   -7.4797397    863.23695  0.016042911  0.014412089         1639 
 4485000   0.54214923   -7.4806768     861.3242  0.016003794  0.014407115         1597 
 4486000   0.52203016   -7.4763819    864.01613  0.016050233  0.014402149         1533 
 4487000   0.54933781   -7.4857488    860.91419  0.015989046  0.014397182         1610 
 4488000   0.53641966   -7.4870106    861.68415   0.01599978  0.014392217         1579 
 4489000   0.52987068   -7.4745625    863.52664   0.01603042  0.014387255         1600 
 4490000   0.53189201    -7.485076    863.30378  0.016022713  0.014382295         1734 
 4491000   0.54332854   -7.4929382    862.96432  0.016012847  0.014377331         1472 
 4492000   0.52508632   -7.4652121    860.57663  0.015964986  0.014372378         1590 
 4493000   0.53064905   -7.4930018    862.03246  0.015988435  0.014367423         1585 
 4494000   0.52666577    -7.472597     861.5598  0.015976113  0.014362473         1562 
 4495000   0.52969089   -7.4772942    861.55845  0.015972533  0.014357526         1589 
 4496000   0.53496953   -7.4600316    862.58925  0.015988087  0.014352575         1664 
 4497000   0.52722149   -7.4868285    863.04045  0.015992893  0.014347625         1642 
 4498000   0.53347374   -7.4942122    861.60154  0.015962679  0.014342682         1606 
 4499000   0.53306417   -7.4755587    862.16525  0.015969572  0.014337733         1664 
 4500000   0.51661878   -7.4999386    861.65636  0.015956599   0.01433279         1629 
 4501000   0.53469741   -7.4985263    863.21028  0.015981824  0.014327847         1620 
 4502000   0.54176238    -7.479129    862.06854   0.01595714  0.014322904         1596 
 4503000   0.53540565   -7.4891083    862.29008  0.015957696  0.014317969         1697 
 4504000   0.53051074   -7.5080969    861.75495  0.015944252   0.01431303         1627 
 4505000   0.52089164   -7.4954681    863.17389  0.015966961  0.014308092         1656 
 4506000   0.52262675   -7.5045863    861.90583  0.015939966  0.014303159         1662 
 4507000   0.52673165   -7.4796705    864.03777  0.015975848  0.014298233         1634 
 4508000   0.52539726   -7.4990471    862.69667  0.015947513  0.014293308         1642 
 4509000   0.53471641   -7.4855521    862.53753  0.015941035  0.014288381         1649 
 4510000   0.53281833   -7.4965727    861.88801  0.015925499  0.014283453         1739 
 4511000   0.52475011   -7.4995877    862.18261  0.015927411  0.014278526         1647 
 4512000   0.53489934   -7.4928601    862.27402  0.015925569  0.014273603         1583 
 4513000   0.53882566    -7.495569     861.5787  0.015909201  0.014268679         1696 
 4514000   0.52143952   -7.4996769    861.60017  0.015906073  0.014263761         1675 
 4515000    0.5290219   -7.4873565    863.65861  0.015940543  0.014258844         1655 
 4516000   0.53345674   -7.4943644    862.21093  0.015910299   0.01425393         1592 
 4517000   0.52516447   -7.4893115    861.31987  0.015890338  0.014249014         1651 
 4518000   0.53321315   -7.4889547    861.44521  0.015889133  0.014244106         1628 
 4519000   0.52207833   -7.4914719    862.88998  0.015912259    0.0142392         1648 
 4520000   0.52728295   -7.4826269    862.73448  0.015905872  0.014234294         1741 
 4521000   0.52751234   -7.5029706    861.10856  0.015872384  0.014229395         1698 
 4522000   0.53282568   -7.4944895    862.12489  0.015887603  0.014224489         1674 
 4523000    0.5333027   -7.4920126    861.45654  0.015871776  0.014219591         1685 
 4524000   0.51248541   -7.4891016    861.59112  0.015870747  0.014214692         1713 
 4525000   0.52796397   -7.5053765    862.34147  0.015881058  0.014209791         1702 
 4526000   0.51616481   -7.4934196     863.0492   0.01589058  0.014204901         1663 
 4527000   0.53187496    -7.496732    860.45506  0.015839317  0.014200008         1683 
 4528000    0.5222821   -7.5136899    860.95902  0.015845094  0.014195112         1634 
 4529000   0.51994786   -7.4837461    861.12337  0.015844619  0.014190223         1713 
 4530000   0.51714654   -7.4956401    862.76741  0.015871365  0.014185339         1757 
 4531000   0.53240726   -7.5069597    862.05134  0.015854692  0.014180457         1687 
 4532000   0.52737388   -7.4901329    862.03553  0.015850903  0.014175576         1604 
 4533000   0.53129435   -7.4994965    861.70617  0.015841352  0.014170691         1731 
 4534000   0.51879939   -7.4868441    861.45296  0.015833204  0.014165813         1749 
 4535000   0.53159752   -7.5145356    861.22929  0.015825602  0.014160927         1723 
 4536000   0.52515623     -7.50339    861.59209  0.015828779   0.01415605         1592 
 4537000   0.51238738   -7.4946943    863.10255  0.015853033  0.014151175         1661 
 4538000   0.50741072   -7.5044295    862.42338  0.015837068  0.014146303         1644 
 4539000   0.53010855   -7.5022191    861.29636  0.015812888   0.01414143         1648 
 4540000   0.51789312   -7.5091048    861.24521  0.015808466  0.014136556         1689 
 4541000   0.52096538    -7.509797    863.40568  0.015844632   0.01413169         1655 
 4542000    0.5238851   -7.4998433    860.16312  0.015781651  0.014126823         1564 
 4543000   0.51051763   -7.4967819    862.82787  0.015827058  0.014121964         1674 
 4544000   0.52654931   -7.4932979    861.37982  0.015797018  0.014117101         1681 
 4545000   0.52456085   -7.5163634    860.18043  0.015771552  0.014112238         1666 
 4546000   0.51446534   -7.5106091    862.05456  0.015802437  0.014107382         1684 
 4547000   0.51989459   -7.5102285    860.69116  0.015773975  0.014102529         1696 
 4548000   0.52740482   -7.4862712    863.84653  0.015828322  0.014097676         1573 
 4549000   0.51751624   -7.5047152    861.29875   0.01577817  0.014092821         1661 
 4550000   0.51579144   -7.5149197     861.2254  0.015773359  0.014087971         1667 
 4551000   0.52300812    -7.510743    860.36339  0.015754109  0.014083122         1680 
 4552000   0.52525634   -7.4963795    861.06759   0.01576354  0.014078277         1710 
 4553000   0.52681676   -7.4903349     862.0629  0.015778295  0.014073433         1576 
 4554000   0.53090967   -7.5026699    862.23779   0.01577803  0.014068594         1705 
 4555000   0.52569302   -7.5196466    862.44405   0.01577834  0.014063749         1784 
 4556000   0.53341542   -7.5106019      861.592  0.015759292  0.014058916         1733 
 4557000   0.52469166   -7.5143935    862.69159  0.015775942  0.014054086         1695 
 4558000   0.52804892   -7.5203346    860.87301  0.015739232  0.014049252         1686 
 4559000   0.52887849   -7.5162631    861.76005  0.015751993  0.014044425         1637 
 4560000   0.51487099   -7.4976714    862.85408  0.015768532  0.014039595         1764 
 4561000   0.51767457   -7.5293303    860.62271  0.015724306  0.014034763         1639 
 4562000   0.51183089   -7.4990913     862.1779  0.015749267  0.014029934         1699 
 4563000     0.514896   -7.5033117    860.24919  0.015710592  0.014025108         1624 
 4564000   0.51997866   -7.5185882    861.37535  0.015727712  0.014020291         1687 
 4565000   0.51525117   -7.4908185     861.6331  0.015728972  0.014015474         1694 
 4566000   0.53211055   -7.5141042    861.85061  0.015729497  0.014010657         1696 
 4567000    0.5253077   -7.5055644    859.75227  0.015687765  0.014005839         1678 
 4568000    0.5226581   -7.5020917    861.50535  0.015716312  0.014001024         1656 
 4569000   0.52046773    -7.501422    861.21028   0.01570749  0.013996216         1657 
 4570000   0.51720165   -7.5136638    863.24352  0.015741129  0.013991409         1602 
 4571000   0.51657371    -7.497977    860.10261  0.015680424  0.013986602         1605 
 4572000   0.51780247   -7.5189117    860.94252  0.015692303  0.013981801         1596 
 4573000   0.52378224    -7.526792    861.36457  0.015696563  0.013976999         1711 
 4574000    0.5291408   -7.5065289    861.26106  0.015691245  0.013972201         1645 
 4575000   0.52247365   -7.5013957    860.66296  0.015676921    0.0139674         1718 
 4576000   0.51192647   -7.4978709    862.46138  0.015706246  0.013962607         1614 
 4577000   0.52542266   -7.5167351    860.98875  0.015676002  0.013957815         1642 
 4578000   0.52698776   -7.5171174    860.78204  0.015668815  0.013953031         1641 
 4579000   0.51683837   -7.5025535    861.69956  0.015682091  0.013948238         1625 
 4580000   0.51479424   -7.5096768    860.58045  0.015658305  0.013943446         1657 
 4581000   0.51663447   -7.4956554    860.61228  0.015655466   0.01393866         1577 
 4582000   0.51655107   -7.5195065    860.54969  0.015650911  0.013933877         1621 
 4583000   0.52147852    -7.512775    860.13308  0.015639921  0.013929099         1599 
 4584000   0.51419753   -7.5038029    861.20695  0.015656031  0.013924313         1608 
 4585000   0.51244436   -7.5017203    861.95994  0.015666302  0.013919536         1596 
 4586000   0.52540016   -7.4981052    860.58728  0.015637943  0.013914761         1572 
 4587000   0.50493702   -7.5106106    860.06064  0.015624966  0.013909985         1590 
 4588000   0.51650098   -7.5270003    860.60672  0.015631479  0.013905211         1611 
 4589000   0.52160348   -7.5250084    860.46598  0.015625517  0.013900434         1672 
 4590000    0.5050772   -7.5189738    860.98874  0.015631604   0.01389566         1625 
 4591000   0.50815045   -7.5296879    860.97762  0.015627997  0.013890891         1697 
 4592000   0.51423456    -7.510017    859.85896  0.015604293  0.013886122         1689 
 4593000    0.5177564   -7.5123204     862.1287  0.015642077  0.013881353         1531 
 4594000   0.50879503   -7.5185967    860.65441  0.015611929  0.013876591         1673 
 4595000   0.51261062    -7.511778    860.06484  0.015597839  0.013871831         1664 
 4596000   0.50870095   -7.5159231    861.41185  0.015618869  0.013867071         1639 
 4597000   0.50777794   -7.4971175    861.88441  0.015624038  0.013862318         1607 
 4598000   0.51946654   -7.5159658    861.55737  0.015614712  0.013857565         1628 
 4599000   0.51205725   -7.5149279    860.68467  0.015595504  0.013852818         1672 
 4600000   0.50698985   -7.5043398    861.67933  0.015610133  0.013848067         1623 
 4601000    0.5189794   -7.5282843    860.20411  0.015580021  0.013843317         1688 
 4602000   0.50899288   -7.5013661      862.557  0.015619242  0.013838571         1655 
 4603000   0.52764122   -7.5238845    860.39226  0.015576658  0.013833825         1657 
 4604000   0.50842579   -7.5273744    861.77768  0.015598351  0.013829086         1612 
 4605000   0.53674848    -7.503296    860.99572  0.015580813   0.01382434         1591 
 4606000    0.5239782    -7.527792    860.58346  0.015569971  0.013819602         1672 
 4607000   0.50658204   -7.5343638    858.74696  0.015533372  0.013814859         1721 
 4608000   0.52099073   -7.5177426    861.24866  0.015575243  0.013810114         1599 
 4609000   0.51387257   -7.5130016    860.12622   0.01555157  0.013805376         1715 
 4610000   0.52460344   -7.5414322    860.15495  0.015548716  0.013800643         1656 
 4611000   0.50555737   -7.5242176    860.17252  0.015545661  0.013795912         1705 
 4612000   0.52690535   -7.5267392    860.01925  0.015539521  0.013791181         1620 
 4613000   0.50549423    -7.525017    860.43972  0.015543748  0.013786451         1648 
 4614000   0.50806478   -7.5276901    859.60752  0.015525349  0.013781718         1615 
 4615000   0.51930967   -7.5540681    859.44338  0.015519021  0.013776992         1715 
 4616000   0.49794436   -7.5295819    859.93548  0.015524543  0.013772263         1695 
 4617000   0.50409875   -7.5315842    860.03711  0.015523015  0.013767539         1689 
 4618000     0.511331   -7.5248188    861.82859  0.015551981  0.013762814         1689 
 4619000   0.50684858   -7.5351123    860.28654  0.015520793  0.013758095         1659 
 4620000   0.51178989   -7.5267626    859.63124  0.015505614  0.013753381         1667 
 4621000   0.51938705   -7.5230827    861.03025  0.015527488  0.013748664         1585 
 4622000   0.52096089   -7.5104994    858.57632  0.015479885  0.013743949         1604 
 4623000   0.51209229    -7.530364     861.2076  0.015523967  0.013739235         1672 
 4624000   0.50437876   -7.5132913    859.57617  0.015491208  0.013734526         1686 
 4625000   0.51720791   -7.5082068    859.54696  0.015487333  0.013729819         1646 
 4626000    0.5221129   -7.5526593    860.11336  0.015494188  0.013725109         1659 
 4627000   0.52584666   -7.5334041    860.44974  0.015496898  0.013720402         1739 
 4628000   0.51496215   -7.5410461    858.87016  0.015465107  0.013715691         1647 
 4629000   0.50683776   -7.5268006    861.36523  0.015506683  0.013710989         1618 
 4630000   0.50290897   -7.5322781    859.62989    0.0154721  0.013706288         1670 
 4631000   0.49490265   -7.5046046    860.42676  0.015483099   0.01370159         1487 
 4632000   0.50806245    -7.532401     859.6816   0.01546635  0.013696892         1641 
 4633000   0.52195247    -7.521111     860.2019   0.01547237  0.013692203         1520 
 4634000   0.50515727    -7.543361    860.66488  0.015477357  0.013687511         1649 
 4635000   0.50504297   -7.5413173    860.04297  0.015462837  0.013682818         1717 
 4636000   0.51001847   -7.5303933    860.22674  0.015462804  0.013678126         1740 
 4637000   0.50422781    -7.519235    859.88096  0.015453256  0.013673436         1621 
 4638000   0.50339789   -7.5397039    859.27168  0.015438977   0.01366875         1696 
 4639000   0.50907603   -7.5344184    859.66592   0.01544273  0.013664066         1627 
 4640000   0.49218496    -7.534707    859.43177  0.015435197  0.013659382         1700 
 4641000   0.50722239   -7.5396718    859.18043  0.015427358  0.013654699         1740 
 4642000   0.51298746    -7.541151    860.34599  0.015444959  0.013650019         1581 
 4643000   0.50372984   -7.5339808    861.09459  0.015455068  0.013645343         1640 
 4644000   0.50335736    -7.547665    858.87225  0.015411862   0.01364067         1620 
 4645000   0.50528708   -7.5457156    860.33587  0.015434802  0.013635997         1739 
 4646000   0.51199808   -7.5269789    861.77313   0.01545726  0.013631331         1643 
 4647000   0.51286749   -7.5271437    859.88697  0.015420109  0.013626665         1713 
 4648000   0.50508382   -7.5320284    859.83312  0.015415826  0.013621995         1687 
 4649000   0.49303252    -7.524384    859.95098  0.015414623  0.013617333         1661 
 4650000   0.51664338   -7.5389079    858.43636  0.015384164   0.01361267         1636 
 4651000   0.50786755    -7.548797    860.31125  0.015414449  0.013608008         1717 
 4652000   0.50827709   -7.5427538     859.5028  0.015396654  0.013603356         1657 
 4653000   0.50215356    -7.535583    859.38474   0.01539123  0.013598698         1671 
 4654000   0.50852939   -7.5362844    859.66865  0.015393007   0.01359405         1774 
 4655000   0.50030703   -7.5387539    861.21912  0.015417457  0.013589399         1682 
 4656000   0.52594642   -7.5208412    860.84714  0.015407487  0.013584754         1625 
 4657000   0.51382473   -7.5382976     859.0157  0.015371407  0.013580111         1750 
 4658000   0.51901267   -7.5439812     859.6018  0.015378592  0.013575466         1708 
 4659000   0.50102289   -7.5441476    859.32351  0.015370314  0.013570824         1650 
 4660000   0.50972057   -7.5210411    859.64416   0.01537275  0.013566187         1695 
 4661000   0.51631761   -7.5456126    859.72091  0.015370824  0.013561546         1711 
 4662000   0.50884507   -7.5372597     858.9252  0.015353303  0.013556904         1720 
 4663000   0.50294753   -7.5314044    859.74281  0.015364622  0.013552266         1655 
 4664000   0.50093539   -7.5340016    859.01335  0.015348294  0.013547634         1675 
 4665000   0.49397769   -7.5244326    860.31512  0.015368259  0.013543003         1662 
 4666000   0.48994589   -7.5433706    860.31262   0.01536492  0.013538372         1659 
 4667000   0.50766992   -7.5317807    858.80317  0.015334676  0.013533743         1656 
 4668000   0.50104063   -7.5491621    859.03086  0.015335455   0.01352912         1683 
 4669000   0.49867598   -7.5274381    860.69034   0.01536179  0.013524495         1662 
 4670000   0.51287445   -7.5415261    860.16158  0.015349065  0.013519871         1739 
 4671000    0.4980674   -7.5388497    859.73939  0.015338246  0.013515252         1683 
 4672000   0.50477327   -7.5419216     859.5464  0.015331521  0.013510638         1711 
 4673000   0.51242754   -7.5608021    859.80337  0.015332823  0.013506022         1681 
 4674000   0.51398967   -7.5641578    858.18759  0.015300734  0.013501409         1692 
 4675000   0.50527991   -7.5531223    859.28566  0.015317035  0.013496789         1787 
 4676000   0.49688133   -7.5367736     858.2027  0.015294459  0.013492173         1673 
 4677000   0.50991546   -7.5493515    857.87044  0.015285269  0.013487563         1717 
 4678000   0.50660735   -7.5478279    859.01133  0.015302325  0.013482952         1651 
 4679000   0.50903831   -7.5491157    859.14942  0.015301514  0.013478345         1692 
 4680000   0.50389693   -7.5364037    859.29642  0.015300862  0.013473743         1622 
 4681000   0.51093728    -7.554783    860.03655   0.01531077  0.013469135         1720 
 4682000   0.49371779   -7.5479951    859.32591  0.015294851  0.013464539         1623 
 4683000   0.50121733   -7.5678851    859.84264   0.01530078   0.01345994         1630 
 4684000   0.50222786   -7.5460015    857.94967  0.015263836  0.013455336         1727 
 4685000   0.51452492   -7.5421872    860.44385  0.015304942  0.013450741         1707 
 4686000   0.50464075   -7.5398909    859.21723  0.015279863  0.013446139         1667 
 4687000   0.50496312   -7.5527537    858.99417  0.015272637  0.013441541         1722 
 4688000    0.4931928   -7.5414556    857.72872  0.015246884  0.013436945         1654 
 4689000   0.48934182   -7.5428873    858.45219   0.01525649   0.01343235         1714 
 4690000    0.4962352   -7.5447203     858.8753  0.015260755   0.01342776         1727 
 4691000   0.49727319   -7.5379931    860.21842  0.015281362  0.013423175         1794 
 4692000   0.49825099   -7.5411565    858.73565   0.01525177  0.013418587         1656 
 4693000   0.49368562   -7.5627626    858.79936  0.015249651  0.013414003         1699 
 4694000   0.49575404   -7.5524419    858.85107  0.015247321  0.013409413         1728 
 4695000    0.4992337   -7.5681688    859.28169  0.015251716  0.013404832         1695 
 4696000   0.51180617   -7.5505501    858.02196  0.015226114   0.01340025         1665 
 4697000   0.48555744   -7.5490749     857.6982  0.015217128  0.013395668         1683 
 4698000   0.50200212   -7.5519451    859.32323  0.015242714  0.013391095         1622 
 4699000   0.49880197   -7.5461912    857.97771  0.015215608  0.013386519         1635 
 4700000   0.50973713   -7.5478325    859.27446  0.015235363   0.01338195         1713 
 4701000   0.49893546    -7.555419    860.88885   0.01526074  0.013377378         1648 
 4702000   0.50167383   -7.5493323    859.23299  0.015228147  0.013372815         1737 
 4703000   0.49773248   -7.5475303    859.33251  0.015226673  0.013368253         1661 
 4704000   0.49389861   -7.5536618    859.55753  0.015227422   0.01336369         1734 
 4705000    0.4842618   -7.5548109    859.29526  0.015219541  0.013359124         1675 
 4706000   0.49923957   -7.5576472    858.39167  0.015200306  0.013354561         1731 
 4707000   0.50713143   -7.5414937    858.33867  0.015196138  0.013350005         1678 
 4708000   0.49820705   -7.5485753    859.92872  0.015221055  0.013345454         1770 
 4709000   0.49289419   -7.5452611    859.43748  0.015209129  0.013340901         1747 
 4710000    0.5008564   -7.5561739    858.62067  0.015191448  0.013336349         1712 
 4711000   0.50379245   -7.5613429    860.06332  0.015213743  0.013331794         1733 
 4712000   0.51361133   -7.5576031    857.24206  0.015160619  0.013327246         1750 
 4713000   0.49815591   -7.5739051     858.9274  0.015187202  0.013322699         1759 
 4714000   0.50245643   -7.5523725    857.86572  0.015165212  0.013318154         1760 
 4715000   0.50199136    -7.556534    860.12646  0.015201952  0.013313614         1771 
 4716000    0.4860302   -7.5729594    857.79287  0.015157493  0.013309075         1760 
 4717000   0.50093097   -7.5583304    859.74923  0.015188842  0.013304537         1759 
 4718000   0.50060923   -7.5519705    858.64161  0.015166059  0.013300006         1703 
 4719000   0.50344144   -7.5725035    858.55672  0.015161346  0.013295471         1814 
 4720000   0.49410028   -7.5440911     858.4215  0.015155747  0.013290935         1777 
 4721000   0.50856484   -7.5584155    858.60731  0.015155816  0.013286406         1816 
 4722000   0.50953154   -7.5617117    857.68184  0.015136274   0.01328188         1848 
 4723000   0.49169307   -7.5598706    857.97723  0.015138281   0.01327735         1802 
 4724000   0.49123541    -7.565497     857.5861  0.015128177  0.013272824         1734 
 4725000   0.49185644   -7.5666176    858.59134  0.015142704  0.013268299         1840 
 4726000   0.49790396   -7.5547566    857.88324  0.015127014  0.013263776         1719 
 4727000   0.49205929   -7.5531133    859.00729   0.01514363  0.013259258         1818 
 4728000   0.50108191   -7.5579844     858.7827  0.015136469  0.013254738         1723 
 4729000   0.49081336   -7.5466058    858.48545   0.01512803  0.013250222         1762 
 4730000   0.49218075   -7.5563878    858.63895  0.015127536  0.013245705         1793 
 4731000   0.48417737   -7.5578021    859.65682  0.015142268   0.01324119         1740 
 4732000   0.49669816   -7.5518086    857.20709  0.015095926  0.013236681         1861 
 4733000   0.48986396   -7.5594791    858.64058  0.015117976  0.013232172         1767 
 4734000   0.48419495   -7.5625182    859.21696  0.015124929  0.013227663         1773 
 4735000   0.48802077   -7.5444397    857.82269  0.015097196  0.013223157         1766 
 4736000    0.4901417   -7.5743058    857.16911  0.015082508   0.01321865         1794 
 4737000   0.49209818    -7.558104    858.91531  0.015110044  0.013214147         1818 
 4738000   0.48749182   -7.5618741    857.76228  0.015086575  0.013209647         1717 
 4739000   0.49915254   -7.5546833    857.48795  0.015078567  0.013205143         1705 
 4740000   0.48964037   -7.5611319    858.64377  0.015095706  0.013200646         1667 
 4741000   0.48544426   -7.5457255    857.52226  0.015072809  0.013196149         1750 
 4742000   0.49357852   -7.5586405    857.39681  0.015067426  0.013191655         1734 
 4743000   0.49320498   -7.5726457    858.26488  0.015079501  0.013187164         1730 
 4744000   0.48757145   -7.5696188    858.57978  0.015081854  0.013182673         1787 
 4745000   0.49412702   -7.5671368    857.00534  0.015051025  0.013178191         1743 
 4746000    0.4880507   -7.5584951    857.49651  0.015056477    0.0131737         1729 
 4747000   0.47939588   -7.5739984    859.45545  0.015087695  0.013169215         1649 
 4748000   0.49518481   -7.5695249    856.41332  0.015031124  0.013164733         1714 
 4749000   0.48680379   -7.5614844     856.9801  0.015037905  0.013160249         1702 
 4750000   0.49510734   -7.5504494    858.63368  0.015063749  0.013155771         1705 
 4751000   0.49775816   -7.5751522     859.0809  0.015068422  0.013151295         1729 
 4752000   0.49720255   -7.5578629    858.07161  0.015047552  0.013146821         1797 
 4753000   0.49063713   -7.5809496    857.91291  0.015041604  0.013142349         1839 
 4754000   0.49993906   -7.5389609     857.9051  0.015038303  0.013137875         1675 
 4755000   0.48899564   -7.5811142      857.698  0.015031511  0.013133406         1775 
 4756000   0.48771021   -7.5675239    857.10252  0.015017916  0.013128938         1693 
 4757000   0.50842655   -7.5709244    858.78402  0.015044216  0.013124473         1818 
 4758000   0.49175261   -7.5680188     858.1385  0.015029748  0.013120009         1660 
 4759000   0.49074498   -7.5800709    858.89004   0.01503975  0.013115551         1710 
 4760000   0.49775613   -7.5507424    858.76058  0.015034324  0.013111093         1712 
 4761000   0.49727627   -7.5786419    858.54862  0.015027456  0.013106636         1715 
 4762000   0.48154717    -7.566145     856.7832  0.014993406  0.013102182         1734 
 4763000   0.49415134   -7.5809117    858.27572  0.015016371  0.013097727         1768 
 4764000   0.50495185   -7.5664197    856.32988  0.014979182  0.013093275         1756 
 4765000   0.49068952   -7.5578715    858.00676  0.015005365  0.013088823         1742 
 4766000   0.48492378   -7.5804195    858.50536  0.015010934  0.013084373         1736 
 4767000   0.49570487   -7.5810482     858.6925  0.015011057  0.013079927         1775 
 4768000   0.49761192   -7.5677565    857.45718  0.014986318  0.013075481         1824 
 4769000   0.48654018   -7.5600072    858.42997  0.015000174  0.013071039         1737 
 4770000   0.48766705   -7.5705515    858.00644   0.01498963  0.013066593         1726 
 4771000   0.48097523   -7.5700403    856.14524   0.01495398   0.01306215         1722 
 4772000   0.49383755     -7.57834    859.18762  0.015003975  0.013057711         1736 
 4773000   0.48516557   -7.5866798    857.71472  0.014975116   0.01305327         1781 
 4774000   0.49080714   -7.5790819    857.43024  0.014967013  0.013048835         1726 
 4775000   0.48152361   -7.5433946    856.56729  0.014948818  0.013044401         1768 
 4776000   0.48142511   -7.5725528    857.73883   0.01496613  0.013039971         1700 
 4777000   0.49547472   -7.5748683    858.19493  0.014970953  0.013035543         1739 
 4778000   0.48800368   -7.5678016    857.17456  0.014950024  0.013031113         1724 
 4779000   0.50117896   -7.5836545    857.98464  0.014961021   0.01302669         1702 
 4780000   0.48854188   -7.5607933    857.69516  0.014952844   0.01302227         1818 
 4781000     0.493843   -7.5585472    858.63286  0.014966061  0.013017852         1743 
 4782000   0.48703547   -7.5583361    858.69392  0.014963995  0.013013435         1762 
 4783000   0.47326975   -7.5629788    859.45805   0.01497418  0.013009023         1692 
 4784000   0.49382602   -7.5383126    858.96061  0.014962385   0.01300461         1689 
 4785000   0.48134586   -7.5781824    858.95582  0.014959175  0.013000201         1757 
 4786000   0.47837153   -7.5821162    857.58068  0.014932105  0.012995788         1804 
 4787000   0.47128436   -7.5779726    857.32567  0.014924547   0.01299138         1707 
 4788000   0.48348291   -7.5655468    857.96956  0.014932636  0.012986972         1697 
 4789000    0.4866178   -7.5773895     857.9867  0.014929817  0.012982564         1744 
 4790000   0.49064177   -7.5849801    857.85518  0.014924412  0.012978156         1826 
 4791000   0.48292848   -7.5820007    857.41981  0.014913724  0.012973748         1758 
 4792000   0.48822963   -7.5923701    857.30452  0.014908607  0.012969343         1717 
 4793000   0.47714528   -7.5987733    855.89161  0.014880931   0.01296494         1731 
 4794000   0.48080975   -7.5681726    856.80459  0.014893697  0.012960541         1742 
 4795000   0.48979279   -7.5883385    858.10917  0.014913263  0.012956143         1691 
 4796000   0.48551703   -7.5951542    858.04939  0.014909115  0.012951747         1731 
 4797000   0.48538536   -7.5649306    857.39271  0.014894599  0.012947355         1686 
 4798000   0.49095469   -7.5905936    855.21938  0.014853748  0.012942961         1747 
 4799000   0.47904689   -7.5903587    856.83766  0.014878754  0.012938569         1809 
 4800000   0.47979427   -7.5835856    859.19401  0.014916563  0.012934184         1818 
 4801000   0.49763695   -7.5829891    856.35094  0.014864107  0.012929795         1891 
 4802000   0.48991814   -7.5769103    858.92026  0.014905599  0.012925413         1754 
 4803000   0.48529822   -7.5630733    858.02621  0.014886984  0.012921032         1818 
 4804000   0.48259546   -7.5771061    858.19692  0.014886846  0.012916651         1791 
 4805000   0.47564209   -7.5856198    857.11882  0.014865051  0.012912268         1779 
 4806000   0.48207278    -7.584556    855.99827  0.014842528  0.012907893         1831 
 4807000    0.4842733   -7.5930958     858.2093   0.01487777  0.012903518         1778 
 4808000   0.48828493   -7.5649833    857.53758  0.014863033  0.012899141         1758 
 4809000   0.48266431   -7.5848818    857.91291  0.014866447  0.012894766         1755 
 4810000   0.47683433   -7.5851979     856.7749   0.01484364  0.012890396         1782 
 4811000   0.49300939   -7.5726882    857.29032  0.014849482  0.012886026         1765 
 4812000   0.48951515   -7.5778698    857.72736  0.014853965  0.012881659         1798 
 4813000   0.49086091    -7.580943    858.37983  0.014862176  0.012877299         1790 
 4814000   0.48115606   -7.5732711    858.22867  0.014856472  0.012872937         1750 
 4815000   0.48979669   -7.5907033    855.80671   0.01481147  0.012868577         1780 
 4816000   0.47727812   -7.5794852    857.18947   0.01483232  0.012864219         1802 
 4817000   0.47970689   -7.5900512    856.73035  0.014821299  0.012859861         1798 
 4818000   0.47547898   -7.5892789    857.85765  0.014837721   0.01285551         1726 
 4819000   0.47721059   -7.5964422    857.35088  0.014825878   0.01285116         1698 
 4820000    0.4813138   -7.5801256    856.70477  0.014811631  0.012846811         1751 
 4821000   0.47788978   -7.5983211    856.00785  0.014796513  0.012842458         1867 
 4822000   0.48560826   -7.5991022     856.3721  0.014799739  0.012838108         1806 
 4823000   0.46974223     -7.59067    857.74619  0.014820413  0.012833763         1752 
 4824000   0.48096398   -7.5817491    857.30544  0.014809726  0.012829417         1786 
 4825000    0.4772144   -7.6000491    857.44614  0.014809087  0.012825074         1787 
 4826000   0.48341888   -7.6156502    857.49639  0.014806886  0.012820734         1756 
 4827000   0.49154502   -7.5900267    856.16947  0.014780911  0.012816394         1788 
 4828000   0.47949076   -7.5716591    858.22921  0.014813401  0.012812058         1708 
 4829000   0.47437293   -7.5812049    857.10455  0.014790926  0.012807724         1780 
 4830000   0.47995294   -7.5934201    857.63419  0.014797001   0.01280339         1716 
 4831000    0.4745242   -7.5899466     857.5019  0.014791656  0.012799057         1722 
 4832000   0.47738728   -7.6022502    857.67154  0.014791521  0.012794727         1709 
 4833000   0.47869502   -7.5777782     856.4849     0.014768  0.012790401         1870 
 4834000   0.48683309   -7.5696281    857.47051  0.014781935  0.012786076         1766 
 4835000   0.47566216   -7.5871491    857.35062  0.014776812  0.012781756         1772 
 4836000   0.48377294   -7.5940864    857.79707  0.014781449  0.012777434         1718 
 4837000   0.47981021   -7.5775115    856.15897  0.014750172  0.012773116         1789 
 4838000    0.4839334   -7.5858997    857.05262  0.014762516  0.012768795         1800 
 4839000   0.46426721   -7.5992563    856.44184  0.014748947   0.01276448         1771 
 4840000   0.47045894   -7.5829891    857.58507  0.014765583  0.012760163         1845 
 4841000   0.47378472   -7.6050053    855.66572  0.014729493  0.012755848         1810 
 4842000    0.4687022   -7.5800001    857.89082  0.014764746  0.012751537         1737 
 4843000   0.47614803   -7.5929929     857.0202  0.014746717  0.012747233         1707 
 4844000   0.47895302   -7.5880543     856.5819  0.014736132  0.012742929         1786 
 4845000   0.47054853   -7.6033476    857.13819  0.014742659  0.012738623         1701 
 4846000   0.47906823   -7.5930671    856.51419  0.014728886  0.012734317         1812 
 4847000   0.47118424   -7.5788473    858.09943  0.014753102  0.012730016         1661 
 4848000   0.47163174   -7.5937319    857.64905  0.014742317   0.01272572         1772 
 4849000   0.48167322    -7.604625    856.77354  0.014724231  0.012721427         1737 
 4850000   0.46998832   -7.5954847    856.14938   0.01471047  0.012717131         1827 
 4851000   0.48373866   -7.5902707    857.38429  0.014728652   0.01271284         1761 
 4852000   0.47049957   -7.5768942    856.27759  0.014706609  0.012708548         1820 
 4853000    0.4817121   -7.5894527    855.76153  0.014694717  0.012704257         1830 
 4854000   0.48068873   -7.6036757    856.79252  0.014709389  0.012699967         1832 
 4855000   0.47283926    -7.590862    858.04947  0.014727935  0.012695683         1805 
 4856000   0.47501596   -7.6020228     856.1154  0.014691711  0.012691398         1785 
 4857000    0.4711777   -7.5911994    857.41796  0.014711035  0.012687121         1787 
 4858000   0.48849293   -7.5809013    855.90464  0.014682048  0.012682844         1820 
 4859000   0.47161599   -7.5925316    858.03514  0.014715565  0.012678567         1747 
 4860000   0.48367132   -7.5915428    858.59902  0.014722205  0.012674289         1725 
 4861000    0.4739372   -7.5922507    857.07479  0.014693047  0.012670014         1781 
 4862000   0.46777753    -7.603471    857.00668  0.014688857  0.012665737         1793 
 4863000   0.47237672   -7.6038481    855.12481  0.014653588  0.012661467         1767 
 4864000   0.47374856   -7.5906904    857.00765  0.014682834  0.012657195         1746 
 4865000    0.4753877   -7.5982329    855.64855  0.014656536  0.012652923         1808 
 4866000   0.46223523   -7.5968266    856.82885  0.014673737  0.012648653         1771 
 4867000   0.48363171   -7.5999253    855.85691   0.01465408  0.012644386         1744 
 4868000   0.47528222   -7.6096403    856.47055  0.014661575  0.012640119         1787 
 4869000   0.46964024   -7.5819792    858.15972  0.014687474  0.012635854         1724 
 4870000   0.46938718   -7.5920786     855.5963  0.014640594  0.012631598         1780 
 4871000   0.46306154   -7.6179676    857.46518  0.014669561  0.012627338         1795 
 4872000   0.46579128   -7.6123393    856.59698    0.0146517  0.012623081         1790 
 4873000   0.47963759   -7.5929499    857.38396  0.014662151  0.012618828         1779 
 4874000   0.48109387   -7.5901275    857.70189  0.014664579  0.012614573         1802 
 4875000   0.45848695   -7.5826057    857.50109  0.014658138  0.012610324         1741 
 4876000   0.47023054   -7.5839711    856.89044  0.014644696  0.012606078         1750 
 4877000   0.46082603   -7.5980072    857.25681  0.014647953  0.012601832         1671 
 4878000   0.47047355   -7.6038717    856.50155  0.014632048  0.012597584         1847 
 4879000   0.46753313   -7.6143069    855.52372  0.014612347   0.01259334         1782 
 4880000   0.46620834   -7.5900949    856.31432  0.014622854  0.012589099         1763 
 4881000   0.46393853   -7.5863492    855.60518  0.014607751  0.012584861         1688 
 4882000   0.47910391   -7.5870738     857.3264  0.014634139  0.012580625         1689 
 4883000   0.46741826   -7.6079166    855.98009  0.014608166   0.01257639         1784 
 4884000   0.47593453   -7.5987697    856.28066  0.014610303  0.012572156         1754 
 4885000   0.46663486   -7.6047451    857.08733  0.014621074  0.012567922         1860 
 4886000   0.46541929   -7.6158296    856.60873  0.014609918  0.012563692         1767 
 4887000   0.47404769   -7.5961431    855.67595  0.014591023  0.012559463         1790 
 4888000   0.46868221    -7.593532    857.34204  0.014616442  0.012555239         1695 
 4889000   0.47300639   -7.5853285    856.48813  0.014598898  0.012551013         1759 
 4890000   0.46740458   -7.5903383    856.47932  0.014595762   0.01254679         1703 
 4891000   0.46843872   -7.5926412    857.01369  0.014601883  0.012542566         1763 
 4892000   0.46835113   -7.6021796    856.21359  0.014585268  0.012538346         1809 
 4893000   0.46738065   -7.6160626    856.84874  0.014593105  0.012534128         1790 
 4894000   0.47268218   -7.5983138    857.02732  0.014593164  0.012529912         1815 
 4895000   0.46627718   -7.5946699    856.32122  0.014578162  0.012525692         1789 
 4896000   0.47104793   -7.6088732     855.3195  0.014558134  0.012521475         1759 
 4897000   0.46883468   -7.6010041    856.53892  0.014575912  0.012517265         1800 
 4898000   0.46495438   -7.6170168    855.69576  0.014558591  0.012513051         1803 
 4899000   0.46159045   -7.5987445     857.3741  0.014584169  0.012508838         1751 
 4900000   0.47353631    -7.610649    855.69523   0.01455264  0.012504632         1834 
 4901000    0.4661975   -7.6158384    855.69399   0.01454965  0.012500424         1808 
 4902000   0.47034069   -7.6015473    856.31274    0.0145572  0.012496219         1860 
 4903000   0.47572456   -7.6042689    857.38638  0.014572479  0.012492017         1717 
 4904000   0.46556204   -7.6204077    855.81452  0.014542797  0.012487814         1792 
 4905000   0.47202657   -7.5957356    856.54785  0.014552291  0.012483616         1794 
 4906000   0.45760689   -7.6047796    857.34909  0.014562935  0.012479418         1772 
 4907000   0.46947721   -7.6165786    856.60174  0.014547275  0.012475226         1789 
 4908000   0.46686646    -7.598885    856.94865  0.014550201  0.012471034         1781 
 4909000   0.46573083   -7.6067132     854.9754   0.01451374  0.012466843         1726 
 4910000   0.47254964   -7.6081461    856.62751  0.014538824  0.012462654         1849 
 4911000   0.46362666   -7.6138983    857.01266  0.014542399  0.012458465         1790 
 4912000   0.47136662   -7.6115098    856.89758  0.014537486  0.012454282         1794 
 4913000   0.46901289   -7.6020868    856.41771  0.014526388    0.0124501         1699 
 4914000   0.46311955    -7.615014    856.37081  0.014522636  0.012445917         1806 
 4915000   0.46913852   -7.5988783    856.23845  0.014517437  0.012441739         1778 
 4916000   0.47275154   -7.6107631    856.38972  0.014517048   0.01243756         1827 
 4917000    0.4592522   -7.6122966    854.65718  0.014484733  0.012433382         1751 
 4918000    0.4710474   -7.6135374    858.71574  0.014550558  0.012429207         1769 
 4919000   0.45970525    -7.612594    855.91113  0.014500087  0.012425033         1820 
 4920000   0.46043086   -7.6079917    854.79954  0.014478312  0.012420859         1831 
 4921000   0.45571376    -7.602114     856.9481  0.014511754  0.012416691         1704 
 4922000   0.45968232   -7.6029167    855.83044  0.014489883  0.012412522         1726 
 4923000   0.46168468   -7.6221032    855.99387  0.014489706  0.012408354         1807 
 4924000   0.46305507   -7.6081596    856.17834  0.014489885  0.012404188         1811 
 4925000   0.46482134   -7.6157857    855.91941  0.014482562  0.012400026         1840 
 4926000   0.46662273   -7.6264676    855.31653  0.014469423  0.012395869         1810 
 4927000   0.46217525   -7.6056497     855.3235  0.014466604  0.012391711         1785 
 4928000   0.46555493   -7.6225771    856.61596  0.014485524  0.012387553         1795 
 4929000   0.46563541   -7.6268835    855.46318  0.014463096    0.0123834         1839 
 4930000   0.46190197   -7.6001967    856.85362  0.014483665  0.012379242         1826 
 4931000   0.45290428   -7.6215518    853.56292  0.014425115  0.012375089         1760 
 4932000   0.45989651   -7.6127313    855.58655  0.014456383  0.012370939         1799 
 4933000   0.46001813    -7.611152    855.20255  0.014446965  0.012366793         1716 
 4934000   0.45961782   -7.6156481    856.30164    0.0144626  0.012362645         1767 
 4935000   0.45158922   -7.6110355    855.51925  0.014446458  0.012358499         1788 
 4936000    0.4661451   -7.6281431      855.495  0.014443122  0.012354355         1754 
 4937000   0.45984919     -7.60925    855.99472  0.014448632  0.012350212         1718 
 4938000   0.46553949   -7.6168747    855.48851  0.014437163  0.012346073         1707 
 4939000   0.46509485   -7.6193889    855.90763  0.014441311  0.012341934         1695 
 4940000   0.45735759   -7.6305156    855.73592  0.014435491  0.012337793         1797 
 4941000   0.45897095   -7.6113921    855.67901   0.01443161   0.01233366         1733 
 4942000   0.46464063   -7.6210325    855.63406  0.014427932  0.012329522         1859 
 4943000   0.46229012   -7.6160649    855.38069  0.014420741  0.012325392         1782 
 4944000   0.46907413   -7.6140078    855.81363  0.014425122  0.012321261         1753 
 4945000   0.47276679   -7.6330307    856.20255  0.014428759  0.012317131         1817 
 4946000   0.45834981   -7.6219818    856.44894  0.014429993  0.012313006         1756 
 4947000   0.45936298   -7.6060303    854.42906  0.014393051  0.012308884         1864 
 4948000   0.46741065   -7.6199223    855.61934  0.014410188   0.01230476         1852 
 4949000   0.45693909   -7.5941677    854.24961  0.014384213  0.012300642         1798 
 4950000   0.46453434   -7.6202356    856.93877  0.014426579  0.012296521         1808 
 4951000   0.45367847   -7.6268925    855.37035  0.014397266    0.0122924         1789 
 4952000   0.46230811   -7.6112694    853.93841  0.014370261  0.012288288         1858 
 4953000   0.46047216   -7.6229794    854.99138  0.014385076  0.012284172         1839 
 4954000   0.45944462   -7.6185443    857.10798  0.014417777  0.012280059         1751 
 4955000   0.44780744   -7.6246581    857.51771  0.014421758  0.012275942         1702 
 4956000   0.45137453   -7.6033316    855.17956  0.014379533  0.012271832         1695 
 4957000   0.45337425   -7.6206613    854.86804  0.014371395  0.012267723         1805 
 4958000   0.45932372   -7.6255069    855.24411  0.014374817  0.012263615         1703 
 4959000   0.46991647     -7.62168    855.71786  0.014379879  0.012259511         1789 
 4960000   0.46274749   -7.6314742    855.40528  0.014371728  0.012255408         1718 
 4961000   0.44911667   -7.6229084    855.22438  0.014365793  0.012251306         1773 
 4962000   0.45446038   -7.6126547    855.98099  0.014375604  0.012247207         1855 
 4963000   0.46176223   -7.6277257    854.52532  0.014348266  0.012243108         1854 
 4964000   0.45022113   -7.6161574    855.70574  0.014365192  0.012239011         1794 
 4965000   0.45032548   -7.6222865    853.29359  0.014321812  0.012234912         1709 
 4966000   0.45546499   -7.6097246    855.85576  0.014361924  0.012230818         1765 
 4967000   0.46262898   -7.6242012    855.10853  0.014346496  0.012226729         1777 
 4968000   0.45610405   -7.6238858    855.29291  0.014346701   0.01222264         1778 
 4969000   0.46142862   -7.6197159    854.46022  0.014329849  0.012218553         1787 
 4970000   0.44303707   -7.6354014    855.86672  0.014350549   0.01221447         1755 
 4971000    0.4571004   -7.6290432    855.24035  0.014337161  0.012210384         1798 
 4972000   0.45686171   -7.6278788    855.35702  0.014336233  0.012206303         1736 
 4973000   0.44775578   -7.6294238    856.25717  0.014348434   0.01220222         1777 
 4974000   0.46718747   -7.6352178    853.90065  0.014306069  0.012198139         1822 
 4975000   0.45999939   -7.6092297    856.64149  0.014349104  0.012194063         1864 
 4976000   0.45755427   -7.6190504    854.44769   0.01430948   0.01218999         1709 
 4977000   0.45533654   -7.6317912    855.88409  0.014330656  0.012185918         1820 
 4978000   0.45162186   -7.6273317     855.0957  0.014314579  0.012181848         1791 
 4979000   0.45806328   -7.6318971    855.58155  0.014319836  0.012177779         1764 
 4980000   0.45738098   -7.6354305    855.23451  0.014311153  0.012173713         1752 
 4981000   0.46412824   -7.6297661    854.21372  0.014291202  0.012169649         1805 
 4982000   0.44662155   -7.6363004    855.07174  0.014302685  0.012165583         1766 
 4983000   0.44898248    -7.641693    854.82566    0.0142957   0.01216152         1808 
 4984000   0.45675541   -7.6225522    854.30163  0.014284069  0.012157458         1767 
 4985000   0.44928548    -7.619741    855.15206  0.014295421    0.0121534         1711 
 4986000    0.4511921   -7.6277361    856.29084  0.014311586  0.012149341         1822 
 4987000   0.45340734   -7.6141744    855.45932  0.014294822  0.012145287         1684 
 4988000   0.45631994   -7.6347028    856.67561  0.014312276  0.012141229         1768 
 4989000   0.44725677   -7.6238775    855.29431  0.014286335  0.012137172         1850 
 4990000   0.44639398   -7.6138434    854.27061  0.014266376  0.012133121         1815 
 4991000   0.44905077   -7.6294268    854.94335   0.01427475  0.012129072         1854 
 4992000   0.44629398   -7.6333383    854.77369  0.014269059  0.012125026         1785 
 4993000    0.4546328   -7.6129301    854.61486   0.01426355   0.01212098         1766 
 4994000   0.44933058   -7.6182933    855.00094  0.014267136  0.012116933         1735 
 4995000   0.45731815   -7.6255688    853.37567  0.014237165  0.012112889         1752 
 4996000   0.45222872   -7.6313124    856.12949  0.014280249  0.012108848         1766 
 4997000   0.45274481   -7.6267764    855.24513  0.014262643  0.012104808         1785 
 4998000   0.44838538   -7.6237588    855.05835  0.014256675  0.012100768         1815 
 4999000     0.442583   -7.6265058    854.03054   0.01423669   0.01209673         1834 
 5000000   0.46565425   -7.6372208    855.71914  0.014261986  0.012092698         1781 
 5001000   0.44819933   -7.6314568    855.52282  0.014255862  0.012088661         1839 
 5002000    0.4496222   -7.6309435    854.73308  0.014239855  0.012084631         1835 
 5003000   0.45003641   -7.6220842    854.94773  0.014240584  0.012080598         1838 
 5004000   0.44242276   -7.6341185    855.20597  0.014242039   0.01207657         1755 
 5005000   0.46426816   -7.6292749    854.76122  0.014231789  0.012072546         1760 
 5006000   0.45168418   -7.6241332    854.30726  0.014221389   0.01206852         1796 
 5007000   0.46812781   -7.6299446    855.21726  0.014233694  0.012064499         1745 
 5008000   0.45363109   -7.6299549    853.33998  0.014199614  0.012060474         1773 
 5009000   0.45425761   -7.6304446    855.05614   0.01422533  0.012056451         1778 
 5010000   0.44981038   -7.6219053    854.15942  0.014207575  0.012052434         1695 
 5011000   0.44734553    -7.629529    855.27463  0.014223286  0.012048415         1834 
 5012000   0.43785387   -7.6226435    854.49615  0.014207504  0.012044398         1723 
Loop time of 12992.2 on 48 procs for 5000000 steps with 4000 atoms

Performance: 66501.257 tau/day, 384.845 timesteps/s
99.4% CPU use with 48 MPI tasks x no OpenMP threads

MPI task timing breakdown:
Section |  min time  |  avg time  |  max time  |%varavg| %total
---------------------------------------------------------------
Pair    | 977.64     | 1037.7     | 1098       | 104.3 |  7.99
Neigh   | 90.721     | 94.495     | 98.689     |  19.3 |  0.73
Comm    | 849.77     | 913.11     | 977.09     | 111.1 |  7.03
Output  | 16.883     | 16.888     | 17.006     |   0.4 |  0.13
Modify  | 10785      | 10811      | 10839      |  11.9 | 83.21
Other   |            | 119        |            |       |  0.92

Nlocal:        83.3333 ave          89 max          78 min
Histogram: 6 4 4 5 5 5 8 3 4 4
Nghost:        2423.71 ave        2438 max        2410 min
Histogram: 2 1 7 9 5 8 7 4 4 1
Neighs:        16864.0 ave       19413 max       14250 min
Histogram: 4 2 3 7 7 7 8 3 5 2
FullNghs:      33706.5 ave       36015 max       31350 min
Histogram: 2 4 3 8 6 6 11 4 2 2

Total # of neighbors = 1617912
Ave neighs/atom = 404.47800
Neighbor list builds = 267269
Dangerous builds = 1

#clear
#
#next RN
#
#jump SELF
Total wall time: 3:36:35
