
units lj                  # Use reduced LJ style units
atom_style atomic         # Uncharged point particles
atom_modify map hash      # Needed for indexing of clusters etc
                          # Used to be able to find where atoms are in relation to each other.

lattice fcc 1.0 spacing 1 1 1
Lattice spacing in x,y,z = 1.5874011 1.5874011 1.5874011
region box block 0 10 0 10 0 10 units lattice
create_box 2 box
Created orthogonal box = (0.0000000 0.0000000 0.0000000) to (15.874011 15.874011 15.874011)
  3 by 4 by 4 MPI processor grid
create_atoms 1 box
Created 4000 atoms
  using lattice units in orthogonal box = (0.0000000 0.0000000 0.0000000) to (15.874011 15.874011 15.874011)
  create_atoms CPU = 0.002 seconds
set type 1 type/fraction 2 0.36 78393
Setting atom values ...
  1453 settings made for type/fraction
mass 1 1.0
mass 2 1.0
pair_style lj/cut  3.5
pair_modify tail  yes
pair_coeff 1  1  1.0  1.0   # Intearaction between 1 and 1 set with epsilon = 1 and sigma = 1
pair_coeff 1  2  1.5  0.8
pair_coeff 2  2  0.5  0.88

write_data data.0
System init for write_data ...
Neighbor list info ...
  update every 1 steps, delay 10 steps, check yes
  max neighbors/atom: 2000, page size: 100000
  master list distance cutoff = 3.8
  ghost atom cutoff = 3.8
  binsize = 1.9, bins = 9 9 9
  1 neighbor lists, perpetual/occasional/extra = 1 0 0
  (1) pair lj/cut, perpetual
      attributes: half, newton on
      pair build: half/bin/atomonly/newton
      stencil: half/bin/3d
      bin: standard
WARNING: Not all mixed pair coeffs generated from mixing. Use write_data with 'pair ij' option to store all pair coeffs. (../write_data.cpp:312)


#############################
#   M E L T   S Y S T E M   #
#############################

velocity all create 2.4 5300450 mom yes dist gaussian # Assign velocities
                                                    # Temperature 2.4, random number seed, zero linear momentum
                                                                                # Gaussian distribution

timestep 0.002   # simulation timestep
thermo 1000       # output thermodynamic data every 1000 steps bf 100

# Define a fix  in this case with index 1 applied to all
# particles in the simulation. This fix is for simulations
# in the anisotropic NPT ensemble. Note that we use the MTK
# correction.
fix 1 all npt temp 2.4 2.4 0.1 iso 5.68 5.68 0.5 mtk yes tchain 5 pchain 5 # Use NPT ensemble
                                                                         # Set temperature and pressure and damping
                                                                         # Numbers of thermostats in chain and in barostat
run 10000          # run for 10000 steps
Per MPI rank memory allocation (min/avg/max) = 3.642 | 3.644 | 3.648 Mbytes
Step Temp E_pair E_mol TotEng Press Volume 
       0          2.4   -6.0964775            0   -2.4973775   -4.1129651         4000 
    1000     2.402151   -5.0284337            0    -1.426108     5.621796    3996.6863 
    2000    2.4220513   -5.0063625            0   -1.3741938    5.7906005    3986.5186 
    3000    2.4230404   -5.0389366            0   -1.4052847    5.5991276    3992.3722 
    4000    2.3935589   -5.0549637            0   -1.4655229    5.4279209    4000.0437 
    5000    2.4067426   -5.0657569            0   -1.4565455    5.5988611    3984.3501 
    6000    2.4090975    -5.102932            0   -1.4901892    5.3952081    3983.2625 
    7000    2.4149879   -4.9692464            0   -1.3476702    6.0064897    3996.8029 
    8000     2.359543   -5.0066549            0   -1.4682252    5.4780601    4016.2384 
    9000    2.3889944   -5.0585551            0   -1.4759593    5.7434218    3968.7187 
   10000    2.3816419   -5.0458367            0   -1.4742671     5.673908    3980.3394 
Loop time of 2.48426 on 48 procs for 10000 steps with 4000 atoms

Performance: 695579.239 tau/day, 4025.343 timesteps/s
99.6% CPU use with 48 MPI tasks x no OpenMP threads

MPI task timing breakdown:
Section |  min time  |  avg time  |  max time  |%varavg| %total
---------------------------------------------------------------
Pair    | 1.0901     | 1.1554     | 1.2574     |   3.1 | 46.51
Neigh   | 0.20718    | 0.21506    | 0.22618    |   0.9 |  8.66
Comm    | 0.73559    | 0.84358    | 0.90351    |   3.9 | 33.96
Output  | 0.00024531 | 0.00024959 | 0.00031933 |   0.0 |  0.01
Modify  | 0.239      | 0.25443    | 0.27561    |   1.9 | 10.24
Other   |            | 0.01551    |            |       |  0.62

Nlocal:        83.3333 ave          95 max          76 min
Histogram: 3 4 5 16 8 9 0 1 1 1
Nghost:        1645.73 ave        1678 max        1611 min
Histogram: 2 1 6 4 12 7 6 4 2 4
Neighs:        9579.69 ave       11497 max        8615 min
Histogram: 7 7 7 8 11 5 0 2 0 1

Total # of neighbors = 459825
Ave neighs/atom = 114.95625
Neighbor list builds = 904
Dangerous builds = 193

# Equilibrate just above the melting temperature to avoid step fn in T

fix 1 all npt temp 1.25 1.25 0.1 iso 5.68 5.68 0.5 mtk yes tchain 5 pchain 5
run 2000
Per MPI rank memory allocation (min/avg/max) = 3.643 | 3.645 | 3.649 Mbytes
Step Temp E_pair E_mol TotEng Press Volume 
   10000    2.3816419   -5.0458367            0   -1.4742671     5.673908    3980.3394 
   11000    1.2626493   -6.9736311            0   -5.0801306    5.8440085    3180.9969 
   12000    1.2454247   -7.0097965            0   -5.1421265    5.9969175    3165.1701 
Loop time of 0.594081 on 48 procs for 2000 steps with 4000 atoms

Performance: 581738.537 tau/day, 3366.542 timesteps/s
99.6% CPU use with 48 MPI tasks x no OpenMP threads

MPI task timing breakdown:
Section |  min time  |  avg time  |  max time  |%varavg| %total
---------------------------------------------------------------
Pair    | 0.2662     | 0.28693    | 0.31507    |   2.3 | 48.30
Neigh   | 0.038906   | 0.041166   | 0.04382    |   0.6 |  6.93
Comm    | 0.18936    | 0.21663    | 0.23997    |   3.0 | 36.46
Output  | 5.0588e-05 | 5.2062e-05 | 6.7741e-05 |   0.0 |  0.01
Modify  | 0.041019   | 0.044457   | 0.047585   |   0.9 |  7.48
Other   |            | 0.004847   |            |       |  0.82

Nlocal:        83.3333 ave          91 max          72 min
Histogram: 1 0 3 5 5 9 11 8 3 3
Nghost:        1927.25 ave        1949 max        1900 min
Histogram: 3 1 5 2 6 8 9 6 6 2
Neighs:        12075.3 ave       13766 max        9968 min
Histogram: 1 1 1 7 9 10 8 7 2 2

Total # of neighbors = 579613
Ave neighs/atom = 144.90325
Neighbor list builds = 143
Dangerous builds = 11

#############################
# L I N E A R  Q U E N C H  #
#############################

# Define solid atoms. This closely follows ten Wolde  Ruiz-Montero and Frenkel  Faraday Discuss  1996  104  93-110
# Compute components of the per-atom q6 vector
compute q6 all orientorder/atom degrees 1 6 components 6 nnn NULL cutoff 1.3 # compute the Q6 parameter.
                                                                             # Use all neighbours within 1.3 unit cell.

# get number of connections
compute coord_number all coord/atom orientorder q6 0.5

# An atom is solid if it has 8 or more connections (of a possible 14)
variable is_solid atom c_coord_number>=8
group solid dynamic all var is_solid    # Must be dynamic to update
dynamic group solid defined

# do clustering
compute cluster solid cluster/atom 1.3 # Create a cluster where all atoms within are solid and max 1.3 units from another member

# define chunks one chunk per cluster
compute clus_chunks solid chunk/atom c_cluster nchunk every compress yes  # Says which atoms are in which chunk

# count the size of each chunk
compute size_chunks solid property/chunk clus_chunks count


# Find the maximum entry in the vector of chunk sizes
variable max_n equal max(c_size_chunks)


# Thermo style which includes this variable
# thermo_style custom step temp pe vol v_max_n

thermo ${N}  # Print the thermo information every 100 steps
thermo 1000  

# Reset the npt fix at a lower temperature (below freezing)
fix 1  all npt temp  ${temp} ${temp}  0.1  iso  5.68  5.68  0.5  mtk yes tchain  5  pchain  5
fix 1  all npt temp  0.45 ${temp}  0.1  iso  5.68  5.68  0.5  mtk yes tchain  5  pchain  5
fix 1  all npt temp  0.45 0.45  0.1  iso  5.68  5.68  0.5  mtk yes tchain  5  pchain  5

dump dmp2 all dcd ${N} traj.dcd
dump dmp2 all dcd 1000 traj.dcd


compute msd all msd com yes
variable twopoint equal c_msd[4]/6/(step*dt+1.0e-6)
fix 9 all vector 10 c_msd[4]
variable fit equal slope(f_9)/6/(10*dt)
thermo_style custom step temp pe c_msd[4] v_twopoint v_fit v_max_n

fix 1 all npt temp 1.25 ${temp} 0.1 iso 5.68 5.68 0.5 mtk yes tchain 5 pchain 5
fix 1 all npt temp 1.25 0.45 0.1 iso 5.68 5.68 0.5 mtk yes tchain 5 pchain 5
run 5000000 # 5000000  # Run for this many steps
Neighbor list info ...
  update every 1 steps, delay 10 steps, check yes
  max neighbors/atom: 2000, page size: 100000
  master list distance cutoff = 3.8
  ghost atom cutoff = 3.8
  binsize = 1.9, bins = 8 8 8
  4 neighbor lists, perpetual/occasional/extra = 1 3 0
  (1) pair lj/cut, perpetual
      attributes: half, newton on
      pair build: half/bin/atomonly/newton
      stencil: half/bin/3d
      bin: standard
  (2) compute orientorder/atom, occasional
      attributes: full, newton on
      pair build: full/bin/atomonly
      stencil: full/bin/3d
      bin: standard
  (3) compute coord/atom, occasional
      attributes: full, newton on
      pair build: full/bin/atomonly
      stencil: full/bin/3d
      bin: standard
  (4) compute cluster/atom, occasional
      attributes: full, newton on
      pair build: full/bin/atomonly
      stencil: full/bin/3d
      bin: standard
Per MPI rank memory allocation (min/avg/max) = 9.816 | 9.826 | 9.831 Mbytes
Step Temp PotEng c_msd[4] v_twopoint v_fit v_max_n 
   12000    1.2454247   -7.0097965            0            0 8.3333333e+20            2 
   13000    1.2280735   -7.0475141   0.50141831 0.0032142198  0.040754982            2 
   14000    1.2495057   -7.0179723   0.97425342 0.0057991273  0.040275732            2 
   15000    1.2336299   -6.9602171    1.4452725 0.0080292912  0.039703804            2 
   16000    1.2044864   -7.0259828    1.8768597 0.0097753105  0.039154533            1 
   17000    1.2407375   -7.0515965    2.2522292  0.011040339  0.037961231            2 
   18000    1.2413739   -7.0541011    2.6275973  0.012164802  0.036478025            1 
   19000    1.2460874   -7.0389496    3.0869791  0.013539382  0.035887372            3 
   20000    1.2533658   -7.0397377    3.5412333  0.014755139  0.035774248            1 
   21000    1.2491481   -7.0062745    4.0291348   0.01598863  0.036068617            1 
   22000    1.2330696   -7.0243308    4.4914604  0.017013107  0.036396878            2 
   23000    1.2237015   -7.0202029    4.9627292  0.017980903   0.03658229            1 
   24000    1.2474436   -7.0044313    5.3850693  0.018698157  0.036763187            4 
   25000    1.2524718   -7.0502976    5.9122465  0.019707488  0.036902135            1 
   26000    1.2335109    -7.045754    6.3432562  0.020330949  0.037106692            1 
   27000    1.2438234   -7.0501592     6.705849  0.020697064  0.037160981            2 
   28000    1.2186548   -7.0121696    7.1973467  0.021420674  0.037145953            1 
   29000    1.2427181   -7.0635491    7.5387801  0.021663161  0.037106838            2 
   30000    1.2272895   -7.0259786    7.9713513  0.022142642  0.037008037            2 
   31000    1.2475478   -7.0337154     8.313345  0.022347701   0.03687431            1 
   32000     1.234165   -7.0597698    8.6806281  0.022605802  0.036651716            1 
   33000    1.2456761   -7.0389039    9.1752569   0.02316984  0.036480429            2 
   34000    1.2466007   -7.0265853    9.6405832   0.02362888  0.036391658       -1e+20 
   35000    1.2140536   -7.0724442     10.12903  0.024116738   0.03631837            2 
   36000      1.21712   -7.0652421    10.512507  0.024334507  0.036276461            1 
   37000    1.2255707   -7.0589606    11.004186  0.024784201  0.036267095            3 
   38000    1.2636038   -7.0539597    11.344295   0.02487784  0.036240373            1 
   39000    1.2151089   -7.0224073    11.778799  0.025168374  0.036184802            1 
   40000     1.228576   -7.0131201    12.184507  0.025384389   0.03614903            1 
   41000    1.2261246   -7.0331701    12.676766  0.025765784  0.036130176            3 
   42000     1.240213   -7.0589681    13.153717  0.026098644  0.036132708            2 
   43000    1.2663722   -7.0877007    13.458617  0.026082591  0.036137074            1 
   44000    1.2720352   -7.0376166    13.992442  0.026500837  0.036114565            1 
   45000    1.2626127   -7.0471888    14.382389  0.026634053  0.036086345            2 
   46000    1.2522429   -7.0359331    14.816994  0.026842381  0.036089775            2 
   47000    1.2498265   -7.0209092    15.260298  0.027057265  0.036047817            2 
   48000    1.2268287   -7.0477955    15.570914  0.027032836  0.036017777            2 
   49000    1.2624879   -7.0010733    16.084845  0.027355178  0.035979695            1 
   50000    1.2483742   -7.0119877    16.446736  0.027411226  0.035962059            1 
   51000    1.2416946   -7.0038399     16.88732  0.027593659  0.035922523            3 
   52000    1.2131703   -7.0711782    17.278523  0.027689941  0.035907538            1 
   53000    1.2276171   -7.0044235     17.97759  0.028266651  0.035922037            2 
   54000    1.2684768   -7.0842407    18.322104  0.028274852  0.035947089            2 
   55000    1.2488913     -7.06305    18.531984  0.028078764  0.035945892            2 
   56000     1.238183    -7.048419    18.912894  0.028144188  0.035900586            1 
   57000    1.2437773   -6.9848885      19.2582  0.028155263  0.035835698            1 
   58000    1.2485445   -7.0159514    19.654255  0.028238872  0.035768079            3 
   59000    1.2535326   -7.0908375    19.989539  0.028233811  0.035695484            3 
   60000    1.2497899   -7.0450984    20.433374  0.028379686  0.035627993            1 
   61000    1.2552179   -7.0194223     20.73661  0.028328702  0.035545905            1 
   62000    1.2410453   -7.0381206    21.199276  0.028493651  0.035471035            1 
   63000    1.2301785     -7.04567    21.605584  0.028578814  0.035412014            1 
   64000    1.2199231   -7.0499303    22.091758  0.028765309  0.035363677            1 
   65000    1.2350699   -7.0307072    22.551262  0.028911874   0.03532971            1 
   66000    1.2442144   -7.0843132    22.839717  0.028838026  0.035277012            1 
   67000    1.2463765   -7.0349581    23.169123  0.028817317  0.035226156            2 
   68000    1.2759797   -7.0582237     23.79769  0.029163836  0.035183361            1 
   69000     1.252037   -7.0576618     24.17236  0.029193671  0.035157845            2 
   70000    1.2321022    -7.019595    24.610599  0.029298332  0.035131472            1 
   71000    1.2667935   -7.0115766    25.036291  0.029385318  0.035107154            2 
   72000    1.2306477   -7.0442366     25.45632  0.029463333  0.035092004            1 
   73000    1.2423812   -7.0190558    26.064881   0.02975443  0.035090981            2 
   74000    1.2643015   -7.0802358    26.467646  0.029805908  0.035104045            1 
   75000    1.2419098    -7.027496    27.003955  0.030004395  0.035112277            1 
   76000    1.2482345   -7.0457997      27.1887  0.029812171  0.035110654            2 
   77000    1.2255221   -7.0583949    27.734922   0.03001615  0.035115521            4 
   78000    1.2217357   -7.0341792    28.155656  0.030080829  0.035117004            1 
   79000    1.2227779   -7.0007518     28.57294  0.030140232  0.035112717            2 
   80000    1.2282257   -7.0124063     28.87754  0.030080771  0.035106817            1 
   81000    1.2506372   -7.0344041    29.440043   0.03028811  0.035098657            1 
   82000    1.2545402    -7.062216    29.815162  0.030299961  0.035098013            1 
   83000    1.2289283   -7.0179368     30.41866  0.030540823  0.035106125            1 
   84000    1.2305789   -7.0220325    30.967264  0.030721492  0.035122076            1 
   85000     1.236167   -7.0865206    31.181539  0.030570136  0.035131535            2 
   86000     1.247637    -7.055326    31.729292  0.030745438  0.035144105            2 
   87000    1.2709129   -7.0511613    32.135197   0.03078084  0.035157377            3 
   88000    1.2227814    -7.008781    32.622731  0.030892737  0.035168418            2 
   89000    1.2430379   -7.0274078    33.013343   0.03091137  0.035180614            2 
   90000    1.2404917   -7.0684145    33.469055  0.030989865  0.035205902            1 
   91000    1.2493955   -7.0269401    33.983115  0.031120068  0.035228283            2 
   92000    1.2360775   -7.0502387    34.467548  0.031220605  0.035250358            1 
   93000    1.2450419   -7.0377007    35.063904  0.031419269  0.035278585            2 
   94000    1.2207707   -7.0512465    35.411115  0.031392832  0.035308626            2 
   95000    1.2170893     -7.04897    35.838031  0.031436869  0.035338637            1 
   96000    1.2358269   -7.0589185    36.234993  0.031453986  0.035362802            3 
   97000    1.2567947   -7.0031413      36.5753  0.031422079  0.035377904            1 
   98000    1.2429583   -7.0553024    36.904396  0.031381289  0.035388753            3 
   99000    1.2262278   -7.0521887    37.396598  0.031478618  0.035397915            1 
  100000    1.2242844    -7.044433    37.765483  0.031471236  0.035412421            3 
  101000    1.2365597   -7.0341958    38.142832  0.031470983  0.035421329            2 
  102000    1.2260945   -7.0921571    38.715639  0.031630424  0.035438034            1 
  103000    1.2438316   -7.0697061    39.166227  0.031687885  0.035454066            1 
  104000    1.2559872   -7.0527874    39.543733  0.031685684  0.035471305            3 
  105000    1.2327983   -7.0845305    39.979283   0.03172959  0.035477282            1 
  106000     1.227132   -7.0757304    40.445508  0.031796782  0.035491244            4 
  107000    1.2275311   -7.0658122    40.854882  0.031818444  0.035503873            1 
  108000    1.2212142   -7.0452357    41.355687  0.031910252  0.035515342            1 
  109000    1.2577914   -7.0504855    41.749108  0.031918278  0.035526553            2 
  110000    1.2330481   -7.0458293    41.954752  0.031783903  0.035533887            2 
  111000    1.2652565   -7.0419528    42.281641  0.031742974   0.03553074            1 
  112000    1.2221512    -7.069307     42.94645  0.031954204  0.035530275            1 
  113000    1.2462244    -7.059642    43.211383  0.031866801  0.035530282            2 
  114000    1.2581907   -7.0916797    43.865424  0.032065368  0.035533265            1 
  115000     1.207776   -7.0781292     44.09499  0.031952891  0.035541478            2 
  116000    1.2219127   -7.0830103    44.805541  0.032187888  0.035552975            1 
  117000    1.2180404   -7.0320234    45.495261  0.032404032  0.035568046            2 
  118000    1.2144428   -7.0554441    45.831445   0.03236684  0.035582186            1 
  119000    1.2216251   -7.0657948    46.566963  0.032609918  0.035604822            2 
  120000    1.2365544   -7.0673785    46.868856  0.032547817  0.035628428            1 
  121000    1.2390662   -7.0578666    46.957726  0.032340032  0.035646571            1 
  122000    1.2447202   -7.0447523    47.461556  0.032419095  0.035658277            4 
  123000    1.2445974   -7.0961324    47.792512  0.032379751  0.035671073            4 
  124000    1.2198507   -7.0629651    48.276068  0.032443594   0.03568264            1 
  125000     1.237338   -7.0218259     48.72494  0.032483293  0.035688929            1 
  126000     1.210285   -7.0744071    48.951495  0.032375328   0.03569492            1 
  127000    1.2599569   -7.0888709    49.394323  0.032410973  0.035696498            1 
  128000    1.2330503   -7.0802667    49.740567  0.032383182  0.035697024            2 
  129000    1.2423596   -7.0895683    50.192289  0.032423959  0.035699202            2 
  130000    1.2166647   -7.0178046    50.981654  0.032680547  0.035705342            2 
  131000    1.2393653   -7.0237782      51.2409  0.032595992  0.035710444            1 
  132000    1.2308875   -7.0260624    51.711615  0.032646222  0.035714295            2 
  133000    1.2335714   -7.0293363    52.582305  0.032946306  0.035721864            1 
  134000    1.2482537    -7.108121    52.452934  0.032619984  0.035729734            2 
  135000    1.2289493   -6.9984285    52.947204  0.032683459  0.035735596            1 
  136000    1.2134718     -7.05621    53.687713  0.032896883   0.03574099            2 
  137000     1.223683   -7.0834037    53.789879  0.032718904   0.03574573            1 
  138000     1.218572   -7.0432601    54.259223  0.032765231  0.035750572            1 
  139000    1.2268242   -7.0301263    54.429579  0.032631642  0.035747986            1 
  140000     1.239187   -7.0969634    54.752088  0.032590529    0.0357412            2 
  141000    1.2133219   -7.0677674    55.055875  0.032538933  0.035732852            1 
  142000     1.228888    -7.078831    55.800506  0.032746776  0.035726372            1 
  143000    1.1918334   -7.0781685    56.165998  0.032730768  0.035719089            1 
  144000    1.2295023   -7.0940694    56.247119  0.032550416  0.035709707            2 
  145000    1.2421389   -7.0685664    56.851771  0.032673431  0.035703399            2 
  146000    1.2368778   -7.0132882    57.447694   0.03278978    0.0356988            1 
  147000     1.218571    -7.090476    57.937781  0.032844547  0.035694968            4 
  148000    1.2220559   -7.0631226    58.615364  0.033004146  0.035695032            2 
  149000    1.2498576   -7.0544671    59.075689  0.033040094  0.035697451            2 
  150000    1.2487809   -7.0412893    59.476521  0.033042511  0.035701559       -1e+20 
  151000    1.2247017   -7.0852051    59.771075  0.032986244  0.035703222            2 
  152000    1.2190012   -7.0695344    60.275035  0.033045524  0.035708303            2 
  153000    1.2102391   -7.0890619    60.653496  0.033035673  0.035717357            2 
  154000    1.2361482    -7.102032     61.43959  0.033246531   0.03572612            3 
  155000    1.2412449   -7.0836782    61.873335  0.033265234   0.03573486            2 
  156000    1.2032941   -7.0856805    62.527347   0.03340136  0.035748125            3 
  157000    1.2280258   -7.0402138    62.870511   0.03337076  0.035761477            1 
  158000    1.2171944   -7.0685042    63.235317   0.03335196  0.035773585            1 
  159000    1.2259568   -7.1368131    63.753948  0.033414019  0.035786843            2 
  160000    1.2307926   -7.0473262    64.400451  0.033541901  0.035805081            1 
  161000    1.2370884   -7.0952855     64.67972  0.033478116  0.035822441            2 
  162000    1.2028534   -7.0744583    65.049327  0.033461588  0.035837661            2 
  163000    1.2238808   -7.0952904    65.451394  0.033461858  0.035851649            1 
  164000     1.226553   -7.0858125    65.962142  0.033517349  0.035867019            1 
  165000     1.209242    -7.102206    66.479269  0.033575388  0.035882078            2 
  166000    1.2552172   -7.0733674    67.255013  0.033762556  0.035899508            3 
  167000    1.2099465   -7.0737903    67.447741  0.033656557  0.035916177            2 
  168000    1.2308226   -7.0370646     68.03291  0.033746483   0.03593203            3 
  169000    1.2304116   -7.0902442    68.611536  0.033832118  0.035947125            1 
  170000    1.2180857   -7.0783038    69.024983  0.033835776  0.035961988            2 
  171000    1.2197535   -7.0876345    69.219637  0.033732767  0.035973306            1 
  172000    1.2097442   -7.0966489    69.554449  0.033698861  0.035983995            2 
  173000    1.2307995   -7.1035558    69.710125  0.033579058  0.035990718            2 
  174000    1.2256772    -7.047125    70.305189  0.033671067  0.035996076            2 
  175000    1.2268796   -7.0863156    70.413071  0.033530034  0.035998053            1 
  176000    1.2318967   -7.0323675    70.862209  0.033552182  0.035997903            1 
  177000    1.2228002    -7.038955    71.489314  0.033657869  0.035999192       -1e+20 
  178000    1.2405562   -7.0611446    71.497367   0.03347255  0.035997339            1 
  179000    1.2363351   -7.0525654    72.205775  0.033615352  0.035996911            1 
  180000    1.2291622   -7.0787123    72.453176  0.033543137  0.035996753            2 
  181000    1.2164607   -7.0919636    72.612994  0.033431397  0.035992903            1 
  182000    1.1943077   -7.0626794      73.0061  0.033427701  0.035986251            1 
  183000    1.2122975   -7.0817736    73.376112   0.03341353  0.035979533            1 
  184000    1.2434167   -7.0663978    73.594281  0.033330743  0.035970525            1 
  185000    1.2255254   -7.0964113    74.098973  0.033377916  0.035961236            1 
  186000    1.2258759   -7.0551301    74.731639  0.033481917  0.035957368            1 
  187000    1.2204489   -7.0542447    75.207266  0.033514824  0.035954112            1 
  188000    1.2289874   -7.0522575    75.813615  0.033605326  0.035952785            1 
  189000    1.2115047   -7.1134291    75.857503  0.033446871  0.035948253            1 
  190000    1.2362766   -7.0991587    76.744915   0.03366005  0.035944196            2 
  191000    1.2542136   -7.1178849     76.79302  0.033504808  0.035940063            1 
  192000    1.2260372   -7.1216226    77.567991  0.033666663  0.035939123            2 
  193000    1.2354132   -7.0680643    78.128834  0.033734384  0.035942424            1 
  194000     1.217362   -7.0615481    78.707932  0.033809249  0.035946322            1 
  195000    1.2333243   -7.0700809    79.321165  0.033897934  0.035950022            2 
  196000    1.2274984   -7.0975322    79.747758   0.03390636  0.035955999            3 
  197000    1.2058931   -7.1280269     80.29108  0.033964078  0.035961691            1 
  198000    1.2332238   -7.1186394    80.491149  0.033876746  0.035966137            1 
  199000    1.2110808   -7.0879359    81.025835  0.033930416  0.035970907            2 
  200000    1.2357151   -7.0819219    81.277576  0.033865657  0.035975328            1 
  201000    1.2512136   -7.0940179    81.736589  0.033887475  0.035976878            4 
  202000    1.2174798   -7.0672071    82.057222  0.033851989  0.035978535            2 
  203000    1.2220749   -7.0524099    82.538302  0.033882718  0.035978251            1 
  204000    1.2239301    -7.096194    83.076547  0.033936498  0.035978645            2 
  205000    1.2007902   -7.1122602    82.999379  0.033739585  0.035978865            5 
  206000    1.2079447   -7.1045997    83.877846  0.033931167  0.035977444            2 
  207000    1.2117469    -7.092047     84.26848  0.033924509  0.035978458            1 
  208000    1.2032902   -7.0905153     84.79875  0.033973858  0.035980144            3 
  209000     1.223367   -7.0678631    85.407249  0.034053927  0.035983343            2 
  210000    1.2352941   -7.1020102    86.198246  0.034205653  0.035989769            1 
  211000    1.2259754   -7.0791482    86.618936   0.03420969  0.035997008            1 
  212000    1.2241571    -7.093504    87.120665  0.034245544  0.036007145            3 
  213000    1.2135859   -7.1044377    87.716991  0.034318071  0.036014603            1 
  214000    1.1946017   -7.0594162    87.813664  0.034195352   0.03602144            1 
  215000    1.2362157   -7.1250986    88.236867  0.034200336  0.036027864            1 
  216000    1.1988479   -7.1204343    88.319535  0.034073894  0.036032806            1 
  217000    1.2026996   -7.1127349    88.809312  0.034104958  0.036038662            1 
  218000    1.2222091   -7.0961685    89.515399  0.034218424  0.036044899            1 
  219000    1.2258601   -7.0831227    89.528504  0.034067163  0.036050206            3 
  220000    1.2136561   -7.1002092    90.348645  0.034222972  0.036053777            1 
  221000    1.1943605   -7.1139052    90.435619  0.034100912  0.036056474            2 
  222000    1.2167897   -7.1129386    90.942951  0.034137744  0.036060804            2 
  223000    1.2174197   -7.0874481    91.539093  0.034207434  0.036064421            2 
  224000    1.2352294   -7.1307181    91.820607  0.034159452  0.036067572            1 
  225000    1.2317864   -7.0640197    92.443127  0.034238195  0.036070862            1 
  226000    1.2066688   -7.0934342     92.85172   0.03423736  0.036074339            2 
  227000    1.1981927   -7.1375115    93.028277   0.03415135  0.036078578            4 
  228000    1.2005915    -7.097034    93.194816  0.034062433  0.036078988            2 
  229000    1.2071908   -7.1153703    93.875906  0.034161538  0.036079546            2 
  230000    1.2118269   -7.0719465    94.372741  0.034193022  0.036078346            1 
  231000     1.207874   -7.0851867    94.928425  0.034245463  0.036079381            3 
  232000    1.1972416   -7.1595814    94.789115  0.034047814  0.036080439            1 
  233000    1.2093249   -7.1013332    95.168554  0.034037394  0.036080865            3 
  234000    1.2287543   -7.1198505    96.218408  0.034265815  0.036082324            5 
  235000    1.2466218   -7.0709453    96.706274  0.034293005  0.036084388            1 
  236000      1.20903   -7.0956588    96.854165  0.034199917  0.036085203            2 
  237000    1.1995362   -7.1127638    96.878346  0.034064116  0.036084574            2 
  238000    1.2241324   -7.0989127    97.599157  0.034173374  0.036082218            1 
  239000    1.2067336   -7.1455615    97.729591  0.034075869   0.03608053            2 
  240000    1.2220734   -7.0720992     98.13079  0.034073191  0.036076809            3 
  241000    1.2103808    -7.077113    98.450196  0.034042253   0.03607184            1 
  242000    1.1894479   -7.0975526    99.138983  0.034138768  0.036065711            1 
  243000    1.2162806   -7.1138571    99.182597  0.034013236  0.036060009            3 
  244000    1.2252572   -7.0870915    99.988445  0.034149059  0.036053851            3 
  245000    1.2255681   -7.1294834    99.901615  0.033980141  0.036047967            1 
  246000    1.2362431    -7.106403    100.45562  0.034029681  0.036044022            2 
  247000    1.1894242   -7.1222223     100.9623  0.034062855    0.0360393            1 
  248000     1.215277   -7.0968546    101.06622  0.033960425  0.036031863            2 
  249000     1.219058   -7.1309475    101.67318   0.03402717  0.036024816            2 
  250000    1.2035666   -7.0883389    101.91677  0.033972257  0.036017806            2 
  251000     1.205281    -7.047968    102.17951  0.033924141   0.03600882            1 
  252000    1.2143643   -7.1295788    102.44961  0.033878839  0.035999894            3 
  253000    1.2255899   -7.0833074    103.33976  0.034038128  0.035991381            2 
  254000    1.1931811   -7.1029855    103.14253  0.033839413  0.035983523            2 
  255000    1.2279137    -7.145746    103.64402  0.033870596  0.035974171            2 
  256000    1.1996495   -7.0927995    104.36868  0.033974181  0.035965091            3 
  257000    1.2277595   -7.1289035    104.74413  0.033963725  0.035955064            2 
  258000    1.2053767   -7.1366717    104.90558  0.033884231  0.035945656            2 
  259000    1.1984204   -7.0955242    105.26768  0.033869909  0.035936056            1 
  260000    1.2110345   -7.1188304    105.94893  0.033957991  0.035925266            2 
  261000    1.1966347   -7.1367538    106.00893  0.033847039  0.035914878            1 
  262000    1.2028413    -7.104897    106.48801  0.033870231  0.035903982            1 
  263000    1.2106539   -7.1035855    106.77744  0.033833155  0.035894115            1 
  264000    1.1931278   -7.1069168    107.28735  0.033865958  0.035883412            1 
  265000    1.1923833      -7.1177    107.30624  0.033744102  0.035872523            1 
  266000    1.2103201   -7.0903848       108.01  0.033837721  0.035862747            1 
  267000    1.2139255   -7.0890194    108.46565  0.033853199  0.035851642            2 
  268000    1.2186057   -7.0843397    108.85747  0.033848714  0.035840636            2 
  269000    1.2067697   -7.0886643    109.15664  0.033815565  0.035830625            1 
  270000    1.2140426   -7.1363355    108.99791  0.033641329  0.035819586            2 
  271000     1.230032   -7.0688273    109.89016  0.033791561  0.035806578            4 
  272000    1.2277996   -7.1126538    110.21153  0.033765786  0.035795386            1 
  273000    1.2087471   -7.1106645    110.76673  0.033811579  0.035783449            1 
  274000    1.1995647   -7.1147197    111.22323  0.033827018  0.035772754            1 
  275000    1.1990038   -7.1316557    111.60556  0.033819867  0.035761506            2 
  276000    1.1943235   -7.1368371    111.78604  0.033751824  0.035751773            4 
  277000    1.2075569   -7.1444365    112.57825  0.033868307  0.035742358            3 
  278000    1.2151064    -7.127596    112.85421  0.033829201  0.035731978            3 
  279000    1.2466973   -7.1231073    112.94667  0.033735566  0.035721074            2 
  280000    1.1893519   -7.0923585    113.62911  0.033818187  0.035710104            1 
  281000    1.2188906   -7.1086551    113.80861  0.033751071  0.035700474            4 
  282000    1.2096166   -7.1505337      114.307  0.033778665  0.035689944            1 
  283000    1.2207889   -7.1418881    114.73031  0.033783954  0.035678527            2 
  284000    1.2066753   -7.0976927     115.2508  0.033817722  0.035669513            3 
  285000    1.2182269   -7.0835977    115.79097  0.033857008  0.035660389            1 
  286000    1.2130143   -7.1291427    115.99047  0.033796758  0.035650731            1 
  287000    1.1910557   -7.1210441    115.93212  0.033662056  0.035640326            2 
  288000    1.2134714   -7.1248068    116.42013   0.03368638  0.035628628            3 
  289000     1.202548   -7.0828218    116.92928  0.033716633  0.035617157            2 
  290000    1.1880196   -7.1478637    117.42682   0.03374334   0.03560523            2 
  291000    1.2080739   -7.1031518    118.15127  0.033834842  0.035594471            1 
  292000     1.217617   -7.0933236    118.93524  0.033942706  0.035584463            2 
  293000     1.198935   -7.1517872    118.67031  0.033751512  0.035574776       -1e+20 
  294000    1.2088175   -7.0922613    118.90575  0.033703444  0.035563388            1 
  295000    1.2033109   -7.1343915    119.02603  0.033623171  0.035550695            2 
  296000    1.2154017   -7.1441539    119.32832  0.033594684  0.035538491            4 
  297000    1.2186956   -7.0752964    120.43053  0.033790834  0.035526569            2 
  298000     1.194042   -7.0889987    120.38527  0.033664784  0.035514603            1 
  299000    1.2053264   -7.1131648    121.06625  0.033741988  0.035503505            3 
  300000     1.191007   -7.1281007    121.23356  0.033675989  0.035491477            2 
  301000    1.1955506   -7.1402216    121.29627   0.03358147  0.035479735            2 
  302000    1.2183089   -7.1044313    121.64237  0.033565775  0.035467815            1 
  303000    1.2115696   -7.0846189    122.72374  0.033752405  0.035455838            1 
  304000    1.2139037   -7.1228847    123.17883  0.033766125  0.035444739            2 
  305000    1.2069508   -7.1016005    123.58844  0.033767334  0.035436489            2 
  306000    1.2160426   -7.1384507    124.05806  0.033784873  0.035428956            1 
  307000    1.1698924    -7.149878    124.35845  0.033756367  0.035420718            1 
  308000    1.2129107   -7.1239332    125.01324   0.03382393  0.035411656            2 
  309000    1.2001242   -7.1073519    125.62801  0.033880261  0.035403597            1 
  310000     1.228765   -7.1561884    125.52129  0.033742282  0.035395617            1 
  311000    1.2089461   -7.1482349      125.726  0.033688639  0.035385968            1 
  312000    1.1781843   -7.1180932    126.39285  0.033758773   0.03537653            3 
  313000    1.2371383   -7.1417443    126.41517  0.033656862  0.035366545            2 
  314000    1.1762338   -7.1387892    126.59166  0.033596512   0.03535611            1 
  315000    1.1729382   -7.1916317    127.09894  0.033624058  0.035345867            2 
  316000    1.1786332   -7.1627344    127.34241   0.03358186  0.035336283       -1e+20 
  317000    1.1854474   -7.1261391    128.03133  0.033657026  0.035326437            3 
  318000    1.2667022   -7.1385624    128.60987  0.033702795  0.035316821            1 
  319000     1.201234   -7.1165955    129.18825  0.033748236  0.035308295            1 
  320000    1.2035308    -7.130475    130.08636  0.033876656  0.035300284            1 
  321000    1.2029627   -7.1122579    130.09029  0.033772142  0.035291895            4 
  322000    1.2091025   -7.1446469    130.40954  0.033749882  0.035283671            1 
  323000    1.1861892   -7.1465331     130.9783  0.033792131  0.035275923            2 
  324000    1.2182178   -7.1052781    131.58954  0.033845045  0.035267644            2 
  325000     1.188491   -7.1541259    131.71959  0.033774253  0.035259568            1 
  326000    1.2211049   -7.1580061    131.75247  0.033679056   0.03525043            1 
  327000     1.213973   -7.1494974    132.15395  0.033678377  0.035241207            2 
  328000    1.2287958   -7.1389878    132.55635  0.033677933  0.035231653            3 
  329000    1.1990596   -7.1106697    132.87546  0.033656398  0.035223285            2 
  330000    1.1978379   -7.1162619    133.66023  0.033752584  0.035214854            3 
  331000    1.2076435   -7.1283753    133.62895  0.033642736  0.035205964            1 
  332000    1.1827199   -7.1457506    134.61376  0.033788595  0.035198209            1 
  333000    1.1906751   -7.0753791    135.10543  0.033810168  0.035191168            1 
  334000    1.2023914   -7.1099054    135.61936  0.033837166  0.035184395            2 
  335000    1.1975777   -7.0862145    135.67513  0.033750032  0.035177462            1 
  336000    1.2015933   -7.1312764    136.12004  0.033759931  0.035170603            2 
  337000    1.2110139   -7.0944985    136.53092  0.033761355  0.035163208            3 
  338000    1.1747207   -7.1488073    136.66588  0.033694744  0.035155851            1 
  339000    1.2242905   -7.1022486     137.2454  0.033737807   0.03514813            1 
  340000    1.1861553   -7.1407978    137.42863  0.033683487  0.035139973            2 
  341000    1.1681627   -7.1744364    137.82316  0.033681125  0.035130847            1 
  342000    1.2017874   -7.1108841     138.5621  0.033762696  0.035123224            1 
  343000    1.1787012   -7.1422203    138.68557  0.033694258  0.035114626            1 
  344000    1.1823006   -7.1699422    138.40982  0.033529511  0.035105516            1 
  345000    1.1998153   -7.1554057    139.32753  0.033653992  0.035097101            3 
  346000    1.1713095   -7.1192811    139.84446  0.033681229  0.035088502       -1e+20 
  347000    1.1948908   -7.1248073    140.51671  0.033745606  0.035079802            1 
  348000    1.1769894   -7.1456091    140.58947   0.03366606  0.035072619            1 
  349000    1.2245452   -7.1824383    140.38373  0.033520469  0.035064644            1 
  350000    1.2159595   -7.1244255    141.16791  0.033611408  0.035056421            1 
  351000    1.1811593    -7.125854    141.34229  0.033557048  0.035048401            1 
  352000    1.2182454   -7.1655064    141.86554  0.033585591  0.035039099            1 
  353000     1.232938   -7.1259601    142.47905  0.033635282  0.035029756            1 
  354000    1.2143522   -7.1736681    141.93812  0.033412929  0.035019705            1 
  355000    1.1783554   -7.1069891    143.35119  0.033650513  0.035009746            1 
  356000    1.1765458   -7.1531827    143.08345  0.033493318  0.035001285            2 
  357000    1.2300481   -7.1269879    144.30099  0.033683704  0.034993313            2 
  358000     1.197035   -7.1379672    144.32657  0.033595569  0.034985211            1 
  359000    1.1985853   -7.0947665    145.27758  0.033722745   0.03497782            2 
  360000    1.1867373   -7.1494397    144.98687  0.033561775   0.03497078            3 
  361000     1.186878   -7.1219628     145.4241  0.033569738  0.034961832            1 
  362000    1.1743201   -7.1761597    145.75947  0.033554205  0.034953102            1 
  363000    1.1696144   -7.1589073    145.21587  0.033336976  0.034944131            1 
  364000     1.175756   -7.1443849    145.63694  0.033341791  0.034933547            1 
  365000    1.2092033   -7.1049938     146.8081  0.033517831  0.034922815            1 
  366000    1.1818817   -7.1357834    146.89166  0.033445278  0.034912336            1 
  367000    1.2034747   -7.1562272    146.95079  0.033367572  0.034900381            2 
  368000    1.1859176   -7.1264839    147.56321  0.033415582  0.034888948            1 
  369000    1.1950885    -7.161257    147.87201  0.033394764  0.034878069            1 
  370000    1.1971934   -7.1188973    148.35568  0.033413442   0.03486752            3 
  371000    1.1945565   -7.1478352    148.84194  0.033432601  0.034857903            1 
  372000    1.2132274   -7.1513359     149.7042  0.033535887  0.034848157            3 
  373000    1.1699667   -7.1286951    150.50905  0.033625793  0.034839635            1 
  374000    1.1724711   -7.1437899    150.74839  0.033589214  0.034832224            1 
  375000     1.197178   -7.1652564    149.94442  0.033320982  0.034822878            1 
  376000    1.1686951   -7.1076285    150.69617  0.033398973  0.034812498            1 
  377000    1.1778428    -7.195752     150.5466  0.033277321  0.034802123            1 
  378000    1.1673172   -7.1529043    151.11843  0.033315351  0.034791468            2 
  379000    1.2264058   -7.0961335    152.53841  0.033539667  0.034781419            2 
  380000    1.2195782   -7.1801401    151.86757  0.033304292  0.034771939            2 
  381000    1.2128973   -7.1319633    152.64241  0.033386355   0.03476151            1 
  382000    1.1946662    -7.147006    152.44455  0.033255792  0.034750003       -1e+20 
  383000    1.1746627   -7.1827362    153.25668  0.033345666  0.034738273            1 
  384000    1.1642527   -7.1652676    153.18701  0.033243709  0.034726788            1 
  385000     1.188019   -7.1586977    153.38974  0.033201242  0.034715416            1 
  386000    1.1877157   -7.1684005    154.40297  0.033333975  0.034703863            1 
  387000    1.1561917    -7.195408    153.96925  0.033154447  0.034692406            1 
  388000     1.213019   -7.1705722    154.69275  0.033224387  0.034681413            2 
  389000    1.1859388   -7.1431201    155.49364  0.033310549  0.034671289            2 
  390000    1.1851218   -7.1620278     155.7175   0.03327297  0.034660545            4 
  391000    1.2023019   -7.0494785    156.32943  0.033318293   0.03464938            1 
  392000    1.1844437   -7.1995216    155.86618  0.033134818  0.034638601            1 
  393000    1.1696412   -7.2196366    156.47203  0.033178971  0.034627401            1 
  394000    1.2078662   -7.1230462    157.75249  0.033365585  0.034615858            5 
  395000    1.1897972   -7.1342279     157.4273   0.03321251  0.034604861            2 
  396000    1.1816733   -7.1674354    157.81583  0.033210401  0.034593663            2 
  397000    1.2042243   -7.1957404     157.6147  0.033084529  0.034580923            1 
  398000    1.1831633    -7.147203    158.44057  0.033174323  0.034569598            1 
  399000    1.1728172   -7.1849155    159.13622  0.033236471  0.034559206            2 
  400000    1.2362355   -7.1931375    159.50209  0.033229603  0.034548857            2 
  401000    1.1960743    -7.162418    159.44345  0.033134549  0.034538534            3 
  402000    1.1650067   -7.1607946    160.73568  0.033319999  0.034527716            1 
  403000    1.1906317   -7.2072444    160.38613  0.033165039  0.034518049            2 
  404000    1.2048725   -7.1716932    161.46859  0.033306226  0.034507983            1 
  405000    1.2188721   -7.2528879    161.31189  0.033191746  0.034497574            2 
  406000     1.163315   -7.1597216    161.93575  0.033238043  0.034487377            1 
  407000    1.2197831   -7.2004043    161.71543  0.033111267  0.034476767            1 
  408000    1.2146657    -7.165852    162.78014  0.033247579  0.034466508            1 
  409000    1.1864922   -7.1365857    163.20562  0.033252978  0.034456815            1 
  410000      1.16677   -7.1651385    162.97073  0.033124132  0.034446921            2 
  411000    1.1927162   -7.1727598    163.70177  0.033191763  0.034436657            1 
  412000    1.1553889   -7.1485507    164.02769  0.033177121   0.03442725            1 
  413000    1.1737487   -7.1749882    164.70852  0.033234165  0.034418012            3 
  414000    1.1717545   -7.1350147    165.27314   0.03326754  0.034407892            2 
  415000    1.1637892   -7.1258662    165.74881  0.033282893  0.034398816            1 
  416000    1.2011575    -7.180851    165.19185  0.033091317  0.034388716            2 
  417000    1.1866953   -7.1615093    165.63339  0.033100199  0.034378211            2 
  418000    1.1927289   -7.1951618    166.08606  0.033111255  0.034368362            1 
  419000    1.2030273   -7.2252073    166.60416  0.033135274  0.034358528            2 
  420000    1.2043724   -7.1539816    167.57186  0.033248384  0.034349621            2 
  421000    1.1896952   -7.2009739    167.81391  0.033217322  0.034341137            1 
  422000    1.1817685   -7.1908676    168.05904  0.033187014  0.034332768            1 
  423000    1.1995396    -7.111295    168.56093  0.033207434  0.034324313            1 
  424000    1.1927267   -7.1443935    169.41488  0.033296949  0.034315871            2 
  425000    1.2108345   -7.1693908    169.40456  0.033216579  0.034307989            1 
  426000    1.1700082   -7.1776922    169.64962  0.033186546  0.034300058            2 
  427000    1.1692182   -7.1684373    170.26274  0.033228481  0.034291852            1 
  428000    1.1668185   -7.1697278    170.27884   0.03315398  0.034282556            3 
  429000    1.1675699   -7.1717721    170.25093  0.033071277  0.034273734            3 
  430000    1.1957518    -7.151758    171.14478  0.033167594  0.034264139            3 
  431000    1.1803639   -7.2161871    171.36166  0.033132571  0.034255213            1 
  432000    1.1926793   -7.1552742    171.83753  0.033147672  0.034246279            1 
  433000    1.1765686   -7.1881581    171.64212  0.033033511  0.034236236            1 
  434000    1.1699723    -7.184575    172.17918  0.033060519  0.034227495            1 
  435000    1.1647782     -7.17681    172.76524  0.033096789   0.03421837            2 
  436000     1.185865    -7.161531    173.37966  0.033138314  0.034210028            2 
  437000    1.1842888   -7.1577081    173.89092  0.033159978  0.034201024            1 
  438000    1.1531789   -7.1856308     173.3126  0.032974239  0.034192177            1 
  439000     1.169169   -7.1747843     174.2179  0.033070976  0.034182428            1 
  440000     1.196896   -7.1807101    174.92424  0.033129591  0.034172991            3 
  441000    1.2094581   -7.1861645    175.32809  0.033130781  0.034164008            1 
  442000    1.1794028   -7.1911414    175.41844  0.033072859  0.034154581            1 
  443000    1.1619801   -7.2070331    175.08601  0.032935667   0.03414476            2 
  444000     1.188804   -7.2018791    175.78713   0.03299308  0.034135476            1 
  445000     1.169556   -7.1534651    175.86471  0.032933466   0.03412549            1 
  446000     1.183135   -7.1692278    176.93207  0.033059057  0.034116106            1 
  447000    1.1686079   -7.1788938    177.08193  0.033013037   0.03410718            3 
  448000    1.1750979   -7.1947805    177.82606  0.033077764   0.03409855            5 
  449000    1.1719454   -7.1894686    177.76621  0.032992986  0.034089724            2 
  450000    1.1516635   -7.1957952    178.51713  0.033058728  0.034081211            2 
  451000    1.1848921   -7.2045239    178.60296  0.033001286  0.034072168            1 
  452000    1.1697931   -7.1827601    179.08341  0.033016853  0.034063715            3 
  453000    1.1958716   -7.1944406    179.97691  0.033108335  0.034055043            2 
  454000    1.1896094   -7.1799973    180.22346  0.033080665  0.034047398            2 
  455000    1.1671942   -7.1647684    180.85619  0.033123844  0.034039588            2 
  456000    1.1687158   -7.1353341    180.74814  0.033031458  0.034031304            1 
  457000    1.1837401   -7.1518329    181.59304  0.033113245  0.034022891            1 
  458000    1.1692853   -7.2148168    181.66163  0.033053426  0.034015167            1 
  459000    1.1718888   -7.1512757    182.15112  0.033070284  0.034007991            2 
  460000    1.1985521   -7.1664044    182.38689  0.033041103  0.034000208            1 
  461000    1.1938156   -7.1616687     182.2751  0.032949223  0.033992153            1 
  462000    1.1669899   -7.1570361    182.99254  0.033007312  0.033984626            3 
  463000    1.1595635   -7.1737085    183.35197  0.033000714  0.033977709            2 
  464000    1.1629753   -7.1629091    184.07202  0.033058911  0.033969684            1 
  465000     1.162538   -7.2034474    183.64357  0.032911034  0.033961585            1 
  466000    1.2004258   -7.1884948    184.41173  0.032977778  0.033953891            1 
  467000    1.1534753   -7.1346186    185.27298  0.033060846  0.033945896            1 
  468000    1.1719318   -7.1819511    185.38093  0.033009425    0.0339386            2 
  469000    1.1786167   -7.1866808    185.88385  0.033028403  0.033930993            2 
  470000    1.1865176   -7.2147285     186.9208  0.033141987  0.033923751            2 
  471000    1.1718093   -7.1381941    187.03173  0.033091248   0.03391743            3 
  472000    1.2055163    -7.188628    186.99337  0.033014367  0.033911038            1 
  473000    1.1637856   -7.1738377     187.4797  0.033030251  0.033903556            2 
  474000    1.1774717   -7.1584551    187.91936  0.033037862   0.03389657            1 
  475000    1.1582423   -7.1755024    187.68728  0.032927593  0.033888899            2 
  476000    1.1757685   -7.2112219    187.86665  0.032889819   0.03388083            3 
  477000    1.1950043   -7.1887654    188.41654  0.032916935  0.033872812            1 
  478000    1.1812143   -7.1531965    189.02413  0.032953997  0.033864677            3 
  479000     1.180265   -7.2242062    187.97949   0.03270346  0.033856237            1 
  480000    1.1759164     -7.18302    189.45902  0.032892192  0.033848043            1 
  481000    1.1735177   -7.1844848    189.56586  0.032842318  0.033839716            2 
  482000    1.1628285   -7.1794302    190.95532  0.033014405   0.03383174            2 
  483000    1.1960253   -7.1967657     191.0434  0.032961249  0.033823424            1 
  484000    1.1568342   -7.1708514     190.7325  0.032839618  0.033815271            1 
  485000    1.1926379   -7.1981105     191.2596  0.032862474  0.033806845            1 
  486000    1.1573012   -7.1532995    191.90832  0.032906091  0.033799186            1 
  487000    1.1778235   -7.1520057    192.39577  0.032921932  0.033791441            2 
  488000    1.1865492   -7.1959768    192.07319  0.032799384  0.033783383            2 
  489000    1.1307239   -7.1433468    192.52813  0.032809838  0.033775478            1 
  490000    1.1866592   -7.1798494    192.81515  0.032791692  0.033767334            3 
  491000     1.166464   -7.2163555    193.34254  0.032814417  0.033758201            2 
  492000    1.2025597   -7.2017746    193.05272  0.032698632  0.033748619            5 
  493000    1.1581975   -7.1425428    193.57587  0.032720735  0.033739455            1 
  494000    1.1751107   -7.2021273    193.37928  0.032621336  0.033730826            2 
  495000    1.1416777   -7.1608197    194.58404  0.032758256  0.033721177            1 
  496000     1.159421   -7.2302748    194.50729  0.032679316  0.033711892            1 
  497000    1.1707957   -7.2032571    195.34074   0.03275331  0.033703208            1 
  498000    1.1761306   -7.1789938    195.38724  0.032695322  0.033694765            1 
  499000    1.1807911   -7.1909486    195.78729  0.032696608   0.03368599            3 
  500000    1.1738798   -7.1716881    196.75901  0.032793169  0.033677389            3 
  501000    1.1534098   -7.2032425    197.47347  0.032846552  0.033669731            2 
  502000    1.1376093   -7.1925156    197.63413   0.03280779  0.033661993            1 
  503000    1.1982636   -7.2532308    197.78969  0.032768339  0.033654327            1 
  504000    1.1697219   -7.1539318    198.48066   0.03281757  0.033646724            2 
  505000    1.1699393   -7.1678487    198.79741  0.032804852   0.03364025            3 
  506000     1.180568   -7.1799729    199.55831  0.032865334  0.033633907            2 
  507000    1.1814687   -7.1843071    199.86862  0.032851515  0.033627275            2 
  508000    1.1879959   -7.2006697    200.65885  0.032916478  0.033620782            1 
  509000     1.178079   -7.2270764    200.81177  0.032876845  0.033614174            1 
  510000    1.1784966   -7.2597259    200.37101  0.032740361  0.033607214            2 
  511000    1.1520072   -7.2292177    200.91046  0.032764263  0.033600486            1 
  512000     1.179608   -7.2066021    201.14304  0.032738125  0.033593606            2 
  513000    1.1987707   -7.2190693     202.2475   0.03285372  0.033586952            2 
  514000    1.1833741   -7.1937432    202.52123  0.032834182  0.033580259            2 
  515000    1.1556117   -7.1858368    202.26425  0.032728843  0.033573562            1 
  516000    1.1620289   -7.2227482     202.7563   0.03274488  0.033566478            1 
  517000    1.1667697   -7.1819749    203.27382  0.032764961  0.033558894            1 
  518000    1.1508651   -7.1972447    203.47841  0.032734622  0.033551636            3 
  519000    1.1571554   -7.2078865    204.42805  0.032824029   0.03354512            1 
  520000    1.1460224   -7.1645114    204.72693  0.032808802  0.033538835            1 
  521000      1.19451   -7.1740291    205.61853  0.032888441  0.033532381            1 
  522000    1.1541996   -7.2012883    205.82763  0.032858818  0.033526294            2 
  523000    1.1856159   -7.2127789    206.37554  0.032883292  0.033519689            2 
  524000    1.1572293   -7.2152156    205.49798  0.032680977  0.033513101            3 
  525000     1.157167    -7.202848    206.51977  0.032780915   0.03350643            2 
  526000    1.1604081   -7.2210275    206.91878  0.032781808  0.033500178            1 
  527000    1.1720765   -7.2096677    207.16977  0.032759294  0.033493463            1 
  528000    1.1901227   -7.1935869    207.98088  0.032825265  0.033486928            2 
  529000    1.1713417   -7.2149973    208.90527  0.032908832  0.033481158            1 
  530000    1.1830377   -7.2234821    208.73655  0.032820212  0.033475703            2 
  531000    1.1803402   -7.2408263    209.33484  0.032852298  0.033470139            2 
  532000    1.1560042   -7.2112563    209.34975  0.032792881  0.033464023            1 
  533000    1.1729849   -7.2456385    208.63511  0.032619623  0.033458189            2 
  534000    1.1540568   -7.1915707    209.56998  0.032704429  0.033451626            1 
  535000    1.1597954   -7.2580323    209.87906  0.032691443  0.033445525            1 
  536000    1.1696131   -7.2268202    210.62849  0.032746967  0.033440227            1 
  537000     1.153221   -7.2003388    211.95425  0.032891721  0.033434653            3 
  538000    1.1827707   -7.2414031    211.14666  0.032705492  0.033429407            3 
  539000    1.1688555   -7.2225697    211.83747  0.032751618   0.03342355            2 
  540000    1.1698627     -7.22591    212.13233  0.032736471  0.033418092       -1e+20 
  541000     1.152802   -7.1516242    212.95517  0.032802706  0.033412509            1 
  542000    1.1844368    -7.208535    213.28149  0.032792357  0.033407484            2 
  543000    1.1662366   -7.2154679     214.2121  0.032874785  0.033402089            1 
  544000    1.1442273   -7.1900183    213.72601  0.032739892  0.033396618            1 
  545000    1.1715858   -7.1930128    214.10531  0.032737815    0.0333907            2 
  546000    1.1758926   -7.2135752     213.9714  0.032657417  0.033384647            3 
  547000    1.1601669   -7.2465752     213.8682  0.032581993  0.033377753            2 
  548000    1.1491195   -7.2092889    215.20602  0.032725976  0.033371277            2 
  549000    1.1653075   -7.2278897    215.32812    0.0326849     0.033365            1 
  550000    1.1579668   -7.2414586    215.50785  0.032652704  0.033358313            1 
  551000    1.1515801   -7.2406715    215.45998  0.032586204  0.033351806            2 
  552000    1.1519115   -7.2068261    215.33286  0.032507981  0.033344338            3 
  553000    1.1886823    -7.215136    215.84211  0.032525935   0.03333676            2 
  554000    1.1586609   -7.2106177    216.08259  0.032503398  0.033328704            3 
  555000    1.1486574   -7.1875939    217.02212  0.032585903  0.033320652            2 
  556000    1.1647914   -7.2195917    217.41563  0.032586276   0.03331276            1 
  557000    1.1852774   -7.2072067    217.54514  0.032547149  0.033304454            1 
  558000    1.1440893   -7.2442864    216.40098  0.032317948  0.033296201            1 
  559000    1.1732336   -7.2202689    217.20068   0.03237935  0.033287294            2 
  560000    1.1694495   -7.2072526    216.84969  0.032269299  0.033278084            2 
  561000     1.188225    -7.177718    217.65956  0.032332079  0.033268312            2 
  562000    1.1857737   -7.2174467    217.57878  0.032262571  0.033258402            1 
  563000    1.1640364   -7.2462897    217.75992  0.032232078   0.03324846            2 
  564000    1.1501969   -7.2274569    217.87582  0.032192053  0.033238469            4 
  565000    1.1728097   -7.2206618     218.2701  0.032193229  0.033227778            1 
  566000    1.1626633   -7.2216679     218.1514  0.032118875  0.033217087            1 
  567000    1.1345632    -7.154716    219.35343  0.032238894   0.03320697            4 
  568000    1.1368379   -7.1768884    219.50499  0.032204371   0.03319639            3 
  569000    1.1669783   -7.2183903    219.41997   0.03213532   0.03318566            2 
  570000    1.1582017   -7.2213053    219.85885  0.032143107  0.033174941            2 
  571000    1.1644951   -7.2409896    219.80675  0.032079211  0.033163718            4 
  572000    1.1760654   -7.2053673    220.84742  0.032174741  0.033152624            1 
  573000    1.1680832   -7.2427392    220.36909  0.032049024  0.033141773            2 
  574000    1.1525961   -7.2383157     220.7606  0.032050029  0.033131096            7 
  575000    1.1356282   -7.2282109    220.54884  0.031963599  0.033120136            1 
  576000    1.1750393   -7.2497639    221.99913  0.032117929  0.033108798            1 
  577000    1.1677208   -7.2178268    222.13249  0.032081526  0.033097607            2 
  578000    1.1495597   -7.2388155    222.69369  0.032106934  0.033086287            1 
  579000    1.1470881   -7.2658246     222.2917  0.031993624  0.033075078            1 
  580000    1.1438098   -7.2320136    222.41918  0.031956779  0.033063874            2 
  581000    1.1664388   -7.2412489    223.16796  0.032009174  0.033053203            1 
  582000     1.150266   -7.2202178    223.77752  0.032041455   0.03304209            1 
  583000      1.15112   -7.2897694     223.0557  0.031883319  0.033030369            1 
  584000    1.1674735   -7.2593029    223.24832   0.03185621  0.033018919            2 
  585000    1.1334582   -7.2288507    224.03695  0.031914095  0.033007533            3 
  586000    1.1442804   -7.2323098     224.5997  0.031939662   0.03299586            1 
  587000    1.1279034   -7.2261369    224.71553  0.031901694  0.032984327            3 
  588000    1.1863447   -7.2145815    225.63046  0.031977106  0.032972917            3 
  589000    1.1567583   -7.1930044    225.82788  0.031950747  0.032961679            1 
  590000    1.1683022   -7.2317154    226.40153  0.031977617  0.032950361            3 
  591000    1.1645153   -7.2327932    226.18191  0.031892542  0.032939265            1 
  592000    1.1606766   -7.2058455    225.79225  0.031783819  0.032927578            1 
  593000    1.1630704   -7.2516198    226.69884  0.031857623  0.032915946            1 
  594000    1.1724485   -7.2165018    226.71658  0.031806478  0.032903837            2 
  595000    1.1404436   -7.2377023    227.14648  0.031813233  0.032891701            1 
  596000    1.1671987   -7.1832457    227.45298  0.031802709  0.032879478            1 
  597000    1.1466541   -7.2182547    227.67544  0.031780491  0.032867745            1 
  598000    1.1356241   -7.2119803     228.4122  0.031830016  0.032856485            1 
  599000     1.160918   -7.2411689     228.9159  0.031846953  0.032845042            1 
  600000    1.1744282   -7.2476086    229.39138  0.031859914  0.032833579            1 
  601000    1.1473658   -7.2326717    229.04845  0.031759353  0.032821896            2 
  602000    1.1640349   -7.2133801    229.99749  0.031837969  0.032810361            1 
  603000    1.1384759   -7.2484694    230.04281  0.031791433   0.03279988            3 
  604000    1.1616211   -7.2541693    230.02576  0.031736446  0.032788721            1 
  605000    1.1747904   -7.2471888    230.21913  0.031710624  0.032777636            2 
  606000    1.1629006   -7.2396258    231.10457  0.031780057  0.032766726            1 
  607000    1.1373066   -7.2255765    231.41172  0.031769868  0.032756205            2 
  608000    1.1296289   -7.2458046     231.1261  0.031678468  0.032744967            1 
  609000    1.1698352   -7.2600749    231.19172   0.03163543  0.032733315            1 
  610000    1.1691497   -7.3003217    231.75711  0.031660807  0.032721442            1 
  611000    1.1511484   -7.2116029    233.11645  0.031794387  0.032710054            1 
  612000    1.1536574   -7.2364536    232.72502  0.031689137  0.032699191            5 
  613000    1.1796196   -7.2096686    233.52064  0.031745601  0.032688585            2 
  614000    1.1923809   -7.2219399    234.28101  0.031797097  0.032678326            2 
  615000    1.1518509   -7.2621689    234.36156  0.031756309  0.032667843            2 
  616000    1.1479959   -7.2979733    234.38712  0.031708215  0.032657182            2 
  617000    1.1566493   -7.2438149    235.13677  0.031758073  0.032646499            1 
  618000    1.1379731   -7.2233047    234.28763  0.031592183  0.032636232            2 
  619000    1.1538668   -7.2143861    235.25499  0.031671377  0.032625885            1 
  620000    1.1162401   -7.2517146    235.63688  0.031671623  0.032615267            2 
  621000    1.1615197   -7.2490502    236.60691  0.031750793  0.032604639            2 
  622000    1.1684133   -7.2582048    235.76019  0.031586306  0.032594233            1 
  623000    1.1617077   -7.2316323    236.34254  0.031613502  0.032583361            2 
  624000    1.1327182   -7.2253173    236.92114   0.03164011  0.032572388            1 
  625000     1.151631   -7.2362376    237.06799  0.031609066  0.032561454            2 
  626000    1.1485793   -7.2112743    236.13356   0.03143418  0.032549909            1 
  627000    1.1674036    -7.212284    237.21144  0.031527304  0.032538181            1 
  628000    1.1244008   -7.2733426    237.28581   0.03148697  0.032526366            1 
  629000    1.1573557   -7.2191255    237.12904  0.031416142  0.032514274            1 
  630000    1.1663908   -7.2498049    236.02301  0.031219975  0.032501307            2 
  631000    1.1463163   -7.2822932    236.11573  0.031182743  0.032487729            7 
  632000    1.1347359   -7.2735605    237.07055  0.031259303  0.032474397            2 
  633000    1.1334743   -7.2186592    237.94778  0.031325406  0.032461392            3 
  634000    1.1651319   -7.2289811     237.8201  0.031259214  0.032448484            1 
  635000    1.1592415   -7.2483508    239.07522  0.031374701  0.032435931            5 
  636000    1.1607632   -7.2531393    239.10585  0.031329383  0.032423516            1 
  637000    1.1704417   -7.2509622    238.55797  0.031208525  0.032410512            1 
  638000    1.1336114   -7.2171782     239.6503  0.031302286  0.032397987            2 
  639000    1.1645765   -7.3000525    239.75907  0.031267484  0.032385347            1 
  640000    1.1398836   -7.2740968    240.69406  0.031340372  0.032372393            1 
  641000    1.1366549   -7.2575326    240.12959  0.031218096  0.032359427            1 
  642000    1.1402078   -7.2168891    241.76486  0.031381731  0.032346793            2 
  643000    1.1491974   -7.2659922    241.68999  0.031323223  0.032334675            2 
  644000    1.1474243   -7.2534759    242.02316  0.031317697  0.032322566            1 
  645000    1.1247109   -7.2490818    242.09259  0.031278112  0.032310067            1 
  646000    1.1423002   -7.2195751    242.45054   0.03127587  0.032297389            1 
  647000     1.152347   -7.2464272    242.62719  0.031250282  0.032284735            2 
  648000    1.1362687   -7.2370637    242.59155  0.031197473    0.0322727            3 
  649000    1.1339057   -7.2384358    242.44306  0.031130336  0.032260334            2 
  650000    1.1548496   -7.2081532    243.30945   0.03119352  0.032247796            3 
  651000    1.1290121   -7.2808088     242.5845  0.031052803  0.032235079            2 
  652000    1.1447587    -7.251263    244.55703  0.031257289  0.032222053            3 
  653000    1.1581535   -7.2145533    244.64899  0.031221158  0.032209457            1 
  654000    1.1564678   -7.2412804    244.07876   0.03110076  0.032196716       -1e+20 
  655000    1.1486556   -7.2833511    244.57745  0.031116724  0.032183772            3 
  656000    1.1491873   -7.2358506    244.36525  0.031042334  0.032170483            2 
  657000    1.1340351   -7.2486863    244.94161   0.03106819  0.032157567            3 
  658000    1.1473243   -7.2558702    244.73395  0.030994674  0.032144679            2 
  659000    1.1429975   -7.2800737    245.11926  0.030996366  0.032131812            2 
  660000    1.1401052   -7.2969473    245.66846  0.031018745  0.032118964            1 
  661000    1.1106668   -7.2527161     246.4316  0.031068028  0.032106513            1 
  662000    1.1617827   -7.2173796    247.49652  0.031155151  0.032094444            3 
  663000    1.1395413   -7.2556105    247.58807  0.031119667  0.032082373            3 
  664000    1.1569763   -7.2288995    247.43875   0.03105406  0.032070353            2 
  665000    1.1274795   -7.2690141    248.50079   0.03114045  0.032058573            1 
  666000    1.1518597   -7.2390727    248.80339  0.031131556  0.032046798            1 
  667000    1.1316949   -7.2218747    249.24024   0.03113946  0.032034986            4 
  668000    1.1427853   -7.2495818    248.79788  0.031037659  0.032023433            1 
  669000     1.148506   -7.2326642    249.80081  0.031116194  0.032011456            1 
  670000    1.1211022   -7.2476083     249.4413  0.031025037  0.031999367            1 
  671000    1.1370949   -7.2760869      248.854  0.030905862    0.0319871            1 
  672000    1.1436649   -7.2517656    249.81152  0.030978611  0.031974627            1 
  673000    1.1379351   -7.2515429    249.89478   0.03094289   0.03196225            1 
  674000    1.1451064   -7.2350748     250.3653  0.030955155  0.031949837            3 
  675000     1.163852   -7.2519163     250.8678  0.030971333  0.031937291            5 
  676000    1.1409081   -7.2693426     251.0818  0.030951899   0.03192506            3 
  677000    1.1544861   -7.2646044    251.43723   0.03094993  0.031912882            1 
  678000     1.149171    -7.236503    252.18934  0.030996724  0.031901269            2 
  679000    1.1669918   -7.2530697    252.79556  0.031025474  0.031889883            1 
  680000    1.1265123    -7.202028    253.70579  0.031091395  0.031878693            3 
  681000    1.1287579   -7.2698085     252.4776  0.030895448  0.031867302            2 
  682000    1.1425207     -7.23705    253.12058  0.030928712  0.031855935            1 
  683000    1.1277524   -7.3063249    252.94026  0.030861428  0.031844056            1 
  684000    1.1566311   -7.2623754    254.00081  0.030945518  0.031831976            2 
  685000    1.1421056   -7.2262703    254.24409  0.030929938  0.031820306            1 
  686000    1.1439841   -7.2846779    254.27769  0.030888932  0.031808702            4 
  687000    1.1243014   -7.2052742    255.45505  0.030986785  0.031797233            2 
  688000    1.1380877   -7.2448275    255.95082  0.031001795    0.0317857            1 
  689000    1.1416074    -7.277313     255.2933  0.030877273  0.031774185            1 
  690000    1.1581319   -7.2525675    254.48402  0.030734785   0.03176223            1 
  691000    1.1385719   -7.2846244    255.01124  0.030753888  0.031750654            1 
  692000    1.1332057   -7.2520352    256.76969  0.030921206  0.031739162            3 
  693000    1.1460635   -7.2374242    256.48669  0.030842555  0.031727824            1 
  694000    1.1510208   -7.2653292    256.54775  0.030805446   0.03171593            1 
  695000    1.1526855   -7.2412935    256.97404  0.030812235  0.031704191            2 
  696000    1.1596239   -7.2513092    256.70705  0.030735998  0.031692304            3 
  697000    1.1427111   -7.2548185    257.14409  0.030744152  0.031679821            2 
  698000    1.1321559   -7.2320764    257.16138   0.03070217  0.031667794            2 
  699000    1.1417017   -7.2576254     257.0567  0.030645768  0.031655547            2 
  700000    1.1254351   -7.2942065     258.2379  0.030742608  0.031643246            1 
  701000    1.1561387   -7.2550935    259.11996  0.030803609  0.031631583            1 
  702000    1.1862016   -7.2752556     258.4862  0.030684496  0.031619464            1 
  703000    1.1411943   -7.2692421    258.14618  0.030600543  0.031607411            4 
  704000    1.1688364    -7.281832    258.71686  0.030624628  0.031595209            1 
  705000      1.15711    -7.296261    258.87659   0.03060007   0.03158318            2 
  706000    1.1335914    -7.289026    259.46257  0.030625893  0.031571177            1 
  707000    1.1342494   -7.2980106    260.05842  0.030652808  0.031559332            2 
  708000    1.1087809    -7.268177    260.64913  0.030679041  0.031547431            1 
  709000    1.1138916   -7.2639323    261.00841  0.030677998   0.03153559            3 
  710000    1.1635781    -7.254092    261.65602  0.030710801  0.031523709            3 
  711000    1.1186116   -7.2463764    261.23591  0.030618367   0.03151202            3 
  712000    1.1456257   -7.2751316    260.80096  0.030524457  0.031500355            2 
  713000    1.1359614   -7.2977481    260.84165  0.030486402  0.031488339            2 
  714000    1.1322048    -7.222931    261.79604  0.030555094  0.031476572            1 
  715000    1.1350053   -7.3606548    262.27628  0.030568331  0.031464977            2 
  716000    1.1240448   -7.3103418    263.32917  0.030648181  0.031453209            1 
  717000    1.1485436   -7.2609442    264.24789  0.030712214  0.031441739            2 
  718000    1.1548048   -7.2458342    264.08961  0.030651069  0.031430941            3 
  719000    1.1604096   -7.2610195    264.14105  0.030614401  0.031419909            1 
  720000    1.1265121    -7.309251    263.72164  0.030523338  0.031408517            2 
  721000     1.133955   -7.3074319    264.90048  0.030617254  0.031397531            1 
  722000     1.130299   -7.2771396    266.06463  0.030709214  0.031386427            1 
  723000    1.1348636    -7.267362    265.19473  0.030566474  0.031375543            2 
  724000    1.1233135   -7.2657382    265.55329  0.030565526  0.031364564            2 
  725000    1.1130864   -7.2835258    266.84157  0.030671444  0.031353868            2 
  726000    1.1251875    -7.279351    267.21482  0.030672041  0.031343285            1 
  727000    1.1440459   -7.2886322     266.4182  0.030538537  0.031332589            3 
  728000    1.1443289   -7.2754227    267.67355  0.030640287   0.03132202            1 
  729000    1.1370552   -7.2375039    268.73611   0.03071972  0.031311734            1 
  730000    1.1170081   -7.3198522    267.58075  0.030545748  0.031301206            1 
  731000    1.1146969   -7.2900677    267.92596  0.030543315    0.0312907            2 
  732000    1.1264517   -7.2562639    268.96923  0.030620359  0.031280214            2 
  733000    1.1609975     -7.29933    268.68858  0.030546678  0.031269783            1 
  734000    1.1377395    -7.306796    268.33443  0.030464854  0.031259043            2 
  735000    1.1154943   -7.2782115    269.01529    0.0305006  0.031248241            1 
  736000    1.1288277     -7.31706    268.93923  0.030450547  0.031237193            1 
  737000    1.1206597   -7.2909122     269.8041  0.030507021  0.031226325            2 
  738000    1.1241626   -7.2699012      270.397  0.030532633  0.031215234            1 
  739000    1.1316104   -7.2689791    269.99408  0.030445882  0.031204414            1 
  740000    1.1445129   -7.2506116    270.92735  0.030509837  0.031193993            3 
  741000    1.1407851   -7.2995676    270.30438  0.030398604  0.031183316            1 
  742000    1.1206393   -7.2803676    271.38755  0.030479284  0.031172641            2 
  743000    1.1170715   -7.2831189    271.99805  0.030506735  0.031162248            1 
  744000     1.148988   -7.2527528    272.51774   0.03052394  0.031152093            3 
  745000    1.1132605   -7.2932874     272.4551  0.030475962  0.031141742            1 
  746000    1.1069621   -7.2680757    272.40092  0.030429057  0.031131425            3 
  747000    1.1252767    -7.325497    272.30966  0.030378141  0.031121092            1 
  748000    1.1209635   -7.2916725    273.61956  0.030483463  0.031110656            2 
  749000    1.1460217   -7.2417486    274.15388  0.030502212  0.031100595            1 
  750000    1.1443557   -7.2899061    274.06467   0.03045163  0.031090733            2 
  751000     1.123056   -7.2750635    274.51661  0.030461231  0.031080731            2 
  752000    1.1156648   -7.2807701    274.28616  0.030395186  0.031070141            3 
  753000    1.1030816   -7.2999272     274.0472  0.030328376  0.031059659            3 
  754000    1.1047249   -7.3102102    274.78206   0.03036937  0.031049013            3 
  755000    1.1195721   -7.3243516    274.01114  0.030244055  0.031038133            3 
  756000    1.1341921   -7.3370283    276.26168  0.030452125  0.031027712            1 
  757000    1.0948714   -7.2615607     275.6459  0.030344111  0.031017549            3 
  758000    1.1286314   -7.3766329    276.24769  0.030370238  0.031007386            1 
  759000    1.1288715   -7.2964336    276.81993  0.030393053  0.030997227            1 
  760000    1.1276792   -7.2905992    277.63834  0.030442801  0.030987348            1 
  761000    1.1540336   -7.2794188    277.58512  0.030396968  0.030977568            2 
  762000    1.1318634   -7.2815919    277.94561  0.030396502  0.030967642            2 
  763000     1.130068   -7.2695007    278.35109   0.03040095  0.030958028            2 
  764000    1.1231257   -7.2948593    278.48466  0.030375727  0.030948341            2 
  765000    1.1382802   -7.2932527    279.04898  0.030397492  0.030938644            2 
  766000    1.1078128   -7.3057274    277.80342  0.030222305  0.030928647            2 
  767000    1.1488144   -7.2956827    279.26746  0.030341967  0.030918643            2 
  768000     1.137342   -7.3242418    279.49725  0.030327392  0.030909142            1 
  769000    1.1490583   -7.3069727     279.2466  0.030260793  0.030899478            1 
  770000    1.1444557   -7.3041069    280.06876  0.030310472  0.030889797            1 
  771000    1.1085545   -7.2736861    281.46299  0.030421853  0.030880235            3 
  772000     1.110251   -7.2869693    281.12176  0.030345613  0.030870775            2 
  773000    1.1436223   -7.2506046    281.04734  0.030298333  0.030860953            4 
  774000    1.1454248   -7.2992552    281.76191  0.030336123  0.030851415            3 
  775000    1.1120755   -7.2688352    282.97528  0.030427449  0.030842229            4 
  776000    1.1234561    -7.284737    282.24835  0.030310175  0.030833101            1 
  777000    1.1449372   -7.2784839     283.1271  0.030365412  0.030824049            2 
  778000    1.1430652   -7.3023252    283.94987  0.030414511  0.030815003            2 
  779000    1.1498542    -7.283477    283.39955  0.030316597  0.030805948            2 
  780000    1.1285105    -7.269806    283.84033  0.030324822  0.030797018            1 
  781000    1.1506872   -7.3082158    284.49905  0.030356279  0.030788077            3 
  782000    1.1290041   -7.2937439    284.42214  0.030309265  0.030779048            1 
  783000    1.1160411   -7.3224447    284.29171  0.030256674  0.030769938            1 
  784000    1.1226304   -7.2865758     284.9424  0.030287245  0.030760809            2 
  785000    1.0965096   -7.3377139     284.8225  0.030235934    0.0307517            4 
  786000    1.1323806   -7.2714906     285.8371  0.030305037  0.030742849            1 
  787000    1.1480288   -7.3014134    285.44502  0.030225012  0.030734013            1 
  788000    1.1326118   -7.2720268    286.33204  0.030280461  0.030725287            1 
  789000    1.1279633   -7.3059985    286.44884  0.030254419  0.030716676            1 
  790000    1.1322894   -7.3199419    286.90411  0.030264146  0.030707874            3 
  791000    1.1252475   -7.3129827    287.86044  0.030326637  0.030699176            2 
  792000    1.1563708   -7.2997786     287.9221  0.030294833  0.030690448            3 
  793000    1.1208133   -7.3029431    288.63633  0.030331687  0.030681886            1 
  794000    1.1135266   -7.3138336    287.75778  0.030201278  0.030673006            2 
  795000    1.1248423   -7.2954984     288.5009  0.030241184  0.030664036            2 
  796000     1.155623   -7.2955883    288.14748  0.030166194  0.030655384            2 
  797000    1.1208022   -7.2738968    289.33969     0.030253  0.030646806            1 
  798000     1.120995   -7.3438493    289.31574  0.030212588  0.030638121            2 
  799000    1.1483963   -7.3543148    288.78541  0.030119463  0.030629132            1 
  800000    1.1055176   -7.2950589    291.06231   0.03031899  0.030620083            1 
  801000    1.1227111   -7.2902619    290.94589  0.030269027  0.030611884            3 
  802000    1.1079774    -7.321352    291.21842  0.030259603  0.030603651            1 
  803000     1.170219   -7.3290278    291.38727  0.030239443  0.030595306            2 
  804000    1.1325354   -7.2993055    290.73553  0.030134279  0.030586831            1 
  805000    1.1268686   -7.3292004    292.27664  0.030256381  0.030578324            1 
  806000    1.1133063   -7.3189723    291.22662  0.030110279  0.030569994            1 
  807000    1.1465366   -7.3087093    291.96613  0.030149332  0.030561228            3 
  808000    1.1441962   -7.2833932    292.26863  0.030143217  0.030552638            1 
  809000     1.134553   -7.3219315    293.02589  0.030183961  0.030544246            1 
  810000    1.1280163     -7.32088    293.10928  0.030155275  0.030535587            1 
  811000    1.1042316   -7.3208705    294.20787  0.030230977  0.030527425            1 
  812000    1.1099106    -7.301878    294.05258   0.03017781  0.030519409            1 
  813000    1.1436227   -7.2710613     294.1916  0.030154941   0.03051128            1 
  814000     1.111043   -7.3176568    294.89649  0.030190059   0.03050289            3 
  815000     1.111381    -7.341867    295.28944  0.030193195   0.03049511            2 
  816000    1.1293662   -7.3138119    295.53947  0.030181727    0.0304871            1 
  817000    1.1449306   -7.3477422    295.54178  0.030145021  0.030479139            1 
  818000    1.1404555   -7.3075105    296.59087  0.030215044  0.030471576            1 
  819000    1.1077123   -7.3105376     296.3524  0.030153887  0.030463956            1 
  820000    1.1124303   -7.3288931    297.67745  0.030251774  0.030456196            3 
  821000    1.1107586   -7.3227965    297.26824   0.03017339  0.030448785            2 
  822000    1.1454921   -7.3113369    297.74485  0.030185001  0.030441448            2 
  823000    1.1300611   -7.2842428    298.50254  0.030225044  0.030434086            1 
  824000    1.1048884   -7.3257087    298.86163  0.030224679  0.030426999            3 
  825000     1.114877   -7.3239511    298.09412  0.030110517  0.030419299            3 
  826000    1.1218949   -7.3045218    299.10529  0.030176078   0.03041188            1 
  827000    1.1241738   -7.3041184    299.32534  0.030161763  0.030404681            2 
  828000    1.1245073   -7.2628983    300.05884  0.030199158  0.030397415            4 
  829000    1.1409351    -7.316685    300.65106  0.030222261  0.030390056            1 
  830000    1.1164376   -7.2949763    300.81917  0.030202728  0.030382554            1 
  831000    1.1101521   -7.3177372    300.17199  0.030101483  0.030375044            1 
  832000    1.1034642   -7.2916014    301.31368  0.030179656  0.030367668            1 
  833000    1.1117758   -7.3156424    301.58301   0.03017037  0.030360109            4 
  834000    1.1542487   -7.3550364    301.59277  0.030135169  0.030352749            1 
  835000    1.1167914   -7.3105813    302.25067  0.030164738  0.030345334            2 
  836000    1.1173651   -7.3336706    301.34908  0.030038784  0.030338091            1 
  837000    1.1199451   -7.3060036    302.58748  0.030126193  0.030330729            2 
  838000    1.1256479    -7.336892    301.79338  0.030011275  0.030323213            2 
  839000    1.1119967   -7.3216124    302.78186  0.030073684  0.030315704            1 
  840000    1.1174248   -7.3479953    302.77585  0.030037287  0.030308067            1 
  841000    1.1165257     -7.33482    302.25306  0.029949768    0.0303006            2 
  842000    1.1020755   -7.3195141     304.4626  0.030132878  0.030293221            1 
  843000    1.1138342   -7.3219089    304.41839  0.030092763  0.030285969            1 
  844000    1.1154202   -7.3353266    304.40022  0.030055313  0.030278483            2 
  845000    1.1343699   -7.3016242    304.66005   0.03004537  0.030271039            1 
  846000    1.1089669   -7.3618811     304.3507  0.029979383  0.030263351            3 
  847000    1.1032213    -7.297591     306.4787  0.030153355    0.0302558            3 
  848000    1.1287067   -7.3376336    304.98682  0.029971189  0.030248622            1 
  849000     1.120461   -7.3166749    306.28387  0.030063199  0.030241401            2 
  850000    1.1112413   -7.3249712    306.59942  0.030058766  0.030234367            2 
  851000    1.1081849   -7.3321155     305.5718  0.029922816  0.030226757            2 
  852000    1.1107674   -7.3467093    306.52895  0.029981314   0.03021932            1 
  853000    1.1335874    -7.316599    307.08108  0.030000106  0.030211626            3 
  854000    1.0949425   -7.3363183    306.49282  0.029907574  0.030203872            4 
  855000    1.1322362   -7.4003921     306.3557   0.02985923  0.030196095            2 
  856000    1.1177638   -7.3093415    307.43698  0.029929613  0.030188164            1 
  857000    1.0813008     -7.31499    308.38686  0.029987053  0.030180564            1 
  858000    1.1177456   -7.3171233     307.6707  0.029882546   0.03017307            1 
  859000    1.0982519   -7.3522906    307.87105  0.029867195  0.030165428            1 
  860000    1.1043572    -7.295387    309.22231  0.029963403  0.030157514            2 
  861000    1.1023834   -7.3345328    308.74378  0.029882286  0.030149813            2 
  862000    1.1089989   -7.3273899    309.26555  0.029898062  0.030142343            2 
  863000    1.1215078    -7.353132    309.40738  0.029877113  0.030134893            3 
  864000    1.0786315   -7.3164549    309.65639   0.02986655  0.030127268            1 
  865000    1.1346342   -7.3502886    309.54851  0.029821629  0.030119382            2 
  866000    1.1306065   -7.3499707     310.0617  0.029836576  0.030111653            2 
  867000    1.0843311   -7.3181137    311.46925  0.029937452  0.030103936            1 
  868000    1.0965757   -7.3443818    310.37961   0.02979835   0.03009638            2 
  869000    1.1133825   -7.3132386    311.33914  0.029856074  0.030088511            2 
  870000    1.1290507    -7.360305    311.10459   0.02979929  0.030080729            1 
  871000     1.107793   -7.3124648    312.59604  0.029907773  0.030073457            1 
  872000    1.1007865   -7.3008733    312.33314  0.029848351  0.030066057            2 
  873000    1.1172567   -7.3367635    312.76117  0.029855018  0.030058618            2 
  874000    1.1316088   -7.3436548    313.47399  0.029888825  0.030051289            1 
  875000    1.0906276   -7.3687766    313.51704  0.029858766  0.030043984            2 
  876000    1.1265898   -7.3310523    313.68673  0.029840823  0.030036835            2 
  877000    1.1127151   -7.2999478    315.03865  0.029935258  0.030029723            1 
  878000    1.1080698   -7.3068577    314.80079  0.029878587   0.03002298            3 
  879000    1.1065735   -7.3577458    314.91864  0.029855768  0.030016246            1 
  880000    1.1206983   -7.3358294    314.85176  0.029815508  0.030009422            1 
  881000    1.0860343   -7.3425994    315.02392  0.029797949  0.030002566            1 
  882000    1.0834291   -7.3723827    315.01177  0.029763017  0.029995601            2 
  883000    1.0942441   -7.3553359    315.61447   0.02978619  0.029988661            4 
  884000    1.1003732   -7.3472724    315.68567  0.029759207  0.029981667            3 
  885000    1.1212992    -7.356538    316.79341  0.029829888  0.029974783            3 
  886000    1.1408304   -7.3513924    316.83968  0.029800572  0.029967763            3 
  887000    1.1175959   -7.3371277    317.65048  0.029843149  0.029961272            1 
  888000    1.1145452   -7.3010081    319.31659  0.029965896  0.029954715            2 
  889000    1.1302053   -7.3433062    318.29691  0.029836605  0.029948024            2 
  890000     1.123692   -7.3358376    317.94479  0.029770111  0.029941452            1 
  891000    1.0939032   -7.3508284    318.62931  0.029800721  0.029934728            2 
  892000    1.1152304   -7.3530415    319.59186  0.029857236  0.029927949            1 
  893000    1.0997019   -7.3284512    319.27028  0.029793792  0.029921205            1 
  894000     1.106471   -7.3889663    318.88251  0.029724321    0.0299144            1 
  895000    1.1214082   -7.3405078    320.32882  0.029825775  0.029907631            3 
  896000    1.1039968   -7.3510921    320.86182  0.029842059  0.029901362            1 
  897000    1.1314136   -7.3426744    321.72701  0.029889169  0.029894812            3 
  898000     1.117747   -7.3553103    320.54934  0.029746598  0.029888585            4 
  899000     1.098885   -7.3247998    322.35056  0.029880475  0.029882407            1 
  900000    1.0846969   -7.3568891      321.857  0.029801574  0.029876281            1 
  901000    1.1069045   -7.3419538    321.98812  0.029780625  0.029869797            4 
  902000    1.1205779   -7.3590506    322.63607  0.029807472  0.029863457            2 
  903000    1.0927466   -7.3718084    323.47259   0.02985166  0.029856988            1 
  904000     1.113677   -7.4010069    321.63062   0.02964884  0.029850143            2 
  905000    1.1216636   -7.3768769    323.09982  0.029751364  0.029843291            1 
  906000    1.0881752   -7.3555999    322.64629  0.029676811  0.029836342            2 
  907000    1.0888989   -7.3393327    323.22102  0.029696896  0.029829552            1 
  908000    1.1119721   -7.3838726    323.22275   0.02966435  0.029822588            1 
  909000    1.1091169   -7.3139934    324.85525  0.029781376  0.029815901            1 
  910000    1.1163573   -7.3084058      325.352  0.029794139  0.029809319            2 
  911000    1.1128198   -7.3827674    323.23235   0.02956754  0.029802619            1 
  912000    1.0950966   -7.3498574    324.45284  0.029646641  0.029795607            2 
  913000    1.1144887   -7.3396097    325.70073   0.02972807  0.029788827            1 
  914000    1.1042455   -7.3679213    324.88114  0.029620818  0.029782011            1 
  915000    1.1218431   -7.3132213    324.89968  0.029590135  0.029775135            2 
  916000    1.1157399   -7.3912581    325.26712  0.029591259   0.02976851            1 
  917000    1.0972373   -7.3033103      327.698  0.029779898  0.029762035            4 
  918000    1.0902385   -7.3118311    327.71962  0.029749421  0.029755502            1 
  919000    1.0951092   -7.3814731    325.99529   0.02956069  0.029748848            3 
  920000    1.0915173   -7.3544238    327.26266  0.029643357   0.02974216            2 
  921000    1.1075866   -7.3317762    327.79425   0.02965927  0.029735538            2 
  922000    1.0979823   -7.3549228    328.62322  0.029702027  0.029729053            1 
  923000    1.1056537   -7.3553915    328.42304  0.029651773  0.029722596            2 
  924000     1.088557   -7.3394683     328.5909  0.029634821  0.029715966            1 
  925000    1.1185208   -7.3625491    327.87416  0.029538213  0.029709247            2 
  926000    1.1079692   -7.3240852    329.67361  0.029668252   0.02970264            1 
  927000    1.0911231   -7.3592098    330.15011  0.029679082  0.029695816            5 
  928000    1.1160166   -7.3639125    329.78757  0.029614544   0.02968924            5 
  929000    1.1122699   -7.3751483     329.5473  0.029561114  0.029682449            1 
  930000    1.0934667   -7.3422409    329.66968  0.029540294  0.029675676            1 
  931000    1.1144979   -7.3357893    330.34269  0.029568805  0.029668945            1 
  932000    1.0770365   -7.3869351    329.94209  0.029501259  0.029661798            2 
  933000    1.1149695   -7.3651187    330.90478  0.029555625  0.029654861            2 
  934000    1.1125852   -7.3497132    330.62004  0.029498576  0.029648051            1 
  935000    1.1015449   -7.3176754    330.76338  0.029479802  0.029641262            1 
  936000    1.0824375   -7.3368341    330.70774  0.029443353  0.029634579            2 
  937000    1.1119953   -7.3954631    331.63807   0.02949467  0.029627691            1 
  938000    1.1213725   -7.3669635    332.49798  0.029539622  0.029620802            3 
  939000    1.1278323   -7.3307954    332.84675  0.029539116  0.029614206            5 
  940000    1.1169179   -7.3748937    332.22773  0.029452813  0.029607613            1 
  941000    1.1003094   -7.3318179    334.16329  0.029592924  0.029601086            2 
  942000    1.0754279   -7.3600721    333.98908  0.029546097  0.029594441            1 
  943000    1.1039556   -7.3773572    333.70601   0.02948975  0.029587839            1 
  944000     1.101418   -7.3642331     333.6671  0.029455076  0.029580911            2 
  945000    1.0800779   -7.3426569     333.1305  0.029376587  0.029574375            1 
  946000    1.0955578   -7.3657615    333.22754  0.029354082  0.029567334            2 
  947000    1.1297347   -7.3569617    334.73091  0.029455377  0.029560284            1 
  948000    1.0826936    -7.402182    334.16139  0.029374243  0.029553376            1 
  949000    1.0916531   -7.3935196    334.59483  0.029381351  0.029546421            2 
  950000    1.1212615   -7.3017599    335.61515  0.029439925  0.029539436            1 
  951000    1.0964309   -7.3553687     334.4409  0.029306073  0.029532532            4 
  952000    1.0913932   -7.3746903    336.11343  0.029421694  0.029525539            1 
  953000    1.0829167   -7.3909414    335.97921  0.029379085  0.029518798            1 
  954000    1.1077081   -7.3284157     336.3253  0.029378521  0.029511937            2 
  955000     1.105934   -7.3353901    336.74613  0.029384479  0.029505192            1 
  956000    1.0629585   -7.3363399    337.07509  0.029382417  0.029498358            2 
  957000    1.0926667   -7.3722168    336.38877  0.029291951  0.029491513            1 
  958000    1.0920708   -7.3297413    338.28537  0.029426354  0.029484521            3 
  959000     1.081889   -7.3772846     337.4305  0.029321385  0.029477653            1 
  960000     1.099738   -7.4306965    337.99036  0.029339441  0.029470648            1 
  961000    1.1141054   -7.3880236    337.69813   0.02928357  0.029463665            2 
  962000    1.1149938   -7.3596563    339.13947  0.029377986  0.029456988            1 
  963000    1.1054842   -7.3807482    339.53353  0.029381579  0.029450315            1 
  964000      1.09427   -7.3839817    339.97509  0.029389271  0.029443774            2 
  965000    1.0945846   -7.3828593    339.87908  0.029350525  0.029437352            1 
  966000    1.0987465   -7.3603718    341.24282  0.029437786  0.029430807            2 
  967000    1.1249558   -7.3792671    342.06111  0.029477862  0.029424575            2 
  968000    1.0932093    -7.352827    340.70527  0.029330688  0.029418449            2 
  969000    1.0871526   -7.3833278    341.53362  0.029371657  0.029412093            3 
  970000    1.0929307   -7.4087869     340.2564  0.029231649  0.029405522            3 
  971000    1.1217075   -7.3909066    342.07281  0.029357433  0.029399056            2 
  972000    1.0864029   -7.3717134    342.81523  0.029390881  0.029392811            1 
  973000    1.0972908   -7.3986189    341.37953  0.029237712  0.029386248            2 
  974000    1.0974797   -7.3921201    342.19821  0.029277739  0.029379714            1 
  975000    1.0934501   -7.3808054    342.70838  0.029291315   0.02937319            1 
  976000    1.1103504   -7.3932991    343.87678  0.029361064  0.029366769            2 
  977000    1.1008291   -7.3470054    343.74819  0.029320043  0.029360179            1 
  978000    1.1224958   -7.3740314    344.12074  0.029321808  0.029353927            2 
  979000    1.0922266   -7.3621451    344.11351  0.029291242   0.02934752            2 
  980000    1.0846226   -7.3609982      345.483  0.029377806  0.029341202            1 
  981000    1.1063682   -7.4003414    344.95482  0.029302992    0.0293349            1 
  982000     1.071603   -7.3283186    346.37587  0.029393743  0.029328799            1 
  983000    1.1024955   -7.3860203    345.64525  0.029301903  0.029323064            2 
  984000    1.1268923   -7.3735815    345.86077  0.029290377  0.029317134            1 
  985000    1.0850995   -7.3737631    346.47076  0.029312247  0.029311082            2 
  986000    1.0910523    -7.325983    347.49755  0.029369299  0.029305036            1 
  987000    1.0731145   -7.3760861    346.95356  0.029293614  0.029299056            1 
  988000    1.1077819   -7.3696316     346.9177  0.029260939  0.029293087            2 
  989000    1.0923534   -7.3934076    348.13414  0.029333851  0.029286908            2 
  990000    1.1075432   -7.3272554    349.56528  0.029424687  0.029281067            2 
  991000    1.1044179   -7.3660541    347.94668  0.029258887  0.029275307            2 
  992000    1.1002932    -7.356749     348.9319  0.029312155   0.02926934            2 
  993000    1.0950669    -7.436953    348.14704  0.029216771  0.029263287            1 
  994000    1.0820919    -7.351178    349.40666  0.029292979  0.029257281            1 
  995000    1.0826757   -7.3552902    349.93785  0.029308027    0.0292516            1 
  996000    1.0983406   -7.3975851    349.98896  0.029282878  0.029245892            3 
  997000    1.0713783   -7.3671709    350.76547  0.029318411  0.029240395            2 
  998000    1.0820686   -7.4062613    350.71823  0.029285089  0.029234689            2 
  999000     1.109247   -7.4188563    351.22238  0.029297829  0.029228803            2 
 1000000    1.0966639   -7.3797991    352.07054  0.029339211  0.029223016            1 
 1001000    1.0693343   -7.3957627    352.79879  0.029370529  0.029217714            3 
 1002000    1.0644064   -7.3788879    352.94416  0.029353307  0.029212372            2 
 1003000    1.0941803   -7.4007388    352.34325  0.029274115  0.029206934            3 
 1004000    1.0866284   -7.4364883    353.07236  0.029305475  0.029201438            2 
 1005000    1.0956394   -7.3937333     352.5962  0.029236833  0.029196004            4 
 1006000    1.0574995   -7.3309821    355.51955   0.02944993  0.029190674            6 
 1007000    1.0835243   -7.4226123     354.5256  0.029338431  0.029185347            3 
 1008000     1.090559   -7.3162641    356.56369  0.029477818  0.029180265            1 
 1009000    1.0889203    -7.371385     354.6375  0.029289519  0.029175388            2 
 1010000    1.1001115   -7.3624275    355.44369  0.029327037  0.029170422            3 
 1011000    1.0847394   -7.4518969       355.56  0.029307616   0.02916531            1 
 1012000    1.1050108   -7.3552756    356.50364   0.02935636  0.029160075            1 
 1013000    1.0859194   -7.3981931    356.90422  0.029360334  0.029155037            2 
 1014000    1.0784253    -7.377839    357.66821  0.029394166  0.029149829            2 
 1015000    1.0679999   -7.3301302    357.43978  0.029346452  0.029144656            1 
 1016000    1.0974358   -7.3417508    356.95663  0.029277939  0.029139342            1 
 1017000    1.1239732   -7.3724433    356.62056  0.029221612  0.029134015            3 
 1018000    1.0757175   -7.3962647    356.75541  0.029203946   0.02912854            2 
 1019000    1.0615345   -7.3802997    357.46928  0.029233667  0.029122894            1 
 1020000     1.084628   -7.4032736    357.98444  0.029247095  0.029117524            2 
 1021000    1.1106906   -7.3670681     358.9055  0.029293626  0.029112208            1 
 1022000    1.0952071   -7.3776811    358.08574   0.02919812  0.029106901            4 
 1023000    1.0716737   -7.3628506    358.27513  0.029185006  0.029101401            2 
 1024000    1.0757599   -7.3980195    358.76227  0.029196149  0.029096039            2 
 1025000    1.1006717   -7.3777016    359.97494  0.029266255  0.029090666            3 
 1026000    1.0878114   -7.3900879    359.28609  0.029181781  0.029085167            2 
 1027000    1.1042534   -7.4214865    359.48857  0.029169797  0.029079529            4 
 1028000     1.086238    -7.420946    359.12327  0.029111808  0.029073921            2 
 1029000    1.0764878   -7.3751853    361.33305  0.029262476  0.029068642            3 
 1030000    1.1111285   -7.3636943    361.36723  0.029236831  0.029063523            1 
 1031000    1.0756111   -7.4118527    360.39427  0.029129831   0.02905832            2 
 1032000    1.0659922    -7.373728    362.06285  0.029236342   0.02905301            1 
 1033000    1.0850938   -7.4267145    361.13814  0.029133441  0.029047675            2 
 1034000    1.0969299   -7.3888303    361.15647  0.029106743  0.029042256            1 
 1035000    1.0861339   -7.3925864    361.96427  0.029143661  0.029037038            1 
 1036000    1.0952749   -7.4139618    361.50173  0.029078325  0.029031821            2 
 1037000    1.0887442   -7.3785352    363.48707  0.029209826   0.02902678            2 
 1038000    1.1003612    -7.416461    363.22573  0.029160704  0.029021532            1 
 1039000    1.0751801   -7.4419321    362.60022  0.029082469  0.029016224            2 
 1040000     1.102826   -7.4550129     363.1393    0.0290977  0.029010886            2 
 1041000    1.0731778   -7.4240223    362.92107  0.029052279  0.029005585            1 
 1042000    1.0955643   -7.4241342     363.2063  0.029047209  0.029000011            3 
 1043000    1.0857174   -7.3862547    363.49051  0.029042067   0.02899443            3 
 1044000    1.0949646   -7.4325074    363.54873  0.029018896  0.028988709            2 
 1045000    1.0835855   -7.3930224    364.13951  0.029038239  0.028982866            1 
 1046000    1.0839982   -7.4146433    365.50682  0.029119409  0.028977322            1 
 1047000    1.0933506     -7.33902    366.32859  0.029157003  0.028972142            3 
 1048000    1.0773883   -7.3968109     366.0325  0.029105637  0.028966965            2 
 1049000    1.0694036    -7.372588    366.49231   0.02911442  0.028961568            1 
 1050000    1.0692251   -7.4353567    365.82892  0.029034041  0.028956147            3 
 1051000    1.0677233   -7.3636668    366.30633   0.02904427  0.028950797            2 
 1052000    1.1089742    -7.422831    366.69962  0.029047815  0.028945499            2 
 1053000    1.0919273   -7.4098641    367.24519  0.029063405  0.028940164            2 
 1054000    1.0795286   -7.4066515     367.8651  0.029084844  0.028934533            2 
 1055000    1.0772131   -7.4434002    367.08869  0.028995947  0.028929016            1 
 1056000    1.0816365    -7.411656    367.82039   0.02902623  0.028923353            5 
 1057000    1.0812285   -7.3812992    367.64373  0.028984841  0.028917898            2 
 1058000    1.0940822   -7.3924373    368.77501  0.029046551   0.02891242            2 
 1059000    1.0608424   -7.3913255    369.58731  0.029083043  0.028906894            1 
 1060000    1.0648676   -7.4292063    368.55683  0.028974593  0.028901597            5 
 1061000    1.1054723   -7.4271718    368.24247  0.028922594  0.028896114            3 
 1062000    1.0421172   -7.4465586    368.41304  0.028908744  0.028890434            1 
 1063000    1.0920301   -7.4090076    367.35899  0.028798918  0.028884336            2 
 1064000    1.0786169   -7.3619076    369.78584  0.028961924  0.028878577            1 
 1065000    1.0930498   -7.3983398    369.14865  0.028884871  0.028873083            3 
 1066000    1.0713442   -7.4032215    369.71373  0.028901949  0.028867385            4 
 1067000    1.0789547   -7.4134474    370.12906  0.028907299  0.028861731            1 
 1068000    1.0905109   -7.3733772    370.24198  0.028889043  0.028855752            2 
 1069000     1.111522   -7.4103949    369.68161  0.028818335  0.028849838            1 
 1070000    1.0679974   -7.4355222    369.88689   0.02880739  0.028843816            4 
 1071000    1.0915241   -7.4017148    371.24492   0.02888616  0.028837867            1 
 1072000    1.0694746   -7.3834358    370.67192  0.028814671  0.028831997            2 
 1073000    1.0700932   -7.4262635    371.88124  0.028881737   0.02882632            3 
 1074000     1.071963   -7.4254067    371.40843  0.028818159  0.028820418            1 
 1075000    1.0837633    -7.366539     372.3386  0.028863457  0.028814616            4 
 1076000    1.0611933   -7.4302197    372.10504  0.028818544  0.028808796            1 
 1077000    1.0903171   -7.4428753    374.08113  0.028944686  0.028803069            4 
 1078000    1.0735116   -7.4488098    373.32738  0.028859568  0.028797534            1 
 1079000    1.0748278   -7.4144098    374.05346  0.028888898  0.028792065            3 
 1080000    1.0876862   -7.4007941     374.4054  0.028889306  0.028786637            2 
 1081000    1.0653918   -7.4237881    374.08951  0.028838229  0.028781025            3 
 1082000    1.0600266   -7.4130012    375.16512  0.028894418  0.028775429            6 
 1083000    1.0929041   -7.4112232    374.25394  0.028797625  0.028769984            1 
 1084000    1.0657332   -7.3696778    376.28429  0.028927144  0.028764448            2 
 1085000    1.0794481   -7.4003286    375.70826  0.028856241  0.028759111            1 
 1086000    1.0710165   -7.4026453     376.7544  0.028909945  0.028753724            1 
 1087000    1.0909656   -7.4174272    375.82676  0.028812233  0.028748054            2 
 1088000    1.0766846   -7.3845166    377.42044  0.028907816  0.028742556            3 
 1089000    1.0725947   -7.4259289    375.52442  0.028736182  0.028736794            1 
 1090000    1.0597605   -7.4104089    377.06383   0.02882751  0.028731085            2 
 1091000    1.0606509   -7.4503363    376.26851  0.028740338   0.02872542            2 
 1092000    1.0999366   -7.4282399    377.39999  0.028800366  0.028719847            3 
 1093000    1.0798585   -7.4191848    377.52739  0.028783729  0.028714388            4 
 1094000    1.0745553   -7.4507801    377.94032  0.028788872  0.028708876            2 
 1095000    1.0851688   -7.4211799    378.39702  0.028797338   0.02870334            2 
 1096000    1.0639734   -7.4270857    378.63015  0.028788789   0.02869785            2 
 1097000    1.0918471    -7.406026    379.79492  0.028851027  0.028692524            1 
 1098000    1.0768941   -7.4238852    378.27899  0.028709698   0.02868714            1 
 1099000    1.0815358    -7.411594    379.29883  0.028760906  0.028681637            2 
 1100000    1.0524073    -7.417765      379.505  0.028750379  0.028676087            2 
 1101000    1.0780475   -7.3883451    379.62931  0.028733675  0.028670522            2 
 1102000    1.0848745   -7.4509423    380.00328   0.02873588   0.02866487            2 
 1103000     1.100198   -7.4488168     379.8482  0.028698112  0.028659156            3 
 1104000    1.1116253   -7.4273667    379.97658  0.028681807  0.028653354            3 
 1105000    1.0626473   -7.3993482    380.33697  0.028683029  0.028647609            2 
 1106000    1.0707043   -7.4419821    382.06101  0.028786996   0.02864189            2 
 1107000    1.0704197   -7.4304828    381.55075   0.02872258  0.028636269            2 
 1108000    1.0855052   -7.4192667    380.79373  0.028639721  0.028630621            1 
 1109000    1.0323151   -7.3977588    381.91351   0.02869804  0.028624992            1 
 1110000    1.0826225   -7.4181187    381.97978  0.028677161  0.028619272            3 
 1111000    1.0546964   -7.4090066    381.90255  0.028645556  0.028613463            1 
 1112000    1.0826029    -7.414887    381.55353   0.02859364  0.028607561            2 
 1113000    1.0678899   -7.4027069    382.68939  0.028652994  0.028601603            2 
 1114000    1.0615991   -7.4184091    382.47466   0.02861121  0.028595683            3 
 1115000    1.0896088   -7.4220701    382.10159  0.028557667  0.028589631            1 
 1116000    1.0729649   -7.4496211    381.90389  0.028517315  0.028583396            1 
 1117000    1.0616179   -7.4274809    383.82999  0.028635481  0.028577265            4 
 1118000    1.0663112   -7.4432484    383.03924  0.028550927  0.028571275            3 
 1119000     1.079846   -7.4121782    383.12111  0.028531509  0.028565372            2 
 1120000    1.0551748   -7.4098995    385.26473   0.02866553  0.028559588            2 
 1121000     1.052435   -7.3893761    385.56561  0.028662326  0.028553709            2 
 1122000    1.0751522   -7.3880541    384.88747  0.028586413  0.028547877            3 
 1123000    1.0315357   -7.4208731    383.98487  0.028493979  0.028541852            2 
 1124000    1.0897152   -7.4144586    385.07537  0.028549479  0.028535948            4 
 1125000    1.0680956   -7.3976375    386.24893  0.028611032  0.028530074            1 
 1126000    1.0682645   -7.4248436    385.88944  0.028559017  0.028523858            1 
 1127000    1.0890028    -7.396241    386.51347  0.028579819  0.028517749            1 
 1128000    1.0810293   -7.4632968    385.65636  0.028491161  0.028511688            3 
 1129000    1.0590252   -7.4234636     385.0464  0.028420903  0.028505618            1 
 1130000    1.0567942   -7.4363823    385.94264  0.028461847  0.028499574            2 
 1131000    1.0911989   -7.4047525    387.20931  0.028530011  0.028493556            3 
 1132000    1.0708181    -7.410272    387.17745  0.028502463  0.028487497            3 
 1133000    1.0573948     -7.39948    387.61562  0.028509534  0.028481414            1 
 1134000    1.0716416   -7.4216814    389.14507  0.028596786  0.028475448            2 
 1135000    1.0768756   -7.4589372    386.33727  0.028365438  0.028469241            2 
 1136000    1.0708988   -7.4290552    388.43921  0.028494661  0.028463001            1 
 1137000    1.0614224    -7.491935    385.94029  0.028286447  0.028456734            3 
 1138000    1.0760352   -7.4368431     388.6746  0.028461819  0.028450477            2 
 1139000    1.0553575   -7.4321068    388.18129  0.028400738  0.028444314            1 
 1140000    1.0709901   -7.4611115    388.56106  0.028403587  0.028438366            1 
 1141000    1.0922025   -7.4037355     390.3107  0.028506478  0.028432477            2 
 1142000    1.0749256    -7.462166    388.83811  0.028374059  0.028426629            1 
 1143000    1.0641728    -7.474237     389.3446  0.028386162  0.028420533            2 
 1144000    1.0630926   -7.4688079    388.24758  0.028281438  0.028414615            2 
 1145000    1.0591373   -7.3994219    391.39784  0.028486015  0.028408621            3 
 1146000    1.0652201   -7.4034599    390.45091    0.0283923  0.028402786            1 
 1147000    1.0781485   -7.4079738      392.346  0.028505231  0.028397205            3 
 1148000    1.0530275   -7.4414465    392.70221  0.028506258  0.028391653            2 
 1149000    1.0497939   -7.4381678    392.00901  0.028431173  0.028385853            1 
 1150000    1.0738125   -7.4022013     392.3356  0.028430116  0.028379994            2 
 1151000    1.0494619   -7.4176546    391.51514  0.028346013  0.028373975            2 
 1152000    1.0788946   -7.4777087    392.38256  0.028384155  0.028368217            2 
 1153000    1.0664414   -7.4236918    393.06175  0.028408626  0.028362261            1 
 1154000    1.0460335   -7.4276966      391.877  0.028298455  0.028356165            4 
 1155000    1.0485252   -7.3950126    392.66296  0.028330661  0.028349967            6 
 1156000    1.0639919   -7.4288992     392.9182  0.028324553  0.028343838            2 
 1157000    1.0857468   -7.4925132    392.55271  0.028273747  0.028337534            2 
 1158000    1.0746759   -7.4744278    393.82886  0.028341167  0.028331121            3 
 1159000    1.0578128   -7.4599755    393.67235  0.028305461  0.028325018            2 
 1160000    1.0640413   -7.4522518    394.95232  0.028373012   0.02831901            3 
 1161000    1.0686184   -7.4686291    393.03488  0.028210944  0.028312777            5 
 1162000    1.0720283   -7.4093693    394.36849  0.028282307  0.028306567            4 
 1163000    1.0680017   -7.4717236    395.41025  0.028332635  0.028300546            2 
 1164000    1.0614221   -7.4525426    395.37518  0.028305783  0.028294462            1 
 1165000    1.0630814    -7.435859     394.5567   0.02822294  0.028287978            1 
 1166000    1.0781563   -7.4600334    394.10655  0.028166563  0.028281503            2 
 1167000    1.0686997   -7.4604271    393.49729  0.028098921  0.028274926            1 
 1168000    1.0615005   -7.4156544    396.43526  0.028284479  0.028268518            2 
 1169000     1.069555   -7.4092212    395.72562  0.028209697  0.028262113            3 
 1170000    1.0692572   -7.4737683    395.56172  0.028173912  0.028255585            2 
 1171000    1.0374214   -7.4333903    395.76294  0.028164171  0.028249197            1 
 1172000    1.0796189   -7.4547017    395.80442   0.02814309  0.028242757            2 
 1173000    1.0469475   -7.4651655    396.00731  0.028133512  0.028236367            1 
 1174000    1.0543031   -7.4343829    397.76227  0.028234119  0.028230116            2 
 1175000     1.060761   -7.4345777    396.90627  0.028149381  0.028223838            1 
 1176000    1.0583872    -7.431786    398.36936  0.028229122  0.028217652            3 
 1177000    1.0540981   -7.4715608     398.0284  0.028180997  0.028211286            1 
 1178000    1.0608538   -7.4531912    397.13191  0.028093655  0.028204622            1 
 1179000    1.0437001    -7.469625    395.58225  0.027960295  0.028197849            2 
 1180000    1.0484021   -7.4384309    396.49661  0.028001173  0.028191079            3 
 1181000    1.0825495   -7.4495675    398.47441   0.02811702  0.028184467            2 
 1182000    1.0606411   -7.4816133    397.54637  0.028027804  0.028177828            5 
 1183000    1.0669741   -7.4480209     398.2806  0.028055833  0.028171202            1 
 1184000    1.0543361   -7.4361273    398.59268  0.028054102  0.028164485            1 
 1185000    1.0518254   -7.4352084    398.97772  0.028057505  0.028157904            1 
 1186000    1.0776908   -7.4824987    398.58682  0.028006382  0.028151429            2 
 1187000    1.0355175   -7.4539539    399.48639  0.028045941  0.028144755            2 
 1188000    1.0775624   -7.4890797    398.18642  0.027931146  0.028138118            6 
 1189000     1.073903   -7.4458918    398.99346  0.027964218  0.028131396            1 
 1190000    1.0436777   -7.4290209      400.708  0.028060784  0.028124797            3 
 1191000     1.066626   -7.4024148    400.71094  0.028037429  0.028118227            2 
 1192000    1.0592954   -7.4403407    400.67844  0.028011636  0.028111755            2 
 1193000     1.065208   -7.4383474    401.12946   0.02801966  0.028105423            2 
 1194000    1.0549941   -7.4869311    400.59781  0.027959088  0.028098988            2 
 1195000    1.0540274    -7.456322     401.1807  0.027976339   0.02809244            2 
 1196000    1.0582595   -7.4347657    402.34433  0.028034025  0.028085981            1 
 1197000    1.0721371   -7.4610535    400.87039  0.027907991  0.028079457            2 
 1198000    1.0548632   -7.4114479     402.8345   0.02802132  0.028073225            2 
 1199000    1.0609498   -7.4118291    404.67193  0.028125655  0.028067037            1 
 1200000    1.0812484   -7.4457181    404.41536    0.0280844  0.028060939            1 
 1201000    1.0528905   -7.4418534    403.68739  0.028010504  0.028054772            5 
 1202000    1.0957749   -7.4784348     404.1562  0.028019703  0.028048556            2 
 1203000    1.0568143   -7.4731875    404.18082  0.027998117  0.028042188            2 
 1204000    1.0728347   -7.4531977    403.79771  0.027948347  0.028035759            2 
 1205000    1.0791314   -7.4372637    404.51449  0.027974723  0.028029474            1 
 1206000    1.0542805   -7.4597665    405.74067  0.028036254  0.028023231            1 
 1207000    1.0776233   -7.4826428    405.43009  0.027991583  0.028016975            2 
 1208000    1.0316682   -7.4418184    405.31371  0.027960383  0.028010702            2 
 1209000    1.0805486   -7.5000898    404.97157  0.027913673  0.028004496            3 
 1210000    1.0602648   -7.4301988    407.11621  0.028038306   0.02799827            1 
 1211000    1.0557509   -7.4912201    406.29378  0.027958559  0.027992232            1 
 1212000    1.0566393   -7.5140996    406.18182  0.027927793    0.0279861            2 
 1213000    1.0660669   -7.4767392    405.17227  0.027835413  0.027979776            1 
 1214000    1.0657752   -7.4220125    409.28681  0.028094921  0.027973667            1 
 1215000    1.0686004   -7.4852276    407.54684  0.027952458  0.027967504            1 
 1216000    1.0444074   -7.4279687    407.04869  0.027895332  0.027961307            3 
 1217000    1.0621139   -7.4632152    407.63135  0.027912308   0.02795507            1 
 1218000    1.0773581   -7.4631548    407.08547  0.027852044  0.027948815            1 
 1219000    1.0663032   -7.4656819    408.41838  0.027920316  0.027942732            2 
 1220000    1.0428512   -7.4719363    408.43121  0.027898306  0.027936511            4 
 1221000    1.0585067   -7.4724567    408.53026  0.027882218  0.027930261            2 
 1222000    1.0641157   -7.4801435    409.79771  0.027945834   0.02792398            3 
 1223000    1.0724788   -7.4493749    410.49171  0.027970272  0.027917893            1 
 1224000    1.0577394   -7.4976281    407.74344   0.02776031   0.02791173            1 
 1225000    1.0673616   -7.4393891    410.54987  0.027928563  0.027905437            1 
 1226000    1.0563899   -7.4483557    409.51189  0.027835229  0.027899081            2 
 1227000    1.0693646   -7.4449956    410.76728  0.027897805  0.027892672            3 
 1228000    1.0627677   -7.4445936    410.73591  0.027872958  0.027886301            1 
 1229000    1.0624331   -7.4609859    409.79349  0.027786377  0.027879866            2 
 1230000    1.0618953   -7.4694627    410.22127  0.027792769  0.027873296            3 
 1231000    1.0448698   -7.4391263    410.40415  0.027782572  0.027866839            2 
 1232000     1.072846   -7.4845288    409.55533  0.027702606  0.027860185            2 
 1233000    1.0538486   -7.4523877     411.1336  0.027786807  0.027853417            1 
 1234000    1.0537533   -7.4612055    410.27438  0.027706265  0.027846528            1 
 1235000    1.0392075   -7.4690712    411.49831  0.027766417  0.027839684            6 
 1236000    1.0625886   -7.4361327    412.51073  0.027812212  0.027833042            1 
 1237000    1.0706799   -7.4400169     412.4963  0.027788756  0.027826557            3 
 1238000    1.0409513   -7.4395665    412.71728  0.027781184  0.027820063            2 
 1239000    1.0392656   -7.4705905    412.57853  0.027749431  0.027813529            2 
 1240000    1.0567276    -7.461122    412.77197  0.027740052   0.02780694            2 
 1241000    1.0306331   -7.5036487    412.13786  0.027675118  0.027800541            1 
 1242000    1.0512351   -7.4682766    412.97532  0.027709026   0.02779412            1 
 1243000    1.0306585   -7.5053888    413.19183  0.027701249  0.027787487            1 
 1244000    1.0666664   -7.4933891    412.79537  0.027652423  0.027780947            2 
 1245000    1.0303841    -7.482555    412.61503  0.027618141  0.027774389            1 
 1246000    1.0724595   -7.5138092    414.34329  0.027711563  0.027767803            1 
 1247000    1.0543745   -7.4625424    413.84243  0.027655869   0.02776122            2 
 1248000    1.0573558   -7.4827853    414.27398  0.027662525  0.027754573            1 
 1249000    1.0516469   -7.4823564    413.73938  0.027604709  0.027748032            1 
 1250000     1.039706   -7.4691079    414.68991  0.027645994  0.027741315            3 
 1251000    1.0675504   -7.4641037    414.51581  0.027612298  0.027734531            1 
 1252000    1.0550956   -7.5383866    414.76159  0.027606602  0.027727909            1 
 1253000    1.0635774   -7.4596554    415.60789  0.027640854    0.0277213            1 
 1254000    1.0517154   -7.4614328    416.43401  0.027673712  0.027714718            1 
 1255000    1.0531308     -7.44278    416.98144  0.027688011  0.027708178            1 
 1256000    1.0248267   -7.4852516    416.61367  0.027641565  0.027701774            1 
 1257000    1.0355793   -7.4686276    417.08213  0.027650632  0.027695346            2 
 1258000    1.0695404   -7.5019751     417.4752   0.02765469   0.02768904            3 
 1259000    1.0432503   -7.4820454    416.83248  0.027590182  0.027682607            2 
 1260000    1.0386206   -7.5115455    416.24356  0.027529336  0.027676082            3 
 1261000    1.0459478   -7.4961915    416.78914  0.027543559  0.027669654       -1e+20 
 1262000    1.0533514   -7.4458841    416.75974  0.027519793  0.027663058            2 
 1263000    1.0506023   -7.5057609    417.35196  0.027537078  0.027656377            1 
 1264000    1.0414367   -7.5179716    417.29713  0.027511678  0.027649649            2 
 1265000    1.0469772   -7.4570236    418.48514  0.027568191  0.027642952            1 
 1266000    1.0408479   -7.4599545    417.28437  0.027467376  0.027636215            3 
 1267000    1.0457377   -7.4952781    417.64541  0.027469443   0.02762942            5 
 1268000    1.0546054   -7.4865274    418.23782  0.027486713  0.027622555            3 
 1269000      1.05325   -7.4792082    417.58207   0.02742199  0.027615645            3 
 1270000    1.0614098   -7.4946953    417.87237  0.027419447  0.027608827            1 
 1271000    1.0505582   -7.4792652    418.63636  0.027447965  0.027601916            3 
 1272000    1.0335515   -7.5150485    417.90371  0.027378388  0.027595048            1 
 1273000    1.0645845   -7.4839211    418.51072  0.027396617  0.027587987            1 
 1274000    1.0575822   -7.4338997    419.88307  0.027464879   0.02758111            3 
 1275000    1.0358673   -7.4572072    420.83049  0.027505261  0.027574253            2 
 1276000    1.0359368   -7.4804782    420.48705  0.027461276   0.02756737            2 
 1277000    1.0461605   -7.5209167    418.55902  0.027313954  0.027560391            2 
 1278000    1.0342607   -7.5198794    419.63835   0.02736296  0.027553295            2 
 1279000    1.0578668   -7.4753587    419.88886  0.027357888  0.027546023            3 
 1280000     1.073481   -7.5023212     419.5694  0.027315716  0.027539052            2 
 1281000    1.0477972   -7.5270738     419.0821  0.027262692  0.027531738            2 
 1282000    1.0552084   -7.4788932    419.70648  0.027282013  0.027524399            1 
 1283000     1.044916   -7.5017332    420.81378  0.027332669  0.027517342            1 
 1284000    1.0585232   -7.4813803    421.19305  0.027335997  0.027510268            1 
 1285000    1.0441805   -7.4968729    421.00225  0.027302351  0.027503047            1 
 1286000    1.0408962   -7.5012698    420.83755  0.027270448  0.027495856            1 
 1287000    1.0203475   -7.4795032    421.04698  0.027262819  0.027488612            2 
 1288000    1.0491061   -7.4702907    422.12041  0.027311103   0.02748156            1 
 1289000    1.0379212   -7.4979776    421.24084  0.027233052  0.027474453            2 
 1290000    1.0569426   -7.4981946    422.52112  0.027294646  0.027467335            2 
 1291000    1.0840789   -7.5058831    423.04967  0.027307622  0.027460234            1 
 1292000    1.0371469   -7.4980671    422.20282  0.027231864  0.027453143            1 
 1293000    1.0600571   -7.5064253    423.59705  0.027300661  0.027446201            3 
 1294000    1.0436008   -7.5227531    423.13788  0.027249992  0.027439159            1 
 1295000     1.042955   -7.5577291    423.02409  0.027221628  0.027432061            1 
 1296000    1.0620082   -7.4889694    424.76252  0.027312405  0.027425026            1 
 1297000     1.034679   -7.5137608    423.89766  0.027235779  0.027417907            2 
 1298000    1.0321798   -7.4900756    424.64164  0.027262561  0.027410787            1 
 1299000    1.0343445   -7.4968677    425.26775  0.027281739  0.027403957            2 
 1300000    1.0425223   -7.5027349    425.08351  0.027248943   0.02739708            2 
 1301000    1.0407034   -7.5425066    424.57999  0.027195746  0.027390008            4 
 1302000    1.0471597   -7.5276917    424.72992  0.027184455  0.027382831            1 
 1303000    1.0378254   -7.4979074    426.31405  0.027264905  0.027375919            1 
 1304000    1.0406729   -7.4662644    427.57108  0.027324328  0.027369078            1 
 1305000     1.041728   -7.4955479    426.67382  0.027246093  0.027362094            4 
 1306000    1.0613808   -7.4812744    426.46833  0.027212119  0.027355157            3 
 1307000    1.0364585   -7.4964026    427.36157  0.027248251  0.027348402            3 
 1308000    1.0540046   -7.4852805    427.98008  0.027266825  0.027341896            2 
 1309000    1.0485042   -7.5067967    426.72863  0.027166325  0.027335219            2 
 1310000    1.0292821   -7.4640508    428.16482  0.027236948  0.027328498            2 
 1311000    1.0386544   -7.5434966    426.87551  0.027134217  0.027321603            1 
 1312000    1.0562321   -7.5006653    429.00614  0.027248866  0.027314771            1 
 1313000    1.0293455   -7.4727959    429.50339  0.027259672  0.027308106            1 
 1314000    1.0172649   -7.5126785    428.69482  0.027187647  0.027301365            3 
 1315000    1.0491575   -7.4983408    427.98004  0.027121676  0.027294464            2 
 1316000    1.0152677   -7.5208383     428.0087  0.027102881  0.027287512            4 
 1317000    1.0553132   -7.5130692    427.25287  0.027034477  0.027280528            3 
 1318000    1.0360135    -7.499363    428.92071  0.027119418  0.027273543            4 
 1319000    1.0391051   -7.5310699    427.10608   0.02698421  0.027266451            2 
 1320000    1.0358656   -7.4870051    429.53326  0.027116999  0.027259445            1 
 1321000    1.0314032   -7.5149865     428.5127  0.027032091  0.027252304            2 
 1322000    1.0269408   -7.4958694    428.64737  0.027020132  0.027245106            3 
 1323000    1.0121198   -7.5745739    428.30739  0.026978293  0.027237902       -1e+20 
 1324000    1.0600742   -7.5006692    429.60094  0.027039334   0.02723068            1 
 1325000     1.053045   -7.5285473    429.14862  0.026990479  0.027223609            2 
 1326000    1.0440912   -7.5112671    429.75444  0.027008198   0.02721642            1 
 1327000     1.047639   -7.5236424     428.9618  0.026938068  0.027209249            1 
 1328000    1.0287343   -7.5054638     429.9145  0.026977566  0.027202147            3 
 1329000    1.0084972   -7.5088246    430.38456  0.026986742  0.027194995            2 
 1330000    1.0514793   -7.5267149    430.84457  0.026995274  0.027187805            2 
 1331000    1.0485272   -7.5193894    430.78252  0.026971107  0.027180775            2 
 1332000     1.022937   -7.4827703    431.89115  0.027020217  0.027173708            2 
 1333000    1.0187477   -7.4861191    431.84314  0.026996945  0.027166512            1 
 1334000    1.0401775   -7.5383129    431.24744  0.026939495   0.02715937            1 
 1335000    1.0353663   -7.4564201    433.19107  0.027040641  0.027152119            1 
 1336000    1.0531891    -7.527525    431.38559  0.026907784  0.027144829            2 
 1337000    1.0491327   -7.5307704    430.52897  0.026834267  0.027137338            1 
 1338000     1.039308   -7.5230225    431.97402  0.026904212  0.027130015            3 
 1339000    1.0359214   -7.5586965    429.95704  0.026758591  0.027122528            1 
 1340000     1.038496   -7.5479642    431.44942  0.026831431  0.027115124            1 
 1341000    1.0410744   -7.5289661    433.48423  0.026937872  0.027107715            1 
 1342000    1.0594393    -7.520768    431.55653  0.026798096  0.027100273            2 
 1343000    1.0448768   -7.4879764    433.45959  0.026896227  0.027092906            1 
 1344000    1.0480908   -7.5292992    433.59279  0.026884473  0.027085522            1 
 1345000    1.0352825   -7.5319488    433.81626  0.026878331  0.027078188            1 
 1346000     1.035444   -7.5294372    434.19595  0.026881869  0.027070892            3 
 1347000    1.0339254   -7.5293275    433.34908   0.02680952  0.027063647            1 
 1348000    1.0319679   -7.5152755    433.63369  0.026807226   0.02705629            2 
 1349000    1.0238071   -7.5219977    433.40995  0.026773533  0.027048822            3 
 1350000      1.04389   -7.5161011     434.5513  0.026824155  0.027041614            2 
 1351000    1.0291734     -7.54531    435.03595  0.026834194  0.027034247            2 
 1352000    1.0297541   -7.5192661    435.18051  0.026823257   0.02702694            1 
 1353000    1.0326964   -7.5133027    434.39756  0.026755208    0.0270197            2 
 1354000    1.0317536   -7.4957116    434.88581  0.026765498  0.027012386            2 
 1355000    1.0681753   -7.5360957    433.65497  0.026670047  0.027005074            3 
 1356000    1.0512025   -7.4950493    435.41263  0.026758397  0.026997669            3 
 1357000    1.0515568   -7.4917453    435.92617  0.026770214   0.02699029            1 
 1358000    1.0251717   -7.4793251     435.8788  0.026747594  0.026982988            4 
 1359000    1.0554113   -7.5128049    435.28003  0.026691196  0.026975481            3 
 1360000    1.0463636   -7.5530369    434.63472   0.02663203  0.026967937            2 
 1361000    1.0445561   -7.5037727    436.78398   0.02674406  0.026960416            3 
 1362000    1.0163898   -7.5175836    435.52023  0.026647102  0.026952802            2 
 1363000    1.0115175   -7.5404458    435.22937  0.026609768  0.026945191            1 
 1364000    1.0244881   -7.5404091    436.11242  0.026644209  0.026937547            1 
 1365000    1.0256864   -7.5181951    437.11568  0.026685939  0.026929952            3 
 1366000    1.0411504   -7.4950374    437.58188  0.026694844  0.026922472            4 
 1367000    1.0431577   -7.5600151     437.4545   0.02666755  0.026914932            1 
 1368000    1.0523824   -7.5375283    436.52982  0.026591729  0.026907295            1 
 1369000    1.0203473   -7.5320109    437.77127  0.026647874  0.026899674            1 
 1370000    1.0478003   -7.4600189    437.13612  0.026589789  0.026892185            2 
 1371000    1.0154889   -7.5612392    437.47632  0.026591072  0.026884566            2 
 1372000    1.0336626   -7.5302018    437.46129  0.026570778  0.026876989            3 
 1373000     1.014178   -7.5342864    437.75498  0.026569251  0.026869451            1 
 1374000     1.045128   -7.5315758    437.98234  0.026563703  0.026861952            2 
 1375000    1.0166887   -7.5240871    439.23575  0.026620349  0.026854432            1 
 1376000    1.0395686   -7.5046154    438.55919  0.026560029  0.026847043            2 
 1377000    1.0576823   -7.5251633    440.00571  0.026628281  0.026839576            1 
 1378000    1.0132573   -7.5409455    438.79631   0.02653582  0.026831933            1 
 1379000    1.0037002   -7.5041669    439.45654  0.026556475  0.026824231            2 
 1380000     1.042084   -7.5377111    438.90977  0.026504213  0.026816568            2 
 1381000    1.0327199   -7.5152387    440.21609  0.026563848   0.02680896            1 
 1382000    1.0210694   -7.5138261    440.84651  0.026582641  0.026801327            1 
 1383000    1.0620714   -7.4977075     440.1601  0.026522059  0.026793672            1 
 1384000    1.0220553   -7.4811183     441.1495   0.02656247  0.026786099            2 
 1385000    1.0216625   -7.5828809    439.35572  0.026435362  0.026778424            1 
 1386000    1.0430115   -7.5372978    439.25625  0.026410308  0.026770475            1 
 1387000    1.0362336   -7.5244739    438.14409  0.026324447  0.026762647            3 
 1388000     1.045438   -7.5401359    439.67853  0.026397606  0.026754797            2 
 1389000    1.0357453   -7.5327008    438.65718  0.026317326  0.026746854            6 
 1390000   0.99600697   -7.4845496    439.42641  0.026344509  0.026738939            2 
 1391000    1.0347691   -7.5697652    440.71091  0.026402523  0.026731055            2 
 1392000    1.0257461   -7.5260803     440.2054  0.026353293  0.026723157            2 
 1393000    1.0252897   -7.5620915     441.6606  0.026421428  0.026715358            2 
 1394000     1.038392   -7.5618943     441.0282   0.02636467  0.026707387            2 
 1395000    1.0096786   -7.5540687    441.49814  0.026373843  0.026699447            1 
 1396000    1.0378495   -7.5392021    440.27576  0.026281982  0.026691478            2 
 1397000    1.0087349    -7.565175    440.00135    0.0262468  0.026683419            1 
 1398000    1.0448878   -7.5045253    441.94502  0.026343885   0.02667535            2 
 1399000    1.0150859   -7.5461723    441.38308  0.026291582   0.02666729            2 
 1400000    1.0222165   -7.5044584    442.30364  0.026327598  0.026659189            1 
 1401000    1.0402102   -7.5320852    441.29744  0.026248955  0.026651227            2 
 1402000    1.0489206   -7.5585113    441.75005  0.026257135  0.026643318            3 
 1403000    1.0214531   -7.5594256    442.24279  0.026267688   0.02663527            2 
 1404000    1.0249052   -7.5730391    442.54445  0.026266883  0.026627276            2 
 1405000    1.0024017   -7.5005872     444.5967  0.026369911  0.026619409            3 
 1406000    1.0084108    -7.554981    443.31357  0.026275105  0.026611619            3 
 1407000    1.0100535   -7.5342352    443.71149  0.026279998  0.026603611            1 
 1408000    1.0605031   -7.5736798    442.34106  0.026180224  0.026595626            3 
 1409000    1.0268582   -7.5344907    443.25721  0.026215827  0.026587562            2 
 1410000    1.0233561    -7.537173    442.64384  0.026160983  0.026579438            2 
 1411000    1.0210877   -7.5468485    444.57666  0.026256595  0.026571393            3 
 1412000    1.0138901   -7.5385478    444.46921  0.026231658  0.026563465            3 
 1413000    1.0115749   -7.5435645    443.99122  0.026184903  0.026555508            2 
 1414000    1.0571492   -7.5231019    443.83033  0.026156903   0.02654746            4 
 1415000    1.0389598   -7.5654372    443.99393  0.026148052    0.0265393            3 
 1416000    1.0036029   -7.5357077    443.96461  0.026127861  0.026531104            2 
 1417000      1.03162   -7.5094404    445.27069  0.026186232  0.026523006            1 
 1418000    1.0234568   -7.5101713    445.71735  0.026194014  0.026514937            1 
 1419000    1.0506446      -7.5425    445.07661  0.026137926  0.026506931            3 
 1420000     1.040668    -7.526445    445.11026  0.026121494  0.026498936            2 
 1421000    1.0217061    -7.541881    445.12673  0.026104078  0.026490906            2 
 1422000    1.0353521   -7.5396121    445.57146  0.026111783  0.026482818            2 
 1423000    1.0232386   -7.5112172    445.34868  0.026080386  0.026474782            2 
 1424000    1.0327192   -7.5523379    443.91751  0.025978318  0.026466641            1 
 1425000    1.0415787   -7.5550652    446.69256  0.026122372  0.026458452            1 
 1426000    1.0299136   -7.5411824    447.11507  0.026128744  0.026450461            3 
 1427000    1.0309625   -7.5832362     446.5456  0.026077178  0.026442332            3 
 1428000    1.0332113   -7.5532327    446.75122  0.026070916  0.026434315            1 
 1429000    1.0193934   -7.5266813    447.55574  0.026099588  0.026426356            2 
 1430000    1.0139723   -7.5401393    446.34011  0.026010496  0.026418345            1 
 1431000    1.0036398   -7.5334396     447.8758  0.026081749  0.026410397            1 
 1432000    1.0038949   -7.5258209    448.12958  0.026078304  0.026402499            2 
 1433000    1.0362216   -7.5673185    448.05496  0.026055766  0.026394618            4 
 1434000    1.0398071   -7.5383419    448.87717  0.026085377  0.026386818            1 
 1435000    1.0346022   -7.5491817    450.00174  0.026132505  0.026379013            3 
 1436000    1.0615604   -7.5665949    448.61427   0.02603379  0.026371157            1 
 1437000    1.0339762   -7.5518623    449.44894  0.026064077  0.026363283            1 
 1438000    1.0199823   -7.5486265    449.38172  0.026042056   0.02635537            1 
 1439000    1.0158352   -7.5133939    449.41767   0.02602604  0.026347632            1 
 1440000    1.0060145   -7.5484469      449.478  0.026011458  0.026340022            1 
 1441000    1.0159868   -7.5505269    449.93038  0.026019569   0.02633222            2 
 1442000    1.0173445     -7.55364    448.89401  0.025941633  0.026324441            2 
 1443000    1.0352884   -7.6019721    449.95719  0.025985054   0.02631661            1 
 1444000    1.0223395   -7.5385901    450.05696  0.025972816  0.026308714            2 
 1445000    1.0187697   -7.5379818    450.70933  0.025992464   0.02630092            2 
 1446000    1.0031615    -7.553694    451.39272  0.026013873  0.026293154            3 
 1447000     1.025536   -7.5887252    450.72849  0.025957642  0.026285188            1 
 1448000    1.0171519    -7.493299    451.67044  0.025993925   0.02627719            2 
 1449000    1.0283641   -7.5824354    451.02541  0.025938889  0.026269312            3 
 1450000    1.0023324   -7.5616395    451.70084  0.025959819  0.026261426            1 
 1451000    1.0352712   -7.5625752    451.96678  0.025957201   0.02625365            1 
 1452000    1.0333433    -7.502399    452.25262  0.025955729  0.026245961            2 
 1453000    1.0367741   -7.5575584    452.38454  0.025945432  0.026238291            1 
 1454000    1.0266469   -7.5782704    452.30535  0.025923049  0.026230383            4 
 1455000    1.0201342   -7.5854447    451.25006  0.025844791  0.026222522            3 
 1456000    1.0414465   -7.5421863    453.01513  0.025928064   0.02621481            1 
 1457000   0.99552986   -7.5400804    452.30693  0.025869763  0.026207136            1 
 1458000    1.0295809   -7.5506717    453.52426  0.025921597  0.026199516            1 
 1459000    1.0203313     -7.55881    453.83477  0.025921566  0.026191869            5 
 1460000    1.0135788   -7.5201054    452.29982    0.0258162  0.026184109            1 
 1461000    1.0268476   -7.5455388    452.58895  0.025815021   0.02617646            2 
 1462000    1.0151641   -7.5692817    454.21811  0.025890225  0.026168775            2 
 1463000    1.0073825   -7.5516056     455.0626  0.025920631  0.026161144            2 
 1464000     1.021334    -7.547579    454.20771  0.025854264  0.026153556            3 
 1465000   0.99745365   -7.5824612    454.17069   0.02583451  0.026145744            4 
 1466000    1.0158862   -7.5532102    453.95602  0.025804685  0.026137975            1 
 1467000    1.0157724   -7.5765502    454.61557  0.025824561  0.026130244            1 
 1468000     1.033506   -7.5545253    454.88852  0.025822464  0.026122564            1 
 1469000    1.0323459   -7.5584947    453.95547  0.025751955  0.026114876            2 
 1470000     1.031137   -7.5574368    454.93769  0.025790119  0.026106985            1 
 1471000    1.0057604   -7.5666774    456.21623  0.025845017  0.026099155            2 
 1472000    1.0258323   -7.5538097    456.00029  0.025815234  0.026091411            1 
 1473000    1.0185045   -7.5286617    456.41097  0.025820942  0.026083666            3 
 1474000    1.0150767   -7.5890397    456.08122  0.025784782   0.02607601            4 
 1475000    1.0126222   -7.5722768    456.83506  0.025809891  0.026068307            1 
 1476000    1.0203187   -7.5809662    456.22425  0.025757918  0.026060619            2 
 1477000    1.0051704   -7.5764378    456.89092  0.025778093  0.026052868            2 
 1478000    1.0322276   -7.5532907    457.14403  0.025774923  0.026045098            3 
 1479000    1.0309999   -7.5266571    456.49607  0.025720986  0.026037327            2 
 1480000     1.029771   -7.5642942    457.04403  0.025734461  0.026029589            2 
 1481000   0.99621236   -7.5440847    457.15352  0.025723245  0.026021944            1 
 1482000    1.0241371   -7.5378197    457.48418  0.025724482  0.026014176            4 
 1483000     1.019917   -7.5407694    456.69813  0.025662965  0.026006406            4 
 1484000    1.0116271   -7.5293933    457.44596  0.025687666  0.025998625            4 
 1485000    1.0025541   -7.5595602    457.72983  0.025686298   0.02599089            3 
 1486000    1.0498741   -7.5162789    459.48022  0.025767173  0.025983251            3 
 1487000    1.0164734   -7.5817293    458.33443  0.025685633  0.025975635            1 
 1488000    1.0312884   -7.5467123    458.33271  0.025668275  0.025967961            1 
 1489000    1.0313875   -7.5127417    459.44111  0.025713069  0.025960252            1 
 1490000   0.99240036    -7.616881    458.74725  0.025657005  0.025952479            2 
 1491000    1.0126691   -7.5873128    459.08916  0.025658907  0.025944784            3 
 1492000    1.0201108   -7.6060145    458.32084  0.025598796  0.025937013            1 
 1493000    1.0145024    -7.567051    459.23691  0.025632781  0.025929244            1 
 1494000    1.0062399   -7.5622522    460.13095  0.025665493  0.025921685            4 
 1495000    1.0339547   -7.5483364    460.15116  0.025649451  0.025914043            1 
 1496000    1.0046789   -7.5547092     460.9929  0.025679195  0.025906352            2 
 1497000    1.0257317   -7.5477668    461.72451  0.025702767  0.025898686            2 
 1498000   0.98660251   -7.5881439    459.89944  0.025584081  0.025891005            1 
 1499000    1.0137912   -7.5922466     460.5253  0.025601807   0.02588321            3 
 1500000    1.0256432   -7.5619297    459.93379  0.025551877   0.02587549            1 
 1501000    1.0089772   -7.5550445    459.16755  0.025492313  0.025867636            1 
 1502000    1.0283749   -7.5815903    459.84831  0.025513111  0.025859767            1 
 1503000   0.99960242   -7.5555706    459.75311  0.025490858   0.02585196            2 
 1504000    1.0191297   -7.5561946    461.19305  0.025553693  0.025844097       -1e+20 
 1505000    1.0064648   -7.5819268    461.77097  0.025568714  0.025836324            3 
 1506000    1.0091001   -7.5562165    461.08745  0.025513914   0.02582854            1 
 1507000    1.0183588   -7.5465396    462.33117  0.025565758  0.025820803            2 
 1508000    1.0145888   -7.5993941     461.0439  0.025477669  0.025813072            3 
 1509000    1.0156733   -7.5773774    461.70666  0.025497386  0.025805343            1 
 1510000    1.0067699   -7.5661801    463.23386  0.025564783  0.025797732            2 
 1511000   0.99995368   -7.5696719    462.75343  0.025521367  0.025790105            3 
 1512000     1.016856   -7.5580216    462.99498  0.025517801  0.025782417            2 
 1513000    1.0086983    -7.579273    463.22167  0.025513421  0.025774826            2 
 1514000    0.9959859   -7.5611421    464.42455  0.025562778  0.025767159            1 
 1515000    1.0045454   -7.5779029    463.49012  0.025494506  0.025759515            2 
 1516000    1.0231419   -7.5877369    464.46995   0.02553155  0.025751823            1 
 1517000    1.0199379   -7.5751381    464.22619  0.025501329  0.025744222            1 
 1518000    1.0044967   -7.5711858    465.11307  0.025533216  0.025736528            2 
 1519000    1.0396011   -7.5678281    464.74521  0.025496226  0.025729048            2 
 1520000    0.9957534   -7.5706456    464.71553  0.025477825  0.025721424            1 
 1521000    1.0056414   -7.6021354    463.31879  0.025384549  0.025713715            2 
 1522000   0.99403925   -7.5223989    466.22634  0.025527066  0.025705983            4 
 1523000    1.0019179    -7.594988    464.23678  0.025401444  0.025698143            1 
 1524000    1.0104563   -7.5715761    465.51765  0.025454815  0.025690426            3 
 1525000   0.98908759   -7.6211697    465.29428  0.025425917  0.025682811            3 
 1526000   0.99882592   -7.5721943    466.98024  0.025501324  0.025675164            4 
 1527000    1.0052205   -7.6169828    464.63256  0.025356503  0.025667532            2 
 1528000    1.0030089   -7.6037147    465.79928  0.025403539  0.025659784            2 
 1529000   0.99975409   -7.5508265    466.86516  0.025445016  0.025652045            5 
 1530000   0.99926498   -7.5731818    466.41143  0.025403673   0.02564442            2 
 1531000    1.0089261   -7.5703625    465.31052  0.025327156   0.02563686            1 
 1532000    1.0202371   -7.6073852    465.37086  0.025313907  0.025629233            2 
 1533000   0.98774107   -7.5805532    465.89152  0.025325697  0.025621567            2 
 1534000    1.0073169   -7.5333227    466.44391  0.025339196  0.025613935            1 
 1535000    1.0130272    -7.564871    467.33037  0.025370813  0.025606336            1 
 1536000      1.00319   -7.5994815    467.50029  0.025363514   0.02559867            1 
 1537000   0.99961727   -7.5947956    467.12043  0.025326417  0.025591011            2 
 1538000    1.0173404   -7.5977158    467.56264   0.02533391  0.025583324            1 
 1539000      1.01462   -7.5272279     469.7243  0.025434498  0.025575742            2 
 1540000    1.0273993   -7.5529568     468.7159  0.025363414  0.025568209            2 
 1541000    1.0109399   -7.5952045    468.76768  0.025349756  0.025560671            2 
 1542000    0.9958891   -7.5944017    466.78724  0.025226289  0.025552924            2 
 1543000    1.0216652   -7.6007127    467.61691  0.025254748  0.025545146            3 
 1544000    1.0128157   -7.5661836    469.73823  0.025352884  0.025537447            1 
 1545000   0.97523008   -7.6174009    467.67912  0.025225411  0.025529633            2 
 1546000    1.0205914   -7.5879059    467.90352   0.02522119   0.02552202            1 
 1547000   0.99197643   -7.5783788    470.39679  0.025339194  0.025514469            2 
 1548000    1.0114429   -7.5407986    469.40814  0.025269603  0.025506982            1 
 1549000    1.0001322   -7.5858354    469.84819  0.025276963  0.025499409            1 
 1550000    1.0120426   -7.5761412    469.90004  0.025263443   0.02549191            1 
 1551000   0.99282547   -7.5434977    470.41918  0.025275047  0.025484303            2 
 1552000    1.0005019   -7.6126227    468.90234  0.025177316  0.025476708            3 
 1553000   0.99243981   -7.5727353    468.78424  0.025154767  0.025469027            2 
 1554000   0.99181253   -7.5657667    471.66515  0.025293069  0.025461381            1 
 1555000    1.0040615   -7.5755087    470.88435   0.02523496   0.02545377            1 
 1556000    1.0093058   -7.5821682    472.14641  0.025286333  0.025446086            2 
 1557000    1.0155825   -7.5945576    471.12774  0.025215571  0.025438283            2 
 1558000    1.0107302    -7.575091    470.79514  0.025181597  0.025430619            6 
 1559000    1.0036719   -7.6088249    469.22247  0.025081381  0.025422933            1 
 1560000   0.97813061   -7.5822218    470.95728  0.025157974  0.025415237            2 
 1561000   0.99706817   -7.5998636    470.38367  0.025111236  0.025407577            1 
 1562000   0.98320428   -7.6061311    470.08502  0.025079227  0.025399923            2 
 1563000   0.99742636   -7.5794772    471.97749   0.02516408  0.025392269            3 
 1564000    1.0001964   -7.5849958    472.70186  0.025186587  0.025384691            2 
 1565000   0.99072949   -7.6067451    473.23038  0.025198636  0.025377088            2 
 1566000   0.98835645   -7.5779717     473.4968  0.025196722   0.02536954            2 
 1567000   0.97914116   -7.6185685    472.46955  0.025126013   0.02536197            3 
 1568000   0.99895269   -7.6075963    472.98785  0.025137535  0.025354338            1 
 1569000    1.0073148   -7.6248157    471.98201  0.025068091  0.025346672            5 
 1570000   0.99017943   -7.6026745    473.01039  0.025106709  0.025339051            2 
 1571000    1.0117093   -7.6074155    472.72037  0.025075343  0.025331513            1 
 1572000     1.006588   -7.6570599    473.52129  0.025101849  0.025323766            1 
 1573000   0.99676197   -7.5983509    472.76526  0.025045839  0.025316082            2 
 1574000     1.016942   -7.6142755    471.79016  0.024978302  0.025308545            2 
 1575000   0.99188972   -7.5662984    474.89202  0.025126562  0.025300921            2 
 1576000   0.99154235   -7.5985506    471.90713  0.024952788  0.025293337            2 
 1577000   0.98688139   -7.6357551    473.13165  0.025001672  0.025285697            2 
 1578000   0.99337858   -7.6446957     470.8983  0.024867887  0.025278006            2 
 1579000   0.99992892   -7.5934282    475.05157   0.02507133  0.025270405            1 
 1580000   0.98515392   -7.5460841    476.12813  0.025112243  0.025262896            1 
 1581000     1.010223     -7.61301    475.31764  0.025053639   0.02525539            2 
 1582000    1.0014426   -7.6305954    475.01493  0.025021857  0.025247755            2 
 1583000    1.0307972    -7.583418    476.87643  0.025104045  0.025240117            1 
 1584000   0.98808888   -7.5756373    475.93247  0.025038535  0.025232474            2 
 1585000    1.0053402   -7.6002738    474.88992  0.024967924  0.025224773            2 
 1586000    1.0058928   -7.6007915    473.07568  0.024856856   0.02521692            3 
 1587000   0.99789913   -7.6030129    474.07436  0.024893634  0.025209081            3 
 1588000    1.0015069   -7.6273493    472.27076   0.02478331  0.025201185            2 
 1589000    0.9738624   -7.5490553    475.85468  0.024955668  0.025193404            1 
 1590000    1.0142424   -7.6354349    475.74218  0.024934076   0.02518568            3 
 1591000   0.99670411    -7.622573    474.17224  0.024836174  0.025177943            4 
 1592000    1.0027136   -7.6280167    473.75433  0.024798698  0.025170103            2 
 1593000    1.0043995    -7.612781    475.43163  0.024870874  0.025162255            2 
 1594000   0.99266033   -7.6465368    475.77904  0.024873434   0.02515444            2 
 1595000   0.99766734   -7.6320452    477.34162  0.024939479  0.025146707            1 
 1596000   0.99007428   -7.6003866    477.07142  0.024909744  0.025139054            3 
 1597000   0.99708595   -7.6253119    476.40724  0.024859489  0.025131457            1 
 1598000    1.0061949   -7.6356168    477.37378  0.024894336  0.025123895            2 
 1599000    1.0026602   -7.6496464    478.27225  0.024925591  0.025116253            1 
 1600000   0.97781411   -7.6032012    477.88383  0.024889783  0.025108679            2 
 1601000   0.99703091   -7.6490435    476.76008  0.024815744  0.025101063            2 
 1602000    1.0071106   -7.6152081    477.47701  0.024837547  0.025093396            1 
 1603000    0.9947823   -7.6257159    478.33915  0.024866872  0.025085819            2 
 1604000   0.97884358   -7.6252955    478.75554  0.024873002  0.025078261            2 
 1605000    1.0019429    -7.635024    477.73131  0.024804326  0.025070557            1 
 1606000    1.0140317     -7.62172    479.01465  0.024855472  0.025062793            4 
 1607000    1.0095119   -7.5831859    478.45702  0.024811088  0.025055148            1 
 1608000   0.98136706   -7.6063132    478.93995  0.024820685  0.025047466            4 
 1609000   0.97286539   -7.6133499    478.56976  0.024786087  0.025039773            1 
 1610000    1.0040663   -7.6331422    478.33163  0.024758366   0.02503208            2 
 1611000    1.0084292   -7.6443464    478.62912  0.024758386  0.025024444            1 
 1612000    1.0085066   -7.6255333    479.40972  0.024783381  0.025016741            2 
 1613000   0.99440062   -7.6346804     479.1962  0.024756985  0.025009052            2 
 1614000   0.98491838   -7.5754935    482.30507  0.024902162  0.025001606            3 
 1615000   0.99528094   -7.6030792    480.60889  0.024799221  0.024994135            1 
 1616000   0.99775882    -7.587033    481.13317   0.02481091   0.02498666            2 
 1617000    1.0006849   -7.6195417    481.35493  0.024806995  0.024979196            1 
 1618000   0.98638297   -7.6189385    480.87372  0.024766879  0.024971712            1 
 1619000   0.98753001   -7.5901158    482.23417  0.024821607  0.024964267            1 
 1620000   0.97276136   -7.6316065    482.12407  0.024800621  0.024956835            3 
 1621000   0.98540701   -7.6360391    482.67103   0.02481344  0.024949424            1 
 1622000   0.96278744   -7.5930248    481.05057  0.024714888  0.024941965            1 
 1623000   0.98287332   -7.5883397    482.37552  0.024767689  0.024934523            2 
 1624000    1.0021967   -7.6181568    482.53965   0.02476086  0.024927121            1 
 1625000    0.9854899   -7.5891998    482.71467  0.024754599  0.024919735            2 
 1626000   0.98909553    -7.636764    482.79467  0.024743474  0.024912323            3 
 1627000   0.99726563   -7.6653923    481.29118  0.024651259  0.024904927            2 
 1628000    1.0053038   -7.6003988    483.24658  0.024736209  0.024897475            2 
 1629000   0.98636194   -7.6160356     484.0129  0.024760226  0.024890178            2 
 1630000   0.99202392   -7.6237888    483.38974  0.024713177  0.024882928            2 
 1631000   0.99630987   -7.6239811    483.74084  0.024715964  0.024875519            2 
 1632000   0.99110838    -7.586125    483.73601  0.024700572  0.024868157            2 
 1633000   0.99016333   -7.6240235    484.66054  0.024732626  0.024860753            1 
 1634000   0.99384844   -7.6243649    484.29621  0.024698909  0.024853356            1 
 1635000   0.98941738   -7.6081648    483.10638  0.024623159  0.024845906            5 
 1636000    1.0026233   -7.6162961    484.01259  0.024654268  0.024838595            1 
 1637000   0.95979686   -7.6291494    483.95334  0.024636191   0.02483126            2 
 1638000   0.98754076   -7.6510281    483.92848  0.024619886  0.024823921            2 
 1639000    1.0015281   -7.6055425    485.49311  0.024684417  0.024816608            2 
 1640000    1.0046889   -7.6127254    485.89878  0.024689979   0.02480943            5 
 1641000    0.9759655   -7.6236922    485.42765  0.024651008  0.024802236            2 
 1642000   0.98178857   -7.6152341    485.12425  0.024620597  0.024794957            2 
 1643000    0.9804788   -7.6173978    483.80751  0.024538827  0.024787561            2 
 1644000    1.0015313   -7.6170527    485.33863  0.024601512  0.024780173            1 
 1645000   0.99724868   -7.5917969    485.45067  0.024592232  0.024772924            2 
 1646000   0.96971378   -7.6458292    485.44096    0.0245768  0.024765495            1 
 1647000   0.99754643   -7.6497143    484.77561  0.024528214   0.02475804            3 
 1648000    1.0036079   -7.6441352    486.58879  0.024605016  0.024750673            1 
 1649000   0.97598421   -7.6478208    485.55788  0.024537997  0.024743351            3 
 1650000    1.0143174   -7.6344148    486.44947  0.024568155  0.024735934            2 
 1651000   0.98803549   -7.6363629    487.25797  0.024594083  0.024728553            2 
 1652000   0.99587274   -7.6584973    485.91223  0.024511311  0.024721199            1 
 1653000   0.94898061   -7.6879384    486.51843  0.024527043  0.024713823            2 
 1654000   0.98495367    -7.679567    486.97888  0.024535413  0.024706408            2 
 1655000   0.99032793   -7.6161426    487.81556  0.024562717  0.024699108            4 
 1656000    1.0007736   -7.6414256    487.59183  0.024536626  0.024691741            3 
 1657000    1.0063459   -7.6683459    486.94955  0.024489517  0.024684423            2 
 1658000   0.98203201   -7.6426098    487.39113   0.02449694  0.024676993            1 
 1659000    0.9812567   -7.6372393    488.38028   0.02453186  0.024669551            2 
 1660000   0.99037166   -7.6496181    489.10134   0.02455328  0.024662184            2 
 1661000   0.98595953   -7.6573807    488.06394  0.024486451  0.024654765            3 
 1662000   0.96921356   -7.6131327    488.68836  0.024503027  0.024647369            1 
 1663000   0.97727219   -7.6399556    488.13047  0.024460336  0.024639973            3 
 1664000   0.98389281   -7.5910603    489.08451  0.024493415  0.024632652            1 
 1665000   0.99953464   -7.6484262    488.37526  0.024443206  0.024625391            2 
 1666000    0.9615438   -7.6166866    491.40746  0.024580205  0.024618096            1 
 1667000   0.97709784   -7.6568547    489.78614   0.02448441  0.024610784            1 
 1668000   0.97959616   -7.6540734     488.8318  0.024422052  0.024603497            1 
 1669000   0.97523477   -7.6669662    488.66459  0.024399071  0.024596178            3 
 1670000    1.0175681   -7.5986083    490.55099  0.024478592  0.024588893            1 
 1671000   0.97185106    -7.643725    490.35041   0.02445394  0.024581577            1 
 1672000   0.98179536   -7.6602593     491.0301  0.024473191   0.02457436            2 
 1673000   0.97765278   -7.6444637    491.01664  0.024457892  0.024567139            1 
 1674000   0.99950346   -7.6465447    491.38975  0.024461856  0.024559859            1 
 1675000   0.98129772   -7.6540805    490.63439  0.024409671  0.024552607            3 
 1676000   0.98454748   -7.6759019    490.67787  0.024397269  0.024545351            2 
 1677000   0.97269826   -7.6234524     492.5692  0.024476705  0.024538184            1 
 1678000   0.98727943   -7.6494267    491.22676  0.024395449  0.024531059            1 
 1679000   0.97261978   -7.6466876     491.3706  0.024388058  0.024523836            2 
 1680000   0.98487713   -7.6554899    491.45606  0.024377781  0.024516619            2 
 1681000   0.97862311   -7.6645787    492.05155    0.0243928  0.024509284            2 
 1682000   0.99526449   -7.6360763    491.98506  0.024375003  0.024501996            1 
 1683000   0.99230711   -7.6342056    492.20435  0.024371378  0.024494656            2 
 1684000   0.97678568   -7.6082528    493.15493  0.024403945  0.024487344            1 
 1685000   0.99665691   -7.6107855    492.83074  0.024373429  0.024480154            2 
 1686000   0.98321598   -7.6450616    492.15598  0.024325622     0.024473            3 
 1687000   0.98485324   -7.6506986    493.20811  0.024363175  0.024465733            2 
 1688000   0.98508585   -7.6163834    493.82433  0.024379163  0.024458586            1 
 1689000   0.97912875   -7.6621245    492.25532  0.024287316  0.024451387            2 
 1690000   0.97062464   -7.6494117    493.49706  0.024334174  0.024444085            2 
 1691000    1.0066494   -7.6719376    492.76338  0.024283628  0.024436855            1 
 1692000    1.0043446   -7.6690918    492.39825  0.024251293  0.024429525            1 
 1693000   0.98770312    -7.677553    493.26335  0.024279551    0.0244223            2 
 1694000   0.99120817   -7.6653341    494.79942  0.024340782  0.024415124            2 
 1695000    0.9813699   -7.6391738    494.63894  0.024318532  0.024407887            1 
 1696000   0.97404586   -7.6377174    493.19514  0.024233252  0.024400701            4 
 1697000    1.0056704   -7.6183129    494.00591  0.024258786  0.024393557            3 
 1698000   0.99320093   -7.6283813    494.66737  0.024276962  0.024386372            1 
 1699000   0.97754318   -7.6748436    495.13346  0.024285534  0.024379203            1 
 1700000   0.99050195   -7.6632904    495.18624  0.024273835  0.024372002            4 
 1701000     1.008838   -7.6588998     494.9345  0.024247232  0.024364701            1 
 1702000   0.97823194   -7.6633712    495.28224  0.024250012  0.024357525            1 
 1703000   0.97097138   -7.6681403    494.40052  0.024192627  0.024350266            2 
 1704000   0.97531607   -7.6579131    494.71577  0.024193847  0.024342959            2 
 1705000   0.99778695   -7.6317397     496.3672  0.024260372  0.024335739            1 
 1706000   0.96676586   -7.6528904    496.88842  0.024271611  0.024328724            1 
 1707000   0.99350256   -7.6716682    496.04106  0.024216025  0.024321603            1 
 1708000    0.9909291   -7.6693121    494.73962   0.02413835  0.024314486            1 
 1709000   0.98094377   -7.6562563    495.26824  0.024150002  0.024307205            2 
 1710000    1.0038809    -7.614677    497.39578   0.02423956  0.024300059            2 
 1711000   0.98392782   -7.6575359    497.03407  0.024207777  0.024292943            2 
 1712000   0.98876341   -7.6213779    498.27055  0.024253824  0.024285716            1 
 1713000   0.97732739   -7.6922271    497.08746  0.024182111  0.024278479            2 
 1714000   0.96396128    -7.661077     497.6648  0.024196072  0.024271251            1 
 1715000   0.96216841    -7.643928    497.45707  0.024171869   0.02426406            2 
 1716000   0.96331017   -7.7201931    495.46972  0.024061272  0.024256805            2 
 1717000    0.9492876   -7.6865879    495.99123   0.02407257  0.024249429            1 
 1718000   0.95659423   -7.6673654    497.00578   0.02410777  0.024242086            5 
 1719000   0.97536042   -7.6480496    497.52771  0.024119047  0.024234818            4 
 1720000   0.97964072   -7.6549227    498.48443  0.024151378  0.024227617            2 
 1721000   0.96151139   -7.6431352    498.35004  0.024130837  0.024220462            2 
 1722000   0.99356925   -7.6820028    497.86388  0.024093297  0.024213283            1 
 1723000   0.95961581   -7.6180887    499.97452  0.024181395  0.024206111            1 
 1724000   0.98062348   -7.6564084    498.63365  0.024102555  0.024199051            1 
 1725000   0.96495096   -7.6404267     499.7424  0.024142145  0.024192012            1 
 1726000   0.98293395   -7.6418275    500.88596   0.02418337  0.024184961            2 
 1727000    0.9702765   -7.6427529    499.96479  0.024124918  0.024177949            1 
 1728000    0.9943063   -7.5980969    500.53882  0.024138639  0.024170957            4 
 1729000   0.95869452   -7.6088739    500.68913  0.024131923  0.024164013            2 
 1730000   0.98974521   -7.6328207    499.74498  0.024072494  0.024157008            1 
 1731000   0.94848976   -7.6577177    500.33108  0.024086803  0.024149994            2 
 1732000   0.97478758   -7.6672773     499.9136   0.02405281  0.024142932            3 
 1733000   0.96824127   -7.7043703    498.78543  0.023984681   0.02413572            2 
 1734000   0.96331466   -7.6670517    501.75857  0.024113734  0.024128552            2 
 1735000   0.97299894   -7.6484346    499.58752  0.023995558  0.024121506            2 
 1736000   0.96348855   -7.6586839    500.93487  0.024046413  0.024114382            2 
 1737000   0.96885702   -7.6348307    501.97486  0.024082463  0.024107346            3 
 1738000    0.9708495   -7.6419383    500.93957  0.024018967  0.024100284            1 
 1739000   0.99395141   -7.6333234    502.84411  0.024096421  0.024093226            3 
 1740000   0.96973812   -7.6669119     501.7798    0.0240316  0.024086148            3 
 1741000    0.9766506   -7.6499422    501.55006    0.0240068  0.024079084            6 
 1742000   0.97407676   -7.7116384    501.06797  0.023969957   0.02407193            2 
 1743000   0.97346985   -7.6736533    502.01057   0.02400127  0.024064795            1 
 1744000   0.97426296   -7.7019004    501.72487  0.023973857  0.024057659            1 
 1745000   0.97023097   -7.6970472    500.71569  0.023911924  0.024050567            1 
 1746000   0.95883921   -7.6508021    502.67403  0.023991697  0.024043479            2 
 1747000   0.97785873   -7.6653281    503.99457  0.024040954  0.024036478            1 
 1748000   0.99072786   -7.6954738    503.21588  0.023990078  0.024029518            1 
 1749000   0.95393813   -7.6687188    504.42896  0.024034161  0.024022504            1 
 1750000   0.96885964   -7.6561444    503.25649  0.023964595   0.02401556            2 
 1751000   0.98618386   -7.6942214    503.74416  0.023974118  0.024008556            5 
 1752000    0.9974525   -7.6876041    503.96271  0.023970829  0.024001483            2 
 1753000   0.97116319   -7.6570503    502.89491  0.023906394  0.023994429            1 
 1754000   0.97722146   -7.7084507    502.67929  0.023882521  0.023987434            2 
 1755000   0.99130991   -7.6829112    502.98966  0.023883649  0.023980356            1 
 1756000    0.9698617    -7.687003    504.22711  0.023928773  0.023973344            1 
 1757000   0.95815811   -7.6951907    504.33636  0.023920336  0.023966252            2 
 1758000   0.96446317   -7.6704347    503.98378  0.023890016  0.023959212            5 
 1759000   0.96541656   -7.6559055    504.78833   0.02391455  0.023952149            1 
 1760000   0.97381421    -7.675823    506.42999  0.023978693  0.023945202            1 
 1761000   0.98938152   -7.6725643    505.11512  0.023902855   0.02393826            1 
 1762000   0.98219853   -7.6844727    504.39426  0.023855196  0.023931261            1 
 1763000    0.9711392   -7.6976242    505.57654  0.023897548  0.023924192            2 
 1764000   0.97999871   -7.6747664    506.16632  0.023911863  0.023917244            1 
 1765000   0.96612553   -7.6441916    506.49089   0.02391364  0.023910307            2 
 1766000   0.95551524   -7.6845371    506.94593  0.023921571  0.023903406            3 
 1767000   0.98140652   -7.6158978    506.66888  0.023894967  0.023896528            2 
 1768000    0.9584544   -7.6626725    506.91199   0.02389291  0.023889703            2 
 1769000   0.97067509   -7.6677234    508.28449  0.023944059  0.023882824            1 
 1770000   0.95749197   -7.6905858    506.62228  0.023852273  0.023875915            1 
 1771000   0.96917828   -7.6754793    507.04425   0.02385866  0.023869036            1 
 1772000   0.98419198   -7.6773473    506.31025  0.023810677   0.02386215            1 
 1773000   0.95646333   -7.6890902    507.69065  0.023862129  0.023855261            1 
 1774000   0.96389301   -7.6738692    507.36504  0.023833382  0.023848288            3 
 1775000   0.97435395   -7.6577595    507.82642  0.023841616  0.023841299            4 
 1776000   0.97198258   -7.6631071    507.00417   0.02378961  0.023834339            2 
 1777000   0.96801932   -7.7054111    507.96604   0.02382133  0.023827362            2 
 1778000   0.95376552   -7.6661248    507.49204  0.023785716  0.023820486            4 
 1779000   0.95760161   -7.6942069    506.79945  0.023739903  0.023813478            2 
 1780000   0.96465689   -7.6715629    507.06143  0.023738831  0.023806375            1 
 1781000   0.95963402   -7.6757164     507.6289  0.023752054  0.023799352            1 
 1782000   0.97139425   -7.7200685    506.25898  0.023674663  0.023792202            1 
 1783000    0.9500222   -7.7120858    507.07557   0.02369955  0.023785049            2 
 1784000   0.94926739   -7.6982728    508.21288  0.023739391  0.023777947            1 
 1785000   0.96022517   -7.6830658    508.87763  0.023757126  0.023770916            3 
 1786000    0.9619149   -7.6667727    507.85609  0.023696159  0.023763897            2 
 1787000    0.9580244   -7.7107813    508.09474  0.023694028  0.023756865            1 
 1788000   0.94529044   -7.6553096    508.34158  0.023692281  0.023749759            1 
 1789000   0.97218306   -7.6799316    508.64918  0.023693366  0.023742716            2 
 1790000   0.95514868   -7.6621578    509.33011   0.02371183  0.023735719            3 
 1791000   0.97225285   -7.6862219    508.81487  0.023674617  0.023728701            1 
 1792000   0.94688801   -7.6987359    508.90729  0.023665704  0.023721721            1 
 1793000   0.94070711   -7.7194265     509.5167  0.023680828  0.023714639            1 
 1794000   0.97756724   -7.7369144    508.90879   0.02363939  0.023707579            2 
 1795000   0.94989331   -7.6850377    508.94343  0.023627829   0.02370054            1 
 1796000   0.95236302   -7.6912617    509.32908  0.023632567  0.023693528            4 
 1797000   0.95873626   -7.6751898    510.46711   0.02367219  0.023686462            1 
 1798000   0.97130028   -7.6810139    510.34362  0.023653301   0.02367944            2 
 1799000   0.97168841   -7.6990087    510.16205  0.023631742  0.023672361            2 
 1800000   0.97395616   -7.7087417    509.61414  0.023593247  0.023665278            1 
 1801000   0.96444067   -7.6622472    510.93867  0.023641434  0.023658223            2 
 1802000   0.95931652   -7.6782991    510.90102  0.023626573  0.023651218            1 
 1803000   0.95829989    -7.671644    509.64653  0.023555487  0.023644204            3 
 1804000    0.9580799   -7.6935648    510.42425  0.023578356  0.023637156            3 
 1805000   0.97210576   -7.6674513    512.03322  0.023639576  0.023630132            2 
 1806000   0.97627171   -7.6786361      511.186  0.023587394  0.023623115            2 
 1807000   0.95960946   -7.6813286    511.01866  0.023566623  0.023616145            3 
 1808000   0.96105138   -7.7102745    510.19131  0.023515455  0.023609142            4 
 1809000   0.96809142   -7.6798343    511.70892  0.023572366  0.023602142            3 
 1810000   0.94271221   -7.7294679    511.20808  0.023536284  0.023595188            3 
 1811000   0.96367232   -7.7018013     510.5284  0.023492012  0.023588156            6 
 1812000   0.96531008    -7.708647    511.45767  0.023521784  0.023581168            1 
 1813000    0.9792608   -7.7216349    511.62175  0.023516352  0.023574143            3 
 1814000   0.94659206   -7.7033506    512.48232  0.023542922  0.023567074            3 
 1815000   0.94378008   -7.6971379    511.96508  0.023506202  0.023560105            2 
 1816000    0.9489064   -7.7112078    513.31164  0.023555049  0.023553138            2 
 1817000   0.94606578   -7.6684262    512.21574  0.023491824  0.023546271            3 
 1818000   0.96687671   -7.7073714    512.06894  0.023472174  0.023539266            1 
 1819000   0.95338379   -7.6607564    513.84066  0.023540437  0.023532301            1 
 1820000   0.97013409   -7.7251448    511.59297  0.023424586  0.023525396            1 
 1821000   0.95188243   -7.6997056    514.05719  0.023524492  0.023518437            1 
 1822000   0.96213335   -7.7325594     513.2565  0.023474959  0.023511586            1 
 1823000   0.98130737   -7.6838048    515.34897  0.023557733  0.023504705            3 
 1824000   0.94414685    -7.670872    515.38427  0.023546431  0.023497885            2 
 1825000   0.95504542    -7.689919    515.10539  0.023520794  0.023490978            1 
 1826000   0.95640467   -7.6717167    514.03773  0.023459188   0.02348419            4 
 1827000   0.94223141   -7.6887638    515.89476  0.023531051  0.023477399            1 
 1828000    0.9516196   -7.7092965    514.39655  0.023449879  0.023470656            2 
 1829000   0.95185055   -7.6973201     514.5503  0.023444063  0.023463881            4 
 1830000   0.94698687   -7.6889581    515.82894  0.023489478  0.023457089            1 
 1831000   0.95962422   -7.6952055    514.86248  0.023432663  0.023450272            6 
 1832000   0.93203513   -7.6915012    515.79208  0.023462158   0.02344338            1 
 1833000   0.95121468    -7.681099    516.00504   0.02345904  0.023436604            2 
 1834000   0.94324392   -7.6845938    516.36135  0.023462439  0.023429737            2 
 1835000   0.93916942   -7.6923341    514.84674  0.023380869   0.02342287            2 
 1836000   0.93232215   -7.7472599    515.76899  0.023409994   0.02341594            2 
 1837000   0.95080363   -7.7140893    516.19433  0.023416545  0.023409095            2 
 1838000   0.93923444    -7.716581     516.7043  0.023426927  0.023402261            2 
 1839000   0.96543343   -7.7261641    516.65737  0.023412061  0.023395354            2 
 1840000   0.97402338   -7.7195944    515.96835  0.023368132  0.023388502            1 
 1841000    0.9365953   -7.7070429        516.4  0.023374977  0.023381708            2 
 1842000   0.96836059   -7.6943152    517.20786  0.023398835  0.023374886            1 
 1843000   0.97001342   -7.7084691    516.52943  0.023355463  0.023368013            2 
 1844000   0.95712215   -7.7285531    517.84343  0.023402179  0.023361166            2 
 1845000   0.95066757   -7.7317671    517.47002   0.02337263  0.023354387            1 
 1846000   0.93437019   -7.7040891    517.07368  0.023342077  0.023347531            2 
 1847000   0.95512832   -7.6887655    518.61579  0.023399016  0.023340707            1 
 1848000    0.9585563   -7.6940014    519.22481  0.023413817  0.023333927            2 
 1849000   0.96393049   -7.7509942    517.55054  0.023325696  0.023327172            1 
 1850000   0.95238099   -7.7405453    517.46972  0.023309447  0.023320262            1 
 1851000   0.94276543   -7.7086144     518.1128  0.023325806  0.023313435            1 
 1852000   0.95068073    -7.728899    517.34453  0.023278642  0.023306599            1 
 1853000   0.97228768   -7.7580751    517.97864  0.023294596  0.023299731            1 
 1854000   0.94745916   -7.7294292    518.17135  0.023290693  0.023292927            1 
 1855000   0.94484788   -7.7089064    519.61515  0.023342998  0.023286181            2 
 1856000   0.95469799   -7.6917817    518.25583  0.023269389  0.023279517            3 
 1857000   0.95953089   -7.7193115    519.99917  0.023335091  0.023272846            3 
 1858000   0.97321102   -7.6990224    520.10249  0.023327166  0.023266254            3 
 1859000   0.95558838   -7.6972047    521.46933  0.023375889  0.023259681            2 
 1860000   0.94166772   -7.6759429    521.47289  0.023363481   0.02325309            2 
 1861000   0.96998458   -7.7249937    520.38561   0.02330224  0.023246499            3 
 1862000   0.95298823   -7.7216529    522.19029  0.023370493  0.023239943            5 
 1863000   0.93242921   -7.7301311    521.41353  0.023323203   0.02323336            2 
 1864000   0.94584831   -7.7339028    521.43964  0.023311858  0.023226752            1 
 1865000   0.97977009   -7.6703785    522.24995  0.023335565  0.023220242            2 
 1866000   0.95877917    -7.709818     521.3344  0.023282172  0.023213694            2 
 1867000   0.95660676   -7.7137257    522.66526  0.023329105  0.023207101            2 
 1868000   0.93511651   -7.7582673    523.59069    0.0233579  0.023200596            2 
 1869000   0.96214388   -7.7282807    521.89352  0.023269731  0.023193974            3 
 1870000   0.93949412   -7.7038013    522.49143  0.023283932   0.02318743            6 
 1871000   0.94127112   -7.7350978    522.89614  0.023289513  0.023180876            4 
 1872000   0.96404138    -7.766454    521.92919  0.023234027  0.023174218            4 
 1873000   0.96352625   -7.7157772     523.2199  0.023279049  0.023167639            2 
 1874000   0.96885385   -7.7066057    523.45483  0.023277074  0.023161072            3 
 1875000   0.95422623   -7.7272696    523.40969  0.023262653  0.023154498            1 
 1876000   0.94883908   -7.7204627    523.17651  0.023239895  0.023147844            1 
 1877000   0.93413922   -7.6864324    523.67395  0.023249598  0.023141243            3 
 1878000   0.97839625   -7.7611704    523.11899  0.023212593  0.023134619            1 
 1879000    0.9568146   -7.7470199    522.60397  0.023177398  0.023127932            1 
 1880000   0.94566049   -7.7450418    523.45003  0.023202572  0.023121364            2 
 1881000   0.95464669   -7.7316479    524.29948   0.02322787  0.023114771            1 
 1882000   0.93991347   -7.7514191    523.06063  0.023160673  0.023108175            3 
 1883000   0.97348324   -7.7751291    524.14617  0.023196414  0.023101545            2 
 1884000   0.96146858   -7.7244589    526.35362  0.023281742  0.023095073            1 
 1885000   0.93679159   -7.7065811    525.97129  0.023252488  0.023088638            1 
 1886000   0.94010319   -7.7050993     526.0292  0.023242718  0.023082227            2 
 1887000   0.96248893   -7.6768976    526.65971  0.023258246  0.023075797            1 
 1888000   0.94026952   -7.7232301    525.88134  0.023211571  0.023069399            2 
 1889000   0.94969575   -7.7132097    526.10588  0.023209188  0.023062963            3 
 1890000   0.97149954   -7.7159259    526.79057  0.023227098  0.023056579            1 
 1891000   0.95989238   -7.7401958    525.80245   0.02317127  0.023050158            2 
 1892000   0.96930205    -7.735212    527.07451  0.023215051  0.023043716            2 
 1893000    0.9513356   -7.7264742    527.23501  0.023209852  0.023037253            2 
 1894000   0.94807167   -7.7303256    527.08778   0.02319112  0.023030887            2 
 1895000   0.96486175   -7.7456587    524.95813   0.02308523  0.023024504            1 
 1896000   0.94942769   -7.6862126    528.00968  0.023207176  0.023018266            2 
 1897000   0.95942838   -7.7377354    527.76972  0.023184402  0.023011919            3 
 1898000   0.96126847   -7.7122252    527.66377  0.023167535  0.023005553            2 
 1899000   0.95543082   -7.7323746     528.5582  0.023194585  0.022999306            4 
 1900000   0.94447011   -7.7334539    527.63849  0.023142039  0.022992971            3 
 1901000   0.94058638    -7.715813    528.39465  0.023163013  0.022986652            2 
 1902000    0.9390545   -7.7084656    527.93081  0.023130512  0.022980309            1 
 1903000   0.93822413    -7.729681    528.52877  0.023144542   0.02297397            2 
 1904000   0.95653794   -7.7545579    527.94448  0.023106814  0.022967603            6 
 1905000   0.94013697   -7.7680694    527.88556  0.023092107  0.022961182            3 
 1906000   0.93786571    -7.719811    529.49714  0.023150452  0.022954774            5 
 1907000   0.95111708   -7.7334073    527.40961   0.02304709  0.022948393            1 
 1908000   0.94187451   -7.7499163    529.69177  0.023134686  0.022942037            3 
 1909000   0.93163868   -7.7305379    530.18078  0.023143914    0.0229357            3 
 1910000   0.93334722   -7.7464981    529.74823  0.023112925  0.022929315            1 
 1911000   0.94033614   -7.7375894    528.90834  0.023064205  0.022922917            2 
 1912000   0.93766322   -7.7082162    528.91649  0.023052497  0.022916539            2 
 1913000    0.9438834   -7.7557376    529.65584  0.023072654  0.022910173            1 
 1914000   0.95089781   -7.7346719    528.30734  0.023001887  0.022903773            2 
 1915000   0.93204208   -7.7426829    530.88053  0.023101851  0.022897406            2 
 1916000     0.938742   -7.7135766    531.52582  0.023117859  0.022891066            2 
 1917000   0.95410153   -7.7773118    529.69802  0.023026344  0.022884712            2 
 1918000   0.94706773   -7.7400915    531.05718  0.023073392  0.022878339            1 
 1919000   0.94839101   -7.7436728    530.20956   0.02302456  0.022871973            2 
 1920000   0.91964766   -7.7345474    531.37054  0.023062958  0.022865599            2 
 1921000    0.9500555   -7.7123364    531.32706  0.023049066  0.022859366            2 
 1922000   0.96647991   -7.7396956    530.19315   0.02298791  0.022853089            1 
 1923000   0.94242973   -7.7662576    530.27075  0.022979319  0.022846767            1 
 1924000   0.94145091   -7.7542183    529.98517  0.022955006  0.022840414            1 
 1925000   0.95501258   -7.7519496    532.43842  0.023049282  0.022834104            1 
 1926000   0.94446121   -7.7655474    532.16668  0.023025557  0.022827812            1 
 1927000   0.93607261   -7.7046589    531.94437  0.023003994  0.022821591            2 
 1928000   0.93715925   -7.7374511    533.56436  0.023062083  0.022815357            2 
 1929000   0.95400134   -7.7066932    533.50089  0.023047386  0.022809131            2 
 1930000    0.9451835   -7.7657866    531.77004   0.02296071  0.022802973            2 
 1931000   0.93243954   -7.7685325    532.39835  0.022975934  0.022796715            2 
 1932000   0.96109571    -7.724894     532.5381   0.02297007  0.022790488            3 
 1933000   0.94406984   -7.7130058    532.76396  0.022967924  0.022784363            2 
 1934000   0.92696834   -7.7232479    533.96935  0.023007987  0.022778215            6 
 1935000   0.93577551   -7.7261271    535.88242  0.023078485  0.022772036            1 
 1936000   0.91583676   -7.7400698    533.29059  0.022955001  0.022765814            3 
 1937000   0.93760127   -7.7543653     534.8037  0.023008247  0.022759604            2 
 1938000   0.94641665   -7.7422255    535.20937  0.023013819  0.022753412            4 
 1939000   0.93381168   -7.7564966     534.5903  0.022975344  0.022747244            1 
 1940000   0.94246569   -7.7290905    535.05633  0.022983519  0.022741008            2 
 1941000    0.9582211   -7.7385471    535.45351   0.02298873  0.022734877            1 
 1942000   0.94250801   -7.7364555    534.90892  0.022953524  0.022728719            3 
 1943000   0.94063709   -7.7470108    535.04766  0.022947661  0.022722496            2 
 1944000   0.93798356   -7.7160484    536.35778  0.022992017  0.022716278            1 
 1945000   0.91858116   -7.7641339    535.67701  0.022951029  0.022710091            1 
 1946000   0.96103961   -7.7498112    534.65657  0.022895537  0.022703863            2 
 1947000   0.94802879   -7.7402872    534.13526  0.022861465  0.022697584            2 
 1948000    0.9369703   -7.7391093    535.26567  0.022898086  0.022691338            3 
 1949000   0.93229385   -7.7609111    534.99232   0.02287465  0.022685107            2 
 1950000   0.92894028   -7.7599591    536.20735  0.022914844  0.022678878            4 
 1951000   0.93705153   -7.7591035    535.26769  0.022862963   0.02267272            1 
 1952000   0.95061014   -7.7172668    535.59325  0.022865149  0.022666505            2 
 1953000   0.91763651   -7.7410974    535.29377  0.022840663  0.022660326            2 
 1954000   0.95268234   -7.7735148    537.52967  0.022924329  0.022654119            1 
 1955000   0.94039152   -7.7305464    537.10885  0.022894665  0.022647919            1 
 1956000   0.93837535   -7.7558818    536.04877  0.022837797  0.022641688            2 
 1957000    0.9421995   -7.7400481    537.84036  0.022902417  0.022635463            3 
 1958000   0.92821193   -7.7383946    536.27937  0.022824284  0.022629221            2 
 1959000   0.91727827   -7.7363613    537.34141  0.022857811  0.022623014            2 
 1960000   0.92541781   -7.7661035    538.05526  0.022876499  0.022616828            2 
 1961000   0.93023468   -7.7534341    535.98796  0.022776983  0.022610543            2 
 1962000   0.93167653   -7.7541959     536.7283  0.022796819  0.022604337            2 
 1963000   0.94194393   -7.7580125    537.10266  0.022801098  0.022598121            8 
 1964000   0.92762016   -7.7827316    537.45407  0.022804399   0.02259189            1 
 1965000    0.9453711   -7.7439077    537.67031  0.022801964  0.022585641            3 
 1966000   0.92674919   -7.7485173    538.03414  0.022805787  0.022579391            1 
 1967000   0.92615756   -7.7442227    537.67495  0.022778976  0.022573175            1 
 1968000   0.93398628   -7.8036535    536.07932  0.022699836  0.022566939            1 
 1969000   0.93684455   -7.7432011    538.06645  0.022772408   0.02256075            3 
 1970000   0.94143812   -7.7716041    537.52889  0.022738109  0.022554558            1 
 1971000    0.9237313   -7.7391718    539.48649  0.022809339   0.02254833            1 
 1972000   0.94446266   -7.7728223    537.88694  0.022730178  0.022542093            1 
 1973000   0.93024314   -7.7425255    538.25129  0.022734047  0.022535797            1 
 1974000   0.93391268    -7.807973    538.25333  0.022722616  0.022529549            1 
 1975000   0.94245899   -7.7773231     537.8279   0.02269316  0.022523293            2 
 1976000   0.94198232   -7.7504072    539.24699  0.022741523  0.022517058            4 
 1977000   0.92194643   -7.7446447    539.22974  0.022729293  0.022510838            2 
 1978000   0.92737068    -7.772927    539.81786  0.022742579  0.022504641            1 
 1979000   0.94083426   -7.7915111    537.61009  0.022638121  0.022498383            1 
 1980000   0.96610195   -7.7503184    538.61028  0.022668783  0.022492167            2 
 1981000   0.93594975   -7.7596544    540.27305  0.022727286  0.022486031            2 
 1982000    0.9422396   -7.7300813    541.64779  0.022773621  0.022479883            4 
 1983000   0.92694905   -7.7855183    538.35155  0.022623615  0.022473679            1 
 1984000   0.93502834   -7.7559078    541.03599  0.022724966  0.022467517            3 
 1985000   0.92777843   -7.7423341    539.52934  0.022650266  0.022461429            4 
 1986000   0.92888314   -7.7793462    541.04796  0.022702583  0.022455407            3 
 1987000    0.9321035     -7.72209    541.28485  0.022701093  0.022449366            4 
 1988000   0.93522416    -7.781709     540.3191  0.022649191  0.022443287            1 
 1989000   0.91993447   -7.7234897    543.35777  0.022765115  0.022437235            3 
 1990000   0.92595157   -7.7802354    542.42496  0.022714613  0.022431207            3 
 1991000   0.92946405   -7.7576168    541.83161   0.02267837  0.022425174            1 
 1992000    0.9266329   -7.7182065    542.39928  0.022690733  0.022419192            2 
 1993000   0.92380744   -7.7796405    543.17207  0.022711661  0.022413194            2 
 1994000   0.92130856   -7.7418238    544.02374  0.022735863  0.022407226            1 
 1995000   0.94438717   -7.7734293    542.38579  0.022656048   0.02240121            2 
 1996000   0.93385992   -7.7682856     542.5491  0.022651516  0.022395175            2 
 1997000   0.91693718   -7.7736931    541.89775  0.022612993  0.022389165            2 
 1998000   0.92721518   -7.8271583    541.34823  0.022578755  0.022383096            3 
 1999000   0.93924057   -7.7419365    543.05194  0.022638484  0.022377007            4 
 2000000   0.96184184   -7.7744697    541.77494  0.022573956  0.022370915            1 
 2001000   0.92982948   -7.7470318    543.02225   0.02261462  0.022364844            2 
 2002000   0.92163733   -7.8128333    541.76537  0.022551006  0.022358733            4 
 2003000   0.91250258   -7.7470018    543.56068   0.02261444  0.022352611            1 
 2004000   0.94954307   -7.8113155    542.93317  0.022577061  0.022346557            1 
 2005000   0.90342627    -7.814894    542.51707  0.022548506  0.022340429            1 
 2006000   0.92072308   -7.7647319    543.84175  0.022592296  0.022334335            2 
 2007000   0.92318738   -7.7904389    543.58143   0.02257023  0.022328238            1 
 2008000   0.95457386   -7.7930506    542.36777  0.022508623  0.022322223            1 
 2009000   0.91819223   -7.7976348    543.60431   0.02254871  0.022316139            2 
 2010000   0.94100062   -7.7738764    543.74226  0.022543211  0.022310106            3 
 2011000   0.93653666   -7.8144974    545.14241  0.022590022  0.022303963            1 
 2012000   0.95533176    -7.771522    546.00514  0.022614527  0.022297922            1 
 2013000   0.92463235   -7.7530894    544.20595  0.022528811   0.02229187            2 
 2014000    0.9349539   -7.7888437    543.25821   0.02247841  0.022285838            1 
 2015000   0.92835061   -7.7746499    545.39233  0.022555514  0.022279764            2 
 2016000   0.92267277   -7.7923186    544.43086  0.022504583   0.02227366            1 
 2017000   0.94001429   -7.7621395    544.80672  0.022508954  0.022267572            2 
 2018000   0.91849365   -7.7975353    544.33639  0.022478377  0.022261446            4 
 2019000     0.913225   -7.7850424    544.82782  0.022487528  0.022255355            2 
 2020000   0.91398447   -7.7814119    544.57317   0.02246589  0.022249213            1 
 2021000   0.92074163   -7.7840823    544.41067  0.022448073  0.022243102            2 
 2022000   0.92632691   -7.7756131     544.6578  0.022447156  0.022236999            1 
 2023000   0.91542911   -7.7892988    544.86013  0.022444395  0.022230838            1 
 2024000   0.92183559   -7.7758582    546.76874  0.022511888  0.022224693            2 
 2025000     0.923904   -7.7823281    544.96287  0.022426455  0.022218605            3 
 2026000    0.9228964   -7.7606019    545.71476  0.022446313   0.02221252            2 
 2027000   0.93686734   -7.7771505    545.14728  0.022411909  0.022206417            1 
 2028000     0.947699   -7.7796282    545.47082  0.022414153  0.022200348            4 
 2029000   0.93370084   -7.7842947    546.18353  0.022432377  0.022194245            2 
 2030000   0.92277382   -7.7959967     546.8554  0.022448908   0.02218818            2 
 2031000   0.94200366   -7.7843982    545.50671  0.022382517  0.022182015            4 
 2032000   0.91471063   -7.8036605    547.16103  0.022439347  0.022175821            2 
 2033000   0.94308226   -7.8163613    545.53422  0.022361626  0.022169578            1 
 2034000   0.91657818   -7.7939623    546.64429  0.022396112  0.022163384            2 
 2035000   0.93839279   -7.7797582    545.59223  0.022342024  0.022157231            2 
 2036000   0.93471881   -7.7947992    545.31144  0.022319558  0.022151003            2 
 2037000   0.91046787   -7.8256645    545.24029   0.02230569  0.022144765            3 
 2038000   0.93402066   -7.8017326    546.47279  0.022345142  0.022138584            2 
 2039000    0.9250746   -7.7879541    547.13222  0.022361134  0.022132419            2 
 2040000   0.92398842   -7.7473337    548.74374  0.022416002  0.022126348            1 
 2041000   0.91491461   -7.7551358    548.54045  0.022396719  0.022120265            2 
 2042000   0.91600925   -7.7449738    548.63909  0.022389777  0.022114165            1 
 2043000   0.90506231   -7.8085948    546.93291  0.022309223  0.022108093            3 
 2044000   0.90146429    -7.798228    547.41882  0.022318119     0.022102            1 
 2045000   0.93226713   -7.7719916    550.20884  0.022420898  0.022095981            2 
 2046000   0.91414471   -7.7767315    547.87826  0.022315015      0.02209            2 
 2047000   0.93720763   -7.7918312     549.1061  0.022354099  0.022083887            1 
 2048000    0.9184881   -7.7798826    548.99792  0.022338783   0.02207783            1 
 2049000   0.91955901   -7.8119227    548.12283   0.02229229  0.022071776            1 
 2050000    0.9194333    -7.803833    548.41365  0.022293238  0.022065751            2 
 2051000   0.93549289   -7.7690468    549.97416  0.022345773  0.022059746            1 
 2052000   0.93417924   -7.7853084    549.75589  0.022326019   0.02205374            3 
 2053000   0.91644153   -7.8020893    549.23891  0.022294159  0.022047679            1 
 2054000   0.90974143   -7.8011448    550.87865  0.022349832  0.022041658            2 
 2055000     0.919432   -7.7952374    550.49156  0.022323259  0.022035659            1 
 2056000   0.91128054   -7.7797241    549.47524  0.022271208  0.022029692            1 
 2057000   0.92944409   -7.8279308    549.79755  0.022273438  0.022023711            2 
 2058000    0.9176858   -7.7963211    550.19197  0.022278586  0.022017732            1 
 2059000   0.91259384   -7.8004091     550.9687  0.022299203  0.022011671            1 
 2060000   0.94362906   -7.7911157    549.57245  0.022231895  0.022005584            4 
 2061000   0.91010286   -7.7744766    551.51631  0.022299705  0.021999589            3 
 2062000   0.92544669   -7.7681171    552.27905  0.022319716  0.021993617            2 
 2063000   0.90406866   -7.8062828    552.41538  0.022314404  0.021987584            1 
 2064000   0.91058873    -7.773095    551.08739  0.022249975  0.021981613            1 
 2065000   0.92994892   -7.7727086    552.02735  0.022277133  0.021975603            3 
 2066000   0.92635241   -7.8131737    550.90841  0.022221217   0.02196952            1 
 2067000   0.91226744   -7.8158516    550.58214  0.022197313  0.021963484            2 
 2068000   0.91826428   -7.7869008    551.00105   0.02220346  0.021957413            2 
 2069000   0.91727975    -7.820605    550.96844  0.022191415  0.021951407            1 
 2070000    0.9279291   -7.7777139    551.97292  0.022221132   0.02194545            1 
 2071000   0.92678896   -7.7763024    552.90454  0.022247889  0.021939451            2 
 2072000    0.8963036   -7.7950797    551.64113  0.022186339  0.021933463            2 
 2073000   0.93221099   -7.7468495    552.03524   0.02219148  0.021927467            1 
 2074000   0.92014555    -7.798821    550.50056  0.022119116  0.021921432            2 
 2075000   0.91171965   -7.8211971    550.70921  0.022116836  0.021915334            2 
 2076000   0.90467293   -7.8191024    551.28703  0.022129377  0.021909259            1 
 2077000   0.92995685    -7.785473    552.27395  0.022158319  0.021903141            4 
 2078000   0.93909571   -7.8027815    550.13083  0.022061711  0.021897058            2 
 2079000   0.92059613    -7.834882    551.09503  0.022089748  0.021890975            4 
 2080000   0.91275945   -7.8196368    551.70527  0.022103577  0.021884885            3 
 2081000   0.93393438   -7.7969374     552.3639   0.02211933  0.021878856            2 
 2082000   0.91964551   -7.8165401    552.26365  0.022104693  0.021872784            2 
 2083000   0.90851095   -7.7911543    553.71168  0.022152012  0.021866725            6 
 2084000   0.90587951   -7.8127455    553.53758   0.02213442  0.021860679            3 
 2085000   0.92876071   -7.8265582    552.01113  0.022062795  0.021854566            2 
 2086000   0.90302787   -7.8368039    552.76184  0.022082208  0.021848475            3 
 2087000   0.91268897    -7.791625    552.57736  0.022064261   0.02184241            1 
 2088000   0.91837762   -7.8213292    554.42881  0.022127587  0.021836381            2 
 2089000   0.91563631   -7.8231987    553.18844  0.022067514  0.021830419            1 
 2090000    0.9068964   -7.7682185    554.43255  0.022106561  0.021824401            2 
 2091000   0.93240111   -7.7854519    553.23747  0.022048361  0.021818402            2 
 2092000   0.93657537   -7.8365272    553.31958  0.022041092  0.021812393            2 
 2093000   0.92423681   -7.7889198    554.34308  0.022071312  0.021806329            1 
 2094000   0.93151133   -7.8013771    553.81447  0.022039735  0.021800165            3 
 2095000   0.91514894   -7.8143597    553.94933  0.022034579  0.021794014            2 
 2096000   0.93204531   -7.7943401    554.72844  0.022055043  0.021787865            2 
 2097000   0.92330153   -7.8136561    554.36001  0.022029884  0.021781751            2 
 2098000    0.9298117   -7.8554037    553.23423  0.021974668  0.021775654            2 
 2099000   0.90846114   -7.8209458    554.26868  0.022005268  0.021769488            2 
 2100000    0.9195374   -7.8278795    553.54183  0.021965946  0.021763317            2 
 2101000   0.91296185   -7.8054494    554.52884  0.021994639   0.02175728            1 
 2102000   0.92019234   -7.7888595    555.76739  0.022033277  0.021751263            4 
 2103000   0.92074294    -7.801287     555.4155  0.022008856  0.021745224            3 
 2104000   0.92053007   -7.8221888    554.44722  0.021960045  0.021739162            3 
 2105000   0.89760003   -7.8157314    555.26421  0.021981956  0.021733123            2 
 2106000   0.92096093   -7.8117044      555.273  0.021971866  0.021727011            3 
 2107000   0.90641558   -7.7833096    557.98071   0.02206853  0.021720965            2 
 2108000   0.91592623   -7.8033563    555.66222  0.021966406  0.021714962            2 
 2109000   0.90547268   -7.8013519    556.79963  0.022000934  0.021709027            2 
 2110000   0.90520308   -7.7272483    557.58151  0.022021387  0.021703087            3 
 2111000   0.92861338   -7.8216033    555.78599  0.021940075  0.021697054            4 
 2112000   0.92436575   -7.8423539    555.46498  0.021917021  0.021690978            1 
 2113000   0.93334131   -7.8425292    555.17057  0.021895038  0.021684905            3 
 2114000   0.90931583   -7.7923306     555.8293  0.021910647  0.021678861            3 
 2115000   0.91330986   -7.7822243    556.45961  0.021925122  0.021672804            2 
 2116000   0.91367576   -7.8466079    556.15515  0.021902771   0.02166674            3 
 2117000   0.91111951   -7.8328817    556.00248  0.021886415  0.021660636            2 
 2118000   0.90967171   -7.7901511    557.06303  0.021917809  0.021654547            2 
 2119000   0.90521828   -7.8152807    556.55713   0.02188757  0.021648467            3 
 2120000   0.92077657   -7.8378191    556.86526  0.021889358  0.021642374            3 
 2121000   0.92095507   -7.8309053      555.917  0.021841781  0.021636269            1 
 2122000   0.92921118   -7.8351918    555.12074  0.021800218  0.021630147            3 
 2123000   0.91910345    -7.823919    555.51893  0.021805579  0.021624023            2 
 2124000   0.90425784   -7.8079325    556.56725  0.021836443  0.021617876            3 
 2125000   0.90666815   -7.8323177    556.74983  0.021833327  0.021611774            2 
 2126000   0.90495484   -7.8527595    556.44322  0.021811039  0.021605711            3 
 2127000   0.91992215   -7.8374669    556.49612  0.021802857   0.02159958            3 
 2128000    0.9141588   -7.8134326    556.85708  0.021806747   0.02159349            1 
 2129000   0.90351689   -7.8197356    556.45312  0.021780692  0.021587358            3 
 2130000   0.92503715   -7.8193405    557.14587  0.021797569  0.021581273            1 
 2131000    0.9227842   -7.8688769    556.47926  0.021761273  0.021575155            4 
 2132000   0.91795482   -7.8488635    557.78353  0.021802046  0.021568996            1 
 2133000    0.8997109   -7.8727171    558.23047  0.021809285  0.021562852            4 
 2134000   0.92097114   -7.8081914    557.67511  0.021777378  0.021556742            3 
 2135000   0.92446097   -7.8454054     556.6401   0.02172678   0.02155064            3 
 2136000   0.91649411   -7.7983411    558.20292   0.02177758  0.021544576            2 
 2137000   0.90734639   -7.8165505    559.00493  0.021798663  0.021538492            2 
 2138000   0.89880887   -7.7985068    559.07211  0.021791086  0.021532405            2 
 2139000    0.8890672   -7.8352025    558.38035  0.021753949  0.021526341            2 
 2140000   0.93550695   -7.8300204    558.92733  0.021765083  0.021520272            1 
 2141000   0.92461089   -7.8288908    558.77252  0.021748892  0.021514199            2 
 2142000   0.88932563    -7.841344    559.18638  0.021754839  0.021508118            2 
 2143000   0.89578452   -7.8241161    557.55361  0.021681195  0.021501979            1 
 2144000   0.91289564   -7.8179101    559.53238  0.021747994  0.021495845            2 
 2145000   0.90819702   -7.8685741    559.07177   0.02171996  0.021489761            1 
 2146000   0.91068796   -7.8348132    558.19828  0.021675919  0.021483636            2 
 2147000   0.91894416   -7.8446024    559.75937  0.021726416  0.021477539            2 
 2148000   0.91428306   -7.8553962    559.14027  0.021692282  0.021471429            2 
 2149000    0.8901174   -7.8681029    559.31282  0.021688879  0.021465301            2 
 2150000   0.90281788   -7.8565912    559.52508  0.021687019  0.021459134            1 
 2151000   0.88893332   -7.8372742    558.74481  0.021646707  0.021453037            1 
 2152000   0.90218146   -7.9175211    557.45345  0.021586642  0.021446878            3 
 2153000   0.90382039   -7.8395195    558.24619    0.0216073  0.021440687            8 
 2154000   0.92308993    -7.832035    559.83969  0.021658917  0.021434504            3 
 2155000   0.91443846   -7.8471852    559.70792  0.021643771  0.021428358            2 
 2156000   0.89190917   -7.7749781    561.51838   0.02170371  0.021422239            1 
 2157000   0.92430567   -7.8484685    559.95803  0.021633365  0.021416241            1 
 2158000    0.8981765    -7.808476    561.12238  0.021668303  0.021410191            2 
 2159000   0.92790309   -7.8361479    561.94992  0.021690208  0.021404113            2 
 2160000   0.91989928   -7.8265749     561.5521  0.021664819  0.021398062            1 
 2161000    0.9114219     -7.85151    559.93064  0.021592266  0.021391983            3 
 2162000   0.91394874   -7.8209546     561.2859  0.021634517  0.021385915            2 
 2163000   0.91190254   -7.8383052    560.75548  0.021604079  0.021379838            4 
 2164000   0.89929637   -7.8463056    561.84618  0.021636098  0.021373723            5 
 2165000   0.91525715   -7.8335498    561.27409  0.021604083  0.021367608            3 
 2166000   0.90031566   -7.8342385    560.19833  0.021552721  0.021361498            2 
 2167000   0.92154585   -7.8615731    561.26147  0.021583659  0.021355379            1 
 2168000   0.90570743    -7.849487    559.87658  0.021520471  0.021349243            3 
 2169000   0.90323788   -7.8464539    561.64658  0.021578553   0.02134311            2 
 2170000   0.90925303   -7.8489172    561.57794  0.021565973  0.021337002            2 
 2171000   0.89413019   -7.8506366    560.65021  0.021520429  0.021330886            1 
 2172000   0.90838184   -7.8264436     561.7581  0.021553027   0.02132476            3 
 2173000   0.90228529   -7.8176464    561.09225  0.021517573  0.021318631            3 
 2174000   0.89263729   -7.8117414    565.28728  0.021668479   0.02131258            1 
 2175000    0.9040083   -7.8405335    562.86574  0.021565737  0.021306542            2 
 2176000   0.89563227   -7.8118344    562.63837  0.021547119  0.021300503            3 
 2177000   0.89811245    -7.839339    561.79856  0.021505074   0.02129449            3 
 2178000   0.89749654   -7.8272294    563.37547  0.021555535  0.021288403            1 
 2179000   0.90608667    -7.877591    560.85166  0.021449123  0.021282249            2 
 2180000   0.90921726   -7.8428354    561.84385  0.021477211  0.021276098            2 
 2181000   0.87824374   -7.8811679    562.56351  0.021494861   0.02126998            3 
 2182000   0.91966885   -7.8600172    562.66662  0.021488948  0.021263811            3 
 2183000    0.8982972   -7.8530482    562.68955   0.02147998  0.021257703            2 
 2184000   0.89338798   -7.9188515    562.49904  0.021462876  0.021251555            4 
 2185000    0.8748395   -7.8380598    562.15582  0.021439963  0.021245432            1 
 2186000   0.90121418   -7.8676711    562.63043  0.021448247  0.021239244            1 
 2187000   0.91242185   -7.8868722    561.29323  0.021387488  0.021233081            2 
 2188000   0.89524464   -7.8532966     563.0704  0.021445399  0.021226906            1 
 2189000   0.90366211    -7.853086    564.13028  0.021475951  0.021220755            1 
 2190000   0.89333438   -7.8420535     562.8691  0.021418154  0.021214625            2 
 2191000   0.89538078    -7.845894    563.84307  0.021445423  0.021208556            1 
 2192000   0.91243173   -7.8407633    564.10624  0.021445645  0.021202501            4 
 2193000   0.91315241   -7.8158444    564.74148  0.021460005  0.021196476            3 
 2194000   0.89627944   -7.8441595    565.16133   0.02146617  0.021190427            3 
 2195000   0.91241178    -7.852501    563.47844    0.0213925  0.021184318            2 
 2196000   0.91158096   -7.8587013    563.06147  0.021366935  0.021178236            1 
 2197000   0.88825704   -7.8125747     565.7029    0.0214574  0.021172157            1 
 2198000   0.90800325   -7.8498289    565.37575  0.021435235   0.02116611            2 
 2199000   0.88285073   -7.8202008    566.23454  0.021458032  0.021160083            3 
 2200000   0.89924266   -7.8366381    564.63082  0.021387531   0.02115401            3 
 2201000   0.86271771   -7.8421525    564.58799  0.021376192  0.021147937            2 
 2202000    0.9240531   -7.8354157    566.08362  0.021423086  0.021141925            4 
 2203000   0.89061638   -7.8598065    564.06171  0.021336878  0.021135853            1 
 2204000   0.87975867   -7.8534057    565.70829  0.021389454   0.02112978            1 
 2205000    0.8989127   -7.8589991    563.25567  0.021287062  0.021123647            2 
 2206000   0.88881995    -7.861154    565.85919  0.021375763  0.021117536            1 
 2207000   0.90535783   -7.9056353    562.81309  0.021251061  0.021111395            1 
 2208000   0.90258897   -7.8636159    564.22768  0.021294825  0.021105252            1 
 2209000   0.91126643   -7.8391825    566.20497  0.021359777  0.021099159            3 
 2210000   0.91408422   -7.8714763    565.46004  0.021322023  0.021093075            3 
 2211000   0.88187642   -7.8608607    565.99085  0.021332385  0.021086996            1 
 2212000   0.89753988   -7.9031762    564.56438  0.021269002  0.021080858            1 
 2213000   0.88476279    -7.865974    564.11599  0.021242506   0.02107468            1 
 2214000   0.90895885   -7.8549669    565.11073  0.021270353  0.021068463            2 
 2215000   0.88987813   -7.8907345    565.39206  0.021271334  0.021062274            2 
 2216000   0.91497865   -7.8976929    565.58842  0.021269119  0.021056062            2 
 2217000   0.89923885   -7.8868691    564.46447  0.021217278  0.021049839            3 
 2218000   0.89295851   -7.8490912    565.85734  0.021260044  0.021043633            1 
 2219000   0.90634496   -7.8711072    565.07621  0.021221129  0.021037441            3 
 2220000   0.87634178    -7.885315    565.47317   0.02122647  0.021031276            3 
 2221000   0.90275795    -7.868793    564.74996  0.021189778   0.02102506            1 
 2222000    0.8818693   -7.8570104    564.52093  0.021171652  0.021018851            1 
 2223000   0.92101476   -7.8961445    564.52101  0.021162131  0.021012561            2 
 2224000   0.89777245   -7.8588534    564.02604  0.021134069  0.021006309            2 
 2225000   0.88687341   -7.8755657    565.90074  0.021194784  0.021000116            2 
 2226000   0.89816035   -7.8585336     566.2685  0.021199031  0.020993876            2 
 2227000   0.90269312   -7.8727431    566.45166  0.021196365  0.020987702            3 
 2228000   0.89257952   -7.8410736    565.97343  0.021168964   0.02098148            1 
 2229000   0.88812333   -7.8446797    565.41971  0.021138766  0.020975272            3 
 2230000    0.8905345   -7.8582661    566.45193   0.02116786    0.0209691            3 
 2231000   0.90440436    -7.877262    567.58061  0.021200531  0.020962928            2 
 2232000   0.88678405   -7.8565794    567.54311  0.021189632  0.020956751            3 
 2233000   0.88269424   -7.8436496    566.73555  0.021150005  0.020950597            2 
 2234000    0.8922763   -7.8535582    566.87508  0.021145743   0.02094445            1 
 2235000   0.89334828   -7.8388948    566.90658  0.021137456    0.0209383            2 
 2236000   0.90777121   -7.8778284    567.41701  0.021147026  0.020932156            4 
 2237000   0.88208328   -7.8697967    567.53404  0.021141933  0.020925933            1 
 2238000   0.89017516    -7.882301     566.9963  0.021112463  0.020919763            1 
 2239000   0.89536864   -7.8577234    569.53198  0.021197409  0.020913657            2 
 2240000   0.89664742   -7.8649076    569.22481  0.021176518  0.020907636            3 
 2241000   0.90496559    -7.872994     567.7234  0.021111238  0.020901577            3 
 2242000   0.89868378   -7.8825403    568.66167  0.021136696  0.020895475            2 
 2243000   0.88983366   -7.8885604    568.16627  0.021108867  0.020889338            2 
 2244000   0.90595144   -7.9235629    568.23592  0.021102047  0.020883221            2 
 2245000   0.87324108   -7.9091601    567.95079  0.021082064  0.020877049            2 
 2246000   0.85608663   -7.8690627    568.86663  0.021106657  0.020870912            1 
 2247000   0.90835625   -7.8908936    567.89283  0.021061149  0.020864779            1 
 2248000   0.89087905   -7.8835608    568.59202    0.0210777  0.020858698            1 
 2249000   0.87464542   -7.8634662    568.99365  0.021083209  0.020852657            1 
 2250000   0.89241946   -7.8406805    568.94485  0.021072031  0.020846605            2 
 2251000   0.87769637     -7.87078    570.07903  0.021104658  0.020840533            2 
 2252000    0.8793869   -7.8986141    567.51381  0.021000363  0.020834427            2 
 2253000   0.90410223   -7.8583832    569.38978   0.02106043   0.02082832            2 
 2254000   0.89814186   -7.8612266    570.41272  0.021088905  0.020822271            1 
 2255000   0.89638336   -7.8566414    569.57867  0.021048731  0.020816189            1 
 2256000   0.88439493   -7.8552767    569.70533   0.02104408  0.020810219            1 
 2257000   0.89342217   -7.8441932    571.58377  0.021104112  0.020804268            2 
 2258000   0.89752123   -7.8701497    569.13302  0.021004319  0.020798303            1 
 2259000   0.90452335   -7.8803607    570.68504  0.021052274  0.020792299            1 
 2260000   0.87181233    -7.907968    569.18762  0.020987744  0.020786242            4 
 2261000   0.88257561    -7.881978     569.2505  0.020980779  0.020780142            1 
 2262000    0.9060338    -7.884613    570.78064  0.021027875  0.020774096            2 
 2263000   0.91121073   -7.8688038    571.83213  0.021057303  0.020768045            1 
 2264000   0.88618929   -7.8484029    570.24938  0.020989745  0.020761998            2 
 2265000   0.88696999   -7.8735731    570.94991  0.021006251  0.020755952            3 
 2266000   0.88112687   -7.9084935    569.31122  0.020936718  0.020749903            2 
 2267000   0.88530187   -7.8812678    570.45566  0.020969551  0.020743824            2 
 2268000   0.89015308   -7.8677923    572.21439  0.021024926  0.020737765            3 
 2269000   0.88621049   -7.8907174    571.85531  0.021002472   0.02073173            2 
 2270000    0.8977894   -7.8724592    570.43496  0.020941078  0.020725705            1 
 2271000   0.91329215   -7.8839986    569.69256  0.020904615  0.020719655            2 
 2272000   0.90472473   -7.8851959    571.83562  0.020974018  0.020713642            1 
 2273000   0.89958224   -7.8999013    571.54256  0.020954046  0.020707566            3 
 2274000   0.90322362   -7.8982791     572.0289  0.020962654  0.020701495            6 
 2275000   0.88981309   -7.9331943    569.58349  0.020863864   0.02069543            2 
 2276000   0.88039763    -7.892954    571.69271  0.020931924  0.020689345            3 
 2277000    0.8804637    -7.875996    573.54285  0.020990443  0.020683321            2 
 2278000   0.89192164   -7.8364669    571.63668  0.020911497  0.020677271            2 
 2279000   0.88177981   -7.8919238    570.98962  0.020878661  0.020671183            6 
 2280000    0.8820386   -7.8911947    571.10201  0.020873612  0.020665063            1 
 2281000   0.89550575   -7.8771038    570.66389  0.020848454  0.020658906            2 
 2282000   0.88355972   -7.8966004    570.54977  0.020835151  0.020652727            2 
 2283000   0.88683665   -7.9227095    570.53873  0.020825622  0.020646573            1 
 2284000    0.8907036   -7.9251501    571.04248  0.020834883  0.020640405            1 
 2285000   0.87951652   -7.9380012    571.08178  0.020827198  0.020634232            3 
 2286000   0.88553153   -7.9231007    571.09718  0.020818649  0.020628113            2 
 2287000   0.87826353   -7.9077123    570.24697  0.020778566  0.020621946            3 
 2288000   0.87117432   -7.9182649    571.67245  0.020821403  0.020615764            1 
 2289000   0.89305194   -7.8674867    571.33035  0.020799853  0.020609619            2 
 2290000   0.88979071   -7.8800944    571.96211   0.02081376  0.020603541            1 
 2291000   0.86365411    -7.927433    572.23264  0.020814515   0.02059751            1 
 2292000   0.87429106   -7.9042426    572.48493  0.020814606  0.020591406            1 
 2293000   0.87295313   -7.8692828    572.31742  0.020799441  0.020585345            2 
 2294000    0.8785088   -7.9006748    572.82098  0.020808667  0.020579328            1 
 2295000   0.87891112   -7.9186108    571.70367  0.020759029  0.020573254            1 
 2296000    0.8879968   -7.9393976    571.09085  0.020727746  0.020567123            2 
 2297000    0.8850651   -7.8981978    572.70335  0.020777222  0.020560999            2 
 2298000   0.88730747   -7.8960958    573.15346  0.020784503  0.020554947            2 
 2299000   0.87543504   -7.8888711    572.61087  0.020755795  0.020548866            1 
 2300000   0.89531372   -7.8883952    574.16688  0.020803148  0.020542766            1 
 2301000    0.8701457   -7.9023392    573.35783  0.020764806  0.020536641            2 
 2302000   0.86792834   -7.9108244    572.40421  0.020721264  0.020530517            2 
 2303000   0.88769353   -7.8977437     573.2815  0.020744012  0.020524401            5 
 2304000   0.87419295   -7.9114633      571.487  0.020670103  0.020518212            5 
 2305000   0.87236408   -7.9045801    572.67378  0.020704041  0.020512046            3 
 2306000   0.87822088   -7.9358496    572.90084  0.020703268  0.020505851            2 
 2307000   0.87945049   -7.9167357    571.30715  0.020636727  0.020499599            3 
 2308000   0.88980073   -7.9426459    572.87095  0.020684249   0.02049338            3 
 2309000   0.86233023   -7.9398111    572.11619  0.020648051  0.020487146            2 
 2310000   0.89539156    -7.902748    572.57274  0.020655582  0.020480932            3 
 2311000   0.89281274    -7.951162     572.0443  0.020627589  0.020474798            2 
 2312000   0.87738937   -7.9244573    572.95805  0.020651602   0.02046863            1 
 2313000   0.89786952   -7.9202675    573.36865  0.020657467  0.020462445            2 
 2314000   0.88534856   -7.8753707    573.79871  0.020664027  0.020456334            2 
 2315000   0.87338879   -7.8878077     574.2671  0.020671962  0.020450265            2 
 2316000   0.87845137   -7.8766451    574.62612  0.020675954  0.020444195            2 
 2317000   0.87159153   -7.9048906    572.97059  0.020607488  0.020438097            2 
 2318000   0.88073451    -7.880325    575.06261  0.020673807  0.020432041            5 
 2319000   0.88305272     -7.89896    575.60575   0.02068441  0.020425951            2 
 2320000   0.88497313   -7.9524378    573.25651   0.02059111  0.020419858            5 
 2321000   0.86819055   -7.9144365    574.14368  0.020614092   0.02041371            1 
 2322000   0.85487721   -7.8928448    575.17938  0.020642384  0.020407562            4 
 2323000   0.87678552   -7.8956236    574.86059  0.020622062  0.020401444            3 
 2324000   0.86721548   -7.9137171    574.53735  0.020601597   0.02039531            2 
 2325000   0.88671547   -7.9096553    574.38447  0.020587257  0.020389214            2 
 2326000   0.89893152   -7.8923353    574.87221   0.02059588   0.02038315            2 
 2327000   0.88789034   -7.9007513    575.91249  0.020624283  0.020377067            1 
 2328000   0.87156633   -7.8760462    576.14447  0.020623728  0.020371012            1 
 2329000   0.87325065   -7.8969812     575.5987  0.020595345  0.020364922            2 
 2330000   0.86956787   -7.9020173    576.05074  0.020602673  0.020358807            1 
 2331000   0.87254352   -7.9178479    574.92037  0.020553424  0.020352686            3 
 2332000   0.88159147   -7.9387421    575.47821  0.020564544  0.020346541            2 
 2333000   0.89087322   -7.8939064    576.09061  0.020577604  0.020340376            2 
 2334000   0.87323275    -7.926631    574.09731  0.020497619  0.020334284            2 
 2335000   0.88296011   -7.8942488    574.43289  0.020500817  0.020328205            2 
 2336000    0.8895136   -7.8760414    576.56228  0.020568004  0.020322168            2 
 2337000   0.86865249   -7.9061903    575.20064  0.020510649   0.02031614            1 
 2338000   0.87010922   -7.9065904    575.22598   0.02050278  0.020310022            3 
 2339000   0.87311887   -7.9307169    576.41362  0.020536327   0.02030392            2 
 2340000   0.85921015   -7.8932766    577.07716  0.020551181  0.020297888            2 
 2341000   0.88327636   -7.9015719    575.97359  0.020503118  0.020291869            2 
 2342000   0.88904153   -7.8790374    576.92976  0.020528386  0.020285804            3 
 2343000   0.87872144   -7.9251321    576.40512  0.020500965  0.020279745            5 
 2344000   0.87384514   -7.9257662    577.81363  0.020542293   0.02027369            1 
 2345000   0.87683469   -7.8931797    576.42053  0.020484027  0.020267685            3 
 2346000    0.8739743   -7.9336911    576.35551  0.020472986  0.020261588            3 
 2347000   0.87695087    -7.926432    576.36728  0.020464681  0.020255545            2 
 2348000   0.87229362   -7.9079974    577.82206  0.020507597  0.020249492            2 
 2349000   0.86939351   -7.9219143    576.86331  0.020464854  0.020243459            3 
 2350000   0.87599278   -7.8985939    577.83554  0.020490622  0.020237451            1 
 2351000   0.88968864   -7.9093963    577.48676  0.020469543  0.020231455            2 
 2352000   0.86659589   -7.8859016    578.31146   0.02049006   0.02022549            2 
 2353000    0.8629492   -7.9128113    577.22362  0.020442825  0.020219457            3 
 2354000   0.89016106   -7.9073042    577.57332  0.020446521  0.020213464            3 
 2355000   0.88994716   -7.9000348    576.81895  0.020411145  0.020207414            2 
 2356000   0.88169459   -7.8941529    578.51371  0.020462426  0.020201329            7 
 2357000   0.87422475   -7.9107059    578.56042  0.020455396  0.020195239            3 
 2358000   0.85672812   -7.9215934    579.13088  0.020466882  0.020189161            2 
 2359000    0.8646045   -7.9013081    577.42428  0.020397919  0.020183079            2 
 2360000   0.85246437   -7.9318458    577.67916  0.020398275  0.020176997            6 
 2361000   0.87381721   -7.9226558    577.75154   0.02039219  0.020170938            8 
 2362000   0.88286607   -7.8750173    578.89144  0.020423774  0.020164942            3 
 2363000   0.87266732    -7.892627    578.93058  0.020416511  0.020158924            2 
 2364000    0.8557162   -7.9206957    578.82447  0.020404134  0.020152868            2 
 2365000   0.87585873   -7.9248326    577.23881  0.020339634  0.020146797            2 
 2366000   0.87404718    -7.909811    577.48654  0.020339763  0.020140746            2 
 2367000   0.86438513   -7.9088011    579.25224  0.020393333  0.020134683            2 
 2368000   0.88258872    -7.931813    578.10563   0.02034437  0.020128675            5 
 2369000   0.85953436   -7.8729602    578.59617  0.020353038  0.020122633            1 
 2370000   0.85843449   -7.9116587    579.55702  0.020378236  0.020116627            2 
 2371000   0.87735903   -7.9317329    578.64895  0.020337725  0.020110599            2 
 2372000   0.88053277   -7.9163244    579.14253  0.020346491  0.020104565            2 
 2373000   0.86931473   -7.9173284    580.26507  0.020377338  0.020098568            1 
 2374000   0.85609055   -7.9586212    579.29964  0.020334865  0.020092536            2 
 2375000   0.87082652   -7.9329939    578.79527  0.020308606  0.020086539            3 
 2376000   0.86554954   -7.9241152    578.69934  0.020296694   0.02008046            3 
 2377000   0.87317106    -7.909247    579.44885  0.020314432  0.020074361            3 
 2378000   0.84744024   -7.9343702    580.76679  0.020352074  0.020068265            3 
 2379000   0.87453619   -7.9265752    579.96504  0.020315435  0.020062221            1 
 2380000   0.89846573   -7.9164569    580.07622  0.020310792  0.020056163            2 
 2381000   0.86695202   -7.9041626    581.66152  0.020357746  0.020050136            1 
 2382000   0.87871509    -7.923464    580.22801  0.020299049  0.020044138            8 
 2383000   0.86000636   -7.9077741    579.87391  0.020278148  0.020038073            4 
 2384000    0.8707712    -7.893955    579.23076   0.02024716  0.020032029            3 
 2385000   0.88114955   -7.9358931    579.43765    0.0202459   0.02002597            2 
 2386000   0.87328125   -7.9427735    579.43375  0.020237278  0.020019857            1 
 2387000   0.87463681   -7.9732601    578.90293  0.020210268  0.020013779            1 
 2388000   0.87246936   -7.9687286    580.04851  0.020241782   0.02000772            1 
 2389000   0.85721425   -7.9644007    579.38691  0.020210231  0.020001651            1 
 2390000   0.87919123   -7.8960258    580.94383  0.020256061  0.019995603            6 
 2391000   0.88359945    -7.957206    579.50013  0.020197272  0.019989563            2 
 2392000   0.88490636   -7.9297889    582.44052  0.020291267  0.019983516            3 
 2393000    0.8593839   -7.9038227    580.78901  0.020225275  0.019977498            4 
 2394000   0.84428605   -7.9198434    580.66846  0.020212631  0.019971516            1 
 2395000   0.88119885   -7.9389654     580.6621   0.02020397  0.019965495            1 
 2396000   0.86858025   -7.9090449    581.38645  0.020220731  0.019959533            1 
 2397000   0.85668012   -7.9280553    580.20299  0.020171151  0.019953558            1 
 2398000   0.87813222   -7.9199121    581.59817  0.020211224  0.019947531            1 
 2399000   0.87027711   -7.9375011    580.00583  0.020147486  0.019941503            2 
 2400000   0.85542132   -7.9253955    580.55365  0.020158113  0.019935487            2 
 2401000   0.85599552   -7.9330339    580.29027  0.020140576   0.01992948            2 
 2402000   0.86966774   -7.9572326    581.51364  0.020174634  0.019923433            1 
 2403000   0.89012096   -7.9452948    581.54846  0.020167445  0.019917406            4 
 2404000   0.87499728   -7.9166249    580.49583  0.020122568  0.019911429            1 
 2405000   0.85758287   -7.9537124    581.30511  0.020142242  0.019905422            1 
 2406000   0.87190543   -7.9633891    581.64708  0.020145715  0.019899423            1 
 2407000   0.85703358   -7.9539249    581.95207  0.020147904  0.019893446            2 
 2408000   0.86652279   -7.9272377    581.51707  0.020124483  0.019887464            1 
 2409000   0.88835946   -7.9134013     581.5546  0.020117428  0.019881467            3 
 2410000    0.8750681   -7.9072649    583.26409  0.020168191   0.01987548            2 
 2411000   0.86377793   -7.9245719    582.47243  0.020132463  0.019869475            1 
 2412000     0.880736   -7.9415067    581.79885  0.020100845  0.019863472            1 
 2413000    0.8807665   -7.9497553    581.48773   0.02008177  0.019857468            1 
 2414000   0.82784848    -7.955847    579.62571  0.020009172  0.019851445            3 
 2415000   0.86946231   -7.9529723    581.74818  0.020074126  0.019845404            2 
 2416000   0.86631841   -7.9096714    583.45455  0.020124674  0.019839434            1 
 2417000   0.85327498   -7.9251476    582.65145  0.020088658  0.019833489            3 
 2418000    0.8701675   -7.9248764    583.30333  0.020102817  0.019827509            2 
 2419000   0.85951251   -7.9559954    583.40567  0.020098032  0.019821526            2 
 2420000   0.88402322    -7.923422    583.05185  0.020077543  0.019815592            3 
 2421000   0.88530204   -7.9329482    582.62808  0.020054663  0.019809637            2 
 2422000   0.87534998   -7.9405311    584.50068  0.020110813   0.01980369            1 
 2423000   0.85185989   -7.9322202    582.63355  0.020038298  0.019797751            2 
 2424000   0.90970431   -7.9250879    584.41565  0.020091297  0.019791833            1 
 2425000   0.85229156   -7.9158467    584.26975  0.020077998  0.019785935            3 
 2426000   0.85464481   -7.9270687     584.3325  0.020071878  0.019780008            2 
 2427000   0.87208939   -7.9676923    582.33618  0.019995062  0.019774034            4 
 2428000   0.86084493   -7.9660224    583.70953  0.020033962   0.01976801            2 
 2429000   0.87279437   -7.9565009    583.79332  0.020028589  0.019762031            1 
 2430000   0.85002357   -7.9563728    583.38146  0.020006223   0.01975605            1 
 2431000   0.84891647   -7.9199544    584.32767  0.020030429  0.019750047            7 
 2432000     0.858835   -7.9424806    584.97306  0.020044307  0.019744135            1 
 2433000   0.88650585   -7.9898309    583.78109  0.019995242  0.019738212            2 
 2434000   0.86172691   -7.9438651    583.41801  0.019974596  0.019732264            1 
 2435000   0.85045349    -7.945879    584.59352  0.020006623  0.019726347            3 
 2436000   0.85602985   -7.9301665    585.76726  0.020038563  0.019720426            3 
 2437000   0.86405301   -7.9494313    584.36259  0.019982307  0.019714503            1 
 2438000    0.8693163   -7.9289582    585.40189  0.020009635   0.01970858            3 
 2439000   0.85702162   -7.9928261    583.61455  0.019940363  0.019702641            3 
 2440000   0.87316794   -7.9434461      584.927  0.019977015  0.019696711            2 
 2441000   0.87398767   -7.9654207    584.86775  0.019966808  0.019690821            3 
 2442000    0.8555202   -7.9899539    583.62803  0.019916326  0.019684892            3 
 2443000   0.84196782   -7.9587904    585.02204  0.019955725  0.019678929            1 
 2444000   0.86316028   -7.9761853    585.83008  0.019975112  0.019672991            2 
 2445000   0.86003259   -7.9874917    584.71724  0.019929013  0.019667022            4 
 2446000   0.85169432   -7.9832555    583.90827  0.019893304   0.01966105            2 
 2447000   0.87686576   -7.9479334    584.70281  0.019912233  0.019655064            2 
 2448000    0.8594628   -7.9751377    585.11305  0.019918064   0.01964907            1 
 2449000    0.8463095   -7.9549406    584.40738  0.019885919  0.019643068            4 
 2450000   0.86779357   -7.9461151    584.60049  0.019884371  0.019637068            1 
 2451000   0.86595958   -7.9775348    584.85999  0.019885081  0.019631077            2 
 2452000   0.88030378   -7.9802542    585.71122  0.019905901  0.019625032            2 
 2453000   0.86861479   -7.9492972    584.76714  0.019865713  0.019619054            3 
 2454000    0.8429568   -7.9849234    585.55652  0.019884424  0.019613078            3 
 2455000   0.85175177   -7.9501922     585.5971  0.019877702  0.019607106            2 
 2456000   0.85426224   -7.9361611    587.34976  0.019929077  0.019601183            1 
 2457000   0.84201591   -7.9901092    584.49191  0.019824037  0.019595197            2 
 2458000   0.87059225   -7.9882532    585.72451  0.019857761  0.019589201            3 
 2459000   0.85567511   -7.9726648    585.51106  0.019842452   0.01958324            3 
 2460000   0.85565761   -7.9581853    587.05561  0.019886708  0.019577291            3 
 2461000   0.84830802   -7.9506799    586.82117  0.019870688   0.01957136            1 
 2462000   0.85317485   -7.9728175     585.7563  0.019826574  0.019565402            8 
 2463000   0.87965133   -8.0010877    586.32039   0.01983761  0.019559437            2 
 2464000    0.8648489   -7.9809112    586.66757    0.0198413   0.01955348            1 
 2465000   0.87096854   -7.9829089    585.20444  0.019783788  0.019547487            2 
 2466000   0.84684285   -7.9502526    587.69962  0.019860084  0.019541547            2 
 2467000   0.84704376   -7.9416923    587.12973  0.019832784  0.019535609            2 
 2468000   0.85752329    -7.978538    585.36535  0.019765172  0.019529614            4 
 2469000   0.86336518   -7.9875603    585.89299  0.019774976    0.0195236            2 
 2470000   0.85948663   -7.9822713    587.11554  0.019808216  0.019517626            3 
 2471000   0.86254307   -7.9711684     586.0086  0.019762869  0.019511652            3 
 2472000   0.86060571   -7.9972568    585.81597  0.019748381  0.019505643            1 
 2473000   0.82687176   -8.0124866    585.97194  0.019745651  0.019499663            2 
 2474000    0.8620585    -7.974034    587.25434  0.019780866  0.019493711            2 
 2475000   0.87026096   -7.9648543    587.87828  0.019793882  0.019487753            2 
 2476000   0.85373516   -7.9653348    587.53402    0.0197743  0.019481819            2 
 2477000   0.83039408   -7.9974994    585.36967  0.019693502  0.019475845            2 
 2478000   0.85651054   -7.9573751    588.02904  0.019774988  0.019469881            4 
 2479000   0.85140048   -7.9886518     585.5905  0.019685038  0.019463938            2 
 2480000   0.86713103   -7.9656844    586.14125  0.019695607  0.019458029            3 
 2481000   0.86367353   -7.9426129    588.59369  0.019770042  0.019452093            3 
 2482000   0.86557584   -8.0050818    587.35813  0.019720593  0.019446173            3 
 2483000   0.85969923   -7.9740895    588.23345  0.019742028  0.019440266            5 
 2484000    0.8568167   -7.9856985    587.07591  0.019695246  0.019434344            1 
 2485000   0.86929542   -7.9752686    588.48153  0.019734458  0.019428387            6 
 2486000     0.848834   -7.9683053    587.81355  0.019704128  0.019422467            1 
 2487000   0.83743428   -7.9961669    587.31919   0.01967964  0.019416523            2 
 2488000   0.84550452   -7.9647692     589.3819  0.019740819    0.0194106            3 
 2489000   0.85899579   -7.9837472    588.72192  0.019710791    0.0194047            2 
 2490000   0.84572913    -7.991254    587.88743  0.019674948  0.019398783            3 
 2491000   0.84366365   -7.9554182    585.98422   0.01960338  0.019392838            1 
 2492000   0.85376519   -7.9953723    588.12222  0.019667008  0.019386888            1 
 2493000   0.85876118   -7.9602763    588.32113  0.019665769  0.019380962            6 
 2494000    0.8199786   -7.9575552     588.7813  0.019673259   0.01937506            1 
 2495000    0.8700918   -7.9724993    587.83344  0.019633715  0.019369147            2 
 2496000   0.83707722   -7.9562655    589.26369  0.019673601  0.019363245            6 
 2497000   0.86483343   -7.9586591    589.60173  0.019677003  0.019357348            1 
 2498000   0.85676194   -7.9635865    588.62488  0.019636539  0.019351443            1 
 2499000   0.86334388   -7.9648494    587.69953  0.019597824  0.019345472            5 
 2500000   0.84008881    -7.992152    588.02627  0.019600876   0.01933949            2 
 2501000   0.83733011   -7.9696006     588.0044   0.01959231  0.019333524            4 
 2502000    0.8507822   -7.9595722    587.20957  0.019558006  0.019327542            2 
 2503000   0.86607979   -7.9761482    588.54618  0.019594692  0.019321571            2 
 2504000   0.85817022   -7.9473411    588.05213  0.019570425  0.019315638            1 
 2505000   0.85323677   -7.9946872    587.99532  0.019560722  0.019309668            2 
 2506000   0.87150487   -7.9652619    588.43504  0.019567539  0.019303684            3 
 2507000   0.82992563   -7.9555318     589.8283  0.019606046  0.019297714            2 
 2508000   0.85218382   -7.9590528    587.62526  0.019525028  0.019291769            2 
 2509000   0.85143829   -7.9625253    587.01616  0.019497016  0.019285842            3 
 2510000   0.86167607   -8.0029668    586.65245  0.019477173  0.019279834            1 
 2511000   0.85154986   -7.9659067    588.58807  0.019533654   0.01927385            1 
 2512000   0.85220606   -8.0003268    587.33806   0.01948441  0.019267854            3 
 2513000   0.84643969   -7.9871062    588.83952  0.019526446  0.019261891            3 
 2514000   0.85834076   -7.9594142    589.13507  0.019528476  0.019255951            1 
 2515000   0.84776033   -7.9828029    587.88321  0.019479232  0.019250004            2 
 2516000   0.85517462   -7.9578891    589.10157  0.019511843  0.019244065            3 
 2517000   0.83724875   -7.9523802    590.49297  0.019550158  0.019238124            2 
 2518000      0.82286   -7.9980365    588.84076  0.019487714  0.019232182            1 
 2519000   0.83390892   -7.9991141     587.3036  0.019429125  0.019226193            1 
 2520000   0.86433685   -7.9730447    589.41146   0.01949112  0.019220233            3 
 2521000   0.84593587   -8.0233948     588.4884  0.019452876  0.019214292            2 
 2522000   0.87262783   -7.9950423    588.66454  0.019450983  0.019208344            2 
 2523000   0.85320447   -7.9905038    588.76308  0.019446528   0.01920238            4 
 2524000   0.86372666    -8.006896     587.9006  0.019410347  0.019196424            1 
 2525000   0.86661505    -7.981242    590.48895  0.019488084  0.019190483            3 
 2526000   0.85616133   -7.9779584    590.17678  0.019470071  0.019184565            2 
 2527000   0.86432539   -7.9368274    590.43785  0.019470975  0.019178676            3 
 2528000   0.85479512   -7.9691192     590.2566  0.019457298  0.019172794            1 
 2529000   0.86282594   -7.9701455    590.85225  0.019469232  0.019166896            3 
 2530000   0.83013824   -8.0164134    588.58774  0.019386948  0.019160958            3 
 2531000   0.83253319   -7.9852523    589.72975  0.019416889  0.019154981            4 
 2532000   0.83726592   -7.9697824    590.01656   0.01941866  0.019149043            2 
 2533000   0.85984165   -7.9719368    589.27401  0.019386564  0.019143104            2 
 2534000   0.83294547   -8.0231773    589.42271  0.019383804  0.019137123            2 
 2535000   0.85875179   -7.9940612    589.95975  0.019393812  0.019131165            3 
 2536000    0.8477115   -7.9938083    589.68036  0.019376983  0.019125181            5 
 2537000   0.84097267    -8.007226     590.2537  0.019388178  0.019119209            2 
 2538000   0.83674536   -8.0230806    589.44942  0.019354131  0.019113245            2 
 2539000   0.84434952     -8.01366    590.38137  0.019377096  0.019107297            3 
 2540000   0.86002074   -7.9882131    589.29028  0.019333671  0.019101373            2 
 2541000    0.8559969   -7.9590006    590.61455  0.019369492  0.019095471            2 
 2542000   0.84691226   -7.9718851    590.49789  0.019358048  0.019089571            2 
 2543000    0.8432829    -7.979394    590.90548  0.019363792  0.019083677            1 
 2544000   0.86571078    -8.001869    591.07769  0.019361822  0.019077785            5 
 2545000   0.85549014   -7.9556195    591.65166  0.019373008  0.019071872            1 
 2546000   0.83545681   -8.0531681    590.10106  0.019314646  0.019065975            2 
 2547000   0.83630229   -8.0341756    589.04985  0.019272669  0.019059993            2 
 2548000   0.85720506   -8.0012921    590.69392  0.019318875  0.019054082            1 
 2549000   0.84492834   -8.0166644    590.65023  0.019309868   0.01904818            2 
 2550000   0.86141754   -8.0167484     591.4897  0.019329729  0.019042259            7 
 2551000   0.82463177   -8.0132544    589.89161  0.019269947  0.019036295            4 
 2552000   0.84019622    -8.004907    591.72255  0.019322183  0.019030351            5 
 2553000   0.85250527   -8.0353447    590.58835  0.019277593  0.019024363            1 
 2554000     0.850199   -8.0244822    591.06801  0.019285696    0.0190184            1 
 2555000   0.85320797   -8.0217498    590.93134   0.01927369  0.019012441            2 
 2556000   0.84964272   -8.0228212    589.07734  0.019205703   0.01900646            4 
 2557000   0.82764191   -8.0118084    590.17693  0.019234028  0.019000513            3 
 2558000   0.87018353   -7.9759064     592.1186  0.019289764  0.018994583            3 
 2559000   0.84448868   -8.0032582    591.43974  0.019260119   0.01898868            3 
 2560000   0.84909784     -8.00071    592.50128  0.019287151  0.018982785            2 
 2561000   0.83813472   -8.0160845    591.00632  0.019230975  0.018976863            2 
 2562000   0.84325736   -8.0137124       591.08  0.019225865  0.018970958            2 
 2563000   0.85285021   -8.0132759    591.58087  0.019234649  0.018965073            3 
 2564000   0.85517995   -8.0098792    591.80372   0.01923439  0.018959197            2 
 2565000   0.83209481   -7.9634627    592.70892    0.0192563   0.01895333            2 
 2566000   0.83166421   -7.9847595    592.34904  0.019237108  0.018947506            3 
 2567000   0.83224958   -8.0006331    592.50492  0.019234675  0.018941641            1 
 2568000   0.85110656   -7.9754523    592.16063  0.019216012   0.01893579            3 
 2569000   0.85124139   -8.0050837    592.99939   0.01923574  0.018929932            3 
 2570000   0.84398048   -8.0002048    592.59846  0.019215255  0.018924073            3 
 2571000   0.83593818   -8.0343069    591.60627  0.019175621  0.018918206            4 
 2572000   0.83852638   -8.0255204    591.63657  0.019169147  0.018912311            2 
 2573000   0.82315386   -8.0555055    591.04006  0.019142378  0.018906369            2 
 2574000   0.83473485   -8.0309155     592.9134   0.01919559   0.01890044            1 
 2575000   0.85067944   -8.0001078    592.41157  0.019171895  0.018894537            3 
 2576000   0.83576715    -8.026185     592.0415  0.019152481  0.018888661            2 
 2577000   0.82901888   -8.0611876    591.90831  0.019140742   0.01888276            4 
 2578000   0.84523058   -8.0203704    592.85108  0.019163792  0.018876849            2 
 2579000   0.83311582   -8.0232482    593.53309  0.019178399  0.018871002            2 
 2580000   0.83128362   -8.0159113      593.749  0.019177939  0.018865137            3 
 2581000   0.83617404   -8.0099593    592.50914  0.019130477  0.018859292            3 
 2582000   0.84196739   -8.0324861    592.53675  0.019123959  0.018853444            3 
 2583000   0.85750956   -7.9965845     594.1707   0.01916927   0.01884761            2 
 2584000   0.84127663   -8.0331163    593.44495  0.019138446   0.01884181            1 
 2585000    0.8452618   -8.0095214    591.90065  0.019081259  0.018835964            3 
 2586000   0.82944566   -7.9738715    593.66481   0.01913073  0.018830123            3 
 2587000   0.82335505   -8.0208972    593.35461  0.019113343  0.018824271            4 
 2588000   0.82735773   -8.0023213    594.72272   0.01915001  0.018818417            2 
 2589000   0.83707324   -8.0068121    593.18077  0.019092982  0.018812558            2 
 2590000   0.81095508   -8.0198681    594.09264   0.01911495  0.018806685            2 
 2591000   0.85025964   -8.0377529    593.09618  0.019075524    0.0188008            2 
 2592000    0.8219173   -7.9999706    593.87714  0.019093272  0.018794934            6 
 2593000   0.84455995   -8.0348983    595.33581  0.019132787  0.018789096            1 
 2594000   0.83404961   -8.0387183    593.61349  0.019070081  0.018783227            2 
 2595000   0.83593165   -8.0016944    593.67782  0.019064798  0.018777344            4 
 2596000   0.83428182    -8.005917    594.56229  0.019085846  0.018771439            1 
 2597000   0.85896316   -8.0509898    591.93858  0.018994307  0.018765547            3 
 2598000   0.81707894   -8.0187915    593.89197  0.019049652  0.018759656            2 
 2599000   0.84866699   -8.0364229    593.41538  0.019027042  0.018753773            3 
 2600000   0.81719914   -7.9829039    594.74662  0.019062392  0.018747904            2 
 2601000   0.82111379   -8.0145985    593.17778  0.019004799  0.018742067            1 
 2602000   0.84489204   -8.0375982     593.0882  0.018994626  0.018736211            2 
 2603000   0.82734916   -8.0285203    592.92189  0.018982004  0.018730319            1 
 2604000   0.82731132   -7.9986596    595.33641  0.019051984  0.018724453            3 
 2605000   0.83687243   -7.9932486    594.31757  0.019012078  0.018718593            1 
 2606000    0.8251495   -8.0224342    594.68902  0.019016661  0.018712743            2 
 2607000   0.85320498   -8.0305344    593.92954  0.018985089  0.018706871            1 
 2608000   0.84495327   -8.0119378    592.68426  0.018938019  0.018700971            4 
 2609000   0.82478255   -7.9957794    594.07067  0.018975044  0.018695056            4 
 2610000   0.84312804   -8.0069786    593.64133  0.018954066  0.018689188            1 
 2611000   0.85303615   -7.9999016    592.80946  0.018920256  0.018683337            1 
 2612000   0.83754041   -8.0471163    593.43042  0.018932824  0.018677462            4 
 2613000   0.82506184   -8.0843545     593.2102  0.018918555  0.018671516            2 
 2614000   0.83080699   -8.0258061    594.48938  0.018952097  0.018665618            1 
 2615000    0.8146523   -8.0364336     593.7089  0.018919978  0.018659728            2 
 2616000   0.83696741   -8.0268979    594.57124  0.018940215  0.018653803            2 
 2617000   0.82200294     -8.00384     596.4301   0.01899217  0.018647927            7 
 2618000   0.83817002    -8.033364    594.17571  0.018913156  0.018642053            5 
 2619000   0.81989436   -8.0345338    594.58881  0.018919079  0.018636176            3 
 2620000   0.82803921   -8.0513783    592.41135    0.0188426  0.018630238            2 
 2621000   0.81852186   -8.0232872    594.15698  0.018890912  0.018624312            7 
 2622000   0.83343013   -8.0166656    595.07605  0.018912918  0.018618429            5 
 2623000    0.8293545    -8.043261    594.73772  0.018894959  0.018612543            4 
 2624000   0.85144746   -8.0206427    593.24741  0.018840428  0.018606662            4 
 2625000   0.83486113   -7.9998168    594.78922  0.018882198  0.018600832            1 
 2626000   0.82820575   -8.0030928       595.28  0.018890581  0.018594983            3 
 2627000    0.8244415   -8.0291308    597.09064  0.018940827  0.018589149            2 
 2628000   0.84862826   -8.0025628    595.81992  0.018893326  0.018583295            1 
 2629000   0.82494841   -8.0218827    595.30246  0.018869737  0.018577469            2 
 2630000   0.85267203     -8.04482    594.83128  0.018847632  0.018571594            2 
 2631000   0.82422742   -8.0098881    595.56837  0.018863815  0.018565691            2 
 2632000    0.8226377   -8.0369094    593.38893  0.018787643  0.018559795            1 
 2633000   0.82518055   -8.0566026    594.57199  0.018817951   0.01855391            2 
 2634000   0.81101496    -8.050831    594.02398   0.01879347  0.018548025            2 
 2635000   0.81504118      -8.0323    595.61241  0.018836572  0.018542135            1 
 2636000   0.83113829   -8.0490966    593.59478  0.018765642  0.018536256            2 
 2637000   0.85489294   -8.0351291    596.24895  0.018842401  0.018530376            3 
 2638000   0.81914266   -8.0289384    595.65492  0.018816493  0.018524539            2 
 2639000   0.82892535   -8.0172285    596.47202  0.018835165  0.018518728            2 
 2640000    0.8456508   -8.0333441    596.58509    0.0188316  0.018512871            2 
 2641000   0.82199415   -8.0813177    595.99161  0.018805743  0.018507025            3 
 2642000   0.82309046   -8.0572874    596.20405  0.018805326  0.018501185            2 
 2643000   0.82161354   -8.0246519    597.13503  0.018827564  0.018495368            2 
 2644000   0.82749694   -8.0607753    597.60604  0.018835289  0.018489551            2 
 2645000   0.83470859   -8.0668965    596.27131  0.018786116  0.018483697            2 
 2646000   0.83404299   -8.0702159     595.0463  0.018740435  0.018477807            3 
 2647000    0.8251595   -8.0771429    594.87376  0.018727924  0.018471906            1 
 2648000   0.81921201   -8.0852989     596.4702  0.018771091  0.018466031            3 
 2649000   0.82198328   -8.0462369     594.5758  0.018704411  0.018460162            3 
 2650000   0.82270068   -8.0296095    595.73529  0.018733814  0.018454276            1 
 2651000   0.83198924    -8.012899    596.36142   0.01874643  0.018448444            2 
 2652000   0.83321548   -8.0629614     595.3805  0.018708538  0.018442605            2 
 2653000   0.80855396   -8.0400421    598.65936  0.018804478  0.018436777            2 
 2654000   0.81942445   -8.0791513    595.85445  0.018709321  0.018430961            1 
 2655000   0.82875929   -8.0700962    596.37097  0.018718486  0.018425097            4 
 2656000    0.8220769   -8.0471869    596.39063  0.018712055  0.018419238            2 
 2657000   0.84712779   -8.0562858    596.26672  0.018701127  0.018413372            2 
 2658000   0.80433174   -8.0632265    595.44567  0.018668349  0.018407509            2 
 2659000   0.83071335   -8.0761315    595.20725  0.018653857  0.018401626            3 
 2660000   0.82120459   -8.0436702    596.48004  0.018686718   0.01839574            2 
 2661000   0.80731456   -8.0454038    596.04652  0.018666119   0.01838989            3 
 2662000   0.83259688   -8.0501804    595.30936   0.01863603     0.018384            2 
 2663000   0.82158858   -8.0299144    596.40735  0.018663392  0.018378139            2 
 2664000   0.82974948   -8.0513033    596.74714  0.018667015  0.018372312            2 
 2665000   0.82475175    -8.094042    595.59821  0.018624084  0.018366453            2 
 2666000   0.81412103   -8.0676638    597.21459  0.018667623    0.0183606            2 
 2667000   0.85431934   -8.0704106    596.78517  0.018647206  0.018354764            4 
 2668000   0.80166512   -8.0441396     596.9774  0.018646221  0.018348935            1 
 2669000   0.82568404   -8.0508451    597.50321  0.018655651  0.018343117            3 
 2670000    0.8291059   -8.0815851    597.25855  0.018641028  0.018337308            3 
 2671000   0.79962151   -8.0916177    596.39627  0.018607147  0.018331483            2 
 2672000   0.82863846    -8.048204    598.18413  0.018655942   0.01832564            1 
 2673000   0.82959667   -8.0720749     596.9754  0.018611279  0.018319789            3 
 2674000   0.84181038   -8.0693095    598.29481  0.018645438   0.01831395            3 
 2675000   0.82466278   -8.0333697    599.31894  0.018670372  0.018308112            1 
 2676000   0.82483822   -8.0911451    596.73012  0.018582777  0.018302271            1 
 2677000   0.82534699   -8.0482305    597.98247   0.01861482  0.018296407            1 
 2678000   0.83202753    -8.054662    597.47778  0.018592164  0.018290582            1 
 2679000   0.81425842   -8.0806459    596.34628  0.018550027  0.018284723            2 
 2680000   0.83408035   -8.0471636    597.95441   0.01859311  0.018278867            1 
 2681000   0.81998757   -8.0705394    596.73884  0.018548391  0.018273023            1 
 2682000   0.81752732   -8.0500465    599.02733  0.018612582  0.018267157            1 
 2683000   0.81995942   -8.0730379    597.04106  0.018543952   0.01826129            1 
 2684000   0.82968213   -8.0444229    598.15155  0.018571521  0.018255441            2 
 2685000   0.82609146   -8.0880516    596.96359  0.018527734    0.0182496            2 
 2686000   0.83405474   -8.0515979    598.71644  0.018575219  0.018243754            2 
 2687000   0.81775714   -8.0488883     596.3668  0.018495435  0.018237921            2 
 2688000   0.82739283   -8.0880989    597.48721  0.018523289  0.018232073            4 
 2689000   0.80178106    -8.055793     598.0314  0.018533265  0.018226229            2 
 2690000   0.84076875   -8.0586017    597.86012  0.018521069  0.018220387            2 
 2691000   0.82784937    -8.060318    597.53307  0.018504059  0.018214544            1 
 2692000   0.82041742   -8.0469353    597.54473  0.018497546  0.018208721            2 
 2693000   0.80910152   -8.0672683     597.5861  0.018491957  0.018202881            2 
 2694000   0.81975391   -8.0439556    598.10004  0.018500991  0.018197076            1 
 2695000   0.82043931   -8.0568424    598.09554  0.018493987  0.018191257            4 
 2696000   0.82306008   -8.0575757    598.11838  0.018487833  0.018185405            2 
 2697000   0.80421352   -8.0420068    599.04521  0.018509616   0.01817959            1 
 2698000   0.82337777   -8.0882226    597.86202   0.01846621  0.018173769            2 
 2699000   0.83263783   -8.0755804    597.80784  0.018457695  0.018167958            4 
 2700000   0.81542375   -8.0730097    598.05867  0.018458601  0.018162148            4 
 2701000   0.81298515   -8.0823727    598.04492  0.018451343  0.018156352            2 
 2702000   0.82203341   -8.0553381    598.43378  0.018456507  0.018150501            2 
 2703000   0.82550762   -8.0524262    597.33178  0.018415704  0.018144659            4 
 2704000   0.78990548   -8.0660747    598.14619  0.018433993  0.018138827            2 
 2705000   0.80587345   -8.0884247     598.0056  0.018422847  0.018133002            2 
 2706000   0.80465851   -8.0639615    598.73792  0.018438591  0.018127152            2 
 2707000   0.82904815    -8.102493    598.83199  0.018434675  0.018121353            2 
 2708000   0.83045627    -8.091509    597.00085  0.018371518  0.018115527            5 
 2709000   0.81884688   -8.1042112    597.62712  0.018384001  0.018109712            3 
 2710000   0.81684265   -8.0589023    599.10288  0.018422598  0.018103902            3 
 2711000    0.8152784   -8.0741875    597.27963  0.018359757  0.018098097            3 
 2712000   0.79506698   -8.1206084    596.25704  0.018321566  0.018092254            2 
 2713000   0.82587249   -8.0683002    598.13628  0.018372536  0.018086424            1 
 2714000   0.81715813   -8.0822446    597.00447  0.018331014  0.018080599            2 
 2715000    0.8274308   -8.1058088    598.55895  0.018371975  0.018074749            2 
 2716000   0.80418372   -8.0888941    598.66922  0.018368594  0.018068877            1 
 2717000   0.81989846   -8.0916569    598.11322   0.01834478  0.018063034            1 
 2718000   0.82396551   -8.0843279    599.02109  0.018365866  0.018057223            2 
 2719000   0.82301133   -8.0944098      598.918  0.018355952  0.018051409            3 
 2720000   0.81212593   -8.0568945    598.70998   0.01834283   0.01804558            3 
 2721000   0.80296516   -8.1146303    597.94964  0.018312803  0.018039785            2 
 2722000   0.79690765   -8.0854232    599.34601  0.018348825  0.018033946            1 
 2723000   0.79790387    -8.089381    598.16723  0.018306011    0.0180281            2 
 2724000   0.81637179   -8.0973709    598.33894  0.018304544   0.01802223            3 
 2725000   0.79752347   -8.0938833    597.89939  0.018284385  0.018016363            3 
 2726000    0.8322715   -8.0993498    598.96607  0.018310286  0.018010517            3 
 2727000   0.80214975   -8.1012279     597.2644  0.018251571  0.018004686            1 
 2728000   0.81610105   -8.1055254    597.86068  0.018263095  0.017998823            2 
 2729000   0.81480689   -8.1000913    598.26234  0.018268668  0.017992989            2 
 2730000   0.81578731   -8.0831657    599.23831  0.018291768  0.017987161            3 
 2731000   0.79532899    -8.062236    600.59325  0.018326414   0.01798136            2 
 2732000   0.80633877   -8.0854685    599.45415  0.018284961   0.01797558            3 
 2733000   0.80705225   -8.0868674    598.78976  0.018258012  0.017969797            1 
 2734000   0.79505921   -8.0803048    598.90741   0.01825492  0.017964006            2 
 2735000   0.82502588   -8.0663335    599.31076  0.018260535  0.017958231            2 
 2736000    0.8218518   -8.0548024    600.71673  0.018296684   0.01795251            1 
 2737000   0.80680507   -8.0782769    599.79285   0.01826187   0.01794677            2 
 2738000   0.81911068   -8.0677467     599.4218  0.018243907  0.017941004            1 
 2739000   0.81021987   -8.0912138    598.63028  0.018213164  0.017935228            3 
 2740000   0.80039509   -8.1040125    599.68007  0.018238445  0.017929408            1 
 2741000   0.83553831   -8.0683456    600.40123  0.018253716  0.017923633            3 
 2742000   0.80653182   -8.0713824    600.22739  0.018241776  0.017917856            3 
 2743000   0.82030875   -8.0740524    600.19129  0.018234029  0.017912066            1 
 2744000   0.81973763   -8.0848761    598.93926  0.018189361  0.017906242            2 
 2745000   0.80284079    -8.080636     599.7961  0.018208746  0.017900421            5 
 2746000   0.81311441   -8.0957294    599.61717  0.018196685  0.017894625            4 
 2747000   0.81206209   -8.0877051    599.34829  0.018181904  0.017888831            2 
 2748000   0.82090899   -8.0881656     600.1876   0.01820074  0.017883046            1 
 2749000   0.81455886   -8.1044112    599.59101  0.018176034  0.017877249            3 
 2750000   0.80986318   -8.0794114    598.83304  0.018146456  0.017871461            1 
 2751000   0.82054393    -8.090584    599.23891  0.018152154   0.01786562            3 
 2752000   0.81578754    -8.080937    599.78789  0.018162182  0.017859787            2 
 2753000   0.80796562   -8.0926597    600.62351  0.018180879  0.017853949            2 
 2754000   0.81201793   -8.1448808    598.98605  0.018124729  0.017848129            2 
 2755000   0.80746075   -8.0916042    598.37125  0.018099554  0.017842341            1 
 2756000   0.80854585   -8.0912255    599.72509  0.018133923  0.017836559            2 
 2757000   0.78850945   -8.0698058    600.94158  0.018164115  0.017830767            1 
 2758000   0.81956831   -8.0951805    600.22105  0.018135758  0.017824954            1 
 2759000    0.8161804   -8.1051374    601.20533  0.018158914  0.017819174            3 
 2760000   0.82062123    -8.036891    600.94303  0.018144415  0.017813392            2 
 2761000    0.8130929   -8.1135774    599.70811  0.018100571  0.017807623            2 
 2762000   0.81297086   -8.1037948    599.30455  0.018081841  0.017801826            4 
 2763000   0.82027285   -8.0847315    600.61122  0.018114707  0.017796022            1 
 2764000   0.81251981   -8.0985589    599.22472  0.018066351  0.017790224            3 
 2765000   0.80186778   -8.0683401    601.33199  0.018123327  0.017784458            2 
 2766000   0.81171507   -8.0928601    600.77057   0.01809986  0.017778732            3 
 2767000   0.79415238    -8.101559    600.99685  0.018100134  0.017772974            1 
 2768000   0.81133375   -8.0696241    600.59038  0.018081358  0.017767194            3 
 2769000   0.81711275   -8.0758191    602.04821  0.018118701  0.017761444            2 
 2770000   0.81227959   -8.0666617    602.25645  0.018118425  0.017755722            4 
 2771000    0.8019162   -8.0563037    601.41804  0.018086673  0.017749967            1 
 2772000   0.82127338   -8.0792462    600.50116  0.018052584   0.01774423            3 
 2773000    0.8189242   -8.0552086    601.93696  0.018089222  0.017738509            4 
 2774000   0.80184065   -8.0754573    601.95554  0.018083259  0.017732795            2 
 2775000   0.78994966   -8.1212658    600.18245  0.018023497  0.017727043            3 
 2776000   0.79274207   -8.0787553    601.17688  0.018046856  0.017721284            1 
 2777000    0.7979153   -8.1014468    599.65531  0.017994698  0.017715531            2 
 2778000   0.79839294   -8.0705986    602.70756   0.01807978  0.017709803            2 
 2779000   0.82518218    -8.078184    601.99557  0.018051924  0.017704117            1 
 2780000   0.81346181   -8.0909885    600.67786  0.018005931  0.017698421            1 
 2781000   0.80800053   -8.0990498     601.1946  0.018014941  0.017692706            2 
 2782000   0.82011264   -8.0974606     602.3301  0.018042478  0.017686968            3 
 2783000    0.7980175   -8.1044902    601.25839  0.018003904   0.01768125            2 
 2784000   0.82009613   -8.1170524     603.3423  0.018059815  0.017675535            4 
 2785000   0.80087875   -8.0837025    602.36921  0.018024213  0.017669818            3 
 2786000    0.8055747   -8.1023433      602.845  0.018031975  0.017664062            2 
 2787000   0.78905638   -8.1069272    600.17055  0.017945537  0.017658319            3 
 2788000   0.79613934   -8.0859452    603.24119  0.018030882  0.017652595            2 
 2789000   0.80255427   -8.0940094    601.45415  0.017971022  0.017646878            2 
 2790000   0.82251892   -8.0868545    601.63285  0.017969918  0.017641173            2 
 2791000   0.79861479   -8.1078927    601.82935  0.017969346  0.017635442            2 
 2792000    0.8121512   -8.0902387    601.16847  0.017943185  0.017629716            2 
 2793000   0.81168181   -8.1338693    602.58045  0.017978889  0.017623997            3 
 2794000   0.80136752   -8.1246145    601.61987  0.017943804  0.017618247            1 
 2795000   0.82039459   -8.0920395    602.79934   0.01797255  0.017612528            2 
 2796000     0.793512   -8.0932129    602.18204  0.017947724  0.017606804            2 
 2797000   0.80554766   -8.1077788     603.3449  0.017975953  0.017601079            2 
 2798000   0.80598333   -8.1069625    602.08613  0.017932039  0.017595353            2 
 2799000   0.80126186   -8.0930631    601.95384  0.017921693   0.01758966            2 
 2800000   0.79448218   -8.0962336    601.85998    0.0179125  0.017583973            2 
 2801000   0.81308614   -8.0892745    602.92914  0.017937913  0.017578251            2 
 2802000   0.81214553    -8.097328    602.36918  0.017914858  0.017572562            1 
 2803000   0.80881131   -8.1230945     602.8459  0.017922639  0.017566873            2 
 2804000   0.79287637   -8.0968843     602.2638  0.017898948  0.017561191            2 
 2805000   0.79444367   -8.1051777    603.62856  0.017933112  0.017555506            2 
 2806000   0.79761456   -8.1330658    602.42602  0.017891008  0.017549803            1 
 2807000   0.79566222     -8.09523     602.7628  0.017894633  0.017544099            2 
 2808000    0.8058063   -8.1338089    603.14356   0.01789956  0.017538394            4 
 2809000   0.81074311   -8.0780409    603.15094  0.017893406  0.017532698            2 
 2810000   0.80889941   -8.0935025    602.23675  0.017859927  0.017527039            2 
 2811000    0.7922061   -8.1154781    603.98072  0.017905274  0.017521387            1 
 2812000   0.77591451   -8.1041639    603.17858  0.017875136  0.017515719            1 
 2813000   0.81067913   -8.1225062    602.51114  0.017849009   0.01751003            2 
 2814000    0.8035059   -8.1312885    602.30988  0.017836706  0.017504345            1 
 2815000   0.80523094    -8.093076    602.94406  0.017849143  0.017498675            2 
 2816000    0.7978901   -8.1658312    602.16073  0.017819624  0.017492989            2 
 2817000   0.80114102   -8.1388294    602.08958  0.017811193  0.017487273            2 
 2818000   0.80686259   -8.1239296    602.02702  0.017803023  0.017481542            2 
 2819000   0.81621446   -8.1298191    601.76441  0.017788944  0.017475823            3 
 2820000   0.80237289   -8.1085313    603.85919  0.017844539  0.017470117            5 
 2821000   0.78755246   -8.1179999    602.96983  0.017811941   0.01746444            4 
 2822000   0.79957805   -8.1292603    602.25601   0.01778455  0.017458741            2 
 2823000   0.82883026   -8.1565096     602.4013  0.017782539  0.017453044            2 
 2824000   0.78411569   -8.1238021    602.98742  0.017793538  0.017447352            1 
 2825000   0.80576219   -8.0781421    603.28315  0.017795963  0.017441667            1 
 2826000    0.8227682   -8.1161924    602.22183   0.01775837  0.017435995            4 
 2827000   0.81219662   -8.1304139    603.10743  0.017778193  0.017430288            3 
 2828000   0.82043669   -8.1241009    603.29004  0.017777288  0.017424604            2 
 2829000   0.78744624   -8.1540082    602.42644  0.017745565  0.017418883            1 
 2830000   0.78924354   -8.1312458    603.51671  0.017771399  0.017413192            2 
 2831000    0.8073645   -8.1291282    604.72127  0.017800579  0.017407498            3 
 2832000   0.80410351   -8.1368767    603.55447   0.01775996  0.017401834            3 
 2833000   0.81256292   -8.1344715    601.98542  0.017707537  0.017396145            2 
 2834000   0.79640786   -8.1379958    604.05889  0.017762258  0.017390447            1 
 2835000   0.79081249   -8.1399255    603.35364  0.017735263  0.017384759            3 
 2836000   0.81486393   -8.1174133    603.54683  0.017734686  0.017379071            3 
 2837000   0.79685188   -8.1246964    605.73585  0.017792734  0.017373398            4 
 2838000   0.79595679   -8.1435955    603.66757  0.017725733  0.017367746            2 
 2839000   0.79634525   -8.1280222    603.36399  0.017710579   0.01736208            3 
 2840000   0.80730908   -8.1430901    604.41586  0.017735207  0.017356421            1 
 2841000   0.78694288   -8.1208338    604.24449  0.017723938  0.017350757            1 
 2842000   0.79391199   -8.1334321    603.83295  0.017705634  0.017345089            2 
 2843000   0.80807622   -8.1263757    603.61475  0.017693011  0.017339393            1 
 2844000   0.81195012   -8.1680066    601.83786  0.017634724  0.017333707            1 
 2845000   0.78295001   -8.1453004    602.82255  0.017657368  0.017328021            1 
 2846000   0.79445268   -8.1142606    604.59687  0.017703118  0.017322331            1 
 2847000   0.80393484   -8.1142268    604.66047  0.017698761  0.017316666            1 
 2848000    0.8123302   -8.0912108    605.19408   0.01770816  0.017311026            1 
 2849000   0.78860327   -8.1305894    603.47047  0.017651529  0.017305374            1 
 2850000   0.79282833   -8.1274228    603.67456  0.017651303  0.017299709            1 
 2851000   0.80464668   -8.0979215    604.51088  0.017669557  0.017294051            3 
 2852000   0.79141204   -8.1392519    604.15417  0.017652938  0.017288383            3 
 2853000   0.79921302   -8.1191213    604.51413  0.017657265  0.017282742            2 
 2854000   0.80278932   -8.0932426    604.99821  0.017665213  0.017277118            2 
 2855000   0.80506351   -8.1082148    604.95253  0.017657692  0.017271495            1 
 2856000   0.78990129   -8.1203186     605.4176  0.017665079  0.017265885            3 
 2857000   0.80760075   -8.1342686    604.13499  0.017621485  0.017260262            4 
 2858000   0.79749939   -8.1392542    604.11978  0.017614876  0.017254625            2 
 2859000   0.79576015   -8.1158956    603.94117  0.017603508   0.01724898            2 
 2860000   0.79622901   -8.1039819    605.42703  0.017640648  0.017243353            2 
 2861000   0.78708851   -8.1335438    604.64886  0.017611816  0.017237708            2 
 2862000   0.79454262   -8.1617329    602.81077  0.017552142   0.01723207            2 
 2863000   0.79714525   -8.1481008    604.98945  0.017609426  0.017226416            3 
 2864000   0.79326401    -8.164152    603.94113  0.017572775  0.017220778            2 
 2865000   0.77436183   -8.1255867    604.44429  0.017581277  0.017215155            2 
 2866000   0.78914142    -8.121598    605.63336  0.017609716  0.017209525            3 
 2867000   0.77819538   -8.1237325    605.10712  0.017588278  0.017203901            2 
 2868000   0.79194233   -8.1660911    604.26615   0.01755771  0.017198279            3 
 2869000   0.77995492   -8.1293826    605.59162   0.01759009  0.017192642            2 
 2870000   0.79414973   -8.1249754    605.02504   0.01756751  0.017187016            4 
 2871000   0.80106476   -8.1301383    606.52786  0.017605012  0.017181398            2 
 2872000   0.80596757   -8.1159726    607.33031  0.017622165  0.017175792            6 
 2873000   0.79550859   -8.0977843    605.48234   0.01756243  0.017170221            2 
 2874000   0.79767519   -8.1106768    606.19564  0.017577002  0.017164639            2 
 2875000   0.81322809   -8.1408962    605.68078  0.017555965  0.017159056            3 
 2876000   0.78976162   -8.1274473    606.45653  0.017572338  0.017153485            4 
 2877000   0.79159762   -8.1543675    604.00641  0.017495261  0.017147889            4 
 2878000   0.78962894    -8.165575    605.18716  0.017523371  0.017142278            2 
 2879000   0.79524767   -8.1725955    604.59863   0.01750025  0.017136662            3 
 2880000   0.77938554   -8.1559605    604.35061  0.017486997  0.017131037            2 
 2881000   0.79189477   -8.1322209    604.58458  0.017487695   0.01712543            1 
 2882000   0.76740297   -8.1651256    605.53658  0.017509154  0.017119811            2 
 2883000   0.81147192   -8.1843977     604.7075  0.017479116  0.017114216            3 
 2884000     0.804436   -8.1796857    605.76497  0.017503611  0.017108615            2 
 2885000    0.7992255   -8.2227425    604.48576  0.017460594  0.017102988            2 
 2886000   0.79943654   -8.1980512    603.72292  0.017432517  0.017097345            2 
 2887000   0.79888889   -8.1837176    603.81547   0.01742915  0.017091704            2 
 2888000   0.79180972    -8.144427     605.4108  0.017469148  0.017086067            1 
 2889000   0.78936233   -8.1503891    605.29187  0.017459671  0.017080506            4 
 2890000   0.79738394    -8.160155    604.23485   0.01742315  0.017074921            1 
 2891000   0.79162841   -8.1538501      605.971  0.017467168  0.017069346            3 
 2892000   0.79869894   -8.1565982    607.46943  0.017504306  0.017063788            3 
 2893000   0.79112856    -8.159125    606.36159  0.017466344  0.017058217            2 
 2894000   0.77504617   -8.1146633    608.57268  0.017523977  0.017052687            4 
 2895000   0.79239204   -8.1126152    605.54189  0.017430682  0.017047152            6 
 2896000   0.77612085   -8.1439631    606.70221  0.017458052  0.017041617            2 
 2897000   0.78163331   -8.1625863    606.04313  0.017433067  0.017036062            2 
 2898000   0.78358557   -8.1615894    604.79896  0.017391274    0.0170305            2 
 2899000   0.79178913   -8.1667315    606.81831  0.017443323  0.017024965            3 
 2900000   0.80386485   -8.1445949    607.25572  0.017449877  0.017019412            1 
 2901000    0.7771459   -8.1733929    606.19772   0.01741347  0.017013853            4 
 2902000   0.78365534   -8.1461829    605.71885  0.017393718  0.017008276            3 
 2903000   0.79305656   -8.1686885    605.54752  0.017382809  0.017002725            2 
 2904000   0.78713593   -8.1464615    606.08915  0.017392365   0.01699717            3 
 2905000   0.78035774   -8.1447755    607.29295  0.017420911  0.016991619            4 
 2906000   0.78526728   -8.1666737    605.99633  0.017377734  0.016986057            3 
 2907000   0.78603399   -8.1526259    606.20008  0.017377597  0.016980513            1 
 2908000   0.78188293   -8.1693982      607.333  0.017404086  0.016974987            2 
 2909000   0.77767693   -8.1689433    605.75877  0.017353007  0.016969455            2 
 2910000   0.79845797   -8.1814375    606.06871  0.017355919  0.016963901            2 
 2911000   0.78218684   -8.1700954    607.23226  0.017383266  0.016958344            3 
 2912000    0.8020721   -8.1474556    606.53683  0.017357395  0.016952815            2 
 2913000   0.78402828   -8.1548532     605.6161  0.017325097  0.016947256            3 
 2914000   0.78099295   -8.1724947    606.72153  0.017350764  0.016941698            2 
 2915000   0.78163186   -8.1731897    606.72163  0.017344815  0.016936156            1 
 2916000   0.78307037   -8.2022577     605.9283  0.017316195  0.016930612            2 
 2917000   0.80305037   -8.1668319    606.84022  0.017336311  0.016925096            1 
 2918000   0.78376911   -8.1797861    607.21721  0.017341136  0.016919576            2 
 2919000   0.78565742   -8.1498735    606.98182  0.017328475  0.016914049            1 
 2920000   0.79977598   -8.1552283    607.82475  0.017346597  0.016908517            1 
 2921000   0.80003501   -8.1875064    605.97642  0.017287927  0.016902994            2 
 2922000   0.79258449   -8.1836637    606.83391  0.017306466  0.016897446            3 
 2923000   0.76885623   -8.1518343    606.65818  0.017295535  0.016891906            2 
 2924000   0.79908051   -8.1581459    607.80634  0.017322342  0.016886382            1 
 2925000    0.7877097   -8.1605762    607.72707  0.017314162  0.016880868            2 
 2926000   0.79112395   -8.1535691    607.71068  0.017307777   0.01687534            2 
 2927000   0.80329082   -8.1623822    607.45689  0.017294639  0.016869835            1 
 2928000   0.77888588   -8.1591421     607.2988  0.017284233  0.016864287            1 
 2929000   0.77246925   -8.1697049    606.65576  0.017260036  0.016858752            3 
 2930000   0.77825185   -8.1674123    607.89057  0.017289265  0.016853235            1 
 2931000    0.7818046   -8.1423236    608.24816  0.017293534  0.016847708            1 
 2932000   0.79263267   -8.1642605    607.81903  0.017275438  0.016842183            7 
 2933000   0.76510753   -8.1881001    607.45018  0.017259069  0.016836658            3 
 2934000   0.78853956   -8.1524019    606.82664  0.017235476  0.016831119            5 
 2935000   0.79898054   -8.1744183     606.4904  0.017220057  0.016825574            4 
 2936000   0.77413894   -8.1812555    606.50077  0.017214486   0.01682001            2 
 2937000   0.79260606   -8.1607355    606.11945  0.017197805  0.016814459            5 
 2938000   0.77993222   -8.1596541     608.4012  0.017256671  0.016808921            2 
 2939000   0.77753486   -8.1567488    608.37749  0.017250127  0.016803387            2 
 2940000   0.77617698   -8.1634592    605.98433  0.017176427  0.016797838            1 
 2941000   0.79742458   -8.2146478     605.5021  0.017156922   0.01679228            2 
 2942000   0.77936974   -8.1957958    605.81386  0.017159921  0.016786718            2 
 2943000   0.76995473   -8.1607005    607.28338  0.017195701  0.016781172            1 
 2944000   0.79069049   -8.1807083    607.11271  0.017185029  0.016775637            3 
 2945000   0.76981816   -8.1760824    607.71192  0.017196149  0.016770079            2 
 2946000   0.77867656   -8.1834117    607.01657  0.017170643  0.016764538            1 
 2947000   0.76479363   -8.1936036     607.7362  0.017185166  0.016758988            2 
 2948000   0.78804954   -8.1860591    606.40266   0.01714164  0.016753431            2 
 2949000   0.76716466   -8.1949742    605.92545  0.017122342  0.016747866            2 
 2950000   0.78504337   -8.2063473    606.71676  0.017138892  0.016742276            1 
 2951000   0.79735354   -8.1787253    606.94408  0.017139503  0.016736714            2 
 2952000   0.77938561   -8.1849363    606.71684  0.017127282  0.016731151            1 
 2953000   0.78538422   -8.1703598    607.22268  0.017135757  0.016725591            1 
 2954000   0.77606803   -8.1915318    606.29405  0.017103759  0.016720039            2 
 2955000   0.77001607   -8.1779963    605.90641  0.017087039  0.016714463            3 
 2956000   0.76958376   -8.1842287    607.22434  0.017118413  0.016708922            6 
 2957000    0.8115971   -8.1754427    605.94461  0.017076559  0.016703372            2 
 2958000   0.78719284   -8.1644875    606.80495  0.017095023   0.01669782            3 
 2959000   0.77574138    -8.194366    606.88331  0.017091453  0.016692272            5 
 2960000   0.79028803   -8.1456488    606.57049  0.017076872  0.016686743            1 
 2961000   0.77719769   -8.1629363    607.76529  0.017104731  0.016681227            2 
 2962000   0.78101826   -8.1497125    606.63628  0.017067192  0.016675722            2 
 2963000   0.77995147   -8.1962048    607.04944  0.017073052  0.016670214            3 
 2964000    0.7848443   -8.1731517     607.3914  0.017076906  0.016664659            8 
 2965000   0.77559854   -8.2168992    605.81021  0.017026706  0.016659111            3 
 2966000   0.78002197   -8.1820979    606.51507   0.01704077  0.016653555            4 
 2967000   0.77478604   -8.1879414    606.64762  0.017038749  0.016647995            2 
 2968000   0.76796279   -8.1839531    607.79997  0.017065363  0.016642435            2 
 2969000   0.79161988   -8.1949422     606.8364   0.01703257  0.016636882            2 
 2970000   0.77386982   -8.1987728    607.13647  0.017035254  0.016631316            1 
 2971000   0.79188391   -8.1787423    606.87605  0.017022216   0.01662578            2 
 2972000    0.7877299   -8.1850189    605.89915  0.016989097  0.016620251            2 
 2973000   0.74765728   -8.2194865    605.23631  0.016964803  0.016614706            1 
 2974000   0.76502472   -8.1888977    606.94244  0.017006905  0.016609158            4 
 2975000   0.77088163   -8.1778632    607.86455  0.017027018  0.016603644            1 
 2976000    0.7658249   -8.1536292    607.62322  0.017014539  0.016598134            1 
 2977000   0.77650326   -8.1785416    607.70651  0.017011155  0.016592619            2 
 2978000   0.77364168   -8.1897341    605.84092  0.016953238  0.016587115            2 
 2979000   0.78087425   -8.2259548    607.68721  0.016999195  0.016581585            1 
 2980000   0.76625452   -8.2039908     607.2487  0.016981228  0.016576054       -1e+20 
 2981000   0.77110415   -8.1862602    607.16619  0.016973225  0.016570514            3 
 2982000   0.77894909   -8.2050919    606.82807  0.016958084  0.016564984            7 
 2983000   0.77637805   -8.1856556    605.86605  0.016925524  0.016559453            1 
 2984000   0.76870806   -8.1923324    607.66716  0.016970151  0.016553934            2 
 2985000   0.77385443   -8.1911615    606.62668  0.016935418  0.016548405            3 
 2986000   0.76375513   -8.1855139    608.38191  0.016978732  0.016542878            1 
 2987000   0.76882441   -8.2205716     606.1082  0.016909614  0.016537349            3 
 2988000   0.77173362   -8.2155826    606.43697  0.016913124  0.016531788            1 
 2989000   0.77630616   -8.2076398    607.31997  0.016932084  0.016526259            2 
 2990000   0.76807042   -8.2123672    607.61212  0.016934563  0.016520717            2 
 2991000   0.76006398   -8.2038152    608.37244  0.016950085  0.016515193            1 
 2992000   0.76987842   -8.2004985    608.05907  0.016935692  0.016509671            2 
 2993000   0.76985893   -8.1942673    608.19348  0.016933775  0.016504161            4 
 2994000   0.76981137   -8.1927565     608.5235  0.016937305  0.016498638            3 
 2995000   0.78349249   -8.2101961    608.44348  0.016929424  0.016493145            1 
 2996000   0.75228752    -8.196361    608.44969  0.016923945  0.016487653            2 
 2997000   0.77218727   -8.2057535    607.40229  0.016889175  0.016482185            2 
 2998000   0.76240211   -8.1897485    607.46742  0.016885352  0.016476715            2 
 2999000   0.76237783   -8.2160811    607.66233  0.016885138  0.016471227            1 
 3000000   0.79104919   -8.1618368    609.17115  0.016921421  0.016465722            2 
 3001000   0.75512858   -8.1967962    608.00048  0.016883274  0.016460236            2 
 3002000   0.77701104   -8.2333722     607.1296  0.016853476  0.016454712            2 
 3003000   0.78554625   -8.1944679    608.03771  0.016873063  0.016449197            2 
 3004000   0.78539192     -8.21404    608.19461  0.016871799  0.016443675            1 
 3005000   0.76417289   -8.2231844    607.21252  0.016838949  0.016438147            3 
 3006000   0.76197033   -8.2420514    607.18969  0.016832715   0.01643262            4 
 3007000   0.75423629   -8.1811645    607.85796  0.016845637  0.016427118            1 
 3008000   0.76611645   -8.2213002    607.79849  0.016838389  0.016421598            2 
 3009000   0.76256865    -8.199946    608.55669  0.016853791  0.016416075            2 
 3010000   0.76426957   -8.2206023     609.1367   0.01686425  0.016410555            3 
 3011000   0.77019427    -8.214577    607.91227  0.016824761  0.016405059            7 
 3012000   0.77836518   -8.2219112    607.72473  0.016813987  0.016399549            1 
 3013000    0.7880498   -8.2256788    608.20271  0.016821626  0.016394036            3 
 3014000   0.78156969   -8.2224119    607.32376  0.016791743  0.016388543            3 
 3015000   0.78191476   -8.2059091    607.56746  0.016792909  0.016383033            3 
 3016000   0.75234933   -8.2015233    607.25972  0.016778839   0.01637754            2 
 3017000   0.79690205   -8.1916912    607.44189  0.016778309  0.016372052            1 
 3018000     0.769924   -8.1846729    608.00261  0.016788232  0.016366581            2 
 3019000   0.74908801   -8.2034392    607.44932  0.016767399  0.016361102            2 
 3020000   0.78445344   -8.2057622    608.06761  0.016778907  0.016355616            3 
 3021000   0.77124172   -8.2065368     609.1397  0.016802927  0.016350117            1 
 3022000    0.7716744   -8.2172683    607.81082  0.016760722  0.016344612            3 
 3023000   0.76120347   -8.2287373    608.77518  0.016781762  0.016339113            2 
 3024000   0.75635531   -8.2058822    607.91195  0.016752424  0.016333604            1 
 3025000   0.79430171   -8.2524893    607.22275  0.016727899  0.016328095            2 
 3026000    0.7676629   -8.2225753    608.36591  0.016753853  0.016322583            1 
 3027000   0.77567503   -8.2088808    608.35811  0.016748104  0.016317069            2 
 3028000   0.73817378    -8.246883    609.28655  0.016768124  0.016311574            1 
 3029000   0.77327695   -8.2141649    608.30556  0.016735599  0.016306078            3 
 3030000   0.78495536    -8.183613    608.46609  0.016734491  0.016300611            3 
 3031000   0.77623122   -8.2115457    608.98597  0.016743263  0.016295159            1 
 3032000   0.76342465   -8.1829867    608.97622  0.016737473  0.016289718            1 
 3033000    0.7586284   -8.2056047    608.90169  0.016729907  0.016284264            2 
 3034000   0.77048087    -8.209863    609.64324   0.01674476  0.016278807            2 
 3035000   0.74689566    -8.225318    608.31539  0.016702784  0.016273331            1 
 3036000   0.77553722    -8.196045    607.32622  0.016670131  0.016267877            4 
 3037000   0.75319695   -8.1887484    609.53492  0.016725248  0.016262438            2 
 3038000   0.77203859   -8.2050538    608.92264  0.016702947  0.016256995            3 
 3039000   0.75213495   -8.2000525    610.21849  0.016732985  0.016251539            1 
 3040000   0.75361331    -8.208643    607.86213  0.016662887  0.016246075            1 
 3041000   0.77655247    -8.203505    609.81153  0.016710828  0.016240603            2 
 3042000   0.77500933   -8.2233217    608.63925  0.016673221  0.016235149            1 
 3043000    0.7854139   -8.2229102    607.97913  0.016649664  0.016229686            1 
 3044000   0.76964108   -8.2340169    608.89895  0.016669375  0.016224219            3 
 3045000   0.75320821     -8.20887    608.89889    0.0166639  0.016218762            2 
 3046000     0.767367   -8.1954875    608.72526  0.016653679   0.01621331            1 
 3047000   0.75241919   -8.2433533    607.86551    0.0166247   0.01620784            2 
 3048000   0.77163128   -8.2207892    609.24477  0.016656955  0.016202389            4 
 3049000   0.74833531   -8.2215503    609.76171   0.01666562  0.016196945            4 
 3050000   0.77115044   -8.2104534    609.65314   0.01665719  0.016191482            1 
 3051000   0.78052572   -8.2157348    609.14348   0.01663781  0.016186046            1 
 3052000   0.76371525   -8.2029174     609.4649  0.016641134  0.016180595            2 
 3053000   0.76339318   -8.2178039    608.49671  0.016609256  0.016175155            1 
 3054000    0.7640779   -8.2194893    608.18595  0.016595338  0.016169712            1 
 3055000   0.73741008    -8.229152    608.64538  0.016602438  0.016164261            2 
 3056000   0.77237763   -8.2195853    609.59184  0.016622814  0.016158821            3 
 3057000   0.77927321   -8.2166051    608.55837  0.016589204  0.016153382            2 
 3058000   0.76697708   -8.2070333    609.71122  0.016615196  0.016147963            3 
 3059000   0.76485839   -8.2310927    608.50051  0.016576782  0.016142535            2 
 3060000   0.75974165   -8.2095841    609.20948  0.016590672  0.016137104            2 
 3061000   0.76068809    -8.207595    609.71915  0.016599127  0.016131672            2 
 3062000    0.7634068   -8.2421285    608.64234  0.016564401  0.016126237            2 
 3063000    0.7479265   -8.2015515    608.10095  0.016544263  0.016120809            2 
 3064000   0.77275658   -8.2093268    609.06408  0.016565059  0.016115378            2 
 3065000   0.77007641   -8.1906527     609.4499  0.016570144  0.016109972            4 
 3066000   0.75465526   -8.2236505    609.59517  0.016568688   0.01610458            1 
 3067000   0.76666027   -8.2431404    608.13907  0.016523722  0.016099176            2 
 3068000   0.76729813   -8.2000633    610.60489  0.016585313  0.016093782            2 
 3069000   0.77070383   -8.2364631    609.29814  0.016544427  0.016088388            3 
 3070000   0.76080483   -8.2008344    610.40689  0.016569134  0.016083013            3 
 3071000   0.74231622   -8.2459929    609.42422  0.016537073  0.016077608            3 
 3072000   0.74461662   -8.2469504    610.40742  0.016558361  0.016072182            1 
 3073000   0.76999477   -8.2239828    607.77963  0.016481712  0.016066754            4 
 3074000   0.76334718   -8.2269359    609.10484  0.016512276  0.016061336            1 
 3075000   0.74517503   -8.2422136    609.32694  0.016512925  0.016055902            2 
 3076000    0.7559856   -8.2218641    609.76927   0.01651954  0.016050487            3 
 3077000    0.7524893   -8.2173287    609.66808  0.016511431  0.016045077            2 
 3078000   0.76708444   -8.2473591    609.50852  0.016501747  0.016039658            4 
 3079000   0.75184048   -8.2310638    607.99614  0.016455455  0.016034233            2 
 3080000   0.75046221   -8.2371694    608.39707   0.01646096  0.016028806            2 
 3081000   0.76307843   -8.2113836    609.31349  0.016480404  0.016023391            1 
 3082000   0.75077157   -8.2137654    610.13265  0.016497205  0.016017983            3 
 3083000    0.7520514   -8.2320655    607.97568  0.016433552  0.016012584            2 
 3084000   0.75007256   -8.1866033    608.39336  0.016439509  0.016007181            4 
 3085000    0.7591551   -8.2305342    609.37767  0.016460769  0.016001787            3 
 3086000   0.75103586   -8.2192649    609.70057  0.016464154  0.015996378            1 
 3087000   0.76100775   -8.1877879    609.29523  0.016447879  0.015990981            3 
 3088000   0.76165161   -8.2290185    609.48785  0.016447751  0.015985582            6 
 3089000   0.76819135   -8.2111105    609.27037  0.016436559  0.015980185            3 
 3090000    0.7491394   -8.2589053    609.74633  0.016444076  0.015974773            2 
 3091000   0.75295481   -8.2408899    609.50493  0.016432248  0.015969362            2 
 3092000   0.77076295   -8.2386194    610.05277  0.016441698  0.015963941            1 
 3093000   0.74584142   -8.2424748    610.15929  0.016439252  0.015958544            3 
 3094000    0.7742041   -8.2303945    609.27572  0.016410141  0.015953128            4 
 3095000   0.75829879   -8.2520877    609.30445  0.016405612  0.015947733            3 
 3096000   0.75802195   -8.2208887    609.58468  0.016407856  0.015942336            1 
 3097000   0.74057497    -8.267481    609.02412  0.016387475  0.015936946            2 
 3098000   0.76064721   -8.2230507     609.3353  0.016390556  0.015931551            4 
 3099000   0.74186225   -8.2602868    608.65801  0.016367054  0.015926142            2 
 3100000   0.75052101   -8.2500804    608.99256  0.016370768  0.015920722            3 
 3101000   0.75279006   -8.2509135    609.20709  0.016371254  0.015915308            2 
 3102000   0.74014583   -8.2612065    608.48024   0.01634645  0.015909918            2 
 3103000   0.74320593   -8.2305045    607.93395  0.016326511  0.015904505            4 
 3104000    0.7392868   -8.2643251    609.84818  0.016372642  0.015899101            1 
 3105000   0.75900937   -8.2508175    609.86052  0.016367701  0.015893711            2 
 3106000   0.75549609   -8.2683583    609.09231   0.01634182  0.015888284            3 
 3107000   0.74602864    -8.254915    610.16487  0.016365327  0.015882888            4 
 3108000   0.76180685   -8.2424162    609.01766  0.016329302  0.015877501            1 
 3109000    0.7563716   -8.2386905    608.91943  0.016321417  0.015872095            2 
 3110000   0.75640889   -8.2237097    609.44946  0.016330371  0.015866709            1 
 3111000   0.76664998   -8.2550716    608.17717  0.016291042  0.015861308            2 
 3112000   0.75663668   -8.2360295    609.14629  0.016311758  0.015855922            1 
 3113000   0.73479568   -8.2116534    609.13043  0.016306094  0.015850532            1 
 3114000   0.73454012   -8.2470863    609.23965   0.01630378  0.015845153            3 
 3115000   0.75781716   -8.2311471    610.18569  0.016323855  0.015839779            5 
 3116000   0.75113946   -8.2462667    609.42595  0.016298298  0.015834393            2 
 3117000   0.76552218   -8.2698687    609.98478  0.016308009  0.015829028            1 
 3118000   0.76715828   -8.2579692    610.08355  0.016305419  0.015823647            2 
 3119000   0.75250695   -8.2518625    610.39376  0.016308479  0.015818282            1 
 3120000   0.77201005   -8.2437186    609.70007  0.016284724  0.015812901            2 
 3121000   0.74400921   -8.2773627    610.98007  0.016313683  0.015807527            2 
 3122000   0.75256745   -8.2426134    609.96854  0.016281458  0.015802168            2 
 3123000    0.7349745   -8.2596485    611.48986  0.016316839  0.015796782            2 
 3124000   0.77412577   -8.2506179    609.75686  0.016265388  0.015791409            1 
 3125000   0.74284335   -8.2778501    611.28184  0.016300849  0.015786035            2 
 3126000   0.73573171   -8.2602551    610.85168  0.016284167  0.015780681            4 
 3127000   0.75471543    -8.245416    610.26853  0.016263419  0.015775334            2 
 3128000   0.75133498   -8.2467482    608.65162  0.016215143  0.015769984            5 
 3129000   0.74669731   -8.2385002    610.30356  0.016253957  0.015764628            2 
 3130000   0.74329123   -8.2866197    610.07871  0.016242777  0.015759259            3 
 3131000   0.75175637   -8.2496388    609.44159  0.016220632  0.015753882            3 
 3132000   0.74739322   -8.2799082    609.82336  0.016225611  0.015748503            2 
 3133000   0.75901371   -8.2474436    608.94252  0.016197003   0.01574315            2 
 3134000   0.75279822   -8.2770804    609.16702  0.016197804  0.015737812            1 
 3135000   0.75711106   -8.2637522     609.3181  0.016196653  0.015732463            2 
 3136000   0.73356717   -8.2411444    609.82772  0.016205031  0.015727114            4 
 3137000   0.74616299   -8.2690689    610.48002  0.016217193  0.015721795            2 
 3138000   0.75707466   -8.2437622    610.20592  0.016204746  0.015716464            1 
 3139000   0.75989756   -8.2653217    608.73162  0.016160444  0.015711136            1 
 3140000   0.73534846   -8.2424225    611.70706  0.016234264  0.015705803            3 
 3141000   0.75228209   -8.2905301    610.62209   0.01620031  0.015700493            3 
 3142000   0.75267902   -8.2790037    609.88095  0.016175497  0.015695183            4 
 3143000   0.75144434   -8.2395262    610.08642  0.016175799  0.015689871            2 
 3144000   0.74262608   -8.2451077     611.3641  0.016204519  0.015684562            2 
 3145000   0.74333896   -8.2855179    610.10843  0.016166095  0.015679271            2 
 3146000   0.74758457   -8.2823408     610.7656  0.016178364   0.01567395            1 
 3147000   0.73905538   -8.2527725    610.42936  0.016164319  0.015668652            1 
 3148000   0.75420253   -8.2425054    611.58185  0.016189693  0.015663362            3 
 3149000   0.73912856   -8.2244595    611.44972  0.016181055  0.015658078            1 
 3150000   0.72950847   -8.2581135     610.2884  0.016145196  0.015652791            1 
 3151000    0.7465763   -8.2377787     610.7259  0.016151642   0.01564752            5 
 3152000   0.74610452   -8.2439021    611.62748  0.016170354  0.015642262            2 
 3153000   0.74849245   -8.2636825    611.79383  0.016169622  0.015636989            4 
 3154000   0.73928243   -8.2693304    610.72109  0.016136152  0.015631722            1 
 3155000   0.73268469   -8.2639776    611.54786  0.016152875  0.015626458            2 
 3156000   0.74829168    -8.271436    611.16205   0.01613757  0.015621205            2 
 3157000   0.73933654   -8.2491093    611.26393  0.016135147  0.015615939            1 
 3158000   0.75355832   -8.2859815    609.51214  0.016083812  0.015610664            1 
 3159000    0.7548747   -8.2545582    612.16689  0.016148752  0.015605396            2 
 3160000   0.73624051    -8.270864    610.08958   0.01608886  0.015600146            3 
 3161000   0.75603566   -8.2593079    611.59867  0.016123555  0.015594864            3 
 3162000   0.74818317   -8.2570951    611.67174  0.016120381  0.015589601            3 
 3163000   0.73308563   -8.2826391    611.54867  0.016112042  0.015584319            2 
 3164000   0.72841111   -8.2577785    611.41281  0.016103371  0.015579043            4 
 3165000   0.72771038   -8.2907858    610.64798  0.016078146  0.015573761            1 
 3166000   0.74254704    -8.258842    611.33165  0.016091063  0.015568482            1 
 3167000   0.75671699   -8.2872343     612.3639  0.016113143  0.015563187            1 
 3168000   0.74141357   -8.2626165    610.26765  0.016052916  0.015557894            2 
 3169000   0.75055066   -8.2804161    610.62818  0.016057331  0.015552594            1 
 3170000   0.74907463   -8.2850265     610.9009  0.016059435  0.015547289            2 
 3171000   0.72931331   -8.2783885    609.92025  0.016028599  0.015541976            3 
 3172000    0.7407613   -8.2814318    610.16253  0.016029911  0.015536676            5 
 3173000   0.74392079   -8.2659948    610.17254  0.016025122  0.015531368            2 
 3174000   0.72981771    -8.284986    609.47942  0.016001875  0.015526047            1 
 3175000   0.76125124   -8.3208603    608.55355  0.015972534  0.015520743            1 
 3176000   0.73929334   -8.2955239     611.2593    0.0160385  0.015515448            1 
 3177000   0.73364158   -8.2882102     610.0697  0.016002248  0.015510154            3 
 3178000   0.74850518   -8.3044949    609.91469  0.015993148  0.015504862            4 
 3179000   0.72501898   -8.2869336    609.84674  0.015986336  0.015499558            2 
 3180000   0.74517791   -8.2906764    610.81588  0.016006705   0.01549425            3 
 3181000   0.73776882   -8.2714748    610.60234  0.015996079  0.015488956            4 
 3182000   0.76584065   -8.2790683     611.3741  0.016011264  0.015483681            3 
 3183000   0.73688272   -8.2939939    610.58858  0.015985668  0.015478401            2 
 3184000   0.75255882   -8.2652734    611.53031  0.016005295  0.015473121            1 
 3185000   0.74872827   -8.2825627    611.56028  0.016001054  0.015467851            2 
 3186000   0.72333593   -8.2878741    610.53733  0.015969275  0.015462581            2 
 3187000   0.74294096   -8.2745076    610.94525  0.015974931   0.01545733            2 
 3188000   0.74264989   -8.2946056    611.13149  0.015974788  0.015452084            2 
 3189000    0.7263709   -8.2866702    611.26491  0.015973265  0.015446818            1 
 3190000   0.74686794   -8.3000507    610.60449  0.015951006  0.015441569            3 
 3191000   0.74083212   -8.2871981    612.03824  0.015983449  0.015436312            3 
 3192000   0.72711644   -8.2881519    613.32952  0.016012153  0.015431063            4 
 3193000   0.74276504   -8.2605012    610.75815  0.015940029  0.015425817            2 
 3194000   0.75385736   -8.2923901    611.02373  0.015941968  0.015420577            1 
 3195000    0.7294097   -8.2721002    611.41138  0.015947089  0.015415334            2 
 3196000   0.76351782   -8.2811397    611.80123  0.015952264  0.015410087            3 
 3197000   0.72947148   -8.2704993     611.0797  0.015928467  0.015404852            4 
 3198000   0.74955712   -8.2695902    611.37305   0.01593113  0.015399607            2 
 3199000   0.73707215   -8.2631101    611.60857  0.015932285  0.015394376            2 
 3200000   0.74126081   -8.2844824     609.6908  0.015877365  0.015389144            2 
 3201000   0.75664331   -8.2775104    610.52467  0.015894113  0.015383903            1 
 3202000   0.76109697   -8.3112183    611.21706  0.015907169  0.015378646            2 
 3203000   0.72784349   -8.3126538    609.96518  0.015869632  0.015373387            1 
 3204000   0.73901869   -8.2695387    612.22292  0.015923401  0.015368126            2 
 3205000   0.75588981   -8.2810974     610.9637  0.015885692  0.015362881            1 
 3206000    0.7579212   -8.3042162    610.05855  0.015857209  0.015357632            4 
 3207000   0.73805393   -8.2934117    610.39826  0.015861092  0.015352366            3 
 3208000    0.7418052   -8.2653171    611.05455  0.015873196  0.015347115            3 
 3209000   0.72878833    -8.279281    611.28374  0.015874201  0.015341874            3 
 3210000   0.71838558   -8.2794254    611.60102  0.015877493  0.015336629            2 
 3211000   0.74724226   -8.2716444    612.69807  0.015901019  0.015331385            2 
 3212000   0.74032009   -8.2546797    611.05871  0.015853536  0.015326158            1 
 3213000   0.74295616   -8.3058229    611.64017  0.015863683  0.015320903            3 
 3214000   0.74920861   -8.2709294    610.44528  0.015827766  0.015315664           12 
 3215000   0.76378139   -8.2734326    610.79992  0.015832035  0.015310442            6 
 3216000   0.76855116   -8.3077362     611.3447  0.015841229  0.015305204            4 
 3217000   0.74173072   -8.2754813    611.22973  0.015833326  0.015299969            4 
 3218000    0.7411963   -8.2633399    611.34386  0.015831361  0.015294736            7 
 3219000   0.74163653   -8.2814789    610.54485  0.015805759  0.015289502            7 
 3220000    0.7489863   -8.2768409    612.06591  0.015840215  0.015284264            3 
 3221000   0.72748957   -8.2793618    612.33061  0.015842146   0.01527904            2 
 3222000   0.75606019   -8.2846511    611.33185  0.015811397  0.015273802            3 
 3223000   0.73630281   -8.3067661     611.3456  0.015806847  0.015268588            3 
 3224000   0.72619393   -8.2694569    610.97369  0.015792331  0.015263367            1 
 3225000   0.73000973   -8.2883334    610.86057  0.015784511  0.015258131            2 
 3226000   0.73477097   -8.2973612    611.20678  0.015788561   0.01525289            2 
 3227000   0.73571267   -8.3015177    611.11833  0.015781384  0.015247667            2 
 3228000   0.72872835   -8.2900388    611.31017  0.015781448  0.015242434            2 
 3229000   0.74680707    -8.297234     611.3457  0.015777478  0.015237219            3 
 3230000   0.74330727   -8.2963541    610.66783  0.015755104  0.015231988            4 
 3231000   0.73492109    -8.274426    610.83422  0.015754519  0.015226777            2 
 3232000   0.73925818   -8.2756235    612.32915   0.01578819  0.015221587            2 
 3233000   0.74890647   -8.3065669    610.41893  0.015734069  0.015216379            1 
 3234000   0.74614492   -8.2823395    612.47858  0.015782276  0.015211183            1 
 3235000    0.7447753   -8.2773778    611.88618  0.015762138  0.015205985            5 
 3236000   0.73032052   -8.3246471     610.2117  0.015714146  0.015200767            2 
 3237000   0.74172172     -8.29806    609.96394  0.015702913  0.015195555            2 
 3238000    0.7242675    -8.298226    611.80749  0.015745509  0.015190341            1 
 3239000   0.72653585    -8.290273    610.94993  0.015718584  0.015185131            2 
 3240000   0.72678715   -8.3052595    609.26416  0.015670374  0.015179922            3 
 3241000   0.73280392   -8.3061811    610.46559  0.015696431  0.015174708            2 
 3242000   0.73226665   -8.2617227    610.35746   0.01568881  0.015169501            2 
 3243000   0.73358991     -8.30163     609.4107  0.015659644  0.015164278            3 
 3244000   0.72875726   -8.2733329    610.23305  0.015675941  0.015159081            3 
 3245000   0.71904518     -8.28072    612.07219  0.015718341  0.015153884            2 
 3246000   0.74134451   -8.3005253    611.10461  0.015688658  0.015148675            1 
 3247000   0.75202739   -8.2779251    612.11105  0.015709656  0.015143483            2 
 3248000   0.73142745   -8.2541472     611.6457   0.01569288  0.015138282            3 
 3249000   0.72452883   -8.2617461    613.03595  0.015723709  0.015133101            2 
 3250000   0.72469119   -8.2750728    611.67386  0.015683945  0.015127901            5 
 3251000   0.73542817    -8.300284    611.20062   0.01566699  0.015122698            2 
 3252000   0.73473985   -8.3035738    610.92139  0.015655017  0.015117498            6 
 3253000   0.72878016   -8.3081225    610.00966  0.015626849  0.015112283            1 
 3254000   0.74228962   -8.3302456    609.89821  0.015619192  0.015107062            1 
 3255000   0.73293573   -8.3344745    610.33236  0.015625508  0.015101824            1 
 3256000   0.73427945    -8.308849     609.7845  0.015606688   0.01509658            2 
 3257000   0.70670523   -8.3227221    609.29716  0.015589427  0.015091322            3 
 3258000   0.74440771   -8.3124864    609.03129  0.015577841  0.015086062            2 
 3259000   0.72414837   -8.2907949    609.56165  0.015586623    0.0150808            2 
 3260000   0.73178189   -8.3208141    611.00401  0.015618712   0.01507554            2 
 3261000   0.71989597   -8.3305961    610.52513  0.015601685  0.015070291            1 
 3262000   0.72625396   -8.3265481    611.39214  0.015619051  0.015065047            3 
 3263000   0.73023826   -8.3154301    609.36516  0.015562498  0.015059802            4 
 3264000   0.70924465    -8.311149    610.54722  0.015587909  0.015054559            3 
 3265000   0.72363563   -8.3151244    611.32694  0.015603036  0.015049325            3 
 3266000   0.72995606   -8.3276598    609.63537  0.015555097  0.015044108            4 
 3267000    0.7246435   -8.3267265    610.08457  0.015561794  0.015038889            4 
 3268000   0.73651573   -8.3124452    611.29428   0.01558788  0.015033686            1 
 3269000   0.73781987   -8.2993571    610.94906  0.015574311  0.015028472            3 
 3270000   0.74878684   -8.3037654    609.98343  0.015544939  0.015023256            4 
 3271000   0.73363531   -8.3359436    611.12692  0.015569319  0.015018037            4 
 3272000   0.71825948   -8.3241988    609.69747  0.015528155  0.015012818            1 
 3273000    0.7358554   -8.2978907    610.05769  0.015532582  0.015007613            2 
 3274000   0.72186993   -8.3002944    610.02986  0.015527129  0.015002399            3 
 3275000   0.74546284   -8.3249388    610.35153  0.015530573  0.014997183            2 
 3276000   0.71293808   -8.3416428    610.31593  0.015524927  0.014991964            2 
 3277000   0.73990204   -8.3164201    610.23363  0.015518097   0.01498673            4 
 3278000   0.71259159   -8.3072624    610.32223  0.015515615  0.014981521            1 
 3279000   0.72801739   -8.3224824    610.18493  0.015507394  0.014976312            1 
 3280000   0.72137217   -8.3140333     610.8944  0.015520691  0.014971111            2 
 3281000   0.73661059   -8.3336058    609.11006  0.015470641  0.014965909            1 
 3282000   0.72883695   -8.3479095    610.61797  0.015504214  0.014960699            1 
 3283000   0.73816391   -8.3200292    610.45688  0.015495403  0.014955495            3 
 3284000   0.71302286   -8.3168775     610.5413  0.015492826  0.014950288            1 
 3285000   0.74074745    -8.363831    609.74975   0.01546803  0.014945069            1 
 3286000   0.73668114   -8.3037054     610.1694  0.015473965  0.014939867            3 
 3287000   0.73052598   -8.3653641    609.27949  0.015446696  0.014934648            1 
 3288000   0.72154545   -8.3293659     610.5954   0.01547535  0.014929435            2 
 3289000   0.73319825   -8.3508291    609.10148  0.015432793  0.014924237            3 
 3290000   0.72570196   -8.3363161    609.31867  0.015433604  0.014919052            3 
 3291000   0.72602744   -8.3297732    609.39385  0.015430818  0.014913858            2 
 3292000   0.70853116   -8.3221772    609.76254  0.015435463  0.014908649            1 
 3293000   0.71309437   -8.3254294    611.14524  0.015465767   0.01490348            3 
 3294000    0.7178408   -8.3466036    610.17301  0.015436476    0.0148983            1 
 3295000   0.72076658   -8.3226321    611.73471  0.015471287  0.014893118            1 
 3296000   0.72271727   -8.3321855    611.30409  0.015455706  0.014887928            2 
 3297000   0.73003606   -8.3322484    611.69501  0.015460899  0.014882759            1 
 3298000   0.73188515   -8.3369468     609.7334  0.015406646  0.014877566            1 
 3299000   0.74108451   -8.3443473    611.29018    0.0154413  0.014872386            1 
 3300000   0.72511181   -8.3651483    611.52417   0.01544253  0.014867185            2 
 3301000   0.72219077   -8.3298834    610.59962  0.015414511  0.014862008            2 
 3302000   0.71383938   -8.3299936    611.54842  0.015433788  0.014856825            3 
 3303000   0.71515392   -8.3420539    609.67036  0.015381733   0.01485165            3 
 3304000   0.70746214   -8.3522959    610.05289  0.015386725  0.014846459            1 
 3305000   0.73710503   -8.3220529    611.21115  0.015411274   0.01484129            2 
 3306000    0.7244832   -8.3697579    608.84104   0.01534687   0.01483611            1 
 3307000   0.73203389    -8.345605    610.38788  0.015381208  0.014830937            1 
 3308000   0.73516205    -8.315451    612.09445   0.01541955  0.014825788            1 
 3309000   0.73269184   -8.3544825    609.81965  0.015357602   0.01482062            3 
 3310000   0.72223183   -8.3587905    610.67734  0.015374555  0.014815445            2 
 3311000   0.72210261   -8.3391165     610.8671  0.015374688  0.014810286            4 
 3312000   0.72904453   -8.3554492    609.18396  0.015327696   0.01480512            8 
 3313000   0.73054568    -8.348957    610.65319  0.015360026  0.014799968            4 
 3314000   0.72290082   -8.3443919      610.566  0.015353199  0.014794818            8 
 3315000   0.73391156   -8.3377275     611.2357  0.015365402  0.014789678            1 
 3316000   0.73482387   -8.3384902    612.67379  0.015396909  0.014784535            2 
 3317000   0.72890017   -8.3357022    610.79914   0.01534517  0.014779387            2 
 3318000   0.71722656   -8.3859476    609.28392   0.01530249  0.014774232            3 
 3319000   0.71750731   -8.3545406    610.05614  0.015317268   0.01476906            1 
 3320000   0.71624066   -8.4000769    610.41373   0.01532163  0.014763903            2 
 3321000   0.73090646   -8.3870574    609.07517  0.015283428  0.014758724            2 
 3322000   0.71664552   -8.3759221    608.28031  0.015258888   0.01475356            5 
 3323000   0.73617796   -8.3891338    609.54505  0.015286013   0.01474838            4 
 3324000   0.73224343    -8.396205     609.4048  0.015277898  0.014743219            1 
 3325000   0.73750303   -8.3804054    609.99587  0.015288117   0.01473805            3 
 3326000   0.72621756   -8.3686616     607.6254  0.015224128   0.01473289            3 
 3327000   0.72772519   -8.3469729     610.6964  0.015296473  0.014727733            2 
 3328000   0.73022596   -8.3832055    611.07667  0.015301399  0.014722595            1 
 3329000   0.71831314   -8.3634214    610.93816  0.015293335  0.014717464            1 
 3330000   0.73818545   -8.3765028    612.06749  0.015317004  0.014712337            2 
 3331000   0.72136199     -8.36037    611.03354  0.015286539  0.014707205            3 
 3332000   0.72976692   -8.3320474    611.86029  0.015302628  0.014702078            1 
 3333000    0.7182599   -8.3830618    610.58775   0.01526622  0.014696947            2 
 3334000   0.73407557   -8.3337607    609.97771  0.015246393  0.014691808            1 
 3335000   0.73250869   -8.3466747    610.42067   0.01525289  0.014686684            8 
 3336000   0.71275717   -8.3813198    610.32299  0.015245878  0.014681554            2 
 3337000   0.72146676   -8.3564818    609.71869  0.015226219   0.01467643            3 
 3338000   0.71388867   -8.3789076    610.90812  0.015251351  0.014671312            3 
 3339000   0.71726939    -8.375792    610.67776  0.015241034  0.014666201            1 
 3340000   0.70921984   -8.3707493    610.73022   0.01523778  0.014661076            3 
 3341000   0.70514181   -8.3476052     611.8044  0.015260012  0.014655956            3 
 3342000   0.71986987   -8.3699186    609.74953  0.015204207  0.014650839            2 
 3343000    0.7041784   -8.3649008    610.35262  0.015214693  0.014645732            1 
 3344000   0.74222744   -8.3477604    611.96598  0.015250348  0.014640633            4 
 3345000   0.71030619   -8.3522455    611.35935  0.015230676  0.014635525            2 
 3346000   0.71718614   -8.3701805    610.27231  0.015199051  0.014630422            2 
 3347000   0.72388156   -8.3593769    611.16451  0.015216724  0.014625324            3 
 3348000    0.7143889   -8.3679619    610.66056  0.015199636  0.014620234            2 
 3349000   0.72249242   -8.3579243    611.42078  0.015214014  0.014615146            1 
 3350000   0.70962823   -8.3741173    611.11291  0.015201814  0.014610049            2 
 3351000   0.70891898   -8.3397506    610.00482  0.015169721  0.014604967            1 
 3352000   0.71543291   -8.3764695    611.18387  0.015194507  0.014599891            1 
 3353000   0.70872017   -8.3615479    610.03104  0.015161324  0.014594809            1 
 3354000   0.71834314    -8.351709    612.27185  0.015212479  0.014589746            4 
 3355000   0.69595392   -8.3444234    611.61338  0.015191589  0.014584677            2 
 3356000   0.70868023   -8.3502302    612.25244  0.015202931  0.014579619            3 
 3357000   0.71008878   -8.3663464    611.46446  0.015178842  0.014574555            4 
 3358000   0.70679352   -8.3347656    611.31436  0.015170597  0.014569495            1 
 3359000   0.71355268   -8.3565962    611.63128  0.015173943   0.01456444            2 
 3360000   0.72861103     -8.38999    611.68492  0.015170757  0.014559383            2 
 3361000   0.73000878   -8.3639468     611.3666  0.015158351  0.014554323            1 
 3362000   0.71664387   -8.3540895    611.37591  0.015154073  0.014549275            2 
 3363000   0.72966236   -8.3702685    611.21487  0.015145576  0.014544232            3 
 3364000    0.7180782   -8.3422764    612.91825   0.01518327  0.014539193            1 
 3365000   0.71168419   -8.3631272    610.78843  0.015126014  0.014534145            2 
 3366000   0.72811829   -8.3780832    610.73802  0.015120272  0.014529104            2 
 3367000   0.71235528   -8.3485017    611.61252  0.015137425   0.01452407            4 
 3368000    0.7092733    -8.379055    611.58013  0.015132129   0.01451905            1 
 3369000   0.71913429   -8.3607091    611.38438  0.015122796  0.014514023            2 
 3370000   0.71531185   -8.3490917    612.50714  0.015146072  0.014508996            1 
 3371000   0.71690375   -8.3522779    612.05847  0.015130487  0.014503984            2 
 3372000   0.72030407   -8.3596303    612.13591  0.015127914   0.01449897            1 
 3373000   0.71320304   -8.3764165    612.37249  0.015129274  0.014493951            1 
 3374000    0.7116808   -8.3523855    612.74967  0.015134106  0.014488919            2 
 3375000   0.71472674   -8.3548898    611.46108  0.015097804   0.01448388            2 
 3376000   0.71657424   -8.3701506    609.77258  0.015051653  0.014478848            2 
 3377000   0.70421732   -8.3710658    610.49606  0.015065049  0.014473798            4 
 3378000   0.69418622   -8.3580951    611.14702  0.015076648  0.014468766            2 
 3379000   0.70780666    -8.356278    611.22832  0.015074192  0.014463754            2 
 3380000   0.70417684   -8.3717326      610.995  0.015063979  0.014458748            2 
 3381000   0.70270848   -8.3880109    611.52234  0.015072521  0.014453717           10 
 3382000   0.70724447   -8.3599204     611.7702  0.015074172  0.014448692            4 
 3383000   0.72210457   -8.3769745    611.21515  0.015056044  0.014443662            2 
 3384000   0.70566386   -8.3848056    610.70806  0.015039107  0.014438627            1 
 3385000   0.70955761   -8.3868052    610.98879  0.015041575  0.014433594            1 
 3386000   0.69673313    -8.374681    612.32582  0.015070039  0.014428571            3 
 3387000   0.72936719    -8.381579    610.98193  0.015032525   0.01442356            4 
 3388000   0.70742387   -8.3890862    610.64458   0.01501979  0.014418529            8 
 3389000   0.70180842   -8.3783267    610.54974  0.015013026  0.014413499            3 
 3390000   0.70814324   -8.4190102    610.39544  0.015004804  0.014408453            2 
 3391000   0.70479138   -8.3791751    610.56947  0.015004656  0.014403405            4 
 3392000   0.71607947   -8.3963428    610.72896  0.015004151   0.01439837            2 
 3393000   0.70610796   -8.3702101    610.98651  0.015006054  0.014393331            2 
 3394000   0.69706657   -8.3698485    611.73136  0.015019921  0.014388314            3 
 3395000    0.7099931   -8.3597791    612.14838  0.015025733  0.014383301            1 
 3396000   0.70883036   -8.3748364    612.18748  0.015022268  0.014378309            1 
 3397000   0.70325163   -8.3727601    612.09991  0.015015698  0.014373309            2 
 3398000   0.71260163   -8.3542667     611.4866  0.014996238  0.014368303            4 
 3399000   0.72084054   -8.4051962    610.88771  0.014977143  0.014363288            2 
 3400000   0.71932846   -8.3451048    612.71092  0.015017425  0.014358294            2 
 3401000   0.70558752   -8.3763523    611.52998  0.014984073  0.014353295            2 
 3402000     0.712679   -8.3446082    611.49627  0.014978843  0.014348298            1 
 3403000    0.6972382   -8.3436165     611.5937  0.014976827  0.014343314            1 
 3404000   0.71476363   -8.3790191    611.51088    0.0149704  0.014338329            2 
 3405000   0.70809611     -8.37042    611.15572  0.014957311  0.014333358            1 
 3406000   0.69724554   -8.3802129    610.09888  0.014927062  0.014328369            6 
 3407000   0.69584903   -8.3887103    611.78013  0.014963803  0.014323376            1 
 3408000   0.71581557   -8.3664885    611.59139  0.014954797  0.014318389            3 
 3409000    0.7022595    -8.388641    611.48172  0.014947729  0.014313406            3 
 3410000   0.70842421    -8.364992    613.07547  0.014982294  0.014308445            3 
 3411000   0.71385059   -8.3645638    611.78972   0.01494649  0.014303486            2 
 3412000   0.72495967   -8.3716926    612.03474  0.014948093  0.014298517            2 
 3413000    0.7102858   -8.3684801    611.36977  0.014927477  0.014293547            2 
 3414000   0.68241163    -8.396686    611.04339  0.014915138  0.014288575            3 
 3415000   0.70516906   -8.3867303    612.80238  0.014953694  0.014283606            2 
 3416000   0.70605104   -8.3837353     610.4988  0.014893121  0.014278635            2 
 3417000   0.72143666   -8.4012154    611.86937  0.014922187  0.014273666            2 
 3418000   0.70858642   -8.3776114    610.91154  0.014894469  0.014268678            1 
 3419000   0.70061255   -8.3751896    612.08327  0.014918672  0.014263714            4 
 3420000   0.69705587   -8.3780512    612.47612  0.014923882  0.014258743            3 
 3421000   0.70339782   -8.3672201    611.76669  0.014902238   0.01425378            7 
 3422000   0.71776502   -8.3785631    612.74512  0.014921711  0.014248822            3 
 3423000   0.68999761   -8.3754424    611.11939  0.014877773  0.014243863            7 
 3424000    0.7015609   -8.4049984    610.75078  0.014864456  0.014238894            3 
 3425000   0.69533462   -8.3826341    612.19208  0.014895184  0.014233928            6 
 3426000    0.7137541   -8.3800598    611.85566  0.014882654  0.014228972            3 
 3427000   0.69446506   -8.3879039     611.7713   0.01487626  0.014224025            2 
 3428000   0.70902675   -8.3827186    611.33114   0.01486122  0.014219076            1 
 3429000   0.70805529   -8.3801195    612.27546  0.014879835  0.014214134            1 
 3430000   0.69927732   -8.3693231    612.15448  0.014872558  0.014209194            1 
 3431000   0.69689024   -8.4119817    611.19669   0.01484496  0.014204247            3 
 3432000   0.71167444   -8.4019251    611.80972   0.01485552  0.014199302            2 
 3433000   0.70328528   -8.3843296    611.25357  0.014837692  0.014194348            2 
 3434000   0.68212332   -8.3965355    611.63372  0.014842597   0.01418939            1 
 3435000   0.70152045    -8.391862    611.84734  0.014843458  0.014184438            2 
 3436000   0.70613847   -8.4086726    611.16809  0.014822664  0.014179481            1 
 3437000   0.70714095   -8.3764229    612.20251  0.014843432  0.014174518            1 
 3438000    0.7029768   -8.3974958     611.2421  0.014815835  0.014169563            2 
 3439000   0.70015327     -8.40514    610.36824  0.014790352  0.014164614            2 
 3440000   0.67856128   -8.4136067    610.79285  0.014796338  0.014159665            3 
 3441000   0.70069212   -8.4089994    611.80802  0.014816623  0.014154705            2 
 3442000   0.70436177   -8.3857575    611.24011  0.014798569  0.014149744            3 
 3443000   0.70662417   -8.4064805    611.05379  0.014789762  0.014144796            4 
 3444000    0.7096064   -8.4108674    612.62456  0.014823475  0.014139849            1 
 3445000   0.70003441    -8.416777    612.32309  0.014811879  0.014134912            1 
 3446000     0.712596    -8.375315    611.24025  0.014781395  0.014129968            1 
 3447000   0.68880067   -8.4129747    611.93978  0.014794019  0.014125036            1 
 3448000   0.69118786   -8.3956686    611.79213  0.014786159  0.014120104            3 
 3449000   0.69849132   -8.4051849    611.25532  0.014768902  0.014115164            5 
 3450000   0.70323833   -8.3944688    610.92721  0.014756696  0.014110232            2 
 3451000    0.6980031   -8.3945614    611.77337  0.014772852  0.014105304            3 
 3452000   0.70411354   -8.3762329    610.73362  0.014743473  0.014100376            2 
 3453000   0.69691215   -8.4017055     611.1858  0.014750116  0.014095454            3 
 3454000   0.69721372    -8.401144    611.10391   0.01474387  0.014090541            2 
 3455000   0.69110689   -8.4225159    610.90426  0.014734787  0.014085607            2 
 3456000   0.69290508   -8.4218671    610.67149   0.01472491  0.014080674            4 
 3457000   0.70154536   -8.3869589    611.64118  0.014744026  0.014075747            3 
 3458000   0.72029922    -8.393881    612.74632  0.014766395  0.014070823            2 
 3459000   0.71126902   -8.3800152    611.59947  0.014734496  0.014065901            2 
 3460000   0.69670115   -8.4207218    611.52809  0.014728518  0.014060991            2 
 3461000   0.68619728   -8.4110648    612.18969  0.014740193  0.014056086            1 
 3462000   0.68475639    -8.408052    611.31288   0.01471483  0.014051187            2 
 3463000   0.69912806   -8.4013921    611.37626  0.014712106  0.014046276            2 
 3464000   0.70354456   -8.4023096    612.27024  0.014729365  0.014041368            2 
 3465000    0.6894262   -8.4055333    610.65041  0.014686157  0.014036462            2 
 3466000   0.69432138   -8.4170608    611.07315  0.014692084  0.014031551            1 
 3467000   0.69535858    -8.396282    610.96372  0.014685216  0.014026648            1 
 3468000   0.69923923   -8.4054453    611.82913  0.014701776  0.014021732            2 
 3469000   0.70091313   -8.4193889    611.67905  0.014693933  0.014016827            3 
 3470000   0.70815277   -8.3926982    612.34899  0.014705787  0.014011924            2 
 3471000   0.70992592   -8.4047389    613.57541  0.014730995  0.014007033            3 
 3472000   0.69641067   -8.4038296    610.44151  0.014651534  0.014002136            4 
 3473000   0.68446239   -8.4111707    610.26478  0.014643075  0.013997251            1 
 3474000   0.69222286   -8.3953481    611.96481  0.014679639  0.013992361            1 
 3475000   0.71169205   -8.4234466    612.12199  0.014679184  0.013987463            4 
 3476000   0.69241457   -8.3924054    612.88007  0.014693135  0.013982575            1 
 3477000   0.69135846   -8.3898768    612.22025  0.014673096  0.013977678            6 
 3478000   0.69810606    -8.410126    610.77493  0.014634247  0.013972793            3 
 3479000   0.69677533   -8.4362639    610.77287  0.014629991  0.013967906            2 
 3480000   0.68988503   -8.4179397    611.21388  0.014636348  0.013963022            2 
 3481000   0.69846654   -8.4208959    611.16881  0.014631064   0.01395813            3 
 3482000   0.68226405   -8.3888959    612.38285  0.014655917  0.013953254            1 
 3483000   0.68499681   -8.4096697    611.45828  0.014629588  0.013948387            4 
 3484000   0.67784771   -8.4201467    611.54791  0.014627533  0.013943507            3 
 3485000   0.69859016   -8.4061473    612.12222  0.014637069  0.013938641            1 
 3486000   0.70006063   -8.4005364    611.05101  0.014607263  0.013933772            1 
 3487000   0.68511013    -8.422838    610.69283  0.014594514  0.013928895            2 
 3488000   0.67618348   -8.4172595    611.69719  0.014614325   0.01392402            3 
 3489000    0.6855402   -8.4158271     611.7759  0.014612016  0.013919147            2 
 3490000   0.71070241   -8.4219397    611.76186  0.014607494  0.013914269            1 
 3491000   0.69172083   -8.4219351    611.62043  0.014599934   0.01390939            1 
 3492000   0.69846681   -8.4350601    610.26194  0.014563334  0.013904518            2 
 3493000   0.68943232   -8.4151998    611.60177  0.014591129  0.013899645            9 
 3494000   0.68143376   -8.4107646    612.84686  0.014616649  0.013894776            2 
 3495000   0.69930273   -8.3926101    612.17546  0.014596458  0.013889918            1 
 3496000   0.68908062   -8.4110198    611.52242  0.014576717  0.013885062            3 
 3497000    0.6988499   -8.4525712    611.21542  0.014565233  0.013880206            2 
 3498000     0.689923   -8.4316008     612.1321  0.014582907  0.013875345            2 
 3499000   0.69470465    -8.418367    612.85748  0.014596015  0.013870492            2 
 3500000   0.69016411   -8.4199251    613.04596  0.014596332  0.013865631            1 
 3501000   0.69517858     -8.42195    610.98073  0.014543005  0.013860786            2 
 3502000   0.70436932   -8.4192748     610.9564  0.014538273  0.013855937            3 
 3503000   0.69400593   -8.4166492    610.34885   0.01451967  0.013851073            2 
 3504000   0.68725315   -8.4110458    611.65022  0.014546476  0.013846218            1 
 3505000   0.68512245   -8.4412472    611.86178  0.014547356  0.013841365            3 
 3506000   0.69292845   -8.4227955    611.24738  0.014528603   0.01383652            2 
 3507000   0.68114321   -8.4104711    611.05253   0.01451983  0.013831672            3 
 3508000   0.68609879   -8.4219014    610.82613  0.014510313  0.013826818            4 
 3509000    0.6943332   -8.4371301    611.84439   0.01453036  0.013821959            2 
 3510000   0.67668643   -8.4134422    609.86981   0.01447934  0.013817113            3 
 3511000   0.69048224   -8.4268873    611.07447  0.014503809  0.013812265            2 
 3512000   0.69791315   -8.4389058     612.0616  0.014523102  0.013807424            3 
 3513000   0.69345627   -8.4507053    611.76736  0.014511988  0.013802581            2 
 3514000   0.68814749   -8.4438949    611.14814  0.014493174  0.013797737            3 
 3515000   0.68230933   -8.4414058    612.08283   0.01451121   0.01379289            2 
 3516000   0.69678292   -8.4277172    611.76003  0.014499432  0.013788058            4 
 3517000   0.69831413   -8.4222159    612.44989  0.014511655  0.013783235            3 
 3518000   0.68624632   -8.4187001    610.46209  0.014460444  0.013778418            2 
 3519000   0.66907003   -8.4360507    612.22606  0.014498107  0.013773605            2 
 3520000   0.70463778   -8.4504421    611.26818  0.014471311  0.013768801            3 
 3521000   0.68719838   -8.4137443    612.69671  0.014501011  0.013763994            4 
 3522000   0.68293564   -8.4471277    610.29427   0.01444005  0.013759181            4 
 3523000   0.70360442   -8.4539307    611.72497  0.014469793   0.01375438            2 
 3524000   0.69081754   -8.4432825    611.39794  0.014457953  0.013749574            1 
 3525000   0.68279723    -8.447861    612.11706  0.014470853  0.013744758            2 
 3526000   0.69378405   -8.4156639    612.41288   0.01447374  0.013739954            1 
 3527000   0.67922026   -8.4383264     610.4871  0.014424135  0.013735151            2 
 3528000    0.6802699   -8.4234455    611.95832  0.014454798  0.013730344            2 
 3529000   0.69597836   -8.4551661    611.68814  0.014444322  0.013725527            3 
 3530000    0.6960244   -8.4451624    611.35335  0.014432326  0.013720719            3 
 3531000   0.69697675   -8.4459947    611.31602  0.014427358  0.013715905            3 
 3532000   0.70700186   -8.4648918    611.97032  0.014438711  0.013711092            2 
 3533000   0.67983334   -8.4335075    610.97389  0.014411121  0.013706291            3 
 3534000   0.69325251   -8.4552879    611.00517  0.014407781  0.013701498            3 
 3535000   0.69236364    -8.429886     611.8337  0.014423237  0.013696687            4 
 3536000   0.69291089   -8.4516928    611.77824  0.014417851  0.013691894            1 
 3537000   0.69893591     -8.44959    609.78326  0.014366772  0.013687091            2 
 3538000   0.68004074   -8.4385536    611.12362  0.014394282  0.013682286            2 
 3539000   0.68815033    -8.481805    611.20466  0.014392123  0.013677483            3 
 3540000   0.69282857   -8.4628811    611.31114  0.014390563  0.013672686            2 
 3541000   0.68835643      -8.4459    611.61657  0.014393687  0.013667885            3 
 3542000    0.6981907   -8.4585368    611.93747  0.014397174  0.013663087            2 
 3543000   0.67588674   -8.4613173    612.01325  0.014394893  0.013658297            3 
 3544000   0.69063941   -8.4450183    611.90365  0.014388254  0.013653508            2 
 3545000   0.67665947   -8.4676848    611.59886   0.01437703   0.01364872            6 
 3546000    0.6829307   -8.4317474    612.12379  0.014385312  0.013643937            2 
 3547000   0.67572172   -8.4330926     612.0561  0.014379666  0.013639154            1 
 3548000   0.68554133   -8.4342605    611.74614  0.014368333  0.013634367            2 
 3549000   0.68181991   -8.4175814    611.43807  0.014357051  0.013629603            3 
 3550000   0.69323529   -8.4091133    611.99829  0.014366157  0.013624839            3 
 3551000   0.68255718   -8.4472065    611.55055  0.014351604  0.013620063            1 
 3552000   0.67195196   -8.4444948    611.64732  0.014349834   0.01361529            4 
 3553000   0.68373063   -8.4355324     612.7452  0.014371545  0.013610525            3 
 3554000   0.68746726   -8.4210381    612.45037  0.014360588  0.013605756            2 
 3555000   0.67923112   -8.4470632    610.85355  0.014319117  0.013600992            3 
 3556000    0.6982308   -8.4409541    611.18852  0.014322941  0.013596235            1 
 3557000   0.68753482   -8.4665099    610.59859  0.014305093  0.013591482            1 
 3558000   0.68401292   -8.4451784    612.26293  0.014340054  0.013586727            2 
 3559000   0.69128837   -8.4612141     612.0118  0.014330144  0.013581975            3 
 3560000   0.68058652   -8.4541292    611.78977  0.014320922  0.013577227            1 
 3561000   0.67458171   -8.4256793    612.08517  0.014323813  0.013572479            1 
 3562000   0.67827874   -8.4513925    611.37822  0.014303252  0.013567731            2 
 3563000   0.68452081    -8.442699    611.19617   0.01429498   0.01356298            4 
 3564000   0.67264952   -8.4704337     611.7729  0.014304454  0.013558223            3 
 3565000    0.6854021   -8.4458403    612.13262   0.01430885  0.013553464            2 
 3566000   0.69258469   -8.4464595    612.60612  0.014315903  0.013548712            3 
 3567000   0.67318355   -8.4610945    611.16468  0.014278214  0.013543959            3 
 3568000   0.69297981   -8.4360578    611.35702  0.014278705  0.013539216            4 
 3569000   0.67640709   -8.4575236    611.54432  0.014279077  0.013534472            3 
 3570000   0.68707319   -8.4681417    610.62535  0.014253626  0.013529729            2 
 3571000   0.68672372   -8.4600245    611.48184  0.014269622  0.013524994            4 
 3572000    0.6805887    -8.449843     611.5407     0.014267  0.013520256            1 
 3573000   0.68116187   -8.4590119    611.07798  0.014252215  0.013515535            3 
 3574000   0.69657003   -8.4271729    611.97051  0.014269038  0.013510806            1 
 3575000   0.68936343   -8.4721487    612.34297  0.014273729  0.013506076            5 
 3576000   0.67546203   -8.4627566    612.61955  0.014276183  0.013501353            6 
 3577000   0.67698123   -8.4617157    612.40916   0.01426729  0.013496635            4 
 3578000   0.66685261   -8.4357749    611.23536  0.014235964  0.013491919            3 
 3579000   0.69064702   -8.4640459    611.30366  0.014233577  0.013487199            2 
 3580000   0.68565376    -8.428293    612.20225  0.014250518  0.013482489            4 
 3581000   0.67262394   -8.4561817    611.99961  0.014241823  0.013477779            4 
 3582000    0.6823034   -8.4582268    611.74297  0.014231876   0.01347307            2 
 3583000   0.68141536   -8.4542238    611.31627   0.01421798  0.013468356            3 
 3584000   0.66707441   -8.4403235    612.93102  0.014251558   0.01346364            4 
 3585000   0.68640342   -8.4680893    612.16104  0.014229685   0.01345892            3 
 3586000   0.68003972   -8.4549487    610.74459    0.0141928  0.013454204            4 
 3587000   0.67160515   -8.4386331     611.9531   0.01421692  0.013449489            2 
 3588000   0.67981526    -8.442483    612.85144  0.014233822   0.01344478            2 
 3589000   0.67622734   -8.4468872    612.40923  0.014219588  0.013440067            3 
 3590000   0.69262856   -8.4491572    611.37136  0.014191536  0.013435362            3 
 3591000   0.67724115   -8.4807563    611.80299    0.0141976  0.013430647            1 
 3592000   0.68799765   -8.4700206    611.15496  0.014178613  0.013425937            1 
 3593000   0.67353725   -8.4738654    609.86522  0.014144754  0.013421224            8 
 3594000   0.67185157   -8.4598932    612.71829  0.014206972  0.013416509            2 
 3595000   0.68450095   -8.4517302    612.58812  0.014200003  0.013411796            6 
 3596000   0.67041269   -8.4560399    611.66236  0.014174601   0.01340709            3 
 3597000   0.66476127   -8.4749872    611.11139  0.014157895   0.01340237            2 
 3598000   0.68287749   -8.4631861    610.18794  0.014132572  0.013397664            2 
 3599000   0.68157925    -8.466372    611.31734  0.014154796  0.013392959            3 
 3600000   0.67970476   -8.4627407    611.65123  0.014158593  0.013388254            4 
 3601000   0.69783781   -8.4383576    610.32481  0.014123966  0.013383551            3 
 3602000   0.68306918   -8.5066942    610.73166  0.014129457  0.013378842            4 
 3603000   0.67113762   -8.4551285    610.69604  0.014124712  0.013374132            4 
 3604000   0.66233571   -8.4812766    611.33082   0.01413547  0.013369429            2 
 3605000      0.67849   -8.4674765    613.19311  0.014174598  0.013364726            2 
 3606000   0.65862843   -8.4906167    611.11382  0.014122615  0.013360022            3 
 3607000   0.67160452   -8.4985889    611.38658  0.014125002  0.013355318            6 
 3608000   0.66418245    -8.491408    609.85409  0.014085691  0.013350605            3 
 3609000   0.66904744   -8.4611919    610.82773   0.01410427  0.013345905            5 
 3610000   0.68625434   -8.4892529    611.34683  0.014112346  0.013341213            1 
 3611000   0.68369191    -8.464992    611.51319  0.014112277  0.013336527            4 
 3612000   0.66849944   -8.4792352    611.21143  0.014101408  0.013331837            1 
 3613000   0.66408331   -8.4802567    611.46012  0.014103241  0.013327153            2 
 3614000   0.67754187   -8.4781434    611.64399  0.014103578  0.013322474            2 
 3615000   0.67675722   -8.5001514    611.83556  0.014104093  0.013317787            2 
 3616000   0.66177834   -8.4852179    612.61853  0.014118237  0.013313105            1 
 3617000   0.67632916   -8.4760681    611.34234  0.014084931  0.013308424            1 
 3618000   0.66614379    -8.469577    610.78446  0.014068188  0.013303757            1 
 3619000   0.68193058   -8.4793935    612.17326   0.01409628  0.013299087            3 
 3620000   0.67654191    -8.480375    610.59465  0.014056046   0.01329442            2 
 3621000   0.66559998   -8.4671189    610.72911  0.014055259  0.013289753            4 
 3622000   0.67745238   -8.4692834    610.74174  0.014051669  0.013285083            2 
 3623000   0.65721777   -8.4779422    612.00631  0.014076877  0.013280415            2 
 3624000    0.6667221   -8.4722281    612.32138  0.014080238  0.013275755            4 
 3625000   0.66787032   -8.4688022    611.14736  0.014049365  0.013271089            2 
 3626000    0.6824527   -8.4842278     610.7385  0.014036094  0.013266428            4 
 3627000   0.66741461   -8.4925234    610.96497  0.014037427  0.013261767            4 
 3628000   0.66090823   -8.4913469    611.33965  0.014042164  0.013257107            2 
 3629000   0.66866945   -8.4809205    612.00638  0.014053605  0.013252444            3 
 3630000   0.66840368   -8.4738705    611.70249  0.014042757  0.013247785            4 
 3631000    0.6714863   -8.4918046    610.44707  0.014010077  0.013243131            5 
 3632000   0.67349219   -8.4775709    612.24338  0.014047434  0.013238485            4 
 3633000   0.67563649   -8.4842278    611.75324  0.014032325  0.013233836            5 
 3634000   0.66621146   -8.4878879    611.57191  0.014024305   0.01322919            1 
 3635000   0.68183135   -8.4916086    611.82617  0.014026276  0.013224547            1 
 3636000   0.66640171   -8.5130564     611.4641   0.01401412  0.013219909            2 
 3637000   0.66551627   -8.5114751    611.43516  0.014009604  0.013215269            2 
 3638000   0.65335424   -8.4727105    610.96631  0.013995013  0.013210635            3 
 3639000   0.66472381   -8.4866365    611.35069   0.01399997  0.013205991            2 
 3640000   0.67885084   -8.4756617     612.5261  0.014023033  0.013201345            2 
 3641000   0.66852946   -8.4855059    611.32281  0.013991642   0.01319671            9 
 3642000   0.66750886   -8.4720605    611.21501  0.013985333  0.013192081            3 
 3643000   0.65797002   -8.4924979    610.78727   0.01397171  0.013187452            1 
 3644000     0.671491   -8.4823493    610.84727  0.013969248  0.013182814            4 
 3645000   0.65464487    -8.497813    611.64137   0.01398357  0.013178173            3 
 3646000   0.66474043   -8.5062858    611.79899  0.013983338  0.013173536            2 
 3647000    0.6737141   -8.5099829    610.44846  0.013948644  0.013168903            4 
 3648000   0.64902026   -8.4778355    611.88263  0.013977582  0.013164277            2 
 3649000   0.66872271   -8.4902368    612.88637  0.013996674  0.013159654            1 
 3650000   0.66396053   -8.4901102    611.36883  0.013958193  0.013155027            2 
 3651000   0.67056072    -8.509826    610.92173  0.013944164   0.01315041            2 
 3652000   0.66606011   -8.4951886    610.59977  0.013932999   0.01314578            6 
 3653000   0.66833506   -8.4921409    610.38999    0.0139244  0.013141154            2 
 3654000   0.65082258   -8.5008654    610.62061  0.013925849  0.013136532            2 
 3655000    0.6659352   -8.5097045    611.08396  0.013932603  0.013131919            3 
 3656000   0.66938311   -8.4957792    611.26988   0.01393303  0.013127304            3 
 3657000   0.66389661   -8.4962001     610.9312  0.013921502  0.013122687            2 
 3658000   0.66704707   -8.4959256    611.54384  0.013931653  0.013118082            2 
 3659000   0.67118563   -8.4942035    611.46352  0.013926016  0.013113469            5 
 3660000   0.66455623   -8.5041028    611.09203  0.013913753   0.01310886            1 
 3661000   0.66793203   -8.4917059    611.17363   0.01391181   0.01310425            1 
 3662000   0.66852252   -8.5103271    611.06872  0.013905623  0.013099642            2 
 3663000   0.68776561   -8.4982385    610.86105  0.013897103  0.013095037            2 
 3664000   0.65420279   -8.4882688    610.90114  0.013894222  0.013090438            2 
 3665000   0.66474703   -8.5004984    610.88308   0.01389002  0.013085826            1 
 3666000   0.66839987   -8.5040224    611.61326  0.013902829  0.013081216            4 
 3667000   0.67590826   -8.5285477    610.62053  0.013876478  0.013076612            3 
 3668000   0.67239684   -8.5097707    612.61249   0.01391795  0.013072014            2 
 3669000   0.65919428   -8.4949191    611.85261  0.013896898  0.013067419            2 
 3670000   0.66630205   -8.5243341    610.99421   0.01387362  0.013062818            4 
 3671000   0.67060498   -8.4947771    610.53886  0.013859504  0.013058212            2 
 3672000    0.6652922   -8.5026887    611.64179   0.01388076  0.013053607            1 
 3673000   0.67527473   -8.5026405    610.09601   0.01384191  0.013049002            2 
 3674000   0.65833671    -8.505893    610.41623  0.013845405  0.013044397            2 
 3675000   0.66540576    -8.528716    610.58627  0.013845494  0.013039796            2 
 3676000   0.66687033   -8.4935175    610.89927  0.013848823   0.01303519            4 
 3677000   0.66704456     -8.51751    611.00544  0.013847463  0.013030599            1 
 3678000   0.66896529   -8.5223591    610.69762  0.013836723  0.013026002            4 
 3679000    0.6617903   -8.5128425    610.59423   0.01383062  0.013021405            2 
 3680000   0.66371884   -8.4993049    610.63714  0.013827834  0.013016802            1 
 3681000   0.66246578   -8.5310551    610.43228  0.013819439  0.013012214            1 
 3682000   0.64711571   -8.5309869    610.78002  0.013823556  0.013007617            2 
 3683000   0.65902216     -8.50223    611.57899  0.013837881  0.013003026            2 
 3684000   0.67015753   -8.5066338    611.93591  0.013842198   0.01299845            2 
 3685000   0.67425243   -8.5288228    611.52443  0.013829137  0.012993871            2 
 3686000   0.66079855   -8.5061429    610.74439   0.01380775  0.012989283            2 
 3687000   0.66943093   -8.5267058    610.76389  0.013804446  0.012984699            2 
 3688000   0.65138668    -8.506763    611.44014  0.013815983   0.01298012            2 
 3689000   0.66014974   -8.5113448    610.62948  0.013793925  0.012975542            2 
 3690000   0.65555837   -8.4706342    611.00527  0.013798674  0.012970967            1 
 3691000   0.66096529   -8.5059753    610.75765  0.013789345  0.012966394            2 
 3692000   0.67534057   -8.5112363    610.55573  0.013781052  0.012961817            1 
 3693000   0.65503681   -8.5140302    610.16441   0.01376849  0.012957241            2 
 3694000   0.65572619    -8.499906    611.23618  0.013788941  0.012952673            3 
 3695000   0.66436643   -8.5128204    610.38417  0.013765994  0.012948109            2 
 3696000   0.65423964   -8.5110926    611.20319  0.013780736   0.01294355            1 
 3697000    0.6707869   -8.5339966    610.73808  0.013766524  0.012938996            2 
 3698000   0.66584008   -8.5200119    611.34492  0.013776477   0.01293445            4 
 3699000    0.6536846   -8.5006476    612.12861  0.013790408   0.01292991            2 
 3700000    0.6484641   -8.5202104    610.75573   0.01375576  0.012925368            2 
 3701000   0.65433265   -8.5116692     610.7064  0.013750932  0.012920822            2 
 3702000   0.65894818   -8.5135714    612.11313  0.013778884  0.012916289            1 
 3703000   0.66238864   -8.4830422    612.04833  0.013773704  0.012911756            1 
 3704000   0.67728196   -8.4880781    613.12591  0.013794229  0.012907229            1 
 3705000   0.66625426   -8.4996872    612.47671  0.013775904    0.0129027            3 
 3706000   0.65558341   -8.5353125    611.81836  0.013757384  0.012898167            3 
 3707000   0.66706641    -8.510781     611.5477  0.013747588  0.012893635            1 
 3708000   0.64473557   -8.5156432    610.94556  0.013730348  0.012889103            2 
 3709000   0.65134213   -8.5119418    611.57152   0.01374071   0.01288457            2 
 3710000   0.65660289   -8.5130805    611.23664  0.013729484  0.012880036            3 
 3711000   0.64842251   -8.5019199    610.70795  0.013713913  0.012875505            1 
 3712000   0.66581753   -8.5023354    611.34625  0.013724548  0.012870974            1 
 3713000   0.65365926   -8.5152835    610.95982  0.013712178  0.012866452            2 
 3714000   0.65303713   -8.5001683    611.55673   0.01372188  0.012861932            1 
 3715000   0.66229281    -8.521924    611.69004  0.013721176  0.012857406            1 
 3716000   0.64563147   -8.5239069     611.3127  0.013709022  0.012852881            2 
 3717000   0.66096262   -8.5357027    611.11986   0.01370101  0.012848359            3 
 3718000   0.64853575   -8.4869698    610.78456   0.01368981  0.012843845            3 
 3719000   0.66677505   -8.5281907    610.45904  0.013678835  0.012839332            2 
 3720000   0.66645107   -8.5342724    610.07666  0.013666592  0.012834814            2 
 3721000    0.6466819   -8.5146525    610.99831   0.01368356  0.012830287            2 
 3722000   0.66518415   -8.5392973    610.71342  0.013673505  0.012825781            2 
 3723000   0.65327227   -8.5342876    610.58946  0.013667058  0.012821264            1 
 3724000   0.66085623   -8.5346435    610.12809  0.013653063  0.012816756            2 
 3725000   0.66115005   -8.5174716      609.851  0.013643199  0.012812251            3 
 3726000    0.6571526   -8.5246147    610.03148  0.013643574  0.012807737            6 
 3727000   0.65806658   -8.5247937      610.649  0.013653721  0.012803234            2 
 3728000   0.65248605   -8.5356096    610.77786  0.013652938  0.012798718            4 
 3729000   0.65260362   -8.5489346     610.3392  0.013639474  0.012794197            2 
 3730000   0.66168106   -8.5310225    611.14477  0.013653815  0.012789686            4 
 3731000    0.6441748   -8.5544557    610.73301  0.013640959   0.01278518            2 
 3732000   0.66406998   -8.5534652    610.32719  0.013628242  0.012780677            6 
 3733000    0.6588409   -8.5465543    610.73383  0.013633669  0.012776168            2 
 3734000   0.66359215   -8.5414975    611.52289  0.013647627  0.012771671            2 
 3735000    0.6587778   -8.5231345    610.77821  0.013627359  0.012767164            2 
 3736000   0.66203557   -8.5405209    610.90909   0.01362663  0.012762667            2 
 3737000   0.65470251   -8.5317871    610.86058  0.013621902  0.012758165            2 
 3738000   0.66066324   -8.5370234    610.16757  0.013602808  0.012753668            1 
 3739000   0.66827014   -8.5387778     611.1776  0.013621681  0.012749169            1 
 3740000   0.65616978    -8.555645    609.68789  0.013584846  0.012744683            2 
 3741000   0.65763533   -8.5500884    608.97911  0.013565426  0.012740191            2 
 3742000   0.65496689   -8.5278046     610.6298  0.013598561  0.012735703            2 
 3743000   0.65963238   -8.5440899    610.52143  0.013592516  0.012731217            1 
 3744000      0.66243   -8.5283779    611.94401  0.013620549  0.012726735            2 
 3745000   0.64473864   -8.5263047    611.04242   0.01359685  0.012722254            2 
 3746000   0.65546954   -8.5276741    610.76851  0.013587126  0.012717774            1 
 3747000   0.64234877   -8.5351725    611.70649  0.013604361  0.012713291            1 
 3748000   0.64823755   -8.5328813    610.11443  0.013565333   0.01270881            4 
 3749000   0.64639934   -8.5470607    610.15253  0.013562562  0.012704327            2 
 3750000   0.66911747   -8.5536695    611.26366  0.013583637  0.012699853            2 
 3751000   0.64686614   -8.5449169    609.00412  0.013529817  0.012695376            3 
 3752000   0.63474058   -8.5224407    610.58504  0.013561324  0.012690907            2 
 3753000   0.65802033   -8.5553135    610.47161  0.013555192  0.012686432            3 
 3754000   0.65313143   -8.5379672    609.85268  0.013537842  0.012681951            2 
 3755000   0.64222634   -8.5581109    610.43421  0.013547142  0.012677471            1 
 3756000   0.65601706   -8.5514147    609.42882  0.013521229  0.012673008            2 
 3757000   0.65372315   -8.5330173    611.93122  0.013573135  0.012668535            2 
 3758000   0.65818623   -8.5367999    610.98854  0.013548619  0.012664077            5 
 3759000   0.63668368   -8.5377064    610.98501  0.013544937  0.012659617            2 
 3760000   0.65104757   -8.5375729    610.01277  0.013519786  0.012655161            1 
 3761000   0.65404938   -8.5431698    610.34186  0.013523484  0.012650706            2 
 3762000   0.64513105   -8.5470317     610.3658  0.013520419  0.012646242            2 
 3763000   0.64403538   -8.5749693     611.3678  0.013539016   0.01264178            2 
 3764000   0.65311606   -8.5682264    610.81513  0.013523183  0.012637322            2 
 3765000   0.65925736   -8.5307171    611.22534  0.013528671  0.012632861            2 
 3766000   0.65450113   -8.5577907     610.6177  0.013511632  0.012628414            2 
 3767000   0.65727785    -8.533327     610.9949   0.01351639  0.012623971            2 
 3768000   0.64806049   -8.5435114    610.96716  0.013512189  0.012619522            2 
 3769000   0.64547518   -8.5278555    610.99492  0.013509218  0.012615081            2 
 3770000   0.64680949   -8.5411897    610.79526  0.013501221  0.012610637            4 
 3771000   0.64647147   -8.5416832    611.36998  0.013510342  0.012606193            1 
 3772000   0.64201577   -8.5569773    610.81288  0.013494452   0.01260175            1 
 3773000   0.65619428   -8.5454707     611.7957  0.013512583  0.012597303            2 
 3774000   0.65749972   -8.5424042    609.06166  0.013448632  0.012592859            3 
 3775000   0.64761072   -8.5461875    610.43861  0.013475466  0.012588418            4 
 3776000    0.6474156    -8.526089     610.2044  0.013466728  0.012583981            1 
 3777000    0.6479567   -8.5473623    610.97461  0.013480156  0.012579541            3 
 3778000   0.63910229   -8.5335063    611.37107  0.013485333  0.012575107            1 
 3779000   0.63190268   -8.5584685    610.95397  0.013472567   0.01257067            2 
 3780000   0.65274443   -8.5498654    609.56747  0.013438436  0.012566233            2 
 3781000   0.63819634   -8.5386924    610.81258  0.013462324  0.012561799            2 
 3782000   0.64509655   -8.5599448    610.27682   0.01344696  0.012557372            2 
 3783000    0.6428108   -8.5570745    610.85407  0.013456121  0.012552932            1 
 3784000   0.63320945   -8.5534935    610.59433  0.013446845    0.0125485            3 
 3785000   0.64957085   -8.5451296    611.62286  0.013465937  0.012544075            2 
 3786000   0.64545719   -8.5494914    610.01184   0.01342692   0.01253965            1 
 3787000   0.63560922   -8.5398783    609.17542  0.013404969  0.012535229            1 
 3788000   0.65698392   -8.5633877    611.61656  0.013455134  0.012530809            2 
 3789000   0.65381148   -8.5334128    611.00887  0.013438217  0.012526387            2 
 3790000   0.65997355   -8.5687748    609.64811  0.013404752  0.012521969            2 
 3791000      0.65119   -8.5474237    611.31532  0.013437864  0.012517546            4 
 3792000    0.6396498   -8.5551075    611.19132  0.013431595  0.012513125            4 
 3793000   0.63876329   -8.5495064    609.95351  0.013400859  0.012508708            1 
 3794000   0.64206845   -8.5421154    609.58831  0.013389306  0.012504301            2 
 3795000   0.64644507   -8.5689662    611.06862  0.013418283   0.01249988            7 
 3796000     0.647799   -8.5519874     610.8175  0.013409235  0.012495471            1 
 3797000   0.64889712   -8.5630366    610.09717  0.013389895  0.012491062            1 
 3798000   0.63340602   -8.5602364    609.88883  0.013381798  0.012486651            3 
 3799000   0.64638005    -8.556289    610.09893  0.013382884  0.012482247            2 
 3800000   0.65454078   -8.5800497    611.43361  0.013408632  0.012477843            2 
 3801000   0.63961781   -8.5485089    610.99675  0.013395526  0.012473433            2 
 3802000   0.64682515   -8.5511697    610.46938  0.013380444   0.01246903            1 
 3803000   0.64245657   -8.5623591    609.60818  0.013358055  0.012464632            2 
 3804000   0.64566894   -8.5603734    609.43007  0.013350641  0.012460232            2 
 3805000     0.643106     -8.54906    609.25423  0.013343281  0.012455825            5 
 3806000   0.65421104   -8.5358113    611.04245  0.013378929  0.012451431            2 
 3807000   0.64149126   -8.5581116    609.13342  0.013333627  0.012447028            1 
 3808000   0.63490004    -8.566725    610.86455  0.013368009  0.012442638            2 
 3809000   0.64034073     -8.56476    610.76833  0.013362394  0.012438248            3 
 3810000   0.63757242   -8.5586126    610.64705  0.013356235  0.012433848            2 
 3811000   0.62323646   -8.5266294    611.43675  0.013369998  0.012429458            3 
 3812000   0.65559952   -8.5656432    609.64387  0.013327297  0.012425067            4 
 3813000   0.64317703    -8.569391    609.88675   0.01332911  0.012420673            4 
 3814000   0.63712324   -8.5706271    609.80063  0.013323733  0.012416291            3 
 3815000    0.6461448   -8.5527822    611.08056  0.013348199   0.01241192            4 
 3816000   0.65360053   -8.5542048    610.45951  0.013331139  0.012407549            6 
 3817000    0.6435905   -8.5456958    610.83579  0.013335861  0.012403181            2 
 3818000   0.64507901   -8.5533167    609.78812  0.013309502   0.01239881            3 
 3819000   0.63911017   -8.5487526    609.49123  0.013299538  0.012394437            3 
 3820000   0.64131349   -8.5738765    611.09789  0.013331106  0.012390058            2 
 3821000   0.64700459   -8.5523731    609.94094  0.013302385  0.012385679            2 
 3822000    0.6487935   -8.5441655    610.35972  0.013308035  0.012381305            2 
 3823000   0.63794253   -8.5630539    610.09438   0.01329877  0.012376938            1 
 3824000   0.62826568   -8.5426017    611.40981  0.013323959  0.012372568            1 
 3825000   0.64105926    -8.561977    610.81106  0.013307431    0.0123682            2 
 3826000   0.62287907    -8.540008     609.6518  0.013278703  0.012363832            1 
 3827000   0.64911364    -8.576237    609.78675  0.013278171  0.012359479            1 
 3828000   0.65208304   -8.5542649    610.93624  0.013299727  0.012355123            1 
 3829000   0.61960514   -8.5579001    610.32031  0.013282848  0.012350765            4 
 3830000   0.63559222   -8.5526366    610.68964  0.013287416  0.012346414            1 
 3831000   0.64751781   -8.5456582    610.12809  0.013271733  0.012342066            2 
 3832000   0.64463929   -8.5579124    610.06037  0.013266796  0.012337716            3 
 3833000   0.62564443   -8.5697603     609.3316  0.013247491  0.012333364            2 
 3834000   0.63070854   -8.5704114    611.51085  0.013291403  0.012329018            3 
 3835000   0.64528707   -8.5476321    609.85478  0.013251951  0.012324677            3 
 3836000   0.65171071   -8.5693686    610.11544  0.013254159  0.012320327            2 
 3837000   0.62669843   -8.5666844    610.08031  0.013249942  0.012315987            2 
 3838000   0.64168231   -8.5703358    609.91523  0.013242905  0.012311652            1 
 3839000   0.63641205   -8.5650145    611.10493   0.01326528  0.012307311            2 
 3840000   0.64175487   -8.5497647    611.25451  0.013265072   0.01230298            2 
 3841000   0.63638162   -8.5564549    609.61264  0.013225997  0.012298649            2 
 3842000   0.63759694   -8.5576989    611.23077  0.013257652  0.012294315            2 
 3843000    0.6485809   -8.5658312    610.03934  0.013228366  0.012289984            1 
 3844000   0.63655726   -8.5577293    611.08369  0.013247565  0.012285663            1 
 3845000   0.62296457    -8.542583    610.67347  0.013235229  0.012281327            2 
 3846000   0.63859378   -8.5468781    611.51094  0.013249934  0.012276992            3 
 3847000   0.63550318   -8.5647698    610.33606  0.013221039  0.012272661            3 
 3848000    0.6495578   -8.5768641    610.01188  0.013210583  0.012268331            2 
 3849000    0.6234805     -8.56732    610.12358  0.013209569  0.012264002            2 
 3850000   0.63781501   -8.5809873    609.57059  0.013194169  0.012259672            2 
 3851000   0.63642948   -8.5763463    610.24615  0.013205361  0.012255346            2 
 3852000   0.62887401   -8.5725958    609.43109    0.0131843  0.012251018            2 
 3853000   0.62921837   -8.5541147    609.45368  0.013181367  0.012246693            2 
 3854000   0.63240286   -8.5653274    609.20837  0.013172642  0.012242373            1 
 3855000   0.63250508   -8.5429837    608.73662  0.013159028  0.012238059            1 
 3856000   0.64026481   -8.5630045    609.39367  0.013169815  0.012233746            2 
 3857000   0.64234084   -8.5457482    610.81905  0.013197197  0.012229436            1 
 3858000   0.64335823   -8.5746484    609.99881  0.013176059  0.012225125            4 
 3859000    0.6305316   -8.5533276    610.45853  0.013182572  0.012220817            2 
 3860000   0.64426572   -8.5493766    609.75656  0.013164002  0.012216515            2 
 3861000   0.63119335   -8.5688362    610.07508  0.013167467  0.012212206            1 
 3862000   0.63023668   -8.5749641    610.83537  0.013180463  0.012207902            2 
 3863000   0.66172556   -8.5934651    609.74508  0.013153531  0.012203597            3 
 3864000   0.63990774   -8.5671138    609.75304  0.013150299  0.012199294            3 
 3865000   0.63625488   -8.5820864    610.65136  0.013166265  0.012194994            2 
 3866000   0.62851531   -8.5719745    610.73766  0.013164719  0.012190692            4 
 3867000    0.6369455   -8.5845027    609.87546  0.013142735    0.0121864            1 
 3868000   0.62463314   -8.5704969    611.38781  0.013171919  0.012182102            1 
 3869000   0.62756638    -8.604119    610.12984   0.01314142  0.012177811            3 
 3870000    0.6336247    -8.566341    610.99492  0.013156652  0.012173514            2 
 3871000   0.64383953   -8.5653158    609.89167  0.013129503  0.012169228            6 
 3872000   0.63592065   -8.5590664    609.02132   0.01310738  0.012164942            2 
 3873000   0.62849647   -8.5953726    608.91646   0.01310174  0.012160653            1 
 3874000   0.62432913   -8.5565269    609.85903  0.013118633  0.012156365            2 
 3875000   0.64166441   -8.5624783    609.47135  0.013106911  0.012152083            3 
 3876000   0.62554292   -8.5488998    610.57185   0.01312719  0.012147796            1 
 3877000   0.63630399   -8.5748596    610.38579  0.013119805  0.012143514            2 
 3878000   0.63054295   -8.5649781    610.07914  0.013109832  0.012139237            1 
 3879000   0.63506502   -8.5922644    610.70336  0.013119863  0.012134959            1 
 3880000   0.63399908   -8.5711964    611.14865  0.013126045  0.012130681            2 
 3881000   0.62996124    -8.594827     610.6904  0.013112823  0.012126409            3 
 3882000   0.62831943   -8.6008879    609.76985  0.013089684  0.012122133            1 
 3883000   0.62805406   -8.6043935    610.10667  0.013093542  0.012117857            3 
 3884000   0.62338313   -8.5861075    610.28714  0.013094043  0.012113578            2 
 3885000   0.63114065   -8.5809627     608.4698   0.01305169  0.012109303            2 
 3886000   0.62139091   -8.5834727    609.41523  0.013068606   0.01210503            3 
 3887000    0.6399855   -8.5811363    609.06504  0.013057736  0.012100754            1 
 3888000   0.64382684   -8.5835975    610.06367  0.013075782   0.01209648            3 
 3889000   0.62621469   -8.5773701    608.54992  0.013039983  0.012092213            3 
 3890000   0.63124934   -8.5894446    610.17493  0.013071442  0.012087948            2 
 3891000   0.61304946   -8.5898986     609.5546  0.013054797  0.012083683            1 
 3892000   0.61915443   -8.5963502    610.13306  0.013063829  0.012079419            3 
 3893000   0.61202837   -8.5869269    608.49888  0.013025492   0.01207515            1 
 3894000   0.61792455   -8.5901962    610.36462  0.013062074  0.012070887            1 
 3895000   0.61893526    -8.579229    610.24288  0.013056116  0.012066637            2 
 3896000   0.63653894   -8.5918726    610.38424  0.013055789  0.012062384            3 
 3897000   0.62596146   -8.5776337    610.08033   0.01304594  0.012058129            3 
 3898000   0.63582047   -8.5594286    609.90672  0.013038881  0.012053877            1 
 3899000   0.62784239   -8.5928904    609.05113  0.013017251  0.012049626            2 
 3900000   0.63622716   -8.5910449    610.09105  0.013036134  0.012045379            4 
 3901000   0.63431626   -8.5804593    610.33167  0.013037932  0.012041134            2 
 3902000   0.62442226   -8.5684053    611.08881  0.013050761  0.012036892            1 
 3903000   0.62319336   -8.5765785    609.39629   0.01301128  0.012032654            1 
 3904000   0.62321523   -8.5912548    609.74356  0.013015359  0.012028417            2 
 3905000   0.63245409   -8.5692437    609.35777  0.013003794  0.012024182            4 
 3906000    0.6313964   -8.5907511    609.68806  0.013007511  0.012019951            1 
 3907000   0.63607979   -8.5666542    610.78686  0.013027618   0.01201572            1 
 3908000   0.62531753   -8.5664155    608.91559  0.012984382  0.012011495            3 
 3909000   0.63392563    -8.598534    609.15155  0.012986091  0.012007265            1 
 3910000   0.62446898   -8.5826252    610.53852   0.01301233  0.012003035            1 
 3911000   0.61889609   -8.5703564    610.41935  0.013006464  0.011998805            1 
 3912000   0.63623323   -8.5962761    609.62902  0.012986303  0.011994578            2 
 3913000   0.63178578    -8.573938    608.98504   0.01296927   0.01199036            3 
 3914000   0.63527624   -8.5806042    609.78488  0.012982986  0.011986137            2 
 3915000     0.634897   -8.5730752    609.36533  0.012970739  0.011981905            3 
 3916000   0.63048937   -8.5616784    609.48978  0.012970075  0.011977688            2 
 3917000   0.62876947   -8.5881576    610.24287  0.012982786  0.011973464            2 
 3918000   0.61944997   -8.5805169    609.04309  0.012953954  0.011969237            4 
 3919000   0.62416988   -8.6053824    609.37136  0.012957629  0.011965014            2 
 3920000   0.62496488   -8.5960767    608.92536  0.012944842  0.011960796            6 
 3921000   0.61965792   -8.6060979    609.72238   0.01295848  0.011956575            1 
 3922000   0.63376351   -8.5974196    610.51015  0.012971914  0.011952352            1 
 3923000    0.6339073   -8.6117248    610.43056  0.012966917   0.01194813            2 
 3924000   0.62662974   -8.5769028     608.7569  0.012928069  0.011943915            4 
 3925000   0.61830907   -8.5839244      609.321  0.012936752  0.011939707            3 
 3926000   0.63237356   -8.5857691    610.37785  0.012955889  0.011935494            1 
 3927000   0.63455168   -8.5823583    609.97338  0.012944007  0.011931281            2 
 3928000   0.61758844   -8.5980744      608.596   0.01291149  0.011927073            1 
 3929000   0.63850258   -8.5933248    608.91885  0.012915052  0.011922874            1 
 3930000   0.62368848   -8.5959714    608.67974  0.012906695  0.011918663            3 
 3931000   0.62394909   -8.5943244    609.90787  0.012929447  0.011914461            3 
 3932000   0.61935485   -8.5968997    608.88233  0.012904424  0.011910262            2 
 3933000   0.62219611   -8.5936787    611.07687  0.012947641  0.011906063            1 
 3934000   0.62566178   -8.5887404     609.9741   0.01292099  0.011901872            8 
 3935000   0.61805954    -8.594984    609.53115  0.012908326  0.011897676            2 
 3936000   0.62636308   -8.5953678    609.86871  0.012912193  0.011893481            7 
 3937000   0.62360632   -8.5786623    609.10508   0.01289275  0.011889295            1 
 3938000   0.61795763   -8.5824909    609.86485  0.012905554  0.011885107            3 
 3939000   0.63984413   -8.5939688    609.61471  0.012896986  0.011880921            3 
 3940000   0.61374686   -8.5812745    608.96512  0.012879973  0.011876733            3 
 3941000   0.62246488   -8.6084793     608.9193  0.012875736   0.01187255            6 
 3942000   0.62506553    -8.611691    609.05568  0.012875353  0.011868371            4 
 3943000   0.62507907    -8.603363    609.24018  0.012875987  0.011864189            3 
 3944000   0.62883236   -8.5955089    609.68386  0.012882096  0.011860008            2 
 3945000   0.60470273   -8.5859894    610.16731  0.012889043  0.011855834            2 
 3946000   0.62851441   -8.6092432    608.80602  0.012857029  0.011851658            2 
 3947000   0.62612733   -8.5858093     609.4585  0.012867547  0.011847483            2 
 3948000   0.62111138   -8.6076565    609.89903  0.012873587  0.011843315            4 
 3949000   0.61319209   -8.6120486    609.30654  0.012857823  0.011839141            3 
 3950000   0.63025324   -8.6167433     609.9119   0.01286734  0.011834975            2 
 3951000   0.61064884   -8.5987528     608.8502   0.01284169  0.011830806            3 
 3952000   0.60703463   -8.6000664    609.82774  0.012859053  0.011826644            3 
 3953000   0.61471476   -8.6053118    608.95271  0.012837354  0.011822477            3 
 3954000    0.6239894   -8.6132981    609.20741  0.012839475   0.01181832            2 
 3955000   0.60936124   -8.6025648    608.13729  0.012813681  0.011814158            3 
 3956000    0.6233062   -8.5938519    609.59982   0.01284125  0.011809995            7 
 3957000   0.61412818   -8.5991489      610.012  0.012846685  0.011805839            4 
 3958000    0.6140645   -8.5964037    609.26236  0.012827656  0.011801689            2 
 3959000   0.62864722   -8.5839692    609.51757  0.012829788   0.01179754            5 
 3960000   0.62176121   -8.5999837    608.72315  0.012809831  0.011793397            5 
 3961000   0.62278089    -8.590044    609.76044   0.01282842  0.011789255            3 
 3962000   0.62000895   -8.5995953    608.97773  0.012808719  0.011785114            9 
 3963000   0.60663423    -8.594527    609.73408  0.012821391  0.011780971            2 
 3964000   0.61099372   -8.5898666    608.52653  0.012792771   0.01177683            9 
 3965000   0.62037251   -8.5886514    609.65271  0.012813214  0.011772691            6 
 3966000   0.60394833   -8.6084166    609.94198  0.012816061  0.011768555            6 
 3967000   0.62322534   -8.6109563    610.32808  0.012820941  0.011764413            7 
 3968000    0.6090319   -8.5944769     607.2764  0.012753621   0.01176028            5 
 3969000   0.62588817   -8.6008145     609.6161  0.012799532  0.011756148            6 
 3970000   0.62128634   -8.6173831    610.38326  0.012812411  0.011752015            4 
 3971000   0.61584583   -8.6088392     608.4799  0.012769242   0.01174788            6 
 3972000    0.6093902   -8.5810387    611.01248  0.012819161  0.011743749            9 
 3973000   0.62739111   -8.5965838    608.71438  0.012767732  0.011739618            5 
 3974000   0.61283099   -8.5930464    609.62872  0.012783692  0.011735488            2 
 3975000   0.62710898   -8.6107712    609.79884  0.012784043  0.011731364            9 
 3976000    0.6076056   -8.6029471    609.17227  0.012767695  0.011727252            6 
 3977000   0.61103276   -8.6105652    609.13256  0.012763653  0.011723128            1 
 3978000   0.62720841   -8.6003792     608.9933  0.012757527   0.01171901            2 
 3979000   0.62203039   -8.6148094    609.24082  0.012759504  0.011714897            4 
 3980000   0.61810023   -8.5890921    609.61757  0.012764187   0.01171078            2 
 3981000   0.61903091   -8.6217897    609.16218  0.012751448  0.011706666            2 
 3982000   0.61219481   -8.6016106    608.97411   0.01274431  0.011702547            2 
 3983000   0.60077847   -8.6286684    609.77367  0.012757839  0.011698431            2 
 3984000   0.62286093   -8.5970254    610.05573  0.012760536  0.011694317            1 
 3985000   0.60863623   -8.5960001    608.71981  0.012729398  0.011690209            1 
 3986000   0.61816254   -8.6214927    609.74678  0.012747675  0.011686095            3 
 3987000   0.60596718   -8.6177137    609.18263  0.012732686  0.011681982            2 
 3988000   0.61601492   -8.5980833    609.83673  0.012743161  0.011677874            2 
 3989000   0.60831285   -8.6283276    608.35779  0.012709071  0.011673767            6 
 3990000   0.61417485   -8.6369277    608.41857  0.012707155  0.011669661            2 
 3991000   0.62017917   -8.6327458    609.15479  0.012719343  0.011665551            2 
 3992000   0.60760303   -8.6421026    608.88535  0.012710532  0.011661434            2 
 3993000   0.62303629    -8.609915    609.19374  0.012713785  0.011657327            2 
 3994000   0.61082355   -8.5940492    608.80959  0.012702587  0.011653226            4 
 3995000   0.63084076   -8.6186158    609.57024  0.012715274  0.011649128           10 
 3996000    0.6061633   -8.6112363    610.06331  0.012722375  0.011645032            7 
 3997000   0.61866299   -8.6135615    609.04259  0.012697911  0.011640935            3 
 3998000   0.63033147   -8.6048112    608.91651  0.012692107  0.011636844            3 
 3999000   0.60649669   -8.6201009    607.77322  0.012665108  0.011632748            2 
 4000000   0.62502245   -8.6139295     607.8341   0.01266321  0.011628652            3 
 4001000   0.61487848   -8.6215868    608.38531  0.012671526  0.011624561            8 
 4002000   0.61130526   -8.6130973    608.63813  0.012673624  0.011620473            6 
 4003000   0.60604523   -8.6033704    609.66622  0.012691861  0.011616386            3 
 4004000   0.61575105   -8.6231386    608.49531  0.012664321    0.0116123            5 
 4005000   0.60370893   -8.6143167    608.44652  0.012660144  0.011608217            4 
 4006000   0.61925105   -8.6193547    608.19945  0.012651844  0.011604133            6 
 4007000   0.61325237   -8.6445328    608.81957  0.012661583  0.011600049            3 
 4008000   0.60775922   -8.6193934    608.84652  0.012658984  0.011595974            5 
 4009000   0.61569133   -8.6018216    609.04761  0.012660007  0.011591901            3 
 4010000   0.61783814   -8.6171033    608.81298  0.012651974  0.011587825            4 
 4011000   0.61754681    -8.614232    609.00203  0.012652747  0.011583754            2 
 4012000   0.60713781   -8.6210912    609.44704  0.012658837   0.01157969            1 
 4013000   0.61345154   -8.6274419     608.1554   0.01262886  0.011575623            2 
 4014000   0.60805365   -8.6205996    609.39447  0.012651438  0.011571558            3 
 4015000   0.62512634   -8.6139537    609.33123  0.012646975  0.011567495            4 
 4016000   0.59704858   -8.6081327    609.44755  0.012646239  0.011563437            2 
 4017000   0.61163888   -8.6189408    608.99571  0.012633717   0.01155938            4 
 4018000   0.60131999   -8.6077679     609.8573  0.012648442  0.011555325            3 
 4019000   0.59873275   -8.6510453    609.25929  0.012632896  0.011551266            4 
 4020000   0.60870114   -8.6265528    608.84155  0.012621093  0.011547208            2 
 4021000   0.61022072   -8.6335082    609.31619  0.012627791  0.011543151            1 
 4022000   0.60738553   -8.6289258    608.97901  0.012617666  0.011539094            4 
 4023000   0.59528688   -8.6174905    608.06071  0.012595507  0.011535035            1 
 4024000   0.60058992    -8.618267    608.23544  0.012595996  0.011530985            2 
 4025000    0.6081785    -8.625227    609.74025  0.012624022  0.011526931            2 
 4026000   0.60787843   -8.6274977    608.35132  0.012592137  0.011522881            1 
 4027000   0.61159679   -8.6461362    608.24771  0.012586866  0.011518832            2 
 4028000   0.60797605   -8.6243259    607.67552  0.012571903  0.011514782            1 
 4029000   0.61362401   -8.6402004    609.68113  0.012610266   0.01151073            1 
 4030000   0.61328979   -8.6369059    609.40575  0.012601442  0.011506686            1 
 4031000   0.62060995    -8.607487    610.36861  0.012618221  0.011502642            3 
 4032000   0.59435383   -8.6483362    608.76506   0.01258195    0.0114986            3 
 4033000   0.60849011   -8.6403974    608.19339  0.012567018  0.011494558            2 
 4034000   0.60956286   -8.6376188    608.42742  0.012568737   0.01149052            1 
 4035000    0.6103811   -8.6639056     608.3847   0.01256474  0.011486481            2 
 4036000   0.60723892   -8.6419806    609.50927  0.012584846  0.011482445            1 
 4037000   0.60848484   -8.6345395    609.42278  0.012579943  0.011478406            3 
 4038000    0.6046998   -8.6482852    608.77932  0.012563549   0.01147437            1 
 4039000   0.60026689   -8.6341543    607.65268  0.012537193  0.011470337            2 
 4040000   0.60898808   -8.6214073    608.33925  0.012548252  0.011466305            3 
 4041000   0.61186318   -8.6261452    607.85766  0.012535215  0.011462273            1 
 4042000   0.60447884   -8.6229451    609.11547  0.012558046  0.011458247            3 
 4043000   0.60794189   -8.6226195    608.20237  0.012536119  0.011454224            5 
 4044000   0.61023601   -8.6485055    608.00817  0.012529018  0.011450199            1 
 4045000   0.62041558   -8.6113429    608.66835  0.012539521  0.011446181            1 
 4046000   0.58191195   -8.6288663    608.87716  0.012540723   0.01144216            2 
 4047000   0.61582553   -8.6118618    609.34289  0.012547214  0.011438139            1 
 4048000   0.60311194   -8.6384517    609.88671  0.012555309  0.011434122            3 
 4049000   0.60062015   -8.6430328    608.12979  0.012516049  0.011430101            2 
 4050000   0.59545195   -8.6551789    608.29366   0.01251633  0.011426079            2 
 4051000   0.60654474   -8.6442178    608.09058  0.012509063  0.011422058            2 
 4052000   0.60680077   -8.6382034    608.34609  0.012511231  0.011418037            3 
 4053000   0.60019372   -8.6521459    608.52437   0.01251181  0.011414026            3 
 4054000   0.61793578   -8.6292067    606.83872  0.012474073  0.011410013            2 
 4055000   0.59689841   -8.6449406    608.24099  0.012499815     0.011406            2 
 4056000   0.60479141   -8.6273756     608.3898   0.01249979  0.011401988            1 
 4057000   0.59281866   -8.6455564     608.8273  0.012505696   0.01139798            2 
 4058000   0.59999698   -8.6524174    608.97096  0.012505564  0.011393973            2 
 4059000   0.61577789   -8.6511352    608.13201  0.012485259  0.011389968            3 
 4060000   0.59901891   -8.6496778     609.1869  0.012503836   0.01138597            1 
 4061000   0.59776029   -8.6408934    607.74712  0.012471212  0.011381972            1 
 4062000   0.60544486   -8.6709401    608.95204  0.012492862  0.011377973            1 
 4063000   0.59670876   -8.6445608     607.5679  0.012461398  0.011373976            1 
 4064000   0.59775012   -8.6654435    607.55581  0.012458083  0.011369982            1 
 4065000   0.59581155   -8.6383085    609.25068  0.012489764  0.011365984            2 
 4066000   0.60206806   -8.6443608    608.77007  0.012476842  0.011361996            3 
 4067000   0.58532448    -8.637945    608.70043  0.012472347  0.011357998            4 
 4068000   0.60033468   -8.6251141    608.05248  0.012456008  0.011354009            4 
 4069000   0.59665718   -8.6553901    608.52613  0.012462647  0.011350015            2 
 4070000   0.59726982   -8.6647311    607.58529  0.012440321  0.011346025            1 
 4071000   0.61008545   -8.6429729    608.99818  0.012466187  0.011342041            1 
 4072000   0.60039797   -8.6368723    609.74322  0.012478373  0.011338059            1 
 4073000   0.61004651   -8.6460171    608.72029   0.01245438  0.011334078            3 
 4074000   0.59756237   -8.6316905     608.9222  0.012455453  0.011330107            1 
 4075000   0.59965453   -8.6509426    609.00516  0.012454093  0.011326131            2 
 4076000   0.61680538   -8.6373843     609.2151   0.01245533  0.011322161            2 
 4077000    0.5935239   -8.6555544    607.59021  0.012419062  0.011318183            1 
 4078000   0.61251762   -8.6398508    606.97985  0.012403544  0.011314204            2 
 4079000   0.59819438   -8.6434841    607.84131  0.012418103  0.011310231            1 
 4080000   0.60582552   -8.6185546    608.12102  0.012420772  0.011306265            2 
 4081000    0.6029586   -8.6247391    608.16011  0.012418527    0.0113023            1 
 4082000   0.61254788    -8.643412    608.25385  0.012417399  0.011298338            2 
 4083000   0.58785888   -8.6535143    609.75788  0.012445054  0.011294375            1 
 4084000   0.59177031   -8.6395963    608.86477  0.012423783  0.011290421            1 
 4085000   0.60313125   -8.6505665    608.72152   0.01241782  0.011286461            2 
 4086000   0.60347797   -8.6504914    608.33264  0.012406849  0.011282503            1 
 4087000   0.58261439   -8.6517032    609.23484  0.012422209  0.011278542            5 
 4088000   0.59851391   -8.6462157    608.15729  0.012397205   0.01127459            2 
 4089000   0.58663363   -8.6513144    606.85804  0.012367695  0.011270636            3 
 4090000   0.58598593   -8.6440782     608.6885  0.012401966  0.011266687            3 
 4091000   0.59471156   -8.6452955    608.14515  0.012387867   0.01126274            5 
 4092000   0.60430494   -8.6363242    607.61202  0.012373982  0.011258804            2 
 4093000   0.60529489   -8.6324646    609.81635  0.012415839  0.011254856            4 
 4094000   0.60201115   -8.6417478    608.28355  0.012381606  0.011250912            1 
 4095000   0.58843862    -8.653001    608.06148  0.012374064  0.011246965            2 
 4096000   0.59238334   -8.6315372    609.24276  0.012395076  0.011243021            2 
 4097000   0.59205595   -8.6590688    608.71394  0.012381294  0.011239083            3 
 4098000   0.59096156   -8.6422249    607.68588  0.012357367  0.011235145            3 
 4099000   0.59530264   -8.6286946    608.42778  0.012369435  0.011231211            5 
 4100000   0.60000141   -8.6456916    607.58884  0.012349367  0.011227278            4 
 4101000   0.59839901    -8.668421    608.13279  0.012357408  0.011223343            4 
 4102000   0.59610665    -8.645315     609.1424  0.012374907   0.01121941            6 
 4103000   0.59472566   -8.6545451    608.54963  0.012359851   0.01121548            3 
 4104000   0.58993784   -8.6469229    607.85584  0.012342752  0.011211554            7 
 4105000   0.58596924   -8.6490648     608.1697  0.012346117  0.011207627            3 
 4106000   0.59305589   -8.6450032    608.93966  0.012358736  0.011203701            2 
 4107000   0.59273832    -8.650876    608.68552  0.012350571  0.011199779            2 
 4108000   0.58511607   -8.6314978    607.62171  0.012325984  0.011195858            1 
 4109000   0.59942954   -8.6511562    608.34273  0.012337607  0.011191942            2 
 4110000   0.59664534   -8.6606563    609.12162  0.012350398  0.011188027            1 
 4111000   0.59010889   -8.6504292    608.67203   0.01233828  0.011184109            2 
 4112000   0.60259918   -8.6414659    609.42106  0.012350459  0.011180195            2 
 4113000   0.59833885   -8.6305403    608.27741  0.012324285  0.011176287            2 
 4114000    0.5936626   -8.6423503    607.37287  0.012302967  0.011172379            2 
 4115000   0.60561368   -8.6512003    608.63858  0.012325609   0.01116847            1 
 4116000   0.60404478   -8.6416192    607.89165  0.012307492  0.011164567            2 
 4117000   0.59425502   -8.6472753    608.15307  0.012309794  0.011160669            2 
 4118000   0.59397047   -8.6597513     607.4635  0.012292851  0.011156763            2 
 4119000   0.59631585   -8.6431826    608.79384  0.012316781  0.011152858            3 
 4120000    0.6071879   -8.6703949    607.40824  0.012285765  0.011148957            1 
 4121000    0.5890822   -8.6394891     608.2566  0.012299939  0.011145055            1 
 4122000   0.58385132   -8.6390469    609.43077  0.012320693  0.011141155            1 
 4123000   0.59336921   -8.6536483    609.60352  0.012321197  0.011137262            1 
 4124000   0.58849024   -8.6492381    607.67046  0.012279148  0.011133366            2 
 4125000    0.5847949   -8.6514474    608.45622  0.012292045  0.011129469            2 
 4126000   0.59659891   -8.6671331    607.64647  0.012272711  0.011125572            1 
 4127000   0.59450773   -8.6438184    608.41054  0.012285166  0.011121674            2 
 4128000   0.58736839   -8.6625195    607.61764  0.012266183  0.011117781            3 
 4129000   0.58848027   -8.6539351    607.11403  0.012253048   0.01111389            2 
 4130000    0.5933264   -8.6695662    608.25866  0.012273177  0.011109997            2 
 4131000   0.57761757   -8.6528886    607.87597  0.012262486   0.01110611            2 
 4132000   0.58325818   -8.6776662    608.96528  0.012281488  0.011102224            4 
 4133000   0.58295039   -8.6517336    608.66797  0.012272521  0.011098336            2 
 4134000   0.57780147   -8.6677527    608.13186  0.012258746   0.01109445            1 
 4135000   0.59513015   -8.6779558    607.16453  0.012236286  0.011090568            1 
 4136000   0.58149407   -8.6419779    608.78389  0.012265955   0.01108669            4 
 4137000   0.59073957   -8.6750441    607.92696  0.012245729  0.011082809            1 
 4138000   0.58207968   -8.6568028    608.34114   0.01225111  0.011078932            2 
 4139000   0.58860357   -8.6534374    608.00384  0.012241359  0.011075057            2 
 4140000    0.5881855   -8.6664842    608.97076  0.012257866  0.011071181            1 
 4141000   0.59817027    -8.657604    608.40822  0.012243585  0.011067311            1 
 4142000    0.5799819   -8.6648131    608.04151  0.012233251   0.01106344            3 
 4143000   0.58466473    -8.667416    608.20528  0.012233592  0.011059572            2 
 4144000   0.57785762   -8.6530257    608.26064  0.012231754  0.011055711            1 
 4145000   0.58901724   -8.6581915    607.79952  0.012219532   0.01105185            1 
 4146000   0.58324145   -8.6483316     609.9102  0.012259009  0.011047994            2 
 4147000   0.59815438   -8.6589387    608.55979  0.012228916  0.011044133            1 
 4148000   0.58265273   -8.6589556    607.57783  0.012206241  0.011040276            2 
 4149000   0.59907854   -8.6596602    608.15129  0.012214817   0.01103642            1 
 4150000   0.58114255   -8.6491734    608.76012  0.012224099   0.01103257            1 
 4151000   0.58521531   -8.6668241     608.5694  0.012217325  0.011028722            1 
 4152000   0.57349845   -8.6646099    607.60838  0.012195094  0.011024871            2 
 4153000   0.58651992   -8.6565054     607.2542  0.012185051  0.011021019            2 
 4154000   0.58454522   -8.6566513     608.7268   0.01221166  0.011017174            2 
 4155000   0.59649736    -8.645003     608.3011  0.012200182  0.011013329            3 
 4156000   0.58106908   -8.6613052    608.44289   0.01220009  0.011009486            2 
 4157000   0.57864424   -8.6704215    608.49576  0.012198215  0.011005644            2 
 4158000   0.58676813   -8.6613327    608.58611  0.012197092    0.0110018            2 
 4159000   0.57861908   -8.6750148    608.27847  0.012187995  0.010997956            2 
 4160000   0.59190172   -8.6674374    607.51772  0.012169826  0.010994118            1 
 4161000   0.59784834   -8.6596995      607.376  0.012164063  0.010990281            3 
 4162000   0.59007188   -8.6712745    608.22634  0.012178166  0.010986447            4 
 4163000   0.57754448   -8.6641526    609.06473  0.012192024  0.010982615            2 
 4164000   0.58607639   -8.6569752    608.12274  0.012170244  0.010978785            1 
 4165000    0.5856608   -8.6592893    608.19425  0.012168752  0.010974953            2 
 4166000   0.59804981   -8.6625906    606.78625  0.012137667  0.010971122            3 
 4167000   0.57644242   -8.6626404    607.43525  0.012147733  0.010967294            1 
 4168000   0.59321788   -8.6566389    608.29349  0.012161978  0.010963469            2 
 4169000   0.57984774   -8.6933579    607.62683  0.012145735  0.010959642            1 
 4170000   0.58689758   -8.6824297    607.90218  0.012148325  0.010955815            4 
 4171000   0.57504015   -8.6658319    607.14074  0.012130199   0.01095199            2 
 4172000   0.58820745   -8.6662417    607.66898  0.012137843  0.010948163            2 
 4173000   0.59519911   -8.6948717    607.25721  0.012126712  0.010944338            2 
 4174000   0.57925644   -8.6790725    608.01743  0.012138984  0.010940519            2 
 4175000   0.56438188   -8.6711155    608.60625  0.012147829  0.010936704            2 
 4176000   0.58877366   -8.6752386    608.21612  0.012137135  0.010932881            4 
 4177000   0.58600089   -8.6602948    608.13329  0.012132577  0.010929064            1 
 4178000   0.58117744   -8.6736691    606.78279  0.012102736  0.010925246            1 
 4179000    0.5860772   -8.6831488    608.27386  0.012129574  0.010921428            3 
 4180000   0.59625877    -8.672262    608.48669  0.012130915  0.010917613            2 
 4181000   0.58154097   -8.6798643    607.98988  0.012118111  0.010913798            1 
 4182000   0.58814004   -8.6905705     608.9174  0.012133696   0.01090999            1 
 4183000   0.58057055   -8.6735518    607.96627  0.012111847  0.010906184            5 
 4184000   0.57747586   -8.6843818    607.70513  0.012103751  0.010902372            1 
 4185000   0.57193712   -8.6782562    607.93049  0.012105346  0.010898564            1 
 4186000   0.58859391   -8.6640464    607.99358   0.01210371  0.010894759            4 
 4187000   0.57609701   -8.6777699    606.92516  0.012079555  0.010890951            2 
 4188000   0.59278604   -8.6853168    607.97474  0.012097555  0.010887146            1 
 4189000    0.5902808   -8.6876397    606.86605  0.012072612   0.01088334            1 
 4190000   0.57188189   -8.6700744    608.15831  0.012095432  0.010879538            1 
 4191000   0.57903229   -8.6902595    607.60188  0.012081482  0.010875738            1 
 4192000   0.58096409   -8.7038804    607.92922  0.012085107   0.01087194            1 
 4193000   0.57642949   -8.6838852    607.95773  0.012082791  0.010868143            2 
 4194000   0.57467196   -8.6887427    608.52965  0.012091274   0.01086435            2 
 4195000   0.58707633   -8.6588386    607.63118  0.012070544  0.010860553            1 
 4196000   0.57579717   -8.6945371    606.93139  0.012053769  0.010856762            3 
 4197000   0.56983634   -8.6994977    607.19205  0.012056073  0.010852972            1 
 4198000   0.58207197   -8.6834461    606.62634  0.012041971  0.010849181            2 
 4199000   0.59029119   -8.6759234    608.46384   0.01207557  0.010845392            2 
 4200000   0.57571822   -8.6710779    607.60942  0.012055742  0.010841604            1 
 4201000   0.57536087   -8.6591886    607.57328  0.012052156  0.010837816            3 
 4202000   0.58249526   -8.6927636    606.56754  0.012029342  0.010834035            5 
 4203000   0.58487005   -8.6751005    608.04434   0.01205576  0.010830249            1 
 4204000    0.5805697   -8.6832804    607.23248    0.0120368  0.010826468            2 
 4205000   0.57285507   -8.6923079    608.21223  0.012053354  0.010822691            2 
 4206000   0.57874128   -8.7165558     607.1459  0.012029361  0.010818912            2 
 4207000   0.56773766   -8.6999135    606.56321  0.012014959  0.010815132            1 
 4208000   0.58468401   -8.6864063    607.36771  0.012028036  0.010811347            2 
 4209000    0.5974592   -8.6896041    607.39339  0.012025687  0.010807569            1 
 4210000   0.55903016   -8.6841116    607.64368  0.012027785  0.010803795            1 
 4211000   0.58421664    -8.674439    607.89819  0.012029965  0.010800021            1 
 4212000    0.5821352   -8.6932301    606.37815  0.011997035  0.010796246            2 
 4213000   0.57809541   -8.6906284     607.2594  0.012011619  0.010792472            2 
 4214000   0.57365586   -8.6980997    606.15526  0.011986934  0.010788702            2 
 4215000   0.57430273   -8.6908454    607.83517  0.012017303  0.010784936            3 
 4216000   0.58263202   -8.6852826    607.09819  0.011999885   0.01078117            1 
 4217000   0.57452033   -8.6905851    607.22044  0.011999455  0.010777401            2 
 4218000   0.57374033   -8.6819172    607.36854  0.011999536  0.010773632            1 
 4219000    0.5908121   -8.7062889    607.72789   0.01200379  0.010769867            2 
 4220000   0.58233924   -8.6924633    607.40678  0.011994605  0.010766104            2 
 4221000    0.5746604   -8.6865399    607.21628  0.011988002  0.010762342            2 
 4222000   0.56659073   -8.6719479     607.4691  0.011990153  0.010758577            1 
 4223000    0.5695805   -8.7037913    607.50079  0.011987939  0.010754818            3 
 4224000   0.57767557   -8.7020013    606.54432  0.011966231  0.010751055            1 
 4225000   0.58888605     -8.70434    607.67866  0.011985772  0.010747298            4 
 4226000   0.58131319   -8.6950192    607.39205  0.011977285  0.010743541            2 
 4227000   0.59216037     -8.68611    607.09485  0.011968592  0.010739788            1 
 4228000   0.58676237   -8.6784621    606.76336  0.011959227  0.010736042            2 
 4229000   0.56446921   -8.6836797    607.68345   0.01197453  0.010732293            3 
 4230000   0.58161769   -8.6775111    606.50169  0.011948418  0.010728546            3 
 4231000   0.56167978   -8.7053389    607.52197  0.011965689  0.010724797            1 
 4232000   0.56743731   -8.7100283    607.10399  0.011954631  0.010721046            3 
 4233000   0.56922462   -8.7045071    607.77858  0.011965087  0.010717295            3 
 4234000    0.5633406   -8.6848925    607.29194  0.011952683  0.010713555            3 
 4235000   0.58271256   -8.6920477    607.19816  0.011948016  0.010709808            1 
 4236000   0.57263811   -8.6865073    606.89358  0.011939203   0.01070606            2 
 4237000    0.5868102   -8.6996164    607.10153  0.011940475  0.010702318            3 
 4238000   0.57338918   -8.7077745    607.45322  0.011944573  0.010698576            2 
 4239000   0.56647122   -8.7054379     607.0571  0.011933968  0.010694833            3 
 4240000   0.57461494   -8.6772493    607.79409  0.011945639  0.010691095            1 
 4241000   0.57323919   -8.6945224     606.9047  0.011925346   0.01068736            1 
 4242000   0.55940625   -8.6902909     607.0263  0.011924923  0.010683627            1 
 4243000   0.58838141   -8.6881571    605.94072  0.011900792   0.01067989            1 
 4244000    0.5867123   -8.7009561    607.34001  0.011925464  0.010676153            1 
 4245000   0.57060154   -8.6955442    607.08296  0.011917608  0.010672417            2 
 4246000   0.56608767   -8.7121277    606.90788  0.011911365  0.010668687            1 
 4247000   0.56527913   -8.6942339    607.73407  0.011924772  0.010664958            2 
 4248000   0.56271916   -8.7023618    606.56385  0.011899008   0.01066123            2 
 4249000   0.57791238   -8.6807263    607.09141  0.011906555  0.010657503            1 
 4250000   0.56900526   -8.6918418    606.08624  0.011884044  0.010653777            2 
 4251000   0.57448869   -8.7081859    606.59297  0.011891182  0.010650054            2 
 4252000   0.58137814   -8.7126895    606.20318  0.011880746  0.010646331            2 
 4253000   0.57667646   -8.7062707    606.66378  0.011886977   0.01064261            2 
 4254000   0.56752234   -8.7007857    606.66161  0.011884141  0.010638891            1 
 4255000   0.56131458   -8.7135315    605.94928  0.011867397   0.01063517            1 
 4256000   0.57209739    -8.697601    605.90552  0.011863752   0.01063145            4 
 4257000   0.57568888   -8.6926861    605.99247  0.011862667  0.010627734            1 
 4258000   0.56931526   -8.6989698    607.11712  0.011881891  0.010624016            1 
 4259000   0.57425542   -8.7019689    606.50884    0.0118672    0.0106203            2 
 4260000   0.56274102   -8.7112115    606.55186  0.011865255  0.010616586            2 
 4261000   0.56307374   -8.6982127    605.95015  0.011850703  0.010612871            1 
 4262000   0.57066003   -8.7015635    607.79265  0.011883948  0.010609159            3 
 4263000   0.57288833   -8.6899264    606.89226   0.01186356   0.01060545            4 
 4264000   0.57243183   -8.7075288    606.79538  0.011858884  0.010601746            2 
 4265000   0.54821813   -8.6935947    606.97796  0.011859671  0.010598044            1 
 4266000   0.57654162   -8.7104078    606.63678  0.011850226  0.010594343            1 
 4267000   0.57167579   -8.7178676    607.36875  0.011861744   0.01059064            1 
 4268000   0.56834985   -8.7038308    606.15174  0.011835203   0.01058694            1 
 4269000   0.58322231   -8.7023761    607.44493  0.011857674  0.010583242            2 
 4270000   0.56133428   -8.7190022    606.51545  0.011836757  0.010579545            2 
 4271000   0.56444097   -8.7077465    606.76485  0.011838852  0.010575845            1 
 4272000   0.56818428   -8.6949844    606.76758  0.011836134  0.010572148            1 
 4273000   0.56795497   -8.7013382    605.75658  0.011813647  0.010568456            1 
 4274000   0.56822054   -8.7190985    606.21438  0.011819809  0.010564759            2 
 4275000   0.57869871   -8.7167864    606.10928  0.011814996  0.010561067            2 
 4276000    0.5646639   -8.7053971    606.12428  0.011812525  0.010557375            2 
 4277000    0.5679292   -8.6949982    605.90107  0.011805414  0.010553684            1 
 4278000   0.56891383   -8.7044417    605.95687  0.011803741  0.010549996            2 
 4279000   0.56746906   -8.6990022    605.53065  0.011792682  0.010546309            2 
 4280000   0.55871726   -8.7149281    607.62243  0.011830655   0.01054262            2 
 4281000    0.5752611    -8.721154    606.55893  0.011807189  0.010538936            2 
 4282000   0.57056986   -8.7186979     606.7497  0.011808145  0.010535256            1 
 4283000   0.56998844    -8.698873    607.44287  0.011818874  0.010531577            2 
 4284000   0.56962619   -8.7070955    607.25967  0.011812552  0.010527902            1 
 4285000   0.57356487   -8.7062625    605.90007  0.011783354  0.010524225            2 
 4286000   0.55153689   -8.7165261    605.69678  0.011776652  0.010520548            2 
 4287000   0.57262061   -8.7435859    605.94917  0.011778811   0.01051687            2 
 4288000   0.56167594   -8.7181393    606.42895  0.011785389  0.010513194            1 
 4289000   0.56883947   -8.7256799    605.85446  0.011771479  0.010509521            1 
 4290000   0.57031382    -8.726524    605.76167  0.011766932  0.010505851            1 
 4291000   0.56471527    -8.712552    606.48405  0.011778219  0.010502186            1 
 4292000    0.5631454   -8.7074017    607.86149  0.011802219  0.010498519            1 
 4293000   0.57415179   -8.7301174    606.27209  0.011768617  0.010494852            1 
 4294000   0.56277795   -8.7267358    606.38593  0.011768086  0.010491189            2 
 4295000   0.56445541   -8.7115455    606.76128  0.011772629  0.010487525            1 
 4296000    0.5751741   -8.7109852     606.1813  0.011758638  0.010483865            3 
 4297000   0.54830404   -8.7099643    607.29021  0.011777407  0.010480205            2 
 4298000    0.5646313   -8.7174251    605.27042  0.011735505  0.010476542            1 
 4299000   0.56502241   -8.7292104    607.41951  0.011774434  0.010472889            2 
 4300000   0.55804945   -8.7159338    606.47519  0.011753395  0.010469231            5 
 4301000   0.57544123   -8.7295917    606.21583  0.011745637  0.010465579            1 
 4302000   0.57432256   -8.7121681    606.14317    0.0117415  0.010461929            2 
 4303000   0.56699573   -8.7207252    606.01535  0.011736295  0.010458275            2 
 4304000   0.55749057   -8.7209241    606.39884  0.011740994  0.010454624            1 
 4305000   0.56054031   -8.7272209    606.39798   0.01173825  0.010450975            3 
 4306000   0.56969901   -8.7283774    605.91681  0.011726212  0.010447325            1 
 4307000    0.5629965   -8.6995748    605.73385  0.011719949  0.010443681            1 
 4308000   0.55389245   -8.7310214    606.06181  0.011723573  0.010440039            3 
 4309000     0.566809   -8.7201584    606.75851  0.011734326  0.010436394            1 
 4310000   0.56539682   -8.7202519    606.11931  0.011719244   0.01043275            3 
 4311000     0.568083   -8.7346887    605.85301  0.011711378  0.010429109            3 
 4312000   0.57086461   -8.7446441     606.8682  0.011728282  0.010425472            2 
 4313000   0.56267397    -8.738288    606.58205  0.011720033  0.010421835            1 
 4314000   0.55392034   -8.7120888    606.78189  0.011721177  0.010418201            3 
 4315000   0.56462164   -8.7387991    605.69661  0.011697501  0.010414568            1 
 4316000   0.55324779   -8.7137513    606.74612  0.011715055  0.010410934            2 
 4317000   0.57243876   -8.7160737    606.08491  0.011699577  0.010407307            2 
 4318000   0.56919062   -8.7094972    606.19739  0.011699039  0.010403678            3 
 4319000   0.54766885   -8.7294378    605.63923  0.011685561  0.010400051            3 
 4320000   0.56899597   -8.7121763    606.20694  0.011693807  0.010396426            2 
 4321000   0.55598209   -8.7221688    605.89811  0.011685144  0.010392806            2 
 4322000     0.565973    -8.725272    605.63796  0.011677425  0.010389188            2 
 4323000   0.57404192    -8.712936    606.77564  0.011696654  0.010385564            1 
 4324000   0.55751894   -8.7138287    605.73535  0.011673901  0.010381943            1 
 4325000   0.55918148   -8.7400368    606.66555  0.011689124  0.010378321            2 
 4326000   0.56002194   -8.7313823    605.37289  0.011661521  0.010374703            1 
 4327000   0.57055275   -8.7165819    606.27167  0.011676136  0.010371085            3 
 4328000   0.55181072   -8.7030809    606.76543  0.011682945  0.010367469            2 
 4329000   0.55199977   -8.7257631    605.33228  0.011652658  0.010363859            2 
 4330000   0.56810196   -8.7103522    607.50457  0.011691774  0.010360246            1 
 4331000   0.55346463   -8.7145845    605.94878  0.011659139  0.010356634            4 
 4332000   0.54579078   -8.7225401     604.6227  0.011630938  0.010353021            3 
 4333000    0.5634554   -8.6976547    605.71079   0.01164918  0.010349414            2 
 4334000   0.54884737    -8.710601    605.69978  0.011646281  0.010345807            1 
 4335000   0.56121549   -8.7218355    605.68196  0.011643252    0.0103422            1 
 4336000   0.56463834   -8.7239053    605.48981  0.011636874  0.010338598            2 
 4337000    0.5537359   -8.7409097    606.00511  0.011644092  0.010334996            2 
 4338000    0.5597266   -8.7333992    604.67462  0.011615849  0.010331395            1 
 4339000    0.5511169   -8.7301146    604.59716  0.011611684  0.010327791            2 
 4340000   0.55485355   -8.7095553    606.05529  0.011637006  0.010324189            1 
 4341000    0.5564604   -8.7349519    606.08944  0.011634981  0.010320595            1 
 4342000     0.553906   -8.7355628    605.74849  0.011625758  0.010317002            1 
 4343000   0.55993434   -8.7395368    604.61163  0.011601267  0.010313403            1 
 4344000   0.57141732   -8.7263764    605.79979  0.011621389  0.010309814            2 
 4345000   0.55748892   -8.7435718    605.61063  0.011615087  0.010306221            2 
 4346000   0.55438901    -8.735041    606.17585  0.011623252  0.010302631            1 
 4347000   0.54843462   -8.7213792    605.40477  0.011605797  0.010299044            1 
 4348000   0.54652995    -8.748238    606.39835   0.01162217  0.010295456            1 
 4349000   0.55459845   -8.7469225     605.4471   0.01160127  0.010291867            2 
 4350000    0.5559151   -8.7242649     606.0079  0.011609347  0.010288281            3 
 4351000   0.55191349   -8.7216235    605.96947  0.011605943  0.010284701            2 
 4352000   0.55597284   -8.7389328    606.02558   0.01160435  0.010281124            2 
 4353000   0.55029451   -8.7374844    605.70274  0.011595504  0.010277546            1 
 4354000   0.55849005   -8.7642686     605.3554  0.011586193  0.010273965            1 
 4355000    0.5683437   -8.7346975    607.02275  0.011615437  0.010270386            1 
 4356000   0.54409428   -8.7443039    604.68592  0.011568065  0.010266809            1 
 4357000   0.55443064   -8.7368779     605.4157  0.011579368  0.010263231            1 
 4358000   0.55333656   -8.7507061     605.7723   0.01158353  0.010259657            1 
 4359000   0.55409886   -8.7221148    606.38769  0.011592638  0.010256083            1 
 4360000   0.54951065   -8.7566753    605.18534  0.011566998  0.010252512            1 
 4361000   0.54389202   -8.7365326     604.5011  0.011551271  0.010248938            2 
 4362000   0.55358629   -8.7573372     605.3106  0.011564088  0.010245368            1 
 4363000   0.55189311   -8.7456751    605.13299  0.011558045  0.010241802            1 
 4364000   0.55983775   -8.7345197    606.12432  0.011574326  0.010238232            2 
 4365000   0.56334339   -8.7414805    604.89618  0.011548228  0.010234669            1 
 4366000   0.54721564   -8.7430113    605.79394  0.011562718  0.010231106            2 
 4367000   0.56865803   -8.7415706    606.35038  0.011570689  0.010227549            1 
 4368000   0.56418844   -8.7260714     604.5625   0.01153393  0.010223989            2 
 4369000   0.55270763   -8.7261665    605.31573  0.011545657  0.010220431       -1e+20 
 4370000   0.55490731   -8.7241529    605.69429  0.011550234  0.010216872            1 
 4371000   0.56318448   -8.7553215    604.98955  0.011534156   0.01021332            1 
 4372000   0.55281294   -8.7442582    604.71421   0.01152627  0.010209768            4 
 4373000   0.55025423   -8.7403739    605.03892  0.011529822   0.01020622            2 
 4374000   0.56275705   -8.7329619    605.64431   0.01153872  0.010202676            1 
 4375000   0.54936121   -8.7354107    604.93722  0.011522614  0.010199127            1 
 4376000   0.53771611   -8.7500565    605.37467  0.011528311  0.010195583            1 
 4377000    0.5487224   -8.7386519    605.78406  0.011533471  0.010192038            2 
 4378000   0.54823587   -8.7286427    604.94994   0.01151496  0.010188497            1 
 4379000   0.54478311   -8.7478876    607.45366  0.011559977  0.010184955            2 
 4380000   0.53848087   -8.7419935    605.62098  0.011522469  0.010181414            2 
 4381000   0.55640083   -8.7405139    606.37961  0.011534269  0.010177879            2 
 4382000   0.53836951   -8.7266498    606.12765  0.011526846  0.010174344            3 
 4383000   0.56089962   -8.7421425    605.86636  0.011519248  0.010170809            2 
 4384000    0.5536038   -8.7589008    604.68394  0.011494144   0.01016727            1 
 4385000   0.55459384    -8.741454     604.9386  0.011496363   0.01016373            2 
 4386000    0.5301356   -8.7241396    604.25369  0.011480728  0.010160193            1 
 4387000   0.55435557   -8.7550966    604.92575  0.011490877  0.010156663            1 
 4388000   0.55779139   -8.7408411    605.00341  0.011489733  0.010153134            1 
 4389000    0.5414815   -8.7639313    605.31961  0.011493119  0.010149607       -1e+20 
 4390000   0.54810523   -8.7441345     604.8931  0.011482405  0.010146081            2 
 4391000   0.55048876   -8.7490489     605.3112  0.011487725  0.010142554            1 
 4392000   0.53978349   -8.7259599    604.89151  0.011477146  0.010139029            1 
 4393000    0.5428665   -8.7560828    605.44747   0.01148508  0.010135508            2 
 4394000   0.54368602   -8.7474973    605.46894  0.011482873  0.010131987            3 
 4395000   0.54576043   -8.7491253    604.94943   0.01147041  0.010128468            3 
 4396000   0.54514647   -8.7638478    605.03165  0.011469359  0.010124947            2 
 4397000   0.53887352   -8.7406725    604.22523  0.011451467  0.010121425            2 
 4398000   0.54689932   -8.7159956     604.8874  0.011461411  0.010117904            3 
 4399000   0.54920775   -8.7563352    605.00951  0.011461118  0.010114388            2 
 4400000    0.5377907   -8.7555543    605.88844   0.01147516  0.010110871            1 
 4401000   0.54877591   -8.7450885    605.32262  0.011461839  0.010107357            1 
 4402000   0.53748847   -8.7472872     605.3756  0.011460238  0.010103847            1 
 4403000   0.54114372   -8.7239293    606.10027   0.01147135  0.010100339            1 
 4404000    0.5401914   -8.7454681    605.19499  0.011451616  0.010096832            2 
 4405000   0.54709147   -8.7523152     604.6375  0.011438469  0.010093325            2 
 4406000   0.54534898   -8.7463528    604.19167  0.011427441  0.010089821            2 
 4407000   0.54770329    -8.765724    606.11439  0.011461205  0.010086322            1 
 4408000   0.54473628   -8.7482079    604.85335  0.011434765  0.010082818            1 
 4409000   0.54327069   -8.7460788    605.23385  0.011439364  0.010079317            1 
 4410000   0.53866668   -8.7426704    605.24368  0.011436955   0.01007582            2 
 4411000   0.53575284   -8.7507723    606.08558  0.011450268  0.010072323            1 
 4412000   0.53821385   -8.7379582    604.16316  0.011411362  0.010068827            2 
 4413000   0.54367252   -8.7496086     604.7727  0.011420287   0.01006533            2 
 4414000   0.53498262    -8.752797    604.63898  0.011415175  0.010061834            1 
 4415000   0.55043976    -8.764966    603.80503  0.011396848   0.01005834            2 
 4416000   0.55168722   -8.7483133    604.54489  0.011408229  0.010054849            1 
 4417000   0.54629289   -8.7645882    604.54784  0.011405702  0.010051358            1 
 4418000   0.56191665    -8.732283    605.98849  0.011430294  0.010047872            1 
 4419000    0.5480059   -8.7656808    604.16227  0.011393269  0.010044387            1 
 4420000   0.53512871    -8.749288    605.24426  0.011411091  0.010040897            1 
 4421000   0.54477514   -8.7608557    605.73627  0.011417784  0.010037413            2 
 4422000   0.53914293     -8.74315    603.68296  0.011376507  0.010033929            1 
 4423000   0.53988451   -8.7461385    604.86702  0.011396244  0.010030452            2 
 4424000   0.53997115   -8.7494789    604.61276  0.011388878  0.010026973            2 
 4425000   0.55060175   -8.7691299    605.52967  0.011403572  0.010023496            2 
 4426000   0.54460563   -8.7570478    604.84536  0.011388111  0.010020021            3 
 4427000   0.54254149    -8.742583    604.48368   0.01137873  0.010016545            1 
 4428000   0.53944565   -8.7454646    604.74845  0.011381144  0.010013075            1 
 4429000   0.53616721   -8.7666672    604.98443  0.011383014  0.010009599            1 
 4430000   0.54442629   -8.7601514    604.74325  0.011375908   0.01000613            2 
 4431000   0.54703701   -8.7591546    604.82572  0.011374891  0.010002659            1 
 4432000   0.53760827   -8.7620912    604.93069  0.011374298 0.0099991917            2 
 4433000   0.54041066   -8.7713674    604.25226  0.011358979 0.0099957225            4 
 4434000   0.53398303   -8.7351925    605.98026  0.011388894 0.0099922599            3 
 4435000   0.54937173   -8.7746115     605.0623  0.011369077 0.0099887957            2 
 4436000   0.54875303   -8.7470535    605.72622  0.011378987  0.009985333            1 
 4437000   0.54429995   -8.7707063    604.47015  0.011352831 0.0099818708            1 
 4438000   0.53311753   -8.7871958    604.03973  0.011342191 0.0099784089            1 
 4439000   0.54067377   -8.7566963    604.69269  0.011351894  0.009974952            3 
 4440000   0.55335442   -8.7762402     604.8275  0.011351867 0.0099714925            2 
 4441000   0.53439629   -8.7631112    604.91138  0.011350885 0.0099680328            2 
 4442000   0.53192842   -8.7568543    604.63337  0.011343114  0.009964578            1 
 4443000   0.53076626   -8.7638169     604.3814  0.011335835 0.0099611248            3 
 4444000   0.52827564   -8.7742028    605.62747  0.011356651 0.0099576711            2 
 4445000   0.53768954   -8.7798072    604.59288    0.0113347 0.0099542217            1 
 4446000    0.5397896    -8.773147    604.55482  0.011331437 0.0099507729            5 
 4447000   0.53328332    -8.770846    605.05345  0.011338233 0.0099473282            3 
 4448000   0.54925712   -8.7651935    604.71272    0.0113293 0.0099438877            1 
 4449000   0.53780428   -8.7569462    605.92711    0.0113495 0.0099404465            1 
 4450000   0.52869054   -8.7567452    604.94734  0.011328602  0.009937007            2 
 4451000   0.53543183   -8.7562863     605.0237  0.011327486 0.0099335676            1 
 4452000   0.54104239   -8.7716758    604.32683  0.011311898 0.0099301278            2 
 4453000   0.52628772   -8.7547928    605.18635  0.011325443 0.0099266906            2 
 4454000   0.54122461   -8.7720242    605.21146   0.01132337 0.0099232537            1 
 4455000   0.53380401   -8.7733791    604.71816    0.0113116 0.0099198204            2 
 4456000   0.53311853   -8.7577962    604.40742  0.011303251 0.0099163909            1 
 4457000    0.5317244   -8.7773386    605.08844  0.011313448 0.0099129586            2 
 4458000   0.52996043   -8.7638904    604.21691  0.011294619 0.0099095283            1 
 4459000   0.54761997   -8.7528495    606.04674  0.011326283 0.0099061014            1 
 4460000   0.53345363   -8.7795787    604.16891  0.011288657 0.0099026748            1 
 4461000   0.53619071   -8.7533241    604.70859  0.011296208 0.0098992458            2 
 4462000   0.53945304   -8.7567434    605.28346  0.011304413 0.0098958211            1 
 4463000   0.52959951   -8.7512338    604.85356  0.011293852 0.0098923991            1 
 4464000   0.54271619   -8.7511446    605.07158  0.011295392 0.0098889784            2 
 4465000   0.53852711   -8.7761252    604.23024   0.01127716 0.0098855607            1 
 4466000   0.52811028   -8.7601722    605.56195  0.011299484 0.0098821451            1 
 4467000   0.54568487   -8.7612631    604.18833  0.011271329 0.0098787285            1 
 4468000    0.5307976   -8.7697349    604.31264  0.011271125 0.0098753126            1 
 4469000    0.5491039   -8.7710588     604.5626  0.011273264 0.0098718954            1 
 4470000   0.54588109   -8.7567049     604.4905  0.011269398 0.0098684834            2 
 4471000   0.53188034   -8.7669215    605.18943  0.011279904 0.0098650694            1 
 4472000   0.53341542   -8.7664275      603.822  0.011251901 0.0098616607            3 
 4473000   0.53757498   -8.7625529    604.28782  0.011258064 0.0098582509            1 
 4474000   0.54543706   -8.7724263    604.72632  0.011263715 0.0098548417            1 
 4475000   0.54049756   -8.7660164    605.56857  0.011276882 0.0098514359            3 
 4476000   0.53187813   -8.7765948    603.09883  0.011228382 0.0098480256            1 
 4477000   0.54134922   -8.7603004     604.4237  0.011250534 0.0098446225            2 
 4478000    0.5493144   -8.7724247    604.60043  0.011251311 0.0098412187            1 
 4479000   0.53995279    -8.743892    604.05011   0.01123856 0.0098378183            4 
 4480000   0.52551856   -8.7809289    604.66998  0.011247581 0.0098344151            2 
 4481000   0.53920453   -8.7849909    604.49992  0.011241909 0.0098310181            2 
 4482000   0.52381381    -8.776834    605.16741  0.011251811 0.0098276144            2 
 4483000   0.53616577   -8.7602366    604.13943  0.011230192 0.0098242197            1 
 4484000   0.53415155   -8.7659763    604.77741  0.011239544 0.0098208229            3 
 4485000   0.52865345   -8.7742739    604.37701  0.011229599 0.0098174278            1 
 4486000   0.53621227   -8.7799117    603.38009  0.011208576 0.0098140335            1 
 4487000    0.5420437   -8.7516215    603.71831   0.01121236 0.0098106417            1 
 4488000   0.53378363    -8.783117    603.69771  0.011209479 0.0098072489            1 
 4489000   0.53672668   -8.7752604    603.73079  0.011207596 0.0098038583            1 
 4490000   0.53012227   -8.7761524    604.88587  0.011226538 0.0098004691            1 
 4491000   0.52201893   -8.7830652    604.57635  0.011218295 0.0097970822            1 
 4492000   0.53956689      -8.7818    604.54161  0.011215153 0.0097936985            2 
 4493000   0.52970946   -8.7783048    603.86539  0.011200115 0.0097903152            1 
 4494000    0.5186673   -8.7895068    604.80966  0.011215132 0.0097869309            2 
 4495000   0.52838971   -8.7888449     604.5374   0.01120759 0.0097835504            1 
 4496000   0.54083477   -8.7796219    604.63697  0.011206943 0.0097801707            2 
 4497000   0.54223734   -8.7841243    603.89824  0.011190761 0.0097767913            1 
 4498000   0.53175752   -8.7793229     603.8186  0.011186798  0.009773414            1 
 4499000   0.53164183   -8.7841711    603.56467  0.011179608 0.0097700409            2 
 4500000   0.52159749   -8.7706355    603.72105  0.011180019 0.0097666636            3 
 4501000   0.53916416    -8.775293    604.34857  0.011189154 0.0097632955            1 
 4502000    0.5401068    -8.773928    604.28379  0.011185469  0.009759923            2 
 4503000   0.52317699    -8.767925    603.74506  0.011173015  0.009756554            1 
 4504000   0.52456256   -8.7819019    604.42259   0.01118307 0.0097531852            2 
 4505000   0.53037473   -8.7576822    604.82107  0.011187959 0.0097498178            1 
 4506000   0.52556627   -8.7884115    603.94908   0.01116935  0.009746452            1 
 4507000   0.53328888   -8.7781587    604.81171  0.011182821 0.0097430886            1 
 4508000   0.53777067   -8.7910614    604.67848  0.011177878  0.009739723            1 
 4509000   0.52410931   -8.7641321    605.15265  0.011184162 0.0097363639            2 
 4510000   0.52754382   -8.7790595    604.59284  0.011171338 0.0097330019            3 
 4511000   0.52710936   -8.7722004     604.6161  0.011169292 0.0097296424            1 
 4512000   0.52432174   -8.7793106    604.58906  0.011166317 0.0097262878            1 
 4513000   0.53386976   -8.7908935    602.70156   0.01112899 0.0097229312            3 
 4514000   0.54188665   -8.7801875    603.89779  0.011148608 0.0097195764            2 
 4515000   0.52873216   -8.7872228    604.07048  0.011149326 0.0097162247            1 
 4516000   0.53381863   -8.8001329    604.41745   0.01115326 0.0097128753            1 
 4517000   0.53009922   -8.7869049    603.85135  0.011140347 0.0097095259            1 
 4518000   0.51771164   -8.7851567    604.11874  0.011142813 0.0097061777            1 
 4519000   0.53760853   -8.7925105    603.67226  0.011132114  0.009702831            1 
 4520000   0.52229135   -8.7943851    604.46065  0.011144186 0.0096994843            2 
 4521000   0.52448305    -8.782321    604.12726  0.011135576 0.0096961406            1 
 4522000   0.53505101    -8.774992     604.0157  0.011131057 0.0096927986            1 
 4523000   0.52850097   -8.7840544     604.1015  0.011130177 0.0096894567            1 
 4524000   0.52767815   -8.7756149    603.46428  0.011115979 0.0096861149            2 
 4525000   0.52303143   -8.7917566    604.08682  0.011124987 0.0096827779            2 
 4526000   0.52688323   -8.7890956     604.2061  0.011124726 0.0096794409            1 
 4527000   0.52268125    -8.794994    603.55808  0.011110339 0.0096761046            1 
 4528000   0.53664818   -8.7922585    603.50803  0.011106965 0.0096727661            1 
 4529000   0.52488072   -8.7841645    604.57802    0.0111242 0.0096694333            2 
 4530000   0.53154657   -8.7816245    603.74798  0.011106475 0.0096661001            3 
 4531000   0.53065622   -8.7936918    603.26514  0.011095143 0.0096627706            1 
 4532000   0.52660222   -8.7880013    603.57779  0.011098444 0.0096594429            2 
 4533000   0.53207507   -8.7869502    604.18036  0.011107073  0.009656115            2 
 4534000   0.52005477   -8.7935551    603.57592  0.011093514 0.0096527879            1 
 4535000   0.53290934   -8.7976985    603.17012  0.011083611 0.0096494647            1 
 4536000   0.52896646   -8.7787733    604.41368  0.011104014 0.0096461417            6 
 4537000   0.52792626    -8.785325    603.49991  0.011084783 0.0096428182            2 
 4538000   0.52257388   -8.7728722    603.39897  0.011080486  0.009639497            1 
 4539000   0.52147582   -8.7683132    604.30988  0.011094769 0.0096361778            1 
 4540000   0.52815704   -8.8076786    603.64489  0.011080119 0.0096328586            3 
 4541000   0.53166714   -8.7827994    605.01781  0.011102874 0.0096295437            3 
 4542000   0.52812309   -8.7956283    604.82486  0.011096889 0.0096262291            1 
 4543000   0.52282592   -8.7925117    604.50405  0.011088562 0.0096229163            1 
 4544000   0.52961673   -8.7899219    604.26396  0.011081719 0.0096196038            2 
 4545000    0.5252556   -8.7927533    602.97248  0.011055601 0.0096162933            1 
 4546000   0.51467235   -8.7908765    604.21201  0.011075891 0.0096129851            1 
 4547000    0.5241741   -8.7824436    603.70279  0.011064123  0.009609676            1 
 4548000   0.52229464   -8.7816843    603.76291  0.011062792 0.0096063707            2 
 4549000   0.51146405   -8.7970502    603.57824  0.011056977 0.0096030662            1 
 4550000   0.52169935    -8.791364     604.2226  0.011066348 0.0095997642            1 
 4551000    0.5273285   -8.8011161     604.8053  0.011074586 0.0095964605            1 
 4552000    0.5231626   -8.7970868    604.01338  0.011057656 0.0095931618            1 
 4553000   0.52572606   -8.8036111    603.14898  0.011039406  0.009589864            1 
 4554000   0.51874878   -8.7946919    603.70415  0.011047141 0.0095865683            1 
 4555000   0.53108724   -8.8014341    603.13661  0.011034332 0.0095832718            1 
 4556000   0.52141474    -8.791475    602.80625  0.011025868 0.0095799751            3 
 4557000   0.52040313   -8.7848753     603.4468  0.011035162 0.0095766818            2 
 4558000   0.52010575   -8.7953612    603.52449  0.011034161 0.0095733881            1 
 4559000   0.51510462   -8.7857311    604.62078   0.01105178 0.0095700977       -1e+20 
 4560000   0.53105006   -8.8002499    603.93875  0.011036892 0.0095668057            1 
 4561000    0.5145402   -8.7871455     602.6614  0.011011134   0.00956352            3 
 4562000   0.49775107   -8.7804612    603.16934  0.011017999 0.0095602338            1 
 4563000   0.51105105   -8.8052944    603.88943  0.011028735 0.0095569484            3 
 4564000   0.53689531   -8.8036032     604.2742  0.011033344 0.0095536657            1 
 4565000   0.51107516    -8.807947    604.29144  0.011031242 0.0095503822            2 
 4566000   0.53494872   -8.7819842    603.88957  0.011021492 0.0095471025            2 
 4567000   0.52236909   -8.8026304    603.50983  0.011012149 0.0095438243            2 
 4568000   0.52317142   -8.7844423    604.05585  0.011019699 0.0095405515            1 
 4569000   0.51372199   -8.7923789    604.28597  0.011021485 0.0095372733            1 
 4570000    0.5279406   -8.7784715    603.28341  0.011000792 0.0095340003            1 
 4571000    0.5180063   -8.7977268    604.44009  0.011019472 0.0095307278            3 
 4572000   0.51288507   -8.7940925    604.57174  0.011019462 0.0095274573            2 
 4573000   0.52022618   -8.7951073    603.74159  0.011001924 0.0095241849            3 
 4574000   0.52839079   -8.8272728    602.96915  0.010985446 0.0095209124            1 
 4575000   0.52038789   -8.8037621    604.51058  0.011011122 0.0095176429            1 
 4576000   0.51732719   -8.8080478     605.1367  0.011020118 0.0095143734            1 
 4577000   0.51924655   -8.7846647    604.21825  0.011000988 0.0095111074            1 
 4578000   0.51613694   -8.7860117    604.48526  0.011003445 0.0095078439            1 
 4579000   0.51882572   -8.7947507    604.02938  0.010992746 0.0095045817            1 
 4580000   0.51163031   -8.8046607    603.42599  0.010979367 0.0095013193            1 
 4581000   0.51754159   -8.8060077    603.62037  0.010980506 0.0094980576            1 
 4582000   0.51069826   -8.7957063    603.14563  0.010969475 0.0094947982            1 
 4583000   0.51545553   -8.8020884    603.14701  0.010967107 0.0094915412            1 
 4584000   0.52971428   -8.7893271    604.06204  0.010981349 0.0094882892            1 
 4585000   0.52709682     -8.79871    603.09173  0.010961318 0.0094850326            1 
 4586000   0.51687159   -8.7983348    603.09786   0.01095904 0.0094817804            1 
 4587000   0.51937426   -8.7831092    603.42119  0.010962524 0.0094785296            2 
 4588000   0.52681015   -8.7872286    603.16666  0.010955512 0.0094752819            1 
 4589000   0.52380646   -8.8145252    603.71122  0.010963013  0.009472035            2 
 4590000   0.51396064   -8.8066888    604.56732  0.010976168 0.0094687859            1 
 4591000   0.52196774   -8.8102658    603.35498  0.010951771  0.009465542            2 
 4592000    0.5190094   -8.7957133    603.90069   0.01095929 0.0094622974            1 
 4593000   0.51177629   -8.8063879    603.70277  0.010953312 0.0094590504            2 
 4594000   0.50920342   -8.8083876    604.35526  0.010962764 0.0094558087            1 
 4595000   0.52002882   -8.7933088    603.63205  0.010947262 0.0094525664            1 
 4596000   0.49632042   -8.8102417    604.11648  0.010953664 0.0094493263            1 
 4597000   0.51220849   -8.8035287     603.7843   0.01094526 0.0094460837            1 
 4598000   0.50469188   -8.7970909    604.21768  0.010950734 0.0094428494            2 
 4599000    0.5136262   -8.7819312    603.67305  0.010938484  0.009439615            3 
 4600000   0.52267541   -8.7922316    602.92154  0.010922492   0.00943638            1 
 4601000   0.52314159   -8.8063888    603.68865  0.010934012 0.0094331486            4 
 4602000   0.52128139   -8.8154546    605.13016  0.010957739 0.0094299153            1 
 4603000   0.50549091   -8.8208836    603.00845  0.010916946  0.009426684            2 
 4604000   0.50069146   -8.8135631    603.06469  0.010915593 0.0094234525            1 
 4605000   0.51763213   -8.8129325    603.60931  0.010923078 0.0094202242            2 
 4606000    0.5155499   -8.7946255    602.84527  0.010906884 0.0094169979            3 
 4607000   0.49696299   -8.8066899    604.21561  0.010929303 0.0094137733            1 
 4608000   0.51948349   -8.8135927    604.01743  0.010923348 0.0094105526            2 
 4609000   0.51432461   -8.7985464    602.21047  0.010888307 0.0094073285            2 
 4610000   0.51304005   -8.8101359    603.15221  0.010902968 0.0094041063            1 
 4611000   0.52215292   -8.8152816    604.38998  0.010922974 0.0094008857            1 
 4612000   0.51304972   -8.7928729    602.92301  0.010894099 0.0093976661            1 
 4613000   0.51555994   -8.8145279    603.52153  0.010902549 0.0093944516            1 
 4614000   0.50377911   -8.8081626    604.19084  0.010912275 0.0093912341            3 
 4615000   0.49862214   -8.8058773    603.89393  0.010904549 0.0093880171            2 
 4616000   0.51404459   -8.8200402    603.64152   0.01089763 0.0093848005            2 
 4617000   0.50867422   -8.7996019    604.08578  0.010903288 0.0093815864            1 
 4618000   0.51609973   -8.8115846    603.99855  0.010899353 0.0093783754            2 
 4619000   0.50953671   -8.8155298    602.99614  0.010878909 0.0093751646            1 
 4620000   0.50816209   -8.8137706     603.9464  0.010893694 0.0093719551            1 
 4621000    0.5162617   -8.8364047    603.50742   0.01088342 0.0093687474            3 
 4622000   0.51194491    -8.816096     603.4753  0.010880486 0.0093655429            1 
 4623000   0.51542756   -8.8114833    604.44014  0.010895525 0.0093623424            1 
 4624000   0.51592876   -8.8228766    602.44205  0.010857159  0.009359138            1 
 4625000   0.50298186   -8.8086877    603.58851  0.010875469 0.0093559407            1 
 4626000   0.50760555   -8.8133062    603.64149  0.010874072 0.0093527411            1 
 4627000   0.51924652   -8.8078662    603.48149   0.01086884  0.009349545            2 
 4628000   0.50005552   -8.8028649    603.71544  0.010870704 0.0093463496            1 
 4629000   0.51961439   -8.7994371    604.17459  0.010876622 0.0093431561            1 
 4630000    0.4982333   -8.7969809    603.12049    0.0108553 0.0093399665            4 
 4631000   0.52022597   -8.8055687    604.26736  0.010873594 0.0093367761            2 
 4632000   0.51970989   -8.8205724    603.56903  0.010858683 0.0093335862            1 
 4633000   0.52482797   -8.8178658    603.09471  0.010847808 0.0093303954            1 
 4634000   0.51797688   -8.8113748    603.87416  0.010859483 0.0093272077            3 
 4635000    0.5080663    -8.808485    603.97715  0.010858992 0.0093240211            3 
 4636000   0.50811957   -8.8200334    602.83168   0.01083606 0.0093208345            2 
 4637000   0.49844147   -8.8181422    603.93847  0.010853613 0.0093176485            1 
 4638000   0.50466788   -8.8083966    603.66524  0.010846364 0.0093144678            4 
 4639000   0.49886096   -8.8190837    603.90176  0.010848275 0.0093112861            2 
 4640000   0.50739197    -8.816506     603.2597  0.010834405 0.0093081058            1 
 4641000   0.50699884      -8.8189    603.67157  0.010839467 0.0093049239            4 
 4642000   0.51621808   -8.8081589    604.26812  0.010847841 0.0093017471            2 
 4643000   0.51070043   -8.8295678    603.43032  0.010830467 0.0092985704            2 
 4644000   0.51053697   -8.8057956    603.25532  0.010824995 0.0092953904            1 
 4645000   0.50970025   -8.8005499    602.04981  0.010801037 0.0092922149            1 
 4646000   0.51322404   -8.8170821    602.76576  0.010811554  0.009289044            1 
 4647000   0.51156647    -8.792288    603.85174  0.010828702 0.0092858739            1 
 4648000   0.51195403   -8.8380769    603.21664  0.010814986 0.0092827007            1 
 4649000   0.51334517   -8.8225173    603.75232  0.010822261 0.0092795326            3 
 4650000   0.50890233   -8.8202025    603.36691  0.010813027 0.0092763632            4 
 4651000   0.51337919    -8.808996    603.76916  0.010817909 0.0092731994            2 
 4652000   0.49623381   -8.8008429    602.23922  0.010788177  0.009270035            1 
 4653000   0.50156162   -8.8130959    603.40624   0.01080676 0.0092668701            2 
 4654000   0.51940717   -8.8159226    602.42388  0.010786848 0.0092637074            2 
 4655000   0.50536539   -8.8121462    603.33642  0.010800867 0.0092605448            2 
 4656000   0.50168193   -8.8125051    603.31345  0.010798136 0.0092573844            2 
 4657000   0.51659199   -8.8200534    603.18436  0.010793507  0.009254223            2 
 4658000   0.50819232   -8.8301681    603.44183  0.010795796 0.0092510661            2 
 4659000   0.50104952   -8.8180405    603.13357  0.010787965 0.0092479108            1 
 4660000   0.51366151    -8.825942     604.0612  0.010802239  0.009244758            1 
 4661000   0.50373451   -8.8178744     603.4428  0.010788865 0.0092416045            3 
 4662000   0.51457549   -8.8075345    602.95089  0.010777758 0.0092384498            3 
 4663000   0.49391289   -8.8296019    602.95002  0.010775431 0.0092352966            1 
 4664000   0.50371783    -8.822313     603.2391  0.010778286  0.009232147            2 
 4665000   0.51092277   -8.8223776    602.26253   0.01075853 0.0092289977            2 
 4666000   0.51457267   -8.8273574     602.6662  0.010763434 0.0092258502            2 
 4667000   0.49550574   -8.8300428    602.33808  0.010755269 0.0092227031            2 
 4668000   0.48932434   -8.8276208    603.10678  0.010766688  0.009219557            1 
 4669000   0.50385013   -8.8232059    602.30754  0.010750117 0.0092164126            2 
 4670000   0.51263287   -8.8279803    603.18888  0.010763542 0.0092132683            1 
 4671000   0.51426786   -8.8177887    603.03332  0.010758462 0.0092101276            5 
 4672000   0.50469476   -8.8212493    602.87982  0.010753422  0.009206989            2 
 4673000   0.50391746   -8.8199675      603.283   0.01075831 0.0092038508            1 
 4674000   0.49955794   -8.8138004    602.80365  0.010747462 0.0092007138            1 
 4675000   0.49533206   -8.8215588    603.60623  0.010759469 0.0091975787            2 
 4676000   0.51424033   -8.8300272    603.23342  0.010750524 0.0091944436            2 
 4677000   0.51293292   -8.8214064    602.05098  0.010727157 0.0091913081            2 
 4678000   0.50363578   -8.8081525    602.77649  0.010737788 0.0091881761            1 
 4679000    0.5011782     -8.81187    602.26313  0.010726351 0.0091850454            1 
 4680000   0.50627122    -8.831275    602.74937  0.010732717 0.0091819148            2 
 4681000   0.50149324   -8.8277893    602.68064    0.0107292 0.0091787865            1 
 4682000   0.50456368   -8.8357452    602.95545    0.0107318 0.0091756581            4 
 4683000   0.50282558   -8.8241463    602.77082  0.010726223 0.0091725315            3 
 4684000   0.50618589   -8.8325276    603.86417  0.010743385 0.0091694067            5 
 4685000   0.51048624   -8.8077713    602.80251  0.010722208 0.0091662828            1 
 4686000   0.49877052   -8.8225544    603.51654  0.010732617 0.0091631612            1 
 4687000    0.5039152     -8.85198    602.48028  0.010711903 0.0091600421            1 
 4688000   0.50490468    -8.840745    602.76827  0.010714737 0.0091569218            1 
 4689000   0.49859721   -8.8270258    601.72096   0.01069384  0.009153803            1 
 4690000   0.50647431   -8.8160497    603.16701  0.010717253  0.009150688            1 
 4691000   0.49878536    -8.829879    602.03371  0.010694836 0.0091475747            2 
 4692000     0.503392    -8.830817     602.7213  0.010704769  0.009144462            1 
 4693000   0.49757791   -8.8398533    602.28239  0.010694694 0.0091413501            1 
 4694000   0.49629782   -8.8456757    601.72693  0.010682555 0.0091382375            2 
 4695000   0.50277944    -8.838231    602.06241  0.010686234 0.0091351256            3 
 4696000   0.50530243   -8.8284099    601.93611  0.010681717 0.0091320174            2 
 4697000   0.48595256   -8.8184294    602.86679  0.010695955 0.0091289112            2 
 4698000   0.49210154     -8.83953    602.11442  0.010680332 0.0091258054            2 
 4699000   0.48775618   -8.8377439    602.97135  0.010693257 0.0091226996            3 
 4700000   0.50300049   -8.8309174    602.45196  0.010681772 0.0091195945            2 
 4701000   0.51380999   -8.8246844    602.66992  0.010683364   0.00911649            1 
 4702000   0.49794803    -8.820423    603.72652  0.010699818 0.0091133896            1 
 4703000    0.5005387   -8.8349019    602.21196  0.010670706 0.0091102892            1 
 4704000   0.50154805   -8.8442149    603.24292  0.010686701 0.0091071921            3 
 4705000   0.51308035   -8.8374533    602.55682  0.010672278 0.0091040929            2 
 4706000   0.49426963   -8.8519831    603.54411  0.010687493 0.0091009976            1 
 4707000   0.49312982   -8.8397553    602.58412  0.010668227  0.009097904            1 
 4708000   0.49370613   -8.8454818    602.70912  0.010668173 0.0090948103            1 
 4709000    0.5059946   -8.8359384    602.04424  0.010654142 0.0090917193            1 
 4710000     0.493664     -8.83794    603.59508  0.010679319 0.0090886269            1 
 4711000   0.49938639   -8.8374992    602.65075  0.010660347 0.0090855377            1 
 4712000   0.50471321   -8.8284907    602.59977  0.010657183 0.0090824475            1 
 4713000   0.50553596   -8.8452487    602.67374   0.01065623 0.0090793603            2 
 4714000   0.49842201   -8.8227391    601.88348  0.010639999 0.0090762726            2 
 4715000   0.49448932   -8.8164787    603.44888   0.01066541 0.0090731884            1 
 4716000   0.49766977   -8.8380553    602.90591  0.010653554 0.0090701057            2 
 4717000   0.50505173   -8.8220249    601.99854  0.010635265 0.0090670247            2 
 4718000   0.50200908    -8.821266    602.73692  0.010646053  0.009063945            2 
 4719000   0.50062272    -8.839528    603.32602    0.0106542 0.0090608659            2 
 4720000   0.48803731   -8.8274431    603.17998  0.010649364 0.0090577901            1 
 4721000   0.49655827   -8.8233674    602.61885  0.010637204 0.0090547164            1 
 4722000   0.50507872   -8.8516537    602.61942  0.010634961  0.009051641            2 
 4723000   0.49459207   -8.8364074    602.56919  0.010631823 0.0090485679            2 
 4724000   0.50226203   -8.8264837    602.77973  0.010633286 0.0090454923            1 
 4725000   0.48990749   -8.8327465    602.76335  0.010630747 0.0090424233            1 
 4726000   0.48800487    -8.843037    602.14303  0.010617559 0.0090393524            2 
 4727000   0.48542701   -8.8354517    602.65555  0.010624349  0.009036283            4 
 4728000   0.49255519   -8.8470498     602.4605  0.010618664 0.0090332137            1 
 4729000    0.5057994   -8.8426361    603.11415  0.010627937 0.0090301475            2 
 4730000   0.49343906     -8.84382    602.55921  0.010615913 0.0090270818            2 
 4731000   0.49392384       -8.848    602.09618  0.010605513 0.0090240195            1 
 4732000   0.48923328   -8.8400595    601.96236  0.010600915 0.0090209599            1 
 4733000   0.50279302   -8.8273832    601.84037  0.010596527 0.0090179017            1 
 4734000   0.49839828   -8.8300102    601.93109  0.010595886 0.0090148451            1 
 4735000   0.49165259   -8.8487814    602.52012  0.010604015 0.0090117889            1 
 4736000   0.49250074    -8.836126    602.94554  0.010609261 0.0090087338            2 
 4737000   0.49749938   -8.8344938    601.17764  0.010575921 0.0090056808            1 
 4738000   0.48728761   -8.8275053    602.79685  0.010602168 0.0090026272            3 
 4739000   0.49554992   -8.8339892    602.99204  0.010603363 0.0089995787            2 
 4740000   0.48390159   -8.8226355    601.05722   0.01056711 0.0089965271            2 
 4741000   0.49769879   -8.8442221    602.89642  0.010597209 0.0089934776            1 
 4742000   0.50433165   -8.8392179     602.9234  0.010595448 0.0089904266            2 
 4743000   0.48836865   -8.8412968    601.78978  0.010573297 0.0089873803            1 
 4744000   0.48902188   -8.8379731    602.89375  0.010590461 0.0089843333            1 
 4745000   0.48992225   -8.8484178    602.89372  0.010588228   0.00898129            3 
 4746000   0.49943087   -8.8453953     601.9871  0.010570078 0.0089782474            2 
 4747000   0.49572872   -8.8409924    602.93199  0.010584439 0.0089752043            2 
 4748000   0.50729172   -8.8288024    602.55635  0.010575617 0.0089721655            1 
 4749000   0.50628625   -8.8509998    602.33244  0.010569461 0.0089691283            3 
 4750000   0.50120365   -8.8243371    602.63999  0.010572631 0.0089660963            2 
 4751000   0.49446572   -8.8474613    602.55422  0.010568902  0.008963061            2 
 4752000    0.4866176   -8.8436109    602.55489  0.010566689 0.0089600256            3 
 4753000   0.48714332   -8.8402359    602.06558  0.010555887 0.0089569923            3 
 4754000   0.48865927   -8.8275026    600.92791  0.010533724 0.0089539601            1 
 4755000   0.47474852    -8.835704    602.26768  0.010554989 0.0089509332            1 
 4756000   0.48494464   -8.8492339    602.68036  0.010560001 0.0089479038            1 
 4757000   0.49654614   -8.8303985    601.73766  0.010541266 0.0089448746            1 
 4758000   0.48976252   -8.8348444    601.78534  0.010539886 0.0089418476            2 
 4759000   0.48423687   -8.8325025    602.40593  0.010548538 0.0089388196            1 
 4760000   0.49978214   -8.8389218    602.08236  0.010540658 0.0089357929            3 
 4761000   0.48941758   -8.8435262    601.80097  0.010533518 0.0089327701            1 
 4762000    0.4869979   -8.8354274    602.75439  0.010547991 0.0089297475            1 
 4763000   0.49298098   -8.8483035    602.75488  0.010545785 0.0089267293            3 
 4764000   0.48513125   -8.8458331     602.3032   0.01053567 0.0089237087            3 
 4765000   0.48924287    -8.853747    602.73246  0.010540966 0.0089206923            2 
 4766000    0.5086763   -8.8422206    601.34915  0.010514568 0.0089176747            2 
 4767000   0.49854224   -8.8336788    602.44404  0.010531502 0.0089146598            4 
 4768000   0.48603767   -8.8600894    602.73429  0.010534366 0.0089116448            2 
 4769000    0.4866395   -8.8398467    602.07252  0.010520593 0.0089086298            1 
 4770000   0.49190134   -8.8500253     602.3639  0.010523478 0.0089056177            1 
 4771000    0.4821399   -8.8410927    601.62612  0.010508386  0.008902603            5 
 4772000   0.49461251   -8.8461263      602.146  0.010515263 0.0088995927            1 
 4773000   0.48552256   -8.8550356     602.4354  0.010518112 0.0088965835            2 
 4774000   0.48977046   -8.8545556    602.12513  0.010510493 0.0088935739            2 
 4775000   0.48136589   -8.8436838    602.34739  0.010512171 0.0088905657            1 
 4776000   0.49506915   -8.8426778    602.46008  0.010511936 0.0088875607            1 
 4777000   0.49535531   -8.8481433    602.04159  0.010502435 0.0088845564            3 
 4778000   0.48131533    -8.853084    602.24319  0.010503753 0.0088815537            1 
 4779000    0.4790884   -8.8568306    602.56584  0.010507181 0.0088785517            2 
 4780000   0.48606128   -8.8566021    601.85012  0.010492506 0.0088755488            1 
 4781000   0.47910686   -8.8440121    602.93888  0.010509288 0.0088725508            4 
 4782000   0.48601223   -8.8562492    602.09327  0.010492354 0.0088695516            2 
 4783000   0.49302343   -8.8423363    601.78497  0.010484789 0.0088665537            1 
 4784000    0.4900913   -8.8662738    601.80848  0.010483007 0.0088635539            1 
 4785000   0.48193928   -8.8478475     602.0971  0.010485843 0.0088605574            2 
 4786000   0.48081539   -8.8459057    601.24805  0.010468868 0.0088575639            2 
 4787000   0.50317655    -8.856623    601.90967  0.010478199 0.0088545694            2 
 4788000   0.48009631   -8.8394315     601.6983  0.010472332 0.0088515751            2 
 4789000   0.48697495   -8.8276561    600.98981  0.010457817 0.0088485843            2 
 4790000   0.48680824   -8.8546365     602.1853  0.010476432  0.008845598            1 
 4791000   0.49741323   -8.8583588    602.57425   0.01048101   0.00884261            1 
 4792000   0.48934198    -8.864876    602.68688  0.010480782 0.0088396243            1 
 4793000   0.48503934   -8.8642734    602.17506  0.010469696 0.0088366387            1 
 4794000   0.47676695   -8.8661385    602.26262  0.010469035 0.0088336534            2 
 4795000   0.47754565   -8.8589276     602.8221  0.010476574 0.0088306701            3 
 4796000   0.48691785   -8.8506493    601.48171    0.0104511 0.0088276888            1 
 4797000   0.48236879   -8.8475398    601.64317  0.010451726 0.0088247068            2 
 4798000   0.48091784   -8.8572395     600.7661  0.010434315 0.0088217283            2 
 4799000    0.4867318   -8.8616613    601.12305  0.010438339 0.0088187487            2 
 4800000   0.47304256   -8.8612417    601.24325  0.010438251 0.0088157718            1 
 4801000   0.48323035   -8.8544827    601.31328  0.010437292 0.0088127944            1 
 4802000     0.474807   -8.8362969    602.13986  0.010449463 0.0088098188            1 
 4803000   0.48263221   -8.8608278    602.38626  0.010451563 0.0088068432            2 
 4804000   0.49188677   -8.8617048    602.12704   0.01044489 0.0088038705            1 
 4805000   0.47573039   -8.8532239    602.28381  0.010445435 0.0088008974            1 
 4806000   0.49270957   -8.8533039    602.09692  0.010440022 0.0087979279            1 
 4807000   0.46419034   -8.8524489    602.53474   0.01044544 0.0087949611            4 
 4808000     0.477173   -8.8603055    601.09197  0.010418261 0.0087919942            2 
 4809000   0.48827986   -8.8572148    601.76475  0.010427753  0.008789029            1 
 4810000     0.487191     -8.86906    601.62624  0.010423185 0.0087860628            1 
 4811000   0.47535102    -8.852566    602.15728  0.010430217 0.0087831014            1 
 4812000   0.48498123   -8.8609644    602.16364  0.010428159 0.0087801438            2 
 4813000   0.47335875   -8.8580599      601.344  0.010411801 0.0087771825            3 
 4814000   0.48166073   -8.8481911     601.9463  0.010420065 0.0087742231            1 
 4815000   0.48044338   -8.8605247    600.96834  0.010400975 0.0087712663            1 
 4816000   0.48351337   -8.8751582    601.29224   0.01040442 0.0087683099            2 
 4817000   0.47922669   -8.8666301    602.08242   0.01041593 0.0087653537            1 
 4818000   0.49501168   -8.8539871    601.62865   0.01040592 0.0087624015            2 
 4819000   0.47795177   -8.8492396    602.72558  0.010422729  0.008759449            1 
 4820000   0.47745825   -8.8510519    601.46586  0.010398787 0.0087564969            2 
 4821000   0.49053728   -8.8672246    602.13905  0.010408267 0.0087535457            3 
 4822000   0.48276428   -8.8503966    602.59512   0.01041399 0.0087505985            1 
 4823000   0.48377432   -8.8669058    602.31755  0.010407035 0.0087476543            2 
 4824000    0.4885682   -8.8548688    602.50328  0.010408086 0.0087447078            1 
 4825000   0.48061144   -8.8508552    601.80777  0.010393917 0.0087417626       -1e+20 
 4826000   0.47730287   -8.8618907     601.8883  0.010393153 0.0087388203            2 
 4827000   0.47600411   -8.8659928    600.98743  0.010375448 0.0087358792            1 
 4828000    0.4738024   -8.8457242    602.00403  0.010390846 0.0087329423            3 
 4829000   0.46877463   -8.8600742    602.04784   0.01038945  0.008730003            2 
 4830000   0.48075722   -8.8568755    601.09556  0.010370869 0.0087270639            2 
 4831000   0.47704247   -8.8630638    602.19955  0.010387766 0.0087241272            1 
 4832000   0.48520539   -8.8690764     601.8068  0.010378842 0.0087211914            2 
 4833000   0.47750857   -8.8560109    602.84843  0.010394655 0.0087182562            2 
 4834000   0.47451072   -8.8732063    602.29379  0.010382944 0.0087153239            5 
 4835000   0.47333237   -8.8474619    602.20591  0.010379281 0.0087123963            3 
 4836000   0.48200228   -8.8636136    601.44587  0.010364038 0.0087094674            3 
 4837000   0.47865199   -8.8683354    600.97819  0.010353838  0.008706541            1 
 4838000   0.48030787   -8.8481429    601.90667  0.010367691 0.0087036131            2 
 4839000   0.47669796   -8.8643405    601.07704  0.010351261 0.0087006871            1 
 4840000   0.46406796   -8.8639858    601.90595  0.010363394 0.0086977619            3 
 4841000   0.47488596   -8.8725597    600.63117   0.01033931 0.0086948383            3 
 4842000   0.49042864   -8.8646677    602.15354  0.010363375 0.0086919163            2 
 4843000   0.48486872   -8.8618517    601.99869  0.010358571  0.008688997            3 
 4844000   0.48379429   -8.8624463    602.15153  0.010359062 0.0086860769            3 
 4845000   0.47050175   -8.8662842    601.16259  0.010339914 0.0086831584            3 
 4846000   0.47831161   -8.8616137    601.53239  0.010344139 0.0086802403            2 
 4847000   0.47666123   -8.8653691    602.39356  0.010356811 0.0086773246            1 
 4848000    0.4838733   -8.8599153    601.56346  0.010340406 0.0086744121            2 
 4849000   0.47924331   -8.8545659    602.00624  0.010345883 0.0086714998            2 
 4850000   0.46565021    -8.881593    602.22979  0.010347591 0.0086685854            3 
 4851000   0.48179693   -8.8571755    601.12454  0.010326471 0.0086656725            1 
 4852000   0.47308249    -8.878209    601.60088  0.010332524 0.0086627625            3 
 4853000   0.47312411   -8.8575009     601.5091  0.010328819 0.0086598545            1 
 4854000   0.47462173   -8.8491208    601.35737  0.010324086 0.0086569439            2 
 4855000   0.47961906   -8.8580363    602.29285  0.010338017 0.0086540376            1 
 4856000   0.47561882   -8.8696933    601.68159  0.010325398 0.0086511323            2 
 4857000   0.47659389   -8.8829129    601.39613  0.010318374 0.0086482266            2 
 4858000   0.47688612     -8.87163    601.74859  0.010322296 0.0086453209            1 
 4859000   0.46953844   -8.8653165     602.2016  0.010327941 0.0086424217            2 
 4860000   0.48349933   -8.8809658    602.34098  0.010328206 0.0086395206            2 
 4861000   0.49146949   -8.8874791    601.90426  0.010318595 0.0086366215            5 
 4862000   0.46547543   -8.8820211    601.13099  0.010303219 0.0086337244            2 
 4863000   0.47341042   -8.8867742    600.46349  0.010289662 0.0086308274            2 
 4864000   0.48178228   -8.8656064    601.54158  0.010306017 0.0086279322            2 
 4865000    0.4723184   -8.8658468    601.52171  0.010303558   0.00862504            2 
 4866000   0.47819622   -8.8687513    601.55796  0.010302061 0.0086221491            1 
 4867000   0.45887319   -8.8704666    601.68689  0.010302152 0.0086192581            3 
 4868000   0.47155674   -8.8778747    601.01228  0.010288487 0.0086163672            2 
 4869000   0.46788565    -8.872649    600.04953  0.010269897 0.0086134768            2 
 4870000   0.47544914   -8.8639011    601.81751  0.010298041 0.0086105876            2 
 4871000   0.47320576    -8.879262     601.4904   0.01029033 0.0086077015            2 
 4872000    0.4812989   -8.8764966    601.97066  0.010296433  0.008604816            2 
 4873000   0.47939246   -8.8738837    601.97045  0.010294316 0.0086019306            1 
 4874000   0.48695813   -8.8630304    601.61949  0.010286204 0.0085990492            2 
 4875000   0.46255775   -8.8853815    600.54534  0.010265732  0.008596166            1 
 4876000   0.46869918   -8.8636873     600.9769  0.010271003 0.0085932861            1 
 4877000    0.4766685   -8.8714731    601.74975  0.010282102 0.0085904049            1 
 4878000   0.47445527   -8.8743112    601.96236  0.010283626 0.0085875261            1 
 4879000   0.46242726   -8.8614939    600.83757  0.010262307 0.0085846492            1 
 4880000    0.4689797   -8.8782939    601.66686  0.010274366 0.0085817736            2 
 4881000   0.46470241     -8.86782    601.46995  0.010268899 0.0085789018            3 
 4882000   0.47427092   -8.8822585    601.58779  0.010268807 0.0085760321            1 
 4883000   0.46356559   -8.8665674     601.7831  0.010270037 0.0085731608            2 
 4884000   0.48043576   -8.8696689    601.55631  0.010264065 0.0085702895            3 
 4885000   0.45969564   -8.8886969    601.64857  0.010263537 0.0085674208            1 
 4886000   0.47890176   -8.8661957    600.94229  0.010249391 0.0085645508            1 
 4887000   0.46486458    -8.861918    600.95018  0.010247428  0.008561685            1 
 4888000   0.47489092   -8.8764157     601.5121  0.010254912 0.0085588176            2 
 4889000   0.46945021   -8.8956485     601.9708  0.010260633 0.0085559525            4 
 4890000   0.47484218   -8.8697265    601.60137  0.010252239 0.0085530899            2 
 4891000   0.45889367   -8.8770316    600.89958  0.010238185 0.0085502287            1 
 4892000    0.4717733   -8.8669051     601.0725  0.010239038 0.0085473681            2 
 4893000   0.47180867   -8.8649741    601.17351  0.010238666 0.0085445116            1 
 4894000   0.46072951   -8.8715209    601.72263  0.010245924 0.0085416533            1 
 4895000   0.45705102   -8.8796271    601.54329  0.010240778 0.0085387961            2 
 4896000   0.46784801   -8.8770066    600.80032   0.01022604 0.0085359403            2 
 4897000   0.46795377   -8.8861358    600.65534  0.010221485 0.0085330859            3 
 4898000   0.46865924   -8.8794456    601.27335  0.010229913 0.0085302339            1 
 4899000   0.46088924   -8.8655419    601.38629  0.010229746 0.0085273837            3 
 4900000   0.45678706    -8.885432     601.9391   0.01023706 0.0085245357            2 
 4901000   0.46082828   -8.8629379    600.79091  0.010215448  0.008521687            2 
 4902000   0.46691328   -8.8712196    600.22395  0.010203725 0.0085188417            1 
 4903000   0.45608956   -8.8798565    601.86125  0.010229473 0.0085159966            5 
 4904000   0.47134736   -8.8802839    600.90992  0.010211221 0.0085131537            1 
 4905000    0.4711103   -8.8786468    601.03934  0.010211338 0.0085103075            2 
 4906000   0.46277486    -8.879972    601.08922  0.010210104 0.0085074656            2 
 4907000   0.48259996   -8.8902329     600.7794  0.010202761 0.0085046227            2 
 4908000   0.46640058   -8.8741348    600.28031  0.010192208 0.0085017808            3 
 4909000   0.47393138   -8.8716097    600.65649  0.010196518 0.0084989419            1 
 4910000   0.47025521   -8.8862599    601.04803  0.010201087 0.0084961041            2 
 4911000   0.45896353   -8.8781591    601.10548  0.010199984 0.0084932681            6 
 4912000   0.46638835   -8.8774576     600.6502  0.010190184 0.0084904311            1 
 4913000   0.45840383   -8.8891269    601.93283  0.010209866 0.0084875956            2 
 4914000   0.46908927   -8.8854937    600.72505  0.010187306 0.0084847627            2 
 4915000   0.46323468   -8.8781911    600.82741  0.010186969 0.0084819312            2 
 4916000   0.45853495    -8.898751    601.55226  0.010197184 0.0084790997            2 
 4917000   0.47839666   -8.8760403    601.17558  0.010188726 0.0084762697            2 
 4918000   0.46223241   -8.8982937    600.25961  0.010171133 0.0084734402            1 
 4919000   0.46513253   -8.8947022    600.88996  0.010179745 0.0084706117            1 
 4920000   0.47156271   -8.8742921    600.19879  0.010165969 0.0084677858            2 
 4921000   0.46187344   -8.8735176    601.32751  0.010183017 0.0084649595            2 
 4922000   0.46502508   -8.8839073    601.26644  0.010179914 0.0084621352            2 
 4923000   0.44912789   -8.8728087    600.65226   0.01016745 0.0084593104            1 
 4924000   0.47613226   -8.8736519    601.69978  0.010183113 0.0084564892            1 
 4925000   0.46610382   -8.8873679    601.12619   0.01017134 0.0084536688            4 
 4926000   0.46084937   -8.8931473    601.02286  0.010167527 0.0084508502            2 
 4927000   0.47233568   -8.8958082    601.17843  0.010168095 0.0084480332            3 
 4928000   0.46894095   -8.8640551    600.68433  0.010157676  0.008445218            2 
 4929000   0.46360938   -8.8771053    601.19898  0.010164316 0.0084424014            2 
 4930000   0.47009388   -8.8931008    601.29463  0.010163871 0.0084395853            1 
 4931000   0.46331102   -8.8920777    600.92541   0.01015557 0.0084367719            2 
 4932000   0.46223087   -8.8919355    602.01445  0.010171912   0.00843396            2 
 4933000   0.46211141   -8.8782163    601.76808  0.010165688 0.0084311489            3 
 4934000   0.45752309   -8.8941015    600.48626  0.010141978 0.0084283366            1 
 4935000   0.47171714   -8.8675623    602.06919  0.010166653 0.0084255303            1 
 4936000   0.46655184   -8.8932081    600.71354  0.010141706 0.0084227213            3 
 4937000   0.45758763   -8.9002868    600.84559  0.010141881 0.0084199154            2 
 4938000    0.4658057    -8.881892    601.45817  0.010150165 0.0084171112            2 
 4939000   0.46088016   -8.8590032    600.35133  0.010129435 0.0084143083            3 
 4940000   0.45764159   -8.9008564    601.17571  0.010141291 0.0084115058            2 
 4941000   0.45991551    -8.881238    600.83781  0.010133539  0.008408704            5 
 4942000   0.46003123   -8.8851426     601.3807  0.010140643 0.0084059051            2 
 4943000   0.46015437   -8.8895764    601.33916  0.010137891 0.0084031043            2 
 4944000    0.4588097   -8.8870827     600.0324  0.010113815 0.0084003051            4 
 4945000   0.46234674   -8.8916017    601.12076  0.010130111 0.0083975084            2 
 4946000   0.46530977   -8.8872093    601.35472  0.010132004 0.0083947123            2 
 4947000   0.45839706   -8.8772897    600.78367  0.010120337 0.0083919169            2 
 4948000   0.46955854   -8.9032656    601.57072  0.010131547 0.0083891236            2 
 4949000   0.45730836   -8.8804383    600.69943  0.010114828 0.0083863321            3 
 4950000   0.45337228   -8.8919496     600.7421  0.010113503 0.0083835422            4 
 4951000   0.46267259   -8.8937836    599.76828   0.01009507 0.0083807543            3 
 4952000   0.45980621    -8.898578    600.73811  0.010109352   0.00837797            1 
 4953000   0.46459302   -8.8830609    600.49703  0.010103254 0.0083751838            3 
 4954000   0.46034744    -8.886412    599.83421  0.010090065  0.008372399            3 
 4955000   0.45605764   -8.9120851    601.66927  0.010118891 0.0083696153            1 
 4956000   0.45339674   -8.8889801     600.8677  0.010103371 0.0083668335            4 
 4957000   0.44979493   -8.8805975    600.68717  0.010098298 0.0083640529            2 
 4958000   0.45942679   -8.8875357    601.82331  0.010115357 0.0083612742            2 
 4959000   0.45911075   -8.8884958    601.02546   0.01009991 0.0083584965            2 
 4960000   0.46727146   -8.8864979    601.83736  0.010111515 0.0083557191            1 
 4961000   0.45491705   -8.8958445     600.7508  0.010091225 0.0083529431            3 
 4962000   0.45276932   -8.8951229    600.93927  0.010092356 0.0083501649            1 
 4963000   0.45204686   -8.8932461    600.48377  0.010082675 0.0083473907            2 
 4964000   0.45308172   -8.9004549    601.82098  0.010103092 0.0083446189            4 
 4965000   0.45174358   -8.8917168    600.78154  0.010083611 0.0083418468            1 
 4966000   0.45645897   -8.8997642    600.61219  0.010078739 0.0083390739            3 
 4967000   0.46572978   -8.8863758    600.75197  0.010079055 0.0083363018            2 
 4968000   0.45709974   -8.8892936    600.39351  0.010071013 0.0083335338            1 
 4969000   0.45132238   -8.9034064    599.77566  0.010058624 0.0083307678            1 
 4970000   0.46632331   -8.8918013    600.25636  0.010064661 0.0083280012            2 
 4971000   0.45600708   -8.9006577    601.60245  0.010085202 0.0083252361            4 
 4972000   0.44949911    -8.888025    600.36772  0.010062478 0.0083224729            3 
 4973000   0.46318609   -8.9035392    600.96432  0.010070452 0.0083197116            1 
 4974000   0.45835802   -8.8953245    600.39553  0.010058898 0.0083169515            2 
 4975000   0.45166032   -8.8911154    600.28344  0.010054999 0.0083141914            2 
 4976000   0.45712203   -8.8781585    601.13259  0.010067199 0.0083114346            2 
 4977000   0.44507655   -8.8852544    601.03273  0.010063504 0.0083086787            3 
 4978000   0.46695224   -8.9030085    601.76291  0.010073706 0.0083059243            2 
 4979000   0.45449768     -8.89544    601.33024  0.010064441 0.0083031688            5 
 4980000   0.44541586   -8.9112305    601.05286  0.010057779 0.0083004122            3 
 4981000   0.45230301   -8.9114137    600.75904  0.010050844 0.0082976603            4 
 4982000    0.4641325   -8.8856888    601.20927  0.010056357 0.0082949099            1 
 4983000   0.45680843   -8.9017483    601.00892  0.010050989 0.0082921597            1 
 4984000   0.45071885   -8.9121256    600.64638   0.01004291 0.0082894078            5 
 4985000   0.46506853   -8.9129389    601.14649  0.010049256 0.0082866574            2 
 4986000   0.46833289   -8.8990076    601.01792  0.010045092 0.0082839096            2 
 4987000   0.45063375   -8.9204663    600.22043  0.010029751 0.0082811625            2 
 4988000   0.45301525    -8.912808    601.77961  0.010053789 0.0082784165            1 
 4989000   0.45385169    -8.909759    600.95533  0.010038006 0.0082756729            1 
 4990000   0.44235682   -8.8945209    600.45024  0.010027559 0.0082729292            2 
 4991000   0.44952346   -8.9132023    600.57347  0.010027608  0.008270186            1 
 4992000   0.46171774   -8.8945278    600.99752  0.010032678 0.0082674448            3 
 4993000   0.45362135   -8.8956113    600.43887  0.010021344 0.0082647023            3 
 4994000    0.4516056   -8.9031519    600.80841  0.010025504 0.0082619632            2 
 4995000   0.45761497   -8.9165567    600.78017  0.010023026  0.008259223            2 
 4996000   0.44089496   -8.8966776    601.27402  0.010029257  0.008256487            2 
 4997000   0.44865163   -8.9100807    600.64101  0.010016694 0.0082537516            2 
 4998000   0.44255553   -8.8987068    601.16307  0.010023394 0.0082510165            3 
 4999000   0.44757519   -8.9020363    600.75645   0.01001461 0.0082482823            1 
 5000000   0.45314286   -8.8988805    601.18799    0.0100198 0.0082455494            2 
 5001000   0.44814193    -8.878404    599.77217  0.009994204 0.0082428173            3 
 5002000   0.46077454   -8.8892833    600.69135  0.010007519 0.0082400859            1 
 5003000   0.46042638   -8.8990973    600.09859 0.0099956457 0.0082373563            1 
 5004000   0.45058418   -8.8985158    600.20526 0.0099954247  0.008234629            1 
 5005000   0.44567337   -8.8962054    600.29973 0.0099950006 0.0082319027            2 
 5006000   0.45212127   -8.9137709    601.17257  0.010007534 0.0082291768            3 
 5007000   0.43838997   -8.8980621    600.19409 0.0099892498 0.0082264535            1 
 5008000   0.45044962   -8.8769372    600.34093 0.0099896987 0.0082237305            1 
 5009000    0.4559922   -8.9057413    600.15609 0.0099846291 0.0082210092            2 
 5010000   0.45013651   -8.9029575    600.55904 0.0099893387 0.0082182916            2 
 5011000   0.45256974   -8.9043477    600.56901 0.0099875109 0.0082155714            3 
 5012000   0.45488412   -8.9196444    601.01434 0.0099929227 0.0082128526            6 
Loop time of 12311.9 on 48 procs for 5000000 steps with 4000 atoms

Performance: 70175.957 tau/day, 406.111 timesteps/s
99.4% CPU use with 48 MPI tasks x no OpenMP threads

MPI task timing breakdown:
Section |  min time  |  avg time  |  max time  |%varavg| %total
---------------------------------------------------------------
Pair    | 771.23     | 851.6      | 927.37     | 126.5 |  6.92
Neigh   | 80.272     | 84.252     | 88.569     |  25.0 |  0.68
Comm    | 748.31     | 832.01     | 913.92     | 130.7 |  6.76
Output  | 13.927     | 13.936     | 14.009     |   0.5 |  0.11
Modify  | 10396      | 10422      | 10451      |  12.0 | 84.65
Other   |            | 108.3      |            |       |  0.88

Nlocal:        83.3333 ave          89 max          76 min
Histogram: 1 1 3 6 9 4 13 4 4 3
Nghost:        2140.62 ave        2160 max        2123 min
Histogram: 3 2 1 7 18 7 4 2 3 1
Neighs:        14108.4 ave       15789 max       12660 min
Histogram: 3 4 4 7 9 7 7 3 3 1
FullNghs:      28217.1 ave       30246 max       25597 min
Histogram: 1 1 5 4 8 6 10 6 4 3

Total # of neighbors = 1354420
Ave neighs/atom = 338.60500
Neighbor list builds = 267274
Dangerous builds = 2

#clear
#
#next RN
#
#jump SELF
Total wall time: 3:25:15
