
units lj                  # Use reduced LJ style units
atom_style atomic         # Uncharged point particles
atom_modify map hash      # Needed for indexing of clusters etc
                          # Used to be able to find where atoms are in relation to each other.

lattice fcc 1.0 spacing 1 1 1
Lattice spacing in x,y,z = 1.5874011 1.5874011 1.5874011
region box block 0 10 0 10 0 10 units lattice
create_box 2 box
Created orthogonal box = (0.0000000 0.0000000 0.0000000) to (15.874011 15.874011 15.874011)
  3 by 4 by 4 MPI processor grid
create_atoms 1 box
Created 4000 atoms
  using lattice units in orthogonal box = (0.0000000 0.0000000 0.0000000) to (15.874011 15.874011 15.874011)
  create_atoms CPU = 0.004 seconds
set type 1 type/fraction 2 0.99 78393
Setting atom values ...
  3965 settings made for type/fraction
mass 1 1.0
mass 2 1.0
pair_style lj/cut  3.5
pair_modify tail  yes
pair_coeff 1  1  1.0  1.0   # Intearaction between 1 and 1 set with epsilon = 1 and sigma = 1
pair_coeff 1  2  1.5  0.8
pair_coeff 2  2  0.5  0.88

write_data data.0
System init for write_data ...
Neighbor list info ...
  update every 1 steps, delay 10 steps, check yes
  max neighbors/atom: 2000, page size: 100000
  master list distance cutoff = 3.8
  ghost atom cutoff = 3.8
  binsize = 1.9, bins = 9 9 9
  1 neighbor lists, perpetual/occasional/extra = 1 0 0
  (1) pair lj/cut, perpetual
      attributes: half, newton on
      pair build: half/bin/atomonly/newton
      stencil: half/bin/3d
      bin: standard
WARNING: Not all mixed pair coeffs generated from mixing. Use write_data with 'pair ij' option to store all pair coeffs. (../write_data.cpp:312)


#############################
#   M E L T   S Y S T E M   #
#############################

velocity all create 2.4 6229865 mom yes dist gaussian # Assign velocities
                                                    # Temperature 2.4, random number seed, zero linear momentum
                                                                                # Gaussian distribution

timestep 0.002   # simulation timestep
thermo 1000       # output thermodynamic data every 1000 steps bf 100

# Define a fix  in this case with index 1 applied to all
# particles in the simulation. This fix is for simulations
# in the anisotropic NPT ensemble. Note that we use the MTK
# correction.
fix 1 all npt temp 2.4 2.4 0.1 iso 5.68 5.68 0.5 mtk yes tchain 5 pchain 5 # Use NPT ensemble
                                                                         # Set temperature and pressure and damping
                                                                         # Numbers of thermostats in chain and in barostat
run 10000          # run for 10000 steps
Per MPI rank memory allocation (min/avg/max) = 3.642 | 3.644 | 3.648 Mbytes
Step Temp E_pair E_mol TotEng Press Volume 
       0          2.4   -2.7429598            0   0.85614022   -1.7792645         4000 
    1000     2.385545   -1.5014425            0    2.0759804    5.5883574    4250.2166 
    2000    2.3967299   -1.5383563            0    2.0558398    5.5009671    4234.9888 
    3000    2.3710037   -1.4804465            0      2.07517    5.7586875    4229.0245 
    4000    2.4010749   -1.4807268            0    2.1199851    6.0268444    4190.6068 
    5000    2.4429325   -1.5301957            0    2.1332869    5.5417572    4258.3064 
    6000    2.3783921   -1.5087383            0    2.0579579    5.3288471    4310.1398 
    7000    2.4124736   -1.4743404            0    2.1434653    5.6547841     4281.428 
    8000    2.4283772    -1.506553            0    2.1351021    5.5166818    4274.2073 
    9000    2.4154945   -1.4912095            0    2.1311265    5.9283128    4197.1483 
   10000    2.4582851   -1.4978054            0    2.1887003    5.8001638    4228.6333 
Loop time of 2.41877 on 48 procs for 10000 steps with 4000 atoms

Performance: 714411.304 tau/day, 4134.325 timesteps/s
99.6% CPU use with 48 MPI tasks x no OpenMP threads

MPI task timing breakdown:
Section |  min time  |  avg time  |  max time  |%varavg| %total
---------------------------------------------------------------
Pair    | 1.0366     | 1.0875     | 1.1416     |   2.5 | 44.96
Neigh   | 0.20213    | 0.20825    | 0.21721    |   0.8 |  8.61
Comm    | 0.76164    | 0.85508    | 0.92052    |   4.1 | 35.35
Output  | 0.00024329 | 0.00024691 | 0.00030947 |   0.0 |  0.01
Modify  | 0.23196    | 0.2526     | 0.31596    |   4.8 | 10.44
Other   |            | 0.01511    |            |       |  0.62

Nlocal:        83.3333 ave          91 max          75 min
Histogram: 3 4 3 3 6 11 6 3 6 3
Nghost:        1584.31 ave        1617 max        1562 min
Histogram: 2 6 7 8 11 5 5 1 2 1
Neighs:        9023.27 ave       10118 max        7893 min
Histogram: 3 2 5 6 7 9 5 5 3 3

Total # of neighbors = 433117
Ave neighs/atom = 108.27925
Neighbor list builds = 902
Dangerous builds = 184

# Equilibrate just above the melting temperature to avoid step fn in T

fix 1 all npt temp 1.25 1.25 0.1 iso 5.68 5.68 0.5 mtk yes tchain 5 pchain 5
run 2000
Per MPI rank memory allocation (min/avg/max) = 3.643 | 3.645 | 3.649 Mbytes
Step Temp E_pair E_mol TotEng Press Volume 
   10000    2.4582851   -1.4978054            0    2.1887003    5.8001638    4228.6333 
   11000    1.2369784   -2.3097888            0  -0.45478506    5.6698259    3321.9567 
   12000    1.2674962   -2.3430624            0  -0.44229332    5.6280117    3306.9475 
Loop time of 0.567578 on 48 procs for 2000 steps with 4000 atoms

Performance: 608903.334 tau/day, 3523.746 timesteps/s
99.6% CPU use with 48 MPI tasks x no OpenMP threads

MPI task timing breakdown:
Section |  min time  |  avg time  |  max time  |%varavg| %total
---------------------------------------------------------------
Pair    | 0.24765    | 0.27216    | 0.28734    |   1.7 | 47.95
Neigh   | 0.036987   | 0.039857   | 0.041628   |   0.5 |  7.02
Comm    | 0.18678    | 0.20593    | 0.23451    |   2.2 | 36.28
Output  | 5.2953e-05 | 5.4289e-05 | 6.9518e-05 |   0.0 |  0.01
Modify  | 0.04081    | 0.044855   | 0.048795   |   1.0 |  7.90
Other   |            | 0.004727   |            |       |  0.83

Nlocal:        83.3333 ave          94 max          74 min
Histogram: 1 1 5 10 9 10 5 3 3 1
Nghost:        1865.33 ave        1898 max        1836 min
Histogram: 1 6 7 8 6 5 5 3 5 2
Neighs:        11548.2 ave       13269 max        9754 min
Histogram: 1 1 4 7 8 15 5 3 2 2

Total # of neighbors = 554312
Ave neighs/atom = 138.57800
Neighbor list builds = 143
Dangerous builds = 6

#############################
# L I N E A R  Q U E N C H  #
#############################

# Define solid atoms. This closely follows ten Wolde  Ruiz-Montero and Frenkel  Faraday Discuss  1996  104  93-110
# Compute components of the per-atom q6 vector
compute q6 all orientorder/atom degrees 1 6 components 6 nnn NULL cutoff 1.3 # compute the Q6 parameter.
                                                                             # Use all neighbours within 1.3 unit cell.

# get number of connections
compute coord_number all coord/atom orientorder q6 0.5

# An atom is solid if it has 8 or more connections (of a possible 14)
variable is_solid atom c_coord_number>=8
group solid dynamic all var is_solid    # Must be dynamic to update
dynamic group solid defined

# do clustering
compute cluster solid cluster/atom 1.3 # Create a cluster where all atoms within are solid and max 1.3 units from another member

# define chunks one chunk per cluster
compute clus_chunks solid chunk/atom c_cluster nchunk every compress yes  # Says which atoms are in which chunk

# count the size of each chunk
compute size_chunks solid property/chunk clus_chunks count


# Find the maximum entry in the vector of chunk sizes
variable max_n equal max(c_size_chunks)


# Thermo style which includes this variable
# thermo_style custom step temp pe vol v_max_n

thermo ${N}  # Print the thermo information every 100 steps
thermo 1000  

# Reset the npt fix at a lower temperature (below freezing)
fix 1  all npt temp  ${temp} ${temp}  0.1  iso  5.68  5.68  0.5  mtk yes tchain  5  pchain  5
fix 1  all npt temp  0.45 ${temp}  0.1  iso  5.68  5.68  0.5  mtk yes tchain  5  pchain  5
fix 1  all npt temp  0.45 0.45  0.1  iso  5.68  5.68  0.5  mtk yes tchain  5  pchain  5

dump dmp2 all dcd ${N} traj.dcd
dump dmp2 all dcd 1000 traj.dcd


compute msd all msd com yes
variable twopoint equal c_msd[4]/6/(step*dt+1.0e-6)
fix 9 all vector 10 c_msd[4]
variable fit equal slope(f_9)/6/(10*dt)
thermo_style custom step temp pe c_msd[4] v_twopoint v_fit v_max_n

fix 1 all npt temp 1.25 ${temp} 0.1 iso 5.68 5.68 0.5 mtk yes tchain 5 pchain 5
fix 1 all npt temp 1.25 0.45 0.1 iso 5.68 5.68 0.5 mtk yes tchain 5 pchain 5
run 2000000 # 5000000  # Run for this many steps
Neighbor list info ...
  update every 1 steps, delay 10 steps, check yes
  max neighbors/atom: 2000, page size: 100000
  master list distance cutoff = 3.8
  ghost atom cutoff = 3.8
  binsize = 1.9, bins = 8 8 8
  4 neighbor lists, perpetual/occasional/extra = 1 3 0
  (1) pair lj/cut, perpetual
      attributes: half, newton on
      pair build: half/bin/atomonly/newton
      stencil: half/bin/3d
      bin: standard
  (2) compute orientorder/atom, occasional
      attributes: full, newton on
      pair build: full/bin/atomonly
      stencil: full/bin/3d
      bin: standard
  (3) compute coord/atom, occasional
      attributes: full, newton on
      pair build: full/bin/atomonly
      stencil: full/bin/3d
      bin: standard
  (4) compute cluster/atom, occasional
      attributes: full, newton on
      pair build: full/bin/atomonly
      stencil: full/bin/3d
      bin: standard
Per MPI rank memory allocation (min/avg/max) = 9.810 | 9.819 | 9.828 Mbytes
Step Temp PotEng c_msd[4] v_twopoint v_fit v_max_n 
   12000    1.2674962   -2.3430624 2.0995533e-30 1.4580231e-32 8.3333333e+20            2 
   13000     1.253659   -2.3178014     1.226432  0.007861743   0.10377381            2 
   14000    1.2617152   -2.3192449    2.4804443  0.014764549   0.10638583            2 
   15000    1.2407701   -2.3038366    3.8304981  0.021280544   0.10764538            2 
   16000    1.2668765   -2.3149819    5.0808083  0.026462542   0.10798576            2 
   17000    1.2551622   -2.3106391    6.3050301  0.030907009   0.10723992            1 
   18000    1.2440534   -2.3353303    7.6796113  0.035553755    0.1067721            2 
   19000     1.242545    -2.309332    9.0264183  0.039589553    0.1072769            1 
   20000    1.2500189   -2.3176324    10.438793  0.043494969   0.10809346            1 
   21000    1.2311796   -2.3275925    11.834649  0.046962893   0.10937803            2 
   22000    1.2314263   -2.3460486    13.032823  0.049366753   0.10999457            1 
   23000    1.2474215   -2.2797685     14.54713  0.052706991   0.11013345            1 
   24000    1.2454762    -2.349753    15.718567  0.054578355   0.11040309            1 
   25000    1.2460528   -2.3375467    17.217857  0.057392855   0.11094452            1 
   26000    1.2243771    -2.325564    18.705849  0.059954642   0.11155762            1 
   27000    1.2543868   -2.3293436    19.992336   0.06170474   0.11203781            1 
   28000    1.2616598   -2.3411653    21.354006  0.063553589   0.11228106            1 
   29000    1.2702315   -2.3324719    22.794261   0.06550075    0.1125406            1 
   30000    1.2491123   -2.3568943    24.141759   0.06706044   0.11273347            1 
   31000    1.2488967   -2.3555008    25.512336  0.068581546   0.11286645            1 
   32000    1.2377296   -2.3601337    26.834048  0.069880332   0.11302484            1 
   33000    1.2873558   -2.3176533    28.253392   0.07134695   0.11315215            1 
   34000    1.2260238   -2.3297366     29.64827  0.072667327   0.11323916       -1e+20 
   35000     1.217973   -2.3466134    30.586616  0.072825276   0.11315017            1 
   36000    1.2450352    -2.352038    32.123618  0.074360227   0.11307938            1 
   37000    1.2422258    -2.326416    33.254819  0.074898241   0.11294794            2 
   38000    1.2384537   -2.3434361    34.183262  0.074963292   0.11263307            2 
   39000    1.2507794    -2.311951    35.907786  0.076726038   0.11233651            1 
   40000    1.2307677    -2.311689    37.194279  0.077488081   0.11220115            1 
   41000    1.2068592   -2.3193301    38.488763  0.078229193   0.11206432            1 
   42000    1.2467435   -2.3091164    39.989928  0.079345094   0.11191856            2 
   43000    1.2580383    -2.356054    41.049093  0.079552504   0.11180361            4 
   44000    1.2375708   -2.3208536    42.559855  0.080605784   0.11169946            2 
   45000    1.2366684    -2.324871    43.630672  0.080797539   0.11158794            2 
   46000    1.2218754    -2.330173    44.788682  0.081138915   0.11145619            2 
   47000    1.2284961   -2.3294288    46.334099  0.082152657   0.11129899            1 
   48000    1.2236603   -2.3294396     47.51937  0.082498905   0.11116559            1 
   49000    1.2290461   -2.3218422    48.636683  0.082715447   0.11102145            1 
   50000    1.2566424   -2.3107663      49.7717  0.082952832   0.11081068            1 
   51000    1.2237046   -2.3262891    50.850056  0.083088326   0.11059538            2 
   52000    1.2459388   -2.3475125    52.390368  0.083958922   0.11039189            1 
   53000    1.2054137   -2.3648827    53.855851   0.08467901   0.11022673            2 
   54000    1.2218807   -2.3186676    55.274414  0.085300021   0.11015018            2 
   55000    1.2060825   -2.3577961    56.466733  0.085555656    0.1101032            2 
   56000    1.2352467    -2.318799    58.223374  0.086641925   0.11007028            1 
   57000    1.2520705   -2.2934217    59.212583  0.086568103   0.11002267            2 
   58000    1.2383232   -2.3652029    60.758157  0.087296202   0.10996784            1 
   59000    1.2316181   -2.3384312    62.040234  0.087627448   0.10992614            1 
   60000    1.2528632   -2.3602786    63.297201  0.087912779   0.10993277            3 
   61000    1.2221737    -2.344999    64.845533  0.088586793   0.10996624            1 
   62000    1.2388281   -2.3258003     66.39713  0.089243454   0.11001867            1 
   63000     1.238041   -2.3520611    67.748203  0.089614024   0.11006302            1 
   64000    1.2258216   -2.3459459    68.777828  0.089554463   0.11005396            1 
   65000    1.2463368   -2.3513085    69.608877  0.089242149   0.11002378            3 
   66000    1.2509106   -2.3131724    71.426916  0.090185499   0.11001479            2 
   67000    1.2332041   -2.3434415    72.362063  0.090002565      0.10999            6 
   68000    1.2406154   -2.3616208    73.884844  0.090545152   0.10995418            2 
   69000     1.256421   -2.3695409    74.755092  0.090283927   0.10991487            1 
   70000    1.2332092   -2.3163267    76.137293  0.090639634   0.10988324            2 
   71000    1.2544124   -2.3353397    77.513571  0.090978369   0.10985426            1 
   72000    1.2386174   -2.3505313    78.963831  0.091393322   0.10984277            1 
   73000    1.2145463   -2.3266968    80.252623  0.091612582   0.10980114            1 
   74000    1.2358733   -2.3245585    81.426752  0.091696792   0.10974965            1 
   75000    1.2298084   -2.3547646    83.054774  0.092283081   0.10968231            1 
   76000    1.2546683   -2.3426607    84.200645  0.092325268   0.10961962            1 
   77000    1.2309165   -2.3270247    85.571738  0.092610105   0.10956101            1 
   78000    1.2267693   -2.3599512    86.676777  0.092603394   0.10954856            2 
   79000    1.2404076   -2.3687973    87.869918  0.092689787   0.10953907            2 
   80000      1.21843   -2.3536038    89.942482  0.093690085   0.10954563            1 
   81000    1.2425405   -2.3629147    90.863838  0.093481314   0.10953552            2 
   82000    1.2125652   -2.3415092    91.917052  0.093411638   0.10951523            1 
   83000    1.2256853   -2.3578343    93.350084  0.093724984   0.10948711            1 
   84000    1.2067872    -2.357557    94.149265  0.093402048   0.10945499            2 
   85000    1.2352438   -2.3511946    95.890954  0.094010739   0.10940643            2 
   86000    1.2376694    -2.344859     96.84359  0.093840687   0.10933665            2 
   87000    1.2167425   -2.3159303    98.030241  0.093898697   0.10928768            1 
   88000    1.2340496   -2.3405628    99.089386  0.093834645   0.10921387            1 
   89000    1.2587224   -2.3350881    100.24766  0.093864852   0.10913291            1 
   90000     1.225321   -2.3498853    101.38191  0.093872134   0.10905075            2 
   91000    1.2180166   -2.3708037     102.4016  0.093774357   0.10897433            1 
   92000    1.2326649   -2.3585966    104.47026  0.094628857   0.10891771            1 
   93000    1.2235947   -2.3389079     105.6753  0.094691128   0.10887723            1 
   94000    1.2294387    -2.337619    107.15865  0.094998805   0.10884628            2 
   95000    1.1851304   -2.3743951    108.47923  0.095157217   0.10881506            2 
   96000    1.1972351   -2.3263263    109.46715  0.095023566   0.10875809            1 
   97000     1.194681   -2.3468847    110.34394    0.0947972   0.10869263            3 
   98000     1.223785   -2.3572092    111.57104  0.094873335   0.10861828            1 
   99000    1.2146591   -2.3434063    113.10193  0.095203644   0.10856489            1 
  100000    1.1898655   -2.3093173    114.70515  0.095587623   0.10852406            4 
  101000    1.2030504   -2.3616367    115.84468  0.095581419   0.10848735            1 
  102000    1.1956321   -2.3593394    117.91004  0.096331731   0.10845465            1 
  103000    1.2085698    -2.348495    118.24142  0.095664581    0.1084061            2 
  104000    1.1923619   -2.3845665     119.6452  0.095869552   0.10836244            1 
  105000    1.2441772   -2.3439686    120.94449  0.095987692   0.10832245            3 
  106000    1.2317372   -2.3452876      121.413  0.095450475   0.10827173            6 
  107000    1.2206383   -2.3616562    123.14611  0.095908183   0.10821782            3 
  108000    1.2205632   -2.3390188    123.90061   0.09560232     0.108156            1 
  109000    1.2108286   -2.3644672    125.42838  0.095893259   0.10809328            1 
  110000     1.223681   -2.3563252     126.0184  0.095468487   0.10803727            1 
  111000    1.2354998   -2.3532956    128.03847  0.096124977   0.10799144            2 
  112000    1.1820477   -2.3527796    129.35233  0.096244292   0.10792521            2 
  113000     1.222602   -2.3874187    130.23855  0.096046127   0.10787509            1 
  114000    1.2111922   -2.3780539    131.66183   0.09624403   0.10781212            2 
  115000    1.2239289   -2.3556408    133.62322  0.096828416   0.10776256            1 
  116000    1.2199903   -2.3788346    133.95102  0.096229183   0.10771335            1 
  117000    1.2042245   -2.3558458    136.11185  0.096945762   0.10767827            1 
  118000    1.2000555   -2.3501589    137.53394  0.097128489   0.10763243            2 
  119000    1.1956739   -2.3846935    138.05508  0.096677224   0.10759615            1 
  120000     1.224584   -2.3234091      139.476  0.096858331   0.10756755            1 
  121000    1.2000173   -2.3808687    140.78689  0.096960664   0.10753894            1 
  122000    1.1968383   -2.3522197    142.13782  0.097088676   0.10752654            1 
  123000    1.2099743   -2.3666169    143.78326  0.097414135   0.10750735            1 
  124000    1.2089087    -2.352931    144.95879   0.09741854   0.10749131            1 
  125000    1.2139949    -2.362936    146.34826  0.097565503   0.10746474            4 
  126000    1.2098597   -2.3597718    147.44054  0.097513585   0.10741798            1 
  127000    1.2252369   -2.3587853    147.63796  0.096875305   0.10736796            3 
  128000    1.1933716   -2.3799646    147.85407  0.096259158   0.10731753            1 
  129000    1.2175566   -2.3829483    149.82221  0.096784376   0.10724668            2 
  130000    1.1971325   -2.3565553    151.40602  0.097055143    0.1071857            1 
  131000    1.1877636   -2.3823427    151.95214  0.096661665   0.10711917            1 
  132000    1.2213865   -2.3733998    152.70217  0.096402886   0.10704951            1 
  133000    1.2037577   -2.3500977    153.96921  0.096471936   0.10697583            2 
  134000    1.2020989   -2.3799165    155.11355  0.096463652   0.10691226            1 
  135000    1.2117292   -2.3690119    156.84576  0.096818367   0.10683328            3 
  136000    1.2137814   -2.3427406    158.82312  0.097318086   0.10677671            1 
  137000    1.1806936   -2.3788813    159.20543  0.096840285   0.10671708            1 
  138000    1.1957361   -2.3754306    161.11471  0.097291488    0.1066633            1 
  139000    1.2001161   -2.3573648    162.58751  0.097474527    0.1066307            1 
  140000    1.1950367   -2.3794992    163.68117  0.097429268   0.10658605            2 
  141000    1.2238258   -2.3641768    165.19004  0.097630049   0.10655301            1 
  142000    1.1710794   -2.3552219    166.50272  0.097712864   0.10652535            1 
  143000     1.204823   -2.3570894    166.74391  0.097170108   0.10648943            1 
  144000     1.190291   -2.3674779    168.94355  0.097768255   0.10645266            1 
  145000    1.2001742   -2.3605444    169.79325  0.097582328   0.10641809            2 
  146000    1.1947829   -2.3507295    171.35181  0.097803543   0.10638208            1 
  147000    1.2146749   -2.3857309    172.23955  0.097641468   0.10635317            1 
  148000    1.1759141   -2.3951606    174.04955  0.098000872   0.10631662            2 
  149000    1.1856926   -2.3624989    175.19538   0.09798399   0.10627935            2 
  150000    1.2029877   -2.3718552     175.5152  0.097508447   0.10624313            1 
  151000    1.2058672   -2.3927393    177.64486  0.098038002   0.10621744            1 
  152000    1.2008083   -2.3765952     179.8216  0.098586406   0.10619024            1 
  153000    1.1997713   -2.3857331    180.63611  0.098385682   0.10617558            2 
  154000    1.1948892   -2.3605399    182.35343  0.098676099   0.10616042            2 
  155000    1.1904255   -2.3992577    183.47641  0.098643233   0.10613921            3 
  156000    1.1952298   -2.3536063    184.49329  0.098554109   0.10612355            1 
  157000    1.1986171   -2.3931632    185.21623  0.098310099   0.10610127            1 
  158000    1.2334996    -2.368728    186.90593  0.098579079   0.10608384            1 
  159000    1.1702121   -2.4109238    187.43434  0.098236026   0.10607318            3 
  160000    1.2021032   -2.3482902    190.30699  0.099118223   0.10606746            1 
  161000    1.2083469   -2.3796092    191.92739    0.0993413   0.10606672            1 
  162000    1.1714101   -2.3809372     192.3114  0.098925617   0.10607038            2 
  163000    1.1714846    -2.372944    193.18993   0.09876786   0.10607241            1 
  164000    1.1992732   -2.3857627    195.61997  0.099400389   0.10607394            1 
  165000    1.1842662   -2.3626721    196.48769  0.099236207    0.1060765            3 
  166000    1.1867267   -2.3812282    197.52183  0.099157547   0.10607262            2 
  167000    1.2077646   -2.3997157    199.11796   0.09936026   0.10607288            2 
  168000    1.1774276   -2.4010369    201.10702  0.099755465   0.10607204            1 
  169000    1.1963421   -2.3840053    202.01739  0.099614096   0.10608138            3 
  170000    1.1627968    -2.366904    203.28218  0.099648125   0.10609204            1 
  171000    1.1985858   -2.3677882    204.22936  0.099526976   0.10609641            1 
  172000    1.1912172   -2.3671835    205.56067  0.099593349   0.10610596            1 
  173000    1.1797521   -2.3823003    206.43985  0.099441159   0.10610582            1 
  174000    1.2178467   -2.3977632    207.33312  0.099297469   0.10610599            2 
  175000    1.1926026   -2.3929692    208.30004  0.099190496   0.10609832            3 
  176000    1.2024446   -2.3552719    209.93537  0.099401216   0.10608898            1 
  177000    1.1484572   -2.3776149    211.01873  0.099349682    0.1060792            1 
  178000    1.2102792    -2.355802    212.93731  0.099689752   0.10607152            2 
  179000    1.1801818   -2.3944564    213.18725  0.099249186   0.10605644            2 
  180000    1.1748123   -2.3997103    214.63002  0.099365751   0.10603872            1 
  181000    1.1884766   -2.4386319    215.30118  0.099125775   0.10601555            1 
  182000    1.1677975   -2.4051548    217.39449  0.099539602   0.10599857            3 
  183000    1.1887633   -2.3834001    216.85939  0.098751998   0.10597791            2 
  184000    1.1706774   -2.3663051    219.74185  0.099520767   0.10595732            1 
  185000    1.1801022   -2.3965489    220.38946  0.099274533   0.10593091            1 
  186000    1.1609495   -2.3688012    220.41493  0.098752208   0.10589445            1 
  187000     1.187727   -2.4161983    221.24759  0.098595181   0.10585477            1 
  188000    1.1886397   -2.4208139    221.78567   0.09830925   0.10580246            2 
  189000    1.1996089   -2.3952047    223.42631  0.098512484    0.1057473            1 
  190000    1.1781647   -2.3753961    224.82913  0.098609269   0.10569821            1 
  191000    1.1725721   -2.4200034     224.5349  0.097964614   0.10564494            1 
  192000     1.155037   -2.3611705    227.62126  0.098793951   0.10558972            3 
  193000    1.1812881   -2.3991749    227.63019  0.098285921   0.10554006            4 
  194000    1.1595545   -2.4015744    229.28402  0.098489698    0.1054933            3 
  195000    1.1777991   -2.4333931    230.31361   0.09842462   0.10544866            2 
  196000    1.1519671   -2.3834276    232.43624  0.098824931   0.10540818            3 
  197000     1.169681   -2.3966853    233.50835  0.098776796   0.10537994            2 
  198000    1.1335266   -2.4079185    235.03704  0.098921311   0.10534412            2 
  199000     1.175109   -2.3709054    236.33046  0.098965854   0.10531117            3 
  200000    1.1486344   -2.4047257    237.02946  0.098762274   0.10528576            1 
  201000    1.1860195   -2.3724582    240.23806  0.099601184   0.10525753            1 
  202000    1.1811692   -2.3751303    241.22253  0.099514244   0.10522991            1 
  203000    1.1653128   -2.4049527    241.01492  0.098938802   0.10520244            2 
  204000    1.1783032   -2.3975354    242.16604  0.098924038   0.10516925            2 
  205000      1.18375   -2.3811912    243.97591    0.0991772   0.10513842            1 
  206000    1.1740664   -2.4095901    244.19775  0.098785496   0.10510127            3 
  207000    1.1487951   -2.4123255    246.33878  0.099170201    0.1050644            3 
  208000    1.1828439   -2.3752844    246.88317  0.098911527   0.10503424            1 
  209000    1.1970831   -2.3920912    247.56059  0.098708367   0.10499933            2 
  210000    1.1885152   -2.4059865    249.40386  0.098969786   0.10497135            1 
  211000    1.1874098   -2.4006453     249.9363  0.098711017   0.10494343            1 
  212000    1.1653225   -2.4048733    252.01587  0.099062842   0.10491698            1 
  213000    1.1661079   -2.3942065    252.89772  0.098942771   0.10488793            1 
  214000    1.1918898   -2.4207415    255.84257   0.09962717   0.10486322            2 
  215000    1.1851434   -2.3852513    255.73675  0.099122772   0.10484019            2 
  216000    1.1588868   -2.4036987    258.04141  0.099553012   0.10481804            1 
  217000    1.1729061   -2.4056679    258.45248  0.099252105    0.1047943            2 
  218000    1.1810984   -2.4276014    260.24146   0.09948068   0.10477864            1 
  219000    1.1530168   -2.3930727    260.07588  0.098963423   0.10475548            1 
  220000     1.161315   -2.4338939    262.14778  0.099298402   0.10473263            2 
  221000    1.1887927   -2.3792398    264.06298  0.099571259   0.10471797            2 
  222000     1.162995   -2.3931979    266.19506  0.099923071   0.10470468            2 
  223000     1.191621   -2.4007746    264.68072  0.098909089   0.10468408            1 
  224000    1.1514925   -2.4055652     266.9552   0.09931369   0.10466362            1 
  225000    1.1617987   -2.3954173    267.75381  0.099168078   0.10464198            2 
  226000    1.1806767   -2.4097235     270.5624  0.099764896   0.10462876            2 
  227000     1.169788   -2.3972495    271.08756  0.099518193   0.10461517            3 
  228000    1.1638716   -2.4429134    272.32401  0.099533629   0.10459915            1 
  229000    1.1401674   -2.4072988    274.05442  0.099728684   0.10459017            1 
  230000    1.1731826   -2.4018668    276.41027   0.10014865   0.10458177            1 
  231000    1.1539524   -2.3935479    277.10952   0.09996736   0.10456861            2 
  232000    1.1607474   -2.3968859    278.04419  0.099872196   0.10455923            2 
  233000    1.1489311   -2.4063581    279.63432   0.10001228   0.10454807            2 
  234000    1.1337492   -2.3688056    280.11167  0.099754866   0.10453726            1 
  235000    1.1778624   -2.3977004    280.77025  0.099563918   0.10452454            2 
  236000    1.1710988   -2.4137777    280.62744  0.099091611   0.10450553            2 
  237000    1.1626916   -2.4321074    283.12683  0.099552331   0.10448861            1 
  238000     1.161091    -2.416461    284.77733   0.09971195   0.10447034            3 
  239000    1.1653429   -2.4090909    286.86444   0.10002247   0.10445466            1 
  240000    1.1693791   -2.3790599    286.74564  0.099564457   0.10444315            1 
  241000    1.1280841   -2.3846432    288.84473  0.099877156   0.10443308            1 
  242000    1.1506746   -2.3888926    289.83082     0.099804   0.10442328            1 
  243000    1.1604377   -2.3802023    290.50437  0.099624271   0.10441163            1 
  244000     1.160878    -2.427048    290.19656  0.099110847   0.10439479            2 
  245000    1.1707576   -2.4077934    294.36399   0.10012381     0.104379            1 
  246000    1.1518827   -2.3878796    294.25212  0.099678902   0.10436422            4 
  247000    1.1859594    -2.431676    293.99601  0.099188936   0.10434816            2 
  248000    1.1398564   -2.4405544    297.08445  0.099826765   0.10432886            1 
  249000    1.1559835   -2.4236433    297.60258  0.099599256   0.10431182            2 
  250000    1.1664419   -2.4331802    298.28674  0.099428913   0.10429407            1 
  251000    1.1567338   -2.3842155    300.12807  0.099644115   0.10428218            2 
  252000     1.137895   -2.3921034    301.05447  0.099555048   0.10427227            2 
  253000    1.1411106   -2.3990513    303.32019  0.099907834    0.1042589            1 
  254000    1.1708201   -2.4149823    303.01587  0.099414656   0.10424125            1 
  255000    1.1702514    -2.430041    306.19917   0.10006509   0.10422743            1 
  256000    1.1785283   -2.4395631    307.67539   0.10015475   0.10421153            2 
  257000    1.1357846   -2.4139272    308.72099   0.10010408   0.10420115            3 
  258000     1.125361   -2.4157837    309.20744  0.099873204   0.10419615            2 
  259000    1.1432519   -2.4144477    310.70721  0.099970144   0.10418834            1 
  260000    1.1198891   -2.3965567    313.23946   0.10039726   0.10418368            4 
  261000    1.1360667   -2.4404284    314.00055    0.1002556   0.10417686            2 
  262000    1.1461027   -2.4139914    315.53299   0.10036037   0.10417167            3 
  263000    1.1517264   -2.3897356     315.8803   0.10008881   0.10416197            1 
  264000    1.1562504   -2.4359179    315.94474  0.099730031   0.10414989            2 
  265000    1.1488941   -2.3949481    318.69791   0.10021947    0.1041365            2 
  266000    1.1496295   -2.4027331    317.54941  0.099482898   0.10411762            8 
  267000    1.1377595   -2.4122564    318.96955  0.099553543   0.10409562            2 
  268000    1.1442622   -2.4366801    320.39139  0.099624189    0.1040763            2 
  269000    1.1654945   -2.4168249    321.68577  0.099654825   0.10405444            3 
  270000     1.124689   -2.4018393    323.08833  0.099718621   0.10403056            4 
  271000    1.1436023   -2.4238219    324.49203  0.099782296   0.10400878            1 
  272000    1.1494584   -2.4111084    325.49726  0.099723424   0.10398719            2 
  273000      1.12897   -2.4421735    326.09102  0.099539383   0.10396619            1 
  274000    1.1472298   -2.4286669    328.40831  0.099880874   0.10394548            1 
  275000     1.121283   -2.4187657    327.98355  0.099388954   0.10392063            2 
  276000    1.1243542   -2.4334311     329.4647  0.099476057   0.10390028            1 
  277000    1.1239692   -2.4442718     330.8465   0.09953264   0.10388115            1 
  278000    1.1426421   -2.4400534    331.87308  0.099482339   0.10385977            2 
  279000    1.1576109   -2.4355606    331.39169  0.098981985   0.10383996            1 
  280000    1.1401889   -2.4153952    334.43383  0.099533879   0.10381516            2 
  281000    1.1187322   -2.4227205    334.04634   0.09906475   0.10378901            1 
  282000     1.151232   -2.4428635    334.00548  0.098701384   0.10375978            1 
  283000    1.1444721     -2.46502    334.73965  0.098568802    0.1037254            5 
  284000    1.1486457   -2.4366334    336.80402   0.09882747   0.10369148            2 
  285000     1.120749   -2.4598674    337.20878   0.09859906   0.10365316            2 
  286000    1.1425477   -2.4432459    337.85739  0.098443294   0.10361266            3 
  287000    1.1425471   -2.4293902    339.77314  0.098656545   0.10357187            1 
  288000    1.1343038   -2.4756467    339.15982  0.098136522   0.10352976            1 
  289000    1.1624503   -2.4075497     341.4572    0.0984594   0.10348997            2 
  290000    1.1307972    -2.433339    341.39681  0.098102532   0.10345236            2 
  291000    1.1222739   -2.4532579    343.77875  0.098447521   0.10341448            2 
  292000    1.1476957   -2.4359294    346.64682  0.098928887   0.10337696            3 
  293000    1.1423288   -2.4142334    348.19458   0.09903145   0.10334395            2 
  294000    1.1444401   -2.4549408    348.64734  0.098822943   0.10331356            1 
  295000    1.1242671    -2.429252    349.36792  0.098691504   0.10327987            1 
  296000    1.1310953   -2.4138509    350.64959  0.098718916   0.10324632            2 
  297000     1.113043   -2.4494363    349.57645  0.098085424   0.10320955            1 
  298000      1.14145   -2.4625733    351.77455  0.098370958   0.10317649            2 
  299000    1.1264412   -2.4351178    352.97052  0.098375284   0.10313978            2 
  300000    1.1419136   -2.3870863    353.52981  0.098202725   0.10309933            2 
  301000    1.1280359   -2.4374368     352.6617  0.097636129   0.10305592            1 
  302000    1.1224786   -2.4346405    354.71449  0.097879275   0.10300923            3 
  303000    1.1306905     -2.43284    356.59423   0.09807322   0.10296009            2 
  304000    1.1259449   -2.4190529    357.22534  0.097923612    0.1029116            1 
  305000    1.1667114   -2.4101533    357.50601  0.097679236   0.10286446            5 
  306000    1.1360144   -2.4282363    359.51208   0.09790634   0.10281748            3 
  307000    1.1386296   -2.4462583    360.54158  0.097866879   0.10276683            1 
  308000    1.1401998   -2.4563816    360.90204  0.097646655    0.1027159            1 
  309000    1.1143975    -2.455605    361.95209  0.097613833   0.10266816            2 
  310000    1.1290928   -2.4429137    362.60616  0.097474775   0.10261769            2 
  311000    1.1171677   -2.4529053    362.89217  0.097237988    0.1025661            5 
  312000    1.1528137   -2.4227027    365.24643  0.097555136   0.10251245            1 
  313000    1.1412317   -2.4496262    367.24218  0.097774809   0.10246716            2 
  314000    1.1445222   -2.4367106    368.20303  0.097718426   0.10242232            3 
  315000    1.0909481   -2.4139032    368.44674  0.097472683   0.10237373            3 
  316000    1.1280906   -2.4581419    369.36048   0.09740519   0.10232788            1 
  317000    1.1385655   -2.4413327    371.78547  0.097735402   0.10228508            3 
  318000    1.1105664    -2.471559    369.72369  0.096887758   0.10224278            2 
  319000    1.1382842   -2.4537985    372.87285  0.097406701   0.10219782            6 
  320000    1.1585118   -2.4265138     377.3813  0.098276379   0.10215535            2 
  321000    1.1414178   -2.4611319    374.84103  0.097310754   0.10210769            3 
  322000    1.1289773   -2.4145573    378.02107  0.097831538   0.10206031            2 
  323000    1.1336834   -2.4385461    377.80682  0.097473378   0.10201129            2 
  324000      1.12822   -2.4734876    376.90918  0.096941662   0.10196469            1 
  325000    1.1353959   -2.4488832    378.31898  0.097004866   0.10191597            2 
  326000    1.0982365   -2.4377106    382.02766  0.097655333   0.10186768            1 
  327000    1.1333931   -2.4083609    380.89682  0.097068507   0.10182257            1 
  328000    1.1265833   -2.4529554    382.40745  0.097156364   0.10177752            2 
  329000    1.1199403   -2.4423537    383.00208  0.097011671   0.10173324            1 
  330000    1.1354396   -2.4258905    384.45223  0.097083896   0.10168887            4 
  331000    1.1140834   -2.4466811    386.07952  0.097200281   0.10164584            1 
  332000    1.1224247   -2.4416941    386.22648  0.096944398   0.10159986            2 
  333000    1.1241095    -2.427778    388.15112  0.097134915   0.10155621            4 
  334000    1.0851244   -2.4805939    388.28524  0.096877554   0.10151036            1 
  335000    1.1284738   -2.4137701    390.10077  0.097039993   0.10146568            2 
  336000    1.1087108   -2.4408007    393.16002  0.097509924   0.10142223            2 
  337000     1.119129   -2.4602047    393.48486  0.097300905   0.10137941            1 
  338000     1.120519   -2.4636409    396.00541  0.097634469   0.10133849            3 
  339000    1.1213024   -2.4351593    394.54915  0.096988483   0.10129864            1 
  340000     1.105403   -2.4597916     396.9784  0.097298628   0.10125604            2 
  341000    1.1073258   -2.4351006    395.82153  0.096730579   0.10120864            1 
  342000    1.0855587   -2.4147699    397.53385  0.096864974   0.10116245            2 
  343000     1.118706   -2.4886019    396.76211   0.09639507   0.10111413            2 
  344000    1.1313852   -2.4792534    399.25076  0.096717723   0.10106429            2 
  345000    1.0993956   -2.4376998     400.9083  0.096837753   0.10101603            2 
  346000    1.1342429   -2.4477265     401.4122   0.09667924   0.10096721            1 
  347000    1.1088049   -2.4769801     400.7713  0.096246709   0.10092044            2 
  348000    1.1007407   -2.4182412    402.56596  0.096399895   0.10087191            1 
  349000    1.1156401   -2.4391965     403.5364  0.096355395    0.1008219            1 
  350000    1.0936052   -2.4331236    405.26356  0.096491323   0.10077352            2 
  351000    1.1199155   -2.4535387    406.27002   0.09645537   0.10072534            3 
  352000    1.1236903   -2.4489002    408.21063  0.096640774   0.10068054            2 
  353000    1.1091285   -2.4193262    407.61406   0.09622617   0.10063334            2 
  354000    1.0996153   -2.4347577     410.7311  0.096688112   0.10058961            2 
  355000    1.1011875   -2.4556062    410.35607  0.096327716   0.10054468            1 
  356000    1.1208279   -2.4257918    414.58717  0.097047557   0.10050255            1 
  357000    1.0943869   -2.4415012    412.76002  0.096349211   0.10046251            1 
  358000    1.1262725   -2.4711531     414.1045   0.09639304   0.10042419            1 
  359000    1.0853026   -2.4551214    415.94239  0.096551159   0.10038213            2 
  360000    1.1081283   -2.4541871    418.57788  0.096893027   0.10034019            2 
  361000    1.0983148   -2.4654474    419.53854  0.096846384   0.10030171            2 
  362000    1.0906787   -2.4575225    420.07138  0.096701515   0.10026492            2 
  363000    1.0984047   -2.4818271    418.80673  0.096144795   0.10022356            1 
  364000    1.1035141   -2.4667896    420.11669  0.096180561   0.10018201            1 
  365000    1.1185909   -2.4520292    423.25074  0.096632588   0.10013939            1 
  366000    1.1126499   -2.4417451    421.06903   0.09587182   0.10009733            2 
  367000    1.1178658   -2.4800693    422.76449   0.09599557   0.10005164            1 
  368000    1.1079091   -2.4646886    421.77901   0.09551155   0.10000639            1 
  369000    1.1183528   -2.4664817    426.84814  0.096397501  0.099959145            2 
  370000    1.1297205   -2.4683096     427.6287   0.09631277  0.099914916            1 
  371000    1.1122185   -2.4682999    425.86663  0.095657374  0.099867458            2 
  372000    1.1082578   -2.4712172    426.71572  0.095590438  0.099818047            2 
  373000    1.1133865   -2.4437951    430.34138  0.096144187   0.09977086            1 
  374000    1.1118346   -2.4967981    429.06932   0.09560368  0.099724365            4 
  375000    1.0641352   -2.4599665    430.22513  0.095605585  0.099675485            1 
  376000    1.1143312   -2.4508617    430.59385  0.095433033  0.099630222            2 
  377000    1.0820027   -2.4590229      431.527  0.095386162  0.099584888            5 
  378000    1.0941003   -2.4884459    433.61506  0.095594148  0.099540531            1 
  379000    1.1211251   -2.4606362    434.12476  0.095453993  0.099492475            2 
  380000    1.1331914   -2.4619976    434.91798  0.095376751  0.099443694            2 
  381000    1.1218917   -2.4980646    436.41232  0.095453263  0.099398077            4 
  382000    1.0873134   -2.4767706    439.93229  0.095971268  0.099352588            1 
  383000    1.1068391   -2.4670037    439.95249  0.095725086   0.09930654            2 
  384000    1.1027883   -2.4837728    441.44002  0.095798615  0.099265312            3 
  385000    1.1312835    -2.448121    440.63915   0.09537644  0.099223045            1 
  386000     1.093877   -2.4636166    441.64158  0.095345765  0.099179495            1 
  387000    1.1044334    -2.483629    442.70889  0.095329219  0.099133898            1 
  388000    1.0866827    -2.454412    443.66161  0.095288145  0.099087999            1 
  389000    1.0755734   -2.4752792    445.78897  0.095498922  0.099042995            3 
  390000    1.1175198    -2.466762     446.6584  0.095439828  0.098998125            1 
  391000    1.1044091   -2.4545472    446.25034  0.095108768  0.098952483            2 
  392000     1.115784   -2.4795139    448.81379  0.095411095  0.098907521            3 
  393000     1.085601   -2.4937371    448.23289  0.095045143  0.098861187            2 
  394000    1.0931768   -2.4451182     448.8359  0.094931451  0.098812707            3 
  395000    1.0819005   -2.4696792    449.83082  0.094901017  0.098764504            1 
  396000    1.1007078   -2.4867438    448.34058  0.094347766  0.098716539            6 
  397000    1.1071333   -2.4669095    451.14467  0.094698714  0.098668065            1 
  398000    1.1044303   -2.4783999    452.81356   0.09481021  0.098621104            1 
  399000    1.0771399   -2.4678013    454.45186  0.094914757   0.09857545            2 
  400000    1.0755156    -2.466623    455.88696   0.09497645  0.098531736            2 
  401000    1.0687205   -2.4903864    457.13497  0.094998954  0.098486998            2 
  402000    1.0878657   -2.4495258    457.77681   0.09489569  0.098440013            2 
  403000    1.0924915   -2.4634953    456.75733  0.094449405    0.0983945            1 
  404000     1.080868   -2.5054468    459.56273  0.094794293   0.09834569            1 
  405000    1.0895151   -2.4946698    459.70207  0.094588903  0.098295604            3 
  406000    1.1034322   -2.4733541    460.95841  0.094613795  0.098246182            3 
  407000    1.0722848   -2.4883253    460.91945  0.094373352   0.09819695            3 
  408000    1.0987904   -2.4841774    462.90534  0.094547659  0.098150596            1 
  409000    1.0967161   -2.4968118    463.46296  0.094430106  0.098104958            1 
  410000    1.0617501   -2.4964985    465.71589  0.094657702  0.098059588            1 
  411000    1.0805453   -2.4701744    467.83297  0.094856643  0.098014055            1 
  412000    1.0726182   -2.4863474    468.01741  0.094663716  0.097970626            2 
  413000    1.0675055   -2.4602621     469.0743  0.094647761  0.097925051            2 
  414000    1.0930462   -2.4833149    467.62587  0.094127591  0.097879409            2 
  415000    1.0765945   -2.4890804    468.53649  0.094083633  0.097830448            3 
  416000    1.1005479   -2.4644183    469.39378  0.094029203  0.097782456            2 
  417000    1.0759332   -2.4981934     470.7671  0.094078158  0.097734151            2 
  418000    1.0927126   -2.4798081    471.34616  0.093968532   0.09768659            2 
  419000    1.0943011   -2.4719098    472.08012  0.093890238  0.097639782            3 
  420000    1.0863185   -2.4919011    472.19656  0.093689794  0.097591237            3 
  421000    1.0859628   -2.4634476    476.12379  0.094244614  0.097544524            1 
  422000    1.0826388   -2.5003887     474.7459   0.09374919   0.09749418            3 
  423000    1.1073847    -2.455183    477.22242  0.094015449   0.09744606            1 
  424000    1.0653233   -2.4810509    478.94456  0.094132185  0.097398962            2 
  425000    1.0989755   -2.4681459    478.06015  0.093737283  0.097350577            2 
  426000    1.0764603   -2.4987541    477.01872  0.093313521  0.097301464            1 
  427000    1.0791732   -2.4598847    481.26636  0.093923957  0.097250879            2 
  428000    1.0684608   -2.4995392    480.67846  0.093590043  0.097199876            1 
  429000    1.1025743   -2.4561461    482.47839  0.093721521  0.097148771            1 
  430000    1.0789309    -2.489769    483.04029   0.09361246  0.097100479            2 
  431000    1.1068961   -2.5011921    482.45222  0.093281558  0.097048087            4 
  432000    1.0866893   -2.4861862     485.2765  0.093610436   0.09699906            2 
  433000    1.0788413   -2.4822168    487.16008  0.093756752  0.096951979            2 
  434000    1.0915886   -2.4887612    486.55221  0.093424004  0.096902399            2 
  435000    1.0701621   -2.4781846    488.75054  0.093630371  0.096852825            2 
  436000    1.0832742   -2.4618943    488.02487  0.093276924  0.096802763            3 
  437000    1.0754024   -2.5224618      488.918   0.09323379  0.096753317            2 
  438000    1.0895923   -2.4699629    491.02242  0.093421313  0.096702594            2 
  439000    1.0858202    -2.511936    487.67033  0.092572195  0.096651643            1 
  440000    1.0893943   -2.5066503    490.30079  0.092859997  0.096599019            2 
  441000    1.0628267   -2.5016537    492.98039   0.09315578  0.096546233            1 
  442000    1.0941261   -2.4694157    492.85845   0.09292203  0.096497426            3 
  443000    1.0656094   -2.5077377    493.92917  0.092913688  0.096446825            2 
  444000    1.0489857   -2.4975321    494.51533  0.092814438  0.096396338            1 
  445000    1.0667848   -2.4880965    495.21485  0.092736863  0.096345591            1 
  446000    1.0816619    -2.480737    498.07865  0.093064024  0.096294959            3 
  447000    1.0968478    -2.493581    496.78709  0.092615043  0.096244306            1 
  448000    1.0741426   -2.4978909    495.70805  0.092207599  0.096194443            2 
  449000    1.0792261   -2.5033194    500.58584  0.092907543  0.096144662            1 
  450000     1.086176   -2.5128713    501.20688   0.09281609     0.096096            3 
  451000    1.0602048   -2.4946326    501.76155  0.092712776  0.096046174            1 
  452000    1.0907165   -2.5191864    500.14126  0.092208935  0.095996183            1 
  453000    1.0643651   -2.5065799    504.48913  0.092805212  0.095944535            3 
  454000    1.0511101   -2.4864737    505.19954  0.092731194  0.095893373            2 
  455000     1.068113   -2.5227154    503.17735  0.092157024  0.095842433            2 
  456000    1.0857511   -2.5154667    505.79442  0.092433191  0.095790352            2 
  457000     1.074199   -2.4950308    506.53509   0.09236599  0.095738775            2 
  458000     1.084651   -2.4975025    506.58847   0.09217403  0.095687771            1 
  459000    1.0324436   -2.4830365    506.49977  0.091957111  0.095635784            4 
  460000    1.0793368   -2.5087912    509.71143  0.092339028  0.095583363            5 
  461000    1.0840373   -2.4794876    508.65566  0.091947878  0.095531657            1 
  462000    1.0516863   -2.5166127    510.84273   0.09214335  0.095478066            1 
  463000    1.0718512   -2.4935239    511.99573   0.09215186  0.095425322            4 
  464000    1.0840558   -2.5204295     511.5437  0.091872072  0.095372869            1 
  465000    1.0607218   -2.4931293    510.57534  0.091500958  0.095322585            1 
  466000    1.0663655   -2.5215744      513.864  0.091892703  0.095271192            2 
  467000    1.0628928   -2.5343125    514.17619   0.09175164  0.095218986            1 
  468000     1.063823    -2.479156    518.09446  0.092253287  0.095166683            1 
  469000    1.0557977   -2.4968644    516.51274   0.09177554  0.095114898            3 
  470000    1.0780744   -2.5031666    517.66585  0.091784725  0.095062724            2 
  471000    1.0530936   -2.5295324    516.00437  0.091295889  0.095010585            2 
  472000    1.0742088   -2.5227465    517.69986  0.091401811  0.094957067            4 
  473000    1.0756492   -2.5150011    520.50109  0.091702094  0.094904403            2 
  474000    1.0750483   -2.5161892    521.24761  0.091639876  0.094852699            2 
  475000    1.0703466   -2.5218387     520.7521  0.091360017  0.094800794            2 
  476000    1.0718907   -2.5211512    522.92436  0.091548382  0.094748573            2 
  477000    1.0769165   -2.5139472    524.01182   0.09154644  0.094698191            2 
  478000    1.0668066   -2.5067436    526.48833  0.091786669  0.094648685            2 
  479000    1.0505259   -2.5165854    527.30654  0.091737394  0.094600056            1 
  480000    1.0497486   -2.5099397    526.35891  0.091381754   0.09455146            4 
  481000    1.0511163   -2.4989032    527.67579  0.091419923  0.094503794            3 
  482000    1.0411911   -2.5018699    529.18461  0.091491115  0.094458375            2 
  483000    1.0519998   -2.5206705     529.1369  0.091293461  0.094410893            4 
  484000    1.0669427   -2.5204061    531.29584  0.091476556  0.094363728            1 
  485000    1.0506072   -2.5340169     532.2228  0.091447216  0.094316689            1 
  486000    1.0721572   -2.5166061     534.2627  0.091608831  0.094270194            1 
  487000    1.0559184   -2.5258608    535.34323  0.091605618  0.094223576            2 
  488000    1.0473573   -2.5030089    535.65095  0.091470449  0.094176699            2 
  489000    1.0510189   -2.5151129    538.61314  0.091788197  0.094130641            2 
  490000    1.0803079   -2.5227191    537.42739  0.091399215  0.094086638            2 
  491000    1.0555401   -2.5494026    537.33398  0.091197213  0.094041761            3 
  492000    1.0723479   -2.5180594    537.32662  0.091010607  0.093995612            4 
  493000    1.0572819   -2.4846723    539.84189  0.091251165  0.093951421            2 
  494000    1.0607082   -2.5237323    541.67173  0.091375123  0.093906806            2 
  495000    1.0272457   -2.5164886    542.16525  0.091273611  0.093861467            2 
  496000    1.0656251   -2.5493425    541.80628   0.09102928  0.093816945            3 
  497000    1.0577825   -2.5006875    544.42108  0.091284555  0.093772107            1 
  498000     1.080637   -2.4938505    544.42557  0.091102002   0.09372855            2 
  499000    1.0686452   -2.5284518    544.42301  0.090919007  0.093684115            1 
  500000    1.0597475   -2.5255915    544.90246  0.090817077  0.093639713            3 
  501000    1.0703056    -2.523646    545.36547  0.090712819  0.093594965            1 
  502000    1.0587019   -2.5252575    547.82306  0.090940083  0.093550166            1 
  503000    1.0405072   -2.5184803    547.58305  0.090719525  0.093505742            2 
  504000    1.0579161   -2.5329134    549.91455  0.090925024  0.093461666            8 
  505000    1.0515414   -2.5374854    549.60168  0.090693347  0.093417459            1 
  506000    1.0700353   -2.5205879     550.9012  0.090728129  0.093373257            2 
  507000    1.0527314   -2.5373276    553.27046  0.090938604  0.093328621            2 
  508000    1.0603407   -2.5165111     554.6422  0.090984613  0.093286018            1 
  509000    1.0600074   -2.5116239    556.95582  0.091184647  0.093242645            3 
  510000    1.0560262   -2.5482124    555.13608  0.090708509  0.093198676            3 
  511000    1.0419395   -2.5202839    557.10687  0.090852393  0.093156584            2 
  512000    1.0788495   -2.5635952     556.5936  0.090591407  0.093113312            1 
  513000    1.0595781   -2.5107776    560.15059  0.090992623  0.093071772            1 
  514000    1.0482097   -2.5177747    560.24134  0.090830308  0.093031792            3 
  515000    1.0539906   -2.5111574    560.05944  0.090624505  0.092990863            5 
  516000    1.0362298    -2.519263    560.23927  0.090477919  0.092950642            3 
  517000    1.0457855   -2.5205862    561.52335  0.090509888  0.092906451            3 
  518000    1.0455796   -2.5228976    561.13777  0.090273129  0.092860779            3 
  519000    1.0297014   -2.5470221    563.00363  0.090398785  0.092815694            2 
  520000    1.0484759    -2.499755    563.40139  0.090288684  0.092769082            2 
  521000    1.0330801    -2.527101    563.02894  0.090055813  0.092723932            2 
  522000    1.0345517   -2.5188767    563.83107  0.090011346   0.09267676            2 
  523000    1.0471012   -2.5189065    566.89794  0.090327906  0.092629864            1 
  524000    1.0456094   -2.5382041    566.89102  0.090154425  0.092583232            1 
  525000    1.0596368   -2.5336813    566.97616  0.089996216  0.092535222            2 
  526000    1.0641404   -2.5164916    565.22599  0.089547843  0.092488273            1 
  527000    1.0336048   -2.5284698    566.78214  0.089623994  0.092440816            2 
  528000     1.051661   -2.5455801    567.19221  0.089518972   0.09239325            2 
  529000    1.0413067   -2.5497494    568.01593  0.089479509  0.092346117            2 
  530000    1.0423742   -2.5369976    568.97725  0.089461832  0.092300367            1 
  531000    1.0500161   -2.5195688    566.48311  0.088901931  0.092253251            3 
  532000    1.0313968   -2.5205771    569.94103  0.089276476  0.092205342            1 
  533000    1.0293667   -2.5427288    571.61215  0.089370255  0.092155832            2 
  534000    1.0411478   -2.5569928    573.12393  0.089438815  0.092107494            2 
  535000    1.0072582   -2.5279827    574.68011  0.089514036  0.092058694            1 
  536000    1.0530441   -2.5341183    572.93246   0.08907532  0.092011216            2 
  537000    1.0327062   -2.5642508    575.44775  0.089299776  0.091962915            7 
  538000    1.0419066   -2.5224691    576.71119   0.08932949  0.091914346            1 
  539000    1.0441223   -2.5026456    578.40931    0.0894263  0.091868257            2 
  540000    1.0353951   -2.5156087     576.7951  0.089011589  0.091820334            1 
  541000    1.0483766   -2.5353302    579.16994  0.089212869  0.091772424            1 
  542000    1.0361963   -2.5340336    578.93682  0.089012426  0.091725242            2 
  543000    1.0558272   -2.5169708    581.60059  0.089257303  0.091677384            3 
  544000    1.0522104   -2.5252145    581.98982  0.089152852  0.091630809            1 
  545000    1.0270602   -2.5425557    583.05261  0.089151775  0.091584221            3 
  546000    1.0270787   -2.5417781    583.50514  0.089057561  0.091538921            4 
  547000    1.0302044   -2.5318455    584.30255  0.089016232  0.091494374            2 
  548000    1.0382674    -2.543624    586.83041  0.089238201  0.091451555            2 
  549000    1.0499084   -2.5527579    585.73656  0.088909618  0.091406935            2 
  550000    1.0178491    -2.535174     590.2179  0.089426955  0.091363642            1 
  551000     1.033133   -2.5360626    590.14796  0.089254077  0.091322018            1 
  552000    1.0221484   -2.5400814    589.10225  0.088934518  0.091280511            1 
  553000    1.0312505   -2.5567395    589.74124  0.088869988  0.091236874            2 
  554000    1.0145412   -2.5251013    589.89841  0.088733215  0.091193571            3 
  555000    1.0163294   -2.5241318    593.57908  0.089125988  0.091149522            1 
  556000    1.0331349    -2.533051     593.0611  0.088888055   0.09110589            2 
  557000    1.0292279   -2.5602845    596.35028  0.089220568  0.091060815            1 
  558000    1.0247957   -2.5247285    594.67036  0.088809791  0.091018113            1 
  559000    1.0052398   -2.5392229    594.90309  0.088685612  0.090975042            3 
  560000     1.039662   -2.5490105    594.66739  0.088492172  0.090931002            4 
  561000    1.0349324   -2.5350389    597.60495  0.088770788   0.09088707            3 
  562000    1.0339412   -2.5572386    597.98694  0.088669475  0.090842951            1 
  563000    1.0321518   -2.5374112    597.48028  0.088436986  0.090799565            2 
  564000    1.0247835   -2.5739517    601.42096  0.088862436  0.090756117            2 
  565000    1.0188084   -2.5487415    599.91385  0.088482869  0.090712609            3 
  566000    1.0356311   -2.5456149    601.63654  0.088580173  0.090670279            2 
  567000    1.0187701   -2.5332048    603.63807  0.088718117  0.090627375            1 
  568000    1.0121089    -2.586479    600.45435  0.088094829  0.090584752            3 
  569000    1.0240392   -2.5509559    602.33063  0.088214796  0.090539774            1 
  570000    1.0163253   -2.5495876    604.97413   0.08844651  0.090495963            3 
  571000    1.0100779   -2.5465917    603.15422   0.08802601  0.090451217            9 
  572000    1.0083819   -2.5615096     607.1114   0.08844863  0.090405983            3 
  573000    1.0240558   -2.5342136    608.18447  0.088450329  0.090362901            1 
  574000    1.0384324   -2.5523093    609.98457  0.088557574   0.09032041            2 
  575000    1.0248607    -2.548407    606.70256  0.087927907  0.090275049            1 
  576000    1.0039397   -2.5875968    606.87527  0.087800241  0.090230479            2 
  577000     1.049699   -2.5447635    610.14822  0.088120772  0.090185674            2 
  578000    1.0064676   -2.5713227    608.68763  0.087757732  0.090140928            5 
  579000    1.0372602   -2.5747112    610.67939  0.087892831   0.09009688            3 
  580000    1.0083776   -2.5400622    615.82987  0.088481303  0.090053162            1 
  581000     1.033747   -2.5443723    612.34232  0.087828789  0.090010516            2 
  582000    1.0305621   -2.5572558     612.4066  0.087687085  0.089966729            1 
  583000    1.0114763   -2.5603263    616.13025  0.088068932  0.089922338            6 
  584000    1.0166011   -2.5587876    616.25408    0.0879358  0.089878526            2 
  585000     1.027386   -2.5596586    615.55099  0.087685326  0.089836272            2 
  586000    1.0334618    -2.564246    618.92152  0.088015006  0.089792778            5 
  587000    1.0097757   -2.5765179    618.98718  0.087874387  0.089749914            2 
  588000    1.0242461   -2.5696043    618.58493  0.087667932   0.08970713            2 
  589000    1.0337154   -2.5382647    617.02348  0.087298172  0.089663742            1 
  590000    1.0308975   -2.5595629    619.46986  0.087495743  0.089619205            2 
  591000    1.0329193   -2.5732482    621.50587  0.087634781  0.089576106            2 
  592000    1.0096943    -2.578894    619.89509  0.087260006  0.089530625            1 
  593000     1.011313   -2.5515604    623.78999    0.0876602  0.089487424            1 
  594000    1.0187048   -2.5523258     624.2499  0.087577147   0.08944287            1 
  595000    1.0020799   -2.5539695    623.26544  0.087292078  0.089399099            2 
  596000    1.0061091   -2.5611068    624.21279  0.087278075  0.089355875            1 
  597000   0.99810682   -2.5766208    625.48837  0.087309935  0.089312164            2 
  598000    1.0079767   -2.5475522    624.56634  0.087035443  0.089266349            1 
  599000    1.0125427    -2.561241    625.79447     0.087061  0.089222467            4 
  600000    1.0532822   -2.5685128    629.52801  0.087434446  0.089178511            4 
  601000    1.0166576   -2.5599892    627.86956  0.087059007   0.08913428            5 
  602000   0.99119089   -2.5670733    628.15421  0.086953794  0.089090351            1 
  603000    1.0170821   -2.5726461    630.94414  0.087195155  0.089047368            1 
  604000    1.0114168   -2.5703397    631.52807  0.087131356  0.089004296            1 
  605000    1.0276996    -2.580895    632.27782  0.087090609  0.088960908            3 
  606000    1.0188165   -2.5649651    633.46649  0.087110353  0.088919159            2 
  607000    1.0248873   -2.5548669     635.3746  0.087228802  0.088876455            2 
  608000    1.0109316   -2.5644594    637.24352  0.087341491  0.088835173            1 
  609000    1.0004001   -2.5972915    636.42086  0.087085504  0.088793202            3 
  610000    1.0276189   -2.5453936    637.26126  0.087057549   0.08875118            2 
  611000    1.0252447   -2.5827703    636.08843  0.086755105   0.08870797            1 
  612000     1.023416   -2.5656358    639.05096  0.087016742   0.08866664            2 
  613000    1.0148169   -2.5835112    635.40563  0.086379231  0.088623624            2 
  614000   0.98235116   -2.5673058    636.40091   0.08637363  0.088580233            4 
  615000    1.0174233   -2.5824648    640.35649  0.086769173  0.088536489            4 
  616000    1.0194262   -2.5481839    640.98269  0.086713026  0.088494598            3 
  617000    1.0082336   -2.5797807    642.22085  0.086739715  0.088450902            1 
  618000    1.0166161   -2.5851015    641.62196  0.086518603   0.08840696            2 
  619000    1.0020407   -2.5699738     645.5869  0.086912614  0.088363043            3 
  620000    1.0139818   -2.5571669    644.17305  0.086582399  0.088319761            2 
  621000   0.99382229   -2.5981288    644.10111  0.086433321  0.088276121            3 
  622000    1.0118885   -2.5801221    643.09732  0.086159877  0.088232801            3 
  623000   0.98720522   -2.5690875    645.79353  0.086382226  0.088188884            2 
  624000   0.98278293   -2.5930175    646.38107  0.086322258  0.088144576            2 
  625000    1.0107058   -2.5712551    648.33929  0.086445238  0.088101635            3 
  626000    1.0003604   -2.5716299    646.91423  0.086117443  0.088059805            2 
  627000    1.0046127     -2.58209    647.08011  0.086002141  0.088016417            3 
  628000    1.0103144   -2.5856824    649.07375  0.086129743  0.087972996            3 
  629000    1.0020798   -2.6003554    647.50294  0.085784703  0.087929762            4 
  630000    1.0330349    -2.560851    651.12455  0.086127587  0.087886523            1 
  631000    1.0038335   -2.5778141    649.19011  0.085735619  0.087843237            2 
  632000   0.99355943   -2.5682698    652.64551  0.086055579  0.087799515            2 
  633000    1.0270206   -2.5829721    653.02347  0.085969387  0.087756418            1 
  634000    1.0055787   -2.5965314    653.25162  0.085863778  0.087713776            3 
  635000    1.0090794    -2.585287    653.96631   0.08582235  0.087670439            4 
  636000   0.99353581   -2.5931035    654.48713  0.085755651  0.087626659            2 
  637000   0.99161296   -2.5900209    656.38039  0.085868706   0.08758367            1 
  638000    1.0246747   -2.5886024    656.85217  0.085795738  0.087540199            2 
  639000    1.0026067   -2.5699366     658.0802  0.085821622  0.087495848            4 
  640000   0.97576921    -2.584358    656.13661  0.085434454  0.087452916            3 
  641000   0.98262774   -2.5955048    658.47365  0.085604999  0.087409876            2 
  642000   0.98295394   -2.6035747    660.30564  0.085709454   0.08736649            2 
  643000    1.0011842   -2.5921956    662.38312  0.085845402  0.087323527            3 
  644000   0.98689032   -2.5762177    659.56299  0.085347178  0.087281827            1 
  645000   0.99277365   -2.5708265     665.1098  0.085931498  0.087239747            2 
  646000   0.99051189   -2.5650155      661.809  0.085372677  0.087198109            1 
  647000    1.0035857   -2.5725861    662.94265   0.08538674  0.087155481            4 
  648000   0.99331228   -2.5838884    666.70407  0.085738692  0.087114052            4 
  649000    1.0032142   -2.5975705    664.33403  0.085302263  0.087072647            3 
  650000    1.0055648   -2.5916901     667.4087  0.085565218   0.08703163            1 
  651000    0.9896194    -2.580475    667.06268  0.085389488  0.086990167            2 
  652000   0.99109798   -2.5809755    672.71986  0.085981577  0.086949089            1 
  653000    0.9953753   -2.5901366    669.44808  0.085432374  0.086908815            1 
  654000    0.9742606   -2.5730259    670.96858  0.085495486  0.086868146            1 
  655000    1.0093226   -2.5742051    669.17804  0.085137155  0.086827155            2 
  656000   0.98286267   -2.5847984    670.82303   0.08521634  0.086785219            2 
  657000   0.99407693   -2.6084499    672.30483  0.085274585  0.086744451            2 
  658000   0.99751995   -2.6036695    674.27375  0.085394345  0.086704314            1 
  659000   0.98070733   -2.5607777    677.36228  0.085655321  0.086665413            1 
  660000   0.97081317   -2.6111549    674.99708  0.085226904  0.086625979            1 
  661000   0.96395969   -2.6151169    678.02377  0.085479547  0.086587116            2 
  662000    1.0107082   -2.5854322    679.43161  0.085527645  0.086547475            1 
  663000   0.98494791   -2.6100423    676.81079  0.085069229  0.086507545            2 
  664000   0.98498172   -2.5853584    678.92371  0.085206289  0.086467109            1 
  665000   0.97352758   -2.5803436    678.43346  0.085016725   0.08642839            3 
  666000   0.99440132   -2.5868369    681.70018  0.085297821  0.086389325            2 
  667000    1.0135941   -2.5704023    681.97451  0.085204211   0.08634954            1 
  668000    1.0082696   -2.6104828    681.83739  0.085059554  0.086310028            3 
  669000   0.96925706   -2.5756583    682.40063  0.085002569  0.086270198            1 
  670000   0.99086059   -2.5896043    683.96438  0.085070197  0.086230207            2 
  671000    1.0044496   -2.6027013    682.01091  0.084700809  0.086190892            3 
  672000   0.97348355   -2.6040381    685.05083   0.08495174  0.086151246            3 
  673000   0.97969633   -2.5916488    684.71284   0.08478366  0.086112654            4 
  674000    1.0007103    -2.628098    686.30612  0.084854862  0.086072473            2 
  675000   0.98084681   -2.6238781    688.30428  0.084975836  0.086032407            3 
  676000   0.98427745   -2.5687464     689.1047  0.084948805   0.08599437            1 
  677000   0.96914511   -2.6182851    688.40189  0.084736815  0.085955949            3 
  678000   0.98473611   -2.6032153    687.84034  0.084542815  0.085917092            3 
  679000   0.98393994   -2.6152467    688.86446  0.084543993  0.085878132            2 
  680000   0.96762272   -2.6203375    694.48019  0.085107866  0.085840968            2 
  681000   0.99498517   -2.6101274    694.24635  0.084954277  0.085804552            2 
  682000   0.96535989   -2.5706965     691.7671  0.084526772   0.08576796            4 
  683000   0.97365738   -2.5912997    693.79586  0.084650544  0.085731667            1 
  684000   0.95283126   -2.5810024    696.09288  0.084806637  0.085694863            1 
  685000    0.9965332   -2.6082617    694.59866  0.084501054  0.085657443            2 
  686000   0.99951601   -2.5943279    696.49993  0.084608834  0.085620327            1 
  687000   0.97432055   -2.6276715      695.122  0.084318535  0.085582917            2 
  688000   0.98577327   -2.6239432    698.81848  0.084643711  0.085546062            2 
  689000   0.96452837   -2.6084888    698.55013  0.084488404  0.085508785            3 
  690000   0.98424762    -2.645776    696.69131  0.084141462  0.085472439            3 
  691000   0.96977506   -2.5906257    699.29859  0.084334127  0.085434013            1 
  692000     1.005798    -2.640563    700.55663  0.084363757  0.085396779            2 
  693000   0.98007937    -2.596276    706.06278  0.084904134  0.085360666            3 
  694000   0.98334627   -2.6346074    700.09586  0.084065304  0.085323287            3 
  695000    1.0076906   -2.5974084    702.17374  0.084193494  0.085285059            2 
  696000   0.99855579   -2.5919087      705.467  0.084466834  0.085247366            2 
  697000      0.99028   -2.6024241    703.95479  0.084164848  0.085210139            2 
  698000    0.9868379   -2.6042555    706.19228  0.084311399  0.085173338            2 
  699000   0.98598215   -2.6060828    706.48494  0.084225672  0.085136847            2 
  700000   0.97644871   -2.5868054    708.90285  0.084393196  0.085101588            3 
  701000   0.96423595    -2.621809    706.53717   0.08399158  0.085066004            4 
  702000    0.9802898    -2.600334    710.09628  0.084294431  0.085030155            3 
  703000   0.98225811   -2.6388253    708.19585  0.083949248  0.084994222            3 
  704000   0.98205903   -2.6178443    713.96318  0.084512687   0.08495869            2 
  705000   0.97355832   -2.6265385    710.35952  0.083966846  0.084923288            3 
  706000   0.96308287   -2.6379959    711.42942    0.0839742  0.084887988            1 
  707000    0.9661812   -2.6230472    714.78717  0.084251198  0.084852809            1 
  708000   0.96093048   -2.6093017    715.28205  0.084190449  0.084817438            3 
  709000   0.97616204    -2.638136    711.74652   0.08365615  0.084783056            2 
  710000   0.96788158   -2.6369413    715.16398  0.083939434  0.084746679            2 
  711000   0.95732555   -2.6005562    714.99153  0.083801164  0.084711042            2 
  712000   0.97576142   -2.6245682     713.8655  0.083551674  0.084676031            2 
  713000   0.95449004   -2.6327506    714.57839  0.083517811  0.084640166            2 
  714000   0.95642766   -2.5911035    719.55478   0.08398165  0.084604983            3 
  715000   0.94898205   -2.6162309    718.22495  0.083709201  0.084569324            4 
  716000     0.952122   -2.5967561    718.79295  0.083658397  0.084533633            1 
  717000   0.96836413   -2.6547103    720.74881  0.083769039  0.084498077            4 
  718000   0.97518106   -2.6428907    718.26719  0.083364344   0.08446192            3 
  719000   0.97127431   -2.6267555    719.18235  0.083354468  0.084426181            2 
  720000   0.97431704   -2.6527869    720.32646  0.083371118  0.084390986            2 
  721000   0.96260413    -2.644362    722.07236  0.083457277  0.084354014            2 
  722000   0.97243382   -2.6177437    723.12147  0.083462773  0.084318173            3 
  723000   0.95954746   -2.6447351    726.38642  0.083723654   0.08428278            3 
  724000   0.95979212   -2.6265269    723.04559  0.083223479   0.08424672            3 
  725000   0.98330155   -2.6390792    727.26433  0.083593602  0.084211102            3 
  726000    0.9583059   -2.6474592    726.58789  0.083400813  0.084175417            3 
  727000   0.96356359   -2.6510691    729.05621  0.083569029  0.084140014            3 
  728000   0.95582712   -2.6181825    729.68248  0.083525925  0.084105135            4 
  729000   0.95188315   -2.6384142    727.62852  0.083176557  0.084068291            3 
  730000   0.94715992   -2.6261687    726.76564  0.082964114   0.08403225            2 
  731000   0.98355575   -2.6044777    731.45772  0.083385513  0.083995435            2 
  732000   0.95370861   -2.6374233     731.4908  0.083275364  0.083959309            2 
  733000   0.95467584   -2.6008228    731.27074  0.083136737  0.083923889            3 
  734000    0.9577033   -2.6316103    731.77345  0.083080546  0.083888162            2 
  735000   0.94468006   -2.6354295    732.20952  0.083016953  0.083852637            1 
  736000   0.94654036   -2.6329743    734.26684  0.083137097  0.083817305            1 
  737000   0.96319157   -2.6108044    736.49203  0.083275896  0.083782856            1 
  738000   0.93426445   -2.6084215    737.06489  0.083227743  0.083747833            2 
  739000   0.95695503   -2.6100667    738.32302  0.083256993  0.083713264            2 
  740000    0.9498826   -2.5965192    738.57735  0.083173125  0.083678228            1 
  741000   0.96000076   -2.6050881    738.46537  0.083048287  0.083642964            2 
  742000   0.97971911    -2.647262    741.41723  0.083267882    0.0836079            2 
  743000   0.96244033   -2.6327668     739.9836   0.08299502  0.083572957            2 
  744000   0.97565547   -2.6108726     737.4494  0.082599619  0.083538522            2 
  745000   0.93486895   -2.6643375    740.70764  0.082853203  0.083503363            3 
  746000   0.95261595   -2.6180129    740.65709  0.082736494  0.083468169            4 
  747000   0.96686797   -2.6336707    744.30856  0.083033083  0.083434066            2 
  748000   0.95812449   -2.6232126    744.15243  0.082904683  0.083400472            2 
  749000   0.97089011   -2.6376576    743.90222  0.082766157  0.083366669            2 
  750000   0.96838864   -2.6166015    746.07436  0.082897151  0.083333399            2 
  751000    0.9349122   -2.6104717    745.14942  0.082684134  0.083299807            5 
  752000    0.9514934   -2.6373661     745.3744  0.082599114  0.083265775            2 
  753000   0.95648022   -2.6465014     748.0314  0.082783466  0.083231242            3 
  754000   0.94335898   -2.6224024    750.42593  0.082938321   0.08319767            1 
  755000     0.950004   -2.6432077    750.02579  0.082784304  0.083164306            1 
  756000   0.95068753   -2.6340362      749.749   0.08264429  0.083130796            2 
  757000   0.94861232   -2.6269608    752.19934  0.082804859  0.083097846            4 
  758000   0.94799855   -2.6384625    750.15153  0.082470485  0.083065191            4 
  759000   0.93665477   -2.6448104    753.12082  0.082687837  0.083031846            1 
  760000   0.96093075   -2.6173244    751.72033  0.082425475  0.082999813            2 
  761000   0.93989829   -2.6415722    754.32183   0.08260204  0.082967704            1 
  762000   0.95776066   -2.6258126    754.09163  0.082468463  0.082935163            2 
  763000   0.92439024   -2.6428039    756.08356  0.082577934   0.08290282            3 
  764000   0.95751475   -2.6269605    757.33327  0.082606159  0.082871217            3 
  765000   0.95294638   -2.6256808    759.52079  0.082736469  0.082839233            4 
  766000   0.95180212   -2.6092158    759.93713  0.082673752   0.08280816            4 
  767000   0.92329597   -2.6054924    761.93539  0.082783071  0.082776913            2 
  768000   0.96262605   -2.6358646    759.09526  0.082367107  0.082745371            4 
  769000   0.95208053   -2.6385784    763.42252  0.082728925  0.082713406            2 
  770000   0.93675028   -2.6450011    757.93823  0.082027947  0.082681356            2 
  771000   0.92160752     -2.67547    759.40144  0.082079706  0.082647992            4 
  772000   0.97358246    -2.647829    760.51517  0.082093607  0.082614595            4 
  773000   0.95173524   -2.6578295    761.42622  0.082085621  0.082581395            2 
  774000   0.95389808   -2.6528748    763.20698  0.082171294  0.082548537            1 
  775000   0.95895076   -2.6329286    764.21194  0.082173327  0.082516201            3 
  776000   0.94468347   -2.6302045    765.63354  0.082220096  0.082483579            2 
  777000   0.93468342   -2.6529874    765.80884   0.08213308  0.082451018            2 
  778000   0.93825435   -2.6475513    764.44229  0.081881137  0.082418608            3 
  779000   0.94585908   -2.6519876    768.44433  0.082204143   0.08238568            2 
  780000   0.94397596   -2.6665149     767.2021  0.081966036  0.082352808            2 
  781000   0.96592953   -2.6577052    769.73769  0.082131636  0.082320094            3 
  782000   0.92769994   -2.6355311    770.19564  0.082075409  0.082287795            2 
  783000   0.96610444   -2.6403023    770.64951  0.082018892  0.082255443            3 
  784000   0.93731949    -2.655306    771.58972  0.082014213  0.082223166            3 
  785000    0.9334523   -2.6549932    773.89257    0.0821542  0.082191091            2 
  786000   0.95519245   -2.6407971    770.35783  0.081674919  0.082159215            2 
  787000   0.94943421   -2.6401249     772.3683  0.081784021  0.082127577            3 
  788000     0.961578   -2.6525396    775.28441  0.081988622  0.082095452            5 
  789000   0.92443635   -2.6475107    774.27713   0.08177832   0.08206318            2 
  790000   0.93705285   -2.6404123    773.75944  0.081620194  0.082030756            3 
  791000    0.9378116   -2.6584194     777.7534  0.081937779  0.081998061            3 
  792000   0.92821751   -2.6871992    775.44467  0.081591401  0.081965383            2 
  793000   0.95476868    -2.622229    776.97856  0.081649702   0.08193183            3 
  794000   0.92249499   -2.6479741    777.76731   0.08162965  0.081899374            3 
  795000    0.9289709   -2.6632097    777.48492  0.081497371  0.081866278            2 
  796000   0.92111708   -2.6294468    778.80942   0.08153365  0.081834338            1 
  797000   0.94943921   -2.6464004    777.56676  0.081301418  0.081801883            3 
  798000   0.92286014   -2.6286882    782.70043  0.081735634  0.081770259            3 
  799000   0.92202611    -2.680282    778.31099  0.081175531   0.08173833            4 
  800000   0.94203994   -2.6519045    779.31658   0.08117881  0.081705775            2 
  801000    0.9463916   -2.6616098    781.90087  0.081346324  0.081673276            1 
  802000   0.92597731    -2.654174    782.55212  0.081312564  0.081641174            1 
  803000   0.95002329   -2.6413743    785.08356   0.08147401  0.081608379            1 
  804000   0.94763849   -2.6723345    784.09712  0.081270431  0.081575547            3 
  805000   0.94078921   -2.6651647    784.02683  0.081162197   0.08154289            2 
  806000   0.93629615   -2.6758303    783.25926  0.080982141  0.081511006            3 
  807000   0.92988535   -2.6693364     785.0982  0.081071685  0.081478664            3 
  808000   0.93407846   -2.6862295    786.47061  0.081112893  0.081446044            3 
  809000   0.93834995    -2.682021     787.3955    0.0811079   0.08141379            5 
  810000   0.91308501   -2.6325375    789.36306  0.081210191  0.081381643            3 
  811000   0.90905274   -2.6642001    787.54276  0.080923012  0.081349933            3 
  812000   0.93195986   -2.6603287    792.90298  0.081373459  0.081317891            5 
  813000    0.9292808   -2.6841033    791.87637  0.081168139  0.081286763            3 
  814000   0.92524854   -2.6650597     792.7231  0.081155108  0.081254821            2 
  815000   0.93370445    -2.659732    791.84265  0.080965506  0.081222916            2 
  816000   0.92200361   -2.6802702    795.43394  0.081233042  0.081191491            2 
  817000   0.88086817   -2.6737731    790.56542  0.080637028  0.081159274            3 
  818000   0.91463825   -2.6544828    796.32942  0.081125654   0.08112831            5 
  819000   0.91836085   -2.6773116     796.1044  0.081003704  0.081097023            4 
  820000   0.91937511   -2.6692441    797.63946   0.08106092  0.081066444            3 
  821000   0.92168011   -2.6776029    796.43557  0.080839989  0.081035034            5 
  822000   0.91761935   -2.6737032    794.89752  0.080585717  0.081003544            2 
  823000   0.93136554   -2.6542665    796.25736  0.080625492  0.080972522            2 
  824000   0.92315664   -2.6697084     803.7209  0.081282454  0.080942458            2 
  825000   0.92725003   -2.6699497    801.57479  0.080967151  0.080912702            2 
  826000   0.93350129   -2.6709271    802.50936  0.080963414  0.080882753            3 
  827000    0.9124682   -2.6765677    802.30311   0.08084473  0.080852699            3 
  828000   0.92160971   -2.6762421    801.70244  0.080686638  0.080821988            4 
  829000   0.92080872   -2.6778598    807.21005  0.081142948  0.080791993            1 
  830000   0.92478176   -2.6740823    805.49525  0.080873017  0.080762781            5 
  831000   0.93558629   -2.6727727     806.4056  0.080866988   0.08073296            3 
  832000   0.91396587    -2.687102    801.91517  0.080320029  0.080702934            1 
  833000   0.93039467   -2.6658192    810.70391  0.081102833  0.080672805            2 
  834000    0.8920196   -2.6688165    805.33808  0.080469433  0.080642611            8 
  835000   0.91030226   -2.6747646    807.15269  0.080554161  0.080612285            2 
  836000   0.92866988    -2.665296    810.16496   0.08075807  0.080581422            3 
  837000   0.90700766   -2.6740369    805.72092  0.080219128  0.080551589            3 
  838000   0.91376896   -2.6621096    811.33594  0.080681776  0.080522273            4 
  839000   0.90824345   -2.6469662    813.35181  0.080785838  0.080493796            2 
  840000   0.92097708   -2.6683684      812.638  0.080618849  0.080464651            2 
  841000   0.92158599   -2.6865064    813.59257  0.080617576  0.080435075            5 
  842000   0.91205712    -2.668219    814.17623  0.080579596  0.080405883            3 
  843000   0.90732036   -2.6571827      811.075  0.080177441  0.080376413            1 
  844000   0.90966389   -2.6875753    813.33417  0.080305506  0.080346438            4 
  845000   0.91454977   -2.6829596    813.94662   0.08027087  0.080316387            4 
  846000   0.90610129   -2.6846665    814.33474  0.080214218  0.080287507            2 
  847000   0.89549761   -2.6393783    817.38415  0.080419534  0.080257925            3 
  848000   0.90181046   -2.6694938    821.24948  0.080704547  0.080228793            3 
  849000   0.90944257    -2.696885    819.06588  0.080395159  0.080200752            3 
  850000   0.90179373   -2.6874506    817.74124   0.08017071  0.080172627            3 
  851000   0.90866239   -2.7052168    821.58589  0.080452985  0.080144069            4 
  852000   0.91525751   -2.6739487    824.00151  0.080594827  0.080115861            2 
  853000    0.8916887   -2.7121042     819.6712  0.080077296  0.080087679            3 
  854000   0.93935366   -2.6966287    820.77186  0.080090931  0.080058552            2 
  855000   0.91386594   -2.6663136    824.06213  0.080317947   0.08002916            2 
  856000    0.9182595   -2.6459112    824.95143  0.080310692  0.080000932            3 
  857000   0.91243657   -2.7224064    821.29034  0.079860982  0.079970974            7 
  858000   0.91933467   -2.6664036    827.33749  0.080355234  0.079941476            4 
  859000   0.89534961   -2.6657285    826.15907  0.080147368  0.079911511            3 
  860000   0.90912051   -2.6839885    822.30911  0.079681115  0.079881682            3 
  861000    0.9292116   -2.6829965    821.55702  0.079515778  0.079851632            2 
  862000   0.88745003    -2.700314    823.27218  0.079589344  0.079821138            3 
  863000   0.89541883   -2.6891965    823.26291  0.079496225  0.079790239            2 
  864000   0.91010913    -2.716733       825.87  0.079655671  0.079759778            5 
  865000   0.91050667   -2.6976958    828.94919   0.07986023  0.079729678            2 
  866000    0.9046752   -2.6803041    826.37902  0.079520691  0.079699468            2 
  867000   0.89754491   -2.7030653    828.84723  0.079666208   0.07966822            8 
  868000   0.90660633   -2.6848034     827.4053  0.079435992  0.079637445            4 
  869000    0.9348142   -2.7059977     829.6452  0.079559379  0.079606563            3 
  870000   0.89778866   -2.6797775    827.41172  0.079253996  0.079575108            7 
  871000   0.90325533   -2.6887242    831.38384  0.079543039  0.079543956            3 
  872000   0.89639431    -2.690039    828.75165  0.079200272  0.079512684            2 
  873000   0.91015108   -2.7087688    831.85475  0.079405761  0.079481525            2 
  874000   0.89026998   -2.6804708    831.56376  0.079287163  0.079450466            4 
  875000   0.90740416   -2.7007372    832.86407  0.079320388  0.079418975            4 
  876000   0.90248578   -2.7160173    830.12543  0.078969314  0.079387588            3 
  877000   0.89465602   -2.7195574    837.89838  0.079617862  0.079356699            6 
  878000   0.90103261   -2.6571686    836.06074  0.079352766  0.079325311            2 
  879000   0.89194222   -2.6951134    834.71148  0.079134574  0.079294728            2 
  880000   0.89331335   -2.6780962     836.7377  0.079236525  0.079263181            5 
  881000   0.89013281   -2.6909257    837.19923  0.079190241  0.079233006            2 
  882000   0.91570014   -2.6897609    840.88414  0.079448615  0.079202667            2 
  883000   0.89362719   -2.6804881    839.34116   0.07921302   0.07917213            3 
  884000   0.88723255   -2.6966028    836.60845  0.078865804  0.079142209            7 
  885000   0.88901234   -2.7254632    838.15515  0.078922331  0.079111579            3 
  886000   0.90936412   -2.7066232    840.90184  0.079091595  0.079080584            3 
  887000   0.90260188   -2.6755329    842.68441  0.079169899  0.079050137            2 
  888000   0.88937772   -2.7019149    845.85463   0.07937825  0.079020299            7 
  889000   0.90091902   -2.7126456    842.42745  0.078967703  0.078990773            5 
  890000   0.88391405   -2.6970255     841.4214  0.078784775  0.078960938            2 
  891000   0.90240619   -2.7146085    846.29729  0.079152384  0.078931616            5 
  892000   0.88942151    -2.676529    846.50725  0.079083263  0.078902515            3 
  893000   0.90440197    -2.704277    846.58106  0.079001592  0.078872643            5 
  894000   0.90200826   -2.7068397    848.45555  0.079087952  0.078842239            5 
  895000   0.91165849   -2.6973709    846.98136  0.078862324   0.07881322            4 
  896000   0.87696125   -2.6907772    846.85441  0.078762501  0.078783371            3 
  897000   0.90330097   -2.6899993    850.06253  0.078972735  0.078753123            3 
  898000   0.89630989   -2.7188716    847.95083  0.078688829  0.078723125            3 
  899000   0.88013584   -2.7247171    850.04192  0.078795135  0.078692285            2 
  900000   0.90111847   -2.7023726    849.33445  0.078642079  0.078661087            8 
  901000   0.89175016   -2.6969432    847.61827  0.078396067  0.078629894            2 
  902000   0.89031774   -2.6963754    853.27876   0.07883211  0.078598586            2 
  903000   0.89246917     -2.73591    846.92074   0.07815806  0.078566827            5 
  904000   0.89719002   -2.7204442    849.13009  0.078275266  0.078535608            4 
  905000   0.89943343   -2.6946907    850.79168  0.078341775  0.078504739            3 
  906000   0.91201199   -2.7287744    850.40487  0.078219727  0.078473545            2 
  907000   0.88422588   -2.7276313    852.26688  0.078304565   0.07844201            3 
  908000   0.90029165   -2.7036167    851.43922  0.078142366  0.078410535            1 
  909000   0.90187237   -2.7281153    853.66867  0.078260788  0.078379274            2 
  910000    0.9062572   -2.7201907    847.85637  0.077642525  0.078347181            5 
  911000   0.90169485   -2.7148125    853.22793  0.078048658  0.078315481            3 
  912000   0.89619731   -2.6890937    855.76766  0.078195145  0.078283676            4 
  913000   0.86158073   -2.7172723    853.31115  0.077885282  0.078251192            2 
  914000   0.89987317   -2.7028579    855.51693  0.078001179  0.078219282            1 
  915000   0.88516916   -2.6940752    857.08041  0.078058325   0.07818731            2 
  916000   0.89692241    -2.701721    851.75576  0.077488697  0.078155673            3 
  917000   0.90044424   -2.7191898    856.89778  0.077871481  0.078124182            4 
  918000   0.89344166   -2.7199771    861.35258  0.078191047  0.078092899            5 
  919000   0.89471375   -2.7102873    859.88129  0.077972551  0.078062351            2 
  920000   0.89027813   -2.6953156    859.99175  0.077897803  0.078031487            2 
  921000   0.89008618   -2.7147785    857.49241   0.07758708  0.078000232            3 
  922000    0.8830243   -2.7063486    861.04909  0.077824393    0.0779692            2 
  923000   0.86908044   -2.7014168    861.54162  0.077784545  0.077937663            4 
  924000   0.88923557   -2.7036896    863.56617  0.077882952  0.077906605            3 
  925000   0.88208809   -2.7023952    861.59303  0.077620994  0.077875901            5 
  926000   0.87570186   -2.7133227     863.2819  0.077689156   0.07784419            3 
  927000   0.87890564   -2.7233722    863.13999  0.077592591  0.077812646            2 
  928000    0.8881404   -2.7015514    862.83151  0.077481278  0.077780874            2 
  929000    0.9053798   -2.7175699     866.2679  0.077706126  0.077749051            4 
  930000   0.89557723   -2.7293732    865.44663  0.077548981  0.077717019            3 
  931000    0.8659524   -2.7109743    864.70716  0.077399495  0.077684797            2 
  932000   0.88696328   -2.7320212    864.69807  0.077315635  0.077652734            3 
  933000   0.88119713   -2.7300313    865.54294   0.07730823  0.077620627            2 
  934000    0.9113547   -2.7034855    867.82686  0.077429234   0.07758863            1 
  935000   0.86793265   -2.7248479     867.8821  0.077351346  0.077556042            4 
  936000   0.87820123   -2.7099245    865.61772  0.077067105  0.077523004            3 
  937000   0.86833077   -2.7146165    869.52659  0.077332496  0.077489688            3 
  938000    0.8812195   -2.7160546    868.97588  0.077201126  0.077456311            4 
  939000   0.89197551   -2.7196623     869.2929  0.077147045  0.077423276            1 
  940000    0.8637652   -2.7338803    867.01412  0.076862954  0.077389693            4 
  941000   0.87604855   -2.7598366    868.63818  0.076925096  0.077356386            2 
  942000   0.86165442   -2.7427145    870.44926   0.07700365  0.077323358            4 
  943000    0.8793353   -2.7279083    865.20282  0.076458362  0.077289703            3 
  944000   0.88935241   -2.7523299     868.5423  0.076672166  0.077256432            1 
  945000   0.88463628    -2.753252     869.1886  0.076648025  0.077222525            4 
  946000   0.87367103   -2.7066469    870.65336  0.076696033  0.077189005            3 
  947000   0.87438878   -2.7203119    869.08446  0.076476986   0.07715553            3 
  948000   0.86883762   -2.7356576    872.08872    0.0766604  0.077121767            2 
  949000   0.87503859   -2.7271419    875.01902  0.076836935  0.077088455            3 
  950000   0.87937993   -2.6995258    871.17672   0.07641901     0.077055            1 
  951000   0.88042697   -2.7195803      876.665  0.076819576  0.077021481            1 
  952000   0.89373724   -2.7268028    872.52056  0.076376099   0.07698847            2 
  953000   0.88646634   -2.7324051    876.23924  0.076621129   0.07695447            4 
  954000   0.88453993   -2.7489626    875.77243  0.076500038  0.076920154            3 
  955000   0.87139593   -2.7499286    876.21123  0.076458222  0.076886384            7 
  956000   0.86594114   -2.7293902    877.45241  0.076486437  0.076853741            4 
  957000   0.88076946   -2.7087594    877.65867  0.076424475  0.076820827            3 
  958000   0.86136579   -2.7283511    876.88864  0.076277717  0.076787485            2 
  959000   0.86297669   -2.7275278    879.50451  0.076425487  0.076754426            4 
  960000   0.87670067   -2.7567751    873.83696  0.075853903  0.076720394            1 
  961000   0.87175095    -2.774821    878.84253   0.07620903  0.076685967            4 
  962000    0.8865915   -2.7090206    882.57038  0.076452735  0.076652964            4 
  963000   0.87659209   -2.7140505    881.04983  0.076241764  0.076619369            4 
  964000   0.87606376   -2.7497371    880.77318   0.07613876  0.076584861            7 
  965000   0.87239891   -2.7358803    879.60624  0.075959088  0.076550708            2 
  966000   0.85112125   -2.7474838    881.06806  0.076006561  0.076516563            5 
  967000   0.86278207   -2.7244164     880.4186  0.075871992  0.076482042            3 
  968000   0.87278098   -2.7599039    879.48482  0.075713225  0.076447234            2 
  969000    0.8526805   -2.7609303    880.67839  0.075737736  0.076412407            3 
  970000   0.84891847   -2.7352117      883.327  0.075887199  0.076377564            4 
  971000   0.87092726   -2.7733994    883.44747  0.075819384  0.076342612            1 
  972000   0.87164043   -2.7782222    881.53295  0.075577242  0.076307226            2 
  973000   0.87579828   -2.7455079    887.06415  0.075973292   0.07627221            3 
  974000   0.86386064   -2.7395214    884.05842  0.075638126  0.076237101            2 
  975000   0.86230947   -2.7461205    885.41673  0.075676644  0.076202345            6 
  976000   0.84857747   -2.7687738    888.99276  0.075904437  0.076167191            3 
  977000   0.85478917   -2.7533284    881.27212  0.075168212  0.076132448            2 
  978000   0.89786032   -2.7236578    885.45971  0.075448169  0.076097369            2 
  979000   0.87246113   -2.7690043    886.07748  0.075423688  0.076062108            3 
  980000   0.84775913   -2.7395868    885.47071  0.075295128  0.076027104            8 
  981000   0.83698153    -2.756268    884.62038  0.075146141  0.075992071            2 
  982000    0.8671675   -2.7544793    882.94833  0.074927726   0.07595693            2 
  983000   0.86561557   -2.7602152    885.24875   0.07504652  0.075921655            1 
  984000   0.85092088    -2.734578     888.7602  0.075267632  0.075886232            4 
  985000   0.85479681   -2.7525514    888.51301  0.075170305  0.075850066            3 
  986000   0.86247373   -2.7637617    883.86121  0.074700913  0.075813914            3 
  987000   0.87323175   -2.7597639    889.51977  0.075102987  0.075777331            3 
  988000   0.85895567   -2.6995064    892.80398  0.075303979  0.075741513            3 
  989000   0.86796349   -2.7600337    890.90416  0.075067758  0.075705265            3 
  990000   0.85929792   -2.7903013    887.39178  0.074696277   0.07566832            3 
  991000   0.85620915   -2.7614795    889.26358  0.074778303  0.075631283            4 
  992000   0.86761309   -2.7343984    889.67935  0.074737849   0.07559477            2 
  993000   0.85002993   -2.7586866     884.3729  0.074217262  0.075557428            3 
  994000   0.86169575   -2.7588852    889.41896   0.07456564   0.07551978            3 
  995000   0.85478549   -2.7283539    889.40981  0.074489934  0.075483205            5 
  996000   0.83757949   -2.7670959    887.23423  0.074233118  0.075445908            7 
  997000   0.85789285   -2.7757901    886.71883  0.074115583  0.075408509            2 
  998000    0.8578042   -2.7771332    888.02299  0.074150216  0.075370898            3 
  999000   0.86944065   -2.7582586    891.04662  0.074328213  0.075333437            3 
 1000000   0.83909094   -2.7579502      892.666  0.074388834  0.075296279            5 
 1001000   0.85635396   -2.7745931    890.75625  0.074155532  0.075259102            3 
 1002000   0.84875556   -2.7548714    893.65104  0.074322275  0.075221897            2 
 1003000   0.86385242   -2.7894388    890.60346   0.07399497  0.075184553            3 
 1004000   0.84139849   -2.7639798    894.82826  0.074271934  0.075147262            4 
 1005000   0.84167868   -2.7631274    891.71675  0.073940029  0.075109568            2 
 1006000   0.84287876   -2.7739693    895.66007   0.07419318   0.07507175            2 
 1007000   0.85485396   -2.7549391    891.26322  0.073755645  0.075034563            6 
 1008000   0.83808497   -2.7489322    899.30474  0.074347283  0.074997069            5 
 1009000   0.84804563   -2.7587168    895.88683  0.073991314  0.074959457            3 
 1010000   0.85177581   -2.7747814    891.20108  0.073531442  0.074921965            5 
 1011000   0.85758427    -2.750918    901.66778  0.074321446  0.074884745            8 
 1012000   0.85512142   -2.7558944     895.6626  0.073753508  0.074847551            3 
 1013000   0.85034729   -2.7689082    897.20176  0.073807318   0.07481116            4 
 1014000   0.85880424   -2.7716826    897.86874  0.073789344  0.074774526            3 
 1015000   0.86641783   -2.7704031    900.85796  0.073962065  0.074738045            2 
 1016000   0.85322357   -2.7711226    900.88556  0.073891532  0.074701187            5 
 1017000   0.85820034   -2.7860604    899.34457  0.073692607  0.074664756            4 
 1018000   0.86075516   -2.7917359    903.02415  0.073921427  0.074628384            4 
 1019000     0.854873   -2.7640497    904.12198  0.073938663  0.074592734            5 
 1020000   0.83859565   -2.7703227     904.0064  0.073856732  0.074556491            4 
 1021000   0.84523954   -2.7370285    901.74662  0.073599953  0.074520204            3 
 1022000   0.82636346   -2.7643524    903.92688  0.073705715  0.074483623            3 
 1023000   0.83716041   -2.7704358     903.9824  0.073638188  0.074448001            3 
 1024000   0.85735008   -2.7627184    904.73363  0.073627411  0.074412009            2 
 1025000   0.84475461   -2.7869923    903.88019  0.073486194  0.074375947            4 
 1026000   0.84134094   -2.7829301    908.17484  0.073763389  0.074340678            1 
 1027000   0.85805218   -2.7530659    906.21914  0.073532874  0.074304766            4 
 1028000   0.83631952   -2.7899086    905.61509  0.073412377  0.074268584            3 
 1029000   0.84322805    -2.778751    907.89139   0.07352538  0.074232786            5 
 1030000   0.83517846   -2.7837366    909.81586  0.073609697  0.074196649            5 
 1031000   0.84603645   -2.7585447    908.59814  0.073439876  0.074160045            3 
 1032000   0.83965403   -2.7778579     909.1151  0.073410457  0.074124412            5 
 1033000   0.82861941   -2.7739203    907.62378  0.073219085  0.074088603            2 
 1034000   0.83918808   -2.7814667    910.14122  0.073351162  0.074052294            2 
 1035000   0.82332263   -2.7867635    908.67479  0.073162222  0.074015697            8 
 1036000   0.85966947   -2.7733318    908.69484  0.073093214  0.073979273            4 
 1037000    0.8496884   -2.7683765    909.87632  0.073117673  0.073943315            7 
 1038000    0.8295102   -2.7953208    912.79678  0.073281694  0.073907431            3 
 1039000   0.83517171   -2.7686992    913.25261  0.073247723   0.07387171            2 
 1040000   0.84156012   -2.8151997    909.26966  0.072858146  0.073835891            3 
 1041000   0.83585388   -2.7782845     911.8082   0.07299137   0.07379994            5 
 1042000   0.83470527   -2.7884461    913.74009  0.073075823  0.073763892            3 
 1043000   0.83283566    -2.799126    912.98653  0.072945552  0.073727951            4 
 1044000   0.81743364   -2.8046339    912.62776  0.072847044  0.073691955            3 
 1045000   0.82710272   -2.7599246    917.88318  0.073196426  0.073656636            4 
 1046000   0.85048581   -2.7903904    911.66017   0.07263067  0.073621143            5 
 1047000    0.8218097   -2.7911772    912.44158  0.072623494  0.073585269            3 
 1048000   0.83538442   -2.7862418    913.78845  0.072661296  0.073549412            3 
 1049000   0.83477238    -2.799824    917.50937  0.072887621  0.073513405            2 
 1050000   0.82088993   -2.7892638    916.24179  0.072717602  0.073477713            6 
 1051000   0.80113339   -2.7787624    915.51675  0.072590925  0.073441326            3 
 1052000   0.84905122   -2.7703261    920.68244  0.072931119   0.07340592            3 
 1053000   0.82686514   -2.7969863    917.52292  0.072611817  0.073370443           10 
 1054000   0.83933499   -2.8005878    918.21425  0.072597585  0.073334696            2 
 1055000   0.83277019   -2.8096415    918.64351  0.072562679  0.073298495            1 
 1056000   0.84408098   -2.7896968    921.32859  0.072705855  0.073262677            5 
 1057000   0.82675451   -2.8011097    921.96907  0.072687565  0.073227441            2 
 1058000   0.82641103   -2.8087927    923.33327  0.072726313    0.0731922            2 
 1059000   0.83264278   -2.7976616    920.37635  0.072424957  0.073157498            3 
 1060000    0.8196787    -2.798734    925.22104  0.072737503  0.073122753            2 
 1061000   0.84406124   -2.8088722    922.73833   0.07247395  0.073087743            1 
 1062000   0.83514316   -2.7964994    925.08234  0.072589638  0.073052351            6 
 1063000   0.83869691   -2.7853182    923.91242  0.072429634  0.073017304            2 
 1064000   0.83568855   -2.8037623    920.18126  0.072069334  0.072982457            3 
 1065000   0.81973179   -2.8017153    927.67123  0.072587733  0.072947276            4 
 1066000   0.82747794   -2.7848672    925.62376  0.072359581  0.072912427            4 
 1067000   0.83555228   -2.7783952    927.73208  0.072456426  0.072877557            3 
 1068000   0.81920299   -2.8206055    926.10726  0.072261803  0.072842758            3 
 1069000   0.81098658   -2.7847232    927.72424  0.072320256  0.072806954            3 
 1070000   0.82956658   -2.7990867    925.43739  0.072074563   0.07277147            4 
 1071000   0.82972424   -2.7889963    927.34729  0.072155874   0.07273635            2 
 1072000   0.83565815    -2.795667    931.15671  0.072384695  0.072700929            6 
 1073000   0.79620357   -2.8057701    928.37477  0.072101178  0.072666053            6 
 1074000   0.85101647    -2.803106    927.87268  0.071995086  0.072630682            4 
 1075000   0.83025719   -2.7795427    932.31549  0.072272519   0.07259584            3 
 1076000   0.84696581   -2.8102003    929.83704  0.072013402  0.072560987            4 
 1077000   0.83186727   -2.8094632    932.32368  0.072138942  0.072525742            5 
 1078000   0.83113503   -2.8219186    932.97111  0.072122071  0.072490093            5 
 1079000   0.82597839   -2.8038837    932.46676  0.072016278  0.072455434            3 
 1080000   0.81258947   -2.8103702    932.32766  0.071938863  0.072421126            6 
 1081000   0.82848931   -2.7781466    933.35883  0.071951806  0.072386193            8 
 1082000   0.82290011   -2.7848373    934.48727  0.071972217  0.072351197            5 
 1083000   0.82320463   -2.8170959    932.90518  0.071784024  0.072315946            2 
 1084000   0.81700217    -2.844516    933.09057  0.071732055  0.072280884            6 
 1085000   0.81836359   -2.7998671    935.82437  0.071875912  0.072245906            6 
 1086000   0.82520532   -2.7916387    935.70882  0.071800861  0.072210846            3 
 1087000   0.81488778   -2.7911691     937.6797  0.071885902  0.072176159            4 
 1088000   0.82196587     -2.78743    936.46072  0.071726464  0.072141741            2 
 1089000   0.82824509    -2.812294    937.36323  0.071729663  0.072107149            3 
 1090000   0.80570634   -2.8402131    936.51366  0.071598903  0.072072103            3 
 1091000    0.8230831   -2.7901164    938.12078  0.071656033  0.072037326            3 
 1092000    0.8032278   -2.8101827    939.62212  0.071704985   0.07200282            3 
 1093000   0.81164726    -2.853618    935.89077  0.071354892  0.071968181            4 
 1094000   0.82159903   -2.8006738    942.10963  0.071763378  0.071933392            5 
 1095000    0.8135894   -2.7979323    942.19217  0.071704123  0.071898675            3 
 1096000     0.824691   -2.8117563    939.02197  0.071397656  0.071864651            4 
 1097000   0.81361695   -2.7858939    942.63891  0.071607331  0.071830255            2 
 1098000   0.81530304   -2.8133126    937.42141   0.07114613  0.071796077            2 
 1099000   0.81421445   -2.8007691    942.96723  0.071501913  0.071761988            3 
 1100000   0.81909815   -2.8084794    943.00477  0.071439755  0.071727444            4 
 1101000   0.81729439   -2.8306743    937.53044  0.070960524  0.071692408            2 
 1102000   0.78064874    -2.809696     940.9733   0.07115648  0.071657305            4 
 1103000   0.81792217   -2.7969771    943.63893  0.071293361  0.071622369            4 
 1104000   0.81429637   -2.8092299    945.61508   0.07137795  0.071587638            5 
 1105000    0.8188744   -2.8248755    941.66008  0.071015089  0.071553015            2 
 1106000   0.79694601   -2.8147585    941.64621  0.070949835  0.071517922            4 
 1107000   0.80040741   -2.8333091    944.00965  0.071063659  0.071482955            3 
 1108000   0.81869241   -2.8239802    942.14126     0.070859  0.071447933            2 
 1109000   0.79603814   -2.8203751    941.55763  0.070751249  0.071412375            3 
 1110000   0.79199107   -2.8106061    944.08246  0.070877062  0.071376336            5 
 1111000   0.81915438   -2.8333508     941.1241  0.070591367  0.071341056            4 
 1112000   0.80960958   -2.8152666     944.1523  0.070754819  0.071305215            5 
 1113000   0.82282172   -2.8174831    946.19919  0.070844503  0.071269609            5 
 1114000   0.78992215   -2.8298203    942.45674  0.070500953  0.071234077            3 
 1115000   0.79532405   -2.8049342    949.78617  0.070985514  0.071198957            5 
 1116000   0.80742331   -2.8064956    950.05786  0.070942194   0.07116383            5 
 1117000   0.80893222   -2.8262749    947.76343  0.070707507  0.071128872            4 
 1118000    0.8117255   -2.8545874    946.91533  0.070581048  0.071093399            5 
 1119000   0.82134203   -2.8268102    948.80242  0.070658506  0.071058349            4 
 1120000   0.80350377   -2.8008906    947.59854  0.070505844  0.071023575            4 
 1121000   0.80027331    -2.816778    948.58038  0.070515936  0.070989262            4 
 1122000   0.80089825   -2.7988069      952.241   0.07072497  0.070954817            4 
 1123000   0.80562111   -2.8138929    950.14225  0.070506252  0.070920525            2 
 1124000   0.79450609    -2.831128    949.95795   0.07042986   0.07088604            7 
 1125000   0.79143014   -2.8319596    951.29173  0.070466054  0.070851519            4 
 1126000   0.80761965   -2.8434555    948.65801  0.070208556  0.070817185            4 
 1127000   0.79003712   -2.8455074    952.52545  0.070432228  0.070782133            1 
 1128000   0.81064809   -2.8095931    956.13727  0.070636619  0.070748223            3 
 1129000   0.82391012   -2.8348847     953.8857  0.070407861  0.070714466            8 
 1130000   0.79982269   -2.8482018    954.15093  0.070365113  0.070679917            7 
 1131000    0.8008448    -2.813167    950.26057  0.070016252  0.070645419            4 
 1132000   0.79950397   -2.8078117    953.40758   0.07018607  0.070610951            2 
 1133000   0.79356235   -2.8164614    954.62046  0.070213332  0.070576318            3 
 1134000   0.79731321   -2.8303741    954.55751   0.07014679  0.070541564            3 
 1135000   0.79326752   -2.8113726    955.65597  0.070165637  0.070507185            5 
 1136000   0.81117472   -2.8112121    956.05001  0.070132777  0.070472383            3 
 1137000   0.80381004   -2.8310764    957.52871  0.070179472  0.070437902            4 
 1138000   0.80699713   -2.8404299    960.21475  0.070314496  0.070403648            3 
 1139000   0.78829611   -2.8330348    955.47388  0.069905903  0.070369669            5 
 1140000   0.80242897   -2.8399737    957.47507  0.069990868  0.070334831            2 
 1141000   0.80322133   -2.8477938    961.33349  0.070211327  0.070301063            5 
 1142000   0.79173101   -2.8354126    960.76747  0.070108543  0.070267537            5 
 1143000    0.8006913   -2.8500339    960.08599   0.06999752  0.070234312            5 
 1144000   0.79486683   -2.8321855    958.51188  0.069821669  0.070200653            2 
 1145000   0.78934411    -2.814272    960.32443  0.069892607  0.070167568            3 
 1146000   0.78125363   -2.8523604     960.0057  0.069808442  0.070134188            1 
 1147000   0.80625874   -2.8379877    961.72612  0.069872575  0.070100252            3 
 1148000   0.78603101   -2.8450506     963.2106  0.069919469  0.070066608            2 
 1149000   0.79483492   -2.8482053    963.57938  0.069885362  0.070033045            4 
 1150000   0.80700589   -2.8328206    963.16626  0.069794656  0.069999924            3 
 1151000   0.81090768   -2.8177058    968.56134  0.070124627   0.06996685            5 
 1152000   0.78534716   -2.8336484    965.59891  0.069849458  0.069933606            3 
 1153000   0.79540587   -2.8355827    965.78368  0.069802232  0.069899891            3 
 1154000   0.80614357    -2.825519    961.37905  0.069423675  0.069865906            2 
 1155000   0.78813978    -2.840656    966.21935  0.069712796  0.069831675            2 
 1156000   0.80908911   -2.8316359    967.39923  0.069737545  0.069798084            4 
 1157000   0.78593546   -2.8305252    966.57122  0.069617633  0.069764914            7 
 1158000   0.79762484   -2.8330828    962.95752  0.069297461  0.069731596            5 
 1159000   0.79741693   -2.8479912    964.25409  0.069330895  0.069697978            5 
 1160000   0.78819394   -2.8380658    966.81227  0.069454904  0.069664306            3 
 1161000   0.80713149   -2.8597376    966.69281  0.069386507   0.06963065            3 
 1162000   0.79777557   -2.8443009    965.91448  0.069270975  0.069596961            2 
 1163000   0.79749201   -2.8459518    968.71502  0.069412082  0.069563283            3 
 1164000   0.78631674   -2.8625254     967.2762  0.069249442   0.06952971            3 
 1165000   0.76752178    -2.843741    972.40238   0.06955668  0.069496448            2 
 1166000   0.78861704   -2.8449511     970.6028   0.06936841  0.069462481            4 
 1167000   0.80728349    -2.852727    965.30488  0.068930654  0.069428715            3 
 1168000   0.78739228   -2.8655292     969.6848  0.069184132  0.069394807            5 
 1169000    0.7645883   -2.8755247    970.10181  0.069154677  0.069360386            3 
 1170000   0.79238858   -2.8652784    968.67694  0.068994084  0.069326062            2 
 1171000   0.80458246   -2.8511326    967.91511   0.06888095  0.069292149            4 
 1172000   0.78360416   -2.8767686    970.30474  0.068992089  0.069257858            2 
 1173000   0.78267203    -2.864538    968.86053  0.068830671  0.069223898            5 
 1174000   0.80638917   -2.8721003    975.42146  0.069237753  0.069190019            3 
 1175000   0.78216566   -2.8594936    973.10668  0.069014658  0.069156402            5 
 1176000   0.78684816   -2.8768358    971.59994  0.068849202  0.069122759            3 
 1177000   0.79269454   -2.8609254    973.43229  0.068920439  0.069088921            4 
 1178000   0.75976979   -2.8873551    974.29964  0.068923291  0.069055406            2 
 1179000   0.78596689   -2.8528799    975.02776  0.068916297  0.069022051            4 
 1180000   0.78185205   -2.8629866    977.40187  0.069025555  0.068988684            2 
 1181000   0.79787694   -2.8429558     976.1828  0.068881089   0.06895586            3 
 1182000   0.77462824   -2.8664432    974.75753   0.06872233  0.068922396            3 
 1183000   0.77847259   -2.8647806    976.44917  0.068783402  0.068889055            6 
 1184000   0.77180365   -2.8610975    977.08423  0.068770005  0.068856016            3 
 1185000   0.77190539   -2.8611748    976.60906  0.068678555  0.068823372            4 
 1186000   0.79104536   -2.8662534    976.93251  0.068643375  0.068790169            4 
 1187000   0.77591708   -2.8574207    977.19971  0.068604304    0.0687567            4 
 1188000   0.77124449   -2.8712773    979.67926  0.068720487  0.068723051            9 
 1189000   0.77435814   -2.8521227    978.01635  0.068546142   0.06868965            3 
 1190000   0.76794668   -2.8678686    976.96641  0.068415014  0.068655846            7 
 1191000   0.78898301   -2.8376674    978.40867  0.068458485  0.068622461            5 
 1192000   0.77523047   -2.8513043    978.78718  0.068427516  0.068588975            6 
 1193000   0.78467588   -2.8438422    980.50342   0.06849004   0.06855531           13 
 1194000   0.78272614   -2.8539603     978.8358   0.06831629   0.06852218            5 
 1195000   0.77513388   -2.8645372    977.03218  0.068133346  0.068488491            4 
 1196000   0.76545565   -2.8721742    981.53212  0.068389919  0.068455124            2 
 1197000   0.76756289   -2.8458532    981.22694  0.068311538  0.068421777            5 
 1198000   0.77871448   -2.8848012    980.98803  0.068237899  0.068388076            2 
 1199000   0.77891205    -2.872487    982.23773  0.068267843  0.068355056            4 
 1200000   0.76516121   -2.8666751    981.17071  0.068136855   0.06832154            4 
 1201000   0.76655104   -2.8539457    983.72293  0.068257211  0.068288423            2 
 1202000   0.77125849   -2.8466548    985.66579  0.068335122  0.068255142            4 
 1203000   0.76779368   -2.8703423    984.84867  0.068221715  0.068222447            3 
 1204000   0.78027687   -2.8580196    980.57266  0.067869093  0.068189364            4 
 1205000   0.77369797   -2.8820245     981.4697  0.067874806  0.068155958            4 
 1206000   0.76357294   -2.8776114    986.56255  0.068170436  0.068122705            3 
 1207000   0.78224888   -2.8725587    984.42109  0.067966107  0.068089426            5 
 1208000   0.77293237    -2.902295    981.74429  0.067725186  0.068056288            4 
 1209000   0.75462573   -2.8837066    983.90243  0.067817923  0.068022892            3 
 1210000   0.77402482   -2.8735569    984.41935  0.067797476  0.067989581            3 
 1211000   0.76507304   -2.8514174    987.17237  0.067930937  0.067956569            2 
 1212000    0.7641896   -2.8791943     988.2871  0.067951533  0.067923722            4 
 1213000   0.76030683   -2.8602575    985.66179  0.067715155  0.067890521            3 
 1214000   0.76240257   -2.8687332    987.93261  0.067815253  0.067857254            8 
 1215000   0.76853637   -2.8515107    989.87329  0.067892544  0.067824449            5 
 1216000   0.77106044    -2.836682     990.7425  0.067896279  0.067791566            4 
 1217000    0.7606124   -2.8775109    989.44639  0.067751738  0.067758907            3 
 1218000   0.76242352   -2.8893859    991.79479  0.067856786  0.067726286            2 
 1219000   0.76635556   -2.8605335    993.16012  0.067894457   0.06769388            4 
 1220000    0.7475909   -2.8619669    994.75452  0.067947713  0.067661803            1 
 1221000   0.78756792   -2.8467318    993.10848  0.067779721  0.067629356            8 
 1222000   0.75691503   -2.8833818    991.08084  0.067585982   0.06759687            3 
 1223000   0.78698257    -2.891501    988.19348  0.067333979  0.067563771            6 
 1224000   0.77315223   -2.8887087    990.23111  0.067417696   0.06753051            6 
 1225000   0.74936152   -2.8656207    994.14563  0.067628954  0.067497289            4 
 1226000   0.76127243   -2.8606763    991.38992  0.067386482  0.067464317           10 
 1227000   0.77221853   -2.8834332    990.57523  0.067276231  0.067431382            4 
 1228000   0.75260262   -2.8803741    993.20212   0.06739971  0.067398425            4 
 1229000    0.7542248   -2.8836481    990.04289  0.067130654  0.067365608            4 
 1230000   0.77404087   -2.9077562    995.73755  0.067461894  0.067332852            3 
 1231000   0.75367573   -2.8940339    992.55648  0.067191746  0.067300295            5 
 1232000   0.73276396   -2.8828191    996.01775   0.06737133  0.067267479            4 
 1233000   0.77836976    -2.892201     995.5017  0.067281812  0.067234632            3 
 1234000   0.76123868   -2.8880936    993.10233  0.067065257  0.067201859            5 
 1235000   0.74726076   -2.8833421    996.84695  0.067263627    0.0671695            4 
 1236000   0.75984953   -2.8697399    997.52588  0.067254981  0.067137187            3 
 1237000   0.75475585   -2.9075693    995.14934  0.067040511  0.067104906            6 
 1238000   0.74957916   -2.8829373    1000.1047  0.067319915  0.067072842            5 
 1239000   0.74280923     -2.88183    1001.0851  0.067331525   0.06704096            8 
 1240000   0.75070312   -2.8945172    999.00294  0.067137294  0.067009297            4 
 1241000   0.78373998   -2.8738591    999.29663  0.067102916  0.066977149            4 
 1242000   0.76144516   -2.8879857    1003.5936  0.067337197  0.066945326            3 
 1243000   0.76937919   -2.8862832    1000.9158  0.067103501  0.066913734            8 
 1244000   0.74179124   -2.8707898    1004.3744  0.067281244  0.066882213            4 
 1245000   0.76346444   -2.8836431    1006.8994  0.067396214  0.066851237            3 
 1246000    0.7427865   -2.8770225    1001.3132  0.066968514  0.066819199            3 
 1247000   0.75404514   -2.8658376     1001.138  0.066903104  0.066787187            4 
 1248000    0.7488278   -2.8995693    1004.7918  0.067093473   0.06675488            3 
 1249000   0.74640087   -2.8924231    1002.9495  0.066916831  0.066722606            2 
 1250000   0.74476529    -2.878248    1002.0131  0.066800872  0.066690087            4 
 1251000    0.7497014   -2.9212871    1000.2303  0.066628719  0.066657646            8 
 1252000   0.74544326   -2.8928837    1001.6848   0.06667231  0.066625218            8 
 1253000   0.74079171   -2.8958061    1001.6643  0.066617735  0.066592795            5 
 1254000   0.73915821   -2.9014297    1002.2073  0.066600696  0.066560606            2 
 1255000    0.7396268   -2.9007557    999.07059  0.066339348  0.066528389            5 
 1256000    0.7376204    -2.919174    1003.3925  0.066573285  0.066496206            3 
 1257000   0.75699106   -2.8981869    1002.6739  0.066472677   0.06646399            8 
 1258000   0.74928461   -2.8950531    1004.8568  0.066564442  0.066431408            6 
 1259000   0.74839717   -2.9176482    1001.5117   0.06629016  0.066399585            3 
 1260000   0.73957419   -2.8876699    1006.7588  0.066584575  0.066367494            4 
 1261000   0.75393149   -2.9058092    1008.3341   0.06663588  0.066335767            4 
 1262000   0.75220287   -2.8912332    1006.8674  0.066486224  0.066304282            4 
 1263000   0.75935658   -2.8963186     1007.395  0.066468395  0.066272689            4 
 1264000   0.72982082   -2.9042096    1006.2367  0.066339448  0.066240906           10 
 1265000   0.75401136   -2.9076666    1004.9617  0.066203013  0.066209182            5 
 1266000   0.76763728   -2.9068568    1008.8222  0.066404834  0.066177169            5 
 1267000   0.75402482   -2.8871744    1008.6678  0.066342267   0.06614564           11 
 1268000     0.745535    -2.888411    1007.0974  0.066186738  0.066113548            4 
 1269000    0.7447118    -2.900107    1007.4774  0.066159538  0.066081747            5 
 1270000   0.74707146   -2.9013265    1009.9684  0.066270891   0.06604982            6 
 1271000    0.7382253   -2.9021644    1011.6368   0.06632814  0.066017944            6 
 1272000   0.74622656   -2.8854736      1007.39  0.065997774  0.065986297            4 
 1273000   0.73356791   -2.8945668    1011.1385  0.066191315   0.06595426            6 
 1274000   0.73571915   -2.8848111    1011.3205   0.06615126  0.065921742            7 
 1275000   0.73601378   -2.9134657    1012.3772  0.066168442  0.065889653            2 
 1276000   0.73879414     -2.90838    1006.4822  0.065731594  0.065857702            9 
 1277000   0.74997603   -2.9106492     1008.271  0.065796857  0.065825273            5 
 1278000   0.74570188   -2.8902702    1014.9445  0.066180526  0.065793493            2 
 1279000   0.75385595   -2.8860486     1011.671  0.065915494  0.065761487            7 
 1280000   0.74133256   -2.8837129    1015.7639  0.066130462  0.065729495            6 
 1281000   0.74219345   -2.9285518    1009.2715  0.065656483  0.065697885            4 
 1282000   0.72994369   -2.9139446    1014.7685  0.065962589  0.065666478            7 
 1283000   0.74684549   -2.9112222    1013.1771  0.065807814  0.065634707            6 
 1284000   0.74147136   -2.9159325    1017.1509  0.066014467   0.06560307            2 
 1285000    0.7391919   -2.9107923    1015.4845  0.065855029   0.06557145            4 
 1286000   0.75962685   -2.8934869    1016.3424  0.065859412  0.065539977            4 
 1287000   0.74338246   -2.9206523    1016.0256   0.06578772  0.065508912            4 
 1288000   0.74692168   -2.9368446     1016.135  0.065743724  0.065477494            5 
 1289000   0.74526505   -2.9122148    1019.7022  0.065923339  0.065445905            3 
 1290000   0.74390213   -2.9015091    1016.9912  0.065697104  0.065414868            4 
 1291000   0.72287187   -2.9057707    1020.6212  0.065880533  0.065383793            4 
 1292000   0.73022163   -2.9228469    1017.4586  0.065625554   0.06535266            6 
 1293000   0.75442596   -2.9308911    1019.2061  0.065687429  0.065321502            4 
 1294000   0.72563026   -2.9156904    1019.8814   0.06568015  0.065290336            4 
 1295000   0.74595515   -2.9061734    1018.5659  0.065544782  0.065258979            3 
 1296000    0.7555677   -2.9086473    1019.5308  0.065556249  0.065228078            5 
 1297000   0.74953723   -2.9154318    1020.3557  0.065558703  0.065197083            4 
 1298000   0.73128384   -2.9352548      1019.62  0.065460962  0.065165792            4 
 1299000   0.74003527   -2.9248359    1020.0391  0.065437459  0.065134964            3 
 1300000   0.73388208   -2.9183832    1020.8222  0.065437319  0.065104077            3 
 1301000     0.733126   -2.9067218    1020.7367  0.065381544  0.065073404            6 
 1302000   0.72701163   -2.9169227    1024.3751  0.065564201  0.065042459            4 
 1303000   0.72173124    -2.917487    1022.1361  0.065370687  0.065011854            6 
 1304000   0.74013639   -2.9188218    1021.8847  0.065304491  0.064981136            6 
 1305000   0.72448483   -2.9342614    1023.6089  0.065364552  0.064950279            3 
 1306000   0.73142024   -2.9334791    1020.7535  0.065132309  0.064919049            5 
 1307000   0.72615987   -2.9148981    1021.1376   0.06510696  0.064887639            3 
 1308000   0.72150497   -2.9599898    1022.5871  0.065149533  0.064856251            3 
 1309000   0.73080454   -2.9308749    1019.6019   0.06490972  0.064824789            8 
 1310000   0.73006959   -2.9326025    1024.4272  0.065167127  0.064793619            8 
 1311000   0.74649055   -2.9229995    1025.2248  0.065168117  0.064762516            3 
 1312000   0.73411588   -2.9329386    1027.6936  0.065275254  0.064731351            4 
 1313000   0.72918396    -2.936081    1026.7819  0.065167674  0.064700037            4 
 1314000   0.72512945    -2.933471    1024.3487   0.06496377   0.06466868            5 
 1315000   0.73736216   -2.9415293    1023.0669  0.064833134  0.064637101            5 
 1316000   0.74343309   -2.9414906    1021.2466  0.064668606  0.064605492            4 
 1317000   0.71726804   -2.9505606     1022.192  0.064679322  0.064573752            6 
 1318000   0.72483498    -2.920626    1028.8555  0.065051559  0.064542504            2 
 1319000   0.73659165   -2.9328701    1026.1477  0.064831169  0.064511108            4 
 1320000   0.71375729   -2.9243166    1027.0357  0.064838111  0.064479838            4 
 1321000   0.73037372   -2.9274884    1026.4895  0.064754575  0.064448961            5 
 1322000    0.7136218   -2.9537113    1027.6676  0.064779854  0.064417844            4 
 1323000   0.72607368   -2.9442902    1024.2998  0.064518758  0.064386381            4 
 1324000   0.72694617   -2.9320365     1024.664   0.06449295   0.06435552            5 
 1325000   0.73142722   -2.9352894     1027.543  0.064625347    0.0643243            6 
 1326000    0.7318237   -2.9145938    1024.9749  0.064415212   0.06429336            9 
 1327000   0.71421192    -2.922471    1031.5537  0.064779808    0.0642624           11 
 1328000   0.72666657   -2.9287009    1026.6889  0.064425759  0.064231588            5 
 1329000   0.71338845    -2.942051    1029.2347  0.064536911  0.064200681            7 
 1330000   0.71978236   -2.9336063    1032.3576  0.064684059  0.064169938            4 
 1331000   0.71258149   -2.9304624    1028.9618  0.064422851  0.064139195            3 
 1332000   0.70542942   -2.9334403    1031.6017  0.064539646  0.064108599            4 
 1333000    0.7376529    -2.957158    1029.9162  0.064385858  0.064077812            3 
 1334000   0.72604318   -2.9489188    1031.1851  0.064416859  0.064047171            7 
 1335000   0.71234527   -2.9544334    1033.2111  0.064495076  0.064016182            3 
 1336000   0.74369067   -2.9509054    1031.1281  0.064316872  0.063985313            4 
 1337000    0.7162441   -2.9484492    1032.0828   0.06432827  0.063954569            6 
 1338000   0.71863881   -2.9503242    1034.2641  0.064416048  0.063924064            6 
 1339000   0.71699922   -2.9320892    1033.9403  0.064347791  0.063893716            8 
 1340000   0.69680182   -2.9494779    1035.0782  0.064370535  0.063862926            4 
 1341000   0.70955977    -2.954588    1035.5055  0.064349084  0.063832244            6 
 1342000   0.71290417   -2.9345008    1033.4932  0.064176177  0.063801888            8 
 1343000   0.69861539   -2.9368995    1036.9754  0.064344464  0.063771071            7 
 1344000   0.73087837   -2.9604712    1032.4613  0.064016697  0.063740369            6 
 1345000   0.72166848   -2.9382849    1036.1105  0.064195197  0.063709445            4 
 1346000   0.70818078   -2.9490272    1036.1936   0.06415265  0.063678686           10 
 1347000   0.71041638   -2.9631591    1035.7587  0.064078115  0.063648097            5 
 1348000    0.7209795   -2.9513383    1036.7759  0.064093468  0.063617404            3 
 1349000   0.71866983   -2.9498917     1041.506  0.064338154  0.063587022            4 
 1350000   0.71510221   -2.9401326    1036.6324  0.063989654  0.063556478            3 
 1351000   0.71302884   -2.9665888    1037.2555  0.063980726  0.063525998            7 
 1352000   0.71625261   -2.9544864    1037.1493  0.063926857   0.06349502            3 
 1353000   0.70072089   -2.9819929    1035.8249  0.063798035  0.063464201            6 
 1354000   0.70017727   -2.9439483    1039.9682  0.064005923  0.063433321            3 
 1355000   0.71395252   -2.9253618    1038.3673  0.063860226  0.063402893            5 
 1356000   0.72010867   -2.9500292    1039.2641  0.063868243  0.063372001            3 
 1357000   0.71809278   -2.9391986    1038.1139  0.063750544  0.063341479            3 
 1358000    0.7196024   -2.9493401    1041.8022  0.063929937  0.063310804            3 
 1359000   0.72717472   -2.9377837    1039.6465  0.063750707   0.06328002            4 
 1360000   0.70538528   -2.9635038    1037.6385  0.063580789  0.063249245            4 
 1361000   0.71100362   -2.9423902    1040.5883  0.063714687  0.063218322            2 
 1362000   0.72399094   -2.9661885    1037.1154  0.063455422  0.063187487            6 
 1363000   0.70874864    -2.966402    1038.0434  0.063465605  0.063156817            3 
 1364000   0.70787196   -2.9564771    1042.3757  0.063683758  0.063126042            4 
 1365000   0.70992449   -2.9764862    1042.1116  0.063620978  0.063095403            4 
 1366000   0.70037065   -2.9535565    1040.7988  0.063494313  0.063064895            4 
 1367000   0.69983792   -2.9585688    1040.6341  0.063437823  0.063034218            8 
 1368000   0.70332927   -2.9584719    1040.7159  0.063396439  0.063003651            4 
 1369000   0.70042601   -2.9499604    1038.4129  0.063209943  0.062973074            4 
 1370000   0.70701561   -2.9652115    1042.9061  0.063437109  0.062942257            5 
 1371000   0.71747976   -2.9773756    1040.3644  0.063236347  0.062911459            5 
 1372000   0.70091198    -2.965544    1045.5059  0.063502547  0.062880548            8 
 1373000   0.70543705   -2.9616305    1038.8701  0.063053538  0.062849517            6 
 1374000   0.68970845   -2.9590963    1045.9909  0.063439528  0.062818864            5 
 1375000   0.70150564   -2.9839184    1038.7827  0.062956528  0.062788109            4 
 1376000   0.69481743   -2.9713991    1043.3183   0.06318546  0.062757411            3 
 1377000   0.70694826   -2.9658129    1046.0772  0.063306538  0.062726967            4 
 1378000   0.71320675   -2.9707315    1044.8948  0.063189091  0.062696694            8 
 1379000   0.70882505   -2.9530747    1044.3347  0.063109418  0.062666036            6 
 1380000   0.69191393   -2.9832861    1043.6531  0.063022531  0.062635631            3 
 1381000   0.69960185   -2.9970429    1047.9463  0.063235961   0.06260493            5 
 1382000   0.72742915   -2.9690993    1044.8033  0.063000684  0.062574545            5 
 1383000   0.69826107   -2.9435926     1048.146  0.063156546   0.06254418            5 
 1384000   0.70295595   -2.9483739    1044.9593  0.062919031  0.062513744            9 
 1385000   0.68688318   -2.9658326    1046.3442  0.062956931  0.062483481            5 
 1386000    0.7103441   -2.9712634    1048.5379  0.063043403  0.062453122            8 
 1387000   0.71710567   -2.9745652    1048.2683  0.062981753  0.062422902            6 
 1388000   0.70910706   -2.9651657    1047.4601  0.062887851  0.062392808            3 
 1389000   0.69604166   -2.9686575    1047.3407  0.062835412  0.062362737            6 
 1390000    0.7016526   -2.9877337     1050.905  0.063003896  0.062332407           10 
 1391000    0.7077779   -2.9722274    1052.0397   0.06302658  0.062302124            4 
 1392000   0.70091685   -2.9636164    1048.6059  0.062775738  0.062272069            5 
 1393000   0.70109085   -2.9745541    1051.0197  0.062875074  0.062242217            6 
 1394000    0.6953959   -2.9831567    1051.5735  0.062863074  0.062211911            4 
 1395000   0.71029021   -2.9733061    1048.9202  0.062659512  0.062181648            7 
 1396000   0.70481807   -2.9825456    1052.8672   0.06285024   0.06215193            6 
 1397000   0.68223495   -2.9768079    1051.1548  0.062703102  0.062122175           11 
 1398000   0.70799921   -2.9796656    1053.3347  0.062788192  0.062092528            4 
 1399000   0.70149062   -2.9678214     1053.109  0.062729868  0.062062887            8 
 1400000   0.70017618   -2.9774536    1055.5363  0.062829544  0.062033364            7 
 1401000   0.69787726   -2.9891531    1052.3194  0.062593351  0.062003573            6 
 1402000     0.673656    -2.972317     1056.699  0.062809021   0.06197374            5 
 1403000   0.70986894   -2.9723675    1056.6381  0.062760635  0.061944056            3 
 1404000   0.70553045   -2.9918657    1055.5368  0.062650569  0.061914318            9 
 1405000   0.68408981   -2.9761677    1055.1473  0.062582879  0.061884792            5 
 1406000   0.68005803   -2.9812173    1057.3415  0.062668416  0.061855203            6 
 1407000   0.70016093   -2.9981037    1057.2096  0.062616061   0.06182568            4 
 1408000   0.70952308   -3.0067111    1054.7224  0.062424385  0.061796012            3 
 1409000   0.68886223   -2.9770714    1056.1208  0.062462784  0.061766555            6 
 1410000   0.69039622   -2.9708376    1055.5374  0.062384007   0.06173668            7 
 1411000   0.67539326   -2.9745285    1055.4083  0.062332171  0.061706928            3 
 1412000   0.68125098   -2.9532743    1055.9433  0.062319597  0.061677317            4 
 1413000   0.68636301   -3.0169221    1057.0919  0.062343237  0.061647593            5 
 1414000    0.6825882    -3.019828    1055.1833  0.062186666  0.061617973            8 
 1415000   0.70088965   -3.0075844    1053.9696  0.062071237  0.061587994            3 
 1416000   0.68401184   -2.9877175     1055.791   0.06213459  0.061558095            7 
 1417000   0.68661651   -2.9892307    1059.1962  0.062291001  0.061528489           10 
 1418000   0.69073283   -2.9832644    1057.3719  0.062139862  0.061498591            4 
 1419000   0.68409875    -2.989983    1056.6061    0.0620511  0.061468839            5 
 1420000   0.69100001   -2.9926203    1055.6193  0.061949487  0.061438794            6 
 1421000   0.66913419   -3.0063424    1056.9337  0.061982977   0.06140874            4 
 1422000   0.67525028   -2.9802315    1056.9808  0.061942144   0.06137872            5 
 1423000   0.68805118    -2.992883    1056.1575  0.061850401  0.061348869            6 
 1424000   0.70577752   -3.0198263    1057.2613  0.061871565  0.061318865            4 
 1425000   0.68121419   -3.0040026    1057.7907  0.061859108  0.061288572            6 
 1426000   0.68860181    -3.001539    1055.7389  0.061695819  0.061258898            8 
 1427000   0.68676553    -2.977628    1060.1532  0.061910372  0.061228939            6 
 1428000   0.69100516   -3.0036289     1056.268  0.061640289  0.061198772            6 
 1429000   0.69017483   -2.9698065    1060.2512  0.061829437  0.061168724            3 
 1430000   0.67384808   -2.9875468    1057.1359  0.061604654  0.061138797            7 
 1431000   0.68782743   -2.9822294    1060.9048  0.061781084  0.061109139            5 
 1432000    0.6904556   -2.9818832    1061.1662  0.061753157  0.061079307            5 
 1433000   0.68235565   -2.9971305    1060.9705  0.061698681  0.061049517            6 
 1434000   0.68017446   -3.0068491    1059.1741  0.061551258   0.06101924            5 
 1435000   0.66699476   -2.9989992    1059.3085  0.061516171  0.060989149            5 
 1436000   0.68106393   -3.0149852    1059.3805  0.061477513  0.060958944            3 
 1437000   0.67364893   -2.9930371    1059.2639  0.061427967  0.060928812            2 
 1438000   0.69617664   -3.0027785    1058.7125  0.061353297  0.060898661            7 
 1439000   0.67857866   -3.0007161    1063.3163  0.061577272  0.060868407            6 
 1440000   0.66809515   -2.9970876    1060.2482  0.061356958  0.060838056            7 
 1441000   0.68578779   -2.9930699    1058.6186  0.061220137  0.060807874            2 
 1442000   0.68063832   -2.9979492    1060.5703  0.061290469  0.060777781            8 
 1443000   0.67323911   -3.0145997    1060.4669  0.061242025  0.060747681            5 
 1444000   0.67545603   -3.0042528    1062.7692  0.061332476  0.060717594            8 
 1445000   0.67021982   -3.0133186    1061.6919  0.061227907  0.060687711            4 
 1446000   0.67207089   -3.0132248    1061.8954  0.061197289  0.060657605            4 
 1447000   0.67430916   -3.0128779    1063.4611  0.061245167  0.060627395            3 
 1448000   0.67616458   -3.0153888    1061.4046  0.061084521  0.060597168            6 
 1449000   0.66186789   -3.0342136    1058.9631  0.060901952  0.060567098            4 
 1450000   0.66668209   -3.0119751    1060.8726   0.06096969  0.060536536           10 
 1451000   0.66861021   -3.0310823    1060.2952   0.06089451  0.060506125            6 
 1452000   0.67996898    -3.005887    1063.3875  0.061030043  0.060475709            2 
 1453000   0.66935982    -3.007431    1063.3973  0.060988605  0.060445537           10 
 1454000   0.67217933    -3.015635    1062.1589  0.060875681  0.060415238            5 
 1455000   0.67171165   -3.0374391     1066.908   0.06110584  0.060384947            2 
 1456000   0.67526179   -3.0271377    1064.8189  0.060944305  0.060354826           13 
 1457000   0.66647428   -3.0380399    1065.9165  0.060965253  0.060324807           10 
 1458000   0.66319769   -3.0168517    1062.6762  0.060738237  0.060294562            4 
 1459000   0.67062078   -3.0261097    1065.8801  0.060879601  0.060264569           14 
 1460000   0.67812381   -3.0111528    1065.1548  0.060796506   0.06023459            4 
 1461000   0.67385846   -3.0098633    1064.5571    0.0607208  0.060204509            5 
 1462000   0.66086072   -3.0419297    1064.5651  0.060679723  0.060174471            6 
 1463000   0.67748143   -3.0223671    1066.0288  0.060721621  0.060144523           17 
 1464000   0.67571422   -3.0341822    1065.5583  0.060653365  0.060114465            3 
 1465000   0.66768877   -3.0264327    1066.3927  0.060659426  0.060084516            3 
 1466000   0.66010369    -3.013026    1065.1605  0.060548005   0.06005457            5 
 1467000   0.66499405   -3.0017744     1064.169  0.060450411  0.060024519           13 
 1468000   0.66232687   -3.0116517    1066.9893  0.060569331   0.05999464            3 
 1469000   0.66090018   -3.0064338    1069.3118   0.06065985   0.05996469            5 
 1470000   0.66840866   -3.0099567    1069.1315  0.060608363  0.059934584            9 
 1471000     0.658519   -3.0184363    1066.4102  0.060412995  0.059904439            4 
 1472000    0.6686557   -3.0215073    1066.4121  0.060372061  0.059874506            3 
 1473000   0.65830697   -3.0233768    1068.1901  0.060431667  0.059844608            7 
 1474000   0.66965486   -3.0157732    1070.7254  0.060533999  0.059814832            5 
 1475000   0.64802511    -3.033657    1068.5899  0.060372311  0.059784892           10 
 1476000   0.66898471   -3.0251299      1070.03  0.060412716  0.059754782            5 
 1477000    0.6598192    -3.033531    1064.3703  0.060052491  0.059724526            5 
 1478000   0.67060475   -3.0206742    1069.2164  0.060285094  0.059694274            4 
 1479000   0.67924645   -3.0407593    1068.0544  0.060178861  0.059664201           11 
 1480000   0.66334004   -3.0201789    1067.5595  0.060110331  0.059633868            6 
 1481000   0.65638047    -3.009621     1068.137  0.060102239  0.059603655           12 
 1482000   0.67188545   -3.0313667    1067.7976  0.060042601  0.059573254            3 
 1483000   0.66252967   -3.0098604    1065.8453  0.059892408  0.059542986            9 
 1484000   0.65222719   -3.0279577    1065.5433  0.059835089  0.059512295            9 
 1485000   0.67791304   -3.0379884    1069.5089  0.060017333  0.059481839            6 
 1486000   0.66664664   -3.0203355    1068.2388  0.059905717  0.059451352            5 
 1487000   0.66938313     -3.01306    1068.8044  0.059897132  0.059421054            5 
 1488000   0.64958717   -3.0389935    1067.3866  0.059777475  0.059390504            6 
 1489000   0.66543263   -3.0329742    1069.2897  0.059843836  0.059360084            3 
 1490000   0.65376837   -3.0196918     1072.034  0.059957161  0.059329706            8 
 1491000   0.65169166   -3.0221539    1070.6799  0.059841264  0.059299387            3 
 1492000   0.63970848   -3.0165187    1070.2937  0.059779587   0.05926871            4 
 1493000   0.65504504   -3.0374177    1066.7453  0.059541488  0.059238075            4 
 1494000   0.64577719   -3.0565886    1067.8434  0.059562886  0.059207156           14 
 1495000   0.66776934   -3.0244612    1070.2601  0.059657754  0.059176472            9 
 1496000    0.6567823   -3.0291105    1067.0501  0.059439064  0.059145966            6 
 1497000   0.65389843   -3.0260648    1069.4674  0.059533924  0.059115414           17 
 1498000   0.65967206   -3.0387824    1072.2099  0.059646743  0.059084971            6 
 1499000    0.6469228     -3.05023    1067.2711  0.059332392   0.05905433            8 
 1500000   0.65387326   -3.0450689    1071.0505  0.059502805  0.059023622            7 
 1501000   0.65725978    -3.049594    1071.4385  0.059484705   0.05899312            6 
 1502000   0.65736452   -3.0321264    1069.5282  0.059339112   0.05896272            6 
 1503000   0.66199106   -3.0468444    1068.1807  0.059224924   0.05893213            8 
 1504000   0.66680907   -3.0261666    1072.9613  0.059450427  0.058901772            8 
 1505000   0.64308333   -3.0575234    1075.9405  0.059575887  0.058871833            3 
 1506000    0.6649752   -3.0490965    1073.4493  0.059398476  0.058841709           12 
 1507000   0.64725531   -3.0418244    1073.3939  0.059355998  0.058811487            5 
 1508000   0.64600112   -3.0641952    1069.7542  0.059115504   0.05878101            7 
 1509000   0.65799455   -3.0532489    1073.3882  0.059277014  0.058750615            4 
 1510000   0.67198334   -3.0335208    1071.1445  0.059113937   0.05872035            8 
 1511000   0.65259408   -3.0559137    1074.2725  0.059247327   0.05869007            4 
 1512000   0.64688274   -3.0382466    1072.8014  0.059127063   0.05865991            3 
 1513000   0.63164675   -3.0213997     1074.104  0.059159729  0.058629862            9 
 1514000   0.64294224   -3.0516824    1072.8682  0.059052632  0.058599729            7 
 1515000   0.63840749   -3.0646133     1069.492  0.058827944   0.05856929            5 
 1516000   0.64756234   -3.0632584    1072.9411  0.058978732  0.058538798            8 
 1517000   0.65659435   -3.0576127    1074.4277  0.059021517  0.058508533            5 
 1518000   0.64748257   -3.0737162    1075.5538  0.059044455  0.058478273           11 
 1519000   0.64962486   -3.0474905     1072.502  0.058838164  0.058447702            6 
 1520000   0.65913845   -3.0268796    1073.4104  0.058849255  0.058417312            6 
 1521000   0.64999559   -3.0516441    1074.3926  0.058864379  0.058386845            3 
 1522000    0.6532637   -3.0458871    1073.3036  0.058766075  0.058356487            4 
 1523000    0.6384758   -3.0748813    1075.5805  0.058852074  0.058326117            7 
 1524000   0.64594128   -3.0610576    1070.9869  0.058562276  0.058295515            6 
 1525000   0.65347233   -3.0344626    1073.2875  0.058649593  0.058264969            5 
 1526000   0.64841833   -3.0622079    1072.8849  0.058589169  0.058234217           11 
 1527000   0.64082793   -3.0710048    1074.4025  0.058633622  0.058203394            6 
 1528000   0.65493332   -3.0537545    1075.1809  0.058637704  0.058172526            6 
 1529000   0.64998574   -3.0775354    1074.8792   0.05858291  0.058141915            5 
 1530000   0.64675043   -3.0398504    1075.5826   0.05858293  0.058111343            6 
 1531000   0.65140701    -3.058992     1077.762  0.058663294  0.058080744            7 
 1532000   0.64131644    -3.055767    1073.4388  0.058389841  0.058050235            6 
 1533000   0.64808355   -3.0557204    1074.7048  0.058420572  0.058019678            8 
 1534000   0.64775582   -3.0610893    1077.6927  0.058544801  0.057989115            4 
 1535000   0.64355492   -3.0566084    1073.6613    0.0582878  0.057958634           13 
 1536000   0.63300471   -3.0547938    1076.8855  0.058424777  0.057928229            4 
 1537000   0.63250202    -3.051314    1078.2189  0.058459061   0.05789766            6 
 1538000   0.64169232   -3.0712663    1076.3917  0.058322046  0.057867119            4 
 1539000   0.62639215   -3.0455878    1075.4377  0.058232495  0.057836494            7 
 1540000   0.63416586   -3.0585362    1076.3403  0.058243524  0.057805846            6 
 1541000   0.65358249   -3.0704911    1075.2069  0.058144437  0.057775254            8 
 1542000   0.63997366   -3.0821105    1074.3886  0.058062505  0.057744278            7 
 1543000   0.63785667   -3.0629554    1078.2438  0.058233084  0.057713709            4 
 1544000   0.64279169   -3.0588112    1079.8955  0.058284516  0.057683328            6 
 1545000   0.64101298   -3.0587163    1080.2146     0.058264  0.057652991            5 
 1546000   0.62167354   -3.0807063    1082.2593  0.058336531  0.057622375            4 
 1547000   0.64617013   -3.0767011    1076.7631  0.058002754  0.057591931            4 
 1548000   0.64569818   -3.0727974    1079.5993  0.058117962  0.057561668            6 
 1549000   0.63313994   -3.0710494    1079.3479  0.058066921  0.057531333            6 
 1550000   0.63725489   -3.0547887    1081.2732  0.058132966  0.057501113            6 
 1551000   0.63418904   -3.0725804    1080.9679  0.058079082   0.05747105            5 
 1552000   0.63564373   -3.0779517    1079.7777  0.057977752  0.057440901            7 
 1553000   0.64096184   -3.0628277    1079.1658  0.057907589  0.057410712            5 
 1554000   0.63945394   -3.0974751    1078.8258   0.05785209  0.057380372            5 
 1555000   0.65073284   -3.0781172     1077.859  0.057763074  0.057350021            9 
 1556000   0.62010061   -3.0775644    1082.6213  0.057981003  0.057319659            8 
 1557000   0.63198747   -3.0868955    1078.4371   0.05771982  0.057289551            6 
 1558000   0.61880771   -3.0628803    1081.4563  0.057844258  0.057259298            6 
 1559000   0.62840117   -3.0694553    1079.2356  0.057688453  0.057228983           16 
 1560000   0.62738139   -3.0879246    1079.7871  0.057680935  0.057198763           12 
 1561000   0.63198468    -3.087349    1080.0256  0.057656716   0.05716872            5 
 1562000   0.62062122   -3.0859665    1080.8143  0.057661883  0.057138657            6 
 1563000    0.6223862   -3.0686387     1078.738  0.057514286  0.057108403           14 
 1564000   0.63139968   -3.0502503    1082.6915  0.057688164  0.057078258            6 
 1565000   0.63686829   -3.0796346    1084.8949  0.057768633  0.057048108            6 
 1566000   0.62933326   -3.0982608    1080.0285  0.057472781   0.05701786            5 
 1567000   0.63962977   -3.0708653    1081.4381  0.057511066  0.056987752            9 
 1568000   0.63693581   -3.0720548    1081.3247   0.05746836  0.056957501           15 
 1569000   0.63746584   -3.0872703    1079.2111  0.057319478  0.056926951            7 
 1570000    0.6267981   -3.0727402     1080.187  0.057334765  0.056896495            6 
 1571000   0.63071769   -3.0732296    1080.5676  0.057318459  0.056866227            6 
 1572000   0.63681517   -3.0819879    1080.2133  0.057263218  0.056835723            8 
 1573000   0.63712968   -3.0876461    1081.0344   0.05727031  0.056805254            9 
 1574000   0.63102699   -3.0758904     1080.211  0.057190331  0.056774806            7 
 1575000   0.61215361   -3.1040128    1080.8793  0.057189379  0.056744458            9 
 1576000   0.62595095   -3.0925118    1087.2552  0.057490231  0.056714266            6 
 1577000   0.63645823   -3.0816399    1083.2307  0.057241107  0.056684069           12 
 1578000   0.61180573   -3.0970421    1082.8769  0.057186151  0.056653882            6 
 1579000   0.61347645   -3.0970551    1080.3095  0.057014436   0.05662379            9 
 1580000   0.62439501   -3.0959224    1081.2251   0.05702664  0.056593752            7 
 1581000    0.6213804   -3.0709189    1082.6105  0.057063596  0.056563747            5 
 1582000   0.62689545   -3.0834284    1081.9683  0.056993695   0.05653371            6 
 1583000   0.60895977   -3.0757996    1085.4482  0.057140882  0.056504029            5 
 1584000   0.62813964   -3.0861577    1084.9375   0.05707794  0.056473972            9 
 1585000   0.61564454   -3.0753731    1084.6628  0.057027489  0.056444339            3 
 1586000   0.61359844   -3.0960735     1086.032  0.057063471   0.05641447            7 
 1587000   0.61520707   -3.0888163    1085.2088  0.056984291  0.056384552            7 
 1588000    0.6257936   -3.0631847    1087.6807  0.057078121  0.056355049            5 
 1589000   0.61730958   -3.1033437    1085.3255  0.056918686  0.056325353            6 
 1590000   0.62453711   -3.1045559    1085.5003  0.056892047  0.056295494            9 
 1591000   0.61416515   -3.0956329     1085.249  0.056843127  0.056265797            9 
 1592000   0.62480679   -3.1040104    1088.9991  0.057003719  0.056236057            8 
 1593000    0.6149597   -3.0848652    1086.1151  0.056817071  0.056206254            7 
 1594000   0.60837362   -3.0983184     1081.971  0.056564774  0.056176249            6 
 1595000   0.60449031   -3.1121694    1086.5799  0.056770107  0.056146339           10 
 1596000     0.616584   -3.0967295    1086.5106  0.056730924  0.056116326            5 
 1597000   0.61859513   -3.1096914    1087.7646  0.056760834  0.056086543            8 
 1598000   0.62237131    -3.126045    1086.1286  0.056639996  0.056056702            6 
 1599000    0.6208873   -3.0985447    1086.0956  0.056602856   0.05602678            7 
 1600000    0.6086808   -3.1077707     1083.059  0.056409323  0.055996851            7 
 1601000   0.60936581   -3.1269567    1086.1828  0.056536688  0.055966846            9 
 1602000   0.62578799   -3.0997103    1086.5382  0.056519881   0.05593674            4 
 1603000    0.6025189   -3.1074522     1085.006  0.056404971   0.05590678            6 
 1604000   0.63232931   -3.0941419    1086.0684  0.056425002   0.05587672           10 
 1605000   0.62904721   -3.1157643    1087.8775  0.056483775  0.055846927            6 
 1606000   0.61121832    -3.104589    1089.3372  0.056524345    0.0558169            5 
 1607000   0.61936877   -3.1070316    1087.5288  0.056395395  0.055786831           14 
 1608000   0.61029049   -3.1137827    1085.9035  0.056276096  0.055756869            7 
 1609000   0.60926316    -3.111506    1087.3483  0.056315948  0.055726713            7 
 1610000   0.59765909   -3.1059867    1086.0275  0.056212602  0.055696675            8 
 1611000   0.60764037   -3.1235753    1087.9149  0.056275341  0.055666704            5 
 1612000   0.61279683   -3.1159273    1087.7746  0.056233176  0.055636784           10 
 1613000   0.61886925   -3.0953964     1087.907  0.056205155  0.055606681            7 
 1614000   0.60410683   -3.1066322    1086.7303  0.056109578  0.055576615            4 
 1615000   0.61064415   -3.1009327    1087.1395   0.05609595  0.055546739           10 
 1616000   0.62486159   -3.1046527    1089.2533   0.05617024  0.055516996            6 
 1617000   0.60635943   -3.1328959    1086.9759  0.056018136   0.05548707            8 
 1618000   0.60399494    -3.132489     1091.477  0.056215336  0.055457213            7 
 1619000   0.60603387   -3.0879152    1089.9054  0.056099724  0.055427375           10 
 1620000   0.60008571   -3.1306394    1087.5774  0.055945338  0.055397445            7 
 1621000   0.60447399   -3.1190177    1089.5308  0.056011246  0.055367458            8 
 1622000   0.61032883   -3.1101592    1091.7248  0.056089438  0.055337663            8 
 1623000   0.60169489   -3.1171364    1091.1155  0.056023593  0.055307947           13 
 1624000   0.60659748   -3.0969663    1089.4361  0.055902919  0.055278297            4 
 1625000   0.60456217   -3.1224058    1088.9996  0.055846134  0.055248642           11 
 1626000   0.60735249   -3.1347827    1088.6293   0.05579281  0.055218953            6 
 1627000   0.59862721   -3.1108341    1089.2161  0.055788571   0.05518926            6 
 1628000   0.60850378   -3.1230829    1094.6528  0.056032594  0.055159543            5 
 1629000   0.62150722   -3.1054175    1092.4472  0.055885371  0.055130002            7 
 1630000   0.59386416   -3.1254458    1088.3771     0.055643  0.055100458            7 
 1631000   0.60037388   -3.1263841    1088.3783  0.055608945  0.055070749            4 
 1632000   0.58595146   -3.1144467    1090.0136  0.055658374  0.055040828            5 
 1633000   0.60787406   -3.1040645    1092.0496  0.055728191  0.055011041            5 
 1634000    0.6065553   -3.1311795    1091.6745  0.055674952  0.054981419            7 
 1635000   0.61577107   -3.1089547    1093.0108  0.055709012  0.054951801            9 
 1636000   0.60358204   -3.1387158    1093.2786  0.055688602  0.054922322            5 
 1637000    0.6057738   -3.1350596    1091.9213  0.055585485  0.054892784            9 
 1638000   0.60332647   -3.1328294    1095.2028    0.0557185  0.054863362            3 
 1639000   0.59630558   -3.1266542    1093.6946  0.055607821  0.054833928           17 
 1640000   0.60196552   -3.1055444    1094.2786  0.055603585  0.054804446            6 
 1641000   0.58457671   -3.1131215    1094.6892  0.055590554  0.054775243           13 
 1642000   0.59391852   -3.1039026    1094.1668  0.055530187  0.054745862           15 
 1643000   0.60464638   -3.1488311    1093.8224  0.055478918  0.054716525            7 
 1644000   0.59023709   -3.1142788     1092.379  0.055372009  0.054687027            8 
 1645000   0.58766034   -3.1364035    1091.5251  0.055295093  0.054657525            9 
 1646000   0.58595323   -3.1128437    1095.4691  0.055461171  0.054628076            8 
 1647000   0.60488544   -3.1386106    1092.7573   0.05529029  0.054598593            7 
 1648000   0.59348829   -3.1299497    1092.2034  0.055228734   0.05456928           14 
 1649000   0.59467386   -3.1315977     1091.077  0.055138314  0.054539884            8 
 1650000    0.5924733   -3.1316437    1094.3303  0.055269209  0.054510538           15 
 1651000   0.60024227   -3.1394568    1094.8253  0.055260715  0.054481252           10 
 1652000   0.60005774   -3.1181021    1096.1739  0.055295291   0.05445213            7 
 1653000   0.58423585   -3.1540163    1094.7066  0.055187873  0.054422718            6 
 1654000   0.60635867   -3.1610846    1097.2009  0.055280175  0.054393436            5 
 1655000   0.59655168   -3.1391781    1094.5232  0.055111943  0.054364325           17 
 1656000   0.60029477   -3.1390292    1094.2312  0.055063968  0.054334903           11 
 1657000   0.58362657   -3.1421143    1096.5999  0.055149863  0.054305651            5 
 1658000   0.58678695   -3.1393608    1094.4133  0.055006702  0.054276435            7 
 1659000   0.59256146   -3.1286787    1095.2015  0.055013135  0.054246971           26 
 1660000   0.58529244   -3.1351725    1096.5922  0.055049811  0.054217655           10 
 1661000   0.60480401   -3.1277679    1097.0315  0.055038705  0.054188639            5 
 1662000   0.57823076   -3.1266742    1095.5014  0.054928872    0.0541595           11 
 1663000     0.603183   -3.1450836    1093.8995  0.054815568  0.054130208            9 
 1664000   0.58549415   -3.1572905     1096.836  0.054929688  0.054101018            9 
 1665000    0.5885987   -3.1466181    1095.3523  0.054822439   0.05407178            4 
 1666000   0.59046081   -3.1667139    1092.5421  0.054648965  0.054042392           10 
 1667000   0.58967698   -3.1447339     1096.026   0.05479034  0.054013114           13 
 1668000   0.57094326   -3.1359823    1097.4308   0.05482768  0.053984053           18 
 1669000   0.59220326   -3.1572998     1093.586  0.054602858  0.053954938            5 
 1670000   0.58489319   -3.1438929    1094.3677  0.054609166  0.053925746            7 
 1671000   0.59333642   -3.1373444    1096.4342  0.054679543  0.053896621           11 
 1672000   0.57746226   -3.1534524    1098.4253  0.054746079  0.053867459            9 
 1673000   0.58960652   -3.1612694    1096.3469  0.054609827  0.053838332            6 
 1674000   0.57634918    -3.146689    1099.2765  0.054723046  0.053808993           13 
 1675000   0.59283683   -3.1274779     1095.993  0.054527013  0.053779822            7 
 1676000   0.57972063   -3.1687821    1096.6095  0.054525132  0.053750596            8 
 1677000   0.58722972   -3.1397512    1097.1361  0.054518788  0.053721377           12 
 1678000   0.57899616   -3.1569864    1099.8238  0.054619775  0.053692298            6 
 1679000   0.57638163   -3.1558353     1095.593   0.05437726   0.05366326           11 
 1680000   0.58971964   -3.1685184    1094.3516  0.054283313   0.05363391            6 
 1681000   0.58732114   -3.1390439    1098.3288  0.054448186  0.053604808            7 
 1682000   0.56962555   -3.1625706    1100.5982   0.05452825  0.053575749            8 
 1683000   0.58472027   -3.1439561    1098.5493    0.0543944  0.053546614            4 
 1684000   0.59033391   -3.1380166    1097.0895  0.054289862  0.053517528            9 
 1685000   0.58322701   -3.1530524    1099.7555   0.05438949  0.053488506            7 
 1686000   0.59414728   -3.1662336    1095.9417  0.054168727  0.053459458           12 
 1687000   0.56990858   -3.1614006    1097.4369  0.054210478   0.05343034           12 
 1688000   0.57059907   -3.1614371    1097.9274  0.054202576  0.053401207            5 
 1689000   0.57606704   -3.1658909    1097.0462  0.054127006  0.053372213           12 
 1690000   0.57939904   -3.1628608    1100.1717  0.054249097  0.053343029            5 
 1691000   0.57722947   -3.1678758    1101.1538  0.054265415  0.053314067           22 
 1692000   0.58278186   -3.1615758    1099.2013  0.054137181  0.053285049           10 
 1693000   0.58253581   -3.1631141    1097.0548  0.053999548  0.053256082            8 
 1694000   0.58000659   -3.1438826    1101.2735  0.054175203  0.053227089            4 
 1695000   0.58312215   -3.1584886    1102.1773  0.054187673  0.053198054            9 
 1696000   0.58297966   -3.1758756    1097.3634  0.053919193   0.05316886            4 
 1697000    0.5730851   -3.1530695    1101.6775  0.054099268  0.053139813           10 
 1698000   0.58229262   -3.1820902    1100.3268   0.05400112  0.053110844            5 
 1699000   0.57034823   -3.1568897    1095.3258  0.053724041  0.053081832            9 
 1700000   0.56034671   -3.1842128     1097.935  0.053820341  0.053052601           16 
 1701000   0.57934225   -3.1632746    1100.8762  0.053932793    0.0530236            7 
 1702000   0.57530715   -3.1688241    1098.1388  0.053767076  0.052994654           11 
 1703000   0.56000534   -3.1834483    1097.0684  0.053683129  0.052965373           16 
 1704000    0.5750056   -3.1826513    1098.3979  0.053716641  0.052936537           14 
 1705000   0.57454325   -3.1673702    1098.7354   0.05370163  0.052907714            9 
 1706000   0.58016608   -3.1771058    1101.3377  0.053797271  0.052878948           10 
 1707000   0.57904749   -3.1675738    1100.4549  0.053722656  0.052850139            6 
 1708000   0.56847795    -3.170662    1103.3375  0.053831846   0.05282144           22 
 1709000   0.57111476   -3.1774501    1102.3718  0.053753259  0.052792831            9 
 1710000   0.56518896   -3.1879933    1098.5198  0.053534102  0.052763999            8 
 1711000   0.58191768   -3.1749844    1103.0639  0.053724134  0.052735395            7 
 1712000   0.58281162   -3.1677305    1099.6472  0.053526443  0.052706723           12 
 1713000   0.57349685   -3.1547364    1102.7897  0.053648071  0.052678116            6 
 1714000   0.57767031   -3.1747236    1100.2043  0.053491069  0.052649344           11 
 1715000   0.56876522   -3.1567668    1101.5711  0.053526291  0.052620644            4 
 1716000   0.55742772   -3.1939704    1101.2379  0.053478917  0.052591945            6 
 1717000   0.58345116   -3.1764084    1103.9018  0.053577063  0.052563308            6 
 1718000   0.56560038   -3.1691783    1101.7799  0.053442954  0.052534635           11 
 1719000   0.56435842   -3.1706936    1102.9155  0.053466914  0.052506038           10 
 1720000   0.57534023   -3.1699431    1102.7892  0.053429709  0.052477373            7 
 1721000   0.57939885   -3.1831043    1105.6347  0.053536445  0.052448678            5 
 1722000   0.55300848   -3.2003022    1103.1304  0.053384167  0.052419893            8 
 1723000   0.57145663   -3.1833812    1103.4577  0.053369015  0.052391095           15 
 1724000   0.55868702   -3.1748236    1103.5889  0.053344397   0.05236239           16 
 1725000   0.55738307   -3.1756653    1101.2472  0.053200346  0.052333652           11 
 1726000   0.56929054   -3.1728002    1103.3172  0.053269467  0.052304918            5 
 1727000   0.56755005   -3.1809386    1103.5943  0.053251995   0.05227621           16 
 1728000   0.56010547   -3.1923221    1099.1801  0.053008302  0.052247392            7 
 1729000   0.57743777   -3.1890556     1104.455  0.053231876  0.052218545           11 
 1730000   0.56040901   -3.1866511    1102.6822  0.053115714  0.052189866            9 
 1731000   0.54935481   -3.1821584     1102.444  0.053073562  0.052161217            6 
 1732000   0.55933158    -3.173463    1101.7619  0.053010097  0.052132462           10 
 1733000   0.55946236   -3.1863978    1106.7598  0.053219841  0.052103864            9 
 1734000   0.57054581   -3.1895093    1102.7417  0.052996047  0.052075349            5 
 1735000   0.55704196   -3.1756016    1103.3464  0.052994543  0.052046903            6 
 1736000   0.56128913   -3.1859167    1103.3791  0.052965589  0.052018427            5 
 1737000   0.56545085   -3.1992602    1103.8236  0.052956419  0.051989797            9 
 1738000   0.55902103   -3.1792107    1102.1995  0.052848075    0.0519612           14 
 1739000   0.55361838   -3.1956684    1103.8027  0.052894515  0.051932654           23 
 1740000   0.55433647   -3.1914151    1101.8508  0.052770632  0.051903904           10 
 1741000   0.55569528   -3.1900713    1101.8724  0.052741355  0.051875254            3 
 1742000   0.56698866   -3.1861703    1105.5939  0.052889109   0.05184671            7 
 1743000   0.56217587   -3.1893924    1104.8776  0.052824517  0.051818311            7 
 1744000   0.55051428    -3.184903    1103.4903  0.052727941  0.051789914            6 
 1745000   0.54561311   -3.1711947    1104.7032  0.052755645  0.051761601            6 
 1746000   0.56216222   -3.1977473     1106.633  0.052817538  0.051733147           17 
 1747000   0.56592943   -3.1952999    1105.6635  0.052741054  0.051704667            7 
 1748000   0.55090746   -3.1805304    1104.7867  0.052669083  0.051676343           33 
 1749000   0.55041878   -3.1992994    1105.8591  0.052690064  0.051648133           14 
 1750000   0.54987632   -3.1855141    1108.8636  0.052803028  0.051619919           11 
 1751000   0.56116831   -3.2093794    1104.3656  0.052558806  0.051591716            8 
 1752000   0.56392649   -3.1999466    1107.3902  0.052672671  0.051563462            6 
 1753000   0.56040099   -3.1912826    1106.9823  0.052623233   0.05153523           14 
 1754000   0.55562518   -3.2127931    1106.8038   0.05258475   0.05150689            7 
 1755000    0.5501382   -3.2067025     1106.112  0.052521939  0.051478634           14 
 1756000   0.55116918   -3.2014948     1105.711  0.052472998  0.051450515           10 
 1757000   0.54960663   -3.2102659    1105.3027  0.052423768  0.051422175           14 
 1758000   0.55426821    -3.209438    1105.5189  0.052404196  0.051393863           12 
 1759000   0.54034837   -3.2033843    1102.0838  0.052211662  0.051365523           12 
 1760000   0.54914739   -3.2098228    1105.6684  0.052351726  0.051337071           10 
 1761000   0.54810123   -3.2058527    1105.1718  0.052298497  0.051308629           19 
 1762000   0.54747041   -3.2010081    1106.4543   0.05232947  0.051280218           14 
 1763000   0.55372035   -3.1790196    1104.7893  0.052221086  0.051251886           12 
 1764000   0.55189261   -3.2126043    1103.7405  0.052141935  0.051223544           13 
 1765000   0.54599173   -3.2125901    1107.3653  0.052283538  0.051195212            9 
 1766000   0.56017231   -3.2051587    1102.1942   0.05200992  0.051166847            6 
 1767000   0.55726423   -3.2082137     1105.744  0.052147897   0.05113863            7 
 1768000   0.53944605   -3.2002225    1106.1869  0.052139275   0.05111049           10 
 1769000   0.54141022   -3.1978731    1106.4906   0.05212411  0.051082249           15 
 1770000   0.54605114   -3.1954924    1106.7549  0.052107107  0.051054038            9 
 1771000   0.54803139   -3.2271352    1105.9065  0.052037759  0.051025904            8 
 1772000    0.5494909   -3.2190722    1104.0532  0.051921235  0.050997532           11 
 1773000   0.55596151   -3.2294751    1103.7267  0.051876609  0.050969424           41 
 1774000   0.54453664   -3.2190108    1108.5885  0.052075745  0.050941211            8 
 1775000   0.54270645   -3.2111969    1104.7455  0.051865988  0.050913162           45 
 1776000   0.54051608   -3.2330751    1107.8106  0.051980603  0.050885019           17 
 1777000   0.54033951   -3.2099969    1105.6774  0.051851313  0.050856957           17 
 1778000   0.54111455   -3.2168312    1105.3887  0.051808618    0.0508287           15 
 1779000   0.54351283   -3.2163304    1106.3945   0.05182661  0.050800419           16 
 1780000   0.54608634   -3.2023878    1107.3283  0.051841213  0.050772214            7 
 1781000   0.53894708   -3.2321056    1105.6393  0.051733078  0.050744102            8 
 1782000   0.54231072   -3.2157878    1106.9496  0.051765319  0.050715881            7 
 1783000   0.54024537   -3.2221353    1105.8841  0.051686487  0.050687658           11 
 1784000   0.53955653   -3.2187209    1103.5557  0.051548751  0.050659381           12 
 1785000    0.5399569   -3.2355371    1104.0871  0.051544684  0.050631161            5 
 1786000   0.54621556   -3.1957336    1106.6428  0.051635071  0.050602953            8 
 1787000   0.53571809   -3.2231981    1107.2844  0.051636095  0.050574814           13 
 1788000    0.5461301    -3.217115    1108.6104  0.051669017  0.050546692            6 
 1789000   0.54348786   -3.2302893     1108.979  0.051657304  0.050518549            8 
 1790000   0.53942799   -3.2338805    1109.4789  0.051651719  0.050490442            9 
 1791000   0.53080896   -3.2294037    1107.2064  0.051517143  0.050462319           13 
 1792000   0.53753318   -3.2316866    1108.3931  0.051543579  0.050434275           13 
 1793000    0.5496112   -3.2123885    1107.6534  0.051480452  0.050406298            6 
 1794000   0.53568632   -3.2237575    1107.0343  0.051422999  0.050378391           12 
 1795000   0.54456846   -3.2299617    1109.0144  0.051486275  0.050350394           11 
 1796000   0.53932253   -3.2261753    1109.5312  0.051481587  0.050322563            6 
 1797000   0.53190318   -3.2414509    1110.0167  0.051475453  0.050294679           12 
 1798000   0.54149231   -3.2297898     1109.485  0.051422184  0.050266796           13 
 1799000   0.53681219   -3.2215282    1108.7692  0.051360441   0.05023895           19 
 1800000   0.53834473   -3.2212503    1109.5696  0.051368963  0.050211159           15 
 1801000   0.53355824   -3.2183267    1111.8862  0.051447632  0.050183156           13 
 1802000   0.52290768   -3.2314722    1109.3262  0.051300695  0.050155318           14 
 1803000   0.52767799   -3.2353024    1105.4991  0.051095354  0.050127526            8 
 1804000   0.54087749   -3.2351783    1109.4378  0.051248976  0.050099716           11 
 1805000   0.52980552   -3.2466936     1106.822  0.051099813  0.050071814           14 
 1806000    0.5283826   -3.2295403    1106.8594  0.051073246  0.050043946           16 
 1807000   0.52424744   -3.2349687    1108.5297  0.051122013  0.050016149           16 
 1808000   0.53515623   -3.2217347    1105.2046  0.050940479    0.0499884           17 
 1809000   0.53407958   -3.2450899    1109.4113  0.051106103  0.049960516           28 
 1810000   0.52560311   -3.2353551     1108.616  0.051041252  0.049932686           38 
 1811000   0.54241859   -3.2165514    1111.1863  0.051131342  0.049904897            6 
 1812000   0.53188262   -3.2301404    1106.6618  0.050895044  0.049877271           20 
 1813000   0.53996789   -3.2156175    1110.8849  0.051061082  0.049849682           14 
 1814000   0.53360352   -3.2325714    1111.3322  0.051053481  0.049822086            6 
 1815000   0.52678644    -3.233648    1110.9933  0.051009792  0.049794424            9 
 1816000   0.52668213   -3.2352757    1110.5867  0.050963048  0.049766761           15 
 1817000   0.52205568   -3.2282636    1111.0152  0.050954652  0.049739188           19 
 1818000   0.51867298   -3.2458588    1109.2433  0.050845401   0.04971148           12 
 1819000   0.52348584   -3.2482456     1109.412  0.050825178  0.049683734           16 
 1820000   0.52024844   -3.2419156    1109.3233   0.05079319  0.049655954           15 
 1821000   0.53338621   -3.2442235    1108.9325  0.050747413  0.049628261           12 
 1822000   0.53113412   -3.2317465    1110.7482  0.050802606  0.049600735            6 
 1823000   0.53098537   -3.2433782    1111.8364  0.050824483  0.049573215           24 
 1824000   0.52883883   -3.2385918    1110.0934  0.050716986  0.049545638           16 
 1825000   0.54029686   -3.2423888    1107.9273  0.050590286  0.049517893           12 
 1826000   0.52365752   -3.2398187    1108.9931  0.050611221  0.049490018           11 
 1827000   0.51643645   -3.2467353    1107.8188  0.050529959  0.049462173           11 
 1828000   0.52882154   -3.2515102    1110.6891  0.050633164  0.049434353           20 
 1829000   0.52120647   -3.2540539    1109.5536  0.050553747  0.049406489            7 
 1830000   0.51987702   -3.2675219    1108.4198  0.050474492  0.049378713           11 
 1831000   0.51528021   -3.2516397    1106.6284  0.050365393  0.049350846            9 
 1832000   0.52089347   -3.2521039    1109.1025  0.050450443  0.049323076            7 
 1833000   0.53236108   -3.2557719    1108.2242  0.050382986  0.049295316           19 
 1834000   0.50826839   -3.2571371    1112.2566   0.05053874  0.049267646           11 
 1835000   0.53363995   -3.2400404    1112.0225  0.050500565  0.049240024            7 
 1836000   0.53079792   -3.2601396    1107.7917  0.050281031   0.04921242            5 
 1837000    0.5256554   -3.2804101    1109.4315   0.05032805  0.049184753           11 
 1838000   0.51567045   -3.2791009    1111.0938  0.050376034  0.049157102           13 
 1839000   0.52625652    -3.271969    1110.7454  0.050332852   0.04912954           19 
 1840000   0.51833543   -3.2642639    1110.6183   0.05029974  0.049101844            9 
 1841000   0.51899113   -3.2603334    1111.2524   0.05030112  0.049074159           13 
 1842000   0.51859719   -3.2490018    1109.6863  0.050202965  0.049046663            5 
 1843000   0.52357682   -3.2614264    1107.9406  0.050096792  0.049018918           13 
 1844000   0.51603224   -3.2783041    1105.6284  0.049965131  0.048991061            7 
 1845000   0.51756181   -3.2578844    1109.5831   0.05011667  0.048963223           12 
 1846000   0.50816194   -3.2636765    1108.5117  0.050041158  0.048935482            8 
 1847000   0.52144035   -3.2621003    1108.3308  0.050005903  0.048907704           13 
 1848000   0.51192365   -3.2462979    1109.8537  0.050047514  0.048880147            7 
 1849000   0.51966927   -3.2746251    1108.3923  0.049954585   0.04885247           14 
 1850000   0.51560522   -3.2810497     1108.522  0.049933425  0.048824502           12 
 1851000   0.51019061   -3.2745533    1107.0924  0.049842086  0.048796657           11 
 1852000    0.5103265   -3.2574091    1109.8167  0.049937756  0.048768805            7 
 1853000   0.51844524   -3.2642306    1107.8588  0.049822756  0.048741105           10 
 1854000   0.51633877   -3.2702238    1110.0813  0.049895779  0.048713358            7 
 1855000   0.50994293   -3.2683428    1109.5898  0.049846802  0.048685592            8 
 1856000   0.50937347   -3.2728738    1108.7507  0.049782271  0.048657895           15 
 1857000   0.51335135   -3.2476463    1110.9168  0.049852664  0.048630335           16 
 1858000   0.50372577    -3.279506    1110.0322  0.049786161  0.048602784           17 
 1859000    0.5118606   -3.2754578    1110.2759  0.049770302  0.048575083           12 
 1860000   0.51034948   -3.2846804    1110.2843  0.049743919  0.048547409           21 
 1861000   0.50212622   -3.2692036    1110.8573  0.049742847  0.048519847           26 
 1862000   0.51599706   -3.2683792     1109.855  0.049671279  0.048492236           13 
 1863000   0.51283561   -3.2700204    1106.4489  0.049492259  0.048464535            9 
 1864000   0.51342434   -3.2906333    1110.0832  0.049628182  0.048436906           13 
 1865000   0.51897904   -3.2632439    1110.8652  0.049636514  0.048409294           20 
 1866000   0.51056012   -3.2477178    1110.6294  0.049599384  0.048381866           13 
 1867000   0.51248595   -3.2748219    1109.5701  0.049525536  0.048354495           19 
 1868000   0.50268533   -3.2751821    1110.7812   0.04955305  0.048327137           15 
 1869000   0.49871481   -3.2722683    1112.4196   0.04959959  0.048299744           25 
 1870000   0.51440758   -3.2775398    1109.0595   0.04942333  0.048272294           22 
 1871000   0.50647738   -3.2793749    1110.6515  0.049467821  0.048244761           27 
 1872000   0.52318435   -3.2696965     1108.894  0.049363158  0.048217312           14 
 1873000   0.50526609   -3.2900784    1105.3581  0.049179486   0.04818971           10 
 1874000   0.49952132    -3.287695    1110.8818   0.04939887    0.0481621           20 
 1875000   0.50834168   -3.2898446    1109.3463  0.049304281  0.048134422           15 
 1876000   0.50024666   -3.2870676    1110.4168  0.049325553  0.048106738            7 
 1877000   0.51163577   -3.2733024    1110.0255    0.0492819  0.048079068            8 
 1878000   0.50442515   -3.2942428    1108.7866  0.049200682  0.048051333           14 
 1879000   0.50378811   -3.2734234    1110.2137  0.049237789  0.048023728           18 
 1880000   0.48948854   -3.2765106    1108.1616  0.049120636  0.047996092           10 
 1881000   0.49401456   -3.2865185    1108.7597  0.049121023  0.047968307           15 
 1882000   0.49587175   -3.2964064    1107.7226     0.049049  0.047940635           15 
 1883000   0.50049664   -3.2673396    1107.4264  0.049009841  0.047913017            8 
 1884000   0.49464743   -3.2801188     1108.747  0.049042241  0.047885457           15 
 1885000   0.50332666   -3.2923381    1109.0854  0.049031184  0.047857786           20 
 1886000   0.49663583   -3.2812386    1109.8071  0.049037078  0.047830248           20 
 1887000   0.51078625   -3.2870778    1108.1594  0.048938323   0.04780284            6 
 1888000   0.49929597   -3.2913036    1108.7163  0.048936986  0.047775377           16 
 1889000   0.48881142   -3.2958837    1108.7743  0.048913637  0.047747836           17 
 1890000   0.50485753    -3.292975    1107.7714  0.048843536  0.047720206           29 
 1891000   0.50398279    -3.275771    1109.4317  0.048890874  0.047692853           11 
 1892000   0.49385103    -3.312197    1109.8263  0.048882414  0.047665369           17 
 1893000   0.49941439   -3.2828518    1107.7798  0.048766499  0.047637842           21 
 1894000   0.49414839   -3.2921793    1107.6184  0.048733649  0.047610197           19 
 1895000   0.50515251   -3.3098894    1107.4126  0.048698885  0.047582629           26 
 1896000   0.48296141   -3.3135845    1107.9227  0.048695618  0.047555002           44 
 1897000   0.48915915   -3.3133712      1105.17  0.048549023  0.047527321           18 
 1898000   0.49412509   -3.3241634    1106.0817  0.048563473  0.047499721           12 
 1899000   0.48510667   -3.3109698    1106.9844  0.048577513  0.047472146           10 
 1900000    0.4872274   -3.2965394    1108.9508  0.048638194  0.047444598           24 
 1901000   0.49325902   -3.2956955     1111.372  0.048718746  0.047417064           20 
 1902000   0.49014038   -3.3104086    1109.1787  0.048597033  0.047389611           24 
 1903000   0.49210096   -3.3172624    1109.1259  0.048569183  0.047362308           13 
 1904000   0.48754125   -3.2944495    1109.1805  0.048546065  0.047334915           19 
 1905000   0.49129658   -3.3177393    1105.7592  0.048370918  0.047307619           37 
 1906000   0.49525457   -3.3088597    1107.4293  0.048418558   0.04728024           25 
 1907000   0.49574773   -3.3066849    1110.1411  0.048511672   0.04725282            8 
 1908000   0.48730344   -3.3031624    1111.8412    0.0485605  0.047225542           10 
 1909000   0.49414131   -3.2968646    1107.8897  0.048362566   0.04719833           17 
 1910000   0.49077276   -3.3134767    1107.1535  0.048305126  0.047170911           21 
 1911000   0.48946594   -3.2844935    1111.2109  0.048456781  0.047143568           13 
 1912000   0.49435663   -3.3017041    1108.9016  0.048330789  0.047116281           15 
 1913000   0.48467915   -3.3135928     1110.223  0.048363084  0.047088901           15 
 1914000    0.4872836   -3.3116527     1108.961   0.04828287  0.047061603           19 
 1915000   0.48881288   -3.2922671    1108.8412  0.048252444  0.047034356           12 
 1916000   0.48421281    -3.296592    1109.3238  0.048248251   0.04700706           62 
 1917000    0.4877675   -3.3033798     1110.503  0.048274343  0.046979837           21 
 1918000   0.48627651   -3.3151982    1109.7779  0.048217672  0.046952498           41 
 1919000   0.48684017   -3.3206214    1111.6878  0.048275482  0.046925192           28 
 1920000   0.48848157    -3.303349    1106.4705  0.048023895  0.046897828           18 
 1921000   0.48234307   -3.3217742    1105.3909   0.04795206  0.046870486           19 
 1922000   0.47952635   -3.3014844    1108.7507  0.048072785  0.046843201           16 
 1923000   0.49009919     -3.30603    1109.0983  0.048062847   0.04681597            9 
 1924000   0.47534124   -3.3108303    1109.2849  0.048045949  0.046788688           11 
 1925000   0.47964648   -3.3055538    1106.6972  0.047908971  0.046761487           14 
 1926000   0.48267753   -3.3332314    1110.6564  0.048055399  0.046734293           17 
 1927000   0.48393605   -3.3199555    1106.8033  0.047863833  0.046707015           10 
 1928000   0.47820045   -3.3117796    1108.3412  0.047905479  0.046679811           13 
 1929000   0.48307639   -3.3265464    1108.5811  0.047891009  0.046652603           34 
 1930000   0.48727624   -3.3135809    1108.5019  0.047862777  0.046625299           20 
 1931000   0.48517899    -3.323978    1107.3331  0.047787552  0.046598053           27 
 1932000   0.48432312   -3.3120807     1108.182  0.047799431  0.046571015           22 
 1933000   0.46824537   -3.3152149    1108.0098  0.047767281  0.046543937           22 
 1934000   0.48518272   -3.3270288      1109.74   0.04781713  0.046516811           17 
 1935000   0.48644499   -3.3377494    1109.8224  0.047795967  0.046489662           16 
 1936000   0.47978684   -3.3199104    1108.6895  0.047722518  0.046462535           35 
 1937000   0.48530637   -3.3244878    1108.9056  0.047707177  0.046435326           12 
 1938000   0.48185222   -3.3168068     1109.022  0.047687563  0.046408324           10 
 1939000   0.48720824   -3.3312121    1107.9904  0.047618636  0.046381339            8 
 1940000   0.47812192   -3.3329029    1107.5737  0.047576191  0.046354216            8 
 1941000    0.4839622   -3.3201565     1108.368  0.047585778  0.046327015           18 
 1942000   0.47621896    -3.335866    1109.1065  0.047592968  0.046299844           11 
 1943000   0.48616339   -3.3411172    1111.0264  0.047650815  0.046272658           11 
 1944000   0.48004595   -3.3384319    1108.9367  0.047536726  0.046245528           25 
 1945000    0.4681296   -3.3274338    1107.9002  0.047467875  0.046218475           10 
 1946000    0.4793455   -3.3238134    1108.2078  0.047456656  0.046191457           14 
 1947000    0.4703894   -3.3441416    1106.7664  0.047370587  0.046164375           16 
 1948000   0.48846914   -3.3252426    1109.6666  0.047470338  0.046137199           12 
 1949000   0.47763051   -3.3234086    1107.3777  0.047348114  0.046110134           36 
 1950000   0.47321201   -3.3356601    1109.3114  0.047406468  0.046083131           15 
 1951000    0.4709441   -3.3246339    1109.0289  0.047370104  0.046056177            7 
 1952000   0.47561832   -3.3330004    1108.7739  0.047334951  0.046029279           26 
 1953000   0.48018604   -3.3371339    1108.0452  0.047279623  0.046002232           24 
 1954000   0.47549058   -3.3349271     1109.877  0.047333547  0.045975249           19 
 1955000   0.46461465   -3.3443412    1110.4368  0.047333197  0.045948239           12 
 1956000   0.47526204   -3.3350337    1108.5898  0.047230308  0.045921235           24 
 1957000    0.4744711    -3.340763    1107.3948  0.047155289   0.04589419           38 
 1958000   0.46667514   -3.3368547    1108.4784  0.047177324  0.045867153           31 
 1959000    0.4628413   -3.3327326    1108.1239   0.04713816  0.045840235           31 
 1960000   0.46999678   -3.3333162     1110.869  0.047230824  0.045813397           41 
 1961000     0.459777   -3.3462927    1109.4872  0.047148021  0.045786628           22 
 1962000    0.4729736   -3.3472292    1108.1401  0.047066775  0.045759847           20 
 1963000   0.46330589   -3.3401718    1107.1551  0.047000979  0.045732949           16 
 1964000   0.47843398   -3.3352946    1107.7934  0.047004132  0.045706074           75 
 1965000   0.46976833    -3.350615    1107.2213   0.04695595  0.045679202           31 
 1966000   0.46555204   -3.3365812    1109.7193  0.047037951  0.045652303           39 
 1967000   0.47377818   -3.3564634    1109.8073  0.047017763  0.045625458           74 
 1968000   0.46293329   -3.3487642    1109.0098  0.046960105   0.04559859           18 
 1969000    0.4718045   -3.3506948    1109.4513  0.046954938  0.045571697           32 
 1970000   0.47053171   -3.3288619    1111.8772  0.047033721  0.045544896           29 
 1971000   0.47731665   -3.3434382    1111.3197   0.04698629  0.045518158           30 
 1972000   0.47098838   -3.3661318     1107.199  0.046788328  0.045491366           20 
 1973000   0.45801682   -3.3621254    1108.3932  0.046815052  0.045464513           11 
 1974000   0.46492134   -3.3636595      1107.98  0.046773893  0.045437757           23 
 1975000   0.46648456   -3.3464816    1107.9639  0.046749532  0.045410976           34 
 1976000    0.4669191   -3.3472156    1107.3117  0.046698369  0.045384222           47 
 1977000   0.46982632   -3.3451876     1109.044  0.046747765  0.045357454           30 
 1978000   0.46751473   -3.3580084    1108.4632  0.046699663   0.04533067           23 
 1979000   0.47075557   -3.3449951    1108.2067  0.046665265   0.04530392           25 
 1980000   0.46511766     -3.34607    1107.4991  0.046611915  0.045277149           16 
 1981000    0.4529445   -3.3539007    1108.4995   0.04663047  0.045250433           10 
 1982000   0.46570577   -3.3570568    1107.8143  0.046578132  0.045223664           17 
 1983000   0.45839014   -3.3549897    1109.4665  0.046624075  0.045196913           18 
 1984000   0.47319506   -3.3438152    1109.0689  0.046583876  0.045170271           10 
 1985000   0.46135027   -3.3588073    1108.0591  0.046518014   0.04514371           25 
 1986000   0.46109306    -3.346778    1108.6466  0.046519243  0.045117107           17 
 1987000    0.4562996   -3.3538571    1108.7375  0.046499644  0.045090602           15 
 1988000    0.4468319   -3.3619582    1111.1474  0.046577274  0.045064101           10 
 1989000   0.45871642   -3.3571668    1111.3057  0.046560487  0.045037703           16 
 1990000   0.46763084   -3.3505364     1109.494  0.046461224  0.045011164           21 
 1991000   0.45708968   -3.3414326    1109.7965  0.046450549  0.044984758           11 
 1992000   0.45740298   -3.3600012    1110.4484    0.0464545  0.044958339           14 
 1993000   0.46205423   -3.3762541    1108.9853  0.046370015  0.044931838           14 
 1994000   0.46092887   -3.3718847    1110.0499  0.046391252  0.044905454           35 
 1995000   0.44846375   -3.3683393     1110.395  0.046382413  0.044879097           63 
 1996000   0.45264332   -3.3739737     1108.352   0.04627388  0.044852663           68 
 1997000   0.46423839   -3.3699658    1109.3005  0.046290291  0.044826219           58 
 1998000   0.45223752    -3.364449    1108.8064  0.046246512  0.044799805           62 
 1999000   0.46016571   -3.3727555    1112.1269  0.046361803   0.04477345           47 
 2000000   0.45115214   -3.3586848    1112.1213  0.046338386  0.044747138           21 
 2001000   0.44836531   -3.3777918     1110.204  0.046235384  0.044720847           28 
 2002000   0.44869754   -3.3689806    1108.9399  0.046159669  0.044694534           45 
 2003000   0.45240785   -3.3585791     1109.573  0.046162962   0.04466818           47 
 2004000   0.45007501   -3.3684483    1108.2986  0.046086933  0.044641901           84 
 2005000    0.4427142   -3.3748695    1108.6535    0.0460787  0.044615545           35 
 2006000   0.44784889   -3.3510852    1111.5338  0.046175383  0.044589251           39 
 2007000   0.45732676   -3.3685287    1107.2348  0.045973873  0.044563069           25 
 2008000   0.44053152   -3.3607301    1111.9591  0.046147042  0.044536859           11 
 2009000   0.44319842    -3.383716    1109.6147  0.046026823   0.04451059           11 
 2010000   0.45158021   -3.3842309    1106.6347  0.045880379  0.044484189           17 
 2011000   0.45208291   -3.3788127     1110.221  0.046006175  0.044457847           43 
 2012000   0.44651491   -3.3901074    1108.6046   0.04591636  0.044431562           23 
Loop time of 4834.09 on 48 procs for 2000000 steps with 4000 atoms

Performance: 71492.228 tau/day, 413.728 timesteps/s
99.4% CPU use with 48 MPI tasks x no OpenMP threads

MPI task timing breakdown:
Section |  min time  |  avg time  |  max time  |%varavg| %total
---------------------------------------------------------------
Pair    | 316.62     | 334.75     | 350.78     |  46.7 |  6.92
Neigh   | 32.386     | 33.699     | 35.038     |  13.6 |  0.70
Comm    | 309.09     | 324.43     | 344.16     |  49.5 |  6.71
Output  | 4.0512     | 4.0534     | 4.0832     |   0.2 |  0.08
Modify  | 4083.6     | 4094.4     | 4102.8     |   7.9 | 84.70
Other   |            | 42.79      |            |       |  0.89

Nlocal:        83.3333 ave          91 max          76 min
Histogram: 4 2 8 1 9 4 10 4 3 3
Nghost:        2175.23 ave        2192 max        2155 min
Histogram: 2 1 6 4 8 5 9 8 2 3
Neighs:        14333.0 ave       16311 max       12536 min
Histogram: 4 1 3 9 7 11 8 2 0 3
FullNghs:      28665.2 ave       31348 max       26074 min
Histogram: 5 3 5 2 9 6 9 4 1 4

Total # of neighbors = 1375932
Ave neighs/atom = 343.98300
Neighbor list builds = 108624
Dangerous builds = 0

#clear
#
#next RN
#
#jump SELF
Total wall time: 1:20:37
