
units lj                  # Use reduced LJ style units
atom_style atomic         # Uncharged point particles
atom_modify map hash      # Needed for indexing of clusters etc
                          # Used to be able to find where atoms are in relation to each other.

lattice fcc 1.0 spacing 1 1 1
Lattice spacing in x,y,z = 1.5874011 1.5874011 1.5874011
region box block 0 10 0 10 0 10 units lattice
create_box 2 box
Created orthogonal box = (0.0000000 0.0000000 0.0000000) to (15.874011 15.874011 15.874011)
  3 by 4 by 4 MPI processor grid
create_atoms 1 box
Created 4000 atoms
  using lattice units in orthogonal box = (0.0000000 0.0000000 0.0000000) to (15.874011 15.874011 15.874011)
  create_atoms CPU = 0.008 seconds
set type 1 type/fraction 2 0.36 78393
Setting atom values ...
  1453 settings made for type/fraction
mass 1 1.0
mass 2 1.0
pair_style lj/cut  3.5
pair_modify tail  yes
pair_coeff 1  1  1.0  1.0   # Intearaction between 1 and 1 set with epsilon = 1 and sigma = 1
pair_coeff 1  2  1.5  0.8
pair_coeff 2  2  0.5  0.88

write_data data.0
System init for write_data ...
Neighbor list info ...
  update every 1 steps, delay 10 steps, check yes
  max neighbors/atom: 2000, page size: 100000
  master list distance cutoff = 3.8
  ghost atom cutoff = 3.8
  binsize = 1.9, bins = 9 9 9
  1 neighbor lists, perpetual/occasional/extra = 1 0 0
  (1) pair lj/cut, perpetual
      attributes: half, newton on
      pair build: half/bin/atomonly/newton
      stencil: half/bin/3d
      bin: standard
WARNING: Not all mixed pair coeffs generated from mixing. Use write_data with 'pair ij' option to store all pair coeffs. (../write_data.cpp:312)


#############################
#   M E L T   S Y S T E M   #
#############################

velocity all create 2.4 9580093 mom yes dist gaussian # Assign velocities
                                                    # Temperature 2.4, random number seed, zero linear momentum
                                                                                # Gaussian distribution

timestep 0.002   # simulation timestep
thermo 1000       # output thermodynamic data every 1000 steps bf 100

# Define a fix  in this case with index 1 applied to all
# particles in the simulation. This fix is for simulations
# in the anisotropic NPT ensemble. Note that we use the MTK
# correction.
fix 1 all npt temp 2.4 2.4 0.1 iso 5.68 5.68 0.5 mtk yes tchain 5 pchain 5 # Use NPT ensemble
                                                                         # Set temperature and pressure and damping
                                                                         # Numbers of thermostats in chain and in barostat
run 10000          # run for 10000 steps
Per MPI rank memory allocation (min/avg/max) = 3.642 | 3.644 | 3.648 Mbytes
Step Temp E_pair E_mol TotEng Press Volume 
       0          2.4   -6.0964775            0   -2.4973775   -4.1129651         4000 
    1000    2.3763658   -4.9786241            0   -1.4149665    5.5256727    4030.6725 
    2000    2.4628208   -5.0001713            0   -1.3068637     5.808265    4005.0879 
    3000    2.4198076   -5.0095415            0   -1.3807375     5.684623    4005.3335 
    4000    2.4017692   -5.0132882            0   -1.4115349     5.949077    3973.7041 
    5000    2.4178047   -4.9981718            0   -1.3723715    6.0095115    3985.6499 
    6000    2.4014925   -5.0245383            0   -1.4232001    5.6386474    3999.6949 
    7000    2.3935864   -5.0464459            0   -1.4569638    5.6301594    3990.4129 
    8000    2.4126978   -5.0145624            0   -1.3964204    5.6241094    4013.4197 
    9000    2.4267456   -5.0192986            0   -1.3800902    5.6494518    4001.6951 
   10000    2.4308585   -5.0004928            0   -1.3551165    5.6322348    4006.7606 
Loop time of 2.44929 on 48 procs for 10000 steps with 4000 atoms

Performance: 705509.802 tau/day, 4082.811 timesteps/s
99.6% CPU use with 48 MPI tasks x no OpenMP threads

MPI task timing breakdown:
Section |  min time  |  avg time  |  max time  |%varavg| %total
---------------------------------------------------------------
Pair    | 1.0692     | 1.151      | 1.2557     |   3.2 | 47.00
Neigh   | 0.20011    | 0.21368    | 0.23803    |   1.2 |  8.72
Comm    | 0.69563    | 0.83297    | 0.92467    |   4.1 | 34.01
Output  | 0.00024079 | 0.00024533 | 0.00031291 |   0.0 |  0.01
Modify  | 0.20177    | 0.2363     | 0.26618    |   3.6 |  9.65
Other   |            | 0.01505    |            |       |  0.61

Nlocal:        83.3333 ave          95 max          76 min
Histogram: 4 4 9 8 7 13 1 1 0 1
Nghost:        1636.71 ave        1672 max        1608 min
Histogram: 2 4 7 10 7 7 2 4 3 2
Neighs:        9522.10 ave       10682 max        8351 min
Histogram: 2 3 5 6 4 11 7 6 3 1

Total # of neighbors = 457061
Ave neighs/atom = 114.26525
Neighbor list builds = 906
Dangerous builds = 199

# Equilibrate just above the melting temperature to avoid step fn in T

fix 1 all npt temp 1.25 1.25 0.1 iso 5.68 5.68 0.5 mtk yes tchain 5 pchain 5
run 2000
Per MPI rank memory allocation (min/avg/max) = 3.643 | 3.645 | 3.649 Mbytes
Step Temp E_pair E_mol TotEng Press Volume 
   10000    2.4308585   -5.0004928            0   -1.3551165    5.6322348    4006.7606 
   11000    1.2424273   -6.9172952            0   -5.0541201    5.7502946    3202.7324 
   12000    1.2435646    -7.024153            0   -5.1592723    5.8392321    3167.4441 
Loop time of 0.586854 on 48 procs for 2000 steps with 4000 atoms

Performance: 588902.989 tau/day, 3408.003 timesteps/s
99.6% CPU use with 48 MPI tasks x no OpenMP threads

MPI task timing breakdown:
Section |  min time  |  avg time  |  max time  |%varavg| %total
---------------------------------------------------------------
Pair    | 0.25469    | 0.2823     | 0.31253    |   2.2 | 48.10
Neigh   | 0.037519   | 0.040458   | 0.043086   |   0.6 |  6.89
Comm    | 0.18063    | 0.21517    | 0.24603    |   2.7 | 36.67
Output  | 5.1344e-05 | 5.2452e-05 | 6.8127e-05 |   0.0 |  0.01
Modify  | 0.040023   | 0.043844   | 0.047045   |   1.0 |  7.47
Other   |            | 0.005023   |            |       |  0.86

Nlocal:        83.3333 ave          93 max          77 min
Histogram: 5 9 3 9 3 10 4 2 2 1
Nghost:        1917.15 ave        1940 max        1900 min
Histogram: 5 4 5 8 8 4 6 5 1 2
Neighs:        12048.9 ave       13709 max       10482 min
Histogram: 4 4 4 6 8 3 9 4 3 3

Total # of neighbors = 578348
Ave neighs/atom = 144.58700
Neighbor list builds = 143
Dangerous builds = 9

#############################
# L I N E A R  Q U E N C H  #
#############################

# Define solid atoms. This closely follows ten Wolde  Ruiz-Montero and Frenkel  Faraday Discuss  1996  104  93-110
# Compute components of the per-atom q6 vector
compute q6 all orientorder/atom degrees 1 6 components 6 nnn NULL cutoff 1.3 # compute the Q6 parameter.
                                                                             # Use all neighbours within 1.3 unit cell.

# get number of connections
compute coord_number all coord/atom orientorder q6 0.5

# An atom is solid if it has 8 or more connections (of a possible 14)
variable is_solid atom c_coord_number>=8
group solid dynamic all var is_solid    # Must be dynamic to update
dynamic group solid defined

# do clustering
compute cluster solid cluster/atom 1.3 # Create a cluster where all atoms within are solid and max 1.3 units from another member

# define chunks one chunk per cluster
compute clus_chunks solid chunk/atom c_cluster nchunk every compress yes  # Says which atoms are in which chunk

# count the size of each chunk
compute size_chunks solid property/chunk clus_chunks count


# Find the maximum entry in the vector of chunk sizes
variable max_n equal max(c_size_chunks)


# Thermo style which includes this variable
# thermo_style custom step temp pe vol v_max_n

thermo ${N}  # Print the thermo information every 100 steps
thermo 1000  

# Reset the npt fix at a lower temperature (below freezing)
fix 1  all npt temp  ${temp} ${temp}  0.1  iso  5.68  5.68  0.5  mtk yes tchain  5  pchain  5
fix 1  all npt temp  0.45 ${temp}  0.1  iso  5.68  5.68  0.5  mtk yes tchain  5  pchain  5
fix 1  all npt temp  0.45 0.45  0.1  iso  5.68  5.68  0.5  mtk yes tchain  5  pchain  5

dump dmp2 all dcd ${N} traj.dcd
dump dmp2 all dcd 1000 traj.dcd


compute msd all msd com yes
variable twopoint equal c_msd[4]/6/(step*dt+1.0e-6)
fix 9 all vector 10 c_msd[4]
variable fit equal slope(f_9)/6/(10*dt)
thermo_style custom step temp pe c_msd[4] v_twopoint v_fit v_max_n

fix 1 all npt temp 1.25 ${temp} 0.1 iso 5.68 5.68 0.5 mtk yes tchain 5 pchain 5
fix 1 all npt temp 1.25 0.45 0.1 iso 5.68 5.68 0.5 mtk yes tchain 5 pchain 5
run 2000000 # 5000000  # Run for this many steps
Neighbor list info ...
  update every 1 steps, delay 10 steps, check yes
  max neighbors/atom: 2000, page size: 100000
  master list distance cutoff = 3.8
  ghost atom cutoff = 3.8
  binsize = 1.9, bins = 8 8 8
  4 neighbor lists, perpetual/occasional/extra = 1 3 0
  (1) pair lj/cut, perpetual
      attributes: half, newton on
      pair build: half/bin/atomonly/newton
      stencil: half/bin/3d
      bin: standard
  (2) compute orientorder/atom, occasional
      attributes: full, newton on
      pair build: full/bin/atomonly
      stencil: full/bin/3d
      bin: standard
  (3) compute coord/atom, occasional
      attributes: full, newton on
      pair build: full/bin/atomonly
      stencil: full/bin/3d
      bin: standard
  (4) compute cluster/atom, occasional
      attributes: full, newton on
      pair build: full/bin/atomonly
      stencil: full/bin/3d
      bin: standard
Per MPI rank memory allocation (min/avg/max) = 9.819 | 9.825 | 9.831 Mbytes
Step Temp PotEng c_msd[4] v_twopoint v_fit v_max_n 
   12000    1.2435646    -7.024153 7.8886091e-34 5.4782005e-36 8.3333333e+20            3 
   13000    1.2279183   -7.0080919   0.45822074 0.0029373123  0.037459862            1 
   14000    1.2311909   -6.9993993   0.88846845 0.0052885025  0.036101853            1 
   15000    1.2301663   -7.0537014     1.311293 0.0072849607   0.03582095            3 
   16000    1.2547574    -6.996306    1.7534655 0.0091326325   0.03586366            2 
   17000    1.2403784   -6.9893197    2.1496795  0.010537644  0.035594173            1 
   18000    1.2608136   -7.0399722    2.6090863  0.012079103  0.035649075            3 
   19000    1.2566261   -7.0602946    3.0710499  0.013469517  0.035795677            1 
   20000    1.2649528   -7.0564615    3.5287025  0.014702927  0.036225396            2 
   21000    1.2711635   -7.0413769    4.0068004  0.015900001  0.036494394            1 
   22000    1.2687423   -7.0397786    4.4748363  0.016950137  0.036786987            2 
   23000    1.2402766   -7.0835896    4.9454541  0.017918312  0.037098529            6 
   24000    1.2550547   -7.0157357    5.3885799  0.018710347  0.037339556            1 
   25000    1.2482626   -7.0393446    5.7629798  0.019209932  0.037327571            2 
   26000    1.2354536   -7.0392984     6.101107   0.01955483  0.037097951            1 
   27000    1.2199894   -7.0480846    6.4793811  0.019998089  0.036819957            1 
   28000    1.2155531   -7.0499297    6.8973362  0.020527786  0.036533696            1 
   29000    1.2571137   -7.0676784    7.2432155  0.020813837   0.03627753            1 
   30000    1.2063669   -7.0657351    7.7592591  0.021553497  0.036089771            1 
   31000    1.2451015   -7.0207995    8.2095331  0.022068637  0.035989889            2 
   32000    1.2218484   -7.0343448      8.61434  0.022433177  0.035915484            1 
   33000    1.2735016   -7.0817646    9.0006925  0.022729021  0.035829703            2 
   34000    1.2494206    -6.974323    9.4478899  0.023156593  0.035726377            1 
   35000    1.2208167     -7.03258    9.8161818  0.023371861  0.035631286            2 
   36000    1.2517855   -6.9657926    10.248781   0.02372403  0.035515869            1 
   37000    1.2172539   -7.0231278    10.621034  0.023921248  0.035415482            1 
   38000    1.2251743   -7.0344912     11.08539  0.024310065  0.035354847            2 
   39000     1.242734   -7.0541163    11.491543  0.024554578  0.035317076            1 
   40000    1.2458358   -7.0824662    11.873637  0.024736743  0.035260155            2 
   41000    1.2422658   -7.0564782    12.303746  0.025007613  0.035225649            1 
   42000    1.2212594    -7.043251    12.858076  0.025512054   0.03519857            1 
   43000    1.2542734   -7.0706721    13.139205  0.025463576  0.035184886            2 
   44000    1.2136509    -7.040577    13.650228  0.025852704  0.035180533            1 
   45000    1.2014995   -7.0674163    14.106763  0.026123635  0.035190129            1 
   46000    1.2507436   -7.1020705    14.495364  0.026259718  0.035221843            1 
   47000    1.2281106   -7.0725324    14.917652  0.026449738  0.035222482            1 
   48000    1.2216214   -7.0649364    15.395081  0.026727572  0.035226385            2 
   49000    1.2009306   -7.0869473    15.746912  0.026780462   0.03523003            3 
   50000     1.242093    -7.068303    16.080295  0.026800491  0.035212724            1 
   51000    1.2236676   -7.0419038    16.594407  0.027115043  0.035203398            2 
   52000    1.2483034   -7.0969619    17.067097  0.027351116   0.03521452            2 
   53000    1.2224917   -7.0140091    17.672504  0.027786956  0.035241672            1 
   54000    1.2484867   -7.0161476    18.136778  0.027988855  0.035292415            2 
   55000    1.2446894   -7.0982917    18.709995  0.028348477  0.035385889            2 
   56000    1.2394177   -7.1147101    19.186148  0.028550815  0.035483669            2 
   57000    1.2191606   -7.1084457    19.664519  0.028749296  0.035587858            1 
   58000     1.237878   -7.0928502    20.080666  0.028851531  0.035688587            2 
   59000    1.2535893   -7.0657062    20.626826  0.029133935   0.03577593            4 
   60000    1.2334023   -7.0943532    20.910948  0.029042983  0.035857709            2 
   61000    1.2274581   -7.1124597    21.279687  0.029070611  0.035904794            4 
   62000    1.2236847   -7.0809586    21.871208  0.029396785  0.035971154            1 
   63000    1.2172678   -7.0296521     22.46911  0.029721044  0.036050961            2 
   64000    1.2276597   -7.0976377    23.005817  0.029955491  0.036138143            1 
   65000     1.225257   -7.0858777    23.356435  0.029944148  0.036216895            1 
   66000     1.243301   -7.0668434    23.779312  0.030024384  0.036292087            2 
   67000    1.2347501   -7.0815601    24.181664  0.030076697  0.036344041            1 
   68000    1.2339172   -7.0651016    24.578328  0.030120499  0.036391898            1 
   69000    1.2167501   -7.1087484    25.096178  0.030309394  0.036425964            1 
   70000    1.2234511   -7.1091515    25.503015  0.030360731  0.036465667            2 
   71000    1.2408932   -7.0877319    25.891887  0.030389539  0.036500476       -1e+20 
   72000    1.2473754    -7.136931     26.28625    0.0304239   0.03651674            3 
   73000    1.2253961   -7.0867097    26.514256  0.030267416  0.036518568            1 
   74000    1.2360983   -7.0763376    26.983284  0.030386581  0.036507673            1 
   75000    1.2308932   -7.0613363    27.391223  0.030434692  0.036500859            1 
   76000    1.2093658   -7.1158805      27.7733   0.03045318  0.036490642            1 
   77000    1.2408668   -7.0897305     28.27117  0.030596504  0.036481712            1 
   78000    1.2441577   -7.1145365    28.617147  0.030573875   0.03647493            1 
   79000    1.2450489   -7.0800314    29.117209  0.030714355  0.036464499            1 
   80000     1.208244   -7.0458376    29.473981  0.030702064  0.036448484            1 
   81000    1.2266743   -7.1052104    29.721835   0.03057802  0.036415129            3 
   82000    1.2210452   -7.0760556    30.248463  0.030740308  0.036385171            1 
   83000    1.2113509   -7.0764253    30.644158  0.030767227  0.036356588            1 
   84000    1.1878816   -7.1113851    30.840059  0.030595297  0.036320479            2 
   85000    1.2505095   -7.0773775    31.169119   0.03055796  0.036273891            1 
   86000    1.1967276   -7.0962984     31.64744  0.030666124  0.036227076            1 
   87000    1.2320958   -7.0967334    31.991299  0.030643007   0.03617931            1 
   88000    1.2244091   -7.1185798    32.234976  0.030525545  0.036130476            2 
   89000    1.2184816   -7.0855206    32.522252  0.030451546  0.036074237            1 
   90000    1.2537225   -7.0934038    33.041766  0.030594227  0.036011153            3 
   91000    1.2137513   -7.1043837    33.397382  0.030583683   0.03595643            2 
   92000    1.2403265   -7.0823041     33.83374  0.030646504  0.035902438            1 
   93000    1.2388287   -7.0988158    34.237628  0.030678878  0.035851804            1 
   94000    1.2034192   -7.0505249    34.813524  0.030863053   0.03580672            1 
   95000    1.2083197   -7.0657609    35.144258  0.030828297  0.035767128            1 
   96000    1.2197818   -7.0993857     35.55303  0.030862005  0.035725739            1 
   97000    1.1941579   -7.0975194    36.107284  0.031020003  0.035685945            1 
   98000     1.202431   -7.0923246    36.485696  0.031025251  0.035651933            3 
   99000    1.2076677   -7.1133946    36.851961  0.031020169  0.035621141            1 
  100000    1.2072902   -7.0787078    37.270918  0.031059098   0.03559411            1 
  101000    1.2116001   -7.0888116    37.871935  0.031247471   0.03557167            1 
  102000    1.2323769    -7.152775    38.228328  0.031232294  0.035553366            1 
  103000    1.2060355   -7.0970831    38.805201  0.031395793  0.035543267            1 
  104000    1.2047528   -7.1050591    39.375376  0.031550782  0.035536211       -1e+20 
  105000    1.2000449   -7.1297565    39.639152  0.031459644  0.035526706            1 
  106000    1.2272862   -7.0884997    40.061361  0.031494781  0.035519372            2 
  107000    1.1842049   -7.1216172    40.513139  0.031552289  0.035509313            4 
  108000    1.2150924   -7.1210417    40.867874  0.031533853  0.035499159            2 
  109000    1.2047031   -7.0699501    41.640488  0.031835235  0.035497368            1 
  110000    1.2363197   -7.0706611    41.879586  0.031726959  0.035494206            2 
  111000    1.2240652   -7.0999944    42.211267  0.031690141  0.035485685            1 
  112000    1.2256321   -7.0707753    42.646577  0.031731084  0.035475546            2 
  113000    1.2090816   -7.0918232    42.853458  0.031602845  0.035465647            2 
  114000    1.1989391    -7.149914    43.303621  0.031654694  0.035453616            2 
  115000     1.225731   -7.0652326    43.641872  0.031624545  0.035437681            1 
  116000    1.1915483   -7.1284061    43.982234  0.031596432   0.03541875            2 
  117000    1.2173935   -7.1763755    44.377826  0.031608138  0.035402609            3 
  118000    1.1867597   -7.0576732    44.885326  0.031698676  0.035387136            2 
  119000    1.2060513   -7.1222363    45.274969   0.03170516  0.035372613            2 
  120000    1.1958836   -7.1238749    45.770186  0.031784851  0.035354253            1 
  121000    1.2034359    -7.079327    46.076966  0.031733448  0.035335967            2 
  122000    1.2167178   -7.1046528    46.557371  0.031801483  0.035319775            1 
  123000    1.2055411   -7.1419042    46.702676  0.031641379    0.0352995            2 
  124000    1.1967644   -7.1126345     47.19889  0.031719684  0.035278788            1 
  125000    1.2072274   -7.1073855    47.496223  0.031664149  0.035255578            2 
  126000    1.2044795   -7.0612919    48.132591  0.031833724  0.035237313            2 
  127000    1.2004498   -7.0920028    48.648369  0.031921502  0.035219501            1 
  128000    1.1860955   -7.1511416    48.674272  0.031688979  0.035199663       -1e+20 
  129000    1.2061456   -7.1624412    49.114309  0.031727589  0.035178199            2 
  130000    1.1838986   -7.1459343    49.450995  0.031699356   0.03515664            1 
  131000    1.1915622   -7.1116668    49.880078  0.031730329  0.035136138            1 
  132000    1.1850334   -7.1113679    50.390402  0.031812122  0.035113263            1 
  133000    1.2425204   -7.1406404    50.770981  0.031811391  0.035098193            3 
  134000    1.2119165   -7.1109585    51.427166  0.031982068  0.035088552            1 
  135000    1.2018059   -7.1495905    51.752645  0.031946077  0.035079258            1 
  136000    1.2087816   -7.1260624    52.276975   0.03203246  0.035066086            2 
  137000    1.1864353   -7.1681121    52.761637  0.032093453  0.035058334            1 
  138000    1.2009392   -7.1236513    53.213015  0.032133463  0.035052771            2 
  139000    1.1936588   -7.1829477    53.723627  0.032208409  0.035050022            8 
  140000    1.1837963   -7.1372994    54.406649   0.03238491   0.03505247            1 
  141000    1.2329074    -7.137048    54.836257  0.032409135  0.035055942            1 
  142000     1.195494   -7.1421788     55.06167  0.032313187  0.035059764            1 
  143000    1.1843501   -7.1722499    55.377732  0.032271406  0.035060653            2 
  144000    1.2283746   -7.1365118    56.038627  0.032429761  0.035061307            2 
  145000    1.1910577   -7.1241771    56.337487  0.032377866  0.035060937            1 
  146000    1.2063311   -7.1624689    56.708302  0.032367752  0.035060985            3 
  147000    1.1832261   -7.1449953     57.25034  0.032454841  0.035062922            1 
  148000     1.167936   -7.1879484    57.678317   0.03247653  0.035065029            1 
  149000     1.214249   -7.1085959    58.373628  0.032647443  0.035068273            2 
  150000    1.1717272   -7.1666227    58.551777  0.032528765  0.035070072            2 
  151000     1.189649   -7.1538757    58.801328  0.032451064  0.035072336            1 
  152000    1.1863949   -7.1517669    59.227206  0.032471056  0.035072559            3 
  153000    1.1942406   -7.1461081    59.446446  0.032378239  0.035066178            1 
  154000    1.2010004   -7.1389114    59.989144  0.032461658  0.035059117            2 
  155000    1.2220102   -7.1708997    60.126957  0.032326321  0.035054041            5 
  156000    1.1918088   -7.1516287    60.530917  0.032334891   0.03504636            3 
  157000    1.1446907   -7.1410844    60.786106  0.032264387  0.035032758            1 
  158000    1.1639256    -7.115134    61.205943  0.032281616  0.035016836            1 
  159000     1.194858   -7.1808784    61.292658  0.032124034  0.034999208            1 
  160000    1.1908627   -7.2009109    61.717675  0.032144623  0.034978063            1 
  161000    1.1747968   -7.1431958    62.132109  0.032159477  0.034954969            2 
  162000    1.1852065   -7.1312151    62.495596   0.03214794  0.034934468            1 
  163000    1.1624269   -7.1545768    63.028232  0.032223022  0.034915222            2 
  164000    1.1707193   -7.1839847     63.08411  0.032054934  0.034895209            2 
  165000    1.1849792   -7.1231162    63.692688  0.032168024  0.034874091            4 
  166000    1.1920471   -7.2220535    63.743104   0.03199955  0.034853252            2 
  167000    1.1708514    -7.168372    64.205598  0.032038721  0.034830251            2 
  168000    1.1845289   -7.1916542    64.361884  0.031925538  0.034804908            2 
  169000    1.1751943   -7.1476096    64.601063  0.031854568  0.034777084            1 
  170000    1.1792542   -7.1698921    65.246769   0.03198371  0.034748412            1 
  171000     1.181179   -7.1239484    65.380139  0.031861666   0.03472147            1 
  172000    1.2264836   -7.1920606    65.875407  0.031916379  0.034696449            1 
  173000    1.1880598   -7.1604829    66.413217  0.031990952  0.034672336            1 
  174000    1.1693749    -7.153032    66.757322  0.031971897    0.0346501            1 
  175000    1.2039729   -7.1798769    66.951886  0.031881851  0.034625401            1 
  176000     1.186558   -7.1516435    67.324615  0.031877185  0.034598141            1 
  177000    1.1974884   -7.2019115    67.622869  0.031837509  0.034571025            1 
  178000    1.2002865   -7.1147115    68.055472  0.031861176  0.034543771            2 
  179000    1.1692505   -7.1653422    68.501973  0.031891049  0.034515942            4 
  180000    1.1616949   -7.1208216    68.700217  0.031805656   0.03449059            1 
  181000    1.1731077   -7.1385997    69.175122  0.031848583   0.03446374            2 
  182000    1.1913581   -7.1497878    69.748235  0.031936005  0.034436131            1 
  183000    1.1980951   -7.2196343    69.874612   0.03181904  0.034410665            3 
  184000    1.1803156   -7.1890926    70.453385  0.031908236  0.034389123            1 
  185000    1.1738247   -7.1793931    71.155579  0.032052063  0.034368889            1 
  186000    1.1971349   -7.1711741    71.164568  0.031883767  0.034345711            1 
  187000    1.1850449    -7.222117    71.494987  0.031860511  0.034322234            1 
  188000    1.1707871   -7.2063674    71.863406  0.031854347  0.034298133            1 
  189000    1.1723276   -7.1779584    72.158417   0.03181588  0.034273584            3 
  190000    1.1727699   -7.1544212    72.778132  0.031920233  0.034249777            2 
  191000    1.1723652   -7.2150249    72.826943  0.031774408  0.034226892            3 
  192000     1.172727   -7.1698535    73.493306  0.031898136  0.034202981            1 
  193000    1.1657267   -7.1746623    73.709323  0.031826133  0.034181408            1 
  194000    1.2008411   -7.2041091    74.595194  0.032042609  0.034161179            2 
  195000    1.1649969    -7.183998    74.624596  0.031890853  0.034140829            1 
  196000     1.171933   -7.1896622    75.274498  0.032004463  0.034121523            2 
  197000    1.1696348   -7.2009925    75.215075  0.031816867   0.03410186            1 
  198000    1.1695304   -7.1697918    75.340939  0.031709149  0.034080709            1 
  199000    1.1547636   -7.2035791    75.811271  0.031746764  0.034057471            3 
  200000    1.1595509   -7.1955768    76.206896  0.031752873   0.03403544            1 
  201000    1.1695854   -7.1958554    76.752131   0.03182095  0.034012297            3 
  202000    1.1647437   -7.2083799    77.516159  0.031978613  0.033993735            2 
  203000    1.1724726   -7.1718722    78.177244  0.032092465   0.03397963            1 
  204000    1.1970749   -7.2053496    78.149773  0.031923927  0.033967551            1 
  205000    1.1539664   -7.2307028    78.431667  0.031882792  0.033953728            2 
  206000    1.1739337   -7.1689828     79.05825  0.031981493  0.033938198            2 
  207000    1.1778407   -7.1874595    79.244144  0.031901829  0.033921383            6 
  208000    1.1506852   -7.2286767    79.393549  0.031808313  0.033902336            2 
  209000    1.1817398   -7.1954411    79.645582  0.031756612  0.033881598            2 
  210000    1.1534535   -7.2364315    79.761011  0.031651195  0.033860035            2 
  211000     1.182326   -7.1727943    80.432248  0.031766291  0.033838163            1 
  212000    1.1597779   -7.1788938    81.047435  0.031858268   0.03381793            2 
  213000    1.1695328   -7.2032423    81.275021  0.031797739  0.033797089            1 
  214000    1.1332092   -7.2144168    81.500551  0.031736975  0.033776794            1 
  215000    1.1618699    -7.181009    82.394363  0.031935799  0.033758154            1 
  216000    1.1659264   -7.1520906    83.035462  0.032035286  0.033742191            2 
  217000    1.1703399    -7.205591    82.993044  0.031871369  0.033728102            2 
  218000    1.1917507   -7.2214684     83.50474  0.031920772   0.03371442            1 
  219000    1.1866306   -7.2149882    83.812221  0.031892017  0.033700994            1 
  220000    1.1799182   -7.2346192    84.372091  0.031959125  0.033687011            1 
  221000    1.1738591   -7.1945341    84.259821   0.03177218  0.033671037            3 
  222000    1.1704816   -7.2536795    84.427705  0.031692081  0.033654208            1 
  223000    1.1826385   -7.2501762    84.911538  0.031730769  0.033635662            1 
  224000    1.1602363   -7.2714702    85.250227  0.031715114  0.033615733            2 
  225000    1.1873893   -7.2011016    85.998052   0.03185113  0.033597642            2 
  226000    1.1500776   -7.1927765    86.036151  0.031724244   0.03358019            1 
  227000    1.1804431     -7.21857    86.310899  0.031685352  0.033561928            1 
  228000    1.1397139    -7.259584    86.699114  0.031688272  0.033544653            3 
  229000    1.1680355   -7.2303551    87.060563  0.031681428  0.033528174            1 
  230000    1.1921117   -7.2067977    87.571295   0.03172873  0.033511521            2 
  231000    1.1604842   -7.2208995    87.960831  0.031731902  0.033494097            1 
  232000    1.1490857   -7.2251771    87.756474  0.031521722  0.033474847            1 
  233000    1.1495906   -7.2324292    88.638442  0.031701875  0.033455828            2 
  234000    1.1484714   -7.2328574    89.073213   0.03172123  0.033437861            1 
  235000    1.1519598   -7.2279661    89.341601  0.031681419  0.033422561            2 
  236000    1.1651041   -7.2120318    89.663575  0.031660867  0.033405696            3 
  237000     1.141416   -7.2638472    89.745922  0.031556231  0.033387099            2 
  238000    1.1506928   -7.2176043    90.395385  0.031651045  0.033369449            3 
  239000    1.1307134   -7.2682263    90.314159  0.031490292  0.033349202            1 
  240000    1.1702101    -7.218667    90.599775  0.031458255  0.033328528            1 
  241000      1.14964   -7.2432313    90.819319  0.031403637  0.033305868            4 
  242000      1.16782   -7.2564822     90.93104  0.031312342  0.033282683            1 
  243000     1.192815   -7.2533982    91.279648  0.031303034  0.033260001            3 
  244000     1.175437   -7.2674812    91.560421  0.031270635  0.033234639            2 
  245000      1.16291   -7.2306294    92.110002  0.031329933  0.033210586            4 
  246000    1.1253736   -7.2217247    92.244719  0.031248211  0.033185908            1 
  247000    1.1604496   -7.2928042    92.446911  0.031189916  0.033162953            1 
  248000    1.1928665    -7.260879    93.093564  0.031281439  0.033138474            2 
  249000     1.157609   -7.2329534    93.604406  0.031326776  0.033114361            2 
  250000    1.1589708   -7.2868209    93.669383  0.031223128  0.033091383            1 
  251000    1.1524732   -7.2198885    94.605724  0.031409603  0.033070343            4 
  252000    1.1601514   -7.2586242    94.808016  0.031351857  0.033049622            2 
  253000    1.1473832   -7.2447097    94.554953  0.031144583  0.033029025            2 
  254000    1.1613938   -7.2510176    95.403725  0.031300434  0.033006788            1 
  255000    1.1273193   -7.2241862    95.942468  0.031353748  0.032986096            1 
  256000    1.1475032    -7.244063    95.894316  0.031215598  0.032966039            2 
  257000    1.1686493   -7.2511195    96.149879  0.031177003  0.032944728            3 
  258000    1.1604708   -7.2347019    97.301743  0.031428211  0.032925651            2 
  259000    1.1641537   -7.3224373    97.519234  0.031376845  0.032907263            2 
  260000    1.1467703   -7.2415462    97.310879  0.031189384  0.032887511            2 
  261000    1.1296606   -7.2668534     98.10989  0.031324997  0.032868042            1 
  262000    1.1695555   -7.2205233     98.34189  0.031279227  0.032848691            1 
  263000    1.1373229   -7.2510994    98.498449  0.031209901  0.032829991            2 
  264000    1.1251997   -7.2167844    98.763645  0.031175393  0.032810746            4 
  265000    1.1400006   -7.1938824    99.151473  0.031179708  0.032791286            1 
  266000    1.1681243   -7.2679968    99.344971  0.031123111  0.032772069            1 
  267000    1.1713794   -7.2400755    100.09099  0.031239384  0.032752954            4 
  268000     1.151712   -7.2976519    100.01552  0.031099353   0.03273264            1 
  269000    1.1397471   -7.2554412    100.77272  0.031218316  0.032714303            2 
  270000    1.1473953   -7.2131294    101.37765  0.031289398   0.03269686            1 
  271000    1.1242423   -7.2857255    101.63001   0.03125154  0.032679727            1 
  272000    1.1331598   -7.2720832     101.9209  0.031225767  0.032662809            3 
  273000    1.1284037   -7.2821096    102.66891  0.031339715  0.032646627            2 
  274000     1.150988   -7.2965319    102.87075  0.031286725   0.03263057            3 
  275000     1.136623   -7.2154545    103.37131   0.03132464  0.032615547            2 
  276000     1.177723   -7.2714731    103.52269  0.031256852  0.032601369            1 
  277000    1.1566826   -7.2807012    104.05664  0.031304646  0.032585571            2 
  278000    1.1480023   -7.2484358    104.57291  0.031346795  0.032571664            1 
  279000    1.1512098   -7.2853343    104.49542  0.031211297  0.032557427            2 
  280000    1.1320678   -7.2365888    104.85705  0.031207454  0.032540841            2 
  281000    1.1384897   -7.2748817    104.87171  0.031100743  0.032523265            2 
  282000    1.1378711   -7.3176512    105.04985  0.031043101  0.032505024            3 
  283000    1.1462844   -7.3109381    105.09617  0.030947046  0.032485049            2 
  284000    1.1529859   -7.2410585    106.00824  0.031105705  0.032465649            2 
  285000    1.1520725   -7.2953741    105.91834  0.030970276  0.032445865            1 
  286000    1.1250539   -7.2904847    106.23875  0.030955348  0.032426711            2 
  287000    1.1563293   -7.2669409    106.65524  0.030968421  0.032406991            1 
  288000    1.1385126   -7.3040463    106.84966  0.030917146   0.03238645            1 
  289000    1.1348464   -7.2772218    107.02525  0.030860798  0.032366247            3 
  290000    1.1459114   -7.3162783     107.3791  0.030856062  0.032345755            1 
  291000    1.1498738   -7.2791787    107.90572  0.030900837  0.032325924            4 
  292000    1.1258529   -7.2791415    108.02156  0.030828071  0.032306088            3 
  293000    1.1355833   -7.2654591    108.39845  0.030830048  0.032286276            1 
  294000    1.1576882   -7.2607243    108.78438  0.030834576  0.032266292            2 
  295000    1.1443636   -7.3038323    108.77599  0.030727681  0.032244941            2 
  296000    1.1427888   -7.2695767    108.59306  0.030572369  0.032223348            1 
  297000    1.1320902   -7.2992191    109.27622  0.030661116  0.032200742            1 
  298000    1.1547202   -7.3122541    109.41344  0.030596599  0.032177751            4 
  299000    1.1330326   -7.2812744    109.65383  0.030561269  0.032154476            1 
  300000    1.1548698   -7.2954291    110.18826   0.03060785  0.032132127            2 
  301000    1.1486295   -7.2478012    110.52417  0.030599161  0.032110184            2 
  302000    1.1331143   -7.3008971    110.95854  0.030617698  0.032087242            2 
  303000    1.1532295   -7.2737009    111.12141  0.030561444  0.032063581            1 
  304000    1.1254292   -7.2750363    111.19448  0.030480942  0.032040153            2 
  305000    1.1191493   -7.2673962    111.83417  0.030555785  0.032016645            3 
  306000    1.1272217   -7.2922349    111.75684   0.03043487  0.031993699            2 
  307000    1.1590363   -7.3098416    112.27105  0.030475312  0.031969934            2 
  308000    1.1274248    -7.333941      112.351  0.030397999  0.031945531            2 
  309000    1.1206316   -7.3043997    112.92727  0.030455035  0.031922189            2 
  310000    1.1658934    -7.259547    113.14312  0.030414816  0.031899796            1 
  311000     1.126121   -7.2840102    113.05954  0.030294624  0.031875972            3 
  312000    1.1245735   -7.3190099    113.75523  0.030383342   0.03185222            4 
  313000    1.1286603   -7.3423264    113.73709   0.03028144  0.031828908            1 
  314000    1.1329887   -7.3027388    114.06456  0.030271911  0.031805128            1 
  315000    1.1422094   -7.2801443    114.41325  0.030268056  0.031781565            1 
  316000    1.1387792   -7.2887389    114.78218  0.030269563  0.031757237            1 
  317000    1.1339705   -7.2526027    115.27554   0.03030377  0.031733633            1 
  318000     1.125546   -7.2997451    115.05411  0.030150448  0.031710091            2 
  319000     1.133185   -7.3054892    115.43054  0.030154269  0.031686774            2 
  320000    1.1278462   -7.2592065    116.14651  0.030246486  0.031662986       -1e+20 
  321000    1.1350035   -7.3244193    115.67721  0.030030427  0.031638722            1 
  322000    1.1374906   -7.3195087    116.46955  0.030142224  0.031615109            2 
  323000    1.1483349    -7.290366    117.03428  0.030194603  0.031591705            1 
  324000    1.1207746   -7.3318334    116.91481  0.030070682   0.03156739            2 
  325000    1.1314603    -7.316398    116.96837  0.029991891  0.031543881            2 
  326000    1.1074695   -7.3044594    117.87666  0.030132069  0.031520121            1 
  327000    1.1204964   -7.2878914    117.90675  0.030047593   0.03149638            1 
  328000    1.1360848   -7.2679144    118.29789  0.030055358  0.031472353            1 
  329000    1.1187896   -7.2345016    118.64814  0.030052721   0.03144856            1 
  330000    1.1327317   -7.3530321    118.60134  0.029949833  0.031424646            1 
  331000    1.1455109   -7.2505972    119.49482  0.030084295  0.031401084            2 
  332000    1.1370203   -7.3051154    119.20855  0.029921824  0.031377195            1 
  333000    1.1160716   -7.3261391     119.3249  0.029861086  0.031352505            3 
  334000    1.1234297   -7.3053282    119.92731  0.029921983  0.031327474            4 
  335000    1.1117603   -7.3132573    120.53311   0.02998336  0.031303399            1 
  336000    1.1256222   -7.3211263    120.16031  0.029801664  0.031278798            3 
  337000    1.1036392   -7.3380587    120.44627  0.029783944  0.031253886            1 
  338000    1.1203814   -7.3018439    121.31071  0.029908952  0.031229405            2 
  339000    1.0977667   -7.3231549    121.59282  0.029890073  0.031204691            1 
  340000    1.1312892   -7.3303373    121.55208  0.029792176  0.031180877            3 
  341000    1.1150458   -7.2844188    122.14218  0.029849018  0.031156835            1 
  342000    1.1048906    -7.323325    121.85679  0.029692201    0.0311329            3 
  343000     1.128319    -7.322028    122.34766  0.029724894  0.031108511            2 
  344000    1.0941419   -7.3332592    122.38374  0.029647225  0.031084606            2 
  345000    1.1366382   -7.3288453     123.1615  0.029749155  0.031061061            2 
  346000    1.1308908   -7.3219932    123.34614  0.029707643  0.031037079            1 
  347000    1.0936876     -7.29129    123.45271  0.029647625  0.031012967            1 
  348000    1.1109047   -7.3670984    123.53945  0.029583203  0.030987603            3 
  349000    1.1171027   -7.3759703    123.85049  0.029572706   0.03096206            4 
  350000    1.1092974   -7.2962486    124.36883  0.029611625  0.030937332            1 
  351000    1.1181658   -7.3159855    124.62175   0.02958731  0.030913288            1 
  352000    1.1079151   -7.3701237    124.64396  0.029508512  0.030888689            3 
  353000    1.1337182   -7.3176292    125.21903  0.029560678  0.030864996            3 
  354000    1.1278982   -7.3340453    125.41029  0.029522195  0.030840935            2 
  355000    1.1012314   -7.3376054    125.86594  0.029545996  0.030817038            2 
  356000    1.0981612   -7.3758981    125.90687  0.029472581  0.030793536            1 
  357000    1.1086455   -7.3306723    126.66637  0.029567314   0.03077064            2 
  358000    1.1016917   -7.3195425     126.8467  0.029526699  0.030747254            2 
  359000    1.1153429   -7.3295197    126.89428  0.029455498  0.030723368            3 
  360000       1.1217   -7.2934988    127.71261  0.029563104  0.030700081            1 
  361000    1.0906487   -7.3500251    127.80161  0.029501757  0.030677589            1 
  362000    1.0885858   -7.3258776    128.23074  0.029519047  0.030654476            1 
  363000     1.095405   -7.3548549     128.0041  0.029385697  0.030632009            1 
  364000    1.1014847   -7.3763358    127.69377  0.029233921  0.030608518            4 
  365000    1.1081593   -7.3434277     128.5801  0.029356187  0.030584652            2 
  366000    1.1353852   -7.3564936    128.54833  0.029268745  0.030560261            1 
  367000    1.0901072   -7.3781687    128.55128  0.029189664   0.03053613            1 
  368000     1.108736   -7.3623842    129.16771  0.029249934  0.030511515            2 
  369000     1.098239   -7.3010676    129.76788  0.029306205  0.030487694            1 
  370000    1.1043611   -7.3412772    129.89778  0.029256257  0.030463714            1 
  371000    1.0908134   -7.3351968    130.36563  0.029282487  0.030440028       -1e+20 
  372000    1.1012239   -7.2960608    130.75187  0.029290294  0.030417578            2 
  373000    1.0827778    -7.326489    131.01442  0.029270425  0.030395037            2 
  374000    1.1082515   -7.3574431    131.00267  0.029189543  0.030371881            2 
  375000     1.112028   -7.3291449    131.16475  0.029147723   0.03034904            3 
  376000    1.1001365    -7.355632    131.81672    0.0292147  0.030326497            2 
  377000    1.0861021   -7.3506438    131.74247  0.029120793  0.030304064            2 
  378000    1.0843644   -7.3173906    133.10967  0.029345165  0.030281869            2 
  379000    1.0995494   -7.3775419    132.30748  0.029091354  0.030259899            1 
  380000    1.1325568    -7.331636    133.16404  0.029202641  0.030238582            2 
  381000    1.0958625   -7.3130597    133.23906  0.029142402  0.030216558            2 
  382000    1.1168952   -7.3351346     133.3951  0.029100152  0.030194161            2 
  383000    1.0952107   -7.3685675     133.5397  0.029055635  0.030171818            2 
  384000    1.0933092   -7.3669252    133.72895  0.029021039  0.030149629            3 
  385000    1.1176617   -7.3356671    134.01083  0.029006674   0.03012706            1 
  386000    1.0891737   -7.3725068    134.05614  0.028941307   0.03010416            1 
  387000    1.1088496    -7.395811    134.30846  0.028920857  0.030081062            3 
  388000    1.1082623   -7.3567519    134.46862  0.028880717  0.030058005            4 
  389000    1.1130729   -7.3772728    134.87607   0.02889376  0.030034839            2 
  390000    1.1051062   -7.3612419    135.14882  0.028877954  0.030012249            1 
  391000    1.0802712   -7.3464918    135.78382  0.028939434  0.029990199            2 
  392000    1.0859647   -7.3666066    136.03098  0.028918151  0.029968062            2 
  393000    1.0833516   -7.3877506    135.59257  0.028751606  0.029945364            2 
  394000    1.0914077   -7.3429001     136.8444    0.0289434  0.029923075            1 
  395000    1.0850814   -7.3500926    136.55447   0.02880896  0.029900444            2 
  396000     1.089798   -7.3703202    137.07525  0.028845802  0.029877575            2 
  397000    1.1108503   -7.3868618    137.50428  0.028863199  0.029855562            1 
  398000    1.0896573   -7.3947953    137.34341  0.028756994  0.029833008            1 
  399000     1.094952   -7.4305785    137.23626  0.028662544   0.02981027            5 
  400000     1.081727   -7.3614536    138.06676  0.028763909  0.029787349            1 
  401000    1.1082783   -7.3398392    138.29948   0.02874054  0.029765365            2 
  402000    1.0902718   -7.3797501     138.6328  0.028738143  0.029742807            2 
  403000    1.0998673    -7.361678    139.03564  0.028750133  0.029720438            2 
  404000    1.0886058   -7.3238202    139.20085  0.028713046  0.029698012            1 
  405000    1.0735124   -7.3851371    139.03847  0.028608738  0.029675169            2 
  406000     1.100378   -7.3755863    138.92205  0.028514378  0.029651448            3 
  407000    1.0845684     -7.39271    139.31003  0.028523756  0.029627919            3 
  408000    1.1007153   -7.4031151    139.26216  0.028444069  0.029604019            1 
  409000    1.0796436   -7.3568781    139.87755  0.028499908  0.029580454            1 
  410000    1.0688105   -7.3842926    140.17413  0.028490677  0.029557474            2 
  411000    1.0890787   -7.4168538    140.50145  0.028487723  0.029534606            1 
  412000    1.1149017    -7.399585    140.97521  0.028514404  0.029511638            1 
  413000    1.0573694   -7.3436948    141.13232  0.028477061   0.02948917            2 
  414000    1.0864514   -7.3739404    141.64769  0.028512015  0.029466791            2 
  415000    1.0843435   -7.3820502    141.78184  0.028470249  0.029444439            1 
  416000     1.084823    -7.383596    142.25039  0.028495671  0.029421976            2 
  417000    1.0917335   -7.3676725    142.31367  0.028439982  0.029399854            4 
  418000    1.0703761   -7.3807506    143.02166   0.02851309   0.02937808            2 
  419000    1.1087677   -7.3660525    143.14542  0.028469653  0.029357252            1 
  420000    1.0615621   -7.4126166    143.27313  0.028427208  0.029335427            2 
  421000     1.112797   -7.4004108    143.72913  0.028449947  0.029314097            3 
  422000    1.0929346   -7.3898397     143.7417  0.028385011  0.029292621            2 
  423000    1.1237287    -7.385723     143.9502  0.028358983  0.029270493            1 
  424000    1.1029522   -7.3849447    143.69726  0.028242386  0.029248286            3 
  425000    1.0551897   -7.4154997    144.24558  0.028283447  0.029226399            2 
  426000    1.1002945   -7.4184288    144.54777  0.028276169  0.029204378            2 
  427000    1.0849905   -7.4158789    144.72593  0.028244717  0.029183176            1 
  428000     1.080544   -7.4092501    145.13171  0.028257732  0.029161588            2 
  429000    1.0986989   -7.4213408    145.01123  0.028168459  0.029140243            2 
  430000    1.0913622   -7.3901515     145.3505  0.028168701  0.029118506            3 
  431000    1.0983341   -7.3833202    146.16839  0.028261482  0.029097453            2 
  432000    1.0845297   -7.4323893    146.37974  0.028236832  0.029076787            2 
  433000    1.0648375     -7.39684    146.37249  0.028170225  0.029055819            2 
  434000    1.0374858   -7.4158786    146.99282  0.028224427  0.029035334            2 
  435000    1.0941255   -7.4176412    147.01187  0.028163194  0.029013942            1 
  436000    1.1005609   -7.3799872    147.12217  0.028119681  0.028992574            1 
  437000    1.0979915   -7.4140167    147.24156  0.028078101  0.028970615            2 
  438000    1.0632596   -7.4296307    147.34423   0.02803353  0.028948334            1 
  439000     1.071375   -7.4280662    147.53609  0.028006092  0.028925806            2 
  440000    1.0644138   -7.3902939    147.90906   0.02801308  0.028903557            1 
  441000    1.0900854   -7.4012143    148.59411  0.028079008  0.028882466            2 
  442000    1.0811525   -7.4122081    148.86308  0.028066192  0.028861055            4 
  443000    1.0744541   -7.4118072    149.45614  0.028114398  0.028839951            2 
  444000    1.0910014   -7.4106501    149.46782   0.02805327  0.028819397            1 
  445000    1.0663341   -7.4034517    149.49937  0.027996137  0.028798613            2 
  446000    1.0851953   -7.3539944    150.35008  0.028092317  0.028778448            2 
  447000    1.0648291   -7.4083721    150.52351  0.028061802  0.028758402            2 
  448000    1.0842519   -7.3914871    150.25061  0.027948402  0.028738544            2 
  449000    1.0674791   -7.4359555    150.42021  0.027917633  0.028717459            1 
  450000    1.0883797   -7.4658927    150.38101  0.027848336  0.028696356            2 
  451000    1.0707854    -7.429019    151.13167  0.027925289   0.02867598            4 
  452000    1.0552336   -7.4001818    151.60312  0.027950428  0.028655986            3 
  453000    1.0832956   -7.4197174    151.22468  0.027819109  0.028635492            1 
  454000    1.0796343   -7.4540366    151.41341  0.027792476  0.028614499            1 
  455000     1.063958   -7.4638867    151.64339  0.027773515  0.028593312            1 
  456000    1.0792662   -7.3974281    152.75936   0.02791655  0.028573165            3 
  457000    1.1078679   -7.4588515    152.03539  0.027723449  0.028552409            1 
  458000     1.052708   -7.3841606    153.08074  0.027853119   0.02853147            2 
  459000    1.0758046   -7.4588687    152.43602  0.027675384  0.028511086            2 
  460000    1.0824827   -7.4121002    152.87367  0.027694505  0.028490072            1 
  461000    1.0635386    -7.477029    152.93824  0.027646102  0.028469141            1 
  462000     1.066854   -7.4245721       153.46  0.027680375  0.028448278            2 
  463000    1.0495001   -7.4211633      153.884  0.027696904  0.028427972            2 
  464000    1.0491205    -7.456155    153.95676   0.02765028  0.028407649            2 
  465000    1.0667493   -7.4444748    153.93811  0.027587475   0.02838714            2 
  466000    1.0714188   -7.4251882    155.13975   0.02774316  0.028366485            2 
  467000    1.0787724   -7.4314755    154.96128  0.027651905  0.028346245            3 
  468000    1.0415652    -7.452645    154.65794  0.027538807  0.028325918            2 
  469000    1.0715584    -7.422243    155.31755  0.027597291  0.028305047            2 
  470000    1.0737893    -7.444283    155.06576   0.02749393  0.028284238            1 
  471000    1.0574661   -7.3946577    156.45577  0.027681487   0.02826421            2 
  472000    1.0393628   -7.4544332    155.62482  0.027476133  0.028243896            2 
  473000    1.0844873   -7.4376864    156.41602  0.027557438  0.028223705            3 
  474000    1.0909858   -7.4715685    156.61442  0.027534181  0.028203582            4 
  475000    1.0582351   -7.4356675    157.02888  0.027548927  0.028183526            1 
  476000    1.0313922   -7.4575931    157.15132  0.027512486  0.028163164            4 
  477000    1.0618003   -7.4379377    156.97343   0.02742373  0.028142776            1 
  478000     1.058351   -7.4800453    157.11706  0.027391398  0.028122617            1 
  479000    1.0535582   -7.4149986    157.35607  0.027375795   0.02810232            2 
  480000    1.0717035   -7.4671005    157.66909  0.027373105   0.02808209            1 
  481000    1.0702927   -7.4626168    158.07762  0.027386975  0.028062422            2 
  482000    1.0634225    -7.417111    158.37973  0.027382388  0.028042216            3 
  483000    1.0566829   -7.4520645    158.64319   0.02737115  0.028022251            1 
  484000    1.0702554   -7.4655946     158.4442  0.027280338  0.028001586            2 
  485000     1.065337   -7.4334203    158.54479  0.027241373  0.027980985            2 
  486000    1.0509866   -7.4751149    159.13123  0.027285876  0.027959619            1 
  487000    1.0565418   -7.4833081    159.07054  0.027219463  0.027938704            3 
  488000    1.0790757   -7.4360659    159.20223  0.027186174  0.027917743            1 
  489000    1.0514263   -7.4507811    159.51317  0.027183566  0.027897122            2 
  490000    1.0717266   -7.4617758    159.81634   0.02717965  0.027877081            1 
  491000    1.0649978   -7.4992657     159.9839  0.027152733  0.027856841            2 
  492000    1.0684475   -7.5022989    160.04473  0.027107848   0.02783586            2 
  493000    1.0302704   -7.4813045    160.22822  0.027083878   0.02781479            1 
  494000    1.0533183   -7.4802576    160.51992  0.027078259  0.027793794            3 
  495000     1.032001   -7.4231854    161.41611   0.02717443  0.027773503            1 
  496000    1.0386482   -7.4547506    160.77349  0.027011674  0.027752849            1 
  497000    1.0448389   -7.4922712    161.02143  0.026998898  0.027732366            2 
  498000    1.0589933   -7.4664255    160.97611    0.0269371   0.02771128            2 
  499000    1.0563899   -7.4577534    161.83815  0.027027079  0.027690313            1 
  500000    1.0496256   -7.4529422    162.13146  0.027021909  0.027669101            1 
  501000    1.0546908   -7.4312995    161.85113  0.026921345  0.027648152            2 
  502000     1.046099   -7.4714955    162.48434  0.026972832   0.02762735            3 
  503000    1.0267019   -7.4772146    161.89577  0.026821698  0.027606258            2 
  504000    1.0513213   -7.5047466    162.09001  0.026800596  0.027584771            2 
  505000    1.0490447   -7.4935631    162.16753  0.026760319  0.027563029            1 
  506000    1.0494698   -7.5140188     162.1415  0.026703145  0.027540848            1 
  507000    1.0458031   -7.4685388    162.88297  0.026772349  0.027518723            3 
  508000    1.0555423   -7.4542144    162.86178  0.026716171  0.027497081            2 
  509000    1.0467556   -7.4702778    163.17571   0.02671508  0.027475272            3 
  510000    1.0441946   -7.4626312    163.58862  0.026730167  0.027453423            2 
  511000    1.0642324   -7.4584835    164.23655   0.02678352  0.027431968            1 
  512000    1.0916494   -7.4318454    164.65513  0.026799337  0.027411271            2 
  513000    1.0525531   -7.5033302    163.80464   0.02660894  0.027389885            2 
  514000    1.0651176   -7.5387726    164.21984  0.026624487  0.027368881            5 
  515000    1.0505303    -7.464059     164.4717  0.026613544  0.027347499            1 
  516000    1.0792327    -7.480396      165.455  0.026720768   0.02732629            2 
  517000    1.0477914   -7.4999688    164.90755  0.026580844  0.027305002            2 
  518000    1.0682172   -7.4668617    165.19363  0.026575552  0.027284041            1 
  519000    1.0462676   -7.4742469    165.57997  0.026586379  0.027263029            2 
  520000    1.0638887   -7.4789171    166.29845  0.026650393  0.027242351            3 
  521000    1.0465157   -7.5148268    166.06435  0.026561796  0.027222116            1 
  522000      1.06201   -7.4613699    166.70428  0.026613072  0.027201494            1 
  523000    1.0439935   -7.4592282    167.44548  0.026680287  0.027181451            1 
  524000    1.0379638   -7.4764398    166.84593  0.026534022  0.027161082            2 
  525000    1.0537629   -7.4687604     167.4964   0.02658673  0.027140835            4 
  526000    1.0596161   -7.4591272    167.92332  0.026603821  0.027120515            2 
  527000    1.0315412   -7.4894318     167.1346  0.026428621  0.027100932            1 
  528000    1.0752808   -7.4947699    167.21326  0.026390982  0.027080417            4 
  529000    1.0269385   -7.5266145    167.88511   0.02644693   0.02705972            2 
  530000    1.0499257   -7.5026618    168.37217  0.026473612  0.027039413            1 
  531000    1.0555516   -7.5162458    168.95275   0.02651487  0.027019206            1 
  532000    1.0632382    -7.499342    169.00185  0.026472721  0.026999874            1 
  533000    1.0476603   -7.5080229    168.82721  0.026395748  0.026980495            2 
  534000    1.0357308   -7.4847898    169.78881  0.026496382  0.026961292            5 
  535000    1.0496114   -7.4880611    170.37205  0.026537702  0.026942368            1 
  536000    1.0400677   -7.5134904    170.08783  0.026444004   0.02692313            1 
  537000     1.030366   -7.5204381    170.11437  0.026398878  0.026903728            2 
  538000    1.0286557   -7.5124226    170.57485  0.026421135  0.026884315            2 
  539000    1.0614454   -7.5193771    170.72625  0.026395523  0.026865106            1 
  540000    1.0380698   -7.5028387    170.91413  0.026375638  0.026845871            2 
  541000    1.0294774   -7.4914466    171.38026  0.026398685  0.026826871            1 
  542000    1.0469318    -7.513004    171.71027  0.026400719  0.026808347            2 
  543000    1.0543092   -7.4997563    171.65483   0.02634359  0.026789595            2 
  544000    1.0376614   -7.5337077    171.77143  0.026313025   0.02677061            3 
  545000     1.032497   -7.5079818    171.87915  0.026281216  0.026751632            4 
  546000    1.0277121   -7.5014525    171.96871   0.02624675  0.026732802            1 
  547000    1.0179144   -7.5010141    172.37991  0.026261412  0.026713997            1 
  548000    1.0092582   -7.5312999    172.02904  0.026160133  0.026694682            1 
  549000     1.033726   -7.5024399    172.98106  0.026256991  0.026675786            1 
  550000     1.043911   -7.4860398    173.00999  0.026213635  0.026657141            1 
  551000    1.0304756   -7.4872041    172.97921  0.026161405  0.026638349            1 
  552000     1.026848   -7.5168971    173.62112  0.026210918  0.026619491            1 
  553000    1.0410853   -7.4700296    173.95039  0.026213139  0.026601288            2 
  554000    1.0468784   -7.5110799    173.63313  0.026118101  0.026582786            2 
  555000    1.0336632   -7.4973792    174.14046  0.026147216  0.026563632            1 
  556000    1.0330629    -7.550352    173.38943  0.025987624    0.0265443            2 
  557000    1.0336394   -7.5419845    173.99057  0.026030906  0.026524731            1 
  558000    1.0475866   -7.5495436    173.83488  0.025961004  0.026505092            1 
  559000    1.0298276   -7.5308807    174.01036  0.025940722  0.026485219            3 
  560000    1.0274264   -7.5689739     173.9963  0.025892307  0.026465246            1 
  561000    1.0153087   -7.4829418    175.29913  0.026039681   0.02644534            1 
  562000     1.017881    -7.559154    174.96446  0.025943722  0.026425775            1 
  563000    1.0402989   -7.4953865    175.64863  0.025998909  0.026406294            2 
  564000    1.0369964   -7.5241896    175.49243  0.025929732  0.026387112            1 
  565000    1.0196091   -7.5030953    175.61283  0.025901597  0.026367626            1 
  566000    1.0270238   -7.5425641    175.81665  0.025885843  0.026347903            4 
  567000    1.0054526   -7.5365841    175.54447  0.025800186  0.026328048            1 
  568000    1.0367735   -7.4750804     175.9626  0.025816109  0.026308639            2 
  569000    1.0322953   -7.5617053    176.21422  0.025807589  0.026289014            2 
  570000    1.0244487   -7.5431056    176.20592    0.0257611  0.026269429            2 
  571000    1.0359128   -7.5282621    176.19901  0.025714975  0.026249534            3 
  572000    1.0406067   -7.5664511    176.23035  0.025674585  0.026229723            2 
  573000     1.027855   -7.5492177    176.93147  0.025731743  0.026210166            3 
  574000    1.0313204     -7.52533    177.14633  0.025718109  0.026190309            1 
  575000    1.0177822    -7.524484    177.23355  0.025686022  0.026170573            2 
  576000    1.0109784   -7.5221783    177.98775  0.025750542  0.026151126            1 
  577000    1.0502871   -7.5442386    177.38669  0.025619106  0.026131796            3 
  578000    1.0103574    -7.572712    177.57221   0.02560153  0.026112142            3 
  579000    1.0309877   -7.5165513    177.99981  0.025618856  0.026092588            4 
  580000    1.0156134   -7.5482659    178.26179  0.025612326  0.026072919            1 
  581000    1.0336078   -7.5625731    178.41292   0.02558992  0.026053648            1 
  582000    1.0292191   -7.5710699     178.1411   0.02550703  0.026034332            3 
  583000    1.0323667   -7.5311589    178.95252  0.025579263  0.026014787            1 
  584000    1.0011674   -7.5585028     179.2041  0.025571362  0.025995349            1 
  585000    1.0119134   -7.5983138    178.91355   0.02548626  0.025976078            3 
  586000     1.012672   -7.5517894    179.44246  0.025517983   0.02595702            2 
  587000    1.0376224   -7.5423819    180.05203  0.025561049  0.025938115            4 
  588000    1.0111259   -7.5710787    179.50937  0.025440671  0.025919038            2 
  589000    1.0233901   -7.5522871    179.80555  0.025439382  0.025899871            2 
  590000    1.0074351   -7.5749904    179.74637  0.025387905  0.025880334            3 
  591000    1.0243648   -7.5597104    179.76171  0.025347111  0.025860919            6 
  592000    1.0276107   -7.5694428    180.43719  0.025399379  0.025841745            2 
  593000    1.0078288   -7.5750275    180.93642  0.025426703  0.025822521            2 
  594000    1.0038724    -7.576591    180.80651  0.025365672  0.025803247            2 
  595000    1.0215426   -7.5254979    180.96494   0.02534523  0.025784228            2 
  596000    1.0228339   -7.5352515    180.76185  0.025274308  0.025764766            2 
  597000    1.0061661   -7.5390249    181.07519  0.025275711  0.025745042            1 
  598000    1.0253966   -7.5989311    181.05401  0.025230492   0.02572523            1 
  599000   0.99318574    -7.555045    181.05416  0.025188392   0.02570539            3 
  600000    1.0017881    -7.558897    182.10751   0.02529271  0.025685371            3 
  601000   0.99753513   -7.5950035    181.33208  0.025143105  0.025665393            2 
  602000    1.0132408   -7.5469491    181.93723  0.025185109  0.025645729            1 
  603000    1.0169686   -7.5758357    182.33562  0.025198399  0.025626132            2 
  604000    1.0123511   -7.5414415    182.59928  0.025193058  0.025606583            1 
  605000    1.0031283   -7.5804798    182.30833   0.02511134  0.025586806            1 
  606000    1.0031958   -7.5753474    182.19946  0.025054932  0.025567001            2 
  607000    1.0136615   -7.5725517    182.47346  0.025051271  0.025547052            2 
  608000     1.015692    -7.595929    182.97532  0.025078854  0.025527215            2 
  609000    1.0186803   -7.5836707    183.23609  0.025073356  0.025507661            2 
  610000    1.0186739   -7.5395199    183.39746  0.025054298  0.025488547            4 
  611000    0.9968794    -7.555527    184.49191  0.025162563  0.025469666            1 
  612000    1.0176086   -7.5755842    184.18867  0.025080156  0.025450861            1 
  613000    1.0101164   -7.6006383    184.19295  0.025039824  0.025432048            2 
  614000   0.99918171   -7.5918682    184.80469  0.025082069  0.025413222            1 
  615000    1.0071323   -7.6010317    184.51514  0.025002052  0.025394052            7 
  616000    1.0046178   -7.5674274    184.72115  0.024989333  0.025375017            2 
  617000    1.0119077   -7.5933858    185.11743  0.025002354  0.025355881            2 
  618000     1.034139   -7.6003684    184.95998  0.024940666  0.025336881            2 
  619000    1.0029476   -7.5664819    185.03291  0.024910192  0.025317332            1 
  620000   0.99806977   -7.5855468    184.77875  0.024835854  0.025297812            2 
  621000    1.0071499   -7.5903192    185.55877  0.024900533  0.025278215            3 
  622000    0.9947782   -7.5887591    184.96454  0.024780887  0.025258668            1 
  623000     1.024767   -7.5883176    186.12365  0.024896155  0.025239305            2 
  624000      1.01643   -7.5808362     186.5773   0.02491684  0.025220109            4 
  625000   0.98667491   -7.6130598    185.96862  0.024795816  0.025200789            2 
  626000   0.99310049   -7.6013469    186.27117  0.024796481  0.025181219            1 
  627000    1.0006048   -7.5663149    186.64167  0.024806176  0.025161633            2 
  628000    1.0210054   -7.5685065    186.55132  0.024754687  0.025142487            2 
  629000   0.96974833   -7.5976069    186.95821  0.024769238  0.025123081            2 
  630000    1.0040047   -7.5962696    186.80308  0.024709402  0.025103641            2 
  631000    1.0054698   -7.6458635    186.79912   0.02466972  0.025084324            1 
  632000    1.0035034   -7.5858195    187.41827  0.024712324  0.025064831            3 
  633000    1.0125436   -7.6067299    187.32427  0.024660909   0.02504576            1 
  634000   0.99206388   -7.5700608    187.89335  0.024696813  0.025026815            4 
  635000    1.0022271   -7.6107346    187.96385  0.024667172  0.025007954            2 
  636000    1.0160746   -7.5786081    188.11798  0.024648582  0.024989248            2 
  637000    1.0169532   -7.5503827    188.86713  0.024707893  0.024970291            3 
  638000     1.017228   -7.5550974    188.65811  0.024641863  0.024951404            1 
  639000   0.99914299   -7.5848075     188.7965  0.024621349  0.024932813            3 
  640000    1.0143678   -7.6271619    188.64017  0.024562522  0.024913906            3 
  641000    1.0100448   -7.5883593    189.26688  0.024605679  0.024895146            1 
  642000    0.9942054   -7.6230435    189.07514  0.024542463  0.024876404            3 
  643000   0.96807089   -7.5896079    189.38994  0.024545093   0.02485734            2 
  644000   0.99431412   -7.5729882     189.5771  0.024531198  0.024838279            2 
  645000   0.99512641   -7.5936393    189.80589  0.024522725  0.024819438            2 
  646000    0.9908484   -7.5833529    190.06601  0.024518319   0.02480059            1 
  647000   0.99104978   -7.6338067    189.57172   0.02441676  0.024781701            2 
  648000   0.97732424   -7.6338263    189.51766  0.024372127  0.024762595       -1e+20 
  649000    1.0009014   -7.6651962    189.59898  0.024345016  0.024742974            1 
  650000   0.99442003    -7.622537    190.15236  0.024378508  0.024723318            3 
  651000   0.99273162   -7.6340485      189.904  0.024309268  0.024704061            6 
  652000   0.97679106   -7.5894787    190.42385  0.024338426  0.024685183            1 
  653000    1.0048842   -7.6458704    190.55718   0.02431817  0.024665948            1 
  654000   0.99830448   -7.6175346    190.48913  0.024272315  0.024646543            2 
  655000   0.98724192   -7.5900442    190.79608  0.024274311  0.024627353            2 
  656000   0.99472194   -7.5993968     191.2578   0.02429596   0.02460839            2 
  657000   0.97994941   -7.5634281    191.85333  0.024334517   0.02458937            2 
  658000    1.0258054   -7.6146592    191.51897  0.024255188  0.024570348            2 
  659000    1.0034444   -7.5782073    191.45501  0.024210294  0.024551295            4 
  660000   0.98935298   -7.6197059    191.41868  0.024169026  0.024532348            2 
  661000   0.98129939   -7.6356109     191.3585  0.024124874  0.024512962            2 
  662000   0.98232796   -7.6001091    192.21645  0.024196432  0.024493561            5 
  663000   0.97970825   -7.6327621    192.11763  0.024147515  0.024474436            2 
  664000    1.0121604   -7.5945507     192.7621  0.024192031  0.024455544            1 
  665000   0.97645239   -7.5948776    192.25164  0.024091685   0.02443672            1 
  666000    1.0170226    -7.633356     192.2529  0.024055668  0.024417782            1 
  667000   0.97310632    -7.612985    192.55837  0.024057767  0.024398977            1 
  668000   0.98477823   -7.6018163    193.20562  0.024102497  0.024380198            4 
  669000    1.0064973   -7.6225058    192.81232  0.024017479  0.024361088            2 
  670000   0.98628551   -7.6673906    192.83163  0.023984033  0.024341988            1 
  671000    0.9956294   -7.6400581    192.70064  0.023932022  0.024322701            3 
  672000   0.98542599    -7.634047    193.65007  0.024014145  0.024303701            3 
  673000    1.0099309   -7.5980088    193.74435  0.023990137  0.024285074            2 
  674000   0.98308279   -7.6515247    193.74743  0.023954925  0.024266282            3 
  675000    0.9940941   -7.6513986    193.40061  0.023876619  0.024247215            2 
  676000    1.0046175   -7.6832146    193.54244  0.023858782   0.02422814            1 
  677000   0.97308124    -7.661675    194.04347  0.023885214  0.024208768            2 
  678000   0.97714516   -7.6276671     194.5041    0.0239066  0.024189902            1 
  679000   0.97917144   -7.6727735    194.37752  0.023855856  0.024170958            3 
  680000   0.98530009   -7.6424186     194.4681  0.023831875   0.02415202            3 
  681000   0.99534615   -7.6556597    194.18609   0.02376237   0.02413291            3 
  682000   0.99532345   -7.6673514    194.49124  0.023764814  0.024114018            3 
  683000   0.98450188   -7.6512561    194.41495  0.023720711  0.024094846            1 
  684000   0.97814198   -7.6840191    194.60395  0.023709058  0.024075275            1 
  685000   0.96680468   -7.6758746    194.90112  0.023710598  0.024055702            2 
  686000   0.97339037   -7.6717564    194.40663  0.023615966  0.024036311            1 
  687000    1.0008488   -7.6497845    194.75752  0.023624154  0.024016627            2 
  688000   0.96716366   -7.6483229    195.48249  0.023677627  0.023997211            1 
  689000   0.99041882   -7.6490649    195.40669  0.023634094  0.023977688            2 
  690000   0.97886427   -7.6524371    196.15151  0.023689796  0.023958338            3 
  691000   0.99727803   -7.6677966    195.67912  0.023598543  0.023939059            2 
  692000   0.97181936   -7.6539141    196.47358  0.023660113  0.023919936            1 
  693000      0.99016   -7.6192395    196.47526  0.023626174  0.023901074            1 
  694000    0.9564442   -7.6478536    196.50761  0.023596015  0.023882357            4 
  695000   0.96883541   -7.6406022    197.08585  0.023631396  0.023863507            1 
  696000   0.98769968   -7.6673383     197.0359  0.023591464  0.023844708            2 
  697000   0.97135237   -7.6537733    197.47723  0.023610382  0.023826096            2 
  698000   0.96239572   -7.6627132    198.02727  0.023642224  0.023807693            1 
  699000   0.97755636   -7.6461565    198.13185  0.023620869  0.023789484            1 
  700000   0.98873348   -7.6629371    198.04378  0.023576641  0.023771421            1 
  701000   0.96950373   -7.6309452    198.58135  0.023606913   0.02375355            2 
  702000    0.9696305   -7.6862263    198.07592  0.023513286  0.023735553            4 
  703000   0.96523793   -7.6590017     198.6862  0.023552181  0.023717867            1 
  704000   0.97049301     -7.66681     198.8253  0.023535191  0.023700076            5 
  705000   0.96478698   -7.6703036    199.16184  0.023541588  0.023682413            2 
  706000   0.98770697   -7.6810018    199.35179  0.023530665  0.023664846            2 
  707000   0.97713309   -7.6268838    200.20447  0.023597887  0.023647587            1 
  708000   0.96901554   -7.6601752    199.90787  0.023529646  0.023630487            3 
  709000   0.97730617   -7.7002211    199.91936  0.023497809  0.023613334            1 
  710000   0.96836937   -7.6962748    200.49716   0.02353253   0.02359629            1 
  711000   0.96021288   -7.7027867    200.41199   0.02348945  0.023578904            1 
  712000   0.96297241    -7.625473    200.97657  0.023522538  0.023561731            1 
  713000    0.9649668   -7.6532238    200.45879  0.023429031  0.023544818            1 
  714000   0.96949266   -7.6806652    200.34776  0.023383258  0.023527543            3 
  715000   0.96124768   -7.6928918    200.58867  0.023378633   0.02351014            3 
  716000   0.95854015   -7.6711249    201.15117  0.023411449  0.023492811            2 
  717000   0.97665549   -7.6603402    201.44824  0.023413324  0.023475622            4 
  718000   0.97645934   -7.6943257    201.19372  0.023351174   0.02345837            2 
  719000   0.93511354   -7.7017962    201.06821  0.023304151  0.023441146            3 
  720000   0.98388177   -7.6788787    201.18465  0.023285261  0.023423905            2 
  721000   0.98617182   -7.6720441    201.52134  0.023291879  0.023406631            4 
  722000   0.98488918   -7.6486413    201.60227   0.02326896  0.023389334            2 
  723000   0.96771114   -7.6710396    201.77413  0.023256585  0.023371999            3 
  724000    0.9197398   -7.6986412    202.07704  0.023259327  0.023354582            1 
  725000   0.95940133    -7.655107    202.06474  0.023225832  0.023337087            1 
  726000   0.96855726   -7.6354834    202.24318  0.023214323  0.023319579            2 
  727000   0.97087259   -7.7148968    202.46305  0.023207594  0.023302174            3 
  728000   0.94829696   -7.6472539    202.78895  0.023213021  0.023284715            3 
  729000   0.97649744   -7.6891791    202.48008  0.023145871  0.023267206            2 
  730000   0.94567994   -7.6704786    202.62413  0.023130608  0.023249737            1 
  731000   0.93891731   -7.6965857    202.68151  0.023105507  0.023232295            3 
  732000   0.95868578   -7.7192033    202.31892  0.023032664  0.023214863            1 
  733000   0.93632132   -7.6980026    202.72686  0.023047619   0.02319732            2 
  734000   0.95953311   -7.7266226    202.36961  0.022975659  0.023179731            2 
  735000   0.95430033    -7.686124     203.7418  0.023099977  0.023162288            1 
  736000   0.96003356    -7.717738     203.3786  0.023027469  0.023144885            2 
  737000   0.94882273   -7.7260978    203.74699  0.023037878  0.023127451            4 
  738000   0.98281774   -7.6923319    203.60885  0.022991062  0.023109946            2 
  739000   0.95830985   -7.6708238    204.21932  0.023028791  0.023092558            1 
  740000   0.94369784   -7.6786953    204.59113  0.023039541  0.023075246            2 
  741000   0.96447062    -7.662818    205.03616  0.023058498   0.02305838            2 
  742000    0.9460569   -7.6926209    204.82866  0.023004117  0.023041581            1 
  743000   0.95537402   -7.6952756    204.42146  0.022927485  0.023024463            3 
  744000   0.95881977   -7.7429875    204.56017  0.022912206  0.023007316            3 
  745000   0.96874843   -7.6615583    205.04028  0.022935154   0.02299052            1 
  746000   0.95491367   -7.7192796    204.80118  0.022877702  0.022973444            2 
  747000   0.96753597   -7.7221856    204.45228  0.022808152  0.022956263            2 
  748000   0.95664312   -7.7158775    205.68343  0.022914821  0.022939218            1 
  749000   0.94358164   -7.7241504     204.8156  0.022787673  0.022922347            2 
  750000   0.96343013   -7.6983657    205.67426  0.022852695  0.022905465            1 
  751000   0.96454052   -7.7251522    206.00338  0.022858786   0.02288882            3 
  752000   0.93892852   -7.7044072     206.2371  0.022854289  0.022872175            1 
  753000   0.95789432   -7.6855088    206.67143  0.022872004  0.022855427            2 
  754000   0.94972093   -7.7290843    206.20586  0.022790215   0.02283852            3 
  755000   0.94874877   -7.7479835     205.6196   0.02269532  0.022821464            2 
  756000   0.94157755   -7.6832451    206.35206  0.022746038  0.022804431            4 
  757000   0.94512339   -7.7422417    206.22521  0.022702026   0.02278715            4 
  758000   0.95023181   -7.7352614    205.82637  0.022628229  0.022769988            1 
  759000   0.94942787    -7.703449    207.59624  0.022792736  0.022752687            1 
  760000   0.96669248   -7.7229771     206.4289  0.022634748  0.022735509            3 
  761000   0.96129594   -7.7520062    206.41236  0.022603193  0.022718074            2 
  762000   0.95739354   -7.7443043    206.36171  0.022567991   0.02270055            2 
  763000   0.97137568   -7.7497377    206.90774   0.02259805  0.022683387            3 
  764000   0.94130447   -7.7204223    207.10242  0.022589706  0.022666259            2 
  765000   0.95561566   -7.6907224    207.17149    0.0225677  0.022648957            3 
  766000    0.9381061   -7.7445356    206.98916  0.022518403  0.022631676            1 
  767000   0.96313044    -7.748688     206.9713  0.022487103  0.022614435            1 
  768000    0.9364434     -7.73374    207.54069  0.022519607  0.022597263            1 
  769000   0.93222081   -7.7156745    207.62417  0.022499369  0.022580009            1 
  770000   0.93955121   -7.7158784    207.94551  0.022504925  0.022562722            1 
  771000   0.95398542   -7.7578727    208.08559  0.022490876  0.022545264            1 
  772000   0.93269271   -7.7247457    207.91877  0.022443736  0.022527986            1 
  773000   0.92958677   -7.7464689    208.00796  0.022424316  0.022510583            2 
  774000   0.93428446   -7.7697792    207.88185  0.022381767  0.022493141            5 
  775000   0.93778203   -7.7550406     208.1904  0.022386065  0.022475732            3 
  776000   0.93159421   -7.7508361    208.67465  0.022409219  0.022458572            2 
  777000   0.94334444   -7.7228475    208.50246  0.022361912  0.022441418            1 
  778000   0.92102872   -7.7285961     209.1833  0.022406094  0.022424189            4 
  779000   0.95539906   -7.7364872    208.88635  0.022345566  0.022407145            5 
  780000   0.95502436   -7.7652262    208.81261  0.022309039  0.022390037            1 
  781000   0.94174837   -7.7373741     210.2544  0.022434315  0.022373204            2 
  782000   0.92375436    -7.771059     209.7811   0.02235519  0.022356441            2 
  783000    0.9341463   -7.7288323    210.62455  0.022416405  0.022339668            1 
  784000   0.92615392   -7.7431129    210.28263   0.02235147  0.022322905            2 
  785000   0.94565623    -7.732075     209.9928  0.022292229  0.022305896            2 
  786000   0.91868158   -7.7257119    210.22604  0.022288596  0.022289241            4 
  787000   0.93635843   -7.7477948    210.66692  0.022306959  0.022272584            2 
  788000   0.96360762    -7.757181    210.59784  0.022271345  0.022255781            1 
  789000   0.95481437   -7.7878945    210.16132  0.022197013  0.022239153            2 
  790000   0.94716199   -7.7533482    211.48265  0.022308297  0.022222526            1 
  791000   0.95615061   -7.7818876    211.50155  0.022282084   0.02220597            4 
  792000   0.95647816   -7.7563938    211.40159  0.022243433   0.02218956            1 
  793000   0.93737346    -7.773781    211.05055  0.022178494  0.022173129            1 
  794000   0.91169221   -7.7714878    211.63931  0.022212354  0.022156821            2 
  795000   0.93680576   -7.7960963    211.57879   0.02217807  0.022140508            1 
  796000   0.94853378   -7.7767947    211.85358  0.022178976  0.022124149            2 
  797000   0.92314261   -7.7699644    211.98369  0.022164752  0.022107961            1 
  798000   0.93946935   -7.7780856    212.30178  0.022170194  0.022091731            1 
  799000   0.93277832   -7.7930976    212.20625  0.022132484  0.022075576            2 
  800000   0.93320364   -7.7763226    212.14141  0.022098064  0.022059224            1 
  801000   0.93123028   -7.7512969     212.6309    0.0221214  0.022042944            2 
  802000    0.9255463   -7.7423371    212.94246  0.022126191  0.022026648            2 
  803000   0.94154021   -7.7891251    212.29598  0.022031546   0.02201031            2 
  804000   0.92326043   -7.7651182    212.96713  0.022073708  0.021993964            1 
  805000   0.94409187   -7.7498137    212.86692  0.022035913  0.021977758            1 
  806000   0.92654417   -7.7985469    213.07225  0.022029803  0.021961531            3 
  807000   0.92487869   -7.7837438     213.2394  0.022019765    0.0219454            2 
  808000   0.93851358   -7.7758394    213.25986  0.021994623  0.021929288            1 
  809000   0.94579187   -7.8264212    213.57541  0.021999939  0.021913181            1 
  810000   0.91993368   -7.7965244    213.35431  0.021950032   0.02189698            1 
  811000   0.94382167    -7.782702    213.37197  0.021924781  0.021880778            3 
  812000   0.91384813   -7.7674526    213.59369  0.021920535  0.021864742            3 
  813000   0.92462309   -7.7555047     213.8666  0.021921546  0.021848688            3 
  814000   0.94083189   -7.7552731    214.25667  0.021934549  0.021832721            2 
  815000   0.94838824   -7.7495096    214.18534  0.021900342   0.02181665            1 
  816000   0.91277975   -7.7549283    214.33628  0.021888918  0.021800689            2 
  817000   0.91693512   -7.7817888    214.33806  0.021862307  0.021784664            2 
  818000   0.91362095   -7.7739274     214.7924  0.021881867   0.02176852            1 
  819000   0.91162725   -7.7940238    213.91735  0.021766112   0.02175259            2 
  820000   0.90978336   -7.7836162     214.9057   0.02184001  0.021736654            1 
  821000   0.93348883   -7.7833947    215.12859  0.021836032  0.021720751            2 
  822000   0.93439122   -7.8154643    214.65585  0.021761542  0.021704719            2 
  823000    0.9476085   -7.7505324    214.84055  0.021753802  0.021688641            1 
  824000   0.89528321   -7.7836948    215.11963  0.021755626  0.021672584            2 
  825000   0.90864775   -7.7429102    215.01168  0.021718352   0.02165642            1 
  826000   0.91545289   -7.7776749    215.46872  0.021738168  0.021640334            2 
  827000   0.93006427   -7.8043125    215.02798  0.021667471  0.021624026            5 
  828000   0.89809583    -7.778011    215.73218  0.021712176  0.021607697            2 
  829000    0.9266826     -7.79711    215.03855   0.02161626  0.021591269            2 
  830000   0.94074567   -7.8052767    215.29097  0.021615559  0.021574775            1 
  831000   0.91301431   -7.8061674    215.54303  0.021614825  0.021558469            2 
  832000   0.92308183    -7.833225    215.26006  0.021560502  0.021542139            3 
  833000   0.92185739   -7.7911881    216.08359  0.021617005  0.021525942            2 
  834000    0.8976442    -7.815172    216.25095  0.021607809  0.021509878            4 
  835000   0.93320499    -7.808887    216.45181  0.021601977  0.021493723            2 
  836000   0.91061455   -7.7741242    216.36139  0.021567124   0.02147756            3 
  837000   0.91187335   -7.8494224    215.71197    0.0214767  0.021461244            1 
  838000   0.91115842   -7.8027631    216.39977  0.021519468   0.02144491            1 
  839000   0.90511179   -7.8018096    216.18632  0.021472618  0.021428687            2 
  840000   0.88354491   -7.7810406    216.81708  0.021509631  0.021412597            2 
  841000    0.9242171   -7.8335298     216.2929  0.021432115  0.021396549            2 
  842000   0.92367707    -7.771602    217.41168  0.021517388  0.021380544            1 
  843000   0.90597841   -7.8470518    216.22455  0.021374511  0.021364384            2 
  844000   0.93888424   -7.7646767    217.39241  0.021464496  0.021348353            1 
  845000   0.92301778   -7.8231461    216.94833  0.021395299  0.021332397            1 
  846000   0.90725528   -7.8076568    217.50416   0.02142476  0.021316418            1 
  847000    0.9011436   -7.8161932     216.8226  0.021332408  0.021300401            2 
  848000   0.89345897   -7.8282633    217.66144  0.021389686  0.021284276            2 
  849000   0.91553836   -7.8142387     217.7553  0.021373705  0.021268121            2 
  850000   0.92525643   -7.7837014    218.03732  0.021376208  0.021252237            3 
  851000   0.91924519   -7.8261163    217.79559  0.021327417  0.021236246            2 
  852000   0.89400153   -7.8020471    218.15478  0.021337517  0.021220279            5 
  853000    0.8935943   -7.8147289    217.39424  0.021238203  0.021204394            1 
  854000   0.92737242   -7.8084818    218.55281  0.021326386  0.021188711            1 
  855000   0.92848072    -7.803667    218.32223  0.021278969  0.021172914            1 
  856000   0.89230814   -7.8376958    218.53241  0.021274572  0.021156929            2 
  857000   0.90953816   -7.7930606    218.62758  0.021259003  0.021140925            1 
  858000   0.91409866     -7.81208    218.57427  0.021229048  0.021124988            1 
  859000   0.92911056   -7.8308731    218.75942  0.021222296  0.021109077            4 
  860000   0.93601065   -7.8433641    218.99679  0.021220619  0.021093094            2 
  861000   0.90327597   -7.8359314    218.91081  0.021187651  0.021077037            2 
  862000   0.93470575   -7.8590293    218.77764  0.021150197  0.021060994            4 
  863000   0.89960466    -7.784496     219.5795  0.021203119  0.021045119            2 
  864000   0.91163277   -7.7916216    219.35497  0.021156923  0.021029196            2 
  865000   0.93877877   -7.8308929    218.79602  0.021078615  0.021013052            1 
  866000   0.90410772   -7.8234026    219.63535  0.021135042  0.020996943            2 
  867000   0.91022325   -7.8221283    219.23314  0.021072005  0.020981024            2 
  868000    0.8964557   -7.8241846     219.7929  0.021101468  0.020965049            1 
  869000   0.90602621   -7.8354043    218.89959  0.020991522  0.020948949            1 
  870000   0.91833639   -7.8387226    219.25707  0.021001635  0.020932665            1 
  871000   0.91087505   -7.8353323    219.91599  0.021040566  0.020916498            6 
  872000   0.90659285   -7.8368571    219.48857  0.020975589  0.020900422            2 
  873000   0.90009815    -7.820776    219.72998  0.020974606  0.020884535            5 
  874000    0.9134687   -7.8478164    219.80669  0.020957922  0.020868581            1 
  875000   0.88221427   -7.8356348    220.27108  0.020978198  0.020852575            2 
  876000   0.89852887   -7.8543143     219.9432  0.020923059  0.020836395            2 
  877000   0.90352138   -7.8372084    220.32943  0.020935901  0.020820372            3 
  878000   0.88842825   -7.8528798    220.23455  0.020903051  0.020804265            3 
  879000   0.90683576   -7.8600553    220.11336  0.020867781  0.020788097            2 
  880000   0.92041463   -7.8489574    220.26817  0.020858728  0.020771926            3 
  881000   0.91480562   -7.8622339    220.22019  0.020830513  0.020755885            2 
  882000   0.89220448   -7.8618269    220.75604  0.020857525  0.020739763            1 
  883000   0.89969714   -7.8678499    220.29906  0.020790776  0.020723805            1 
  884000   0.90954666   -7.8742656    220.28557  0.020765985  0.020707823            2 
  885000   0.90968164   -7.8612425    220.52835  0.020765381  0.020691591            1 
  886000   0.89499833   -7.8226863    221.06795  0.020792697  0.020675462            2 
  887000   0.90551918   -7.8796854    220.78864  0.020743014  0.020659424            2 
  888000     0.892834   -7.8953657    221.18759  0.020757093  0.020643302            2 
  889000    0.9006589   -7.8409997    221.78296  0.020789554  0.020627238            2 
  890000   0.91459744   -7.8778124    220.59002  0.020654496  0.020611252            5 
  891000   0.91761063   -7.8670359    222.18898  0.020780862  0.020595183            1 
  892000   0.90258694   -7.8990759    222.17778  0.020756519  0.020579322            3 
  893000   0.88746594   -7.8406506    221.75651  0.020693964  0.020563564            2 
  894000   0.89753738   -7.8443997    221.61875  0.020657974  0.020547921            1 
  895000   0.91445335   -7.8512601    222.19371  0.020688427  0.020532175            2 
  896000   0.90959446   -7.8612263    221.96548  0.020644111  0.020516363            2 
  897000    0.8922302   -7.8434315     222.2465  0.020647204  0.020500521            4 
  898000   0.90504875   -7.8731128    222.00402   0.02060171  0.020484825            3 
  899000   0.89809642   -7.8556033    222.62647  0.020636492  0.020469227            3 
  900000   0.88730127   -7.8516064    222.37176  0.020589978  0.020453554            2 
  901000   0.89324383   -7.8742004     222.9701  0.020622466   0.02043786            1 
  902000   0.90534356   -7.8761446    222.75775  0.020579985  0.020422166            1 
  903000   0.89619268   -7.8820484    222.75414   0.02055686  0.020406525            1 
  904000   0.90095791   -7.8612777    223.43399  0.020596791  0.020390862            2 
  905000   0.89442003   -7.8703868    223.61099  0.020590331  0.020375442            1 
  906000   0.88651497   -7.8489597    222.87029  0.020499475  0.020359944            1 
  907000    0.8805924   -7.8719605    222.96861  0.020485907    0.0203444            2 
  908000   0.87124505   -7.8709881    223.52933  0.020514806  0.020328743            2 
  909000   0.88589591   -7.9053545    223.11859  0.020454583  0.020313038            2 
  910000   0.88888262   -7.8462146    223.39911  0.020457794  0.020297396            1 
  911000   0.91386408   -7.8448002    223.77718  0.020469921   0.02028188            1 
  912000   0.88884155   -7.8803775    223.28085  0.020402124  0.020266236            3 
  913000   0.88569219   -7.8725025    223.62141  0.020410863  0.020250593            1 
  914000   0.88535586   -7.8967305    223.48867  0.020376429  0.020234856            5 
  915000   0.90383211   -7.8916615    223.64469  0.020368369  0.020219134            2 
  916000   0.86914726   -7.8980233    223.63247  0.020345021  0.020203261            2 
  917000   0.89917201   -7.8889516     223.9748  0.020353944  0.020187492            5 
  918000   0.90841919   -7.8595213    223.80727  0.020316564  0.020171822            1 
  919000   0.89353603   -7.8667187    223.53493  0.020269761  0.020156144            1 
  920000   0.88762158   -7.8544652    224.34637  0.020321229  0.020140452            1 
  921000   0.87832087   -7.8853791    223.37937   0.02021167  0.020124645            3 
  922000   0.88835823   -7.8816215    223.66817   0.02021585  0.020108948            5 
  923000   0.90470228   -7.8824034    224.13443  0.020236045  0.020093113            1 
  924000    0.8948933   -7.8600759    224.45425  0.020242988  0.020077502            1 
  925000    0.8948973   -7.8757983    224.55504  0.020230184  0.020061857            5 
  926000   0.89418751   -7.8793509    224.62691  0.020214805  0.020046235            3 
  927000   0.87215951    -7.931114    223.87831  0.020125702   0.02003033            1 
  928000   0.90318207    -7.908573    224.75007  0.020182298   0.02001453            2 
  929000   0.88517272    -7.880453    224.14893  0.020106649  0.019998754            4 
  930000   0.89792218   -7.9134417    224.19682   0.02008932   0.01998297            4 
  931000    0.8870452   -7.9093376    224.80096  0.020121819  0.019967278            2 
  932000    0.8643713   -7.8867606     224.6029   0.02008252  0.019951509            2 
  933000   0.87393701   -7.9398005    224.43856  0.020046317  0.019935641            2 
  934000   0.88330981    -7.922712    224.58031  0.020037501   0.01991988            2 
  935000    0.8650455   -7.9113312    225.10881  0.020063173  0.019904216            1 
  936000   0.88162351   -7.8957735    224.99823  0.020031894  0.019888499            3 
  937000   0.88249151    -7.916467    224.77953  0.019991065  0.019872757            1 
  938000   0.87132392   -7.9022948    225.07477  0.019995982  0.019857162            2 
  939000   0.86894562   -7.8831043    225.24919  0.019990166   0.01984137            3 
  940000   0.88178982   -7.8879581    225.46423  0.019987964  0.019825679            2 
  941000   0.86832445   -7.9032613    225.38662   0.01995985  0.019810007            1 
  942000   0.86199834   -7.8933946    225.69488  0.019965931  0.019794305            2 
  943000   0.86220733   -7.9259888    225.91316  0.019964047  0.019778712            3 
  944000   0.88164628   -7.8999968    226.31051  0.019977976   0.01976322            1 
  945000   0.87713178   -7.9477033    225.82103  0.019913671  0.019747764            3 
  946000   0.88324235   -7.9172627    225.97726  0.019906383  0.019732238            4 
  947000   0.87955548   -7.8956451     226.8453  0.019961748  0.019716886            2 
  948000   0.87900409   -7.9349111    226.98298  0.019952794  0.019701629            3 
  949000   0.87316541   -7.9256246    226.53631  0.019892546  0.019686385            2 
  950000   0.87051835   -7.8863244    227.30292  0.019938852  0.019671144            3 
  951000   0.87611851   -7.9146951     226.9484  0.019886821  0.019656027            3 
  952000   0.87097221   -7.8891337    226.85843  0.019858056  0.019640738            1 
  953000   0.89734172    -7.914441    227.03954  0.019853055  0.019625568            1 
  954000   0.87251259   -7.9348689    226.33301  0.019770528  0.019610109            2 
  955000   0.86808184   -7.9284095    227.18456  0.019824133  0.019594624            1 
  956000   0.85903793   -7.9618555    226.76187   0.01976655   0.01957917            2 
  957000   0.85752761   -7.9549241     226.8006  0.019749268  0.019563624            1 
  958000   0.86107665   -7.9254376    227.04931  0.019750288  0.019548097            2 
  959000   0.86852711    -7.963463     227.0056  0.019725895  0.019532599            2 
  960000   0.86465611   -7.9157512    227.90766  0.019783651  0.019517268            1 
  961000    0.8721527   -7.9163207    227.16708  0.019698845  0.019502022            3 
  962000   0.85185577   -7.9362696    227.28323  0.019688429  0.019486717            2 
  963000   0.86089247   -7.9249646    227.40416  0.019678449  0.019471425            2 
  964000   0.86575265   -7.9080925    227.21967  0.019642088   0.01945616            2 
  965000    0.8643267   -7.9252714    228.41933   0.01972533  0.019440781            3 
  966000   0.85595489   -7.9470513    227.23616  0.019602843  0.019425317            1 
  967000   0.86907243    -7.924613    227.09992  0.019570831  0.019409862            4 
  968000   0.85731134   -7.9503697    228.04168  0.019631688  0.019394465            3 
  969000   0.88365139   -7.9555869    227.72212  0.019583945  0.019379036            8 
  970000   0.86613654   -7.9573968     227.5389  0.019548015  0.019363647            4 
  971000     0.864099   -7.9515008    227.50838  0.019525265  0.019348239            2 
  972000   0.87506912   -7.9280354    228.32207  0.019574937  0.019332881            1 
  973000   0.88073516   -7.9178994    228.09458  0.019535336  0.019317593            1 
  974000   0.85831816   -7.9634511    227.87117  0.019496164  0.019302227            1 
  975000   0.86489023   -7.9345636    227.68626  0.019460364  0.019286804            2 
  976000   0.86635497   -7.9353379    228.30352  0.019493128  0.019271407            2 
  977000    0.8762231   -7.9422875    228.29202  0.019472196  0.019255864            2 
  978000   0.87338592   -7.9682332    227.81195  0.019411379    0.0192402            2 
  979000   0.86439401   -7.9402658    228.59537  0.019458237   0.01922456            2 
  980000   0.87715918   -7.9524615    228.11371  0.019397424  0.019209095            2 
  981000   0.86068946   -7.9635377    228.25747  0.019389863   0.01919365            2 
  982000   0.87642021   -7.9568304     228.2933  0.019373159  0.019178077            5 
  983000   0.88395913   -7.9659573    227.87316  0.019317833  0.019162592            1 
  984000   0.85962904   -7.9132189    228.31423  0.019335554  0.019147091            1 
  985000   0.85251825   -7.9732249    228.50881  0.019332386  0.019131524            2 
  986000   0.87158736   -7.9546331    227.94477  0.019265109  0.019115954            4 
  987000   0.87558541   -7.9869624    228.06122  0.019255423  0.019100354            2 
  988000   0.84070785   -7.9356858    228.81563  0.019299564  0.019084828            6 
  989000   0.85454304   -7.9304076    228.80775  0.019279386  0.019069335            1 
  990000   0.86043852   -7.9713953    228.38277  0.019224139  0.019053809            1 
  991000   0.84015111   -7.9518748    228.28667  0.019196659  0.019038303            5 
  992000   0.86518961   -7.9544216    228.16912  0.019167433   0.01902274            2 
  993000   0.85443331   -7.9799119    228.75057  0.019196926  0.019007322            4 
  994000   0.84244825   -7.9812215    228.91119  0.019191079   0.01899191            1 
  995000   0.85678445   -7.9506105    229.13518  0.019190551  0.018976467            1 
  996000   0.87007469   -7.9443765     229.0047  0.019160367  0.018961022            4 
  997000   0.85224266   -7.9600725    228.39636  0.019090301  0.018945471            2 
  998000   0.86516117   -7.9469153    228.40927  0.019072251  0.018929875            2 
  999000    0.8513759   -8.0105708    228.86408  0.019091098  0.018914215            2 
 1000000   0.85557335   -7.9908876    228.41375  0.019034479  0.018898635            3 
 1001000   0.84882686   -7.9543637    228.78468  0.019046344  0.018883023            3 
 1002000   0.85111648   -7.9569149    228.40652  0.018995885  0.018867375            2 
 1003000   0.83394207    -8.012412    229.10459  0.019034944  0.018851724            1 
 1004000   0.84134206   -7.9747669    228.62468  0.018976152  0.018835999            2 
 1005000   0.85229257   -7.9932245    229.19261  0.019004362  0.018820371            2 
 1006000   0.85268669   -7.9859061    229.49575  0.019010582  0.018804902            3 
 1007000    0.8565775   -7.9853755    229.28428  0.018974204  0.018789477            1 
 1008000    0.8435617   -7.9856395     229.6145   0.01898268  0.018774042            2 
 1009000   0.85406675   -7.9894894    229.20841  0.018930328  0.018758521            2 
 1010000   0.85033545   -7.9887249    229.69358  0.018951615  0.018743114            1 
 1011000   0.84252821   -7.9845988    229.76744  0.018938958  0.018727733            1 
 1012000   0.83834452   -8.0365991    229.12168  0.018867069  0.018712332            3 
 1013000   0.85688467   -8.0008754    229.52076  0.018881273  0.018696821            1 
 1014000   0.86193049   -7.9872615    229.51187  0.018861923  0.018681374            2 
 1015000   0.84817729   -8.0009883    229.70799  0.018859441   0.01866591            3 
 1016000   0.85537163   -8.0044034    229.39283  0.018815028  0.018650476            4 
 1017000   0.85406559    -7.997252    230.11797  0.018855947  0.018635063            1 
 1018000   0.84941001   -8.0183789    230.09266  0.018835352  0.018619703            3 
 1019000   0.86608325   -7.9942955    229.64722   0.01878044  0.018604305            2 
 1020000    0.8489105   -7.9871672    230.13873  0.018802184  0.018588935            2 
 1021000   0.84325604   -7.9798475    230.51157  0.018814199  0.018573518            2 
 1022000   0.84257787   -8.0224175    229.73101  0.018732144  0.018557981            4 
 1023000   0.83387148   -8.0262638    229.84524  0.018723138    0.0185424            2 
 1024000    0.8388446   -8.0073493    229.54408  0.018680345  0.018526772            1 
 1025000   0.83581467   -8.0341658    229.25054  0.018638255  0.018511073            3 
 1026000    0.8408422   -7.9958999    229.63745  0.018651515  0.018495414            3 
 1027000   0.82168935   -8.0023249    229.84177  0.018649933  0.018479787            3 
 1028000   0.84930026   -7.9958379    230.55089  0.018689275   0.01846419            1 
 1029000   0.82528455   -8.0098757    230.01956  0.018628082  0.018448507            1 
 1030000   0.84712999   -7.9834215    229.65743  0.018580698  0.018432786            2 
 1031000   0.83962471   -8.0047287    229.63872  0.018561164    0.0184171            4 
 1032000    0.8536463   -8.0188017     229.6724  0.018545898  0.018401409            3 
 1033000   0.83562475   -8.0171226    229.43926  0.018509137   0.01838563            2 
 1034000   0.86430195   -7.9956353     229.4705  0.018493754  0.018369926            1 
 1035000   0.86510807   -7.9773272    230.41555  0.018551977  0.018354262            1 
 1036000   0.84192557   -8.0114635     230.5512   0.01854498   0.01833874            2 
 1037000   0.82719166   -8.0221364     230.2136  0.018499968  0.018323224            2 
 1038000   0.84821851   -8.0354007    230.45344    0.0185014  0.018307763            3 
 1039000    0.8215149   -8.0339003     230.3879  0.018478336  0.018292251            1 
 1040000   0.83251558   -8.0006978    230.29414  0.018453056  0.018276764            4 
 1041000   0.85669766   -8.0125768    230.26575  0.018433057  0.018261165            1 
 1042000   0.86302728   -7.9711392    230.42884   0.01842841  0.018245627            3 
 1043000   0.82342765   -8.0168839    230.77563  0.018438449  0.018230229            9 
 1044000   0.83054422   -8.0584297    230.91915  0.018432244  0.018214944            6 
 1045000   0.83844405   -8.0365248    231.07396   0.01842695  0.018199662            7 
 1046000   0.82677206   -8.0390793    230.36263  0.018352664  0.018184377            1 
 1047000   0.82586866   -8.0508844    231.22685   0.01840392  0.018169096            1 
 1048000   0.81022509   -8.0357916    230.99068   0.01836758  0.018153779            1 
 1049000   0.82346392   -8.0207697    231.49621   0.01839023  0.018138506            2 
 1050000   0.82531053   -8.0560034    231.14331  0.018344707   0.01812319            3 
 1051000   0.83906044   -8.0549994     230.9234  0.018309816  0.018107889            5 
 1052000   0.84343828   -8.0360055    231.44552   0.01833377   0.01809254            1 
 1053000   0.80623343   -8.0466319    230.93248  0.018275758  0.018077132            1 
 1054000   0.84004024   -8.0311759    230.75966  0.018244755  0.018061696            3 
 1055000   0.84498726   -8.0388213    230.37766  0.018197287  0.018046285            3 
 1056000   0.82228092   -8.0025614    231.22441  0.018246876   0.01803092            4 
 1057000   0.81489988   -8.0491161    230.95656  0.018208496  0.018015603            3 
 1058000   0.81843242   -8.0238229    231.33572   0.01822115   0.01800024            1 
 1059000   0.83480441   -8.0422856    231.66722   0.01823003  0.017984986            2 
 1060000   0.83955381   -8.0083479    231.62203  0.018209279  0.017969716            2 
 1061000    0.8344239   -8.0166932    231.34145  0.018170079  0.017954514            1 
 1062000    0.8395128   -8.0252073    231.15334  0.018138209  0.017939274            1 
 1063000   0.83568853   -8.0139088     231.8822  0.018178284   0.01792417            1 
 1064000   0.84422265   -8.0467801    231.77871  0.018153095  0.017909096            1 
 1065000    0.8296772   -8.0368334    232.00479  0.018153739  0.017893904            1 
 1066000    0.8499166   -8.0894918    231.19203  0.018073173  0.017878734            3 
 1067000   0.82856714   -8.0545698    231.67671  0.018094089  0.017863525            2 
 1068000   0.81426008    -8.057643    231.60646  0.018071665  0.017848384            2 
 1069000   0.82115275   -8.1005065    231.03795  0.018010442   0.01783303            2 
 1070000   0.84384212   -8.0787326    231.52297  0.018031384  0.017817764            2 
 1071000   0.83350009    -8.065022    231.72307  0.018030117  0.017802524            4 
 1072000   0.82779375   -8.0435721    231.77282  0.018017166  0.017787352            3 
 1073000   0.83784469   -8.0744124     231.8948  0.018009848  0.017772216            1 
 1074000   0.81572538   -8.0834478    232.15911  0.018013587  0.017757055            2 
 1075000   0.80989095   -8.0919342     231.8166  0.017970279  0.017741891            3 
 1076000   0.83476403   -8.0630542    232.40078  0.017998821  0.017726746            1 
 1077000   0.81073602   -8.0651309    232.05852  0.017955627  0.017711737            2 
 1078000   0.81750374   -8.0559496      232.467  0.017970547  0.017696704            1 
 1079000   0.83403688    -8.083452    232.11069  0.017926374  0.017681681            2 
 1080000   0.81203441     -8.03076    232.37638  0.017930277  0.017666659            5 
 1081000   0.82769478   -8.0491183    232.48999  0.017922447  0.017651633            2 
 1082000   0.80694195    -8.066432    232.92945   0.01793973  0.017636711            2 
 1083000   0.79448558   -8.0555074    232.61363  0.017898863   0.01762178            2 
 1084000   0.84739053   -8.0532738    232.97385  0.017910044  0.017606844            1 
 1085000   0.80464963    -8.062383     232.8781  0.017886182  0.017591958            3 
 1086000   0.82514533   -8.0718675    232.57831  0.017846709  0.017577075            2 
 1087000   0.82340809   -8.0709876    232.90135  0.017855056  0.017562168            2 
 1088000   0.80905806   -8.0560305     232.0549  0.017773813  0.017547243            4 
 1089000   0.81826552   -8.0751349    232.80871  0.017815175  0.017532411            4 
 1090000   0.80557706   -8.0857767    232.61396  0.017783942  0.017517543            2 
 1091000   0.81682394   -8.0664529    232.75281  0.017778247  0.017502744            3 
 1092000   0.81553845   -8.0686927    233.52462  0.017820866   0.01748793            1 
 1093000   0.82706676   -8.0769623    233.19576  0.017779487  0.017473035            2 
 1094000   0.80951094    -8.064171    233.52212  0.017788096  0.017458161            2 
 1095000   0.80800162    -8.038707    233.18402   0.01774612  0.017443431            1 
 1096000   0.83921106   -8.0911399    233.39646  0.017746081  0.017428666            3 
 1097000   0.81545879   -8.0748735    233.10132  0.017707484   0.01741396            1 
 1098000   0.83099489    -8.048291    233.07315  0.017689219   0.01739928            2 
 1099000   0.80977453   -8.0564177      233.443  0.017701168  0.017384695            2 
 1100000   0.81012325   -8.0570533      233.684  0.017703334  0.017370106            2 
 1101000   0.82095412   -8.0651702     233.7979  0.017695875  0.017355452            1 
 1102000   0.83161417   -8.0902983    233.57832  0.017663213  0.017340839            2 
 1103000   0.81432838   -8.0870849    233.85431   0.01766805  0.017326213            3 
 1104000   0.81830445   -8.0593629    233.63761  0.017635689  0.017311553            3 
 1105000   0.81127004   -8.0838469    233.18737  0.017585775  0.017296839            1 
 1106000   0.80850284   -8.0966183    233.07422  0.017561348  0.017282119            3 
 1107000   0.80348916   -8.0749432    233.92393   0.01760945  0.017267412            1 
 1108000   0.82479738   -8.1061707     233.1077  0.017532168  0.017252707            2 
 1109000   0.81994514    -8.108524    233.67388  0.017558903  0.017238049            1 
 1110000     0.810814   -8.1042993    233.38389  0.017521313  0.017223292            1 
 1111000   0.80298347   -8.0796498    234.10175  0.017559387  0.017208602            1 
 1112000   0.82289992   -8.0912825    234.20954  0.017551674  0.017194039            1 
 1113000   0.82339098   -8.1198752    233.77912  0.017503677  0.017179451            4 
 1114000    0.8173809   -8.0875171    234.22105  0.017521024  0.017164799            2 
 1115000   0.81919787   -8.0858668    234.37359  0.017516711  0.017150236            2 
 1116000   0.81237882   -8.1242779    234.42882  0.017505139  0.017135664            1 
 1117000   0.81151593   -8.0832386    234.26881  0.017477529  0.017121202            1 
 1118000   0.80675025   -8.1006483    234.43353  0.017474175  0.017106733            2 
 1119000   0.83618074   -8.0447844    234.65048  0.017474716  0.017092291            1 
 1120000   0.80622497   -8.1158958    234.11815  0.017419506  0.017077892            8 
 1121000   0.80715803   -8.0653256    234.73277  0.017449656  0.017063435            3 
 1122000   0.81369376   -8.0941196    234.63918  0.017427153  0.017049075            5 
 1123000   0.82405174   -8.1221152    234.12088  0.017373173  0.017034637            4 
 1124000   0.79598075   -8.0873546    234.81701  0.017409328  0.017020205            2 
 1125000   0.80939392    -8.108583    234.56589  0.017375251  0.017005773            1 
 1126000   0.77633717   -8.1104428    234.38308  0.017346291  0.016991303            1 
 1127000   0.79486495   -8.0965141    234.86648  0.017366643  0.016976856            2 
 1128000   0.79941258   -8.1076535    234.90151  0.017353835  0.016962481            2 
 1129000   0.81412661   -8.1206633    234.47742  0.017307161  0.016948103            4 
 1130000    0.8077283   -8.1140513    235.02733  0.017332399  0.016933789            1 
 1131000    0.8019071   -8.1196404    234.69635  0.017292687  0.016919442            2 
 1132000   0.80146601   -8.1115209    234.04726  0.017229627  0.016905064            2 
 1133000   0.80223981   -8.1207788    234.63644  0.017257755   0.01689065            5 
 1134000   0.80710654   -8.1435683    234.04481   0.01719906   0.01687622            3 
 1135000   0.80977111   -8.0921104    234.66292  0.017229289  0.016861827            1 
 1136000   0.77515777    -8.089825    235.00581  0.017239276   0.01684756            2 
 1137000   0.80167856    -8.106215    235.26053  0.017242783  0.016833321            2 
 1138000   0.78156535   -8.1027819     235.6022  0.017252651   0.01681907            2 
 1139000   0.79538667   -8.1334006    235.24063   0.01721105  0.016804819            5 
 1140000   0.79017825   -8.1481127      235.174  0.017191082  0.016790603            7 
 1141000   0.80697719   -8.1246011    235.28875  0.017184396  0.016776411            4 
 1142000   0.80371228   -8.1252827      235.302  0.017170315  0.016762169            2 
 1143000   0.79257825   -8.1091824    235.23701  0.017150555  0.016747969            1 
 1144000   0.79901763   -8.1051193    235.79878  0.017176484  0.016733743            2 
 1145000   0.78363675   -8.1233122    235.20562  0.017118313  0.016719603            3 
 1146000   0.80647116   -8.0954543    235.21721  0.017104218  0.016705387            2 
 1147000   0.81986762   -8.1030248    235.37477  0.017100753  0.016691218            1 
 1148000   0.80612806   -8.1299888    235.28302  0.017079197  0.016677092            1 
 1149000   0.80115628   -8.1437705    235.47455  0.017078224  0.016662977            2 
 1150000   0.79642566   -8.1155502    235.63024  0.017074655  0.016648867            4 
 1151000   0.81036368   -8.1665471     235.1893  0.017027896  0.016634709            1 
 1152000   0.78343057   -8.1240666    235.21885  0.017015253  0.016620568            2 
 1153000   0.78642363   -8.1108974    235.67526  0.017033483  0.016606442            3 
 1154000   0.79277868   -8.1282988     235.6259  0.017015158   0.01659241            2 
 1155000   0.80808474   -8.1086471    235.61459   0.01699961  0.016578438            2 
 1156000   0.80008968   -8.1637523    235.82748  0.017000251  0.016564446            4 
 1157000   0.77837545   -8.1302973    235.58409  0.016968027  0.016550392            1 
 1158000   0.78652581   -8.1244437    236.04877  0.016986814  0.016536361            2 
 1159000   0.77823156   -8.1253262    235.93298  0.016963832  0.016522371            1 
 1160000    0.7746618   -8.1352053    235.84574  0.016942941  0.016508384            3 
 1161000   0.78988591   -8.1253008    236.25158  0.016957478   0.01649447            1 
 1162000   0.77428598   -8.1088244    235.67984  0.016901882  0.016480529            2 
 1163000   0.78365972   -8.1439233    236.58842  0.016952452  0.016466654            1 
 1164000   0.81272449   -8.1054599    236.49446  0.016931161  0.016452755            3 
 1165000   0.78294965   -8.1194544      236.707  0.016931831  0.016438847            4 
 1166000   0.77197056   -8.1510483    235.60745  0.016838726  0.016424904            1 
 1167000   0.79565981   -8.1582707    236.17441  0.016864782  0.016410915            1 
 1168000   0.77476025   -8.1537058    235.59872  0.016809269  0.016396933            3 
 1169000   0.78847351   -8.1382709    236.10441  0.016830938  0.016382942            7 
 1170000   0.77847262   -8.1638216    235.55489  0.016777414  0.016368959            7 
 1171000   0.78831799   -8.1596351     235.8943   0.01678724  0.016354982            1 
 1172000   0.80159588    -8.146387    236.29837  0.016801647  0.016341057            1 
 1173000   0.78189801   -8.1760748    235.88275  0.016757797  0.016327123            2 
 1174000   0.79104555   -8.1565469    236.38262  0.016779005  0.016313213            4 
 1175000   0.80284706   -8.1417277    236.53202   0.01677532  0.016299269            1 
 1176000   0.80506547   -8.1590053    235.89301  0.016715774  0.016285344            3 
 1177000   0.79220204   -8.1307557    236.53463     0.016747   0.01627143            4 
 1178000   0.79316681   -8.1381916    235.97323  0.016693069  0.016257537            1 
 1179000   0.77656464   -8.1785483    236.03785  0.016683478  0.016243612            1 
 1180000   0.77226746   -8.1914897    236.29044  0.016687178  0.016229701            2 
 1181000   0.80168309   -8.1647246     236.6372  0.016697517  0.016215836            1 
 1182000   0.78792836   -8.1528262    235.77772  0.016622795  0.016201955            2 
 1183000   0.78841539   -8.1946833    235.82158  0.016611833  0.016188023            4 
 1184000   0.77849919   -8.2223628    235.37253  0.016566197  0.016174039            2 
 1185000   0.77859961   -8.1997666    236.34441  0.016620563  0.016160017            4 
 1186000    0.7724514   -8.1733162    236.40008  0.016610461  0.016146074            1 
 1187000   0.77138775   -8.1911287    235.80212  0.016554487    0.0161321            1 
 1188000    0.7819495   -8.2191733    235.96462  0.016551952  0.016118118            2 
 1189000   0.76068875    -8.204078     235.7841  0.016525379  0.016104204            3 
 1190000   0.77266309   -8.2079091    236.67486  0.016573869  0.016090286            1 
 1191000   0.75537367   -8.1807615    236.32924  0.016535771   0.01607637            2 
 1192000   0.78721434   -8.1588931    236.22029  0.016514282  0.016062546            5 
 1193000   0.78718446   -8.1860764     236.5024  0.016520145  0.016048768            1 
 1194000   0.78641912   -8.1891333     237.0049  0.016541381  0.016034949            1 
 1195000   0.77692086   -8.1932715    236.57698  0.016497698  0.016021109            1 
 1196000   0.77675277   -8.2059219    235.91889   0.01643805  0.016007258            3 
 1197000   0.77394019   -8.2104615    236.01713  0.016431156  0.015993331            3 
 1198000   0.76665471    -8.197138     236.4876  0.016450167  0.015979524            2 
 1199000   0.77676598   -8.2286191    236.01185  0.016403381  0.015965737            1 
 1200000   0.77443743    -8.200695    236.64807  0.016433894  0.015951978            5 
 1201000   0.77459472   -8.2309297    236.04047  0.016378051  0.015938243            2 
 1202000   0.76562736    -8.210125    236.69442  0.016409763  0.015924463            1 
 1203000   0.77534064   -8.2017884    236.89336  0.016409903  0.015910688            4 
 1204000   0.76077962   -8.2200361     236.4743  0.016367269  0.015896929            2 
 1205000   0.77217659   -8.1957983    236.99631  0.016389786  0.015883203            2 
 1206000   0.75235038   -8.1818418    236.96523  0.016374048  0.015869447            3 
 1207000    0.7650311   -8.2126528    236.97737  0.016361321  0.015855714            2 
 1208000   0.77672887   -8.2275661    235.96853  0.016278182  0.015841996            2 
 1209000   0.76279417   -8.2372055    236.06677   0.01627149  0.015828276            2 
 1210000   0.78292592   -8.2309431    236.24102  0.016270043  0.015814576            2 
 1211000   0.77769161   -8.2205398    236.71563  0.016289267  0.015800863            3 
 1212000   0.76736099   -8.2013246    236.44441  0.016257179  0.015787179            2 
 1213000   0.77710696   -8.2010502    236.59864  0.016254372  0.015773515            8 
 1214000   0.75681127   -8.1828031    236.59318  0.016240608   0.01575985            1 
 1215000   0.76694133   -8.1882848     237.0012  0.016255227  0.015746129            1 
 1216000   0.76232968   -8.1883384    236.94354  0.016237907  0.015732429            3 
 1217000   0.76607788   -8.1958447    236.85319  0.016218378  0.015718738            1 
 1218000   0.76820629   -8.2215675    237.42101  0.016243911  0.015705051            2 
 1219000   0.77246036     -8.20628    236.35309  0.016157581  0.015691406            3 
 1220000   0.76691906   -8.2197337    236.57497  0.016159493  0.015677797            5 
 1221000   0.76879894   -8.2171167    236.77176  0.016159689   0.01566415            2 
 1222000   0.74844863    -8.204514    236.95975  0.016159285  0.015650486            1 
 1223000   0.76617602   -8.2404746    236.50476   0.01611507  0.015636913            4 
 1224000   0.76600809    -8.223586    236.57098  0.016106412  0.015623299            1 
 1225000   0.76412807   -8.2132671    236.64529  0.016098319  0.015609676            2 
 1226000   0.76854403   -8.2038865    236.24174  0.016057758  0.015596069            3 
 1227000   0.76503907   -8.2244714     236.7932  0.016082125  0.015582493            2 
 1228000   0.75402569   -8.2206233     236.8202  0.016070861  0.015569006            1 
 1229000   0.75260686   -8.2182744    236.85466   0.01606012  0.015555496            2 
 1230000   0.75314481   -8.1843902    237.06567   0.01606136  0.015542089            1 
 1231000   0.74987236   -8.2225759    237.05753  0.016047761  0.015528703            4 
 1232000   0.74891714     -8.23155    236.69639  0.016010308  0.015515205            2 
 1233000   0.77471912   -8.2166738    237.21694  0.016032505  0.015501784            4 
 1234000   0.76810108   -8.2030236    237.13253  0.016013812   0.01548838            1 
 1235000   0.76664656   -8.2189971    237.09109  0.015998049  0.015474933            2 
 1236000   0.75337714   -8.2000236    237.10039  0.015985733  0.015461403            1 
 1237000   0.74798594   -8.2208489    236.87362  0.015957533  0.015447864            1 
 1238000   0.75720248   -8.2463103    237.30063  0.015973387  0.015434381            3 
 1239000   0.76737807   -8.2405455    236.55688  0.015910471  0.015420926            9 
 1240000   0.77466198   -8.2325811    236.93062  0.015922757  0.015407429            1 
 1241000   0.75874265   -8.2225817    236.83484  0.015903495  0.015393983            2 
 1242000   0.77620918   -8.2563822    236.61749  0.015876106  0.015380521            5 
 1243000   0.75871629   -8.2745334    236.66023    0.0158662  0.015367049            2 
 1244000   0.75358073    -8.232585    237.20239  0.015889764  0.015353611            1 
 1245000   0.76159181   -8.2414166    237.30263   0.01588371  0.015340223            2 
 1246000   0.76674488   -8.2519932    236.57626  0.015822383  0.015326823            5 
 1247000   0.76372627   -8.2462702    236.41105  0.015798653  0.015313334            3 
 1248000   0.76024554   -8.2546539    237.09035  0.015831354   0.01529986            2 
 1249000   0.73636116   -8.2585109    237.09806  0.015819193  0.015286432            1 
 1250000   0.76396442   -8.2539972    236.72053  0.015781368  0.015273024            3 
 1251000   0.74387427   -8.2535835    237.54466  0.015823652  0.015259634            2 
 1252000   0.75276114   -8.2626573    236.84031  0.015764132    0.0152463            2 
 1253000   0.76018316   -8.2496984    237.19165  0.015774917  0.015232988            2 
 1254000   0.75302702   -8.2416828    237.24783  0.015766071  0.015219717            3 
 1255000   0.76602516    -8.261698    237.10296  0.015743889  0.015206447            3 
 1256000   0.74873479   -8.2482887    237.36893     0.015749  0.015193221            2 
 1257000    0.7649849   -8.2347296    237.73137  0.015760499  0.015179974            1 
 1258000   0.75854566   -8.2414842    237.74265  0.015748718  0.015166784            1 
 1259000   0.75870124   -8.2433607    237.62623  0.015728504  0.015153654            1 
 1260000   0.75708505   -8.2382839     237.8019  0.015727639  0.015140538            4 
 1261000   0.74138465   -8.2395713    237.41961  0.015689903   0.01512744            1 
 1262000   0.74483046   -8.2607702     238.3638  0.015739818  0.015114332            6 
 1263000   0.75347727   -8.2332154     238.2456  0.015719557  0.015101302            1 
 1264000   0.73486529   -8.2629502    237.23419   0.01564044  0.015088256            2 
 1265000   0.76041718   -8.2371732    238.48182  0.015710265  0.015075228            3 
 1266000   0.76569146   -8.2579058    238.58948  0.015704942  0.015062276            3 
 1267000   0.73868427   -8.2595645    238.19806  0.015666802  0.015049268            2 
 1268000   0.75318781   -8.2661144    238.30262  0.015661318  0.015036252            2 
 1269000   0.75776221   -8.2743373    238.06986  0.015633692  0.015023259            1 
 1270000   0.75609433    -8.255572    237.79182  0.015603138  0.015010281            1 
 1271000    0.7552568   -8.2751453    237.98599  0.015603592  0.014997293            1 
 1272000   0.76492782   -8.2329512    238.02387  0.015593807  0.014984284            2 
 1273000   0.72793901   -8.2772789    237.81186  0.015567678  0.014971263            1 
 1274000    0.7462894   -8.2402161    237.88613  0.015560318  0.014958251            3 
 1275000   0.73701452   -8.2542733    238.21996  0.015569932  0.014945268            2 
 1276000   0.74662888    -8.252912    237.95578  0.015540477  0.014932347            1 
 1277000   0.73597195   -8.2718582     237.9738  0.015529483  0.014919442            1 
 1278000    0.7374634   -8.2761007    237.95793  0.015516297   0.01490659            3 
 1279000   0.74108091   -8.2421494    238.40996  0.015533617   0.01489375            1 
 1280000   0.74273711   -8.2578735    238.38907  0.015520122  0.014880921            1 
 1281000   0.75444474   -8.2758686     238.1332  0.015491361  0.014868096            2 
 1282000   0.73342429   -8.2649551    238.51227  0.015503918   0.01485527            2 
 1283000   0.73489546   -8.2615573    238.44133  0.015487226  0.014842497            2 
 1284000   0.74493219   -8.2611152    238.71229   0.01549275  0.014829741            2 
 1285000   0.73641627   -8.2638755    238.36851  0.015458399  0.014816944            1 
 1286000   0.72998896   -8.2948545    238.50315  0.015455103  0.014804078            2 
 1287000   0.74315556   -8.2794471    238.40216  0.015436555  0.014791262            8 
 1288000   0.74893274   -8.2729777    238.82758  0.015452095  0.014778458            3 
 1289000   0.74140597    -8.287734    238.39994  0.015412461  0.014765659            3 
 1290000   0.72889025   -8.2802073    238.55435  0.015410488  0.014752831            2 
 1291000   0.74117688   -8.2589839    238.56003  0.015398918  0.014740058            2 
 1292000   0.73420816   -8.3062635    238.16303  0.015361393  0.014727311            1 
 1293000   0.72647677   -8.2840917     238.6122  0.015378461  0.014714555            1 
 1294000   0.74756944   -8.2777221    238.37407  0.015351241  0.014701843            1 
 1295000   0.74950248   -8.2730403    238.47874  0.015346122  0.014689148            1 
 1296000    0.7344012   -8.2928169    238.83283  0.015357049  0.014676484            4 
 1297000   0.74410464   -8.2647881    238.35089  0.015314243  0.014663773            2 
 1298000    0.7088766   -8.2841604    238.69819  0.015324743  0.014651068            4 
 1299000   0.73896884   -8.2640003    238.65871  0.015310412   0.01463839            3 
 1300000   0.72586564   -8.2904325     238.2884  0.015274898   0.01462565            3 
 1301000    0.7115727   -8.3004234    238.17272  0.015255747  0.014612925            4 
 1302000   0.74427704    -8.312043    238.62452  0.015272947  0.014600205            1 
 1303000   0.74176591   -8.3154272    238.62457  0.015261228  0.014587493            2 
 1304000   0.72371244   -8.2976205      237.926  0.015204882  0.014574803            5 
 1305000   0.70284652   -8.2720149    238.88967  0.015254768  0.014562141            3 
 1306000   0.70922797   -8.3077073    238.29964  0.015205439  0.014549463            3 
 1307000   0.74108249   -8.3091139    238.36055  0.015197689  0.014536829            3 
 1308000   0.72084248   -8.3182998    238.86316  0.015218091  0.014524159            3 
 1309000   0.73435192   -8.3217258    238.59616  0.015189468  0.014511525            3 
 1310000   0.73629832   -8.3336747    238.63098  0.015180088  0.014498893            4 
 1311000   0.71983743   -8.3399313    237.87529  0.015120474  0.014486218            2 
 1312000   0.72366821   -8.3250317     238.3418   0.01513858  0.014473515            5 
 1313000   0.72107696   -8.3447641    238.08258  0.015110598  0.014460845            2 
 1314000    0.7251137   -8.3282356    238.65573  0.015135447  0.014448117            1 
 1315000   0.72204222   -8.3193287    238.22977  0.015096944  0.014435446            4 
 1316000   0.72410447   -8.3273222    238.35554  0.015093436  0.014422775            2 
 1317000   0.74629464   -8.3011232    238.25238  0.015075448  0.014410146            3 
 1318000   0.71850748   -8.2993327    238.72946  0.015094174  0.014397583            2 
 1319000   0.74445941   -8.3184573    238.81951   0.01508842   0.01438503            5 
 1320000   0.73384429   -8.3215539    238.05676  0.015028836  0.014372481            3 
 1321000   0.73287654   -8.3396425    238.19461  0.015026155  0.014359876            3 
 1322000   0.72114334   -8.3321629    238.68699  0.015045826  0.014347318            2 
 1323000   0.69983343   -8.3261313    238.55433  0.015026098  0.014334778            3 
 1324000   0.72253132   -8.3208942    239.12317  0.015050552   0.01432229            3 
 1325000   0.71711568   -8.3121043    238.51762  0.015001108  0.014309843            2 
 1326000   0.72623105   -8.2853712    238.94039  0.015016364  0.014297378            3 
 1327000    0.7131034   -8.3141348    238.95769  0.015006135  0.014284951            3 
 1328000   0.70574926   -8.3290488    238.67241  0.014976933  0.014272494            1 
 1329000   0.72824572    -8.343634    239.03005  0.014988089  0.014260023            2 
 1330000   0.72237845   -8.3254042    238.13041  0.014920451  0.014247553            2 
 1331000   0.72606933   -8.3436422    238.63363  0.014940748  0.014235086            1 
 1332000    0.7128952   -8.3315981    238.36213  0.014912545   0.01422263            2 
 1333000   0.72944078   -8.3436659    238.60448  0.014916509  0.014210203            2 
 1334000   0.71759002   -8.3372277    238.51895  0.014899984  0.014197732            5 
 1335000   0.70627016   -8.3365393    238.15346  0.014866009  0.014185328            2 
 1336000   0.70570556   -8.3037074    239.09402  0.014913549  0.014172908            5 
 1337000    0.7173314   -8.3560545     238.4208  0.014860434  0.014160477            1 
 1338000   0.71914345   -8.3581312     238.3557  0.014845273  0.014148083            5 
 1339000    0.7116884   -8.3586977    238.16058  0.014822043  0.014135683            5 
 1340000   0.71127439   -8.3389759    238.50279  0.014832263  0.014123284            4 
 1341000   0.71782042   -8.3535436    238.64368  0.014829957  0.014110909            1 
 1342000   0.72624623   -8.3634633    238.34518  0.014800371  0.014098578            2 
 1343000   0.69487837   -8.3615045    238.57847  0.014803827  0.014086218            1 
 1344000   0.71481716   -8.3433825    238.94709  0.014815668  0.014073923            3 
 1345000   0.71144141   -8.3403804    238.77767  0.014794156  0.014061662            2 
 1346000   0.71510162   -8.3370652    239.23121  0.014811244  0.014049411            3 
 1347000   0.71499768   -8.3636723    238.86849  0.014777808  0.014037126            2 
 1348000   0.71119317    -8.362463    238.69871  0.014756349  0.014024884            3 
 1349000   0.70070619    -8.337064    238.93671  0.014760113  0.014012658            1 
 1350000   0.72675215   -8.3274336     239.0847  0.014758315  0.014000468            2 
 1351000   0.70660715   -8.3397018    238.86281  0.014733704  0.013988246            4 
 1352000   0.70933636    -8.357646    238.71617  0.014713768  0.013976031            3 
 1353000   0.72963287   -8.3650679    239.14414  0.014729253  0.013963845            2 
 1354000   0.72235775   -8.3359237    239.06522  0.014713517  0.013951604            2 
 1355000   0.70866583   -8.3636305    238.01257   0.01463792  0.013939351            2 
 1356000   0.71292226   -8.3676458    238.72971  0.014671197  0.013927143            1 
 1357000   0.71340298   -8.3426651    239.24367  0.014691947  0.013914988            3 
 1358000   0.71533997   -8.3526957    239.10511  0.014672626   0.01390281            1 
 1359000   0.70787602   -8.3561503    238.76543     0.014641  0.013890636            2 
 1360000   0.69100088   -8.3408668    238.86917  0.014636591  0.013878448            3 
 1361000   0.71122638   -8.3671617    238.71029  0.014616109  0.013866329            4 
 1362000   0.70274803   -8.3821797    238.21273  0.014574935  0.013854157            1 
 1363000   0.70584561   -8.3803796    238.33708  0.014571844  0.013841941            2 
 1364000   0.71339822   -8.3654134    238.48842  0.014570407  0.013829776            1 
 1365000   0.71293142   -8.3661121     239.0599  0.014594622  0.013817619            2 
 1366000   0.71154587   -8.3976151    238.50145  0.014549869  0.013805461            2 
 1367000   0.70370742   -8.3492988    238.44445  0.014535751  0.013793318            1 
 1368000   0.70523313   -8.3903729    238.46411  0.014526322  0.013781141            2 
 1369000   0.70331993   -8.3837931    238.46454  0.014515738   0.01376895            3 
 1370000   0.70955798   -8.4042998    238.29864  0.014495051  0.013756766            2 
 1371000   0.71215198    -8.403357    238.13226  0.014474366  0.013744636            2 
 1372000   0.70013206   -8.4044249    238.48001  0.014484938  0.013732491            1 
 1373000   0.70907716    -8.394108    238.37704  0.014468138  0.013720346            3 
 1374000   0.70729019   -8.3817236     238.6657  0.014475115  0.013708235            3 
 1375000   0.71060619   -8.3885737    238.41729  0.014449533  0.013696102            5 
 1376000   0.69773704   -8.3894659    238.62393  0.014451546  0.013683994            3 
 1377000   0.69455593   -8.3628762    238.72162  0.014446963  0.013671896            1 
 1378000   0.68957766   -8.3793517    238.59282   0.01442869  0.013659826            2 
 1379000   0.71584327   -8.3847663     238.7084  0.014425212  0.013647732            2 
 1380000     0.717717   -8.3843104    238.45917  0.014399708  0.013635639            2 
 1381000   0.71061232   -8.3978047    238.36978  0.014383887  0.013623572            4 
 1382000   0.69353688   -8.3680939    237.95711  0.014348596  0.013611517            1 
 1383000   0.71403924   -8.4177564    238.26941  0.014357038   0.01359952            1 
 1384000   0.70728546   -8.3767171    238.56462   0.01436444  0.013587484            2 
 1385000   0.70015927   -8.4069661    238.82053  0.014369466  0.013575438            2 
 1386000   0.70062287   -8.3897378    238.24951  0.014324766  0.013563391            3 
 1387000    0.7054817   -8.4192694    238.29022  0.014316884  0.013551367            3 
 1388000   0.70007847   -8.4092712    238.42015   0.01431437  0.013539367            2 
 1389000   0.68694471    -8.395758     238.9225  0.014334203  0.013527418            3 
 1390000   0.71366539   -8.3835059     238.7154  0.014311475  0.013515475            2 
 1391000   0.68802785   -8.3964398    238.72524  0.014301776  0.013503561            2 
 1392000   0.68930787   -8.3938596    238.98253  0.014306904  0.013491636            1 
 1393000   0.70205741   -8.4165867     238.6335  0.014275754  0.013479718            2 
 1394000   0.69960188   -8.3968872    238.45083  0.014254593  0.013467806            3 
 1395000   0.68556136   -8.3915353    238.79354  0.014264847  0.013455901            3 
 1396000   0.70099072   -8.4058887    238.04753  0.014210096  0.013443974            3 
 1397000   0.68336068   -8.3984449    238.19899  0.014208959  0.013432058            3 
 1398000   0.66795275   -8.4120157    238.75881  0.014232166  0.013420167            3 
 1399000   0.70058383   -8.3802303    238.54862  0.014209472  0.013408308            5 
 1400000   0.68507287   -8.3992962    238.51358  0.014197237  0.013396461            3 
 1401000   0.68339916   -8.3842954    238.74474  0.014200853  0.013384616            3 
 1402000   0.69544832   -8.3856641    238.47699  0.014174809  0.013372766            2 
 1403000   0.70073955   -8.3997243    238.64602  0.014174746  0.013360929            2 
 1404000   0.70847572    -8.400976    238.60953  0.014162484  0.013349098            2 
 1405000   0.69059631   -8.4065409     238.4677  0.014143992  0.013337294            3 
 1406000   0.69060675   -8.3901696    238.88575   0.01415871  0.013325465            1 
 1407000   0.69948929   -8.4199132    238.25702  0.014111408   0.01331369            2 
 1408000    0.6857245   -8.4167323    238.69994    0.0141276  0.013301904            1 
 1409000   0.69117842   -8.3942219    238.83339  0.014125467  0.013290145            2 
 1410000   0.68288844   -8.4108852    238.14325   0.01407466  0.013278393            1 
 1411000   0.68370996   -8.4084515    238.23069   0.01406985  0.013266649            2 
 1412000   0.68617066   -8.3838956    238.74242  0.014090086   0.01325491            2 
 1413000    0.6862681   -8.4142535    238.19721   0.01404796   0.01324317            3 
 1414000   0.68965655   -8.3879575    238.81176  0.014074243  0.013231459            3 
 1415000   0.68958395   -8.3938022    238.55832  0.014049371  0.013219794            6 
 1416000   0.69351271   -8.4175375    238.68545  0.014046931  0.013208079            5 
 1417000   0.68643304   -8.4004855    238.93697   0.01405181  0.013196395            2 
 1418000   0.69230255   -8.4068748    238.66277  0.014025786  0.013184746            2 
 1419000   0.70113341   -8.4331518    238.67999  0.014016913  0.013173079            2 
 1420000   0.67370006   -8.4339961    238.71379  0.014009025  0.013161399            2 
 1421000   0.68547156   -8.4571321    238.40802  0.013981235  0.013149702            2 
 1422000   0.69042223   -8.4382044    238.14597  0.013956046  0.013138018            2 
 1423000   0.71111608   -8.4255222    238.67967  0.013977493  0.013126408            2 
 1424000   0.68358794   -8.4400168    238.58331  0.013962039  0.013114827            3 
 1425000   0.68951974   -8.4235464    238.75691  0.013962392    0.0131032            1 
 1426000   0.67540552   -8.4228589     238.3742  0.013930236  0.013091602            2 
 1427000   0.67886334   -8.4467785    238.42727  0.013923573  0.013079989            1 
 1428000   0.67890405   -8.4615501    238.46907  0.013916262  0.013068375            1 
 1429000   0.68095108   -8.4214038    238.90203  0.013931772  0.013056815            7 
 1430000   0.68289134   -8.4434076    238.66736  0.013908354  0.013045263            3 
 1431000   0.68879353   -8.4516868    238.19992  0.013871414  0.013033668            2 
 1432000   0.66671386   -8.4562227    238.50959  0.013879748  0.013022082            4 
 1433000   0.69118859   -8.4533749    238.49102  0.013868982  0.013010485            2 
 1434000   0.69287939   -8.4287046    238.63763  0.013867831  0.012998934           10 
 1435000   0.66878807   -8.4179523    239.18955  0.013890217  0.012987403            3 
 1436000   0.67790565   -8.4514033    238.31639  0.013829874  0.012975863            3 
 1437000   0.67287494   -8.4512839    238.73298  0.013844409  0.012964338            2 
 1438000   0.68342195   -8.4492443    238.53646  0.013823392  0.012952813            2 
 1439000   0.67948104   -8.4512819    238.52002  0.013812834  0.012941306            5 
 1440000    0.6713116   -8.4478961    237.94196  0.013769789  0.012929806            4 
 1441000   0.67276047   -8.4591122    238.28784  0.013780236  0.012918305            5 
 1442000   0.68018235   -8.4375746     238.1103  0.013760419  0.012906804           12 
 1443000   0.68462344   -8.4620013    238.05777   0.01374785  0.012895314            3 
 1444000   0.66937346   -8.4611665    238.29751  0.013752164  0.012883804            3 
 1445000   0.67342851    -8.446197    238.53958  0.013756608  0.012872298            1 
 1446000   0.67978486   -8.4555816    238.31928  0.013734398  0.012860846            2 
 1447000   0.68135826   -8.4614521     238.3249   0.01372523  0.012849402            2 
 1448000   0.67041757   -8.4514646    238.31214  0.013715017  0.012837963            2 
 1449000   0.67277882   -8.4405763    238.41431  0.013711428  0.012826536            3 
 1450000   0.66901651   -8.4345797    238.33023   0.01369714  0.012815099            3 
 1451000   0.67681105   -8.4340403    238.36513  0.013689704  0.012803678            1 
 1452000    0.6739082   -8.4219619    238.13903  0.013667299   0.01279229            3 
 1453000    0.6635477   -8.4419225    238.29711   0.01366696  0.012780919            6 
 1454000   0.68094309   -8.4624843    237.74352  0.013625832  0.012769486            3 
 1455000    0.6706331   -8.4365714    238.23484  0.013644607  0.012758108            3 
 1456000   0.66323871   -8.4624955      238.334  0.013640911   0.01274676            3 
 1457000   0.68379861   -8.4502636    238.27823  0.013628359  0.012735414            3 
 1458000   0.67000582   -8.4619887    238.05284   0.01360613  0.012724051            2 
 1459000   0.67189252   -8.4593569    238.65248  0.013631053  0.012712703            2 
 1460000   0.66149091   -8.4713878     238.1099  0.013590748  0.012701368            3 
 1461000   0.67579455   -8.4537099    238.27413  0.013590813  0.012690038            3 
 1462000   0.67842742   -8.4626615    238.22476  0.013578703  0.012678718            1 
 1463000   0.66998181   -8.4585218    238.15206   0.01356528  0.012667435            1 
 1464000   0.68216678   -8.4557148    238.18361   0.01355781  0.012656111            2 
 1465000   0.67788064   -8.4508193    238.38266  0.013559878  0.012644814            2 
 1466000   0.66727139   -8.4522146    238.61977  0.013564107  0.012633542            2 
 1467000   0.67444991    -8.482448    238.62188  0.013554981  0.012622258            4 
 1468000   0.67406735   -8.4770026    238.03986  0.013512708  0.012610964            2 
 1469000   0.66501415   -8.4613026    238.49756  0.013529474  0.012599684            1 
 1470000   0.66193168   -8.4740639    238.18556  0.013502583  0.012588417            3 
 1471000   0.66594145   -8.4925022    237.66801  0.013464084  0.012577117            2 
 1472000   0.67704137   -8.4818541    238.62514  0.013509122  0.012565852            2 
 1473000   0.66185602   -8.4726941    238.16377   0.01347385  0.012554604            2 
 1474000   0.66545012   -8.4700748    238.23388  0.013468672  0.012543398            2 
 1475000   0.66162152   -8.4862464    237.71871  0.013430436  0.012532187            2 
 1476000   0.67339185   -8.4763685    238.14675  0.013445503  0.012520964            3 
 1477000   0.67124277   -8.4661913    237.58168  0.013404518  0.012509756            1 
 1478000   0.65297443   -8.4570974    238.14244  0.013427066  0.012498531            1 
 1479000   0.66664742   -8.5026855    237.77699  0.013397396  0.012487327            1 
 1480000   0.65841739   -8.4833925    238.29804  0.013417682   0.01247614            3 
 1481000   0.66061641   -8.4898273    238.00942  0.013392382  0.012464943            3 
 1482000   0.67793409    -8.505428    237.66434  0.013363942  0.012453762            1 
 1483000   0.65251173   -8.4838762    237.79678  0.013362372  0.012442583            2 
 1484000   0.66157426   -8.4889941    237.56015   0.01334008  0.012431396            2 
 1485000   0.66836906   -8.4781865    237.76707  0.013342709  0.012420221            2 
 1486000   0.65319233   -8.4682029    238.19783  0.013357886  0.012409044            2 
 1487000   0.66610164   -8.5032337    237.25147  0.013295868  0.012397872            6 
 1488000   0.67726534   -8.4994355    237.99544  0.013328598  0.012386708            2 
 1489000   0.65949737   -8.4735988    236.96603  0.013262034  0.012375543            3 
 1490000   0.65164323   -8.4886631    237.97518  0.013309574   0.01236439            2 
 1491000   0.65278541    -8.498374     237.7727  0.013289331  0.012353256            7 
 1492000   0.65927987   -8.4951685     237.4457  0.013262159  0.012342121            2 
 1493000   0.65112598   -8.4875742    237.90883  0.013279126  0.012331011            3 
 1494000   0.66279968   -8.5070906    237.61516  0.013253858  0.012319903            2 
 1495000   0.66303555   -8.5110426      237.392  0.013232553  0.012308827            3 
 1496000   0.64872868   -8.4935946    237.63749  0.013237383  0.012297743            3 
 1497000   0.66113731     -8.47796    237.71959   0.01323311  0.012286661            4 
 1498000   0.64290413   -8.4999246    237.62254  0.013218877  0.012275588            2 
 1499000   0.65781574   -8.4984106    237.18136  0.013185532  0.012264524            2 
 1500000    0.6494207   -8.5184398    237.53375  0.013196319   0.01225347            2 
 1501000   0.64521432   -8.4907029    237.15835  0.013166686   0.01224241            3 
 1502000   0.65941704   -8.4835653    237.49837  0.013176785  0.012231355            2 
 1503000   0.65137939   -8.5174691    237.51566  0.013168976    0.0122203            4 
 1504000   0.66080672   -8.5124619    237.28032  0.013147181  0.012209262           12 
 1505000   0.65022599   -8.5398678    237.86937  0.013171062  0.012198243           10 
 1506000   0.65911089   -8.5406953    237.54834  0.013144552  0.012187236            1 
 1507000   0.64475366   -8.4970912    237.50928  0.013133669  0.012176248            7 
 1508000   0.64836108    -8.524101    237.08865  0.013101716  0.012165258            9 
 1509000   0.63445742   -8.5065818    237.08479   0.01309282  0.012154284            3 
 1510000   0.66744123   -8.5362788    237.42382   0.01310286  0.012143327            3 
 1511000   0.65389214   -8.5209384    237.47355  0.013096931  0.012132397            3 
 1512000   0.63873979   -8.5209438    237.21186  0.013073846  0.012121455            8 
 1513000   0.63109275   -8.5118602    237.76248  0.013095532  0.012110514           10 
 1514000   0.64558692   -8.5206884    236.86102  0.013037265  0.012099572            3 
 1515000   0.66726064   -8.5450996    237.23382  0.013049165  0.012088617            2 
 1516000   0.64350236   -8.5182511    237.74144  0.013068461  0.012077709            2 
 1517000   0.65749896   -8.5383033    237.00341  0.013019304  0.012066784            3 
 1518000   0.64402322   -8.5099588    237.44889  0.013035183   0.01205589            2 
 1519000   0.65009521    -8.524913     237.7096  0.013040904  0.012045016            5 
 1520000   0.63479837    -8.513409    237.29802   0.01300976  0.012034137            3 
 1521000   0.64321677   -8.5095109    237.06493  0.012988436  0.012023274            2 
 1522000   0.64848209   -8.5084628    237.55372  0.013006665  0.012012436            4 
 1523000    0.6363331   -8.5217629    237.24334  0.012981141  0.012001587            4 
 1524000    0.6455621   -8.5245565    237.35784  0.012978884  0.011990746            2 
 1525000   0.64091451   -8.5409268    237.39355  0.012972325  0.011979925            2 
 1526000   0.64849293   -8.5238577    237.63659  0.012977097  0.011969119            8 
 1527000   0.62437398    -8.517997    237.13047  0.012940978  0.011958321            2 
 1528000   0.65510646   -8.5061191    237.28754  0.012941074  0.011947527            2 
 1529000   0.65959641   -8.5514797     236.9346  0.012913375  0.011936734            2 
 1530000   0.63247949   -8.5251501     237.0832  0.012913028  0.011925946            2 
 1531000   0.63333216   -8.5302305    237.07016  0.012903884  0.011915131            2 
 1532000   0.64420668   -8.5526864    237.03421  0.012893506  0.011904335            2 
 1533000   0.64112804   -8.5366199    237.17077  0.012892519   0.01189355            1 
 1534000   0.64220545   -8.5406459    236.92113  0.012870552  0.011882774            2 
 1535000   0.63718143   -8.5371099    236.82197  0.012856784  0.011872011            6 
 1536000   0.61348916    -8.558726    237.22869   0.01287048  0.011861272            2 
 1537000   0.63657684     -8.53994    236.89822  0.012844189  0.011850525            4 
 1538000    0.6357533   -8.5512892     237.1057   0.01284708  0.011839807            1 
 1539000   0.63266837   -8.5303739    236.94619  0.012830095  0.011829109            1 
 1540000   0.62939798   -8.5454481    237.25818  0.012838646  0.011818403            2 
 1541000   0.63740931   -8.5674402     237.1294  0.012823351  0.011807688            2 
 1542000   0.63076514   -8.5664206    237.04831  0.012810652  0.011796989            2 
 1543000   0.63676793   -8.5302638     237.1551  0.012808117  0.011786311            1 
 1544000   0.64857423   -8.5521289    236.92476   0.01278739  0.011775663            3 
 1545000   0.64655326   -8.5701154    236.78541  0.012771597  0.011764992            5 
 1546000   0.63516943   -8.5444232    237.14583  0.012782764  0.011754337            2 
 1547000   0.64368468   -8.5643769    236.77586  0.012754571  0.011743676            4 
 1548000    0.6215134   -8.5632606    237.26643  0.012772741  0.011733056            3 
 1549000   0.64726033   -8.5516958    236.93953  0.012746908  0.011722433            1 
 1550000    0.6254163   -8.5575366     236.4705  0.012713468  0.011711809            2 
 1551000   0.63698733   -8.5495741    237.08052  0.012738046  0.011701201            3 
 1552000   0.62175632   -8.5717523    236.74314  0.012711723  0.011690601            5 
 1553000   0.63766345   -8.5878507    236.79799  0.012706482  0.011680016            6 
 1554000    0.6209085   -8.5854265    236.14328  0.012663196  0.011669433            2 
 1555000   0.63876948   -8.5400163    236.72632  0.012686298  0.011658856            2 
 1556000   0.63637729   -8.5686348    236.82914  0.012683652  0.011648304            2 
 1557000   0.62440784   -8.5446785    236.78781  0.012673293  0.011637762            2 
 1558000   0.62557685   -8.5538411    236.87405  0.012669772   0.01162723            1 
 1559000   0.61602257   -8.5540497    237.21997  0.012680135   0.01161673            1 
 1560000   0.62476018   -8.5647386    237.12935  0.012667166  0.011606233            1 
 1561000   0.63245469   -8.5626311    236.36559  0.012618278  0.011595738            3 
 1562000    0.6342709   -8.5853422    236.88544  0.012637934  0.011585246            2 
 1563000   0.62737434   -8.5632713    236.97818  0.012634793  0.011574747            2 
 1564000   0.62170731   -8.5304624    237.09456  0.012632916  0.011564288            3 
 1565000   0.62560727   -8.5468935    236.89018  0.012613961   0.01155383            1 
 1566000   0.62317956   -8.5652914    236.57404  0.012589082  0.011543363            2 
 1567000   0.62254243   -8.5766326    236.73283  0.012589493  0.011532918            2 
 1568000   0.62291596   -8.5872188    236.47844  0.012567944  0.011522469            2 
 1569000   0.63002984   -8.5633242    236.61922  0.012567411  0.011512037            2 
 1570000   0.64152018   -8.5661262     236.4075  0.012548169  0.011501616            2 
 1571000   0.62481216    -8.592724    236.55196  0.012547844  0.011491198            2 
 1572000   0.62776123   -8.5850624     236.9563  0.012561297  0.011480796            2 
 1573000     0.627145   -8.5692428    236.52253  0.012530331  0.011470412            4 
 1574000   0.62858838   -8.5876577    237.16745  0.012556515  0.011460022            4 
 1575000   0.61703944   -8.5637781    236.75722  0.012526837  0.011449654            4 
 1576000   0.63593956   -8.5639551    236.63498  0.012512425  0.011439305            5 
 1577000   0.62735924   -8.5674534    236.92055  0.012519581  0.011428955            3 
 1578000   0.61553837   -8.5913046    236.90814  0.012510992  0.011418628            3 
 1579000   0.62798602   -8.5998194    237.02435  0.012509201  0.011408289            1 
 1580000   0.63268636   -8.5795118    236.97163  0.012498504  0.011397971            2 
 1581000   0.62913877   -8.5928065    236.65281  0.012473793  0.011387651            2 
 1582000   0.62620548   -8.5846568    236.49866  0.012457789  0.011377348            3 
 1583000   0.62500664   -8.5657857    236.37093  0.012443195  0.011367065            4 
 1584000   0.63575891   -8.5938853     236.8025  0.012458044  0.011356784            3 
 1585000   0.62104421   -8.5905882    236.69636  0.012444604  0.011346518            2 
 1586000   0.63111639   -8.5825791    236.71449   0.01243771  0.011336276            4 
 1587000   0.62190994   -8.5968695     236.4233  0.012414582  0.011326045            3 
 1588000   0.61907382    -8.617281     236.3931   0.01240518  0.011315807            4 
 1589000   0.61255623   -8.6139258    236.10028  0.012382016  0.011305578            2 
 1590000   0.59768345   -8.6275508    236.74854  0.012408204  0.011295366            5 
 1591000   0.61082557   -8.5863459    236.51521  0.012388184  0.011285178            2 
 1592000   0.62306525   -8.5925651    236.62454  0.012386125   0.01127499            2 
 1593000   0.61346049   -8.6134391    236.35635  0.012364321   0.01126482            2 
 1594000   0.59766426   -8.5875546    236.66189  0.012372537  0.011254661            4 
 1595000   0.62405593   -8.6164679    236.24978  0.012343249  0.011244497            2 
 1596000   0.60778706   -8.6041266    236.78386  0.012363401  0.011234364            1 
 1597000   0.62175339   -8.6014446    236.75051  0.012353919   0.01122424            1 
 1598000   0.61461012   -8.6079965    236.80557   0.01234906  0.011214123            1 
 1599000   0.61753574   -8.6185506    236.38781  0.012319565  0.011204005            3 
 1600000   0.60754286   -8.5905486     236.6223  0.012324078  0.011193896            1 
 1601000    0.6162819   -8.6168835     236.5337  0.012311769  0.011183796            4 
 1602000   0.60550915   -8.6006759     236.7029  0.012312885  0.011173713            4 
 1603000   0.60276294    -8.605335    236.88583  0.012314713  0.011163627            3 
 1604000   0.62228507   -8.6159686     237.1254  0.012319482  0.011153549            2 
 1605000   0.61094978   -8.6004238    236.47738  0.012278161  0.011143481            7 
 1606000   0.62017613   -8.6319029    236.25996  0.012259234    0.0111334            4 
 1607000   0.60568863   -8.6368755    235.83566  0.012229603  0.011123321            5 
 1608000   0.60744273   -8.6234155    236.21239  0.012241521  0.011113257            1 
 1609000   0.61372729    -8.616486    236.61481  0.012254755  0.011103198            4 
 1610000   0.60569245   -8.6067087    236.52879  0.012242691  0.011093175            5 
 1611000   0.60889925   -8.6063012    236.42945  0.012229953  0.011083161            3 
 1612000   0.60999959   -8.6124304    236.59402  0.012230874  0.011073169            2 
 1613000   0.62404492   -8.6120285    236.32354  0.012209317   0.01106317            3 
 1614000    0.6058285   -8.6130385    236.35831  0.012203548  0.011053204            1 
 1615000   0.61473484   -8.6362031    236.32735  0.012194394  0.011043229            2 
 1616000   0.60156446   -8.6236795    236.58405  0.012200085  0.011033253            3 
 1617000   0.61586316   -8.6228953    236.49569  0.012187986  0.011023287            3 
 1618000   0.61147242   -8.6348702    236.31777   0.01217129  0.011013323            3 
 1619000   0.60951008   -8.6230347    236.19074  0.012157234  0.011003368            4 
 1620000   0.60541856   -8.6480227    236.30048  0.012155375  0.010993425            3 
 1621000   0.59798372   -8.6209136    236.28609  0.012147136  0.010983494            3 
 1622000   0.61493623    -8.616314    236.29898  0.012140309  0.010973567            1 
 1623000   0.61436626   -8.6283907    236.14565  0.012124956  0.010963671            7 
 1624000   0.59574318   -8.6205306    235.90082  0.012104927  0.010953789            4 
 1625000   0.61493963   -8.6275462    236.34254   0.01212013  0.010943897            2 
 1626000   0.60382985   -8.6090684    236.20983  0.012105875  0.010934026            3 
 1627000   0.61599338    -8.615495    235.87461  0.012081264  0.010924168            6 
 1628000    0.5903897   -8.6556841    236.24687  0.012092899  0.010914306            3 
 1629000   0.60302282   -8.6292028    236.15707  0.012080882  0.010904461            2 
 1630000   0.59941351   -8.6323813    236.23879  0.012077648  0.010894657            1 
 1631000   0.59703387    -8.639304    235.94008   0.01205498  0.010884849            3 
 1632000   0.60614032   -8.6350227    236.16613  0.012059136   0.01087505            3 
 1633000   0.61065952   -8.6266349    236.30668  0.012058924  0.010865276            3 
 1634000   0.61587681   -8.6301211    236.21392  0.012046814  0.010855497            2 
 1635000   0.61408567   -8.6496039    236.15577  0.012036482  0.010845728            5 
 1636000   0.59153245   -8.6290531    236.20284  0.012031522  0.010835971            1 
 1637000   0.60228615   -8.6367494    236.30682  0.012029466  0.010826214            4 
 1638000    0.6040046   -8.6445293    236.02149  0.012007606  0.010816459            2 
 1639000   0.59797995   -8.6304033    236.31843  0.012015377  0.010806722            2 
 1640000   0.59599591    -8.639325    236.58718  0.012021706  0.010796999            1 
 1641000   0.59612343   -8.6492854    236.15238  0.011992301  0.010787284            1 
 1642000   0.59059616   -8.6411337    236.24145  0.011989517  0.010777589            3 
 1643000   0.58636759   -8.6405797    235.91176  0.011965498  0.010767913            2 
 1644000   0.59901757   -8.6209316    236.07226  0.011966355  0.010758233            2 
 1645000   0.59508482   -8.6419779    236.08829  0.011959893  0.010748563            2 
 1646000   0.59360141    -8.650468    236.31062  0.011963883  0.010738907            2 
 1647000   0.58504668    -8.634422     236.0139  0.011941606  0.010729259            3 
 1648000    0.6031444   -8.6594718    236.46357  0.011957098  0.010719616            3 
 1649000    0.5927135   -8.6551915    235.79035  0.011915825   0.01070998            2 
 1650000   0.57874147   -8.6376309    235.61645  0.011899821  0.010700351            1 
 1651000   0.58841554   -8.6296048    235.93852  0.011908869  0.010690724            1 
 1652000   0.58701519   -8.6489481    236.18263  0.011913974  0.010681127            2 
 1653000   0.61090789   -8.6561482    235.59083  0.011876932  0.010671532            2 
 1654000   0.57153901   -8.6598188    235.78709   0.01187964  0.010661927            2 
 1655000   0.58404934   -8.6819918    236.09003  0.011887715  0.010652328            2 
 1656000   0.59414141    -8.633444    236.20269  0.011886206   0.01064275            2 
 1657000   0.59397901   -8.6388631    235.58525  0.011847981  0.010633178            2 
 1658000   0.58804605   -8.6456061    235.95804  0.011859572  0.010623616            3 
 1659000   0.59858255   -8.6759521    235.95451  0.011852246   0.01061407            2 
 1660000   0.59079076     -8.67151    235.47641  0.011821105  0.010604524            2 
 1661000   0.58775553   -8.6691734    236.04186  0.011842357   0.01059499            5 
 1662000   0.58614314   -8.6500185    235.84033  0.011825127  0.010585467            1 
 1663000   0.57632226   -8.6445688      235.833  0.011817649  0.010575956            3 
 1664000   0.59493982   -8.6498644    235.84679  0.011811237  0.010566452            1 
 1665000   0.60032238   -8.6372954    236.28264  0.011825958  0.010556984            1 
 1666000   0.58814822   -8.6589327    236.03077  0.011806261  0.010547512            1 
 1667000   0.59835201   -8.6623194    235.89968  0.011792626  0.010538038            1 
 1668000   0.57961411   -8.6413914    236.07591   0.01179436  0.010528569            2 
 1669000   0.59004163   -8.6736173    235.86609  0.011776817  0.010519102            3 
 1670000   0.59242489   -8.6725886    235.72192  0.011762571   0.01050964            2 
 1671000    0.5945809    -8.671094    235.47845   0.01174339  0.010500193            1 
 1672000   0.58901818   -8.6698689    235.46923  0.011735906  0.010490752            1 
 1673000    0.5863737   -8.6730856     235.4476  0.011727814  0.010481321            1 
 1674000   0.58195159   -8.6675927    235.33481  0.011715194  0.010471897            3 
 1675000   0.58552077   -8.6726641      235.782  0.011730448  0.010462483            2 
 1676000   0.57469602   -8.6559068    235.22174  0.011695591  0.010453087            1 
 1677000   0.56954939   -8.7006751    235.86944  0.011720803  0.010443698            2 
 1678000   0.58955472   -8.6607381    235.45918  0.011693443  0.010434316            2 
 1679000    0.5972432   -8.6816501    235.87422  0.011707079  0.010424943            2 
 1680000   0.58148358   -8.6813973    235.64444  0.011688712  0.010415585            2 
 1681000   0.57627545   -8.6824954    235.84372  0.011691638  0.010406226            1 
 1682000   0.58828794   -8.6865214    235.65353  0.011675264  0.010396891            3 
 1683000   0.56700999   -8.6825403    236.24746  0.011697735  0.010387563            2 
 1684000   0.57334228    -8.669879    235.50271  0.011653934  0.010378238            1 
 1685000   0.58514199   -8.6796778    235.96462  0.011669862  0.010368921            2 
 1686000   0.59028027   -8.6890949    235.55594  0.011642741  0.010359608            1 
 1687000   0.58176032   -8.6927108    236.00775  0.011658158  0.010350326            2 
 1688000   0.58708171   -8.6682876    235.15696   0.01160925  0.010341045            2 
 1689000   0.56905223   -8.6867407    235.50839  0.011619715  0.010331775            1 
 1690000   0.57436552   -8.6834868    235.46668  0.011610783  0.010322508            2 
 1691000   0.58747496   -8.6888917    235.52102  0.011606595  0.010313254            2 
 1692000   0.59033059   -8.6904411    235.16832  0.011582364  0.010304014            2 
 1693000   0.57978743   -8.6805849    235.49924  0.011591811  0.010294789            1 
 1694000   0.58295458   -8.6865684    235.67494  0.011593612  0.010285577            3 
 1695000   0.57358945   -8.6794112    235.52644  0.011579471  0.010276376            2 
 1696000   0.56381631   -8.6779222    235.50827   0.01157175  0.010267169            2 
 1697000   0.58753803    -8.683205    235.79808  0.011579163  0.010257983            4 
 1698000   0.56889601    -8.707959     235.6104  0.011563133  0.010248801            2 
 1699000   0.57179547   -8.6866633    236.15002  0.011582795  0.010239623            1 
 1700000   0.56729155   -8.7002829    235.67651   0.01155277  0.010230458            1 
 1701000   0.58240875   -8.6914673    235.35532  0.011530243  0.010221321            3 
 1702000   0.57825976   -8.6806195    235.19328  0.011515534  0.010212184            2 
 1703000   0.56462839   -8.6945792    235.57842  0.011527619  0.010203048            2 
 1704000   0.56927183   -8.6934052    235.54482  0.011519211  0.010193928            2 
 1705000   0.56918905   -8.6959069    235.33862  0.011502376  0.010184816            2 
 1706000   0.57864982   -8.6687855    234.95158  0.011476728  0.010175699            2 
 1707000   0.57115908   -8.6837257    235.56237  0.011499823  0.010166591            2 
 1708000   0.56611432   -8.6978226    235.55454  0.011492708  0.010157501            2 
 1709000   0.57714073    -8.692583    235.59085  0.011487754  0.010148408            4 
 1710000   0.56790907   -8.7003617    235.37756  0.011470641   0.01013935            2 
 1711000   0.56756849   -8.6971446    235.40961  0.011465498  0.010130307            3 
 1712000   0.56557602   -8.6802567    235.74386  0.011475071  0.010121259            3 
 1713000   0.56598897   -8.7008135    235.12048  0.011438046  0.010112222            2 
 1714000   0.57190564   -8.6913301     235.6475  0.011456996  0.010103188            2 
 1715000   0.56279737    -8.695488    235.42643  0.011439574  0.010094158            2 
 1716000   0.57603759   -8.7089801    235.32169  0.011427821  0.010085149            1 
 1717000   0.57690372   -8.6935652    235.54959  0.011432226  0.010076148            1 
 1718000    0.5632252   -8.7015032    235.61698  0.011428841   0.01006716            3 
 1719000   0.57007715   -8.7078434    235.19449  0.011401711  0.010058178            2 
 1720000   0.56236532   -8.7040076    235.07055  0.011389077  0.010049198            3 
 1721000   0.57203573   -8.6997052    235.01554  0.011379796  0.010040235            2 
 1722000   0.56680408   -8.6942543    235.39963  0.011391774  0.010031284            4 
 1723000   0.57052131   -8.7172511    235.45252  0.011387721   0.01002234            5 
 1724000   0.56728026   -8.6968971    235.44248   0.01138063  0.010013409            3 
 1725000   0.57113483   -8.7070821    235.41284  0.011372601  0.010004498            1 
 1726000   0.55869423   -8.7025645    235.48877  0.011369678 0.0099955934            4 
 1727000   0.55767417    -8.685459    235.18735   0.01134855 0.0099866852            1 
 1728000    0.5537693   -8.7136922    235.51533  0.011357799 0.0099777897            4 
 1729000   0.56720068   -8.7125401    235.28589  0.011340172 0.0099689017            4 
 1730000   0.56971618   -8.7093382    235.01116  0.011320384 0.0099600112            2 
 1731000   0.56010577   -8.7189117    235.10194  0.011318214 0.0099511463            1 
 1732000   0.56000684   -8.6904741    235.19701  0.011316253 0.0099422814            2 
 1733000   0.57011659   -8.7162846    235.37876  0.011318463 0.0099334423            2 
 1734000   0.56026217   -8.7076339    235.16351  0.011301591 0.0099246068            1 
 1735000   0.57765953   -8.7331245    235.35936  0.011304484  0.009915785            2 
 1736000   0.56511352   -8.7285791    235.30586  0.011295404 0.0099069689            3 
 1737000   0.55767995   -8.7156351    235.33933  0.011290507 0.0098981601            3 
 1738000    0.5510721   -8.6982466    234.85114  0.011260603 0.0098893549            3 
 1739000   0.55394394   -8.7141339    235.34184  0.011277642 0.0098805724            2 
 1740000   0.54697177   -8.6839439    235.29628  0.011268979 0.0098718112            2 
 1741000   0.56882745   -8.6953088    235.16583  0.011256262 0.0098630629            2 
 1742000   0.55517445   -8.7125051     235.5464  0.011268006 0.0098543151            1 
 1743000   0.55688752   -8.7090796    235.55708  0.011262052 0.0098455647            1 
 1744000   0.56522468   -8.7148932    235.35575  0.011245974 0.0098368325            2 
 1745000   0.57021764   -8.7184081    235.16844  0.011230585 0.0098281134            3 
 1746000   0.56358388   -8.7184754    235.01265  0.011216717  0.009819407            1 
 1747000   0.56628413   -8.7290652     234.8899  0.011204441 0.0098107046            3 
 1748000   0.56165809   -8.7135534    235.27246  0.011216269   0.00980201            1 
 1749000    0.5486967   -8.7137915    235.16473  0.011204723 0.0097933234            1 
 1750000   0.55940059   -8.7442218    235.15398  0.011197808 0.0097846378            4 
 1751000   0.55321843    -8.728039    235.41946  0.011204048 0.0097759782            2 
 1752000   0.54936765    -8.705888    235.09571  0.011182254 0.0097673206            1 
 1753000   0.56403722   -8.7164568    235.06976  0.011174642 0.0097586727            3 
 1754000   0.56313986   -8.7140037    235.23712  0.011176222 0.0097500411            2 
 1755000   0.55222922   -8.7087317     235.2654  0.011171197 0.0097414098            2 
 1756000     0.544799   -8.7034526    235.22671  0.011162999 0.0097327797            3 
 1757000   0.55440941   -8.7143535    235.19804  0.011155285 0.0097241658            3 
 1758000   0.54349499   -8.7143569    235.22814  0.011150367 0.0097155627            3 
 1759000   0.55050392   -8.7326246    235.09007  0.011137487  0.009706971            2 
 1760000   0.54136763   -8.7178331    234.67147  0.011111338 0.0096983782            2 
 1761000   0.54895343   -8.7068179    234.86535  0.011114203  0.009689802            4 
 1762000   0.55595185   -8.7293845    235.31924  0.011129362 0.0096812275            2 
 1763000   0.55184898   -8.7217038    235.33521  0.011123804  0.009672664            3 
 1764000   0.54453819   -8.7229577    235.53732  0.011127047 0.0096641151            4 
 1765000    0.5567691   -8.7269369    234.99045  0.011094922 0.0096555767            2 
 1766000   0.55825373   -8.7381662    235.17719  0.011097452 0.0096470496            4 
 1767000   0.53200646   -8.7374395    234.61096  0.011064467 0.0096385281            2 
 1768000   0.55421935   -8.7298132    234.97977  0.011075592 0.0096300127            7 
 1769000   0.54207208    -8.733834    235.28532  0.011083725 0.0096215038            2 
 1770000   0.55537663   -8.7378864     235.4021  0.011082961 0.0096130144            2 
 1771000   0.56202754   -8.7195609    235.21762  0.011068023 0.0096045192            2 
 1772000   0.54004405   -8.7287787    235.20485  0.011061176 0.0095960492            1 
 1773000   0.54869597   -8.7290366    235.05116  0.011047714 0.0095875779            2 
 1774000   0.53900798   -8.7294849    235.00765  0.011039442 0.0095791195            2 
 1775000   0.54377711   -8.7270997    235.31009  0.011047422 0.0095706705            3 
 1776000   0.54170461   -8.7217006    235.34283  0.011042738  0.009562239            2 
 1777000   0.54251177   -8.7326683    235.18563  0.011029152 0.0095538023            1 
 1778000   0.55076917   -8.7470434     235.1865  0.011022989 0.0095453826            3 
 1779000   0.54400461   -8.7267712    234.96185   0.01100627 0.0095369596            7 
 1780000   0.53712546   -8.7411918    234.95643  0.010999833 0.0095285583            2 
 1781000   0.54451174   -8.7413133    235.16415  0.011003376 0.0095201716            3 
 1782000   0.53145348   -8.7385461    234.92214  0.010985884 0.0095117804            5 
 1783000   0.54273232    -8.720408    235.09768  0.010987927  0.009503413            6 
 1784000   0.54182621   -8.7432688    234.86442  0.010970872 0.0094950376            4 
 1785000   0.53819532   -8.7513244    234.83582   0.01096339  0.009486674            3 
 1786000   0.54293763   -8.7359393    234.97141  0.010963578  0.009478322            5 
 1787000   0.54616039   -8.7650707    234.79675  0.010949298 0.0094699631            6 
 1788000   0.53408012   -8.7418622    234.69316  0.010938346 0.0094616261            2 
 1789000   0.52635067    -8.754793    234.78717  0.010936611 0.0094532818            3 
 1790000   0.53354928   -8.7371064    234.96172  0.010938627 0.0094449534            6 
 1791000   0.53040855   -8.7399925    234.71044  0.010920828 0.0094366372            7 
 1792000   0.54006624   -8.7365129    235.19966  0.010937484 0.0094283367            8 
 1793000   0.54276682   -8.7431048    234.44002  0.010896078 0.0094200336            2 
 1794000   0.53657705   -8.7548242    234.58511  0.010896744 0.0094117425            3 
 1795000   0.53721358   -8.7468461    234.74858  0.010898263 0.0094034625            4 
 1796000   0.54043071   -8.7399396    234.68936  0.010889447 0.0093951902            7 
 1797000   0.53913648   -8.7620299    235.07798  0.010901409 0.0093869262            6 
 1798000   0.54358841   -8.7335173    234.89103  0.010886681 0.0093786691            3 
 1799000   0.52996844   -8.7627481    234.65533  0.010869712 0.0093704263            5 
 1800000   0.53405229   -8.7573944    234.72776  0.010867026 0.0093621771            5 
 1801000   0.53022916   -8.7463101    234.55465  0.010852982 0.0093539545           12 
 1802000   0.53120251    -8.762221    234.91137  0.010863456  0.009345745            3 
 1803000   0.53739043   -8.7661842    234.98655  0.010860905 0.0093375391            4 
 1804000   0.53094771   -8.7421131    234.62502  0.010838184 0.0093293447            9 
 1805000   0.51971446    -8.757637    235.07345  0.010852883 0.0093211518            7 
 1806000   0.52803032    -8.748661    234.71988  0.010830559 0.0093129761            3 
 1807000   0.52468048   -8.7380723    234.77046  0.010826898 0.0093048063            6 
 1808000   0.53920648   -8.7526489    234.86561  0.010825295 0.0092966436           11 
 1809000   0.52662844   -8.7494985    234.41949  0.010798761 0.0092884934            4 
 1810000   0.53333695   -8.7615254    234.52398  0.010797605 0.0092803503            7 
 1811000   0.53349273   -8.7562303    234.85575  0.010806909 0.0092722164            4 
 1812000   0.52975018   -8.7515219    234.66623  0.010792229 0.0092640899            2 
 1813000   0.53762375   -8.7617422    234.69966  0.010787813 0.0092559695            2 
 1814000   0.52666391   -8.7659584    234.53578  0.010774338 0.0092478673            3 
 1815000    0.5254327   -8.7692289    234.45069  0.010764495 0.0092397616            3 
 1816000   0.53141751   -8.7546793    234.66975  0.010768619 0.0092316773            4 
 1817000   0.53145257   -8.7740611    234.81357  0.010769289 0.0092235969            4 
 1818000   0.52506728   -8.7718399    234.67257  0.010756902 0.0092155416            2 
 1819000   0.52481748   -8.7570745    234.75483  0.010754757 0.0092074814            2 
 1820000   0.52233307     -8.76807    234.84869  0.010753145 0.0091994354            2 
 1821000    0.5239267   -8.7600939    234.50758   0.01073163 0.0091913911            2 
 1822000   0.53175209   -8.7530055    234.75474  0.010737045 0.0091833481            4 
 1823000   0.52555944   -8.7828114    234.87924  0.010736846 0.0091753134            6 
 1824000   0.53218188   -8.7680258    235.03639  0.010738139 0.0091672815            2 
 1825000   0.52883622   -8.7588254    234.55694  0.010710363 0.0091592616            3 
 1826000   0.52072263   -8.7681996    234.52219  0.010702911  0.009151254            3 
 1827000   0.52780874   -8.7801253    234.48233  0.010695235 0.0091432514            5 
 1828000   0.53650322    -8.778581    234.25292  0.010678926 0.0091352659            5 
 1829000   0.51659128   -8.7700202     234.4312   0.01068121 0.0091272818           10 
 1830000   0.52930248    -8.764168    234.42654  0.010675161 0.0091193085            9 
 1831000   0.52872717   -8.7976121     234.4379  0.010669848 0.0091113346            6 
 1832000   0.52442191   -8.7866669    234.38683  0.010661701 0.0091033751            4 
 1833000   0.52105692   -8.7835216    234.43931   0.01065827 0.0090954278            9 
 1834000   0.51264625   -8.7814439    234.55155  0.010657559 0.0090874868            3 
 1835000   0.52746431   -8.7782321    234.90572  0.010667835 0.0090795521            4 
 1836000    0.5210493    -8.772888    234.61179  0.010648683 0.0090716279            7 
 1837000    0.5279829   -8.7700496    234.38162  0.010632445 0.0090637095            7 
 1838000   0.51772824   -8.7816931    234.67685  0.010640046 0.0090558031            4 
 1839000   0.50732623   -8.7730048    234.50779  0.010626599 0.0090479066            3 
 1840000   0.52584231   -8.7804063    234.22432  0.010607985 0.0090400089            4 
 1841000    0.5318265   -8.7896808    234.80888  0.010628684 0.0090321277            2 
 1842000   0.50607415   -8.7806828    234.52249  0.010609957 0.0090242524            2 
 1843000   0.51537709   -8.7871662    234.61725  0.010608485  0.009016389            2 
 1844000   0.51958014   -8.7752254    234.45026  0.010595185 0.0090085377            5 
 1845000   0.51822706   -8.7800532    234.37611  0.010586094 0.0090006905            6 
 1846000   0.51302772   -8.7930017    234.26943  0.010575543 0.0089928586            5 
 1847000   0.49726298   -8.7765957    234.16903  0.010565287  0.008985035            8 
 1848000   0.51086949   -8.7957505    234.94542  0.010594581  0.008977213            4 
 1849000   0.50391434   -8.8034422    234.32199  0.010560753 0.0089694076            3 
 1850000   0.50728783   -8.7740626    234.44519  0.010560594 0.0089616098            4 
 1851000   0.51090043   -8.7935777     234.2629  0.010546682 0.0089538206           11 
 1852000   0.52563031   -8.8004446    233.69876  0.010515603 0.0089460327            5 
 1853000   0.51451183   -8.7869098    234.41185  0.010541997 0.0089382576           13 
 1854000   0.50911891   -8.7884695    234.34087  0.010533121 0.0089304915            5 
 1855000   0.51060086    -8.786531    234.69569  0.010543382 0.0089227344           12 
 1856000   0.50551296   -8.7752987    234.14606  0.010513023 0.0089149868           11 
 1857000   0.50427561   -8.7880649    234.25157  0.010512097 0.0089072462           12 
 1858000   0.50393004     -8.78529    234.63345  0.010523567 0.0088995116           11 
 1859000   0.52131932   -8.8128845    234.18364  0.010497743  0.008891795            1 
 1860000   0.51260441   -8.7949721    234.11542  0.010489042 0.0088840844            9 
 1861000   0.51359943   -8.8064515    234.46212  0.010498931 0.0088763787           12 
 1862000   0.51337136   -8.7976827    234.03823  0.010474321 0.0088686858            5 
 1863000    0.4978534   -8.7915334    234.23101  0.010477322 0.0088609923            3 
 1864000   0.50562866   -8.7908254    234.25621  0.010472828 0.0088533021            4 
 1865000   0.51069402   -8.7830066    234.48946  0.010477634 0.0088456189            6 
 1866000   0.50736132   -8.7883831    234.45973  0.010470692 0.0088379506            7 
 1867000   0.51142181   -8.7958109    234.06727  0.010447566 0.0088302897           11 
 1868000   0.49598884   -8.8204573    234.30764  0.010452696 0.0088226378            6 
 1869000   0.50790613   -8.7847497    234.04715  0.010435489 0.0088149961            9 
 1870000   0.50590036   -8.8075485    233.94996  0.010425577 0.0088073652            3 
 1871000   0.49842101   -8.7922359    234.11702  0.010427446 0.0087997336            2 
 1872000    0.5067173   -8.7998834    234.36804   0.01043305 0.0087921155            5 
 1873000   0.50870816   -8.7969763    234.55723  0.010435897 0.0087845041            2 
 1874000   0.51570645    -8.803495    233.88983   0.01040065 0.0087768933            3 
 1875000   0.50719024   -8.7962339    234.32381  0.010414391 0.0087692996            3 
 1876000   0.51713713   -8.7937314    234.29343  0.010407491 0.0087617094            2 
 1877000   0.49564189   -8.7973469    233.84494  0.010382034 0.0087541237            1 
 1878000   0.51338438   -8.8060716    234.31807  0.010397501 0.0087465495            1 
 1879000   0.50391762    -8.796449     234.0294  0.010379164 0.0087389865            4 
 1880000   0.50011429   -8.8149379    234.27223  0.010384407 0.0087314195            1 
 1881000   0.50458437   -8.8140163    234.21813   0.01037649 0.0087238656            3 
 1882000   0.50093516    -8.832502    233.91371  0.010357497 0.0087163253            3 
 1883000   0.49662941   -8.8192487    234.12568  0.010361377 0.0087087913            3 
 1884000    0.4925614   -8.8113868    234.44363  0.010369941 0.0087012722            7 
 1885000   0.49246203   -8.8061506    234.04601  0.010346862 0.0086937623            6 
 1886000   0.49326242   -8.8172893    234.30792  0.010352948 0.0086862606            3 
 1887000   0.49589552   -8.8030059     234.2677  0.010345685  0.008678766            6 
 1888000   0.48658662   -8.8171129    233.99145  0.010328012 0.0086712793            9 
 1889000   0.49820968    -8.801589     233.8178  0.010314884 0.0086637977            8 
 1890000   0.50505296   -8.8067213    234.19378  0.010326005 0.0086563256            4 
 1891000   0.49598287   -8.8003668     234.2825  0.010324454 0.0086488732            6 
 1892000   0.50052996   -8.8153051    234.19457  0.010315124 0.0086414231            6 
 1893000   0.50587612   -8.8125481    234.42834  0.010319966  0.008633986            6 
 1894000   0.50173358    -8.837988    233.77924  0.010285957 0.0086265551            6 
 1895000   0.50650271   -8.8045217    234.29623  0.010303264 0.0086191222            5 
 1896000   0.49131831   -8.8086574    233.75819  0.010274182  0.008611707            6 
 1897000   0.49312054   -8.8217263    234.16665  0.010286709 0.0086042915            2 
 1898000   0.49295639   -8.8112022    234.07452  0.010277244 0.0085968961            4 
 1899000    0.4902967   -8.8243981     234.3625   0.01028447 0.0085895087            5 
 1900000   0.48863251   -8.8262898    234.26853  0.010274936 0.0085821242            3 
 1901000    0.4908351   -8.8187742    233.59132  0.010239844 0.0085747406            3 
 1902000   0.49313358    -8.819446    234.45543   0.01027232 0.0085673666            2 
 1903000   0.48753246   -8.8163938    233.83638  0.010239813  0.008560008            3 
 1904000   0.48762838   -8.8358501    234.22869  0.010251606 0.0085526558            3 
 1905000   0.49497534   -8.8216196    233.97148  0.010234973 0.0085453043            3 
 1906000   0.47877521   -8.8212045    234.02251  0.010231834 0.0085379651            4 
 1907000   0.48859414   -8.8310518    233.88688  0.010220542 0.0085306327            1 
 1908000   0.48230596   -8.8183032    234.00309  0.010220261  0.008523312            2 
 1909000   0.47705745   -8.8072739    233.81165   0.01020655 0.0085159955            4 
 1910000   0.48588564   -8.8315533    233.91741  0.010205821 0.0085086896            2 
 1911000   0.48742427   -8.8329021    234.09106  0.010208052 0.0085013902            5 
 1912000   0.48802472   -8.8276571    234.08493  0.010202446 0.0084940989            6 
 1913000    0.4898767   -8.8269092    233.71581  0.010181034 0.0084868103            7 
 1914000   0.49407081   -8.8287453    233.66142  0.010173346 0.0084795293            2 
 1915000   0.49603723   -8.8227273    233.87334  0.010177256 0.0084722555            5 
 1916000   0.49504625   -8.8176625    233.89589  0.010172925 0.0084649942            2 
 1917000    0.4915813   -8.8307706    234.18023  0.010179979 0.0084577375            4 
 1918000   0.49187999   -8.8289285    233.64656  0.010151484 0.0084504859            8 
 1919000   0.48743319   -8.8213545    233.86915   0.01015586  0.008443249            2 
 1920000   0.49110106   -8.8264963    233.86466  0.010150376 0.0084360147            2 
 1921000   0.49207129   -8.8463828    233.83448  0.010143783 0.0084287927            3 
 1922000   0.48873829   -8.8159392    234.03499  0.010147199 0.0084215786            1 
 1923000   0.48840974   -8.8327097    233.92766  0.010137271 0.0084143696            4 
 1924000   0.48099135   -8.8215558    234.17391  0.010142668 0.0084071671            2 
 1925000   0.48919762    -8.836424    233.67345  0.010115734 0.0083999712            4 
 1926000   0.47972138   -8.8216731    233.96412  0.010123058 0.0083927976            6 
 1927000   0.47665239   -8.8335751    233.87647  0.010114015 0.0083856231            2 
 1928000    0.4800763   -8.8293525    233.60662  0.010097105 0.0083784536            6 
 1929000   0.47713211   -8.8341019    233.85807  0.010102733 0.0083712894            7 
 1930000   0.48459373   -8.8311115    233.52375  0.010083064 0.0083641405            4 
 1931000    0.4765947   -8.8362872    233.96278  0.010096788 0.0083569977            4 
 1932000   0.48377723   -8.8379194    233.91005  0.010089288 0.0083498598            2 
 1933000   0.48512901   -8.8539259    234.03215  0.010089332 0.0083427322            2 
 1934000   0.48276468    -8.845646    233.94513  0.010080366 0.0083356004            2 
 1935000   0.47152658   -8.8517886     233.7137  0.010065189 0.0083284808            5 
 1936000   0.47497983   -8.8433292    233.77297  0.010062542  0.008321366            2 
 1937000   0.48081311   -8.8311026       233.78  0.010057649 0.0083142666            1 
 1938000   0.48188496   -8.8495486    233.90675   0.01005791 0.0083071813            2 
 1939000   0.48041635   -8.8336407    233.65147  0.010041751 0.0083000989            6 
 1940000   0.47998544   -8.8571088     233.7928  0.010042646 0.0082930243            8 
 1941000   0.47174769   -8.8445559    233.57635  0.010028179 0.0082859477            3 
 1942000   0.48010042   -8.8487664    233.42848   0.01001667 0.0082788837            2 
 1943000   0.48017286   -8.8383805    233.28605  0.010005406 0.0082718199            6 
 1944000   0.47405073   -8.8459416    233.79418  0.010022041 0.0082647618            6 
 1945000   0.46687414   -8.8542375    233.54052  0.010006021 0.0082577189            3 
 1946000   0.47367818   -8.8408266    233.60105  0.010003471 0.0082506761            4 
 1947000    0.4784107   -8.8498877    233.72218  0.010003517  0.008243648            7 
 1948000   0.48610062   -8.8381467    233.72207 0.0099983773 0.0082366239            5 
 1949000   0.47681417   -8.8392991    233.60562 0.0099882684  0.008229611           12 
 1950000   0.48115271   -8.8424381    233.28778 0.0099695633 0.0082226006            6 
 1951000   0.46717629   -8.8361555    233.45636  0.009971654 0.0082156039            8 
 1952000   0.46474435   -8.8609617     233.4604 0.0099667179 0.0082086131            6 
 1953000   0.47141185   -8.8621668    233.81432 0.0099767162 0.0082016258            9 
 1954000   0.46613791   -8.8322817    233.69122 0.0099663603 0.0081946472            4 
 1955000    0.4744891    -8.858403    233.54106 0.0099548618 0.0081876808            3 
 1956000   0.46885838   -8.8299345    233.68475 0.0099558943 0.0081807253            4 
 1957000   0.47121569   -8.8556271    233.26851 0.0099330826 0.0081737764            3 
 1958000   0.46420501   -8.8469781    233.49899 0.0099378188 0.0081668284            4 
 1959000   0.46964355   -8.8562325    233.29787 0.0099241906 0.0081598838            1 
 1960000   0.46780271   -8.8535779    233.62712 0.0099331259 0.0081529525            2 
 1961000     0.471604   -8.8478002    233.58291 0.0099261818 0.0081460227            6 
 1962000   0.47093763   -8.8549042    233.78202 0.0099295797 0.0081391089            4 
 1963000   0.47707119    -8.866899    233.43192 0.0099096586 0.0081322052           12 
 1964000   0.47580188   -8.8575145    233.38998 0.0099028333 0.0081253083            4 
 1965000   0.46142555   -8.8616356    233.73772 0.0099125411 0.0081184115            9 
 1966000   0.45850835   -8.8699264    233.21681 0.0098854194 0.0081115142            3 
 1967000   0.46352439   -8.8714098    233.89748 0.0099092308 0.0081046374            6 
 1968000   0.45914435   -8.8532913    233.39552 0.0098829404 0.0080977582            5 
 1969000   0.47000119   -8.8570173    233.52812 0.0098835333 0.0080909015            3 
 1970000   0.47686093   -8.8626667    233.40362 0.0098732496 0.0080840488            5 
 1971000   0.45578399    -8.869622    233.39616 0.0098679248 0.0080771992            5 
 1972000   0.46943893   -8.8601538    233.49864 0.0098672516 0.0080703636            7 
 1973000   0.48093708    -8.868394    233.68513 0.0098701272 0.0080635312            7 
 1974000   0.47316234   -8.8635112    233.27032 0.0098476157 0.0080567076            3 
 1975000   0.46920102   -8.8547489     233.8306 0.0098662702 0.0080498934            5 
 1976000   0.47164781    -8.873564    233.26752 0.0098375302 0.0080430854            3 
 1977000   0.46740957   -8.8606904    233.19996 0.0098297068  0.008036284            3 
 1978000   0.46352663   -8.8606457    233.72038 0.0098466623 0.0080294865            5 
 1979000   0.46795059   -8.8650391    233.66691 0.0098394355 0.0080227031            5 
 1980000   0.47283305   -8.8701649    233.67812 0.0098349377 0.0080159247            4 
 1981000   0.47510746   -8.8775184    233.36945 0.0098169886 0.0080091515            4 
 1982000   0.46720024   -8.8793261    233.44193 0.0098150827 0.0080023862            5 
 1983000   0.46117878   -8.8673057    233.59433 0.0098165375 0.0079956279            4 
 1984000   0.47241147   -8.8715058    233.57306 0.0098106965 0.0079888733            3 
 1985000   0.45317858   -8.8637706    233.22411 0.0097911044 0.0079821242            2 
 1986000   0.46798696   -8.8701717    233.68339 0.0098054461 0.0079753875            6 
 1987000   0.46376165   -8.8598466    233.13487 0.0097775067 0.0079686559            4 
 1988000   0.46474768   -8.8649817    233.45114 0.0097858461 0.0079619296            3 
 1989000   0.47144188   -8.8858074     233.1541 0.0097684808 0.0079552126            4 
 1990000   0.45896884   -8.8580152    233.12049 0.0097621648 0.0079485029            4 
 1991000    0.4506045    -8.883322    233.56062 0.0097756829 0.0079418025            6 
 1992000   0.45397542   -8.8632498    233.62898 0.0097736353 0.0079351094            3 
 1993000   0.45037173   -8.8705354    233.28038 0.0097541555 0.0079284158            2 
 1994000   0.45634449   -8.8700067     233.3318 0.0097514126  0.007921734            3 
 1995000   0.47069595   -8.8801468    233.30645 0.0097454657 0.0079150636            2 
 1996000   0.46916071   -8.8859104    233.16388 0.0097346311 0.0079083941            2 
 1997000   0.45725683   -8.8910627    233.39245 0.0097392944  0.007901733            7 
 1998000   0.45353788   -8.8769661    233.29624 0.0097304069  0.007895077            3 
 1999000   0.46192251   -8.8766175    233.09225 0.0097170355  0.007888426            4 
 2000000   0.45366409   -8.8824551    233.33418 0.0097222576 0.0078817865            6 
 2001000   0.45736674   -8.8865762    233.32929  0.009717195 0.0078751566            5 
 2002000   0.45204766   -8.8738315    233.24858 0.0097089819 0.0078685335            4 
 2003000   0.44850452   -8.8929671    233.56996 0.0097175055 0.0078619159            2 
 2004000   0.44388185   -8.8729414    233.31781  0.009702171 0.0078553044            4 
 2005000    0.4486727   -8.8771377    233.22923 0.0096936506 0.0078486979            2 
 2006000   0.45084123   -8.8710846     232.9572 0.0096775176 0.0078421011            4 
 2007000   0.45336517   -8.8970442    233.50682 0.0096955165 0.0078355072            2 
 2008000   0.45129953   -8.8918038    232.97677 0.0096686905 0.0078289218            2 
 2009000   0.44500522   -8.8889933    232.98652 0.0096642822 0.0078223479            2 
 2010000   0.44721573   -8.8722487    233.34902 0.0096745032 0.0078157781            3 
 2011000   0.45363925   -8.8951457    233.06083 0.0096577503 0.0078092115            2 
 2012000   0.44786764   -8.8752493    232.87678 0.0096453272 0.0078026471            2 
Loop time of 4858.71 on 48 procs for 2000000 steps with 4000 atoms

Performance: 71129.942 tau/day, 411.632 timesteps/s
99.4% CPU use with 48 MPI tasks x no OpenMP threads

MPI task timing breakdown:
Section |  min time  |  avg time  |  max time  |%varavg| %total
---------------------------------------------------------------
Pair    | 318.87     | 338.06     | 364.67     |  53.2 |  6.96
Neigh   | 31.892     | 33.463     | 35.246     |  14.7 |  0.69
Comm    | 299.7      | 328.79     | 350.5      |  58.9 |  6.77
Output  | 4.0752     | 4.077      | 4.1172     |   0.3 |  0.08
Modify  | 4104.6     | 4111.8     | 4120.2     |   5.8 | 84.63
Other   |            | 42.51      |            |       |  0.87

Nlocal:        83.3333 ave          87 max          78 min
Histogram: 2 2 0 8 5 10 4 5 7 5
Nghost:        2142.96 ave        2161 max        2126 min
Histogram: 2 3 5 6 10 10 2 4 4 2
Neighs:        14100.3 ave       15601 max       12483 min
Histogram: 1 5 1 2 15 8 7 3 4 2
FullNghs:      28200.2 ave       29590 max       26150 min
Histogram: 3 1 1 6 6 5 9 5 5 7

Total # of neighbors = 1353612
Ave neighs/atom = 338.40300
Neighbor list builds = 106879
Dangerous builds = 0

#clear
#
#next RN
#
#jump SELF
Total wall time: 1:21:02
