
units lj                  # Use reduced LJ style units
atom_style atomic         # Uncharged point particles
atom_modify map hash      # Needed for indexing of clusters etc
                          # Used to be able to find where atoms are in relation to each other.

lattice fcc 1.0 spacing 1 1 1
Lattice spacing in x,y,z = 1.5874011 1.5874011 1.5874011
region box block 0 10 0 10 0 10 units lattice
create_box 2 box
Created orthogonal box = (0.0000000 0.0000000 0.0000000) to (15.874011 15.874011 15.874011)
  3 by 4 by 4 MPI processor grid
create_atoms 1 box
Created 4000 atoms
  using lattice units in orthogonal box = (0.0000000 0.0000000 0.0000000) to (15.874011 15.874011 15.874011)
  create_atoms CPU = 0.002 seconds
set type 1 type/fraction 2 0.2 78393
Setting atom values ...
  836 settings made for type/fraction
mass 1 1.0
mass 2 1.0
pair_style lj/cut  3.5
pair_modify tail  yes
pair_coeff 1  1  1.0  1.0   # Intearaction between 1 and 1 set with epsilon = 1 and sigma = 1
pair_coeff 1  2  1.5  0.8
pair_coeff 2  2  0.5  0.88

write_data data.0
System init for write_data ...
Neighbor list info ...
  update every 1 steps, delay 10 steps, check yes
  max neighbors/atom: 2000, page size: 100000
  master list distance cutoff = 3.8
  ghost atom cutoff = 3.8
  binsize = 1.9, bins = 9 9 9
  1 neighbor lists, perpetual/occasional/extra = 1 0 0
  (1) pair lj/cut, perpetual
      attributes: half, newton on
      pair build: half/bin/atomonly/newton
      stencil: half/bin/3d
      bin: standard
WARNING: Not all mixed pair coeffs generated from mixing. Use write_data with 'pair ij' option to store all pair coeffs. (../write_data.cpp:312)


#############################
#   M E L T   S Y S T E M   #
#############################

velocity all create 2.4 3143649 mom yes dist gaussian # Assign velocities
                                                    # Temperature 2.4, random number seed, zero linear momentum
                                                                                # Gaussian distribution

timestep 0.002   # simulation timestep
thermo 1000       # output thermodynamic data every 1000 steps bf 100

# Define a fix  in this case with index 1 applied to all
# particles in the simulation. This fix is for simulations
# in the anisotropic NPT ensemble. Note that we use the MTK
# correction.
fix 1 all npt temp 2.4 2.4 0.1 iso 5.68 5.68 0.5 mtk yes tchain 5 pchain 5 # Use NPT ensemble
                                                                         # Set temperature and pressure and damping
                                                                         # Numbers of thermostats in chain and in barostat
run 10000          # run for 10000 steps
Per MPI rank memory allocation (min/avg/max) = 3.642 | 3.644 | 3.648 Mbytes
Step Temp E_pair E_mol TotEng Press Volume 
       0          2.4   -7.0365901            0   -3.4374901   -3.6176696         4000 
    1000    2.3629084   -4.8802398            0   -1.3367633    5.7911383    4426.2179 
    2000    2.3845196   -4.9167733            0   -1.3408881    5.6172302    4432.5625 
    3000    2.4380388   -4.8285145            0   -1.1723706    5.5975595     4491.923 
    4000    2.4208434   -4.9148849            0   -1.2845276    5.5078781    4451.1872 
    5000    2.3654016   -4.7854755            0   -1.2382601      5.74103    4487.2086 
    6000    2.4525731   -4.8604832            0   -1.1825433    5.6648266    4462.1569 
    7000    2.4665234   -4.7595545            0   -1.0606944    5.7481153    4506.1164 
    8000    2.3804028   -4.8470857            0   -1.2773742    5.6762681    4457.8938 
    9000    2.3671547   -4.8054671            0   -1.2556228    5.6772093    4489.0045 
   10000    2.3940797   -4.8002145            0   -1.2099928    5.7187075    4480.6818 
Loop time of 2.34304 on 48 procs for 10000 steps with 4000 atoms

Performance: 737504.785 tau/day, 4267.968 timesteps/s
99.6% CPU use with 48 MPI tasks x no OpenMP threads

MPI task timing breakdown:
Section |  min time  |  avg time  |  max time  |%varavg| %total
---------------------------------------------------------------
Pair    | 0.96257    | 1.0383     | 1.1919     |   5.2 | 44.31
Neigh   | 0.1941     | 0.2062     | 0.23564    |   1.9 |  8.80
Comm    | 0.64292    | 0.83315    | 0.97015    |   7.0 | 35.56
Output  | 0.00025128 | 0.00025534 | 0.00032083 |   0.0 |  0.01
Modify  | 0.19956    | 0.25034    | 0.30935    |   6.4 | 10.68
Other   |            | 0.0148     |            |       |  0.63

Nlocal:        83.3333 ave          92 max          75 min
Histogram: 2 7 3 3 9 8 4 8 1 3
Nghost:        1526.50 ave        1557 max        1500 min
Histogram: 4 3 5 7 8 7 4 5 4 1
Neighs:        8512.31 ave        9547 max        7411 min
Histogram: 4 3 3 7 5 8 3 8 3 4

Total # of neighbors = 408591
Ave neighs/atom = 102.14775
Neighbor list builds = 908
Dangerous builds = 220

# Equilibrate just above the melting temperature to avoid step fn in T

fix 1 all npt temp 1.25 1.25 0.1 iso 5.68 5.68 0.5 mtk yes tchain 5 pchain 5
run 2000
Per MPI rank memory allocation (min/avg/max) = 3.643 | 3.645 | 3.649 Mbytes
Step Temp E_pair E_mol TotEng Press Volume 
   10000    2.3940797   -4.8002145            0   -1.2099928    5.7187075    4480.6818 
   11000    1.2414599   -6.5636857            0   -4.7019614     5.649911    3643.8825 
   12000    1.2313527    -6.568699            0   -4.7221317    5.5924721    3642.8308 
Loop time of 0.506125 on 48 procs for 2000 steps with 4000 atoms

Performance: 682834.774 tau/day, 3951.590 timesteps/s
99.6% CPU use with 48 MPI tasks x no OpenMP threads

MPI task timing breakdown:
Section |  min time  |  avg time  |  max time  |%varavg| %total
---------------------------------------------------------------
Pair    | 0.2209     | 0.24556    | 0.27755    |   2.7 | 48.52
Neigh   | 0.031932   | 0.035012   | 0.038675   |   0.7 |  6.92
Comm    | 0.14064    | 0.17352    | 0.20343    |   3.7 | 34.28
Output  | 4.8527e-05 | 5.0912e-05 | 6.6378e-05 |   0.0 |  0.01
Modify  | 0.04219    | 0.047486   | 0.055749   |   1.7 |  9.38
Other   |            | 0.004504   |            |       |  0.89

Nlocal:        83.3333 ave          91 max          77 min
Histogram: 2 3 9 9 2 12 2 5 2 2
Nghost:        1750.44 ave        1779 max        1725 min
Histogram: 6 3 4 7 4 6 8 4 4 2
Neighs:        10484.6 ave       11792 max        9516 min
Histogram: 3 8 5 8 7 4 7 3 1 2

Total # of neighbors = 503262
Ave neighs/atom = 125.81550
Neighbor list builds = 144
Dangerous builds = 10

#############################
# L I N E A R  Q U E N C H  #
#############################

# Define solid atoms. This closely follows ten Wolde  Ruiz-Montero and Frenkel  Faraday Discuss  1996  104  93-110
# Compute components of the per-atom q6 vector
compute q6 all orientorder/atom degrees 1 6 components 6 nnn NULL cutoff 1.3 # compute the Q6 parameter.
                                                                             # Use all neighbours within 1.3 unit cell.

# get number of connections
compute coord_number all coord/atom orientorder q6 0.5

# An atom is solid if it has 8 or more connections (of a possible 14)
variable is_solid atom c_coord_number>=8
group solid dynamic all var is_solid    # Must be dynamic to update
dynamic group solid defined

# do clustering
compute cluster solid cluster/atom 1.3 # Create a cluster where all atoms within are solid and max 1.3 units from another member

# define chunks one chunk per cluster
compute clus_chunks solid chunk/atom c_cluster nchunk every compress yes  # Says which atoms are in which chunk

# count the size of each chunk
compute size_chunks solid property/chunk clus_chunks count


# Find the maximum entry in the vector of chunk sizes
variable max_n equal max(c_size_chunks)


# Thermo style which includes this variable
# thermo_style custom step temp pe vol v_max_n

thermo ${N}  # Print the thermo information every 100 steps
thermo 1000  

# Reset the npt fix at a lower temperature (below freezing)
fix 1  all npt temp  ${temp} ${temp}  0.1  iso  5.68  5.68  0.5  mtk yes tchain  5  pchain  5
fix 1  all npt temp  0.45 ${temp}  0.1  iso  5.68  5.68  0.5  mtk yes tchain  5  pchain  5
fix 1  all npt temp  0.45 0.45  0.1  iso  5.68  5.68  0.5  mtk yes tchain  5  pchain  5

dump dmp2 all dcd ${N} traj.dcd
dump dmp2 all dcd 1000 traj.dcd


compute msd all msd com yes
variable twopoint equal c_msd[4]/6/(step*dt+1.0e-6)
fix 9 all vector 10 c_msd[4]
variable fit equal slope(f_9)/6/(10*dt)
thermo_style custom step temp pe c_msd[4] v_twopoint v_fit v_max_n

fix 1 all npt temp 1.25 ${temp} 0.1 iso 5.68 5.68 0.5 mtk yes tchain 5 pchain 5
fix 1 all npt temp 1.25 0.45 0.1 iso 5.68 5.68 0.5 mtk yes tchain 5 pchain 5
run 5000000 # 5000000  # Run for this many steps
Neighbor list info ...
  update every 1 steps, delay 10 steps, check yes
  max neighbors/atom: 2000, page size: 100000
  master list distance cutoff = 3.8
  ghost atom cutoff = 3.8
  binsize = 1.9, bins = 9 9 9
  4 neighbor lists, perpetual/occasional/extra = 1 3 0
  (1) pair lj/cut, perpetual
      attributes: half, newton on
      pair build: half/bin/atomonly/newton
      stencil: half/bin/3d
      bin: standard
  (2) compute orientorder/atom, occasional
      attributes: full, newton on
      pair build: full/bin/atomonly
      stencil: full/bin/3d
      bin: standard
  (3) compute coord/atom, occasional
      attributes: full, newton on
      pair build: full/bin/atomonly
      stencil: full/bin/3d
      bin: standard
  (4) compute cluster/atom, occasional
      attributes: full, newton on
      pair build: full/bin/atomonly
      stencil: full/bin/3d
      bin: standard
Per MPI rank memory allocation (min/avg/max) = 9.773 | 9.780 | 9.787 Mbytes
Step Temp PotEng c_msd[4] v_twopoint v_fit v_max_n 
   12000    1.2313527    -6.568699            0            0 8.3333333e+20            2 
   13000    1.2761142   -6.5955948    0.5364305 0.0034386569  0.044056691            3 
   14000    1.2424422   -6.5282045    1.0637653 0.0063319363  0.044063192            4 
   15000    1.2476642    -6.580888    1.6080021 0.0089333447  0.044368154            1 
   16000    1.2605319   -6.5478739    2.1801208  0.011354796  0.044962093            2 
   17000    1.2289418   -6.5387362    2.6576064  0.013027482  0.044408337            1 
   18000    1.2406899   -6.5364928     3.197413  0.014802838  0.044326468            1 
   19000    1.2640932   -6.5110437    3.7069481  0.016258544  0.044189725            1 
   20000    1.2579985   -6.6013385    4.2457207  0.017690503    0.0440395            1 
   21000    1.2547243   -6.5762111    4.6999499  0.018650594  0.043896343            1 
   22000    1.2469171   -6.5674028    5.1652415  0.019565308  0.043487761            2 
   23000    1.2523935   -6.5466981    5.6982421  0.020645804  0.043107552            1 
   24000    1.2760458   -6.5511788    6.2754978  0.021789922  0.043004611            1 
   25000    1.2643537   -6.5840318    6.8622378  0.022874126  0.043199498            5 
   26000    1.2573207   -6.5789499    7.3080183  0.023423135  0.043333855            2 
   27000    1.2511179   -6.5652662    7.8369372  0.024188077  0.043303401            1 
   28000    1.2408075   -6.5500642    8.3384729  0.024816883  0.043294721            7 
   29000    1.2502827   -6.5636731    8.8794602   0.02551569  0.043254743            3 
   30000    1.2411906   -6.5727365    9.3418461  0.025949572  0.043246061            1 
   31000    1.2474191   -6.5870416    9.8143298  0.026382607  0.043126572            3 
   32000    1.2319507   -6.5248462     10.44328   0.02719604  0.043068073            1 
   33000    1.2732231   -6.5371184    11.046279  0.027894644  0.043178577            2 
   34000    1.2260819    -6.614785    11.626156   0.02849548  0.043301858            4 
   35000     1.248339   -6.5172785    12.107149  0.028826545  0.043418271            4 
   36000    1.2509999   -6.6065625    12.654632  0.029293129  0.043475408            3 
   37000    1.2600541   -6.5811486     13.17103  0.029664482  0.043530888            1 
   38000    1.2412511   -6.5907095    13.746312  0.030145421  0.043549256            2 
   39000    1.2770015   -6.5427705     14.18443   0.03030861  0.043604305            3 
   40000    1.2632836   -6.6016941    14.572373  0.030359111  0.043578868            2 
   41000    1.2463805   -6.5858351    15.012863  0.030513948  0.043506009            4 
   42000    1.2366049   -6.5981025    15.564127  0.030881204   0.04342662            1 
   43000    1.2655137    -6.581769    16.060814  0.031125608   0.04335937            3 
   44000    1.2279986   -6.5743099    16.666806   0.03156592  0.043341389            4 
   45000    1.2460089    -6.550115     17.14935  0.031758056  0.043319691            1 
   46000    1.2482261   -6.5523288    17.558627  0.031809107  0.043293416            1 
   47000    1.2375846   -6.5814186    17.955277  0.031835598  0.043223448            2 
   48000    1.2708304    -6.597812    18.326636  0.031817076  0.043085577            2 
   49000    1.2303132   -6.5367792    18.760448  0.031905523  0.042931066            2 
   50000    1.2296009   -6.6259704    19.110075  0.031850125  0.042746721            2 
   51000    1.2068614   -6.5956823    19.593501  0.032015524  0.042573254            1 
   52000    1.2284942   -6.5952665    20.100166  0.032211805  0.042408911            1 
   53000    1.2431272   -6.5940243    20.519196  0.032262886  0.042279607            1 
   54000    1.2488732   -6.5627649    21.023328  0.032443407  0.042163298            2 
   55000    1.2312662    -6.540356    21.483814  0.032551234   0.04203472            5 
   56000    1.2479985   -6.6105685     21.96079  0.032679747  0.041923915            2 
   57000    1.2340415   -6.6016306    22.636823   0.03309477  0.041842115            2 
   58000    1.2642493   -6.6076696    23.125619  0.033226463  0.041787168            3 
   59000    1.2450577    -6.610408     23.48367  0.033169025   0.04172102            5 
   60000    1.2458543   -6.5644991    24.095159  0.033465499  0.041678499            1 
   61000    1.2206996   -6.5701778    24.551275  0.033539992  0.041622725            2 
   62000    1.2748992    -6.558735    24.884268  0.033446597    0.0415434            2 
   63000    1.2103772   -6.6092498    25.134742  0.033247013  0.041449026            1 
   64000    1.2447909   -6.5778087    25.649481  0.033397762  0.041351208            1 
   65000    1.2471444   -6.5540629    26.113663  0.033479055  0.041246126            2 
   66000    1.2404095   -6.6063791    26.480594  0.033435093  0.041145731            3 
   67000    1.2200214    -6.600542    26.965748  0.033539488    0.0410614            1 
   68000    1.2518432   -6.5711275    27.746368  0.034002901  0.040996137            1 
   69000    1.2544203   -6.6190766    28.188939  0.034044612  0.040949662            1 
   70000    1.2723217   -6.5951827    28.679019  0.034141689  0.040909118            2 
   71000    1.2655357   -6.6003993     29.17295  0.034240551  0.040867731            1 
   72000    1.2513258   -6.5626574    29.715304  0.034392713  0.040837886            2 
   73000    1.2658578   -6.5648796    30.018698   0.03426792  0.040796306            1 
   74000    1.2216265    -6.612795    30.518417  0.034367586  0.040754755            2 
   75000    1.2187138   -6.5934977    31.266306   0.03474034  0.040735436            1 
   76000    1.2459328   -6.6263123    31.800938  0.034869449     0.040738            2 
   77000    1.2425239   -6.5784329    32.258286  0.034911564  0.040734698            1 
   78000    1.2243731    -6.556152    32.665292  0.034898816  0.040731705            1 
   79000    1.2312438   -6.5940056    33.160109  0.034979018  0.040727372            2 
   80000    1.2384057   -6.5788559     33.84599   0.03525624  0.040729653            1 
   81000    1.2004261   -6.5831576    34.115633  0.035098388  0.040719331            1 
   82000    1.2221464   -6.6273065    34.662113  0.035225725  0.040712389            2 
   83000     1.260351   -6.5720701     35.42046  0.035562711  0.040716046            1 
   84000    1.2456685   -6.6365396    35.749584  0.035465856  0.040725752            2 
   85000    1.2470417   -6.5505234    36.224915  0.035514623  0.040729419            2 
   86000    1.2197592   -6.5686687    36.497578   0.03536587  0.040713201            3 
   87000    1.2013654   -6.6399406    36.778712  0.035228651  0.040690638            2 
   88000    1.2162603   -6.6004652    37.313246  0.035334513  0.040664845            2 
   89000    1.2400272   -6.5779094     37.72038  0.035318708  0.040640304            1 
   90000     1.248082   -6.6001963    38.042919  0.035224925  0.040606906            1 
   91000    1.2802149   -6.5610548    38.696099  0.035435987  0.040576659            1 
   92000    1.2489025   -6.5872639    39.026468  0.035350062  0.040546121            2 
   93000    1.2178541    -6.601673    39.471824  0.035369018  0.040513427            2 
   94000    1.2424642   -6.6242296    40.257662  0.035689417  0.040490622            1 
   95000    1.2295657   -6.6333893    40.890111  0.035868519  0.040481085            2 
   96000     1.231974   -6.5909139    41.328417  0.035875362  0.040479154            3 
   97000    1.1897309   -6.6528669    41.703338   0.03582761  0.040469573            2 
   98000    1.2269922   -6.6078102    42.154626   0.03584577  0.040457934            1 
   99000    1.2781868   -6.5956575    42.666802  0.035914816  0.040448866            2 
  100000    1.2595543   -6.5892844    43.309678  0.036091398  0.040443601            2 
  101000     1.214699   -6.5646025    43.884289  0.036208159  0.040447843            4 
  102000    1.2440111   -6.5818779    44.545861  0.036393677  0.040459424            1 
  103000    1.2357994   -6.5892366    44.943133  0.036361758  0.040461913            2 
  104000    1.2277998   -6.6127599    45.528102  0.036480851  0.040465978            1 
  105000     1.220917   -6.5717959    46.056853  0.036553058  0.040476217            3 
  106000    1.2331807   -6.5732268    46.320525  0.036415507   0.04048604            1 
  107000    1.2272703   -6.5620164    47.071621  0.036660141  0.040499298            2 
  108000    1.2282194   -6.5815603    47.526396  0.036671602  0.040510617            5 
  109000    1.2388958   -6.6157487    48.320167  0.036942024  0.040536528            2 
  110000    1.2374089   -6.5702986    48.893442  0.037040486  0.040567102            2 
  111000    1.2317372   -6.5895932    49.250023  0.036974491  0.040593699            2 
  112000    1.2569029   -6.5789043    49.955602  0.037169347  0.040619875            2 
  113000    1.2459596   -6.5631396     50.24446  0.037053436  0.040644357            2 
  114000    1.2647524   -6.6057721    50.818253  0.037147846  0.040670421            2 
  115000    1.2455401   -6.6291444    51.448572  0.037281574     0.040698            1 
  116000    1.2291495   -6.5804497    51.746969  0.037174547  0.040727769            3 
  117000    1.2365449   -6.6180988    52.523285  0.037409747  0.040751325            3 
  118000    1.2560681   -6.5934188    52.890182  0.037351823  0.040777295            1 
  119000    1.2404804   -6.6281097    53.416758  0.037406693  0.040802169            2 
  120000    1.2289508   -6.6000656    53.876377  0.037414151  0.040822503            3 
  121000     1.226322   -6.5847115    54.277719  0.037381349  0.040841083            1 
  122000    1.2476021   -6.6410061    54.568924  0.037273855  0.040857558            2 
  123000    1.2481501   -6.6485125    54.904284  0.037198024  0.040866018            3 
  124000    1.2238325   -6.6031349    55.618944  0.037378323  0.040875224            1 
  125000    1.2469818   -6.6001806    56.081296   0.03738753  0.040885278            2 
  126000     1.221659   -6.6076289    56.667728  0.037478656  0.040897117            1 
  127000    1.2539852   -6.6254087    57.099991  0.037467186   0.04090807            1 
  128000    1.2221139   -6.5807879    57.588422  0.037492462  0.040913884            1 
  129000    1.2416135   -6.6108059    57.866379  0.037381382  0.040917967            2 
  130000    1.2391974   -6.6147423    58.342169  0.037398826  0.040919705            2 
  131000    1.2248383   -6.5961985    58.629758  0.037296284  0.040919857            3 
  132000     1.228999   -6.6084982    59.149862  0.037342084  0.040915656            1 
  133000     1.203222   -6.6132695     59.88234  0.037520263  0.040916068            3 
  134000    1.2265032   -6.6377298    60.482785  0.037613672  0.040920545            1 
  135000    1.2326172   -6.6224151     61.19785  0.037776451  0.040931852            3 
  136000    1.2232828   -6.6160713    61.382403  0.037611766  0.040941717            2 
  137000    1.2228815   -6.6114787    62.233321  0.037854818  0.040947863            1 
  138000    1.2281024   -6.5706422    62.821918   0.03793594  0.040955542            1 
  139000    1.2139206   -6.6051956    62.966053  0.037749432  0.040961015            2 
  140000    1.2327452   -6.6401981    63.237095  0.037641128   0.04096244            3 
  141000    1.2366224   -6.5841331    64.034208  0.037845277  0.040968104            1 
  142000    1.2418239   -6.5603208    64.522453  0.037865289  0.040971621            2 
  143000    1.2262981   -6.6388995    64.715559   0.03771303  0.040973156            2 
  144000    1.2240693   -6.6362825    65.186334  0.037723573  0.040977158            1 
  145000    1.2049835   -6.6016972    65.949122  0.037901794  0.040979905            7 
  146000    1.2225189   -6.5850472    66.335664  0.037862822  0.040980784            2 
  147000    1.2352848   -6.6391506    66.574261  0.037740511  0.040977027            2 
  148000    1.2454988   -6.6076048     66.98357  0.037715974   0.04097146            1 
  149000    1.2689081   -6.5730116    67.809483  0.037924767  0.040968582            2 
  150000    1.2326431   -6.6160811    68.261865  0.037923258  0.040967178            6 
  151000    1.2261357   -6.5871963    68.886311  0.038016728  0.040967505            2 
  152000    1.2279211   -6.6011572    69.098293  0.037882836  0.040965401            2 
  153000    1.2375753   -6.6008124    69.859863  0.038050034  0.040963077            3 
  154000    1.2145925   -6.6408741    70.126199  0.037947077  0.040964748            2 
  155000    1.2407482   -6.6155818    70.612867  0.037963907  0.040964779            3 
  156000    1.1939051   -6.5949754    70.798258  0.037819582  0.040960664            1 
  157000    1.2555175   -6.5729329    71.444313   0.03792161  0.040954499            1 
  158000    1.2487126   -6.6032248    71.504035  0.037713098  0.040944116            2 
  159000    1.2238475   -6.6376106    72.001802  0.037736793  0.040930944            4 
  160000    1.2119587   -6.5696357    72.658756  0.037843102  0.040916794            1 
  161000    1.2240189   -6.6460282    73.044956  0.037807948  0.040905643            3 
  162000    1.2131985   -6.6218107    73.407238  0.037760925  0.040893919            1 
  163000    1.2031775   -6.5827218    74.156283   0.03791221  0.040881793            1 
  164000    1.2335068   -6.6255957    74.223056  0.037714967  0.040871658            4 
  165000    1.2245882   -6.6031686    74.832042   0.03779396  0.040857836            2 
  166000    1.2368943   -6.6211129     75.48121  0.037892174  0.040845878            2 
  167000     1.215635   -6.6340994     75.64219  0.037745604  0.040832554            3 
  168000    1.2438591   -6.5976092    76.382508  0.037888148  0.040819793            4 
  169000    1.2142599   -6.6185471    76.443007   0.03769379  0.040807254            4 
  170000    1.2268798    -6.650428    77.012261  0.037751108  0.040789672            2 
  171000    1.2310016   -6.6201608    77.055306  0.037551319  0.040767634            2 
  172000    1.2365937   -6.6254012    77.691101  0.037641037  0.040746566            1 
  173000     1.208353   -6.6463779    78.076365  0.037609039  0.040728131            4 
  174000    1.2014987   -6.6063992    78.850051  0.037763434  0.040711275            1 
  175000    1.2513866   -6.6287589    79.262664  0.037744125  0.040692231            2 
  176000    1.2524639   -6.6112742    79.252638  0.037524923  0.040668537            2 
  177000    1.2089418   -6.6570523    80.268845  0.037791358  0.040644496            2 
  178000    1.2423196   -6.6410977     80.18141  0.037538113  0.040622551            2 
  179000    1.2331126   -6.6457848     80.73606   0.03758662  0.040600595            3 
  180000    1.2258938   -6.6182927    81.321943  0.037649047   0.04057815            1 
  181000    1.2077826   -6.5889354    81.853393  0.037685724  0.040559156            2 
  182000    1.2345432   -6.5765058    82.342398  0.037702563  0.040542876            2 
  183000    1.2253892   -6.6266028    82.736607   0.03767605  0.040526721            1 
  184000    1.2302638   -6.6115188    83.178148  0.037671263  0.040506956            2 
  185000    1.2179771   -6.5989175    83.824514   0.03775879  0.040489602            1 
  186000    1.2088161   -6.6548391    83.905095  0.037591888  0.040469958            4 
  187000    1.2272153   -6.5827193    84.841861  0.037808316  0.040451219            1 
  188000    1.2395366   -6.5987469    85.049181  0.037699105  0.040434693            2 
  189000    1.2033491   -6.6350791    85.663766   0.03777062  0.040417803            3 
  190000    1.2094959   -6.6152482    86.167554  0.037792787  0.040399242            1 
  191000    1.2205929   -6.6022294    86.424862  0.037707182  0.040381226            1 
  192000    1.2050031   -6.6081233    86.516228  0.037550446  0.040358893            2 
  193000    1.2245584   -6.6111536    87.058245  0.037589916   0.04033545            3 
  194000    1.2069719   -6.6165006    87.502254  0.037586879  0.040310933            4 
  195000    1.2215893   -6.6047423    87.630961  0.037449129  0.040285684            4 
  196000    1.1958365    -6.615716    87.873225  0.037361065  0.040258867            2 
  197000    1.2242568   -6.6048715    88.666186  0.037506847  0.040236144            2 
  198000    1.2041865   -6.5883738    89.339564  0.037600827  0.040215088            2 
  199000    1.2357209    -6.607404    90.010383   0.03769279  0.040197933            2 
  200000    1.2152676   -6.5884138    90.579371  0.037741404  0.040181836            1 
  201000    1.2128622   -6.6583662     90.40204  0.037480116  0.040164936            2 
  202000    1.2313044   -6.6430464    91.340428  0.037681695  0.040146534            2 
  203000    1.2231288   -6.6318765    91.713195  0.037649095  0.040129308            2 
  204000    1.2397608   -6.6604833    92.182172  0.037656116  0.040111066            2 
  205000    1.2260461   -6.6184525    92.398464  0.037560351  0.040092876            2 
  206000    1.2110531   -6.5823469    93.156248  0.037684566  0.040073963            2 
  207000    1.2215932   -6.6193381    93.000786   0.03743993  0.040055037            1 
  208000    1.2167624    -6.653584    93.605205  0.037502085  0.040032562            2 
  209000    1.1939657   -6.6686514    94.030263   0.03749213  0.040009481            1 
  210000    1.2355984   -6.6473479    94.415602  0.037466508  0.039990262            1 
  211000    1.2280927   -6.6491416     95.00281  0.037520857  0.039970875            3 
  212000    1.2145696   -6.5842069    95.609936  0.037582522  0.039952077            2 
  213000    1.2020767   -6.5928714    95.978862  0.037550415  0.039931734            2 
  214000    1.2078787   -6.5694491    96.730269   0.03766755  0.039912148            1 
  215000    1.2326779   -6.6044676    97.379241  0.037743892  0.039895942            2 
  216000    1.1953061   -6.6523374    96.986355  0.037417575  0.039879818            2 
  217000    1.2283322   -6.6354702    97.362385  0.037389549  0.039859796            2 
  218000     1.217998   -6.6233808    97.873246   0.03741332  0.039838904            1 
  219000    1.2130399   -6.6844643    98.143498  0.037345319  0.039820248            2 
  220000    1.2265977   -6.6571455     98.67784   0.03737797  0.039800841            3 
  221000    1.2021414   -6.5882664    99.649864  0.037575363  0.039782433            2 
  222000      1.23555    -6.620562    99.646281   0.03740476  0.039764285            4 
  223000    1.2385714   -6.6104157    100.13837  0.037420914   0.03974665            3 
  224000    1.2127251   -6.6616943    100.58141  0.037418679  0.039730552            2 
  225000      1.22193   -6.6071793      101.681  0.037659631  0.039713243            2 
  226000    1.2152642   -6.6098054    102.07527  0.037638375  0.039697996            2 
  227000    1.2538496    -6.578132    102.55517  0.037648741  0.039683165            2 
  228000    1.2167492   -6.5931028    103.54498  0.037845386  0.039672304            2 
  229000    1.2249031   -6.6419095    103.80554   0.03777494  0.039661217            1 
  230000    1.2270347   -6.6118705     103.8019  0.037609383  0.039650477            1 
  231000    1.2110475   -6.6591256    104.59605  0.037733061   0.03964135            1 
  232000    1.2217086   -6.6194086    105.49472  0.037893217  0.039636131            2 
  233000    1.1924214   -6.6300797    106.03268  0.037922989  0.039632155            3 
  234000    1.1972122   -6.6408032    106.39778  0.037890947  0.039627085            4 
  235000    1.1897159   -6.6449255    106.48523  0.037760718  0.039622927            4 
  236000    1.1971559   -6.6261649    107.02446  0.037791121  0.039617307            1 
  237000    1.1772027   -6.6019984    107.63277  0.037845558  0.039610794            3 
  238000    1.2160938   -6.6363371    108.16139  0.037871637  0.039603619            2 
  239000    1.2120616   -6.5979625    108.57861  0.037858649  0.039596201            3 
  240000      1.21139    -6.594969    108.76606  0.037765993  0.039587471            2 
  241000    1.2010286   -6.6075986    109.44698  0.037844737  0.039577696            1 
  242000    1.2009768   -6.6007568    109.29029  0.037634399  0.039566473            4 
  243000    1.1943938   -6.6116868    109.69491  0.037618281  0.039553691            3 
  244000    1.2013321   -6.6183064    109.98307  0.037562523  0.039538543            2 
  245000    1.2028087   -6.5942743    110.66572  0.037641403  0.039521794            2 
  246000    1.1931319   -6.6888922    110.80913  0.037536967  0.039506497            2 
  247000    1.1763109     -6.60387    111.17289  0.037507721  0.039492386            6 
  248000    1.2233243   -6.6224297    112.06405  0.037655932  0.039479762            3 
  249000    1.2204571   -6.6624258    112.22096  0.037557214  0.039465854            2 
  250000    1.2215984    -6.631077    112.56956  0.037523187  0.039451894            2 
  251000    1.2118716   -6.6590775    113.28834  0.037612329  0.039437968            1 
  252000    1.1976174   -6.6140074     114.3733   0.03782186  0.039426971            3 
  253000    1.2144046   -6.6188856    114.42569  0.037689621    0.0394172            2 
  254000    1.1913489   -6.6328394    114.73569  0.037642944  0.039405214            2 
  255000    1.2079103   -6.6146117    115.38718   0.03770823  0.039393555            1 
  256000    1.2299375   -6.6704631    114.91655   0.03740773  0.039382022            2 
  257000     1.218006   -6.6367538     115.6344  0.037494943   0.03936968            1 
  258000    1.2194799   -6.6492937    116.53611  0.037640863  0.039357553            1 
  259000    1.2235925   -6.6348211    116.79948  0.037580271  0.039345878            3 
  260000    1.2051095   -6.6451054    117.41411  0.037632728  0.039332815            2 
  261000    1.1991157   -6.6507808    117.64614  0.037562626  0.039321192            2 
  262000    1.1936328   -6.6861518    118.14245  0.037577115  0.039309249            2 
  263000     1.195528   -6.6630988    118.81367  0.037646916  0.039297864            3 
  264000    1.2098986   -6.6337542    119.26628  0.037647184  0.039287591            2 
  265000    1.1961337   -6.6209399    119.94885  0.037719765  0.039278303            2 
  266000    1.2124379   -6.6252267    120.48121  0.037744739  0.039270421            1 
  267000    1.2120011   -6.6182228    120.31183  0.037550509  0.039263319            2 
  268000    1.2336876   -6.6434413    120.96592   0.03761378  0.039254331            2 
  269000    1.2024427   -6.6333996    121.51323  0.037643503   0.03924551            2 
  270000    1.1973015   -6.6582395    121.96283  0.037642848   0.03923746            2 
  271000    1.1941795   -6.6275702    122.83447  0.037771978  0.039230482            1 
  272000    1.2136928   -6.6342493    123.17122  0.037736282  0.039223794            3 
  273000    1.1802105   -6.6459045    123.89627  0.037819373  0.039216768            4 
  274000     1.195168   -6.6310649    124.15702   0.03776065  0.039208503            4 
  275000    1.1966033   -6.6392768    124.30315   0.03766762  0.039200181            1 
  276000    1.2083995   -6.6351723    124.82984   0.03769017  0.039192289            3 
  277000    1.2129382   -6.6686076    124.91734  0.037580428  0.039184898            2 
  278000    1.1959336   -6.6333179    125.28184  0.037554507     0.039175            2 
  279000    1.2287485   -6.6581247    125.93721  0.037615654  0.039166706            1 
  280000    1.2271586   -6.6278533    126.67431  0.037700687  0.039158593            2 
  281000    1.1897339   -6.6469587     127.1841  0.037717705   0.03915097            2 
  282000    1.2034577   -6.6557037    127.81593  0.037770666  0.039145082            3 
  283000    1.1844631   -6.6383852    128.13536   0.03773126  0.039138821            1 
  284000    1.2250243   -6.6640269    128.15081  0.037602937  0.039131821            1 
  285000    1.1970441   -6.6521276    128.98364  0.037714514  0.039123447            2 
  286000    1.2034062   -6.6159891     129.4308  0.037712936  0.039116658            2 
  287000     1.221859   -6.6383815    130.44736  0.037876701  0.039110563            2 
  288000    1.2086989   -6.6694622    130.38999  0.037728585  0.039104816            1 
  289000    1.2032824   -6.6683005    130.68954  0.037684412  0.039098608            3 
  290000    1.2053071   -6.6723954    131.27076  0.037721483  0.039092824            1 
  291000    1.2082192   -6.6807991    131.73528  0.037724881  0.039086765            2 
  292000    1.2145076   -6.6518684    132.08757  0.037696225  0.039080519            1 
  293000     1.215246   -6.6704507    132.46746  0.037675615  0.039074295            1 
  294000    1.1862411   -6.6389202    133.08902  0.037723646  0.039067848            1 
  295000    1.2198754   -6.6609387    133.37787  0.037677365   0.03906114            2 
  296000    1.2077855    -6.685205    133.13403  0.037481428  0.039053477            2 
  297000    1.1948509   -6.6701364    134.38443   0.03770607  0.039046727            2 
  298000    1.2172822   -6.6619352    134.54681  0.037624948  0.039040663            3 
  299000    1.1827097   -6.7012066    134.90788  0.037599744  0.039031992            2 
  300000    1.2398283   -6.6547792    135.37819  0.037605054   0.03902397            1 
  301000    1.2020205   -6.6340993    135.88762  0.037621157  0.039016702            2 
  302000    1.1735118   -6.6516288    136.68254  0.037715932  0.039008236            1 
  303000    1.1954386    -6.683244    137.23936  0.037744599  0.039001512            3 
  304000    1.2151692   -6.6476877    137.61463   0.03772331  0.038994755            2 
  305000    1.1913254   -6.6448158    138.26398  0.037777043  0.038989235            2 
  306000    1.2006458   -6.6196618    138.59966  0.037745005  0.038984565            2 
  307000    1.2205771   -6.6660289    139.31025  0.037814943  0.038979833            2 
  308000     1.184316   -6.6408412    139.74145  0.037808833  0.038975308            1 
  309000    1.2075513     -6.68617    140.44195   0.03787539  0.038971585            3 
  310000    1.2043799   -6.6423418    140.63618  0.037805424  0.038968232            1 
  311000    1.1869203   -6.6564243    140.39335  0.037618797  0.038962421            1 
  312000      1.21647   -6.6898516     141.0824  0.037682265  0.038956292            2 
  313000    1.2056692   -6.6799654    141.03502   0.03754926  0.038949472            3 
  314000    1.1899299   -6.6831751    141.47945  0.037547625  0.038940395            3 
  315000    1.2582256   -6.6191025    142.06121  0.037582331  0.038931759            4 
  316000    1.1895142   -6.6569967    142.41348  0.037556298  0.038924726            2 
  317000    1.1873626   -6.6978173    143.20836  0.037646783  0.038917358            1 
  318000    1.2200659   -6.6780254    143.49742  0.037604146  0.038908964            2 
  319000    1.2200096   -6.6761623    144.32947  0.037703622  0.038901986            5 
  320000    1.2354108   -6.6393566    144.81791  0.037712997  0.038896052            2 
  321000    1.2101033   -6.6746092    145.08292  0.037664309  0.038889825            7 
  322000    1.1758354   -6.6212845    146.28802  0.037859219  0.038885826            1 
  323000    1.2300322   -6.6480511    146.21343  0.037722762  0.038882081            3 
  324000    1.2175838   -6.6356972    147.82295  0.038020305  0.038878717            2 
  325000    1.2313129   -6.6777104    147.30127  0.037769557  0.038874501            2 
  326000    1.1990858   -6.6930228    147.35147  0.037666531  0.038869656            3 
  327000    1.1654338   -6.6607511    147.83528  0.037674637  0.038864423            1 
  328000    1.2069097   -6.5658174    149.30671  0.037933616  0.038861301            2 
  329000    1.2316628   -6.6268869    149.76067    0.0379333  0.038858232            1 
  330000    1.1993992   -6.6789513    149.70807  0.037805068  0.038855079            1 
  331000    1.1913717   -6.6362675    150.14225  0.037800163  0.038851707            2 
  332000    1.1766839   -6.6997988    151.08493  0.037922925   0.03884815            3 
  333000    1.2031039   -6.6325237    151.24033   0.03784793  0.038845428            2 
  334000    1.1977277   -6.7036471    151.41071  0.037777124  0.038843149            2 
  335000    1.1814597   -6.6683896    152.01217  0.037813973  0.038840081            1 
  336000    1.2237864   -6.6915031    152.42376  0.037803511  0.038836947            4 
  337000    1.1927194   -6.6434179    153.34961   0.03792028   0.03883412            1 
  338000    1.2089391   -6.6426353    153.21726  0.037775459  0.038830689            2 
  339000    1.1924495   -6.6715107    153.83136  0.037814986  0.038827719            2 
  340000    1.2117505   -6.6807508    153.94626  0.037731927  0.038824427            3 
  341000    1.1932476    -6.657006    154.53439  0.037765003  0.038821624            1 
  342000    1.1858103   -6.6730375    155.32934  0.037848281  0.038817999            2 
  343000    1.1764558   -6.6304346    155.74284  0.037838396  0.038814717            2 
  344000    1.2443608   -6.7195124    155.72769   0.03772473  0.038811021            3 
  345000    1.1927295   -6.6866791    155.93168  0.037664657  0.038806762            2 
  346000    1.1782415   -6.6820406    156.45401  0.037681601  0.038801037            4 
  347000     1.185507   -6.6510426    157.60835  0.037850227  0.038795398            3 
  348000    1.2129978   -6.7503736     157.5233  0.037721096  0.038790679            2 
  349000    1.1870804   -6.6702961    158.34012  0.037808051  0.038786972            1 
  350000    1.1882089     -6.65792      159.152  0.037893332  0.038783374            5 
  351000    1.1870632   -6.6829475    158.68788  0.037675185  0.038779695            4 
  352000    1.2140347   -6.6264778    160.07289  0.037896043  0.038775285            3 
  353000     1.173286   -6.6547303    160.12584  0.037801191  0.038772465            2 
  354000    1.1849262   -6.6888467    160.19763  0.037711306  0.038769128            1 
  355000    1.1918956   -6.6667383    160.41022   0.03765498  0.038765624            2 
  356000    1.1977744   -6.6987703    160.90013  0.037663889  0.038761448            1 
  357000    1.1921207   -6.6875599    161.52725  0.037704773  0.038756522            1 
  358000    1.1931255   -6.7008592    161.68347  0.037635817  0.038750952            1 
  359000    1.1977385    -6.637157    162.26647  0.037666311  0.038746256            2 
  360000    1.1988221   -6.6959313    162.59044  0.037636675  0.038741925            2 
  361000    1.1995707   -6.6388638    164.45298  0.037962368  0.038737462            4 
  362000    1.1916996   -6.6819767    164.10202  0.037776707  0.038733677            2 
  363000    1.1732805   -6.6806889    164.90422    0.0378568   0.03873081            2 
  364000    1.2159659   -6.6711886    165.59652  0.037911291  0.038728506            2 
  365000    1.1851744   -6.7141881    165.84783  0.037864801  0.038726361            2 
  366000    1.1909344   -6.6451946    166.59861  0.037932289  0.038723723            2 
  367000     1.196439   -6.6864562    167.37177   0.03800449  0.038722786            2 
  368000    1.1782091   -6.6525632    167.06613  0.037832005   0.03871955            2 
  369000    1.1963285   -6.6540545    167.59681  0.037849324  0.038716348            1 
  370000    1.2183835   -6.6327892    167.68798  0.037767562  0.038712894            1 
  371000     1.167928   -6.6374482     168.2502  0.037792049  0.038708773            3 
  372000    1.1930715   -6.6960619    168.18817  0.037676562  0.038704824            2 
  373000    1.1872424   -6.7117871    168.74337  0.037699592  0.038700496            2 
  374000     1.185606   -6.6760825     169.7176  0.037815864  0.038697013            3 
  375000    1.1874356   -6.6475576    169.80202  0.037733782  0.038692883            1 
  376000    1.2050104   -6.6731479    170.98021  0.037894551  0.038689721            1 
  377000    1.2070119   -6.6859742    171.51232  0.037911654  0.038688302            2 
  378000     1.211511   -6.6997585    171.43387  0.037794062  0.038685857            1 
  379000     1.196922   -6.6867143     172.0653  0.037833179   0.03868386            1 
  380000    1.1994808   -6.6618764    172.18519  0.037759909  0.038679807            3 
  381000    1.2090236   -6.6572415    173.47176  0.037942206  0.038676291            1 
  382000    1.1770527   -6.6624659    173.01157  0.037742489  0.038674511            1 
  383000    1.2001217   -6.7268576    173.75539  0.037805786  0.038672331            4 
  384000     1.195445    -6.664802    174.07853  0.037777458  0.038668605            2 
  385000    1.1913714   -6.6904466    174.86703  0.037850007  0.038665057            1 
  386000    1.2035638   -6.6922046    175.06593  0.037794889  0.038662764            3 
  387000    1.1905012   -6.6817672    175.44004  0.037777786  0.038660991            2 
  388000    1.1968848   -6.6974139    175.69345  0.037734848  0.038657968            2 
  389000    1.1902415   -6.6599114    176.84019  0.037883502  0.038655227            1 
  390000    1.1920101    -6.668925    176.57768  0.037730274  0.038652719            4 
  391000    1.1793976   -6.7426462    177.04598  0.037733585  0.038649969            2 
  392000     1.177475   -6.6729985    178.10105  0.037861617  0.038646773            1 
  393000    1.1896257   -6.7028689    178.11821  0.037768917   0.03864342            2 
  394000    1.1675704   -6.6794715    178.90853  0.037840213  0.038640271            3 
  395000    1.1882517   -6.7248163    178.49954  0.037658132  0.038636669            1 
  396000    1.1597584   -6.7034357    179.33416   0.03773867  0.038632597            2 
  397000    1.1576374   -6.7097677     179.3808    0.0376534  0.038628381            4 
  398000    1.2257407   -6.6747927     180.2648  0.037743885  0.038624859            1 
  399000    1.2125776   -6.6747568    180.64774  0.037729268   0.03862083            3 
  400000     1.163764    -6.720523    181.09825  0.037728803  0.038617213            3 
  401000    1.1725408   -6.7005654    181.97569  0.037817059  0.038613582            2 
  402000    1.1878742   -6.6894727    181.89016  0.037705258  0.038610704            2 
  403000    1.1891974   -6.7040444    182.88459  0.037817326  0.038607253            2 
  404000    1.1819357   -6.7107465    183.14786  0.037778024  0.038604543            2 
  405000    1.1795768   -6.6824262    183.59175   0.03777608  0.038602678            4 
  406000    1.1969918   -6.6819206    184.29431  0.037827239  0.038600519            2 
  407000    1.2039813   -6.7028172    185.14748  0.037908984  0.038598912            2 
  408000    1.1853436   -6.7055069    186.29048  0.038049526  0.038598069            2 
  409000    1.1837939   -6.6769202    186.23567  0.037945328  0.038597203            1 
  410000    1.2207354   -6.7148493    186.47965  0.037902369  0.038596163            2 
  411000     1.206355   -6.6797719    187.52823  0.038022756  0.038595235            2 
  412000    1.1880806   -6.6831491    187.84865  0.037995277  0.038595457            2 
  413000    1.1882143   -6.6719518    188.62822  0.038060577  0.038595215            2 
  414000    1.1470844   -6.7243333    188.32712  0.037908036  0.038594941            2 
  415000     1.207408   -6.6760143    189.07338  0.037966543  0.038594815            3 
  416000    1.1773666   -6.6536644    189.60676  0.037982123  0.038594059            2 
  417000    1.1900051   -6.6830527    189.85051  0.037939749  0.038592969            5 
  418000    1.1714114   -6.7158945     190.3806  0.037954666  0.038592645            2 
  419000    1.1710867   -6.6889388    190.43487  0.037874874  0.038592199            2 
  420000    1.2016085   -6.6734099    191.33767  0.037963824  0.038593574            2 
  421000    1.1746788   -6.6906289    191.63616  0.037932731  0.038594162            2 
  422000    1.1630746   -6.6698642    193.00818   0.03811378  0.038594999            2 
  423000    1.1838345   -6.6774805    192.62098  0.037947396  0.038595358            2 
  424000    1.1816945   -6.6967017    193.05251   0.03794271   0.03859576            1 
  425000    1.1924329   -6.6947378    194.31276  0.038100541  0.038596391            1 
  426000    1.1861431   -6.7042154    194.44629  0.038037224   0.03859641            3 
  427000    1.1778081   -6.6979087    195.27657  0.038110182   0.03859799            2 
  428000    1.1663624   -6.6669474     195.2338  0.038012812  0.038598401            1 
  429000    1.1740664     -6.64886    196.33725  0.038138549  0.038598171            3 
  430000    1.1826281   -6.6776917    196.11965  0.038007684  0.038597501            2 
  431000     1.163712   -6.6774187    196.82865  0.038056583  0.038596454            3 
  432000    1.1644769   -6.6752992    196.54939   0.03791462  0.038596368            1 
  433000    1.2095134   -6.6963525     196.9611  0.037906294  0.038595442            3 
  434000    1.1576777   -6.7067507    197.41252   0.03790563  0.038594583            2 
  435000    1.1666324   -6.6629318    197.91155   0.03791409  0.038592837            1 
  436000    1.1786874   -6.7327746    197.60756  0.037769029  0.038590417            3 
  437000    1.1925263   -6.7043022    198.14239   0.03778459  0.038588037            2 
  438000    1.1875624   -6.7051271    198.47018  0.037760689  0.038584506            1 
  439000    1.1862029   -6.6611371    199.17576   0.03780861  0.038581725            4 
  440000    1.2123416   -6.7066873    199.32378  0.037750716  0.038578296            1 
  441000    1.1691534   -6.7061427    199.23364   0.03764808  0.038573894            1 
  442000    1.1845614   -6.7069566    199.47521  0.037608447  0.038568363            3 
  443000    1.1889823     -6.69855    200.66108  0.037746629  0.038564162            1 
  444000    1.1906317   -6.7016052    200.36531  0.037606102  0.038559805            1 
  445000    1.1571066   -6.7201148    200.01201  0.037455432  0.038554268            1 
  446000    1.1794934     -6.70099    201.06205  0.037567647  0.038549124            2 
  447000    1.1847266   -6.6896581    202.24926  0.037704934  0.038543868            2 
  448000    1.1888713   -6.6997495    202.10273  0.037593513  0.038539145            2 
  449000    1.1778553   -6.6778643    203.22285  0.037717678  0.038533902            1 
  450000    1.1864152   -6.6894847    203.73696  0.037729066  0.038529033            2 
  451000    1.1868598   -6.6792999    203.99223  0.037692578  0.038523483            3 
  452000    1.2023153   -6.7113677    203.72359  0.037559659  0.038518838            2 
  453000    1.1486479   -6.6978532    204.19733  0.037563894  0.038514046            2 
  454000    1.1665065    -6.677194    205.90891  0.037795322  0.038509845            1 
  455000      1.17239    -6.722899    205.02674  0.037550685   0.03850547            3 
  456000    1.1748933   -6.6812096    205.67199  0.037586255  0.038499815            2 
  457000    1.1559426   -6.6776671    205.37915  0.037450611  0.038493049            3 
  458000    1.1855186   -6.7182508    205.45521   0.03738268  0.038485593            2 
  459000    1.1859429   -6.6698833    206.76786  0.037539553   0.03847892            3 
  460000      1.18091   -6.6834236    207.34211  0.037561976  0.038472129            1 
  461000    1.1619159   -6.6856296    207.35168  0.037482227  0.038464963            2 
  462000    1.1696194   -6.6914098    208.56045  0.037619129  0.038458335            2 
  463000    1.1860787   -6.7097168    208.34229  0.037498612   0.03845181            5 
  464000    1.1820689   -6.6813067    208.85548  0.037509963  0.038444878            2 
  465000    1.1968671   -6.6829454    208.86806  0.037431552  0.038438377            2 
  466000    1.1699501   -6.6983441    209.74218  0.037507542  0.038432229            2 
  467000    1.1965399   -6.7002292    210.17861  0.037505106  0.038426281            3 
  468000    1.1472619   -6.7514927    209.16834  0.037245075  0.038419152            3 
  469000    1.1920598    -6.697161    210.47659  0.037398115  0.038411698            2 
  470000    1.1660111   -6.6791781    211.10964  0.037430786  0.038404354            1 
  471000    1.1798727   -6.7417673    211.17455  0.037362801  0.038397589            3 
  472000    1.1934791   -6.6796163    211.65262  0.037368047  0.038390463            1 
  473000     1.204034   -6.6448994    212.76979  0.037485869  0.038383814            1 
  474000    1.1716014   -6.7053882    212.67907  0.037390835  0.038377024            2 
  475000    1.1651859   -6.6639821    213.20603  0.037404567  0.038369665            2 
  476000    1.1547299   -6.6824488     214.4437  0.037542665  0.038362316            2 
  477000    1.1820775   -6.7501627    214.09472   0.03740299  0.038355178            1 
  478000    1.1588579   -6.7701133    213.97729  0.037304269  0.038347496            2 
  479000      1.16544   -6.6896424    215.39234  0.037472572  0.038341075            1 
  480000    1.1739498   -6.6732692    215.85224  0.037474347  0.038336247            1 
  481000    1.1535103   -6.7002558    216.52371  0.037512771  0.038330926            3 
  482000    1.2051471   -6.7098374    217.61609  0.037623805  0.038326272            1 
  483000    1.1892227   -6.7109342    217.36298   0.03750224  0.038322289            2 
  484000    1.1705731   -6.7434168    217.72482  0.037487056  0.038317805            3 
  485000     1.164904   -6.7286227    217.35506  0.037346231  0.038312595            1 
  486000    1.1639429   -6.7050064     218.3897  0.037446793  0.038307176            1 
  487000    1.1766673   -6.6952455    219.23929   0.03751528  0.038301971            2 
  488000    1.1737078   -6.7231139    220.04012  0.037575157  0.038297618            2 
  489000    1.1744703    -6.656006    220.25196  0.037534417  0.038293797            1 
  490000    1.1793958   -6.7395362     221.2352  0.037625033  0.038289256            4 
  491000     1.176722   -6.6942921    221.01191  0.037510508  0.038283998            1 
  492000    1.1443884   -6.7104875    221.83999  0.037574524  0.038279488            2 
  493000    1.1605037   -6.7087662     221.1923  0.037388827  0.038274086            2 
  494000    1.1845926   -6.7244679    221.83155  0.037420977  0.038268221            2 
  495000     1.163745   -6.7048882    222.40231  0.037441466  0.038262413            2 
  496000      1.19796   -6.7252228    222.59146   0.03739776  0.038256682            1 
  497000    1.1633334   -6.7660917    222.71274  0.037342847  0.038250761            1 
  498000    1.1487046   -6.6720899     224.0645  0.037494059  0.038244599            4 
  499000    1.1833115   -6.7364765     223.8184  0.037377822  0.038238603            2 
  500000    1.1475318   -6.7205685    224.02284   0.03733714  0.038233113            5 
  501000    1.1569199   -6.7221863    225.06703  0.037436299  0.038227318            2 
  502000     1.180381   -6.6967836    225.28288  0.037397557  0.038221702            2 
  503000    1.1721314   -6.6897542    226.28181  0.037488703  0.038215702            1 
  504000    1.1725702   -6.7207758    226.02798  0.037372352  0.038210636            2 
  505000     1.147367   -6.7330243    226.62741  0.037397263  0.038204945            2 
  506000    1.1995525   -6.7093982    226.89587  0.037367567  0.038199598            2 
  507000    1.1545255    -6.685212    227.29843  0.037360032  0.038194398            2 
  508000    1.1531124   -6.7637964    227.16321  0.037264306  0.038188686            3 
  509000    1.1843159   -6.7330472    227.86472  0.037305946  0.038182165            3 
  510000    1.1365658   -6.7469778    227.63809  0.037195766  0.038175579            1 
  511000    1.1690478   -6.7117462    228.49892  0.037263359  0.038168923            2 
  512000     1.174036   -6.7168025    229.33904  0.037327317  0.038161718            3 
  513000     1.188173   -6.6987222    229.86408  0.037339844  0.038154902            2 
  514000    1.1768234   -6.7590055    229.42816  0.037196525  0.038148546            2 
  515000    1.1859357   -6.7480929     229.7942  0.037183527  0.038141422            4 
  516000    1.1546559   -6.7533777    229.48302  0.037061211  0.038134086            2 
  517000    1.1685045   -6.7182205    231.00422  0.037234723  0.038126264            2 
  518000    1.1692742    -6.720233    230.99497  0.037161354   0.03811893            2 
  519000    1.1713464    -6.748613    232.32118  0.037302695  0.038112135            3 
  520000    1.1795672   -6.7536496    231.89911  0.037163319  0.038105907            1 
  521000    1.1492014   -6.7312063     232.5746  0.037200032  0.038098664            3 
  522000    1.1847968   -6.7279378     233.2326  0.037233812  0.038091366            2 
  523000    1.1524889   -6.7333051    232.58974  0.037060188  0.038083798            3 
  524000    1.2075026   -6.7278458    232.92967  0.037043523  0.038075303            5 
  525000    1.1678275   -6.7230928    233.38214  0.037044784  0.038066717            1 
  526000    1.1498239   -6.7525279    234.11144  0.037089898  0.038058911       -1e+20 
  527000    1.1613768   -6.7417341    233.70894  0.036955873  0.038051054            2 
  528000    1.1729467   -6.6973622    235.93239  0.037236804  0.038044235            4 
  529000    1.1393285   -6.7024887     236.0504  0.037185003  0.038037276            2 
  530000    1.1743162   -6.7410762    236.61147  0.037203061  0.038030554            1 
  531000    1.1797625   -6.7160955    237.26991  0.037236332  0.038024267            3 
  532000    1.1673361   -6.7293693    237.17985  0.037152233  0.038017977            3 
  533000    1.1499288   -6.7376755    236.99528   0.03705367  0.038011117            2 
  534000    1.1723022   -6.7624336     237.6173  0.037081352  0.038003917            1 
  535000    1.1819719   -6.7476133    238.48658  0.037147442  0.037996763            3 
  536000    1.1454524   -6.6974506    238.89049  0.037140935  0.037990034            1 
  537000    1.1656747   -6.6912447    240.43759  0.037311855  0.037983104            1 
  538000    1.1797109   -6.6943884    240.20497   0.03720647  0.037976455            1 
  539000    1.1254105   -6.7465613    240.32926  0.037156657  0.037969868            1 
  540000    1.1633285   -6.7442624    240.69052  0.037143599  0.037962806            2 
  541000    1.1498507   -6.7286487    240.82018  0.037094913  0.037955154            1 
  542000    1.1649816   -6.7617209    240.69459  0.037007163  0.037947655            3 
  543000    1.1730367   -6.7249018    241.72862    0.0370977  0.037940288            2 
  544000    1.1771458   -6.7117962    241.91517  0.037058083  0.037933641            2 
  545000    1.1783083   -6.7157482    242.04665  0.037010191  0.037926296            2 
  546000    1.1821842   -6.6726386    242.65599  0.037035407  0.037918962            1 
  547000    1.1691114   -6.7002651    243.05444  0.037028404  0.037912036            4 
  548000    1.1762475   -6.6833923    243.90039  0.037089475  0.037905744            2 
  549000    1.1750502   -6.7114109    244.40657  0.037098751  0.037899067            1 
  550000    1.1698859   -6.6961533    245.59791  0.037211804  0.037892739            1 
  551000    1.1613038   -6.7215156    245.41058  0.037115937  0.037886261            3 
  552000    1.1867795   -6.7172296    245.88955  0.037121008  0.037880101            5 
  553000    1.1631682   -6.7406989    244.82906  0.036894071  0.037873747            1 
  554000    1.1573467   -6.7391149    246.51509  0.037081091  0.037866694            5 
  555000    1.1592511   -6.7459088    247.25361  0.037125166  0.037860578            2 
  556000    1.1767864   -6.6845503    247.73631  0.037130742  0.037854549            3 
  557000    1.1834704   -6.7185297    248.24065  0.037139534  0.037848841            1 
  558000    1.1589467   -6.7183023    249.06972  0.037196793  0.037843129            1 
  559000    1.1637279   -6.7327162    248.62162  0.037063449  0.037837032            5 
  560000    1.1507115   -6.7469048     249.4423  0.037119389  0.037830966            2 
  561000    1.1576017   -6.7390116    250.03122  0.037140703  0.037824732            1 
  562000    1.1634417    -6.752943    250.20287  0.037100069   0.03781886            2 
  563000    1.1743433   -6.7138594    249.95605  0.036997639  0.037813382            3 
  564000    1.1810744   -6.7272785    250.57456  0.037023428  0.037807336            2 
  565000    1.1891011   -6.7687931    251.37952  0.037076625  0.037801138            3 
  566000    1.1710566   -6.7203095    251.74961  0.037065609  0.037794701            2 
  567000    1.1581022   -6.7381311    251.78471  0.037005395  0.037788169            3 
  568000    1.1573399   -6.7284998    252.31349  0.037017825  0.037781845            1 
  569000    1.1578541   -6.7079842    253.48819  0.037124809  0.037775669            1 
  570000    1.1549673    -6.726536      252.689  0.036942836  0.037769696            1 
  571000    1.1617468    -6.738401    253.08204  0.036935499  0.037763413            2 
  572000    1.1621985   -6.7336048     253.8971  0.036989671  0.037757321            1 
  573000    1.1602017   -6.7343699    254.08241  0.036952066  0.037750894            2 
  574000    1.1361743   -6.7248951    255.11464   0.03703755  0.037744398            4 
  575000    1.1444068   -6.6695984    256.05809  0.037109868  0.037738144            1 
  576000    1.1795123   -6.7433378    255.86797  0.037017935  0.037731665            3 
  577000    1.1492563   -6.7345507    256.06554  0.036982314  0.037725292            1 
  578000    1.1791832   -6.7605798    256.40911  0.036967865  0.037719035            2 
  579000    1.1787865    -6.737894    256.92673  0.036978516    0.0377126            1 
  580000    1.1562323    -6.695597    257.73097  0.037030312  0.037706092            1 
  581000    1.1177807   -6.7396767    257.60448  0.036948434  0.037700117            1 
  582000    1.1850233   -6.7233653    258.13508  0.036960921  0.037694267            1 
  583000    1.1312172   -6.7141883    258.88623  0.037004893  0.037688602            2 
  584000    1.1692627   -6.7506021    259.34958  0.037007646  0.037682823            2 
  585000    1.1383192   -6.7417081    259.30631   0.03693822  0.037677231            2 
  586000    1.1783464   -6.7115963     260.7576   0.03708157  0.037671579            1 
  587000    1.1454876   -6.7710328    259.66733  0.036863619  0.037666032            1 
  588000     1.145669   -6.7368418    260.35549  0.036898454  0.037659953            1 
  589000    1.1436697   -6.7708304    260.45329  0.036849644  0.037654314            1 
  590000    1.1668726   -6.7695483    262.21609   0.03703617  0.037648724            2 
  591000    1.1546969   -6.7624705    261.81067  0.036916338  0.037643439            5 
  592000    1.1522389   -6.7491051    263.07796  0.037032371  0.037638187            1 
  593000    1.1403811   -6.7636591    263.37719  0.037011971  0.037632904            3 
  594000    1.1434828   -6.7437944    263.70507  0.036995661  0.037627267            2 
  595000    1.1445205   -6.7538657     264.1818  0.037000252  0.037621267            2 
  596000    1.1642386   -6.7631909    264.04956  0.036919681  0.037615751            1 
  597000    1.1364537   -6.7849176    264.54108  0.036926449  0.037609352            2 
  598000    1.1548168   -6.7728561    264.32417  0.036834471   0.03760314            3 
  599000    1.1377346   -6.7227527    265.49247  0.036935513  0.037597292            2 
  600000     1.139104   -6.7234432    265.42538  0.036864636  0.037590739            1 
  601000    1.1769045   -6.7586773    264.65448  0.036696406  0.037583588            2 
  602000    1.1575159   -6.7395111    265.53571  0.036757435  0.037576638            3 
  603000    1.1256989   -6.7274648    266.12412  0.036777794  0.037569818            2 
  604000    1.1425361   -6.7780835    266.78348  0.036807876  0.037562993            5 
  605000    1.1980249   -6.7624338    267.84982  0.036893914  0.037556394            1 
  606000    1.1624571     -6.76638    268.46095  0.036917072  0.037550037            2 
  607000    1.1716001   -6.7074801     268.7029   0.03688947  0.037543734            2 
  608000    1.1330165   -6.7426449    268.77915  0.036839247  0.037537491            3 
  609000    1.1360551   -6.7640912    268.87615  0.036792029   0.03753127            1 
  610000    1.1537172   -6.7802984    269.06406  0.036757385   0.03752535            2 
  611000     1.151239   -6.7632177    270.16439  0.036847298  0.037519682            1 
  612000    1.1469355   -6.7597339    270.96245  0.036895759   0.03751377            5 
  613000    1.1664199     -6.75321    271.07628  0.036851044  0.037507966            1 
  614000    1.1469661   -6.7599918    271.33414  0.036826023   0.03750218            1 
  615000    1.1637808   -6.7512885    272.03478  0.036861081  0.037496281            1 
  616000    1.1547468   -6.7591133    272.01593  0.036798691   0.03749024            1 
  617000     1.138738   -6.7867989    272.85671  0.036852608  0.037484139            1 
  618000    1.1626516   -6.7678636    273.06369  0.036820886  0.037478043            2 
  619000     1.166948   -6.7306362    272.81763  0.036728276  0.037471793            1 
  620000     1.131326   -6.7310084    272.80665  0.036667561  0.037465361            1 
  621000    1.1732936   -6.7726599    273.14781  0.036654296  0.037458268            2 
  622000    1.1309441   -6.7306379    274.25295  0.036743428  0.037451201            2 
  623000    1.1349638   -6.7703008     273.4302  0.036574399  0.037443937            3 
  624000    1.1615439   -6.7541081    274.86917  0.036707955  0.037436881            1 
  625000    1.1389314   -6.7245577    275.35762  0.036714349  0.037430087            1 
  626000    1.1475163   -6.7830336    275.63077  0.036692062  0.037423451            1 
  627000    1.1494204   -6.7662736    275.42551  0.036606262  0.037416661            3 
  628000    1.1552806   -6.7372977    276.17097  0.036646891  0.037409588            8 
  629000    1.1536567   -6.7506215     276.6151  0.036647469  0.037402629            2 
  630000    1.1661957   -6.7639328    276.83834  0.036618828  0.037395484            2 
  631000    1.1759054   -6.7821264    277.97692  0.036711162  0.037388686            1 
  632000    1.1674435   -6.7466495    278.62398  0.036738394  0.037381401            2 
  633000    1.1428363   -6.7508402    277.93869  0.036590138  0.037374342            2 
  634000    1.1603877   -6.7375737    278.48424  0.036604133  0.037367214            2 
  635000    1.1514474   -6.7330808    279.22501  0.036643702  0.037360661            1 
  636000    1.1496796   -6.7537061    279.37263  0.036605429  0.037353816            1 
  637000    1.1559723   -6.7289686    280.13923  0.036648251  0.037346916            5 
  638000     1.149864   -6.7531241    280.47245  0.036634333  0.037340069            2 
  639000    1.1420374    -6.742769    281.82819  0.036753807  0.037332833            3 
  640000    1.1251619   -6.7687855     281.1298  0.036605443  0.037326105            3 
  641000    1.1624496   -6.7788181    282.40721  0.036714406  0.037319772            1 
  642000    1.1608437   -6.7853586    281.07488  0.036484279  0.037313695            4 
  643000    1.1385345   -6.7401003    282.68868  0.036636688  0.037307614            3 
  644000    1.1647129   -6.7246473    282.84654  0.036600225  0.037301566            1 
  645000    1.1427035   -6.7614252    283.66698   0.03664948   0.03729516            1 
  646000    1.1472877   -6.7351052    283.83319  0.036614188  0.037288658            4 
  647000    1.1761005   -6.7527915    283.72663  0.036543873  0.037282186            1 
  648000    1.1501089   -6.7629902    284.00677  0.036523504  0.037275908            2 
  649000     1.170016   -6.7686765    285.70771  0.036685633  0.037269737            2 
  650000    1.1637171   -6.8102695    284.59722  0.036486823  0.037263498            4 
  651000    1.1398334   -6.7678558    286.76821   0.03670868   0.03725736            2 
  652000    1.1854568   -6.7912449    287.79917  0.036784147  0.037251794            1 
  653000    1.1351404   -6.7937988     287.0257  0.036629109  0.037246159            5 
  654000    1.1472067   -6.7512137    288.67187  0.036782858  0.037240284            4 
  655000    1.1349704   -6.7818782    287.11223  0.036528274  0.037234465            2 
  656000    1.1395468   -6.7412391    289.21342   0.03673951  0.037228709            2 
  657000    1.1488014   -6.7521548    288.27416  0.036564454  0.037223272            2 
  658000    1.1509313   -6.7772951    289.32471  0.036641934  0.037217525            1 
  659000    1.1312486   -6.7583359    290.62029  0.036750163  0.037211494            3 
  660000     1.167289   -6.7598698    289.69879  0.036578129  0.037206427            1 
  661000    1.1463538   -6.8152148    289.61653  0.036512422  0.037200626            1 
  662000    1.1444774   -6.7801198    289.90075  0.036493045  0.037194385            2 
  663000    1.1398426   -6.7873193    290.13256  0.036467139  0.037187966            1 
  664000     1.142973    -6.747904     290.8748  0.036505372  0.037181767            4 
  665000     1.129552   -6.7623077    291.03671  0.036470766   0.03717498            1 
  666000    1.1549877   -6.7518887    291.41218  0.036462985  0.037168564            2 
  667000     1.161031   -6.7676121    291.82708  0.036460154  0.037162033            4 
  668000    1.1573583   -6.7557609    292.78579  0.036525173  0.037155721            2 
  669000    1.1423204   -6.7690992    292.89428  0.036484091  0.037149386            2 
  670000    1.1538037    -6.797628    292.85829  0.036425161   0.03714292            3 
  671000    1.1193487   -6.7713781    292.83233  0.036367652  0.037135869            3 
  672000    1.1466165    -6.765396    294.08781  0.036469223  0.037129067            2 
  673000     1.146029   -6.7628536    295.13832  0.036545112  0.037122736            2 
  674000    1.1231218   -6.7419192    295.69245  0.036559403  0.037116597            2 
  675000    1.1812601   -6.7720366    296.03923  0.036548053   0.03711081            3 
  676000    1.1454578   -6.7265156    296.58016   0.03656067  0.037105243            4 
  677000    1.1552218   -6.7631643    296.08421  0.036445619  0.037100153            3 
  678000    1.1524278   -6.8148057    296.75949  0.036474863  0.037094983            2 
  679000    1.1561316    -6.781573    298.30587  0.036610932  0.037089523            4 
  680000     1.132407   -6.7719796     298.2041  0.036544621  0.037083893            3 
  681000    1.1423383     -6.78912     299.0902  0.036599388  0.037078571            1 
  682000     1.131837   -6.7570858    299.63834    0.0366127  0.037073476            1 
  683000     1.154111   -6.7621705     299.7233  0.036569461  0.037068394            1 
  684000    1.1485293   -6.7113388    301.19403  0.036695179   0.03706369            2 
  685000    1.1477015   -6.7854094    300.42709  0.036548307  0.037059201            2 
  686000    1.1513542   -6.7579308    300.89662  0.036552068  0.037054398            2 
  687000    1.1371192    -6.813615    301.00487  0.036511992  0.037048912            4 
  688000    1.1096528   -6.7797905    302.45773    0.0366349  0.037043906            1 
  689000     1.113774   -6.7851392    302.62721  0.036602226  0.037039062            3 
  690000    1.1372311   -6.7743811    302.01589   0.03647535  0.037034084            2 
  691000    1.1543761   -6.7455057    304.40382  0.036710543  0.037029253            2 
  692000    1.1253027    -6.765564    304.22751   0.03663626  0.037024186            2 
  693000     1.108998   -6.7741008    302.89274  0.036422888  0.037019235            2 
  694000    1.1348417   -6.7375415    304.87657  0.036608618  0.037013946            1 
  695000    1.1203286   -6.7380571    303.97103  0.036447365  0.037008792            1 
  696000     1.128402   -6.7854896    304.28234  0.036432273   0.03700319            2 
  697000    1.1382481   -6.7654426     305.5096  0.036526734  0.036997778            2 
  698000    1.1021452   -6.7549876    306.63512  0.036608777  0.036992717            4 
  699000    1.1213277   -6.7724782    306.18789  0.036503087  0.036987662            1 
  700000     1.128788   -6.7545684    306.66161  0.036507334  0.036982574            2 
  701000    1.1181119   -6.7631298    307.39571  0.036542524  0.036977625            2 
  702000    1.1452829   -6.7825612    308.14364  0.036579254  0.036972601            5 
  703000    1.1220769   -6.7561557    308.30005  0.036545762  0.036967438            2 
  704000    1.1529894    -6.779353    308.39387  0.036504957   0.03696233            2 
  705000    1.1171982   -6.8168607    308.38366  0.036451969  0.036957085            2 
  706000    1.1390965   -6.7897438    308.59859  0.036425707  0.036951198            3 
  707000    1.1254232   -6.7696224    309.73319  0.036507919    0.0369456            1 
  708000    1.1518116   -6.8152026    308.12908  0.036267547  0.036939509            2 
  709000    1.1447664   -6.7891371    308.62394  0.036274558  0.036933206            2 
  710000    1.1093007   -6.8193659    309.12607  0.036282402  0.036927189            3 
  711000    1.1175609   -6.7885223    309.86808   0.03631834  0.036921044            1 
  712000    1.1277531   -6.7941443    310.14419  0.036299648  0.036915186            2 
  713000     1.125531   -6.8097112    310.87979  0.036334711  0.036908925            2 
  714000    1.1314407   -6.7919943    310.26662  0.036212257  0.036902566            2 
  715000    1.1511323   -6.7714488    311.30592  0.036282741  0.036896343            4 
  716000    1.1569769   -6.8129588    311.54098  0.036259425  0.036890065            4 
  717000    1.1245164   -6.7664476    312.89367   0.03636607  0.036883723            3 
  718000     1.157318   -6.7941315    312.04028  0.036216374  0.036877198            1 
  719000    1.1438039   -6.7762713    312.93248  0.036269411   0.03687096            4 
  720000    1.1506672   -6.7874073    312.44732  0.036162884  0.036864269            2 
  721000    1.1356373   -6.7805353    313.81118  0.036270363  0.036857744            1 
  722000    1.1565586   -6.7876806    314.07016  0.036250019  0.036850904            2 
  723000    1.1225517   -6.7866063    314.36839  0.036234254  0.036844739            1 
  724000    1.1408462   -6.7891175    313.21791  0.036051785  0.036838238            2 
  725000    1.1451286   -6.8033828    314.86345  0.036191201  0.036831411            1 
  726000    1.1190629   -6.7598674    316.08072  0.036281074  0.036825204            1 
  727000    1.1533091    -6.790709     316.4908  0.036278176  0.036818706            2 
  728000    1.1430574   -6.7835554    315.91784  0.036162756  0.036812203            2 
  729000    1.1425168   -6.7978124     315.8301  0.036103121  0.036805641            3 
  730000    1.1431946    -6.801236    317.71608  0.036268959  0.036799289            2 
  731000    1.1224444   -6.7837097     317.7109  0.036218753  0.036793012            1 
  732000    1.1042698   -6.7977771    318.02978  0.036205576  0.036786651            2 
  733000     1.135528   -6.7866131    317.97141  0.036149546  0.036780142            2 
  734000    1.1027587    -6.796432    319.09753  0.036228148  0.036773582            2 
  735000    1.1480048   -6.8187233    319.31023  0.036202974  0.036767207            2 
  736000    1.1358601   -6.8132904    319.44909  0.036169507  0.036760774            2 
  737000    1.1101718   -6.7675913    318.97719  0.036067073  0.036753753            2 
  738000    1.1101973   -6.7909864    319.42074  0.036068286  0.036746875            1 
  739000    1.1573746   -6.7975418    319.69749  0.036050687  0.036740193            2 
  740000    1.1301869   -6.8077901    320.46756  0.036088689  0.036733472            3 
  741000    1.1412817   -6.7856258    321.15819  0.036117655  0.036726831            2 
  742000    1.1351134   -6.7847873    321.57297  0.036115563  0.036720213            2 
  743000    1.1470049   -6.7817337    321.08118  0.036011797   0.03671357            2 
  744000     1.140371   -6.7862497    321.13243  0.035969134  0.036706596            1 
  745000     1.126852   -6.7611872     322.5158  0.036075593  0.036699959            5 
  746000    1.1327138   -6.7929111    322.90526   0.03607074  0.036693421            2 
  747000    1.1533839   -6.8241875    322.02821  0.035924611  0.036686674            1 
  748000    1.1388283   -6.7857374    323.75594  0.036069067  0.036679444            2 
  749000    1.1450474    -6.822351     323.3153  0.035971885  0.036672412            2 
  750000    1.1070994   -6.7991551    324.94117  0.036104575  0.036665455            1 
  751000    1.1501556   -6.7442885    324.67729  0.036027219  0.036658754            1 
  752000    1.1341136   -6.8324872    324.38428  0.035946839  0.036651648            2 
  753000    1.1076338    -6.821724    326.05314  0.036083792  0.036644362            3 
  754000    1.1530036   -6.7823226    326.50371  0.036085733  0.036637365            1 
  755000    1.1413535   -6.7817552    325.17815  0.035891628  0.036629974            4 
  756000    1.0918619   -6.7546301    325.82305  0.035915239  0.036622757            3 
  757000    1.1484326   -6.7744097    325.79249  0.035864431  0.036615405            3 
  758000    1.1377301   -6.7873097    326.90995  0.035939968  0.036607902            2 
  759000    1.1312744   -6.8132524    327.08875  0.035912247  0.036600105            1 
  760000    1.1202317   -6.8051936    327.24322  0.035881932  0.036592419            3 
  761000    1.1123189   -6.7631236     328.0733  0.035925679   0.03658486            2 
  762000    1.1044698   -6.7785409    327.60444  0.035827258  0.036577369            2 
  763000    1.1368708   -6.7806273    330.01245    0.0360433  0.036569964            2 
  764000    1.1147282   -6.7769666    328.70836  0.035853878  0.036562888            1 
  765000    1.1266034   -6.7756973    329.03564  0.035842662  0.036556237            3 
  766000     1.109883   -6.8111558    330.96485  0.036005749  0.036549281            4 
  767000    1.1597155   -6.8217294     330.7614  0.035936701  0.036542511            3 
  768000     1.153877   -6.7658287    331.46498  0.035966252  0.036535837            1 
  769000    1.1095022   -6.7975034    331.72891  0.035948083  0.036529327            2 
  770000     1.137699   -6.7844952    331.60249  0.035887716  0.036522626            3 
  771000    1.1371117   -6.7948074    331.95518  0.035879288  0.036515339            5 
  772000    1.1189452   -6.8011424    332.15055  0.035853902   0.03650795            3 
  773000    1.1344118   -6.8306831     331.8265  0.035772586  0.036500482            9 
  774000    1.1206311   -6.7846575    332.87808  0.035839586  0.036492921            4 
  775000    1.1424284   -6.7915099    332.81693  0.035786767  0.036485361            3 
  776000     1.129465   -6.8241901    333.43873  0.035807424  0.036477491            2 
  777000    1.1346191   -6.7899035    333.56407  0.035774783  0.036469899            3 
  778000    1.1768929   -6.8316468    333.81897  0.035756102  0.036462435            3 
  779000    1.1493366   -6.8187785    333.35187  0.035660234  0.036455058            1 
  780000    1.1262086   -6.7680439    335.32277  0.035825082  0.036447593            4 
  781000    1.1095858   -6.8127606     336.0307  0.035854748  0.036440516            2 
  782000    1.1318885   -6.7867979    335.33503  0.035734765  0.036433139            5 
  783000    1.1316909   -6.8210234    335.51589  0.035708375  0.036426207            3 
  784000    1.1072683   -6.8275862    338.02674  0.035929713  0.036418831            2 
  785000    1.1121618   -6.7894466    336.12157  0.035681695  0.036411414            2 
  786000    1.1406447   -6.8218864    337.90818  0.035825719  0.036403969            1 
  787000    1.1087856   -6.8126035    338.37349  0.035829467  0.036396638            3 
  788000    1.1475008   -6.8157151    338.36439  0.035783036  0.036389813            3 
  789000    1.1314453   -6.8073029    338.95318  0.035799871  0.036383005            1 
  790000    1.0985892   -6.7872326    338.71085  0.035728992  0.036375813            3 
  791000    1.1158708   -6.8181673     337.4131  0.035547103  0.036368199            2 
  792000     1.118097   -6.7908516    339.06367  0.035675891  0.036360669            4 
  793000    1.1151219   -6.8069286    339.40148  0.035666402  0.036353267            2 
  794000    1.1407446   -6.7958112    340.04421  0.035688939  0.036345802            3 
  795000    1.1172904   -6.7669543    340.48274  0.035690015  0.036337912            2 
  796000    1.1210328   -6.7752171    340.54177  0.035651358  0.036330446            1 
  797000    1.1144729   -6.8339946    339.15321   0.03546144  0.036322504            3 
  798000    1.1107563   -6.8303412    340.20862  0.035527216  0.036314413            2 
  799000    1.1202096   -6.8141228     340.8875  0.035553556  0.036306287            1 
  800000    1.1444805   -6.7984628     341.5089  0.035573844  0.036298306            3 
  801000    1.1125057   -6.8003453    341.68781  0.035548045  0.036290623            7 
  802000    1.1479279   -6.7978895    341.14423  0.035447239  0.036282616            1 
  803000    1.1308064   -6.7859997    342.96829  0.035592392  0.036274682            2 
  804000    1.1414402    -6.828854    342.64912  0.035515041   0.03626701            2 
  805000     1.122273   -6.8712856    343.40497  0.035549169  0.036259208            2 
  806000    1.1394074   -6.8298916    343.80224  0.035546137  0.036251571            2 
  807000    1.1344936   -6.7894212    345.43852  0.035671057  0.036244055            1 
  808000    1.1193372   -6.7863935    344.48317  0.035528379  0.036236172            2 
  809000    1.1157703   -6.7437855     346.6918   0.03571197  0.036228791            3 
  810000    1.1426074    -6.812054    345.87991  0.035584353  0.036221438            5 
  811000    1.1414938   -6.7718201    345.19454  0.035470052  0.036213528            2 
  812000    1.1441369   -6.8126693    345.60057  0.035468038  0.036205963            3 
  813000    1.1329726   -6.8002068    346.05133  0.035470616  0.036198079            2 
  814000    1.1470181   -6.7826162    348.11996  0.035638817  0.036190415            2 
  815000    1.1205786   -6.7921074    347.87168  0.035569702  0.036182852            2 
  816000    1.0992515   -6.8236823    346.51976  0.035388047  0.036174942            2 
  817000    1.1382254   -6.8325307    346.98517  0.035392204  0.036167028            3 
  818000     1.124136    -6.788485    348.87121  0.035541077  0.036159033            2 
  819000     1.116393   -6.7902435    346.97196  0.035304432  0.036150793            3 
  820000    1.1347387   -6.8011585    348.89916  0.035457232  0.036142595            1 
  821000    1.1303499   -6.8324648    347.60144  0.035282323  0.036134094            1 
  822000    1.1219407   -6.8150689    349.60488  0.035442506  0.036125856            2 
  823000    1.1442678   -6.8185193    349.32888  0.035371494  0.036117671            1 
  824000    1.1336442   -6.8555605     349.1705  0.035312551  0.036108963            2 
  825000    1.1147881   -6.8114621    348.86551   0.03523894  0.036100726            1 
  826000    1.1021554   -6.8038419    350.11134  0.035321968    0.0360924            2 
  827000    1.0897198   -6.8308389    350.75282  0.035343896   0.03608377            2 
  828000    1.1071246   -6.8217862    351.36096  0.035362415  0.036075269            1 
  829000    1.1286156   -6.7913051    352.13185  0.035397251  0.036066778            3 
  830000    1.1134915   -6.8222994    351.66266  0.035307496   0.03605866            1 
  831000    1.1122636   -6.8517549    352.26245  0.035325156  0.036050263            2 
  832000     1.118958   -6.8071467      353.538  0.035410456  0.036042017            2 
  833000    1.1155971   -6.8343609    352.79893  0.035294011  0.036033575            3 
  834000    1.1321019   -6.8209536    353.09434  0.035281209  0.036025194            1 
  835000    1.0918147   -6.8484804    354.02464  0.035331801  0.036016769            2 
  836000     1.110824   -6.8249808     354.4278  0.035329724  0.036008209            1 
  837000    1.1200155   -6.8261158    353.92251  0.035237208  0.036000384            1 
  838000    1.1185707   -6.8347704    354.66295   0.03526879  0.035992407            4 
  839000    1.1241072   -6.8073521    355.58932  0.035318764  0.035984384            4 
  840000    1.1061283   -6.8324594    355.63085  0.035280838  0.035976253            1 
  841000    1.1152388    -6.785249    356.89608  0.035364257   0.03596816            2 
  842000    1.1137983    -6.810354    356.15925  0.035249332  0.035959797            3 
  843000    1.1180206   -6.8426668    355.33302  0.035125843  0.035951521            5 
  844000    1.1383392   -6.8363303    355.36754  0.035087632  0.035942848            2 
  845000     1.120246   -6.8200225    356.34285  0.035142293  0.035934175            4 
  846000    1.1150452   -6.7908372    357.07054  0.035172433  0.035925513            3 
  847000    1.1319926   -6.8104842    357.65545  0.035188454   0.03591647            3 
  848000    1.1532719   -6.8538026    355.55705  0.034940748  0.035907754            3 
  849000    1.1030921    -6.789398    357.83816  0.035123494  0.035898753            1 
  850000    1.1217331   -6.8080425    358.83877  0.035180271  0.035889968            1 
  851000    1.1009948   -6.8382514    358.72668  0.035127956  0.035881367            4 
  852000    1.1343384   -6.8353198    357.63752  0.034980196  0.035872347            2 
  853000    1.1169983    -6.799124    357.86718  0.034961623  0.035863516            2 
  854000    1.0902171   -6.8550002    358.45815  0.034978352  0.035854499            3 
  855000    1.1043758   -6.7974051    359.77176  0.035065474  0.035845367            2 
  856000    1.1025219   -6.8626377    358.67309  0.034917551  0.035836427            4 
  857000    1.1064668   -6.8746181    359.29643  0.034937421  0.035827292            1 
  858000    1.1185448   -6.8242956    359.59296  0.034925501  0.035818006            6 
  859000    1.1262608    -6.815746    360.82001  0.035003881   0.03580879            1 
  860000    1.1022679   -6.8292114    360.89648  0.034970589  0.035799476            2 
  861000    1.1137289   -6.8120864    360.24533   0.03486695  0.035790126            2 
  862000    1.1180609   -6.8562325    361.27272  0.034925824   0.03578106            3 
  863000    1.1352746   -6.7901241    363.34511  0.035085468  0.035771777            3 
  864000    1.1249713   -6.8474282    362.84797   0.03499691  0.035762984            3 
  865000    1.0983901    -6.837114     361.9661  0.034871493  0.035754011            1 
  866000    1.1290676   -6.8254829    363.46641  0.034975597  0.035744989            2 
  867000    1.1174153   -6.8341305    363.47681  0.034936256  0.035735774            2 
  868000    1.1116077   -6.8500301    363.69504  0.034916959  0.035726414            2 
  869000    1.1164472    -6.804012    364.77727  0.034980559   0.03571725            2 
  870000    1.1258847   -6.7899285    364.09572  0.034875069  0.035708153            4 
  871000    1.1118954   -6.8403806     364.9323  0.034915069  0.035699267            2 
  872000    1.1036651   -6.8107629    365.78358  0.034956382  0.035690084            1 
  873000    1.0923579   -6.8546786    365.09281  0.034850402  0.035681299            3 
  874000    1.0985669   -6.8536529    367.13014   0.03500478  0.035672275            3 
  875000    1.1218689   -6.8389563    367.43409  0.034993723  0.035663259            9 
  876000    1.1083863   -6.7779165    366.91613  0.034904502  0.035654536            2 
  877000    1.0944863   -6.8504577    367.44764  0.034915207  0.035645809            3 
  878000     1.110438   -6.8384419      367.481  0.034878606  0.035637314            4 
  879000    1.1128533   -6.8505111    368.75795  0.034959988  0.035628797            1 
  880000    1.1337749   -6.8477704    368.94675  0.034938139  0.035620463            3 
  881000    1.0991996   -6.8479506    369.59823  0.034960105  0.035612428            1 
  882000    1.1044974   -6.8170615    370.32396  0.034989037  0.035604538            3 
  883000    1.1298709   -6.7987092    371.39967  0.035050932  0.035596752            3 
  884000    1.1078868   -6.8073131    370.61306  0.034937129   0.03558892            5 
  885000    1.1183625   -6.8421869    372.19339  0.035046458  0.035581308            2 
  886000    1.1149122   -6.8421571    371.08167  0.034902339  0.035573532            5 
  887000    1.1041775   -6.8352627    373.11633  0.035054146  0.035566156            1 
  888000    1.1153949   -6.8273009    372.99185  0.035002989  0.035558568            3 
  889000    1.1011712   -6.8390202     374.2977  0.035086024  0.035551292            4 
  890000    1.1009985   -6.8588579    373.01837  0.034926813  0.035544066            2 
  891000    1.1457516   -6.8217897    374.52768  0.035028777  0.035536576            3 
  892000    1.1033056   -6.8427772    374.25321  0.034963865  0.035529208            1 
  893000    1.1032428   -6.8684149    375.34548  0.035026641  0.035521922            3 
  894000    1.1181824   -6.8238847    376.87637  0.035130161  0.035514876            1 
  895000    1.1024344   -6.8429145     375.4236  0.034955643  0.035507762            3 
  896000    1.1167751   -6.8397428    376.71904  0.035037113  0.035500609            2 
  897000    1.1081364   -6.8093344    377.50631  0.035071192  0.035493577            4 
  898000     1.126683   -6.8917767    376.91069  0.034976864  0.035486766            2 
  899000    1.1185388   -6.8039488    378.79181  0.035112329   0.03547982            1 
  900000    1.0929894   -6.8492859    378.59225  0.035054838  0.035473346            3 
  901000    1.0936058   -6.8529268    378.69953  0.035025853  0.035466651            1 
  902000    1.1170361   -6.8363176    379.40133   0.03505186  0.035460014            2 
  903000    1.1284382    -6.837969    379.52519  0.035024473  0.035453683            5 
  904000    1.1004847   -6.8153464    381.74465  0.035190325   0.03544761            3 
  905000    1.0978589   -6.8156503    381.30715  0.035111155  0.035441498            2 
  906000    1.0968191   -6.8452105    380.88021  0.035033132  0.035435141            1 
  907000     1.126562   -6.8636133     380.8563   0.03499231  0.035428366            3 
  908000    1.1225323   -6.8141702    381.10651  0.034976735  0.035421846            2 
  909000    1.1002831    -6.827568    381.70292  0.034992934  0.035414919            1 
  910000    1.0918616   -6.8484718    381.28445  0.034916159  0.035408434            2 
  911000    1.1108128   -6.8046821    381.66741  0.034912862  0.035401323            4 
  912000    1.1123666   -6.8021572    382.65832  0.034965124  0.035394436            1 
  913000    1.1015817    -6.859259    382.75105  0.034935291  0.035387256            2 
  914000     1.108952   -6.8214801    383.38433  0.034954807  0.035380121            2 
  915000    1.0940566   -6.8725963    383.57965  0.034934394  0.035373127            1 
  916000    1.1015477   -6.8448509    384.50776  0.034980692  0.035366127            3 
  917000    1.1096685   -6.8497112      384.271  0.034921029  0.035358982            3 
  918000    1.1042615   -6.8604997    385.48186  0.034992906   0.03535232            2 
  919000    1.1219742   -6.8900343    383.80795  0.034803043  0.035345209            2 
  920000    1.1428822   -6.8446794    384.62514  0.034839234   0.03533799            3 
  921000    1.1046204   -6.8618257     385.1105  0.034845322  0.035330709            1 
  922000    1.0858317   -6.8564458    384.89699  0.034788232  0.035323353            2 
  923000     1.102793    -6.842504    385.01745  0.034761416  0.035316014            3 
  924000    1.0802702   -6.8626953    386.64724  0.034870783  0.035308788            4 
  925000    1.1113793    -6.838461    385.09331  0.034693091  0.035301332            3 
  926000    1.1114625   -6.8307806     387.0268  0.034829626  0.035293974            1 
  927000    1.0814598   -6.8343241    387.99527  0.034879115  0.035286641            5 
  928000    1.1227416   -6.8279872    388.08697  0.034849764  0.035279434            3 
  929000    1.0827754   -6.8228815    388.04909  0.034808852  0.035272132            1 
  930000    1.0945282   -6.8565937    387.38044  0.034711509  0.035264953            1 
  931000    1.0904974   -6.8682569     389.7092  0.034882671   0.03525757            2 
  932000    1.0874414   -6.8714441    388.95642  0.034777934  0.035250459            1 
  933000    1.0988916   -6.8492178     389.7271  0.034809495  0.035243318            2 
  934000    1.1041525     -6.84843    390.25313  0.034819159  0.035236223            3 
  935000    1.1105973   -6.8498455    390.04619  0.034763475   0.03522937            2 
  936000    1.0849703   -6.8789188    388.99399  0.034632656  0.035222306            3 
  937000    1.0942516      -6.8226    390.30826  0.034712581  0.035215025            2 
  938000    1.1060415   -6.8663753    389.93101  0.034642059  0.035207528            3 
  939000    1.0753037   -6.8556787    390.90033   0.03469119  0.035199816            2 
  940000    1.0977842   -6.8320017    391.03326  0.034666069  0.035192438            2 
  941000    1.1001029   -6.8670445    391.53307  0.034673492  0.035184951            2 
  942000     1.094113   -6.8613817    391.81974  0.034662043  0.035177379            4 
  943000    1.1189574    -6.856335    391.28746  0.034578249  0.035169714            3 
  944000    1.1102079   -6.8302162     392.4692  0.034645939  0.035161857            1 
  945000    1.0894088   -6.8788256    391.11839  0.034490158  0.035154153            3 
  946000    1.1091256   -6.8497272     392.5437  0.034579255  0.035146313            2 
  947000    1.1046442   -6.8591228    393.04653  0.034586988  0.035138627            1 
  948000    1.1019657   -6.8823461    392.83167  0.034531616  0.035130974            3 
  949000    1.0782678   -6.8454663    394.71503   0.03466061  0.035123385            5 
  950000     1.104684   -6.8826981    394.64734  0.034618188  0.035115896            2 
  951000    1.0936416   -6.8642758    393.78366  0.034506104   0.03510831            2 
  952000     1.074616    -6.897954     392.5347   0.03436053  0.035100493            2 
  953000    1.0975581   -6.8600681    394.04977  0.034456958  0.035092328            2 
  954000    1.1165872   -6.8411889    395.20193  0.034521482  0.035084681            3 
  955000    1.1071935   -6.8538989    396.00045  0.034555013  0.035077029            2 
  956000    1.1041668    -6.833275    395.52361  0.034477302  0.035069357            3 
  957000    1.1099395   -6.8895166    395.54952  0.034443532  0.035061073            3 
  958000    1.1026864   -6.8738712    395.00451   0.03436017  0.035052869            2 
  959000    1.0962374   -6.8615242    395.65206   0.03438061  0.035044573            1 
  960000    1.0872941   -6.8809753    396.38923  0.034408787  0.035036293            2 
  961000    1.1212338   -6.8389294    396.73602  0.034403054  0.035027872            2 
  962000    1.0929329   -6.8672164    396.70728  0.034364803  0.035019402            1 
  963000    1.1016589   -6.8510234    397.77721  0.034421704  0.035010953            4 
  964000    1.0813172   -6.8442347    397.34482  0.034348618  0.035002647            2 
  965000    1.0950206   -6.8375734    398.05844  0.034374649  0.034994549            2 
  966000    1.1241431   -6.8761617    398.20044  0.034351314  0.034986454            2 
  967000    1.0942003   -6.8421599     398.6248  0.034352362  0.034978045            2 
  968000    1.0964368   -6.8852645    398.17311  0.034277988  0.034969804            1 
  969000    1.1012582   -6.8500067    399.15064   0.03432668  0.034961506            1 
  970000    1.1034545    -6.873165     399.0016  0.034278488  0.034953352            2 
  971000    1.0870314   -6.8821567     399.7502  0.034307432  0.034945158            3 
  972000    1.0675193   -6.8301263    402.48613  0.034506699  0.034936873            2 
  973000    1.1124626   -6.8639568    400.36544  0.034289606  0.034928462            3 
  974000    1.1146271   -6.8543108    399.66841  0.034194765  0.034920159            2 
  975000    1.0915134   -6.8641938    400.74347  0.034251579  0.034911675            2 
  976000    1.0680372   -6.8910564    401.47888  0.034279276  0.034903405            3 
  977000    1.0849387   -6.8961856     399.8642  0.034106466  0.034894956            2 
  978000    1.0690527   -6.8969878    402.10178  0.034262251  0.034886455            4 
  979000    1.0980763   -6.8773254    401.67979  0.034191333  0.034878035            1 
  980000    1.0898506   -6.9129184    402.48583  0.034224986  0.034869466            2 
  981000    1.0855631   -6.8907889    401.42179  0.034099711  0.034860956            1 
  982000    1.0627397   -6.8814267    403.24948  0.034220085  0.034852626            4 
  983000    1.1087657   -6.8725011    404.31917  0.034275955  0.034844275            3 
  984000    1.1159271   -6.8712803    404.78396  0.034280485  0.034835643            1 
  985000    1.0947153    -6.848731    404.01461  0.034180593  0.034827195            1 
  986000    1.0750045   -6.8594518    403.67273  0.034117032    0.0348186            3 
  987000    1.1030467    -6.855984    404.15911  0.034123531  0.034810129            2 
  988000    1.0819534   -6.8654552    405.59882  0.034210427  0.034801781            4 
  989000    1.0919965   -6.8592301    406.19376  0.034225966  0.034793496            3 
  990000     1.094123   -6.8708554    405.66872  0.034147199  0.034785115            6 
  991000    1.0671039   -6.8863615    406.17064  0.034154948  0.034776622            2 
  992000    1.1053482   -6.8727822    405.76316  0.034086287  0.034768097            4 
  993000    1.0777438   -6.8680667    406.62109  0.034123958  0.034759683            2 
  994000    1.0762939   -6.8428981     407.8599  0.034193486   0.03475142            1 
  995000    1.0747019   -6.8882264    408.29558   0.03419561  0.034743128            2 
  996000    1.0792271   -6.8587256    407.78664  0.034118695  0.034735016            3 
  997000    1.0966028   -6.8737887    408.21661  0.034120412  0.034726693            6 
  998000    1.1094758    -6.863957    409.48086  0.034191789  0.034718798            3 
  999000    1.0842099   -6.8599722    410.89733   0.03427572  0.034710896            2 
 1000000     1.102398    -6.884232     409.3378  0.034111484   0.03470294            2 
 1001000    1.0920399   -6.8631726    410.75973  0.034195781  0.034694905            4 
 1002000    1.0916587   -6.9148268    410.16655  0.034112321  0.034687016            4 
 1003000     1.082149   -6.8827037    411.47828  0.034187294  0.034679217            3 
 1004000    1.1076541   -6.8992848    410.90954  0.034106038  0.034671715            3 
 1005000    1.0979898   -6.8625542    411.52234  0.034122913  0.034663731            3 
 1006000    1.0952522   -6.8311948    412.78521  0.034193606  0.034656259            4 
 1007000    1.0804535    -6.849829    413.49374  0.034218284  0.034648888            1 
 1008000    1.0973928   -6.8476118    413.14518  0.034155521  0.034641484            1 
 1009000    1.0658842   -6.8983244    412.71308  0.034085983  0.034633837            3 
 1010000    1.0813065   -6.8822757    414.19209  0.034174265  0.034626317            3 
 1011000    1.0793172   -6.8901266    414.57227    0.0341718  0.034618682            4 
 1012000    1.0744791   -6.8206948    413.67294  0.034063977  0.034611034            4 
 1013000    1.1004913   -6.8704073    413.97552  0.034055242   0.03460332            2 
 1014000     1.109353   -6.8815628    414.88038   0.03409602  0.034595432            1 
 1015000    1.0847588   -6.8648797    416.17126  0.034168412  0.034587639            4 
 1016000    1.0799917   -6.8862126     414.5796  0.034004232  0.034580124            1 
 1017000    1.1026437   -6.8925233    415.95506  0.034083502  0.034572364            3 
 1018000    1.0914788   -6.8999098    417.15901  0.034148577  0.034564534            1 
 1019000    1.0729367    -6.909694    416.45748  0.034057694  0.034557254            2 
 1020000    1.0712235    -6.884053    418.11665  0.034159857  0.034549974            2 
 1021000     1.078863   -6.8986756    418.01563  0.034118155  0.034542898            3 
 1022000    1.0835837   -6.8712853    419.33875  0.034192658   0.03453613            1 
 1023000    1.0966652    -6.864568    418.16326  0.034063478  0.034529163            6 
 1024000    1.1045042    -6.859036    419.52859  0.034141324  0.034522032            1 
 1025000    1.1026178   -6.8771545     419.0872   0.03407213  0.034514846            1 
 1026000    1.0891913    -6.930595    419.96374  0.034110115  0.034507662            4 
 1027000    1.1080233   -6.8893608    419.86156  0.034068611  0.034500366            1 
 1028000    1.0844935   -6.8925164    419.11238  0.033974739  0.034492931            3 
 1029000    1.0893864   -6.8743753    420.38038  0.034044411  0.034485602            2 
 1030000    1.0975943   -6.8815815     420.0431  0.033984069   0.03447837            2 
 1031000    1.0937623   -6.8732189    422.21072  0.034126311  0.034471269            5 
 1032000    1.0663716   -6.8576977     422.6733  0.034130596  0.034464231            2 
 1033000    1.0703546   -6.8835492    421.60513  0.034011385  0.034457049            2 
 1034000    1.0980648    -6.893828    421.34803  0.033957771  0.034450007            2 
 1035000    1.1064678   -6.8944152    421.47511  0.033935194  0.034442523            2 
 1036000    1.0801627   -6.8510007    423.01891  0.034026617  0.034435451            1 
 1037000    1.0897524   -6.8955922    421.94936  0.033907856  0.034428109            3 
 1038000    1.0763754   -6.9007738     423.4246  0.033993625   0.03442068            3 
 1039000    1.0797334   -6.8982239    423.61463   0.03397615  0.034413182            4 
 1040000    1.0984571   -6.8900723    422.19827   0.03382999   0.03440559            2 
 1041000    1.0648304   -6.8992177     424.2923  0.033965122   0.03439818            2 
 1042000    1.0824218   -6.8611782    425.47606  0.034027196   0.03439078            2 
 1043000    1.1024543   -6.8820426    423.91281  0.033869672  0.034383314            2 
 1044000    1.0885675   -6.8814597    425.58749  0.033970904  0.034376084            2 
 1045000    1.0925161   -6.9010218    425.59389  0.033938906  0.034368837            1 
 1046000    1.0949979   -6.8889595    426.40385  0.033970989  0.034361371            3 
 1047000    1.0858024   -6.8783247    427.12504  0.033995944  0.034354062            1 
 1048000    1.0788793    -6.846062    426.13946  0.033885135  0.034346936            3 
 1049000    1.0771524   -6.8698238      427.006  0.033921671  0.034339678            1 
 1050000    1.0667354   -6.8628731     426.8046  0.033873381  0.034332447            4 
 1051000    1.1057538   -6.8492388    427.27402  0.033878371  0.034324764            3 
 1052000    1.0898514   -6.8662679    427.19473  0.033839887  0.034317253            3 
 1053000    1.0658915   -6.8869703    428.37189  0.033900909  0.034309905            3 
 1054000    1.1073008   -6.8752893      428.761   0.03389951  0.034302332            1 
 1055000     1.085843   -6.8973941    428.86326  0.033875455  0.034294862            2 
 1056000    1.0723592   -6.8934632    428.11148   0.03378405  0.034287397            4 
 1057000    1.1130743   -6.9245181    428.20488  0.033759451  0.034279897            1 
 1058000    1.0836486   -6.8677012    429.63868  0.033840475  0.034272394            3 
 1059000    1.0679113   -6.9213339    431.00247  0.033915838  0.034265434            2 
 1060000    1.0711446   -6.8246816    432.32311  0.033987666    0.0342583            1 
 1061000    1.0811139   -6.8974146    430.76099   0.03383294  0.034251289            2 
 1062000    1.0860675   -6.8874943     430.5298  0.033782941  0.034244304            2 
 1063000    1.0732618   -6.9104382    431.49532  0.033826852  0.034237336            2 
 1064000    1.0791482   -6.8940745    431.75126  0.033815105  0.034230123            1 
 1065000    1.0566858   -6.8875911    432.49741  0.033841738  0.034222865            2 
 1066000    1.0582862   -6.9315367    432.12512  0.033780888  0.034215527            2 
 1067000    1.0770954   -6.9027473    432.32915  0.033765163  0.034208209            1 
 1068000    1.0857209   -6.8995995    432.62432  0.033756579  0.034201073            2 
 1069000    1.0822333   -6.8871602    433.60754  0.033801648   0.03419379            3 
 1070000    1.0618524   -6.9123792    434.44852  0.033835555  0.034186739            3 
 1071000    1.0929434   -6.8671704    433.22368  0.033708659  0.034179492            2 
 1072000    1.0700678   -6.8601654    434.38782   0.03376771  0.034171939            2 
 1073000    1.0839956   -6.8593801    435.37491  0.033812901  0.034164514            1 
 1074000    1.0693401   -6.8862072    434.55045  0.033717446  0.034157105            1 
 1075000    1.1012711   -6.8927829     434.0242  0.033645287  0.034149614            5 
 1076000    1.0787266   -6.9227929     434.4729  0.033648769  0.034142083            2 
 1077000    1.0731544   -6.8725331    435.44483  0.033692729  0.034134672            2 
 1078000    1.1076465   -6.8867443    437.72364  0.033837635  0.034127265            4 
 1079000    1.0757478   -6.8934826    436.64275  0.033722795  0.034119751            2 
 1080000    1.0673429   -6.9073231    436.20625   0.03365789  0.034112326            2 
 1081000    1.0793516   -6.8992114    435.85581  0.033599738  0.034104709            2 
 1082000    1.0697211   -6.9180744    437.27204   0.03367776  0.034097383            7 
 1083000    1.0827555   -6.8781042    437.11594  0.033634652  0.034090098            5 
 1084000    1.0768491   -6.8950896    437.54641  0.033636717  0.034082574            3 
 1085000    1.0932102   -6.8983433    438.09579   0.03364791  0.034075072            2 
 1086000    1.0880623   -6.8734861    437.78329  0.033592947  0.034067712            2 
 1087000    1.0589841   -6.9166646    438.87741  0.033645922  0.034060119            1 
 1088000     1.025811   -6.8935819    438.73654  0.033604208  0.034052594            2 
 1089000    1.0780612   -6.8786708    438.55891  0.033559758   0.03404482            3 
 1090000     1.087916    -6.868435    438.98114  0.033561249  0.034037021            4 
 1091000    1.0832059   -6.8983116     438.5703  0.033499106  0.034029155            4 
 1092000    1.0745228   -6.9085399     438.5276  0.033465171  0.034021055            4 
 1093000    1.0835582   -6.8933142    441.38391  0.033652326  0.034013193            3 
 1094000    1.0746043   -6.9150973    440.14396  0.033527115  0.034005326            3 
 1095000    1.0658437    -6.923767     440.3032  0.033508615   0.03399745            2 
 1096000    1.0712277   -6.9348354    441.00825  0.033531649  0.033989566            2 
 1097000    1.0703238   -6.8945917    441.31239  0.033524187  0.033981895            3 
 1098000     1.076009   -6.9148355    441.75764  0.033527447  0.033974382            2 
 1099000    1.0702719   -6.9133464     442.2901  0.033537314  0.033966816            2 
 1100000    1.0929096   -6.9033692    441.07859  0.033415045  0.033959301            4 
 1101000    1.0779333    -6.913295    442.20923  0.033470272  0.033951523            2 
 1102000    1.0609539     -6.91822    441.74014  0.033404426  0.033943644            3 
 1103000    1.0805778   -6.9432881    442.16017  0.033405876  0.033935837            3 
 1104000     1.073075   -6.8906288     444.1326  0.033524502  0.033928127            2 
 1105000    1.0624766   -6.9512467    442.77852  0.033392046  0.033920551            2 
 1106000    1.0498407   -6.8800098    444.41261  0.033484977  0.033912951            3 
 1107000    1.0829088    -6.885666     443.9534   0.03342016   0.03390546            1 
 1108000    1.0621637   -6.9167668    444.78608  0.033452623  0.033897966            2 
 1109000    1.0840408    -6.890935    444.59615  0.033408187  0.033890293            1 
 1110000    1.0829024   -6.9171816    444.62445  0.033380214  0.033882618            3 
 1111000    1.0965636   -6.9017117    445.51214  0.033416752  0.033874772            3 
 1112000    1.0841686   -6.8789808    445.32121  0.033372393  0.033867081            3 
 1113000    1.0880769   -6.9116491    445.75339  0.033374767  0.033859268            2 
 1114000    1.0633267   -6.9315559    445.96343   0.03336052  0.033851291            2 
 1115000    1.0671001   -6.9126025    445.31539  0.033282167  0.033843401            3 
 1116000    1.0505198   -6.9317616    446.81569  0.033364374  0.033835743            3 
 1117000    1.0680513   -6.8750991    447.73441  0.033403044  0.033828045            3 
 1118000    1.0796571   -6.8955904    448.76234  0.033449787  0.033820535            3 
 1119000    1.0711827   -6.9398728    447.38678  0.033317454  0.033812941            2 
 1120000    1.0728622   -6.9167625    447.03059  0.033261204  0.033805053            3 
 1121000    1.0575358   -6.9321097     447.8722  0.033294097  0.033797244            2 
 1122000     1.084429   -6.9022449    447.64757   0.03324774  0.033789184            2 
 1123000    1.0652687   -6.9272408    448.36962  0.033271714  0.033781129            2 
 1124000    1.1155135   -6.9090521    450.46835  0.033397713  0.033773224            1 
 1125000    1.0772578   -6.9127582    448.27272  0.033205387   0.03376511            4 
 1126000    1.0770119   -6.9262107    448.65122  0.033203909  0.033756744            3 
 1127000     1.087253   -6.9070511    449.95137  0.033270584  0.033748417            2 
 1128000    1.0738095   -6.9580233    448.27037  0.033116901  0.033740334            2 
 1129000    1.0566572   -6.9207789    449.20563  0.033156601  0.033732123            4 
 1130000    1.0640721   -6.9147301     450.1502  0.033196918  0.033724103            2 
 1131000      1.08732   -6.8966416    450.14254  0.033167001  0.033716308            2 
 1132000    1.0864281   -6.9324681    450.91711  0.033194722  0.033708651            3 
 1133000    1.0564444   -6.9490206    451.53731  0.033211041  0.033700681            2 
 1134000    1.0984179   -6.9237985    452.04709  0.033219216  0.033692646            4 
 1135000    1.0594269   -6.8978314    451.57259   0.03315511  0.033684929            2 
 1136000    1.0626781    -6.937658    452.90519  0.033223679   0.03367709            5 
 1137000    1.0727799   -6.9519341    452.89256  0.033193532  0.033669178            3 
 1138000    1.0722582   -6.9341826    452.45481  0.033132309  0.033661194            3 
 1139000    1.0584451   -6.9022781    453.72926  0.033196463  0.033653418            2 
 1140000    1.0611932   -6.9295389    454.09333  0.033193957  0.033645545            2 
 1141000    1.0794016   -6.9086438    454.10917  0.033166022  0.033637482            2 
 1142000    1.0691365   -6.8602336    454.00738  0.033129552   0.03362977            2 
 1143000    1.0706007   -6.9536172    452.90709  0.033020348   0.03362179            3 
 1144000    1.0794881   -6.9202571    454.29406  0.033092516  0.033613679            2 
 1145000    1.0837933   -6.8970665    456.04859  0.033191309  0.033605669            2 
 1146000    1.0328357   -6.9014621    455.93638  0.033154187  0.033598091            2 
 1147000    1.0799068   -6.9168551    455.75109   0.03311182  0.033590261            1 
 1148000    1.0572784   -6.8961394    456.02732  0.033103028  0.033582489            2 
 1149000    1.0787042   -6.9047181    455.20492  0.033014572  0.033574693            3 
 1150000    1.0754555   -6.8965017    457.99606   0.03318812   0.03356716            2 
 1151000    1.0755235   -6.9463807     456.6413  0.033061201  0.033559518            3 
 1152000     1.077667   -6.9172409      458.196  0.033144965  0.033551837            1 
 1153000    1.0670675    -6.894147    457.81898   0.03308897  0.033543993            3 
 1154000    1.0604735   -6.9174581    457.96461  0.033070812  0.033536204            4 
 1155000    1.0554616   -6.8984683    458.78748   0.03310155  0.033528179            1 
 1156000    1.0563794   -6.8925346    457.98474  0.033015048   0.03352032            2 
 1157000    1.0647493   -6.9254621    458.16918  0.032999797  0.033512439            2 
 1158000    1.0756147    -6.915569    459.78368  0.033087484  0.033504775            2 
 1159000    1.0546175   -6.9650833    458.04713  0.032934076  0.033496831            4 
 1160000    1.0528256   -6.9339645    459.81412  0.033032623  0.033488701            8 
 1161000    1.0703284   -6.9475727    457.97066  0.032871853  0.033480627            2 
 1162000    1.0709272   -6.9533611    459.93566  0.032984485   0.03347252            3 
 1163000    1.0426071   -6.8909154    460.93853  0.033027983  0.033464646            2 
 1164000    1.0804634   -6.9371354    461.08651  0.033010202  0.033456619            2 
 1165000    1.0596357    -6.921065    461.22434  0.032991727   0.03344845            3 
 1166000    1.0711031    -6.884731     462.3322   0.03304261  0.033440435            2 
 1167000    1.0434128   -6.9555899    460.23363  0.032864441  0.033432388            4 
 1168000    1.0567647   -6.8916293    462.40018  0.032990881  0.033424261            3 
 1169000    1.0702668   -6.8976945    460.76673  0.032846217    0.0334161            2 
 1170000    1.0721953   -6.8708193    461.63332  0.032879866  0.033407865            3 
 1171000    1.0703299   -6.9375133    462.73401  0.032930117  0.033399778            2 
 1172000    1.0405887   -6.9337562    461.45758  0.032811262  0.033391659            5 
 1173000    1.0543358   -6.9340439    462.13149  0.032831166  0.033383635            2 
 1174000    1.0677316    -6.904311    463.43903  0.032896013  0.033375626            2 
 1175000    1.0629926   -6.9439949    463.35472  0.032862037  0.033367562            3 
 1176000    1.0834414   -6.9388911    464.09956  0.032886873  0.033359557            3 
 1177000    1.0580568   -6.9279803    462.56902  0.032750568   0.03335139            2 
 1178000    1.0593063   -6.9110338    463.67533  0.032801028  0.033343228            2 
 1179000    1.0459039   -6.9494162    464.68848  0.032844818  0.033335079            3 
 1180000    1.0682163   -6.9665784    464.35287  0.032793282  0.033326696            1 
 1181000    1.0732866   -6.9603378    465.12398  0.032819925   0.03331859            3 
 1182000    1.0789395   -6.9271925    466.19792  0.032867874  0.033310605            3 
 1183000    1.0559749    -6.931429    465.55398   0.03279473  0.033302651            3 
 1184000    1.0513401   -6.9154411    467.03586   0.03287133  0.033294719            2 
 1185000    1.0684413   -6.9550898    466.49392  0.032805479  0.033286716            2 
 1186000    1.0625118   -6.9160822    468.04383  0.032886722  0.033278787            1 
 1187000    1.0524891   -6.9515698    467.92924  0.032850971  0.033270857            3 
 1188000    1.0762441   -6.9243881    469.12364  0.032907101  0.033263151            2 
 1189000    1.0651465   -6.9257383    469.34928  0.032895239  0.033255362            2 
 1190000    1.0425651   -6.9138293    468.66779  0.032819873  0.033247635            3 
 1191000     1.061157   -6.9256384    468.84876  0.032804979  0.033239855            2 
 1192000    1.0710923   -6.9037792    469.53599  0.032825503  0.033232213            2 
 1193000    1.0670584   -6.9216598    469.05495  0.032764386  0.033224541            1 
 1194000    1.0601863   -6.9144842    470.14678  0.032813148  0.033216848            6 
 1195000    1.0600584   -6.9251953    470.73519  0.032826722  0.033209118            2 
 1196000    1.0637414   -6.9387703    472.08853  0.032893571  0.033201458            2 
 1197000    1.0723571   -6.9052086    471.89132  0.032852362  0.033193845            4 
 1198000     1.076042   -6.9279305    472.14277  0.032842429  0.033186207            4 
 1199000    1.0622706   -6.9519924     471.9528  0.032801835  0.033178463            3 
 1200000    1.0705058   -6.9588006     472.2584  0.032795722  0.033170757            2 
 1201000    1.0496484   -6.9331573    473.14643  0.032830033  0.033163017            2 
 1202000     1.083919   -6.9072419    472.29825  0.032743916  0.033155352            1 
 1203000    1.0622487   -6.9005374     474.6239  0.032877799  0.033148006            2 
 1204000    1.0552704   -6.9125422    474.58296  0.032847658  0.033140645            3 
 1205000     1.061413   -6.9416448    474.64358  0.032824591   0.03313322            1 
 1206000    1.0574536   -6.9363124    474.67642  0.032799642  0.033125903            5 
 1207000    1.0688864   -6.9570846    473.86107  0.032716174  0.033118636            4 
 1208000    1.0636602   -6.9738661    474.44719  0.032729524   0.03311142            4 
 1209000    1.0506027   -6.9122974    476.83712  0.032867185  0.033104239            1 
 1210000     1.057007   -6.9431736    474.64977  0.032689378  0.033097032            2 
 1211000    1.0696396   -6.9296728    476.37457  0.032781074  0.033089922            2 
 1212000    1.0722332   -6.9398988    477.20799   0.03281133  0.033082869            2 
 1213000    1.0441228   -6.9032315    478.85225  0.032897242  0.033075758            1 
 1214000    1.0479495   -6.9372368    476.98715  0.032742116  0.033068608            3 
 1215000    1.0605515    -6.969327    477.70975  0.032764729   0.03306141            2 
 1216000    1.0635844    -6.946036    477.18902  0.032702098  0.033054224            2 
 1217000    1.0559182   -6.9246891    477.82017  0.032718445  0.033047272            2 
 1218000     1.062713   -6.9427506    478.55009  0.032741523  0.033040099            3 
 1219000    1.0362376   -6.9304349    478.81698  0.032732908    0.0330328            4 
 1220000    1.0477568   -6.9329745    478.14138   0.03265993  0.033025659            3 
 1221000    1.0334585   -6.9108642    480.23939  0.032776371  0.033018652            3 
 1222000    1.0728209   -6.9588659     479.2554  0.032682447  0.033011742            5 
 1223000    1.0484084   -6.9336111    478.94548  0.032634606  0.033004609            2 
 1224000    1.0561629   -6.9280914    481.58927   0.03278794  0.032997524            3 
 1225000    1.0587544   -6.9453494    481.01381  0.032722028  0.032990572            4 
 1226000    1.0402142   -6.9212134    482.63144  0.032805291  0.032983743            3 
 1227000    1.0672329   -6.9869824    480.68833  0.032646586  0.032976729            3 
 1228000    1.0670425   -6.9739231     481.5163  0.032676187  0.032969654            1 
 1229000    1.0593568   -6.9106146    481.32607  0.032636701   0.03296268            2 
 1230000    1.0515745   -6.9656168      482.316  0.032677236  0.032955516            3 
 1231000    1.0420174   -6.9470566    481.58722  0.032601355  0.032948361            3 
 1232000    1.0482117   -6.9815433    483.59495  0.032710697  0.032941217            3 
 1233000    1.0422186   -6.9479026    481.97133  0.032574434  0.032933931            2 
 1234000    1.0445812   -6.9558364    483.25862  0.032634969  0.032926754            2 
 1235000    1.0607026   -6.9012997    484.24513   0.03267511  0.032919578            2 
 1236000    1.0348972   -6.9631651    483.40576  0.032592082  0.032912321            1 
 1237000    1.0762103   -6.9386745    483.75609  0.032589335  0.032905107            1 
 1238000    1.0412283   -6.9707703    482.48995  0.032477783  0.032897829            7 
 1239000    1.0604381   -6.9539973    482.82379  0.032474024  0.032890447            2 
 1240000    1.0494249   -6.9238766    484.72072  0.032575317  0.032883143            3 
 1241000    1.0530373   -6.9444635    484.17138  0.032512179  0.032875907            2 
 1242000    1.0625739   -6.9254392    485.41529  0.032569464  0.032868559            1 
 1243000     1.061798   -6.9525511    485.14247  0.032524971  0.032861236            2 
 1244000     1.045883   -6.9632993    484.56517  0.032460154  0.032853779            2 
 1245000    1.0461028   -6.9504999    484.98447  0.032462147  0.032846163            3 
 1246000    1.0346663   -6.9611236    484.89753  0.032430279  0.032838446            2 
 1247000    1.0440265   -6.9745733    485.25062  0.032427868  0.032830839            2 
 1248000    1.0560483   -6.9407755    485.33913  0.032407794  0.032823201            2 
 1249000     1.060316   -6.9529365    485.13763  0.032368404  0.032815555            2 
 1250000    1.0489997   -6.9425139    486.14034  0.032409356  0.032807855            2 
 1251000    1.0498078   -6.9560501    486.60585  0.032414458  0.032800549            3 
 1252000    1.0366849   -6.9491881    487.32024  0.032436118  0.032793031            2 
 1253000    1.0466007   -6.9359617    488.21211  0.032469547  0.032785471            1 
 1254000    1.0378371   -6.9132329    487.87191  0.032421047  0.032777908            2 
 1255000    1.0360875   -6.9669376    486.59403   0.03231036   0.03277038            4 
 1256000    1.0638685   -6.9645304    486.82429  0.032299913  0.032762761            4 
 1257000    1.0392064    -7.003869    488.65978  0.032395902  0.032755185            2 
 1258000    1.0426878   -6.9954334    488.12477  0.032334709  0.032747603            2 
 1259000    1.0577328   -6.9960408    488.99537  0.032366651   0.03274011            3 
 1260000    1.0634349   -6.9967369    489.04235  0.032344071  0.032732577            2 
 1261000    1.0399764   -6.9277899     490.3449    0.0324045  0.032725059            2 
 1262000     1.031253   -6.9179846    491.33257  0.032444042  0.032717522            2 
 1263000    1.0428697   -6.9694582    490.68219  0.032375441  0.032710072            2 
 1264000    1.0552043   -6.9863377    491.66033  0.032414315  0.032702764            6 
 1265000    1.0356918   -6.9523486    490.66717  0.032323266  0.032695492            5 
 1266000    1.0580845   -6.9770173    491.04327   0.03232249  0.032688151            3 
 1267000    1.0313362   -6.9650218    492.06518  0.032364192  0.032680876            4 
 1268000    1.0532829   -6.9347308    492.97181  0.032398253  0.032673569            3 
 1269000    1.0544844   -6.9490593    492.56446  0.032345972  0.032666433            2 
 1270000    1.0725255   -6.9688135     493.3687  0.032373274  0.032659208            1 
 1271000    1.0537867   -6.9707752    492.22551   0.03227285  0.032651691            2 
 1272000    1.0530962   -6.9597049    491.90093  0.032226214  0.032644279            2 
 1273000    1.0390312   -6.9512203     494.5154  0.032372047  0.032636812            4 
 1274000    1.0324929   -6.9432256    495.01934  0.032379601  0.032629398            1 
 1275000    1.0473411   -6.9833212    494.48029  0.032318973  0.032622077            4 
 1276000    1.0593866   -6.9718927    494.32368  0.032283417  0.032614905            3 
 1277000     1.049424   -6.9644368    494.85336  0.032292702  0.032607673            2 
 1278000    1.0337802   -6.9415881    495.28592  0.032295639  0.032600471            2 
 1279000    1.0362449   -6.9733946    495.38245  0.032276678  0.032593124            3 
 1280000    1.0718147   -6.9696839    496.02554  0.032293329  0.032585975            2 
 1281000    1.0387026   -6.9690881    495.65871  0.032244256  0.032578807            2 
 1282000    1.0263677   -6.9552699    497.83636  0.032360658   0.03257178            1 
 1283000    1.0338399   -6.9974478    495.90115   0.03220974  0.032564692            1 
 1284000    1.0459682   -6.9480128    496.18166  0.032202859  0.032557479            5 
 1285000    1.0709238   -6.9653476    498.49172  0.032327608  0.032550328            1 
 1286000    1.0552461   -6.9639076    498.77687  0.032320948   0.03254358            2 
 1287000    1.0384267   -6.9699563    498.88981  0.032303148  0.032536589            3 
 1288000    1.0438737   -7.0262177     498.0169   0.03222159  0.032529576            3 
 1289000    1.0408577   -6.9919399    500.09232  0.032330768  0.032522652            1 
 1290000    1.0496634   -6.9533763    500.39022   0.03232495  0.032515956            2 
 1291000    1.0496971   -6.9550709     499.9964   0.03227449  0.032509176            4 
 1292000    1.0528674   -6.9626645    503.36029  0.032466479   0.03250234            1 
 1293000    1.0755613   -6.9703189    501.25832  0.032305898  0.032495636            3 
 1294000    1.0296093   -6.9836395    502.17035  0.032339667  0.032489079            1 
 1295000    1.0489577    -6.966741    501.89615   0.03229705  0.032482496            4 
 1296000    1.0342509   -6.9691183     501.6651  0.032257272  0.032475838            4 
 1297000    1.0349936   -6.9502528     503.6286  0.032358558  0.032469055            3 
 1298000    1.0265007   -7.0096575    501.99436  0.032228708  0.032462447            2 
 1299000    1.0310888   -6.9290037    504.91633  0.032391348  0.032455776            3 
 1300000    1.0654816   -6.9719898     503.6969  0.032288263  0.032449268            3 
 1301000    1.0400412   -6.9957799    503.16431  0.032229331  0.032442635            3 
 1302000    1.0254104   -7.0148274    502.96002  0.032191501  0.032435897            3 
 1303000    1.0438317   -6.9737187    505.19682  0.032309851  0.032429016            2 
 1304000    1.0473297   -6.9773448    505.36893  0.032296071  0.032422135            2 
 1305000    1.0495685   -6.9961913    504.49659  0.032215619  0.032415242            5 
 1306000    1.0627853   -6.9696126    504.58158  0.032196374  0.032408496            2 
 1307000     1.036401   -6.9535287    504.21452  0.032148337  0.032401537            2 
 1308000     1.044407    -6.961219    505.31107  0.032193621  0.032394728            3 
 1309000    1.0398445   -6.9766693    504.59483   0.03212343  0.032387604            1 
 1310000    1.0501707   -6.9581714    505.20716   0.03213786   0.03238048            3 
 1311000    1.0281402   -6.9807457    506.08704  0.032169275  0.032373583            3 
 1312000    1.0388978   -7.0009276    506.28377  0.032157252  0.032366668            3 
 1313000    1.0114414   -6.9843964    506.96852   0.03217622  0.032359665            2 
 1314000    1.0307767   -6.9507117    506.92996  0.032149287  0.032352836            2 
 1315000    1.0226589   -6.9438025      507.682  0.032172497  0.032345984            2 
 1316000    1.0104246   -6.9547806    507.20866  0.032118076   0.03233908            4 
 1317000    1.0440576   -6.9640991    507.68989  0.032124139  0.032332325            4 
 1318000    1.0436346   -6.9728894    506.97549  0.032054596  0.032325467            3 
 1319000     1.024263    -6.986637    508.55493  0.032130082  0.032318615            2 
 1320000    1.0388101   -6.9878646    507.43393  0.032034971  0.032311752            5 
 1321000    1.0291196   -6.9695755    509.58885   0.03214666  0.032305069            2 
 1322000    1.0258008   -6.9653067    510.54778   0.03218279  0.032298297            1 
 1323000    1.0258594   -6.9913862    510.08638  0.032129402  0.032291541           12 
 1324000    1.0355077   -6.9650207    511.51875  0.032195289  0.032284864            5 
 1325000    1.0402439   -6.9780616    511.36227  0.032161149  0.032278398            1 
 1326000     1.055636   -6.9924686    511.12393  0.032121916  0.032271879            2 
 1327000    1.0386968   -6.9248268    511.49169  0.032120805  0.032265384            2 
 1328000    1.0543587   -6.9922992    511.58217  0.032102295  0.032258756            2 
 1329000    1.0352829   -6.9740954    512.81674  0.032155552  0.032252233            1 
 1330000     1.037263    -6.955719    513.58188  0.032179316  0.032245577            3 
 1331000    1.0296388   -6.9788149     511.3116  0.032012998  0.032238903            4 
 1332000    1.0331219   -6.9407271    512.20952   0.03204514  0.032232164            3 
 1333000    1.0315895   -6.9706611    513.53056  0.032103686   0.03222563            1 
 1334000    1.0223028   -6.9800412      513.312  0.032065967  0.032218866            5 
 1335000    1.0135617   -6.9617991    513.29651  0.032040981  0.032212047            3 
 1336000    1.0344512   -6.9688496    514.21209  0.032074108  0.032205435            3 
 1337000    1.0390472    -6.950224    514.75698   0.03208408  0.032198839            3 
 1338000    1.0151154   -6.9717097    514.33141  0.032033595  0.032192226            4 
 1339000      1.03646   -6.9741921    513.61436  0.031965046  0.032185457            2 
 1340000    1.0363552   -7.0018193    515.36783  0.032050238  0.032178684            5 
 1341000     1.050161    -6.980359     515.1301  0.032011565  0.032171903            2 
 1342000    1.0278271   -6.9758699    515.23985  0.031994526  0.032165228            4 
 1343000    1.0428887   -6.9541528    516.94329  0.032076402  0.032158598            3 
 1344000    1.0593568   -7.0081763    514.67804  0.031912081  0.032151946            1 
 1345000    1.0364828   -6.9872828    517.15551  0.032041853   0.03214526            4 
 1346000    1.0382727   -6.9620775    516.51231  0.031978226   0.03213859            2 
 1347000    1.0719305   -6.9951113    517.40116  0.032009476   0.03213181            3 
 1348000    1.0467002    -6.973747     517.5019  0.031991957   0.03212508            3 
 1349000    1.0267611   -6.9890609     517.1624   0.03194727  0.032118217            1 
 1350000    1.0432629    -7.010285    516.49547  0.031882436  0.032111637            1 
 1351000    1.0323956   -6.9834815    519.03998   0.03201579  0.032105011            3 
 1352000    1.0148383   -6.9527306    519.20966  0.032002568  0.032098478            2 
 1353000    1.0565325   -6.9843366    518.46466  0.031933029  0.032092044            3 
 1354000    1.0084052   -6.9653214    518.71555  0.031924886  0.032085448            3 
 1355000    1.0321256   -7.0141357    518.40304  0.031882106  0.032078747            2 
 1356000    1.0388396   -6.9656815    519.80927  0.031945014  0.032072233            3 
 1357000    1.0320709   -6.9914732    520.77455  0.031980751   0.03206582            4 
 1358000    1.0220348   -7.0240575    521.23113  0.031985219  0.032059222            4 
 1359000     1.049373   -6.9758236    520.73726  0.031931399  0.032052848            3 
 1360000    1.0193764   -6.9869963    522.22834  0.031999286   0.03204654            3 
 1361000     1.035902   -6.9883229    523.66628  0.032063818  0.032040251            2 
 1362000    1.0102536   -6.9597323    522.76257  0.031984984  0.032034054            4 
 1363000    1.0392371   -6.9528538    522.32395    0.0319347  0.032027743            2 
 1364000    1.0244458   -6.9939889    523.67113  0.031993593  0.032021566            4 
 1365000    1.0385762   -6.9944585    523.47255  0.031958031  0.032015181            5 
 1366000      1.03449   -6.9889057    523.40626  0.031930592   0.03200899            4 
 1367000    1.0137082   -7.0381209      522.667  0.031862168  0.032002604            2 
 1368000    1.0321732   -7.0103952      522.957  0.031856542  0.031996203            2 
 1369000    1.0287199   -7.0157237    523.05078  0.031838981  0.031989685            8 
 1370000    1.0384765   -7.0122193    524.16586  0.031883568  0.031983201            1 
 1371000    1.0329297   -6.9936936    525.24446  0.031925873  0.031976623            2 
 1372000    1.0244594   -7.0196834    523.59134  0.031802195  0.031970169            2 
 1373000    1.0217573   -6.9799395    525.22359  0.031878101  0.031963765            3 
 1374000    1.0119642   -6.9809869    525.32351   0.03186096  0.031957295            5 
 1375000    1.0055501    -6.998035     523.8229  0.031746843  0.031950832            2 
 1376000    1.0329193   -7.0101343    524.72429  0.031778361  0.031944127            2 
 1377000    1.0209997   -6.9924805    525.79866  0.031820302  0.031937515            2 
 1378000    1.0410027    -6.995608    526.38946  0.031832938  0.031930895            3 
 1379000    1.0225952   -6.9844025    526.09457  0.031792033  0.031924326            3 
 1380000    1.0300283   -6.9890101    527.32835  0.031843499  0.031917905            2 
 1381000    1.0400855   -6.9803908    528.01397  0.031861814  0.031911694            3 
 1382000     1.022924   -7.0235645    527.49161  0.031807261  0.031905448            2 
 1383000    1.0277941   -6.9869998    527.61291  0.031791571  0.031898868            2 
 1384000    1.0142853   -6.9881797     528.7179  0.031835134  0.031892358            1 
 1385000    1.0347618   -7.0057095    528.54206  0.031801568  0.031885991            2 
 1386000     1.048664    -7.010694    527.62305  0.031723367  0.031879619            6 
 1387000    1.0372408   -7.0344817    529.17846  0.031793947  0.031873315            2 
 1388000    1.0351367   -6.9962679    529.55358  0.031793563  0.031866953            1 
 1389000    1.0341327    -7.013212    529.17261  0.031747817  0.031860577            4 
 1390000    1.0273678   -7.0073897    529.28188  0.031731527  0.031854332            4 
 1391000    1.0253666   -7.0002651    530.37548  0.031774232  0.031848145            3 
 1392000    1.0567135   -6.9945599    531.43536  0.031814856  0.031841756            1 
 1393000    1.0145271   -6.9814213    529.91335  0.031700966  0.031835385            3 
 1394000    1.0173642   -6.9616628    531.96301  0.031800754  0.031829133            2 
 1395000    1.0276531   -6.9985049    531.89347  0.031773804  0.031823077            3 
 1396000     1.035952   -6.9905547    532.12989  0.031765156   0.03181697            2 
 1397000    1.0383858   -6.9791994    531.91995  0.031729894  0.031810834            2 
 1398000    1.0451643   -7.0457177    532.30608  0.031730215  0.031804447            3 
 1399000    1.0224332   -7.0203625    531.58834  0.031664781  0.031798096            5 
 1400000    1.0168034   -7.0114765    533.77058  0.031772058  0.031791896            2 
 1401000     1.020583   -6.9939868    532.70463  0.031685976  0.031785635            1 
 1402000    1.0390953   -7.0091602    533.84949  0.031731424  0.031779347            1 
 1403000    1.0245299   -7.0064385    532.38586  0.031621873     0.031773            4 
 1404000    1.0275165   -6.9819039    534.65476   0.03173402  0.031766569            1 
 1405000    1.0166238   -7.0298618    534.08916  0.031677886  0.031760282            1 
 1406000     1.012073   -7.0008244    535.89225  0.031762224  0.031754006            2 
 1407000    1.0170639    -7.017526    533.66554  0.031607767  0.031747606            3 
 1408000    1.0128061   -7.0389265    533.65471  0.031584677  0.031741168            1 
 1409000    1.0242626   -6.9997662    535.65139  0.031680352  0.031734797            2 
 1410000    1.0396734   -6.9978131    535.92135  0.031673839  0.031728477            3 
 1411000    1.0172804   -6.9941313    536.68366  0.031696412  0.031722318            3 
 1412000    1.0222043   -7.0377275    536.89753  0.031686587  0.031715925            2 
 1413000    1.0156636    -7.005895    535.15197  0.031561215  0.031709589            4 
 1414000    1.0179032   -6.9769957     537.9479  0.031703671  0.031703416            1 
 1415000    1.0444538   -7.0111754    537.09242  0.031630885  0.031697065            3 
 1416000     1.023835   -7.0089824    536.66357  0.031583308  0.031690623            3 
 1417000    1.0265416   -7.0095049    537.82943  0.031629583  0.031684186            2 
 1418000    1.0288745   -6.9736682    538.54073  0.031649079  0.031677916            1 
 1419000    1.0406458   -7.0017918     537.1166  0.031543141  0.031671625            2 
 1420000    1.0394795   -6.9909472    539.03783  0.031633676  0.031665306            3 
 1421000    1.0232297   -7.0237178    537.93883  0.031546964  0.031659037            5 
 1422000    1.0109364   -7.0179558    539.58419  0.031621202  0.031652628            1 
 1423000    1.0301904   -7.0039735    539.81199  0.031612321  0.031646314            5 
 1424000    1.0496027   -6.9928925    538.75644   0.03152835   0.03163996            3 
 1425000    1.0315347   -7.0610635     537.5708  0.031436889  0.031633396            5 
 1426000    1.0191122    -7.010269    538.05899  0.031443373  0.031626691            2 
 1427000    1.0137234   -7.0128925    537.51636   0.03138965  0.031620028            1 
 1428000     1.009426   -6.9889232    539.73491  0.031497135  0.031613392            3 
 1429000    1.0170292    -7.005347    540.30766  0.031508494  0.031606789            2 
 1430000   0.99692059   -6.9892741    539.02139  0.031411503  0.031600238            3 
 1431000    1.0188599   -7.0116192    541.30133  0.031522323  0.031593724            3 
 1432000    1.0367013   -7.0123703    539.61442  0.031402143  0.031587045            5 
 1433000    1.0012023   -7.0182125    540.29364  0.031419728  0.031580329            2 
 1434000    1.0141719   -7.0307563    540.16413  0.031390291  0.031573682            2 
 1435000    1.0199792   -7.0088913    540.48893  0.031387278  0.031567099            2 
 1436000    1.0093435   -7.0011401    541.07764  0.031399584  0.031560555            2 
 1437000    1.0443983   -7.0318517    541.76435  0.031417557  0.031553859            3 
 1438000    1.0161532   -7.0308146    541.72605  0.031393489  0.031547229            2 
 1439000    1.0097268   -7.0128633    542.50196  0.031416606  0.031540563            2 
 1440000    1.0084817   -6.9995752    542.44519  0.031391504  0.031534023            5 
 1441000    1.0295579   -6.9431528    544.63679   0.03149646  0.031527376            2 
 1442000    1.0125021   -7.0003379    544.30737  0.031455581  0.031520844            4 
 1443000    1.0100676   -7.0000606    542.57474  0.031333723  0.031514174            2 
 1444000    1.0293953   -6.9989277     543.4318  0.031361484  0.031507494            3 
 1445000    1.0399208   -6.9897885     544.7289  0.031414585   0.03150093            4 
 1446000    1.0146119   -7.0292465    542.71374  0.031276725  0.031494334            2 
 1447000    1.0500816   -7.0034148    545.18981  0.031397708  0.031487694            1 
 1448000    1.0407853   -7.0105353    543.78523  0.031295191  0.031481004            3 
 1449000    1.0107092   -7.0092167    545.47733  0.031370907  0.031474249            5 
 1450000    1.0104618   -7.0091931    544.50542  0.031293415  0.031467526            5 
 1451000    1.0297731   -7.0313941    543.60695  0.031220247  0.031460768            2 
 1452000    1.0240004   -7.0496975    544.28916  0.031237899  0.031453798            2 
 1453000    1.0266119   -7.0025153    544.72078  0.031241155  0.031446899            1 
 1454000     1.021327   -7.0517984    544.55772  0.031210323   0.03143998            2 
 1455000    1.0229255   -7.0320492    545.92928  0.031267427  0.031433143            2 
 1456000    1.0113404   -7.0180214     547.0545  0.031310354  0.031426199            2 
 1457000    1.0064619   -7.0231078    545.93007  0.031224552  0.031419352            2 
 1458000    1.0244417   -7.0346116    545.30122  0.031167194  0.031412398            1 
 1459000    1.0197539   -7.0262349    545.21375  0.031140835  0.031405458            3 
 1460000    1.0235949   -7.0071928    545.11496  0.031113867  0.031398362            1 
 1461000    1.0282625   -7.0406777    546.05674  0.031146289  0.031391279            2 
 1462000    1.0026129   -7.0251004    545.48694  0.031092507  0.031384299            1 
 1463000    1.0122174   -7.0197733    548.53014  0.031244597  0.031377314            2 
 1464000    1.0298776   -7.0151084    547.48555  0.031163795  0.031370435            6 
 1465000    1.0250222   -7.0348188    547.10901  0.031121104  0.031363439            3 
 1466000    1.0191283   -7.0344993     547.2328  0.031106912  0.031356547            1 
 1467000    1.0171516   -7.0331066    546.30422  0.031032959  0.031349594            3 
 1468000    1.0364404   -7.0266857    548.43699   0.03113289  0.031342532            2 
 1469000    1.0020742   -7.0187489    548.53635  0.031117333  0.031335603            3 
 1470000    1.0030821   -7.0137018     548.2219  0.031078339  0.031328595            3 
 1471000    1.0170927   -7.0229133    548.56457  0.031076624  0.031321339            3 
 1472000    1.0151409   -7.0079125    549.03419  0.031082099  0.031314071            4 
 1473000    1.0328243   -7.0126644    547.98041  0.031001381  0.031306996            2 
 1474000    1.0270872   -7.0276959    547.61126  0.030959478  0.031299836            1 
 1475000    1.0097601   -7.0278486    550.50722  0.031102103  0.031292657            2 
 1476000    1.0043733   -7.0108699    548.84778  0.030987341  0.031285467            3 
 1477000     1.017951   -7.0239118    549.30475  0.030992143  0.031278251            3 
 1478000   0.99746708    -7.038594    547.73075  0.030882428  0.031270939            1 
 1479000    1.0144557   -7.0660862    549.17008  0.030942646  0.031263582            4 
 1480000     1.013458   -7.0362837    550.27192  0.030983779  0.031256311            2 
 1481000    1.0381991   -7.0428231    549.89644  0.030941731  0.031248991            5 
 1482000    1.0285634   -7.0872025    549.00505  0.030870729  0.031241529            2 
 1483000    1.0063969    -7.074961    549.33442  0.030868421  0.031234039            5 
 1484000    1.0057846   -7.0124022    550.71777  0.030925302  0.031226613            4 
 1485000    1.0007388   -7.0197687    550.28257  0.030880054  0.031219341            2 
 1486000    1.0234167   -7.0143506    550.99483  0.030899216  0.031211911            3 
 1487000    1.0323792   -7.0129282     550.3434   0.03084193  0.031204504            2 
 1488000    1.0130046   -7.0293713    551.40157  0.030880464  0.031197088            3 
 1489000      1.03891   -7.0163193    551.33995  0.030856277  0.031189595            4 
 1490000    1.0260952   -7.0049063    551.11453  0.030822961   0.03118205            1 
 1491000    1.0056587   -7.0586281     552.1459  0.030859932  0.031174384            2 
 1492000    1.0014721   -7.0432202    550.39447  0.030741425  0.031166723            3 
 1493000    1.0310833   -7.0534179    552.01201  0.030811119  0.031159007            3 
 1494000   0.98839213   -7.0524603    551.97465  0.030788412  0.031151404            3 
 1495000    1.0116462   -7.0360061    551.66611  0.030750619  0.031143753            2 
 1496000    1.0406865   -7.0450967    552.80107  0.030793286   0.03113612            1 
 1497000    1.0068639    -7.020884    552.04101  0.030730406  0.031128417            1 
 1498000    1.0454106   -7.0668906    550.91886  0.030647467  0.031120771            5 
 1499000    1.0188558   -7.0817566    552.82186  0.030732814   0.03111317            2 
 1500000    1.0246821   -7.0660963    554.35161  0.030797312  0.031105598            4 
 1501000    1.0039005   -7.0563496    554.56414  0.030788593   0.03109803            3 
 1502000    1.0228672   -7.0375065    554.37068  0.030757362  0.031090483            3 
 1503000    1.0057113   -7.0290814    555.60962   0.03080559  0.031082946            2 
 1504000    0.9990569    -7.029867    556.53106  0.030836162  0.031075566            2 
 1505000    1.0171082    -7.043802    554.63643  0.030710766  0.031068288            1 
 1506000    1.0171654   -7.0790522     555.6696  0.030747543  0.031060838            4 
 1507000    1.0018155    -7.028833     555.8549  0.030737386  0.031053356            3 
 1508000    1.0213927   -7.0381117    555.51805  0.030698389  0.031045863            2 
 1509000     1.028478   -7.0463081     555.2217   0.03066168  0.031038354            2 
 1510000    1.0135688   -7.0697784    554.96069  0.030626969  0.031030729            3 
 1511000    1.0123468   -7.0518987    555.63078  0.030643657   0.03102324            4 
 1512000    1.0089355   -7.0219033    556.83742  0.030689893  0.031015781            3 
 1513000    1.0166541   -7.0368517    554.52749  0.030542382   0.03100817            3 
 1514000     1.017008   -7.0463738    556.67719  0.030640532  0.031000609            2 
 1515000    1.0336125   -7.0519444    557.97023  0.030691432  0.030993041            6 
 1516000   0.97854265   -7.0772684    555.58938  0.030540313  0.030985487            2 
 1517000    1.0216566   -7.0750127    556.69344  0.030580831   0.03097794            7 
 1518000    1.0324722   -7.0429766    557.57106  0.030608864  0.030970544            3 
 1519000    1.0162428   -7.0279396    557.19662  0.030568171  0.030963123            4 
 1520000    1.0162509   -7.0506944    558.90602  0.030641777  0.030955567            3 
 1521000    1.0309757   -7.0663416    557.01974  0.030518285  0.030948003            4 
 1522000    1.0003718   -7.0514806    559.34226  0.030625397  0.030940396            2 
 1523000     1.010207   -6.9877253     560.0516  0.030644102  0.030932866            4 
 1524000    1.0054328   -7.0334005    558.64562  0.030547114  0.030925236            2 
 1525000    1.0132189   -7.0678184    558.02221  0.030493017  0.030917537            4 
 1526000   0.99179033   -7.0513642     558.1602   0.03048057  0.030909928            2 
 1527000    1.0087331   -7.0706154    558.30729  0.030468636  0.030902271            2 
 1528000    1.0317008   -7.1075809    558.01456  0.030432731  0.030894461            7 
 1529000    1.0279514   -7.0427439    558.85748  0.030458768  0.030886791            4 
 1530000     1.007865    -7.048874    560.61091  0.030534364  0.030879133            2 
 1531000    1.0214921   -7.0300856    561.45879   0.03056057  0.030871624            2 
 1532000    1.0061125   -7.0685832    560.84709  0.030507348   0.03086399            2 
 1533000    1.0217629   -7.0290482    561.15277  0.030504065  0.030856528            2 
 1534000    1.0143896   -7.0667607    560.56248  0.030452112  0.030848984            1 
 1535000    1.0038813   -7.0566091    562.27345   0.03052516  0.030841355            3 
 1536000   0.99785179   -7.0553716    561.82269  0.030480832  0.030833804            2 
 1537000   0.99433642   -7.0167669    561.72939  0.030455942  0.030826102            3 
 1538000    1.0074947   -7.0637613       562.82  0.030495232  0.030818507            4 
 1539000    1.0049029   -7.0621771    563.16265  0.030493971  0.030810985            1 
 1540000   0.99613899   -7.0231999     563.3376  0.030483637  0.030803433            2 
 1541000    0.9895988    -7.072397    562.58193   0.03042299  0.030795935            1 
 1542000    1.0135784   -7.0391551    563.44154  0.030449716  0.030788438            7 
 1543000    1.0069547   -7.0680569    564.07263  0.030464065   0.03078097            3 
 1544000    1.0202369   -7.0686532    564.62058  0.030473909  0.030773395            2 
 1545000    1.0086971   -7.0741299    563.98392  0.030419845  0.030765881            5 
 1546000    1.0125458   -7.0605699    564.76119  0.030442065  0.030758412            3 
 1547000   0.99903462   -7.0764592    564.03578  0.030383311  0.030750905            3 
 1548000    0.9921072   -7.0541215    564.67133  0.030397897  0.030743528            2 
 1549000   0.99952885    -6.997292    566.61044  0.030482593  0.030736189            3 
 1550000   0.98638135    -7.034031    565.74425  0.030416358  0.030728894            2 
 1551000   0.98935915   -7.0501764    565.25398  0.030370405   0.03072136            4 
 1552000    1.0017156   -7.0622363    565.43592  0.030360605  0.030713863            2 
 1553000    1.0116473   -7.0246243    566.48681  0.030397446  0.030706248            3 
 1554000    1.0024885   -7.0687122    564.39767  0.030265855  0.030698535            4 
 1555000    1.0165339   -7.0716095    565.03019  0.030280289  0.030690826            1 
 1556000    1.0040669   -7.0502765    567.09026  0.030371158  0.030683146            2 
 1557000     1.028457   -7.0546399    566.17213  0.030302512  0.030675516            3 
 1558000   0.99144745   -7.0404158    566.66574  0.030309464  0.030667856            3 
 1559000    1.0028171   -7.0569148    567.16064  0.030316476  0.030660282            3 
 1560000    1.0027349   -7.0705154    567.25003  0.030301818  0.030652552            3 
 1561000     1.011761   -7.0431788    566.03602  0.030217597  0.030644898            2 
 1562000   0.98448869   -7.0419055    566.64742  0.030230869  0.030637154            6 
 1563000    1.0067454   -7.0697021    566.52984  0.030205259  0.030629392            3 
 1564000    1.0008205   -7.0572961    567.24424  0.030224011  0.030621524            3 
 1565000    0.9902491   -7.0723881    567.72448   0.03023027  0.030613743            3 
 1566000   0.97948258   -7.0654028    567.36453  0.030191812  0.030605876            2 
 1567000    0.9919076   -7.0476349    567.90439  0.030201254  0.030598125            2 
 1568000   0.99729592   -7.0511321    566.14816  0.030088656  0.030590294            2 
 1569000    1.0125822    -7.051923    567.46455  0.030139396  0.030582378            3 
 1570000   0.99231276   -7.0807991    569.23459   0.03021415  0.030574458            2 
 1571000   0.99853649   -7.0403776    570.14447  0.030243182  0.030566738            2 
 1572000    0.9945938    -7.081878    571.33089  0.030286837  0.030559036            1 
 1573000    1.0109549   -7.0819739    569.02031  0.030145174  0.030551319            4 
 1574000   0.98379467   -7.0684642    570.07671  0.030181952  0.030543667            2 
 1575000    1.0058319   -7.0686477    569.63679  0.030139513  0.030535938            2 
 1576000    1.0102482   -7.0757644    570.95279  0.030189974   0.03052824            3 
 1577000   0.98939632   -7.0676889    571.05917  0.030176452  0.030520554            3 
 1578000     1.009379   -7.0674227    572.71892  0.030244979  0.030512876            3 
 1579000    1.0112913   -7.0893524    570.49908   0.03010867  0.030505097            3 
 1580000   0.98866263   -7.0616384     571.3261  0.030133233  0.030497401            2 
 1581000    1.0008978    -7.091474    570.66024  0.030079077  0.030489665            3 
 1582000   0.97690205   -7.0543931    571.52754  0.030105749  0.030481887            2 
 1583000   0.97591969    -7.068313    571.77154  0.030099576   0.03047419            2 
 1584000   0.98352347   -7.1008137    571.71054  0.030077364  0.030466519            4 
 1585000   0.98456452   -7.0683943    573.36331  0.030145284  0.030458963            4 
 1586000     1.022793   -7.0615026    573.27006  0.030121378  0.030451287            1 
 1587000    1.0095708   -7.0391019    572.33684  0.030053394   0.03044377            2 
 1588000   0.98533363   -7.0665025    573.18634  0.030079048   0.03043617            4 
 1589000   0.98875687   -7.0910215    573.56049  0.030079741  0.030428403            5 
 1590000    1.0073088   -7.1047622    572.53499  0.030007075  0.030420632            2 
 1591000    1.0018533   -7.0385517    573.93346  0.030061464  0.030412968            1 
 1592000   0.98598168   -7.0335225    575.75097  0.030137719  0.030405443            2 
 1593000   0.98269474   -7.0103424     576.4455  0.030155132  0.030397949            2 
 1594000    1.0170645   -7.0981808    572.98712  0.029955412  0.030390378            5 
 1595000    1.0080112   -7.0632253     576.5914  0.030124942  0.030382791            2 
 1596000   0.99555745   -7.0704093    574.01443  0.029971514  0.030375174            3 
 1597000   0.97786818   -7.0641206    576.04803  0.030058862  0.030367549            2 
 1598000   0.97785974   -7.0416262    577.00396  0.030089902  0.030360027            3 
 1599000   0.98310584   -7.0981755    576.36568   0.03003782  0.030352488            2 
 1600000    1.0049595   -7.0534293    577.42229  0.030074078  0.030344981            1 
 1601000    1.0021929   -7.0484143    576.67596  0.030016446  0.030337557            4 
 1602000   0.99519487    -7.060403    579.59183  0.030149388  0.030330119            3 
 1603000   0.97129842    -7.047597    578.57252   0.03007759  0.030322675            3 
 1604000   0.97788276   -7.0957131    577.41242  0.029998567  0.030315282            3 
 1605000    1.0062275   -7.0715967    578.01987  0.030011416  0.030307878            3 
 1606000    1.0029395   -7.0622943    577.73621   0.02997801  0.030300435            3 
 1607000   0.99686791   -7.0804183    577.60225  0.029952409  0.030293043            2 
 1608000    1.0072803   -7.0976594    578.83588  0.029997714  0.030285535            5 
 1609000   0.99556641   -7.0676737    578.04696   0.02993821   0.03027816            4 
 1610000     1.007229   -7.0279548    580.59062  0.030051274  0.030270784            3 
 1611000   0.99274968   -7.0646901    580.30426  0.030017808  0.030263468            4 
 1612000   0.97881682   -7.0829192    579.97923  0.029982384  0.030256034            3 
 1613000    1.0250653    -7.073352     578.9932  0.029912854  0.030248672            3 
 1614000    1.0237619   -7.0724644    580.35452  0.029964607  0.030241267            2 
 1615000   0.98142791   -7.0964477    579.32549  0.029892956  0.030233938            4 
 1616000    0.9851336   -7.0866991    580.18609  0.029918837  0.030226551            3 
 1617000   0.99341812   -7.0833315     581.9852  0.029993053  0.030219245            2 
 1618000   0.97702598   -7.0556435    582.55703  0.030003967  0.030211854            3 
 1619000   0.99925758   -7.0939092    582.75059  0.029995398  0.030204494            3 
 1620000    1.0121773   -7.0772871    581.81036  0.029928516  0.030197003            3 
 1621000   0.97990117   -7.0809694    582.22834  0.029931541  0.030189656            3 
 1622000   0.97918652   -7.1007383    582.10125  0.029906558  0.030182473            3 
 1623000   0.99412787   -7.0658421    582.52866  0.029910077  0.030175251            2 
 1624000   0.98621786   -7.1093854    582.68766  0.029899818  0.030167902            2 
 1625000   0.98974621   -7.0581694    583.07929  0.029901502  0.030160595            2 
 1626000    1.0011721   -7.0937104    583.32035  0.029895467  0.030153251            4 
 1627000   0.98610015   -7.0788429     583.4583  0.029884158  0.030145937            3 
 1628000    0.9872001   -7.0832982    584.90302  0.029939753  0.030138706            4 
 1629000     1.016285   -7.0867836    584.70004  0.029910991  0.030131478            2 
 1630000   0.99318469   -7.0837066    585.67554  0.029942513  0.030124332            2 
 1631000   0.99791583   -7.0765867    583.77203  0.029826897  0.030117113            2 
 1632000   0.99935617    -7.072629    584.10975  0.029825866  0.030109682            1 
 1633000    0.9909733   -7.0964581    583.65427  0.029784358  0.030102185            3 
 1634000    1.0022355   -7.0680663    585.02693  0.029836135  0.030094786            2 
 1635000   0.98584244    -7.072223    586.66549  0.029901401  0.030087411            3 
 1636000   0.96379563   -7.0699508    585.34545  0.029815885  0.030080073            3 
 1637000   0.98510688   -7.0893853    586.46857  0.029854845  0.030072672            3 
 1638000   0.97638744    -7.086273    585.97583   0.02981155    0.0300653            4 
 1639000    1.0021554   -7.0675742    585.88194  0.029788587  0.030057987            3 
 1640000   0.99333446   -7.0672459    586.25668  0.029789465  0.030050816            3 
 1641000   0.97441217   -7.0904605    585.82063  0.029749169  0.030043489            2 
 1642000   0.98473156   -7.0770921    586.95205  0.029788472   0.03003622            2 
 1643000   0.97127713   -7.0676617    588.75326  0.029861699  0.030029055            3 
 1644000   0.99830298   -7.1043661    587.42353  0.029776132  0.030021788            5 
 1645000   0.99526659     -7.08168    585.49302  0.029660234  0.030014386            3 
 1646000    1.0172367   -7.0621404    586.95217  0.029716088  0.030007115            2 
 1647000   0.97847412     -7.06524    588.37036  0.029769802    0.0299998            8 
 1648000   0.98994349   -7.1224511    587.75265  0.029720502  0.029992352            2 
 1649000    0.9696403    -7.085379    588.04389  0.029717197  0.029984874            4 
 1650000   0.96775282   -7.0948657    587.93142  0.029693506  0.029977383            4 
 1651000   0.99348204    -7.095909    587.36451  0.029646906  0.029969748            3 
 1652000   0.99622814   -7.1152816    586.83435  0.029602217  0.029961992            2 
 1653000   0.98494637   -7.1118693    588.03241  0.029644707  0.029954269            3 
 1654000   0.99522631   -7.0832801    586.59866  0.029554548  0.029946491            2 
 1655000   0.98224968    -7.109281    588.28275  0.029621488  0.029938852            2 
 1656000   0.99315618   -7.0773013    586.64409   0.02952114  0.029931117            4 
 1657000   0.97560178    -7.112952    586.45282  0.029493704  0.029923367            2 
 1658000   0.98462873   -7.0953714    587.43568  0.029525315  0.029915625            4 
 1659000   0.99107923   -7.0870079    588.80278  0.029576189  0.029907926            1 
 1660000   0.96437838   -7.0946272    589.38373  0.029587537  0.029900231            2 
 1661000   0.96878132   -7.1123485    589.17128  0.029559065  0.029892482            3 
 1662000   0.96903411    -7.096373    588.67343  0.029516317  0.029884793            2 
 1663000    1.0026183   -7.0493148    590.35269  0.029582716  0.029877125            3 
 1664000   0.97871908   -7.0989752    589.53431  0.029523954  0.029869512            4 
 1665000   0.98373874   -7.1340374    589.91449   0.02952525  0.029861844            2 
 1666000   0.98027153   -7.0633074    590.73611  0.029548625  0.029854275            3 
 1667000    1.0101794   -7.1060949    591.26154  0.029557165  0.029846668            4 
 1668000   0.97448913   -7.1232451    589.59109   0.02945599  0.029838999            3 
 1669000   0.98171441    -7.070112    590.77351  0.029497379  0.029831304            1 
 1670000   0.94680553   -7.1114647    591.08761   0.02949539  0.029823655            4 
 1671000   0.97261136   -7.0692952    591.44221  0.029495422  0.029816089            5 
 1672000   0.97216144    -7.096543    592.16462  0.029513787  0.029808536            5 
 1673000    1.0114562   -7.0921649    591.61787  0.029468912  0.029800883            2 
 1674000   0.98335362   -7.1091813    592.93116  0.029516685  0.029793246            6 
 1675000   0.98348433   -7.1180089    592.13209  0.029459308  0.029785565            3 
 1676000   0.96898459   -7.0927443    591.07285  0.029389064  0.029777887            6 
 1677000   0.96255287   -7.0958686    594.20583  0.029527223  0.029770337            5 
 1678000   0.99610643   -7.1058899    592.78869  0.029439248  0.029762745            2 
 1679000   0.98372612   -7.1102931    594.40593  0.029501982  0.029755152            4 
 1680000   0.99760286   -7.1173412    594.43584  0.029485905  0.029747661            3 
 1681000   0.99685212   -7.0856388    593.99503  0.029446511   0.02974006            5 
 1682000   0.97135314   -7.1072225    595.28612  0.029492971  0.029732568            4 
 1683000    0.9814947    -7.084828     595.4167  0.029481912  0.029725058            6 
 1684000   0.98372086   -7.0683706    595.27066  0.029457178   0.02971762            2 
 1685000    0.9994903   -7.1106268    594.92154   0.02942243  0.029710145            2 
 1686000   0.99440737   -7.0839547    594.22288  0.029370447  0.029702553            2 
 1687000   0.98389953   -7.0976621    596.87237  0.029483915  0.029695141            2 
 1688000   0.98623356   -7.0994605    595.52005  0.029399686   0.02968765            2 
 1689000   0.96581857   -7.0763713    595.32985  0.029372896  0.029680093            2 
 1690000   0.99396836   -7.1238178    593.14427  0.029247745  0.029672543            3 
 1691000    1.0079098   -7.1237931    594.48251  0.029296398  0.029664939            2 
 1692000   0.97205514    -7.101879    595.95164   0.02935144  0.029657409            1 
 1693000   0.97509374   -7.0905662    597.27833  0.029399406  0.029649847            2 
 1694000   0.98667897   -7.1289443    596.31978  0.029334897  0.029642249            1 
 1695000   0.98244599   -7.1154552    596.06026  0.029304831  0.029634666            3 
 1696000   0.98491963   -7.0953247    596.48074  0.029308212  0.029627067            4 
 1697000   0.98420066    -7.108139     597.1987  0.029326198  0.029619408            5 
 1698000   0.97875974   -7.1077779     595.2565  0.029213609    0.0296116            3 
 1699000   0.98108688   -7.1263706    598.49668   0.02935534  0.029603999            3 
 1700000   0.96386977   -7.1152458    597.51208  0.029289808  0.029596445            2 
 1701000   0.96862043   -7.1005423    597.73878  0.029283695  0.029588922            3 
 1702000   0.99457914   -7.0814736    599.46434  0.029350976    0.0295814            2 
 1703000    0.9643977   -7.0862027    596.38229  0.029182927  0.029573877            2 
 1704000   0.96708345    -7.121924    600.42407  0.029363462  0.029566366            2 
 1705000   0.99733441   -7.0994098    598.79509  0.029266622  0.029558786            3 
 1706000   0.98300086   -7.0974945    598.35308  0.029227876  0.029551347            2 
 1707000   0.96159798   -7.1170391    597.30669  0.029159671  0.029543747            2 
 1708000   0.99806386   -7.0773946    600.17956  0.029282765  0.029536218            4 
 1709000    1.0045483   -7.0907281    598.83554  0.029200095  0.029528763            3 
 1710000   0.97649935   -7.1220847    598.99349  0.029190716  0.029521343            1 
 1711000   0.98029464   -7.0919649    599.67652  0.029206922  0.029513885            3 
 1712000   0.97254555   -7.1361234     601.1164  0.029259949  0.029506432            7 
 1713000   0.97665308   -7.1196917    599.72191   0.02917503  0.029498933            2 
 1714000    0.9746515   -7.0994478     601.4141  0.029240281  0.029491568            2 
 1715000   0.95859843   -7.0746334    601.40242  0.029222664  0.029484129            4 
 1716000   0.96703133   -7.1498596    601.47589  0.029209202  0.029476608            2 
 1717000   0.98003862   -7.1273477    601.49486  0.029193111  0.029469057            3 
 1718000   0.97535159   -7.0840042    602.56055  0.029227811  0.029461635            2 
 1719000   0.98317244   -7.1030206    601.56324  0.029162461  0.029454161            2 
 1720000   0.97438371   -7.1224435     601.6147  0.029147999  0.029446673            2 
 1721000   0.98276093     -7.12466    602.73716  0.029185413  0.029439351            4 
 1722000   0.95535109   -7.0904445    602.89194  0.029175955  0.029431898            1 
 1723000    0.9474859   -7.1365787    604.90712  0.029256487  0.029424392            3 
 1724000   0.98076846   -7.1159935    602.88964  0.029141997  0.029416944            2 
 1725000    0.9615301   -7.1200848    603.39061  0.029149305  0.029409452            1 
 1726000   0.98518838   -7.1076602    604.02701  0.029163143  0.029401893            2 
 1727000   0.97826974   -7.0924587    604.40352  0.029164424  0.029394518            3 
 1728000   0.98341364   -7.0957063    604.85551  0.029169344  0.029387081            6 
 1729000   0.98210882   -7.0931403    605.14702  0.029166523  0.029379683            3 
 1730000   0.97029063   -7.1162748    603.03064  0.029047719  0.029372193            2 
 1731000   0.98170462   -7.1296167    604.50078  0.029101713   0.02936471            4 
 1732000   0.97802588   -7.1394144    604.47463  0.029083652  0.029357296            2 
 1733000   0.97006485   -7.1096774    604.39003  0.029062802   0.02934961            2 
 1734000   0.98588494   -7.1130767    604.15591   0.02903479  0.029342002            4 
 1735000   0.97900961   -7.1230812    606.45714  0.029128585  0.029334504            2 
 1736000   0.97042683   -7.1201622    605.41597  0.029061826  0.029327137            2 
 1737000   0.96533756   -7.1094573    605.22704  0.029036031  0.029319745            2 
 1738000    0.9748988    -7.168479    605.18577  0.029017346  0.029312275            4 
 1739000    0.9762693   -7.1362205    605.33645   0.02900788  0.029304725            6 
 1740000    1.0011544    -7.136402    604.53693  0.028952918  0.029297203            2 
 1741000   0.96150029   -7.1369024    607.67649  0.029086564  0.029289699            4 
 1742000   0.98076293   -7.1123377    607.24262  0.029049111   0.02928221            3 
 1743000   0.95421122   -7.1312783    605.32925  0.028940966  0.029274726            3 
 1744000   0.96386467   -7.1692497     606.0797   0.02896023  0.029267197            4 
 1745000   0.99609604   -7.1306044    606.34344  0.028956229  0.029259713            2 
 1746000   0.96090702   -7.1469611    605.51105  0.028899917  0.029252198            2 
 1747000   0.98215467   -7.0982414    608.75573  0.029038148  0.029244745            4 
 1748000   0.97840851   -7.1232036    608.13194  0.028991797  0.029237297            5 
 1749000   0.99328647   -7.1066965    608.19663  0.028978303  0.029229943            3 
 1750000   0.97305573   -7.1260843    608.33789  0.028968471  0.029222496            6 
 1751000   0.95477396   -7.1006958    608.83958  0.028975803  0.029215098            6 
 1752000   0.96464355   -7.1278323    609.88254  0.029008873  0.029207723            3 
 1753000   0.98712575   -7.1165451    610.26485  0.029010499   0.02920036            4 
 1754000   0.98172692   -7.1386586    608.53418  0.028911734  0.029193087            3 
 1755000   0.95646516   -7.0886365    610.78343  0.029002062  0.029185788            5 
 1756000   0.98636984   -7.1314594    610.89016  0.028990611  0.029178531            3 
 1757000     0.968276   -7.1237995    610.93359  0.028976171   0.02917122            4 
 1758000   0.96943586   -7.1536425    608.89094  0.028862862  0.029163885            5 
 1759000   0.97378103   -7.1391251    611.75167  0.028981982  0.029156536            2 
 1760000   0.97015476   -7.1195015    611.29049  0.028943679  0.029149239            3 
 1761000   0.98448477   -7.0998268     611.0697  0.028916794  0.029141923            2 
 1762000   0.97423763   -7.1106438    611.29185   0.02891089  0.029134648            2 
 1763000   0.97205823   -7.1265268    612.34775  0.028944401  0.029127293            3 
 1764000   0.96321428   -7.1003377    612.44306  0.028932495  0.029120012            2 
 1765000   0.96778553   -7.1321881    611.26609  0.028860533  0.029112606            6 
 1766000   0.97056027   -7.0964353    611.65715  0.028862644  0.029105181            5 
 1767000   0.97170137   -7.1041858    612.17402  0.028870686  0.029097813            5 
 1768000   0.97480736   -7.1557285    613.02258  0.028894352  0.029090439            1 
 1769000    0.9659971   -7.1240991     613.5972  0.028905088  0.029083051            2 
 1770000   0.97115995   -7.1001309    611.38179  0.028784453  0.029075715            4 
 1771000   0.99272292   -7.1526232    611.39559   0.02876885  0.029068231            4 
 1772000    0.9644717   -7.1212432    614.34301  0.028891225  0.029060814            2 
 1773000   0.97855936   -7.1146609    614.82214   0.02889745  0.029053487            2 
 1774000   0.99135309   -7.1322835    612.32049  0.028763646  0.029046104            4 
 1775000    0.9733716   -7.1465529    612.90814   0.02877503  0.029038759            3 
 1776000    0.9801912   -7.0990085    613.84884  0.028802967  0.029031423            6 
 1777000   0.95369915   -7.1026407    614.89724  0.028835924  0.029024027            2 
 1778000   0.98031086   -7.1288194    614.04353  0.028779693   0.02901664            2 
 1779000   0.95232411   -7.1487242    612.88214  0.028709113  0.029009215            2 
 1780000   0.96848542   -7.1412286    614.46704  0.028767184  0.029001702            2 
 1781000   0.96086467   -7.1351412    614.54489  0.028754674    0.0289942            8 
 1782000   0.95967478   -7.1335805    615.75906  0.028795317  0.028986722            3 
 1783000     0.960979   -7.1498309    614.55643  0.028722959  0.028979251            3 
 1784000   0.96073419   -7.0995676    616.42852  0.028794307  0.028971709            1 
 1785000   0.94417467   -7.1169084    616.51813  0.028782359  0.028964264            5 
 1786000   0.95990391    -7.155554    614.57719  0.028675681  0.028956828            1 
 1787000   0.96830359   -7.1581869    612.54475  0.028564855  0.028949367            2 
 1788000   0.98274614   -7.1265641      615.406  0.028682233  0.028941855            5 
 1789000    0.9680981   -7.1554972    615.23248  0.028658118  0.028934432            2 
 1790000   0.97965682   -7.1461492    617.36764   0.02874151  0.028927016            2 
 1791000   0.95203834   -7.1887216    613.30183  0.028536285  0.028919463            3 
 1792000   0.96499723   -7.1339278    615.07242  0.028602698  0.028911919            1 
 1793000   0.95596968   -7.1251987    615.83192  0.028622045    0.0289044            4 
 1794000    0.9651047   -7.0970317    617.35121  0.028676663  0.028896902            2 
 1795000   0.97079133   -7.1431178    617.36954  0.028661539  0.028889362            2 
 1796000   0.98075705   -7.1236836    618.12361  0.028680568  0.028881953            3 
 1797000   0.95114467   -7.1056711    617.38939   0.02863056  0.028874519            4 
 1798000   0.95961931   -7.1235231    619.00372  0.028689457   0.02886706            2 
 1799000   0.96431806   -7.1532083    615.62269  0.028516893  0.028859535            2 
 1800000   0.96994519   -7.1307126    616.79311  0.028555236  0.028851979            1 
 1801000   0.95367283    -7.133405    617.81613  0.028586717  0.028844439            3 
 1802000   0.95225641   -7.1004326    617.79018  0.028569653  0.028836936            1 
 1803000   0.96996268   -7.1305834    616.30708   0.02848526  0.028829356            2 
 1804000   0.97802514   -7.1205238    618.74195  0.028581945  0.028821842            2 
 1805000   0.95631211   -7.1505655    619.45522  0.028599041  0.028814328            6 
 1806000   0.96453192   -7.1466547    618.12295  0.028521731  0.028806851            2 
 1807000   0.97399498   -7.1068102    619.33562  0.028561872  0.028799406            4 
 1808000   0.94924022   -7.1187853    620.41971  0.028596041  0.028791929            2 
 1809000   0.95967351    -7.136946    618.49705  0.028491664  0.028784497            3 
 1810000   0.93428258   -7.1155767    621.09776  0.028595661  0.028777108            2 
 1811000   0.96990239   -7.1348738    619.51317  0.028506956  0.028769723            4 
 1812000   0.98406048   -7.1123757     620.0368  0.028515305   0.02876229            2 
 1813000   0.96653172   -7.1458949     621.6246  0.028572559  0.028754779            3 
 1814000    0.9691057   -7.1132964    619.70386  0.028468571  0.028747322            4 
 1815000   0.94225165   -7.1526378    619.66476  0.028451091  0.028739864            1 
 1816000    0.9494833   -7.1553631    619.38579  0.028422622  0.028732384            3 
 1817000    0.9781784   -7.1541845    621.51415  0.028504593  0.028724871            2 
 1818000   0.94738342   -7.2020128    618.91313  0.028369689  0.028717304            2 
 1819000    0.9411862   -7.1394942    620.48374  0.028426046  0.028709709            3 
 1820000    0.9619951    -7.126407    620.16103  0.028395652  0.028702107            5 
 1821000   0.96636107   -7.1764201    620.42975  0.028392355  0.028694547            6 
 1822000   0.96122223   -7.1410901    621.87737  0.028442982  0.028686989            3 
 1823000   0.96898756   -7.1387674    620.62491  0.028370128  0.028679481            1 
 1824000    0.9404914   -7.1305549    621.35841  0.028388085  0.028671939            6 
 1825000   0.95926724   -7.1548034    620.68415  0.028341742  0.028664408            1 
 1826000    0.9543092   -7.1409447    622.48793   0.02840854    0.0286568            2 
 1827000   0.97927519   -7.1488411    621.15384   0.02833214  0.028649254            2 
 1828000   0.95725654   -7.1637867    622.05186  0.028357579  0.028641686            1 
 1829000   0.96730646    -7.173243     623.1818  0.028393558  0.028634169            3 
 1830000   0.95764042    -7.199814    621.69749   0.02831045  0.028626672            3 
 1831000   0.96310427   -7.1301723    625.66495  0.028475558  0.028619088            3 
 1832000   0.94309091   -7.1764344    622.81536  0.028330393  0.028611589            2 
 1833000   0.94792249   -7.1789496    623.12535   0.02832903  0.028604134            3 
 1834000   0.96368274   -7.1318268    623.33557  0.028323136  0.028596674            4 
 1835000   0.93693246   -7.1376101      622.654  0.028276748  0.028589133            4 
 1836000   0.96249977   -7.1270848    623.02634  0.028278247  0.028581564            3 
 1837000   0.96070988   -7.1761206    623.30192  0.028275355  0.028573937            4 
 1838000   0.94765364   -7.1382624    624.04201  0.028293526  0.028566433            6 
 1839000   0.98443138   -7.1451369    625.19151   0.02833023  0.028558823            3 
 1840000    0.9594652   -7.1218291    624.50779  0.028283867  0.028551334            3 
 1841000   0.95841111   -7.1231932    626.12611  0.028341758  0.028543936            1 
 1842000   0.93490403   -7.1421116    623.73902  0.028218378  0.028536405            2 
 1843000   0.95779305   -7.1390277    626.57578  0.028331334  0.028528896            3 
 1844000   0.94968569    -7.159985    624.70038  0.028231217  0.028521393            2 
 1845000   0.96945075   -7.1769804    625.35414  0.028245444  0.028513899            2 
 1846000   0.95230246   -7.1522407    624.45032  0.028189343  0.028506265           11 
 1847000   0.94521641   -7.1733142    624.37316  0.028170599  0.028498603            2 
 1848000   0.95153663   -7.1528885    624.66621   0.02816857  0.028490945            2 
 1849000   0.95337049   -7.1709584    624.61871  0.028151195  0.028483244            9 
 1850000   0.94977111   -7.1446748    627.24802  0.028254415  0.028475447            4 
 1851000   0.95428824   -7.1844009    623.97485   0.02809179  0.028467716            2 
 1852000   0.96608409   -7.1646144    624.31278  0.028091828  0.028460046            3 
 1853000   0.97565025   -7.1951061    624.71796  0.028094889  0.028452349            2 
 1854000    0.9828526   -7.1722465    627.22685  0.028192505  0.028444712            2 
 1855000   0.94762795   -7.1685091    627.02268  0.028168135  0.028437102            2 
 1856000   0.97834245    -7.191662    626.71713  0.028139239  0.028429562            3 
 1857000   0.94029208   -7.1775822    626.47354  0.028113155  0.028421788            4 
 1858000   0.95282554   -7.1980064    625.27606  0.028044315  0.028414015            2 
 1859000   0.95128057   -7.1644459    628.18926   0.02815982  0.028406365            2 
 1860000   0.96228241   -7.1558931    627.92894  0.028133017  0.028398737            6 
 1861000   0.94872203   -7.1540376    628.78777  0.028156357  0.028391152            5 
 1862000    0.9453917   -7.1485329    627.79888  0.028096978  0.028383603            4 
 1863000   0.95060166   -7.1436491    629.29044  0.028148615   0.02837608            3 
 1864000   0.94300307   -7.1922024    627.72744  0.028063637  0.028368513            4 
 1865000   0.95473885   -7.1858127    628.56847  0.028086169   0.02836105            3 
 1866000   0.95956383   -7.1648085     628.6144  0.028073169  0.028353612            6 
 1867000   0.97126823   -7.1598735    630.16295  0.028127252  0.028346087            3 
 1868000   0.95783896    -7.161706     629.3982  0.028078078  0.028338708            3 
 1869000   0.94935345   -7.1976852    629.59413  0.028071791  0.028331324            3 
 1870000   0.97612835   -7.1554456    630.82707  0.028111723   0.02832396            7 
 1871000   0.95323687   -7.1527288    629.41427  0.028033773  0.028316555            3 
 1872000   0.95654868   -7.1439228    630.96133  0.028087666  0.028309142            4 
 1873000   0.95382424   -7.1759603    631.81344  0.028110582  0.028301878            3 
 1874000   0.95479707   -7.1586762    632.20187  0.028112854  0.028294498            1 
 1875000   0.94988024   -7.1609903    631.21541  0.028054018  0.028287153            7 
 1876000   0.92955519   -7.1715294    631.03248  0.028030938  0.028279713            2 
 1877000   0.95185268   -7.1543877    633.07605  0.028106733  0.028272286            2 
 1878000   0.95701192   -7.1637036    632.86306  0.028082316  0.028264938            3 
 1879000   0.94891326   -7.1923123    631.94041  0.028026451  0.028257698            3 
 1880000   0.93517461   -7.1571773    633.19845  0.028067307  0.028250395            2 
 1881000    0.9815993   -7.1807191    633.78806  0.028078507  0.028243072            2 
 1882000   0.93412575   -7.1884306    634.74644  0.028106024  0.028235763            3 
 1883000   0.95748111   -7.1261176    635.00172  0.028102395  0.028228456            5 
 1884000   0.95893356   -7.1952485    633.42067  0.028017546  0.028221182            6 
 1885000   0.93683649   -7.1973756    633.27898  0.027996418  0.028213869            4 
 1886000   0.95954172   -7.1700866    634.58535  0.028039296  0.028206574            2 
 1887000   0.94914314   -7.1984385    634.98595  0.028042128  0.028199333            2 
 1888000   0.94916173   -7.1866398    634.44537  0.028003415  0.028192197            2 
 1889000   0.96588354   -7.1625133    636.37113  0.028073546  0.028185046            3 
 1890000    0.9489733   -7.1430927     635.9651  0.028040789  0.028177919            5 
 1891000   0.97279519   -7.1617021    636.02319  0.028028521  0.028170834            4 
 1892000   0.94665421   -7.1463322    637.20653  0.028065827  0.028163751            2 
 1893000   0.93998413   -7.1429254    639.22109  0.028139685  0.028156695            3 
 1894000   0.95613751   -7.1537262    635.78102   0.02797347  0.028149687            2 
 1895000   0.97623364   -7.1448148     638.6021  0.028082766  0.028142699            2 
 1896000   0.95434397   -7.1791543    637.06566  0.028000425   0.02813564            2 
 1897000   0.94813913   -7.1975739    639.39309  0.028087906  0.028128592            6 
 1898000   0.94565936   -7.1535789    637.07829  0.027971474  0.028121644            2 
 1899000    0.9732734   -7.1820928    638.56017  0.028021773  0.028114618            2 
 1900000   0.95044631    -7.172767    638.02055  0.027983358  0.028107635            3 
 1901000   0.95603518   -7.1618611    638.78749  0.028002257  0.028100729            2 
 1902000   0.95473653   -7.1823064    639.78194  0.028031105  0.028093772            5 
 1903000   0.94446483   -7.1730167    640.32961  0.028040358  0.028086869            2 
 1904000   0.95314332   -7.2112617    638.97276  0.027966245  0.028079944            3 
 1905000   0.96641405   -7.1696521    641.56492  0.028064957  0.028073026            3 
 1906000   0.95658221   -7.1738408    641.53793  0.028049052  0.028066192            2 
 1907000   0.93882236   -7.2120443    640.40584  0.027984873  0.028059243            3 
 1908000    0.9655204   -7.1609602    640.03959   0.02795421   0.02805226            2 
 1909000   0.92230754   -7.1345077    639.92035  0.027934361  0.028045279            4 
 1910000   0.96786155   -7.1454287    641.55061  0.027990864  0.028038359            4 
 1911000    0.9441383   -7.1585986    640.97709  0.027951207  0.028031534            3 
 1912000   0.96310837   -7.1751099    640.99809  0.027937504  0.028024576            3 
 1913000   0.93011571   -7.1892794    640.88438  0.027917947  0.028017592            4 
 1914000   0.95559836   -7.1704336    643.42408  0.028013936  0.028010615            2 
 1915000   0.93719888   -7.1645595    640.94707  0.027891517  0.028003629            5 
 1916000   0.95031488   -7.1897474    644.29639  0.028022633  0.027996637            4 
 1917000   0.94109006   -7.1961347    640.58804  0.027846811  0.027989709            5 
 1918000   0.92733427   -7.1800096    642.03333  0.027895087   0.02798275            5 
 1919000   0.93423959   -7.2137362    642.64073  0.027906927  0.027975763            1 
 1920000   0.94935893   -7.1440697    643.87084  0.027945783  0.027968833            3 
 1921000   0.97113885   -7.1688982    642.17983  0.027857879  0.027961949            2 
 1922000   0.94660327   -7.1669224    642.22146   0.02784519  0.027954964            4 
 1923000   0.92616661   -7.1720197    643.63765   0.02789208  0.027948024            3 
 1924000   0.94988287   -7.1898587    642.94842  0.027847731  0.027941144            2 
 1925000   0.95435213   -7.2044272    643.88538  0.027873826   0.02793421            4 
 1926000   0.92827192   -7.1760666    644.31836  0.027878087  0.027927321            5 
 1927000   0.92096157   -7.1685925    645.13797  0.027899065   0.02792049            4 
 1928000    0.9498094   -7.1696397    645.07124   0.02788171  0.027913672            3 
 1929000   0.94818594   -7.1724487    643.91241  0.027817194  0.027906773            3 
 1930000   0.94667038   -7.1953532    642.14496  0.027726466  0.027899831            3 
 1931000   0.92847587   -7.1593188    646.07594  0.027881751  0.027892909            3 
 1932000   0.94878568   -7.1407987    646.96736   0.02790577   0.02788608            3 
 1933000    0.9500014   -7.1935889     644.8089   0.02779828   0.02787925            3 
 1934000   0.93691518   -7.1925504    646.46541  0.027855283  0.027872399            1 
 1935000   0.94404733   -7.1631564    646.38619  0.027837476  0.027865484            4 
 1936000   0.93826147   -7.1860482    645.51162  0.027785452  0.027858679            3 
 1937000   0.94834563   -7.1966731    646.75552  0.027824622  0.027851924            4 
 1938000   0.92971904   -7.2209931    645.72853  0.027766104  0.027845106            6 
 1939000   0.93370416   -7.1834412    647.49524  0.027827713  0.027838266            4 
 1940000   0.92480102   -7.1919227    646.65593  0.027777317  0.027831532            2 
 1941000   0.92741622   -7.1991476     646.0814  0.027738339  0.027824725            3 
 1942000   0.93968147   -7.2218148    648.31619  0.027819953  0.027817902            4 
 1943000   0.96782513   -7.2120962     647.2561  0.027760169  0.027811131            3 
 1944000   0.95725024   -7.2315399    646.90546  0.027730858  0.027804354            5 
 1945000   0.93491455     -7.20136    647.38382  0.027737096  0.027797503            2 
 1946000   0.93670542   -7.1784713    648.67644  0.027778196  0.027790682            2 
 1947000   0.93615563   -7.1931989    648.34849  0.027749892  0.027783916            4 
 1948000   0.92839668   -7.1817422    649.21592  0.027772755  0.027777159            4 
 1949000   0.94738834   -7.1818382    648.31535  0.027719999  0.027770422            8 
 1950000   0.92902767   -7.2224817    648.63471  0.027719432   0.02776366            3 
 1951000   0.94623445   -7.1864948    650.18198  0.027771313  0.027756909            5 
 1952000   0.94333958   -7.2230536    651.01384  0.027792599  0.027750185            4 
 1953000   0.94821034   -7.1982759    650.11147  0.027739865  0.027743443            2 
 1954000   0.95661621   -7.1651148    651.74296  0.027795247  0.027736725            3 
 1955000   0.95808367   -7.1678964    650.93793  0.027746715  0.027730052            2 
 1956000   0.95828761   -7.1896969    650.21516  0.027701737  0.027723465            4 
 1957000   0.92416794   -7.1813785     650.5606  0.027702291  0.027716849            2 
 1958000   0.94302366   -7.2143621    650.46174  0.027683935  0.027710102            5 
 1959000   0.94293079   -7.1872017    651.12808  0.027698149  0.027703363            2 
 1960000   0.94340343   -7.1984153    652.68523  0.027750222   0.02769663            2 
 1961000   0.93748636    -7.198318      652.246  0.027717406  0.027689946            4 
 1962000   0.94530406   -7.1788896    651.91177  0.027689083  0.027683255            3 
 1963000   0.95564646   -7.1998556     650.2784  0.027605638  0.027676464            2 
 1964000   0.92999528   -7.1987306    651.47385  0.027642305  0.027669705            4 
 1965000    0.9400925   -7.1988197    651.72317  0.027638811  0.027662873            3 
 1966000   0.94638036   -7.1837172    650.56194  0.027575531  0.027656138            3 
 1967000   0.93720033   -7.2064457    653.32938  0.027678757  0.027649313            2 
 1968000   0.92644408   -7.2033184    651.72281  0.027596664  0.027642596            2 
 1969000   0.93688339   -7.1640167    652.72669  0.027625135  0.027635947            4 
 1970000   0.92335985     -7.22495      651.597  0.027563325  0.027629246            3 
 1971000   0.94871577   -7.1988842     652.1568  0.027573008   0.02762244            5 
 1972000   0.91409454     -7.22826    653.57334  0.027618887   0.02761569            4 
 1973000   0.94545939   -7.1857728    652.72589  0.027569095  0.027608925            4 
 1974000   0.91190862   -7.1807405     653.6754  0.027595213  0.027602201            4 
 1975000   0.93576602   -7.1937882    652.81324  0.027544863  0.027595504            3 
 1976000   0.93306396   -7.1602968     655.4483   0.02764205  0.027588839            3 
 1977000   0.95099342   -7.2293119    653.90582  0.027563051  0.027582143            5 
 1978000   0.92735481    -7.179066     654.5003  0.027574162  0.027575493            2 
 1979000   0.92911018   -7.1646651    656.54885   0.02764649  0.027568906            3 
 1980000   0.94534564   -7.2298499    655.11018  0.027571977   0.02756238            3 
 1981000   0.91033645   -7.2303825    655.11153  0.027558116  0.027555669            4 
 1982000   0.93186443   -7.2181184     655.1339  0.027545152  0.027548963            4 
 1983000   0.93213832     -7.19683    656.59397  0.027592619  0.027542308            2 
 1984000   0.93607663   -7.1904809    655.61985  0.027537796  0.027535722            1 
 1985000   0.92634075   -7.1836967     657.6579  0.027609483  0.027529128            6 
 1986000   0.93871295   -7.2015935    656.04427  0.027527873  0.027522578            2 
 1987000   0.92806728   -7.2187586    655.87492  0.027506917  0.027515944            4 
 1988000   0.94567377   -7.2133008    656.30314   0.02751103  0.027509252            3 
 1989000   0.93613718   -7.2190138    657.67933  0.027554857    0.0275027            5 
 1990000   0.92025175   -7.1976718     657.2102  0.027521365  0.027496138            3 
 1991000   0.94020023   -7.1974484    658.67648  0.027568913  0.027489602            3 
 1992000   0.93119583   -7.2055814    658.04495  0.027528654  0.027483104            2 
 1993000   0.92761651   -7.1811228    659.95343  0.027594641  0.027476644            2 
 1994000    0.9251103   -7.2071633    658.13312  0.027504727  0.027470195            4 
 1995000   0.92757853   -7.1813944    660.00551  0.027569152  0.027463686            2 
 1996000   0.91160232   -7.1997646    659.79047  0.027546362  0.027457205            1 
 1997000   0.91696094   -7.2105523    659.57826  0.027523713  0.027450724            3 
 1998000   0.92044507   -7.1881092     659.3694  0.027501226  0.027444171            3 
 1999000   0.93401401   -7.2399238    660.38287  0.027529718  0.027437686            5 
 2000000    0.9362559   -7.1869545    662.04121  0.027585051  0.027431205            3 
 2001000   0.93791173   -7.2072155    657.56339  0.027384782  0.027424733            3 
 2002000   0.91684154   -7.1986412    659.57437   0.02745481  0.027418361            5 
 2003000   0.91968082   -7.2136657    660.28169  0.027470531    0.0274119            2 
 2004000   0.95137738   -7.1988111    662.44839  0.027546922  0.027405491            2 
 2005000   0.91469228   -7.2307082      660.924  0.027469826  0.027398996            2 
 2006000   0.91890276    -7.207232    660.15663  0.027424253  0.027392433            2 
 2007000   0.91512954   -7.2438703    660.47389  0.027423762  0.027385864            3 
 2008000   0.92838882   -7.2517567    660.15752  0.027396975  0.027379291            3 
 2009000   0.91784194   -7.1702567    662.74057  0.027490483  0.027372799            1 
 2010000   0.92918965   -7.1849349    663.13726  0.027493253  0.027366292            3 
 2011000   0.90766209   -7.2095997    662.83369  0.027467002  0.027359822            2 
 2012000   0.94223315   -7.2275019     661.9322  0.027416012   0.02735336            3 
 2013000   0.93338564   -7.2134372    661.82005   0.02739775   0.02734694            2 
 2014000   0.92451494   -7.2086253    663.74091  0.027463626   0.02734053            2 
 2015000   0.92142399   -7.2214617    663.66356  0.027446797  0.027334023            1 
 2016000   0.93713312   -7.1987843    662.38519   0.02738034  0.027327559            4 
 2017000   0.92375122   -7.2285206    661.84391  0.027344402  0.027321017            1 
 2018000    0.9483453   -7.2268362    662.27747  0.027348756  0.027314506            3 
 2019000   0.91229866   -7.2368385    663.10918  0.027369539  0.027307888            1 
 2020000   0.92947068   -7.2702962    662.06345  0.027312849  0.027301301            3 
 2021000   0.93118111   -7.1913018    662.97765   0.02733703  0.027294729            2 
 2022000   0.92081579   -7.2138923    663.52311   0.02734599  0.027288215            2 
 2023000   0.93126999   -7.2083294    663.53755  0.027333068  0.027281694            3 
 2024000   0.94199895    -7.235666    664.67477  0.027366385  0.027275167            2 
 2025000   0.92105336   -7.2057835    665.64175  0.027392665  0.027268753            3 
 2026000   0.93361174   -7.1959935    666.43252   0.02741167   0.02726233            6 
 2027000   0.93712391   -7.1620288     666.0253  0.027381405  0.027255917            3 
 2028000   0.93952798   -7.2068279    666.84759  0.027401693  0.027249565            3 
 2029000    0.9220041   -7.2219416     664.9084  0.027308543   0.02724314            3 
 2030000   0.93061391   -7.2619397    665.50199  0.027319458  0.027236688            2 
 2031000   0.90779375   -7.2561198    665.03491  0.027286842  0.027230176            2 
 2032000   0.93038237   -7.2376628    665.25417  0.027282405  0.027223711            2 
 2033000   0.91007074    -7.201735    665.48018   0.02727825  0.027217255            3 
 2034000   0.94775284   -7.2018968    665.41026  0.027261974   0.02721081            4 
 2035000   0.91597889   -7.2379697    666.19963  0.027280902  0.027204281            3 
 2036000   0.90840971   -7.1961584    666.54371  0.027281586  0.027197827            3 
 2037000   0.90867494   -7.1851966    666.62894   0.02727168  0.027191344            3 
 2038000   0.91771568   -7.2353764    664.81617  0.027184174  0.027184761            5 
 2039000   0.92751602   -7.2404798    667.01767  0.027260817  0.027178199            6 
 2040000   0.92392476   -7.1933047    665.18163  0.027172452  0.027171694            2 
 2041000   0.95779827   -7.2460042    666.15973  0.027199074  0.027165212            2 
 2042000   0.92855751   -7.2334971    665.93192  0.027176458  0.027158674            2 
 2043000   0.91601152   -7.2049268    667.89662  0.027243295  0.027152167            3 
 2044000   0.91720246   -7.2101868    667.62217  0.027218777  0.027145749            2 
 2045000   0.93448508     -7.22732    667.36812  0.027195115  0.027139244            4 
 2046000   0.92807161   -7.2263636    667.43038  0.027184359   0.02713273            2 
 2047000   0.93116246   -7.2347139    666.87977  0.027148664  0.027126088            2 
 2048000   0.90301866   -7.2057857    666.69552   0.02712791  0.027119492            2 
 2049000   0.93093291   -7.2429689    666.78811  0.027118436  0.027112876            6 
 2050000   0.91073293   -7.2127262     669.4018  0.027211455  0.027106211            5 
 2051000   0.90503488   -7.2165316      668.569  0.027164351  0.027099629            2 
 2052000   0.91765206   -7.2007892    669.69523   0.02719685   0.02709307            2 
 2053000   0.91296448   -7.2486934    667.95372  0.027112913  0.027086455            6 
 2054000   0.93765549   -7.2109267    668.58205  0.027125205  0.027079795            3 
 2055000   0.92077156   -7.2327384     669.7864  0.027160844   0.02707317            2 
 2056000   0.92501246   -7.2436763    666.95642  0.027032929  0.027066505            3 
 2057000   0.91725407   -7.2260949    667.56317  0.027044367  0.027059826            2 
 2058000   0.91743266   -7.2189887    669.94576  0.027127703  0.027053226            2 
 2059000   0.92233564   -7.2226962    669.07009  0.027079087  0.027046707            5 
 2060000   0.92506992   -7.2580218     668.3701  0.027037626   0.02704018            3 
 2061000   0.91661426   -7.2283413    670.26786   0.02710124  0.027033608            3 
 2062000   0.92502472   -7.2120039    669.53549  0.027058499  0.027026986            5 
 2063000   0.92165773   -7.2411108    668.50235   0.02700365  0.027020333            2 
 2064000   0.94028779     -7.25405    669.00623   0.02701091  0.027013664            2 
 2065000   0.93419153   -7.2073933    671.88726  0.027114094  0.027007062            2 
 2066000   0.92252705   -7.2301711    669.44997  0.027002661    0.0270005            3 
 2067000   0.93381489   -7.2451178    669.31643  0.026984214  0.026993828            3 
 2068000   0.90564582   -7.2484484    670.52775  0.027019977  0.026987157            4 
 2069000     0.915146   -7.2270337    670.96291  0.027024444  0.026980493            2 
 2070000   0.91174462   -7.2358426    669.11501  0.026936997  0.026973878            2 
 2071000   0.93911893   -7.2383298    671.12447  0.027004848  0.026967284            2 
 2072000    0.9291411   -7.2591205    669.74371  0.026936282  0.026960729            2 
 2073000   0.93105087   -7.2138962    672.46937  0.027032858  0.026954122            3 
 2074000   0.92550849   -7.2331991    670.32537  0.026933678  0.026947503            3 
 2075000   0.93369033   -7.2256836    672.22011  0.026996791   0.02694086            3 
 2076000    0.9372134   -7.2087583    673.85111  0.027049258  0.026934259            3 
 2077000    0.9315678   -7.2022379    672.45807  0.026980343  0.026927639            5 
 2078000   0.92643502   -7.2248888    673.47324   0.02700807  0.026921002            3 
 2079000   0.92460023   -7.2392543    673.24256  0.026985833  0.026914427            1 
 2080000   0.92355969   -7.2517201    673.11283  0.026967662  0.026907804            5 
 2081000   0.91521748    -7.261954     671.7121  0.026898611  0.026901132            3 
 2082000   0.93432079   -7.2365713    674.01047  0.026977685  0.026894525            2 
 2083000   0.92745735   -7.2652074    672.26636  0.026894958  0.026887904            4 
 2084000    0.9186176   -7.2329512    672.93632  0.026908842   0.02688119            5 
 2085000   0.90863208   -7.2248829    671.95448  0.026856694  0.026874512            7 
 2086000   0.91882679   -7.2261667    673.80317  0.026917672  0.026867845            4 
 2087000   0.94011572   -7.2256662    675.52435  0.026973501  0.026861236            2 
 2088000   0.91282839   -7.2073545    674.22185  0.026908599  0.026854668            6 
 2089000   0.93008902   -7.2225901    673.11026  0.026851375  0.026848041            4 
 2090000   0.91114786   -7.2177187    672.23624  0.026803678  0.026841408            3 
 2091000   0.94221227   -7.2408559    673.20258  0.026829371   0.02683473            2 
 2092000   0.90815831    -7.243081    673.83023  0.026841548  0.026828067            3 
 2093000   0.91471728   -7.2347243    673.87011  0.026830312  0.026821401            3 
 2094000   0.90745049   -7.2405938    675.60901    0.0268867   0.02681473            2 
 2095000    0.9310731   -7.2387983    673.93326   0.02680721  0.026808009            2 
 2096000   0.92005985   -7.2346418    673.62523  0.026782174  0.026801374            2 
 2097000   0.91096047   -7.2340888     675.9524  0.026861882  0.026794676            2 
 2098000   0.91044736   -7.2225247     676.0604  0.026853368  0.026788044            3 
 2099000   0.90580454   -7.2379578    676.38042   0.02685328  0.026781354            4 
 2100000   0.90459287   -7.2641266    674.81203  0.026778255  0.026774693            7 
 2101000   0.91409616   -7.2581431    675.18584  0.026780336  0.026768003            3 
 2102000   0.92597852   -7.2306387    675.24964  0.026770125  0.026761229            4 
 2103000   0.93153246    -7.243949    675.85408  0.026781347  0.026754561            4 
 2104000   0.89954844   -7.2537615    674.74375  0.026724642  0.026747909            3 
 2105000   0.92677133   -7.2531657    674.61008  0.026706654  0.026741218            2 
 2106000   0.92019987   -7.2220872    677.04345   0.02679026  0.026734537            2 
 2107000   0.91371006   -7.2215632    677.14314  0.026781488  0.026727866            4 
 2108000   0.90644408   -7.2726281    673.97023  0.026643352  0.026721152            4 
 2109000   0.90620254   -7.2566757    676.87979  0.026745685  0.026714388            3 
 2110000   0.89587145   -7.2645276    675.74163  0.026688058  0.026707674            3 
 2111000   0.92462403    -7.255305    676.72419  0.026714203  0.026700995            2 
 2112000   0.91687446   -7.2199334    678.29176  0.026763406  0.026694328            2 
 2113000   0.91422902   -7.2614996    676.07522  0.026663323  0.026687606            3 
 2114000     0.923314   -7.2837974    675.90514  0.026644006   0.02668077            4 
 2115000    0.9354125   -7.2314892    676.26172  0.026645458  0.026673951            3 
 2116000   0.90839119   -7.2613127    676.48236  0.026641555   0.02666715            3 
 2117000   0.91617159   -7.2689052    676.67835  0.026636685   0.02666038            3 
 2118000   0.89399157   -7.2739754    675.27252  0.026568796   0.02665363            2 
 2119000   0.92160835   -7.2395633    675.76222  0.026575516  0.026646772            2 
 2120000     0.918185   -7.2605397    676.20389  0.026580341  0.026639934            3 
 2121000   0.92260475   -7.2578587    676.05946  0.026562135  0.026633039            4 
 2122000   0.89530665   -7.2702537    676.89852  0.026582568  0.026626226            3 
 2123000   0.89715347   -7.2282439    676.01611   0.02653541  0.026619369            5 
 2124000   0.92771596   -7.2454729    676.10312  0.026526331  0.026612499            3 
 2125000   0.90129509   -7.2509584    677.61348  0.026573078  0.026605648            4 
 2126000   0.91874746   -7.2437238    677.16881  0.026543149  0.026598793            2 
 2127000   0.91624988   -7.2650008    676.12407  0.026489738  0.026591944            3 
 2128000   0.91624554   -7.2513232    677.51952  0.026531936  0.026585012            2 
 2129000    0.9013165   -7.2528054    676.81729  0.026491987  0.026578115            5 
 2130000   0.92248642   -7.2550661    677.90154  0.026521969  0.026571198            4 
 2131000   0.91437037   -7.2495893    678.53503  0.026534296   0.02656432            2 
 2132000   0.90768867   -7.2489544    676.63635  0.026447637  0.026557479            2 
 2133000   0.90819869   -7.2777608    677.74523   0.02647856   0.02655056            4 
 2134000   0.88814957   -7.2624119    678.83706  0.026508789  0.026543599            2 
 2135000   0.90350825   -7.2674044    677.94957  0.026461732  0.026536705            6 
 2136000   0.92754569   -7.2318292    677.11809  0.026416904  0.026529853            3 
 2137000    0.9098311   -7.2367594    677.91335  0.026435554  0.026522975            2 
 2138000    0.9015307   -7.2500142    680.04049    0.0265061  0.026516164            5 
 2139000   0.91506684   -7.2437999    680.29448  0.026503603  0.026509333            4 
 2140000   0.89960645   -7.2577188    677.94468  0.026399715  0.026502478            2 
 2141000   0.90415147   -7.2903818    679.26596  0.026438812  0.026495552            3 
 2142000   0.90619103   -7.2612669     679.4982  0.026435504   0.02648869            3 
 2143000    0.9034376   -7.2502202    680.43004  0.026459404  0.026481901            5 
 2144000   0.89882839   -7.2591459    679.16478  0.026397885  0.026475032            5 
 2145000   0.91869015   -7.2637544    680.39746  0.026433468  0.026468182            5 
 2146000   0.90437867   -7.2966327    678.97852   0.02636605  0.026461335            5 
 2147000   0.88626294   -7.2405903     680.6792  0.026419779   0.02645448            2 
 2148000    0.9150421   -7.2795521    678.16653  0.026309999  0.026447579            3 
 2149000   0.94098355   -7.2473986    681.84616  0.026440444  0.026440729            3 
 2150000   0.90631721   -7.2734519    679.04395  0.026319533  0.026433873            5 
 2151000   0.91671187   -7.2486703    681.46768  0.026401196  0.026427011            3 
 2152000   0.91674587   -7.2323571    681.71075  0.026398341   0.02642015            6 
 2153000    0.9197391   -7.2616549    680.23641  0.026329014   0.02641331            2 
 2154000    0.9116142   -7.2585218     681.2781  0.026357092  0.026406488            3 
 2155000   0.90090227   -7.2660143    681.15592  0.026340136   0.02639959            2 
 2156000   0.89554785   -7.2461067    682.67699  0.026386711  0.026392686            3 
 2157000   0.90535582   -7.2540048    679.88235   0.02626651  0.026385798            4 
 2158000   0.92733765   -7.2669585    681.50454  0.026316981  0.026378938            2 
 2159000   0.88946587   -7.2753176    681.20442  0.026293208  0.026372096            3 
 2160000   0.90869749   -7.2559865      681.613  0.026296798  0.026365177            2 
 2161000   0.91399242    -7.243347    682.51428  0.026319384  0.026358229            4 
 2162000   0.91299788   -7.2668331    682.69046  0.026314002  0.026351348            3 
 2163000   0.90993641   -7.2731755    682.41122  0.026291078  0.026344445            2 
 2164000   0.89572397   -7.2634193    684.74935  0.026368968   0.02633757            2 
 2165000   0.91630957   -7.2857565    681.93224  0.026248354  0.026330654            3 
 2166000   0.90841229   -7.2856886    679.78998  0.026153816  0.026323667            4 
 2167000   0.92423292   -7.2630745    682.32384  0.026239188  0.026316763            5 
 2168000   0.90210039   -7.2835825    681.74748  0.026204931  0.026309815            3 
 2169000   0.91769727   -7.2422439    681.91276  0.026199199  0.026302857            2 
 2170000   0.90560599   -7.3066475    683.11276  0.026233209  0.026295842            2 
 2171000   0.90202078   -7.2855231    682.73717  0.026206709  0.026288838            4 
 2172000   0.91226946   -7.2567815     682.8026  0.026197153   0.02628192            2 
 2173000   0.91200765    -7.283884    682.64108  0.026178903  0.026274986            2 
 2174000   0.92749564   -7.2282181    685.37605  0.026271698  0.026268053            3 
 2175000   0.89896659   -7.2371813    684.03771  0.026208341  0.026261164            4 
 2176000   0.90780811   -7.2585166    684.70924  0.026222014   0.02625421            6 
 2177000   0.90673188   -7.2565528     686.0529  0.026261403  0.026247328            2 
 2178000    0.9224766   -7.2946764    682.91753  0.026129382  0.026240416            5 
 2179000   0.88586277   -7.2873472    682.53245  0.026102664  0.026233432            6 
 2180000   0.90763154   -7.2830854    683.52954  0.026128805  0.026226506            3 
 2181000   0.90046053   -7.3012155    684.10125  0.026138669  0.026219623            3 
 2182000   0.91298607   -7.2852415    685.94659  0.026197166  0.026212692            3 
 2183000   0.90271894   -7.2755334    684.39024  0.026125753  0.026205755            3 
 2184000   0.89136303   -7.2287118    683.78194  0.026090581  0.026198777            3 
 2185000   0.89209682   -7.2662747    684.68927  0.026113244  0.026191851            4 
 2186000    0.9135058   -7.2445252    683.66527  0.026062263  0.026184932            4 
 2187000   0.90091414   -7.2616007     683.9135  0.026059804  0.026177937            5 
 2188000   0.90250146   -7.2834374     683.1149  0.026017478  0.026170923            4 
 2189000   0.90535982   -7.2775529    682.89793  0.025997332  0.026163862            5 
 2190000   0.89563012   -7.2671659    682.37079  0.025965403  0.026156773            4 
 2191000   0.92223138   -7.2292138    687.02769  0.026130674  0.026149783            2 
 2192000   0.88710533   -7.2813461    686.00361  0.026079821  0.026142848            5 
 2193000   0.90663127   -7.2699398    685.78463  0.026059608  0.026135832            5 
 2194000   0.90080486   -7.2952403    685.32397  0.026030233   0.02612883            2 
 2195000   0.90521934   -7.2633719     687.0479  0.026083823  0.026121822            2 
 2196000   0.92358763    -7.251033     685.2225  0.026002675   0.02611487            3 
 2197000   0.90978704   -7.2437295    685.86583  0.026015242   0.02610793            2 
 2198000   0.91056246   -7.2976497    683.91132  0.025929304  0.026100952            4 
 2199000   0.92407663    -7.299098    684.54644  0.025941581  0.026093963            3 
 2200000   0.90001116   -7.2734216    686.83923  0.026016637  0.026086933            3 
 2201000   0.89098778   -7.2734821    685.33157  0.025947735  0.026079949            4 
 2202000    0.9008937    -7.253191    686.79611  0.025991376  0.026072855            1 
 2203000   0.89662328   -7.2713242    685.56178  0.025932886   0.02606581            4 
 2204000   0.91231426   -7.2528745    686.69444  0.025963946   0.02605876            3 
 2205000   0.90681693   -7.2921231    686.23904   0.02593496  0.026051706            9 
 2206000   0.87964558   -7.2931198    686.33046  0.025926657  0.026044673            2 
 2207000   0.89984445   -7.2789368    686.41902  0.025918253  0.026037688            4 
 2208000    0.8869283   -7.2809812    687.67918  0.025954075  0.026030695            2 
 2209000   0.89057821   -7.2989326    687.11244  0.025920946  0.026023669            2 
 2210000     0.888925    -7.259697    688.00619  0.025942918  0.026016698            3 
 2211000   0.90477617   -7.2884955    686.78442  0.025885136  0.026009752            4 
 2212000   0.88731788   -7.2600337    688.97228  0.025955858  0.026002792            3 
 2213000   0.88301095   -7.2745482    689.23024  0.025953842  0.025995881            3 
 2214000   0.89748021   -7.2836976    690.53924   0.02599139  0.025988963            4 
 2215000   0.90105699   -7.3190952    688.73608  0.025911816  0.025982003            3 
 2216000    0.8934291   -7.2718152    689.66922  0.025935215  0.025975102            5 
 2217000   0.88746313    -7.268197    687.83578    0.0258546  0.025968213            2 
 2218000   0.89433909   -7.2708138    690.05812   0.02592644  0.025961313            4 
 2219000   0.90497583   -7.2610109    689.51304  0.025894286  0.025954405            4 
 2220000   0.88518836   -7.2675825     690.0056  0.025901111  0.025947541            3 
 2221000   0.87833971   -7.2802453    689.67267  0.025876957  0.025940677            6 
 2222000   0.87966879   -7.3128016    690.80738  0.025907867  0.025933802            4 
 2223000   0.89253706   -7.2852434    689.72298  0.025855562  0.025926944            6 
 2224000   0.88686791    -7.248025     690.2766  0.025864681  0.025920189            3 
 2225000   0.89091461   -7.2612503     692.3547  0.025930888  0.025913389            3 
 2226000   0.89866055   -7.3047224     691.6928  0.025894459   0.02590653            4 
 2227000    0.8871489   -7.2817886    690.49796  0.025838121  0.025899655            4 
 2228000   0.91278303   -7.2975205    690.07934  0.025810867  0.025892819            4 
 2229000   0.90512003   -7.2856114    691.17392  0.025840209  0.025885968            4 
 2230000   0.91817294   -7.3254706    690.86362  0.025817026  0.025879122            6 
 2231000   0.89578912   -7.3030912    691.49006  0.025828853  0.025872275            3 
 2232000   0.90335184   -7.2435864    692.67967  0.025861696  0.025865505            6 
 2233000   0.90321636   -7.3036113    691.94891  0.025822843  0.025858789            2 
 2234000   0.89973526    -7.314524    690.96561  0.025774605  0.025851953            5 
 2235000   0.86951251   -7.2570886    692.24444  0.025810755  0.025845133            9 
 2236000   0.88552807   -7.2975733    692.89658  0.025823516  0.025838305            2 
 2237000   0.88731213    -7.288425    692.47884   0.02579641  0.025831489            5 
 2238000   0.88014094   -7.2697205     692.5104  0.025786059  0.025824686            2 
 2239000   0.88396555   -7.2971148     693.4407  0.025809167  0.025817891            2 
 2240000   0.88320875   -7.2926726    693.44526  0.025797815  0.025811065            2 
 2241000   0.89238591   -7.3073009    694.23765  0.025815769  0.025804301            3 
 2242000   0.88483769   -7.3241823    692.19913  0.025728484  0.025797506            5 
 2243000   0.88818563   -7.2526303    694.41711  0.025799417  0.025790725            6 
 2244000   0.92085608   -7.2836316    695.27512  0.025819783  0.025783973            1 
 2245000   0.90370843   -7.2859559    693.44663  0.025740409  0.025777252            3 
 2246000   0.89217104   -7.3164896    694.76633  0.025777914  0.025770488            3 
 2247000   0.90052883   -7.2966104    694.97073  0.025774022  0.025763745            3 
 2248000   0.90114352   -7.2560588    696.50303  0.025819359   0.02575706            2 
 2249000   0.86501423   -7.2562802    695.94757  0.025787297  0.025750406            6 
 2250000   0.90510433   -7.2846492    694.97508  0.025739818  0.025743701            3 
 2251000   0.90646163    -7.286789    694.12579  0.025696942  0.025737014            2 
 2252000   0.88114284   -7.3005337    696.66812  0.025779608  0.025730321            5 
 2253000    0.8754991   -7.3132363    695.02664  0.025707451  0.025723593            3 
 2254000   0.88441471   -7.2799071    696.63754  0.025755603  0.025716858            4 
 2255000   0.88546026   -7.2915075    696.24803  0.025729787  0.025710124            3 
 2256000   0.87828341   -7.3394753    694.17172  0.025641686  0.025703331            2 
 2257000   0.88646926   -7.3433342    694.05855  0.025626146  0.025696503            8 
 2258000   0.91830515   -7.3018182    693.49697  0.025594072  0.025689666            3 
 2259000   0.89983976   -7.2642766    696.79247  0.025704311  0.025682809            8 
 2260000    0.8809494   -7.3431887    694.84721   0.02562121   0.02567594            1 
 2261000   0.91026292   -7.3138844     694.7237  0.025605326  0.025669115            4 
 2262000   0.88359386   -7.2973841    693.73184  0.025557465  0.025662253            3 
 2263000   0.88883817   -7.2894436     696.9855  0.025665985  0.025655391            2 
 2264000   0.89646663   -7.3014617    695.34881  0.025594406  0.025648499            5 
 2265000   0.87869666   -7.2976968     696.5433  0.025627053  0.025641657            5 
 2266000   0.89172144   -7.2892338    696.40999  0.025610841  0.025634843            2 
 2267000   0.88653599   -7.2944844    698.25221  0.025667263  0.025628027            2 
 2268000   0.90356082   -7.3060739    696.84295  0.025604165  0.025621217            2 
 2269000   0.90496976   -7.2902208    698.07278  0.025638048  0.025614371            7 
 2270000   0.90518386   -7.3082161    698.18677  0.025630939  0.025607626            3 
 2271000   0.90120394   -7.2989619    698.77478  0.025641229  0.025600889            5 
 2272000   0.88720427   -7.2828455    698.05901   0.02560369  0.025594105            5 
 2273000   0.87888151   -7.2771363    698.84187  0.025621127  0.025587381            2 
 2274000   0.87733252    -7.339508    698.48043  0.025596615  0.025580701            3 
 2275000   0.88486162    -7.298382    699.92831    0.0256384  0.025573975            4 
 2276000   0.88051578   -7.2971531    699.94579  0.025627775  0.025567275           11 
 2277000   0.87989019    -7.296199    699.41334  0.025597033  0.025560607            5 
 2278000     0.891863   -7.2929803    699.25916  0.025580156  0.025553885            8 
 2279000   0.88230002   -7.3079039    697.29019  0.025496935  0.025547147            2 
 2280000   0.88351716   -7.3095335    698.46862  0.025528824  0.025540406            2 
 2281000   0.88707056   -7.2829915    699.72379  0.025563488   0.02553366            3 
 2282000    0.8783939   -7.3140712    698.33731  0.025501655  0.025526951            2 
 2283000   0.88940052   -7.2825888     699.7667   0.02554266  0.025520113            4 
 2284000   0.89064726    -7.320362    697.16893  0.025436695  0.025513269            4 
 2285000   0.89382809   -7.3016823    700.28824  0.025539323  0.025506437            3 
 2286000   0.88126229   -7.3292004    697.69953  0.025433783  0.025499609            2 
 2287000   0.88579799   -7.3040977     700.0934  0.025509889  0.025492731            4 
 2288000   0.90248026   -7.2674772    700.61177   0.02551762  0.025485979            2 
 2289000   0.87936968   -7.3206635    698.55822   0.02543171  0.025479204            3 
 2290000   0.89012603   -7.3128815    700.03827  0.025474464  0.025472335            2 
 2291000   0.88165296   -7.3129238    699.43492  0.025441398  0.025465498            4 
 2292000   0.89147284    -7.327205    698.26568  0.025387786  0.025458681            3 
 2293000   0.89651829   -7.3202333    698.95062  0.025401607  0.025451812            2 
 2294000   0.89781051   -7.3206243     698.8771  0.025387863  0.025444977            4 
 2295000   0.89461047   -7.2956469    700.09398  0.025420987  0.025438178            3 
 2296000   0.87622008   -7.3287948    699.92832  0.025403902  0.025431376            4 
 2297000   0.88030867   -7.3014227    700.91363  0.025428589  0.025424547            3 
 2298000   0.88685068   -7.3255844    700.84581  0.025415064  0.025417712            2 
 2299000   0.90057325   -7.3131914    701.20012  0.025416852  0.025410898            3 
 2300000   0.87349412   -7.2926336    701.39455  0.025412846  0.025404105            3 
 2301000   0.88753959   -7.2775259    700.63282  0.025374215  0.025397313            3 
 2302000   0.86070421   -7.3049686    700.26367  0.025349829  0.025390496            5 
 2303000   0.90524409   -7.3311271    702.91721  0.025434839  0.025383708            5 
 2304000   0.90025413   -7.3112722    701.27723  0.025364483  0.025376956            3 
 2305000   0.87483553   -7.2728606    701.87701  0.025375163  0.025370231            4 
 2306000   0.87736574   -7.3274523    699.66319  0.025284157  0.025363483            2 
 2307000   0.87346641   -7.3177828     701.2244  0.025329591  0.025356675            3 
 2308000   0.90736831   -7.3570723    701.08489  0.025313579  0.025349881            3 
 2309000   0.89497137    -7.316293    701.56496  0.025319942  0.025343096            7 
 2310000   0.88833791   -7.2845483    703.94965  0.025395009   0.02533635            4 
 2311000   0.89138319   -7.2634136    701.61945  0.025299995  0.025329636            3 
 2312000   0.89096759   -7.3106968    702.07634   0.02530552  0.025322889            3 
 2313000   0.87535674   -7.2951882     704.4234   0.02537914  0.025316119            4 
 2314000   0.89163606    -7.290041    702.27611  0.025290842  0.025309374            7 
 2315000    0.8763287    -7.339687    702.79894  0.025298738  0.025302631            2 
 2316000   0.89314498    -7.320747    702.29104  0.025269539  0.025295867            2 
 2317000   0.86755131   -7.3168529     703.5189  0.025302794  0.025289094            3 
 2318000   0.89023268   -7.3350527     703.1223  0.025277621  0.025282341            2 
 2319000   0.88028718   -7.3235169    703.44422  0.025278289  0.025275592            3 
 2320000   0.87858337   -7.3082683    704.55716  0.025307369  0.025268941            2 
 2321000    0.8839616   -7.3088014    703.80128  0.025269326  0.025262229            2 
 2322000   0.88201676   -7.2904903    705.31245  0.025312678  0.025255597            3 
 2323000    0.8815098   -7.3145156    704.85958  0.025285535  0.025248887            3 
 2324000   0.88014376   -7.3407502    704.16673  0.025249811   0.02524217            4 
 2325000   0.88093253   -7.3259581     703.3814  0.025210803  0.025235439            2 
 2326000   0.88730959   -7.3350946    706.55927  0.025313817  0.025228692            4 
 2327000   0.88809873   -7.3337018    705.08523  0.025250152  0.025222035            5 
 2328000   0.87576449   -7.3429093    705.22821  0.025244423  0.025215283            3 
 2329000   0.88860251   -7.3118304    703.06518  0.025156189  0.025208483            2 
 2330000    0.8719827   -7.3048157    706.45413    0.0252666  0.025201727            2 
 2331000   0.88478688   -7.3318096    705.39498  0.025217896  0.025194994            3 
 2332000   0.87645694   -7.3205808    704.08751   0.02516036  0.025188263            5 
 2333000   0.87796914   -7.3165535    705.15053  0.025187546  0.025181486            3 
 2334000   0.88518636   -7.3257339    706.30522  0.025217981  0.025174708            5 
 2335000   0.88102494   -7.3319785    705.75453  0.025187528  0.025167947            2 
 2336000   0.89307219   -7.3124592    707.44425  0.025237024  0.025161236            3 
 2337000   0.89061979   -7.3559219    704.21083  0.025110927  0.025154456            5 
 2338000   0.87190856   -7.3595469    704.00445   0.02509283  0.025147681           15 
 2339000   0.90435699    -7.329985    705.91282  0.025150093  0.025140912            3 
 2340000   0.88547158   -7.3256758    706.96415  0.025176786  0.025134199            4 
 2341000    0.8857663   -7.3514263     706.3569  0.025144415  0.025127473            2 
 2342000   0.88820076   -7.3264552    706.47166  0.025137762  0.025120731            1 
 2343000   0.86048831   -7.3688224    706.24453  0.025118955   0.02511403            2 
 2344000   0.88323695   -7.3292361    705.81375  0.025092923  0.025107289            3 
 2345000   0.87377775   -7.3369917    706.59864  0.025110115  0.025100595            2 
 2346000   0.87835462   -7.2980164    707.91489  0.025146167  0.025093932            4 
 2347000   0.87775553   -7.3335339    708.04708  0.025140146  0.025087254            4 
 2348000   0.88094609   -7.3679497    706.57418  0.025077164  0.025080487            3 
 2349000   0.87501709   -7.3339157    707.48224  0.025098703  0.025073701            3 
 2350000   0.86220059   -7.3104477    707.75212  0.025097593   0.02506702            5 
 2351000   0.86816895   -7.3459179    706.02005  0.025025523  0.025060368            5 
 2352000   0.88814839   -7.3178475    707.59537  0.025070698  0.025053676            3 
 2353000   0.87517893   -7.3426071       708.44  0.025089956  0.025046998            4 
 2354000   0.89226705   -7.3135688    708.03007  0.025064786   0.02504021            3 
 2355000   0.88156143   -7.3335915    709.91182   0.02512073  0.025033486            5 
 2356000   0.86920182   -7.3173037    709.43035  0.025093037  0.025026761           12 
 2357000   0.87543594   -7.3358348    707.89751  0.025028196  0.025020016            3 
 2358000   0.86891233   -7.3209712    709.12185  0.025060851  0.025013313            2 
 2359000    0.8575206   -7.3137789     707.9993  0.025010573  0.025006667            5 
 2360000   0.87205707   -7.3315558    709.61494  0.025057025  0.024999973            6 
 2361000   0.88942085   -7.3327309    707.75445  0.024980744  0.024993208            4 
 2362000   0.86092969   -7.3366532    708.76655  0.025005876  0.024986464            2 
 2363000    0.8748423   -7.3314053    708.19698  0.024975207  0.024979707            3 
 2364000   0.87469708   -7.3421835    710.63566  0.025050608  0.024972983            3 
 2365000   0.86904274   -7.3568545    708.51746  0.024965379  0.024966271            2 
 2366000   0.87045097   -7.3038366    709.52401  0.024990279  0.024959511            3 
 2367000   0.86559428   -7.3294429    707.22469  0.024898771   0.02495272            3 
 2368000   0.87464031   -7.3339978    708.29949   0.02492608  0.024945938            2 
 2369000   0.84804354   -7.3304628    709.50067  0.024957812  0.024939182            2 
 2370000   0.88730351   -7.3233368    709.58767   0.02495034  0.024932372            2 
 2371000   0.85937227   -7.3618936    708.26186  0.024893219  0.024925522            1 
 2372000   0.88013898   -7.3490295      706.186  0.024809795  0.024918607            2 
 2373000   0.87417757   -7.3649186     707.0915  0.024831139  0.024911705            4 
 2374000   0.87586259    -7.351939    706.28201  0.024792264  0.024904838            3 
 2375000   0.87070233   -7.3374919    708.75622  0.024868639  0.024897949            3 
 2376000   0.87065635   -7.3321697    709.81581  0.024895335  0.024891049            3 
 2377000   0.87111234   -7.3312616    708.83568  0.024850501  0.024884153            2 
 2378000   0.86886134   -7.3818731    708.35931  0.024823357   0.02487722            3 
 2379000   0.85842488   -7.3312984     707.5967  0.024786209  0.024870332            4 
 2380000   0.89574281   -7.3157761    709.52908  0.024843455  0.024863425            3 
 2381000   0.87262788   -7.3215625    709.00512  0.024814683  0.024856526            5 
 2382000   0.89866653    -7.369085    707.07774  0.024736837  0.024849608            3 
 2383000   0.87899341   -7.3388032    707.36818  0.024736613  0.024842665            6 
 2384000   0.86907564   -7.3132638     710.4465   0.02483384  0.024835758            5 
 2385000   0.88709997   -7.3546855    707.44093  0.024718411  0.024828816            4 
 2386000   0.87005552   -7.3630468    708.13689  0.024732359  0.024821822            3 
 2387000   0.85419707   -7.3429277    708.24917  0.024725917  0.024814871            2 
 2388000   0.87208278   -7.3297736    710.30218  0.024787206  0.024807894            3 
 2389000   0.86694179   -7.3569781    707.62599   0.02468348  0.024800921            8 
 2390000   0.88614212   -7.3273701    709.42122  0.024735747  0.024793998            3 
 2391000   0.83976832   -7.3364428    709.70383  0.024735251  0.024787099            5 
 2392000   0.88087355   -7.3444357    710.63727   0.02475743  0.024780241            3 
 2393000   0.88412899   -7.3352939    709.59993   0.02471096  0.024773353            3 
 2394000   0.86824877   -7.3798803    709.30628  0.024690416  0.024766419            3 
 2395000   0.87370436    -7.352962    709.75919  0.024695866  0.024759543            2 
 2396000   0.85040827   -7.3373619    710.27535  0.024703511  0.024752703            4 
 2397000   0.84639693   -7.3232621    709.70999   0.02467355  0.024745829            3 
 2398000   0.85804359   -7.3377467    709.94421    0.0246714  0.024738947            3 
 2399000   0.87108644   -7.3192504    710.27597   0.02467264  0.024732107            2 
 2400000   0.86990261   -7.3394088    710.70656  0.024677311  0.024725292            3 
 2401000   0.87213022   -7.3054508    710.99624  0.024677087  0.024718464            2 
 2402000   0.87304945   -7.3372715    711.41637  0.024681389  0.024711652            3 
 2403000   0.88000965   -7.3343714    712.52992  0.024709735  0.024704821            6 
 2404000   0.87203577   -7.3249007    711.23203  0.024654466  0.024697964            9 
 2405000   0.87473394   -7.3433465     710.6991  0.024625748  0.024691156            4 
 2406000   0.85467732   -7.3363352    711.36271  0.024638498  0.024684286            5 
 2407000   0.86419719   -7.3283623    712.60426  0.024671246  0.024677482           13 
 2408000   0.85231266   -7.3465784    713.81652  0.024702953  0.024670695            3 
 2409000   0.85368806   -7.3298901    713.75033  0.024690409  0.024663879            5 
 2410000   0.87291518    -7.350189    712.36622  0.024632304  0.024657097            7 
 2411000   0.85477705   -7.3240163    714.57354   0.02469838   0.02465031            3 
 2412000   0.85815842   -7.3773461    712.23513   0.02460735  0.024643547            3 
 2413000   0.86850602   -7.3468698    712.55197  0.024608094  0.024636756            3 
 2414000   0.86770109   -7.3784488    713.80791  0.024641256   0.02462995            3 
 2415000   0.86336388   -7.3889447    715.05089  0.024673944  0.024623084            4 
 2416000   0.87105249   -7.3922798      713.223  0.024600683  0.024616303            3 
 2417000   0.88610766   -7.3101055    715.45971  0.024667622  0.024609592            3 
 2418000   0.84954358   -7.3573352    716.46669  0.024692125  0.024602896            6 
 2419000   0.86154868   -7.3071893    715.85548  0.024660861  0.024596211            4 
 2420000   0.86502453   -7.3205482    716.70577  0.024679951  0.024589539            3 
 2421000   0.86088738   -7.3772484     715.7532  0.024636968  0.024582874            3 
 2422000   0.88194692    -7.326405    715.17085  0.024606759  0.024576158            3 
 2423000   0.86620896   -7.3482558    714.73638  0.024581661  0.024569502            4 
 2424000   0.85778767   -7.3548348    714.20047  0.024553096  0.024562806            2 
 2425000   0.86334297   -7.3661271    716.08556  0.024607751  0.024556087            5 
 2426000   0.86757375   -7.3428138    716.10587  0.024598306  0.024549376            5 
 2427000   0.87127799   -7.3105759     715.2615  0.024559178  0.024542711            3 
 2428000   0.84929403   -7.3642456     716.8111  0.024602248  0.024535996            4 
 2429000   0.87312605   -7.3499428    716.46691  0.024580311  0.024529287            8 
 2430000   0.88341727   -7.3850345    715.31118  0.024530562  0.024522543            9 
 2431000    0.8645597   -7.3825831    715.96405  0.024542851  0.024515767            7 
 2432000    0.8539061   -7.3378855    714.58085  0.024485363  0.024509031            3 
 2433000    0.8645966   -7.3402022    715.39699  0.024503253  0.024502263            5 
 2434000   0.87901387    -7.371456     714.7463  0.024470909  0.024495462            6 
 2435000   0.85494212   -7.3623358     712.9545  0.024399538  0.024488666            5 
 2436000     0.875699   -7.3660574    713.91492  0.024422377  0.024481834            5 
 2437000   0.86673615   -7.3585533    715.33094  0.024460776  0.024475041            4 
 2438000   0.86186224   -7.3602146    715.56135  0.024458619  0.024468225            7 
 2439000   0.86403099   -7.3791942    713.01281  0.024361515  0.024461383            3 
 2440000   0.87234736   -7.3923012    715.03519  0.024420601  0.024454511            6 
 2441000   0.87851875   -7.3792692    714.12394  0.024379487  0.024447674            4 
 2442000   0.84684613   -7.3701414    716.66292  0.024456147  0.024440813            6 
 2443000   0.87299413   -7.3415757    716.67225  0.024446454  0.024434015            5 
 2444000   0.86259924   -7.3297262    717.21257  0.024454875  0.024427234            3 
 2445000   0.84769084   -7.3401321    715.92583  0.024401017  0.024420476            3 
 2446000   0.85970938   -7.3579494    714.53209  0.024343557  0.024413703            4 
 2447000   0.86826126   -7.3473285     716.9724  0.024416714  0.024406913            3 
 2448000   0.85696253   -7.3572402    717.27857  0.024417163  0.024400149            1 
 2449000   0.86548736   -7.3585679    718.16882  0.024437485  0.024393382            8 
 2450000   0.83858785   -7.3759496     716.5126  0.024371177  0.024386619            3 
 2451000   0.85392263   -7.3338816    716.82765  0.024371945   0.02437985            6 
 2452000   0.83747107    -7.381407    718.51804  0.024419455  0.024373085            3 
 2453000   0.86893425   -7.3669708    718.29462   0.02440191  0.024366348            4 
 2454000   0.86604226   -7.3702577    718.72128  0.024406455  0.024359697            4 
 2455000   0.86614947   -7.3609656    718.79303  0.024398949     0.024353            2 
 2456000   0.86230239   -7.3362736    718.11848  0.024366127  0.024346324            4 
 2457000   0.85876118   -7.3407126    718.05239  0.024353968  0.024339623            5 
 2458000   0.85270787   -7.3903424    717.64465  0.024330236  0.024332871            7 
 2459000   0.84149628   -7.3743853    717.90744  0.024329248  0.024326085            3 
 2460000   0.87323423   -7.3468323    716.83643  0.024283077  0.024319295            2 
 2461000   0.86709353   -7.3891621     718.7334  0.024337444  0.024312471            1 
 2462000   0.85902643   -7.4031428    718.04086  0.024304118  0.024305716            1 
 2463000   0.85163572   -7.3555014    717.91074  0.024289848  0.024298967            2 
 2464000   0.86620486    -7.370558    718.33564   0.02429436  0.024292224            4 
 2465000   0.87607812   -7.3621839    716.91689  0.024236541   0.02428547            3 
 2466000   0.86018354   -7.3845837    717.55605  0.024248312  0.024278607            2 
 2467000   0.84221554   -7.3587943    717.97919  0.024252776  0.024271799            2 
 2468000   0.85429637   -7.3745405    719.68627   0.02430059  0.024264999            2 
 2469000    0.8415168   -7.4060808     717.4443  0.024215077  0.024258141            6 
 2470000   0.85428843   -7.3877016     718.4954  0.024240736  0.024251301            3 
 2471000   0.85181942   -7.3963038    718.76369  0.024239973  0.024244461            4 
 2472000   0.83697787    -7.394417    717.41155  0.024184586  0.024237634            3 
 2473000   0.87558544   -7.3919194    717.88295  0.024190691  0.024230833            3 
 2474000   0.85049467   -7.3242725    719.65249  0.024240518  0.024224056            2 
 2475000   0.85551626    -7.371434     718.8343  0.024203175  0.024217272            6 
 2476000   0.86484575    -7.392281    719.85578  0.024227779  0.024210508            3 
 2477000    0.8443016   -7.3739899    720.03916  0.024224168  0.024203718            1 
 2478000   0.85336036   -7.3548603    720.96925   0.02424567  0.024196991            6 
 2479000   0.85459812   -7.3809754    719.91443  0.024200431  0.024190217            2 
 2480000   0.84998117   -7.3738595    719.28347  0.024169471  0.024183438            3 
 2481000   0.85981143   -7.3829321    717.77488  0.024109058  0.024176649            2 
 2482000   0.85004826   -7.3887169    719.14909  0.024145484  0.024169867            3 
 2483000   0.86414278   -7.3574488    719.66804  0.024153176  0.024163064            7 
 2484000   0.87086232   -7.3757486    720.27837  0.024163928  0.024156301            5 
 2485000     0.858394   -7.3668021    720.43292  0.024159387  0.024149595            5 
 2486000   0.84794647   -7.3692844    719.84256  0.024129879  0.024142801            4 
 2487000    0.8502069     -7.38194    719.45893  0.024107322  0.024135999            4 
 2488000    0.8477131   -7.3672081    720.04343   0.02411721  0.024129218            2 
 2489000   0.84995434   -7.3700243    718.42692  0.024053399  0.024122437           12 
 2490000   0.84776787   -7.3934475    720.83336  0.024124276  0.024115618            2 
 2491000   0.85298608   -7.3618158    720.96104  0.024118863  0.024108818            3 
 2492000   0.83291674   -7.4022716    721.95621  0.024142463  0.024102043            2 
 2493000   0.86433938   -7.4093085    720.29255  0.024077168  0.024095217            5 
 2494000   0.85804222   -7.3846677    721.75844  0.024116494  0.024088451            4 
 2495000   0.84685975   -7.3788336    720.89158  0.024077875  0.024081682            5 
 2496000   0.85572046   -7.3650353    721.10844  0.024075469  0.024074949            2 
 2497000   0.83922866   -7.3924712    721.64933  0.024083878  0.024068225            4 
 2498000   0.84076781    -7.387946    722.66999  0.024108286    0.0240615            5 
 2499000   0.84906686   -7.3626139    720.62443  0.024030427  0.024054784            3 
 2500000   0.85807891   -7.4008292    721.81953  0.024060651  0.024048006            2 
 2501000   0.85404814   -7.3769714    720.27657  0.023999619  0.024041172            3 
 2502000   0.85558028     -7.39322    719.28282  0.023956929  0.024034349            5 
 2503000   0.87819045   -7.3684549    719.79303  0.023964344  0.024027552            3 
 2504000   0.85221844   -7.3687149    722.80521  0.024055019  0.024020783            2 
 2505000   0.84680644   -7.4025221    720.84225  0.023980115  0.024014004            3 
 2506000   0.84608155   -7.3682511    721.47125  0.023991462  0.024007194            5 
 2507000   0.84307757   -7.3985802    721.57793  0.023985438  0.024000342            2 
 2508000    0.8603551   -7.3796471    720.41616  0.023937273  0.023993542            3 
 2509000   0.83349404   -7.3945297     721.1187  0.023951066  0.023986753            4 
 2510000   0.86320918   -7.3866764    721.90632  0.023967673  0.023980006            3 
 2511000    0.8540044    -7.368251     723.0496  0.023996071  0.023973223            2 
 2512000   0.84121268   -7.4326826    722.14808  0.023956611  0.023966432            3 
 2513000   0.83023209   -7.4154862    719.58905  0.023862218  0.023959542            3 
 2514000    0.8498402   -7.3642418     722.1856  0.023938796  0.023952673            3 
 2515000   0.86391627   -7.3974915    721.57907  0.023909181  0.023945879            3 
 2516000   0.85868923   -7.3838033    721.68008  0.023903023  0.023939039            1 
 2517000   0.85259589      -7.3399    723.16037  0.023942536  0.023932222            3 
 2518000   0.86526568   -7.4449222    720.29634  0.023838243  0.023925395            3 
 2519000   0.84082754   -7.3749461    722.69172  0.023908023  0.023918527            4 
 2520000   0.86793659   -7.4137046    723.05505  0.023910551   0.02391171           10 
 2521000   0.84613832   -7.4022917    722.45925  0.023881372  0.023904911            3 
 2522000   0.83126568   -7.3753453    723.37506  0.023902163  0.023898109            4 
 2523000   0.84732992   -7.3998281     722.3301  0.023858175  0.023891328            2 
 2524000   0.84238914   -7.3926024    723.38357  0.023883504  0.023884548            4 
 2525000   0.86413185   -7.3455374     724.4657  0.023909759  0.023877759            3 
 2526000   0.84361742    -7.359866    723.12144  0.023855946  0.023870963            3 
 2527000    0.8353193   -7.3773661    724.22125  0.023882774  0.023864155            4 
 2528000   0.84597885   -7.4077482    722.66415  0.023821999  0.023857368            3 
 2529000   0.86330563   -7.4151528    722.16985  0.023796291  0.023850532            5 
 2530000   0.83412012   -7.4212163    722.59738  0.023800968  0.023843659            2 
 2531000   0.84522507   -7.3936835    723.66972  0.023826871  0.023836806            3 
 2532000   0.82985313   -7.3926914    724.07997  0.023830963  0.023829965            3 
 2533000     0.858394   -7.3836571    723.11057  0.023789662  0.023823171            7 
 2534000   0.86154406   -7.4015769    723.66685  0.023798568  0.023816385            2 
 2535000   0.82836312   -7.3896574    724.63349  0.023820956  0.023809609            5 
 2536000   0.83374571   -7.3933642    725.06002  0.023825579  0.023802847            3 
 2537000   0.85978101   -7.3874927     724.1285   0.02378559  0.023796066            5 
 2538000    0.8551688   -7.3834281    723.77608  0.023764647  0.023789239            4 
 2539000   0.84196476   -7.3974849     723.9088  0.023759643   0.02378241            4 
 2540000   0.82015274   -7.3478818    725.09371  0.023789164  0.023775603            7 
 2541000   0.85263462   -7.3739254    725.58579   0.02379594  0.023768807            5 
 2542000   0.85714988   -7.3960477    723.47141  0.023717263  0.023762025            2 
 2543000   0.83607219   -7.3786561    724.41531  0.023738868  0.023755267            5 
 2544000    0.8527501   -7.4093647    724.41795  0.023729624  0.023748438            4 
 2545000   0.85030334   -7.3988157    723.70697  0.023697019  0.023741653            3 
 2546000   0.85550769   -7.4185387    724.62193  0.023717659  0.023734895            4 
 2547000   0.84748361   -7.3865315     724.5355   0.02370552  0.023728119            3 
 2548000   0.82154565   -7.3963011    724.90268  0.023708225  0.023721313            4 
 2549000   0.84122654    -7.399313    725.41077  0.023715534  0.023714565            1 
 2550000   0.84674886    -7.392174    725.96493  0.023724344   0.02370781            2 
 2551000   0.83797379    -7.369136    726.38115  0.023728641  0.023701094            3 
 2552000   0.82948973   -7.4053759    725.10768  0.023677759  0.023694355            3 
 2553000   0.82703248   -7.3847384    725.75493  0.023689611  0.023687555            6 
 2554000   0.84426196   -7.4029102    725.19301  0.023662001  0.023680813            2 
 2555000   0.82978722   -7.4241169    726.82018  0.023705811  0.023674072            5 
 2556000   0.85949463   -7.4269748    724.98975  0.023636859  0.023667332            3 
 2557000   0.83292767   -7.3927936    726.56661  0.023679006  0.023660576            4 
 2558000    0.8363104   -7.4181946    726.34268  0.023662454  0.023653854            3 
 2559000   0.84900466   -7.3996133     728.2771  0.023716201   0.02364709            5 
 2560000   0.83930121   -7.3961447     727.6725  0.023687256  0.023640371            3 
 2561000   0.87381527   -7.4042533    727.77569  0.023681364  0.023633678            6 
 2562000   0.82222181   -7.3874473    727.70504  0.023669823  0.023626971            3 
 2563000   0.83336118   -7.4308122    726.44008  0.023619459  0.023620268            3 
 2564000   0.85209509   -7.4226345    726.90392  0.023625322  0.023613516            4 
 2565000   0.86020344   -7.4052641    726.21546  0.023593745  0.023606747            3 
 2566000   0.83669523    -7.422958    725.91171  0.023574685  0.023599959            6 
 2567000   0.83799562   -7.4283091    727.12275  0.023604816  0.023593169            3 
 2568000   0.82846581   -7.4179679    728.29239   0.02363358  0.023586359            2 
 2569000    0.8349259    -7.415565    726.42446  0.023563788  0.023579607            4 
 2570000   0.83790039   -7.3551567    727.89798  0.023602399  0.023572867            4 
 2571000   0.83996694   -7.4036151    728.45434  0.023611252  0.023566138            4 
 2572000   0.82869165   -7.4175731    726.04565   0.02352403  0.023559373            2 
 2573000   0.83283586    -7.415392    727.10931  0.023549336   0.02355261            3 
 2574000   0.83424559   -7.3969377    728.25382  0.023577241   0.02354586            2 
 2575000   0.84291103   -7.4001621    730.20766  0.023631316  0.023539138            5 
 2576000   0.84745937   -7.4372173    727.12919  0.023522554  0.023532373            4 
 2577000   0.85542707   -7.4003419    725.99747  0.023476829  0.023525559            1 
 2578000   0.83392237   -7.4312646    727.74896  0.023524339  0.023518775            3 
 2579000   0.82148876   -7.4171782    725.61951  0.023446411  0.023511987            3 
 2580000   0.84884858    -7.399716    729.66353  0.023567943  0.023505204            3 
 2581000    0.8205015   -7.4249472       727.28  0.023481854  0.023498493            2 
 2582000   0.85385094   -7.4427576    726.19911  0.023437875  0.023491754            3 
 2583000   0.83074271   -7.3922024    730.25257  0.023559575  0.023485057            3 
 2584000   0.82602838   -7.4469935    729.46117  0.023524935  0.023478422            4 
 2585000   0.82180945   -7.4256714    729.58664  0.023519879  0.023471747            5 
 2586000   0.85694302   -7.4478588    729.13899  0.023496358  0.023465069            3 
 2587000   0.83458952   -7.4262429    727.98462  0.023450091  0.023458348            3 
 2588000   0.84533382   -7.4164512    729.59728  0.023492957  0.023451623            3 
 2589000   0.81841727   -7.3979901    731.03391  0.023530125  0.023444946            2 
 2590000   0.82008532    -7.438005    730.24939  0.023495798  0.023438235            9 
 2591000   0.83667269   -7.4323374    727.57407  0.023400684  0.023431506            5 
 2592000   0.82870939   -7.4202981    729.51268  0.023453983  0.023424804            3 
 2593000   0.82923466   -7.4337951    727.69043  0.023386374  0.023418095            4 
 2594000   0.85337664   -7.4429879     728.9195  0.023416843  0.023411412            4 
 2595000   0.82482801    -7.418971     731.3927  0.023487242   0.02340477            4 
 2596000   0.85070835   -7.4170839    732.32817  0.023508223  0.023398173            4 
 2597000   0.85261651   -7.4122315    731.46914  0.023471606  0.023391541            5 
 2598000   0.83660217   -7.3894049    731.02848  0.023448437  0.023384938            4 
 2599000   0.83705138   -7.3921738    730.93248  0.023436337  0.023378399            2 
 2600000    0.8266826   -7.3982603    731.46987  0.023444547  0.023371824            3 
 2601000   0.82258352   -7.3919411    732.87922  0.023480687  0.023365239            3 
 2602000   0.83414121   -7.3941906    734.13394  0.023511848  0.023358731            3 
 2603000   0.83404748   -7.4079324    733.79631  0.023492006  0.023352162            2 
 2604000   0.82381609   -7.4114715    733.14662  0.023462193  0.023345594            5 
 2605000   0.81875162    -7.430394    732.18171   0.02342232  0.023338986            3 
 2606000   0.82203594   -7.4127724    730.88881  0.023371988  0.023332384            4 
 2607000   0.84130099   -7.4202662     734.2683  0.023471049  0.023325774            2 
 2608000   0.84537865   -7.4076213    731.10398   0.02336094   0.02331918            4 
 2609000   0.82824144   -7.4181821    733.55387  0.023430237  0.023312576            2 
 2610000   0.82490298   -7.4508645    732.54088  0.023388917  0.023305996            4 
 2611000   0.84298875   -7.4079997    734.30453  0.023436248  0.023299391            1 
 2612000   0.84594539   -7.4299013    731.47467  0.023336992    0.0232928            3 
 2613000   0.83284135    -7.439819    731.54816  0.023330404  0.023286172            2 
 2614000   0.79739918   -7.4261164    733.47364  0.023382863  0.023279562            3 
 2615000   0.82571924   -7.4302079     733.0258  0.023359649  0.023272991            4 
 2616000   0.83147454   -7.4152849     732.0722  0.023320343  0.023266413            4 
 2617000   0.84569468   -7.4465255    731.83435  0.023303858   0.02325983            5 
 2618000   0.83230622   -7.4009029    733.37455  0.023343982  0.023253223            3 
 2619000   0.84621994   -7.4043403    734.33685  0.023365688  0.023246616            2 
 2620000   0.83121226   -7.4370662     733.6973  0.023336428  0.023240004            1 
 2621000   0.81940979   -7.4260191    734.84751  0.023364095  0.023233384            3 
 2622000   0.83674087   -7.4394174    732.78465  0.023289621  0.023226759            6 
 2623000   0.82599713   -7.4409966    733.68269  0.023309273  0.023220132            4 
 2624000   0.83415696   -7.4131766    734.00253  0.023310548  0.023213518            3 
 2625000   0.82505121   -7.4329544    734.83315  0.023328036  0.023206881            3 
 2626000   0.83549468   -7.4406232    732.91441  0.023258264  0.023200251            8 
 2627000   0.82510338   -7.4379748    733.00033  0.023252136  0.023193638            6 
 2628000   0.84022749   -7.4334432    733.38729  0.023255558  0.023187023            1 
 2629000    0.8381104   -7.4199036    731.61795  0.023190629  0.023180342            4 
 2630000   0.82795167   -7.4532836    731.51143  0.023178436  0.023173637            3 
 2631000   0.82571575    -7.416106    733.35972  0.023228168  0.023166953            9 
 2632000   0.82494725   -7.4314083    732.71924  0.023199064  0.023160303            4 
 2633000   0.82670974   -7.4351149    732.65699  0.023188283  0.023153654            4 
 2634000   0.81844642    -7.435949    731.47217  0.023141995  0.023146953            6 
 2635000   0.83439823   -7.4337357    732.93168   0.02317937  0.023140242            2 
 2636000    0.8472369   -7.3932223    734.99965  0.023235952  0.023133557            3 
 2637000   0.83842636   -7.4150038    734.92694  0.023224843  0.023126944            4 
 2638000   0.82450354   -7.4292388    734.27312  0.023195385  0.023120341            4 
 2639000   0.82137017   -7.4515386     733.6306  0.023166307  0.023113667            3 
 2640000   0.82489685   -7.4365652    735.62927  0.023220621  0.023107055            4 
 2641000   0.81796539   -7.4374227    735.45525  0.023206338  0.023100424            2 
 2642000   0.82249628   -7.4384012    734.09438   0.02315463  0.023093786            6 
 2643000   0.83533614   -7.4594529    734.96333  0.023173267  0.023087149            5 
 2644000   0.84311947   -7.4392429    734.80579  0.023159537  0.023080455            3 
 2645000   0.83564061   -7.4376313    735.00081  0.023156925  0.023073777            3 
 2646000    0.8208525   -7.4588043    733.28211  0.023094045  0.023067069            3 
 2647000   0.82429057   -7.4384513     733.3187  0.023086472   0.02306036            7 
 2648000   0.81105616   -7.4586593    734.74788   0.02312273  0.023053698            5 
 2649000   0.83255126   -7.4326599    733.23061  0.023066271  0.023047068            3 
 2650000   0.83090728   -7.4459182    735.58286  0.023131537  0.023040426            5 
 2651000   0.81133932    -7.437077    734.75949  0.023096929  0.023033747            6 
 2652000   0.84185406   -7.4540571    735.07244  0.023098053  0.023027102            4 
 2653000   0.83293188   -7.4518916    734.75953  0.023079518  0.023020463            5 
 2654000    0.8289934   -7.4223605    736.00706  0.023109993  0.023013814            2 
 2655000   0.83670578    -7.430838    733.01673   0.02300743  0.023007173            3 
 2656000   0.82500405   -7.4522503    737.03413  0.023124816  0.023000568            1 
 2657000   0.84413817   -7.4390887    735.83814  0.023078602  0.022993938            4 
 2658000   0.82864455   -7.4217386    735.03105  0.023044615  0.022987358            5 
 2659000   0.81766966   -7.4368088     734.3186   0.02301362  0.022980743            3 
 2660000   0.83893207   -7.4159508    735.22919  0.023033496  0.022974097            5 
 2661000   0.83275482   -7.4830443    734.77155  0.023010508  0.022967444            8 
 2662000    0.8312408   -7.4522528    737.98584  0.023102487   0.02296078            4 
 2663000   0.81884257   -7.4345652    737.40034  0.023075489  0.022954153            2 
 2664000   0.82901056   -7.4209994    736.82669  0.023048883   0.02294754            2 
 2665000   0.81967947   -7.4249962    736.13276  0.023018535  0.022940933            3 
 2666000   0.83758976    -7.417121    736.23687  0.023013155  0.022934323            3 
 2667000   0.81520804   -7.4593073    734.61387  0.022953814  0.022927691            3 
 2668000   0.82455018   -7.4401792    736.00817  0.022988761  0.022921028            3 
 2669000   0.83337862   -7.4447741    737.62418  0.023030604  0.022914453            7 
 2670000   0.82938074   -7.4712776    737.03247   0.02300351  0.022907848            2 
 2671000   0.82340124   -7.4242103    736.76387  0.022986518  0.022901264            2 
 2672000   0.81677729   -7.4693127    735.72148  0.022945405  0.022894655            3 
 2673000   0.82792833   -7.4519933    736.44483  0.022959372  0.022888029            7 
 2674000   0.81971428   -7.4302472    736.57652   0.02295489  0.022881432            3 
 2675000   0.83075631     -7.43216    736.24028  0.022935834  0.022874802            4 
 2676000   0.82218591   -7.4419225    736.49374  0.022935156  0.022868207            5 
 2677000   0.82116395   -7.4450068    738.30817  0.022983071    0.0228616            5 
 2678000   0.82144274   -7.4400785    737.77824  0.022957999  0.022854975            4 
 2679000   0.82081447   -7.4654304    738.25432  0.022964238  0.022848332            6 
 2680000   0.81307195   -7.4820959    735.74295  0.022877579  0.022841661            3 
 2681000   0.83394079   -7.4469068    735.86316  0.022872783  0.022835059            2 
 2682000   0.80343951   -7.4572433    737.51078  0.022915448  0.022828444            3 
 2683000   0.82108268   -7.4345299     738.4717  0.022936753  0.022821846            4 
 2684000   0.84185825   -7.4117669     738.5582  0.022930893  0.022815244            4 
 2685000   0.82392788   -7.4692202    736.73894  0.022865889  0.022808614            9 
 2686000   0.80989153   -7.4350418    738.25193  0.022904317  0.022801964            3 
 2687000   0.81904531   -7.4536379    735.92503  0.022823627  0.022795338            5 
 2688000   0.79802156   -7.4581958     735.8271    0.0228121  0.022788653            3 
 2689000   0.81286423   -7.4517037    736.20176  0.022815227  0.022781988            5 
 2690000   0.84192819   -7.4555846    737.30976  0.022841071  0.022775348            4 
 2691000    0.8285925   -7.4389272    737.99655  0.022853851  0.022768698            6 
 2692000   0.81718563   -7.4549428    736.28353  0.022792333  0.022762066            4 
 2693000   0.82360567   -7.4658226    736.22775  0.022782144  0.022755435            4 
 2694000   0.82131476   -7.4186508     737.8893  0.022825084   0.02274883            6 
 2695000   0.83967077   -7.4565735    736.59354  0.022776547  0.022742204            3 
 2696000   0.83705443    -7.454894    738.46159  0.022825841  0.022735584            3 
 2697000   0.83480898   -7.4374214    737.08894  0.022774964   0.02272895            4 
 2698000   0.82078346   -7.4495332    737.46712  0.022778204  0.022722347            3 
 2699000   0.80710388   -7.4422511    738.27662  0.022794758  0.022715737            6 
 2700000   0.82189517   -7.4472612    739.34332  0.022819238  0.022709131            3 
 2701000   0.82764145   -7.4317803    739.37999  0.022811921  0.022702525            1 
 2702000   0.80490742   -7.4608551    737.65737  0.022750351  0.022695866            8 
 2703000   0.82252891   -7.4431867    737.96358  0.022751374  0.022689195            3 
 2704000   0.82968387   -7.4574209    738.82132  0.022769395  0.022682548            4 
 2705000   0.82170249   -7.4505589    738.05579  0.022737393   0.02267592            3 
 2706000   0.81836134   -7.4479858    738.66305  0.022747692  0.022669322            4 
 2707000   0.81472986   -7.4625811    741.30243   0.02282054  0.022662733            3 
 2708000   0.82751186   -7.4585499    739.79685  0.022765782  0.022656178            4 
 2709000    0.8243468   -7.4740585    738.68634  0.022723217  0.022649627            5 
 2710000    0.8331182   -7.4617895    738.99133  0.022724211  0.022643078            2 
 2711000   0.82077654   -7.4766925    738.65711  0.022705555    0.0226365           11 
 2712000   0.80795607   -7.4510548    740.74204  0.022761247  0.022629938            4 
 2713000   0.80091495   -7.4472873    741.42316  0.022773779  0.022623415            5 
 2714000   0.81780411   -7.4520133      740.968  0.022751412  0.022616904            2 
 2715000   0.83079759    -7.483174    738.81263  0.022676876  0.022610401            5 
 2716000   0.80421763   -7.4763167    739.90806  0.022702137  0.022603868            3 
 2717000   0.82143955   -7.4672563    740.71988  0.022718681  0.022597325            4 
 2718000   0.80874194   -7.4706072     740.4364  0.022701631  0.022590798            1 
 2719000   0.80941825   -7.4840478    741.03546  0.022711642  0.022584263            4 
 2720000   0.82359946   -7.4454513    740.07787  0.022673954  0.022577716            3 
 2721000   0.82682095   -7.4687831    741.51977  0.022709781  0.022571158            2 
 2722000   0.81371901    -7.447841    740.46768  0.022669229  0.022564583            5 
 2723000    0.8104744   -7.4709864    741.85499   0.02270336     0.022558            4 
 2724000   0.81744636   -7.4898365     741.5681  0.022686249  0.022551396            3 
 2725000   0.80181378   -7.4603194    740.30691  0.022639355  0.022544845            5 
 2726000   0.82013795   -7.4817574    739.34746   0.02260172  0.022538287            3 
 2727000   0.82935765   -7.4499403    739.09354  0.022585672  0.022531735            2 
 2728000   0.82036872   -7.4680238    739.57407  0.022592072  0.022525169            3 
 2729000   0.81980179   -7.4852348    740.78575  0.022620793  0.022518641            5 
 2730000   0.83504667   -7.4752322    741.36026  0.022630045  0.022512075            7 
 2731000   0.82054572   -7.4699352    742.56676  0.022658573  0.022505521            3 
 2732000   0.82188607   -7.4698708    741.03082  0.022603429  0.022498956            3 
 2733000    0.7993495   -7.4571524    742.88218  0.022651609  0.022492405            4 
 2734000   0.81238881   -7.4667511    739.84187  0.022550654  0.022485811            3 
 2735000   0.80880671   -7.4626842    741.37376  0.022589085  0.022479216            4 
 2736000    0.8131486   -7.4519173    742.52416  0.022615867  0.022472643            6 
 2737000   0.80421801   -7.4861717    740.87003  0.022557241  0.022466069            5 
 2738000   0.82392694   -7.4409788    739.65413  0.022511996  0.022459507            3 
 2739000   0.81083925   -7.4370955    741.78641  0.022568651  0.022453012            5 
 2740000   0.80205405   -7.4566825     741.3985  0.022548616  0.022446466            3 
 2741000   0.79856029   -7.4791364    741.47339  0.022542667  0.022439918            2 
 2742000   0.81358419   -7.4939476    740.24928  0.022497243  0.022433351            3 
 2743000   0.81091343   -7.4669915    740.74184  0.022504005  0.022426814            2 
 2744000   0.82337269   -7.4586979     742.4067  0.022546365   0.02242027            6 
 2745000   0.81356722   -7.4478477    739.74871  0.022457459  0.022413746            3 
 2746000    0.8127621   -7.4710712    741.31427  0.022496791  0.022407224            3 
 2747000   0.79946027   -7.4756035    740.99324  0.022478863  0.022400671            4 
 2748000   0.83715476   -7.4652998    743.58308   0.02254922   0.02239414            5 
 2749000   0.81762829    -7.443422    742.24605  0.022500487  0.022387604            2 
 2750000    0.8242713   -7.4417084    740.99738  0.022454466  0.022381103            2 
 2751000   0.79616246   -7.4718382    741.77614  0.022469894  0.022374576            5 
 2752000   0.81538692   -7.4645796    741.56144  0.022455228  0.022368032            5 
 2753000   0.79374696   -7.4651693    741.59118  0.022447971  0.022361479            2 
 2754000   0.79522909   -7.4697231    742.99999  0.022482449  0.022354951            1 
 2755000    0.8050978   -7.4910037    742.52081  0.022459795  0.022348391            7 
 2756000   0.81569544   -7.4750439    740.82064  0.022400237   0.02234183            4 
 2757000   0.80014085   -7.4693447      741.275  0.022405846  0.022335264            3 
 2758000   0.81671549   -7.4685778    742.44575  0.022433096  0.022328676            4 
 2759000   0.78652595   -7.4921993    741.46713  0.022395407  0.022322084            6 
 2760000   0.80986294   -7.5155691    741.95311  0.022401966  0.022315482            3 
 2761000   0.80736787   -7.4647101    743.31733  0.022435027  0.022308921            2 
 2762000   0.81031759   -7.4751511    742.91821  0.022414863  0.022302323            4 
 2763000   0.80298327   -7.5003551    740.22223  0.022325438  0.022295728            6 
 2764000    0.8120923   -7.4712945    740.55337  0.022327345  0.022289093            7 
 2765000   0.81314836    -7.478507    742.29346  0.022371714  0.022282488            4 
 2766000   0.80572456   -7.4946153    743.48446  0.022399508  0.022275908            2 
 2767000   0.81145366   -7.4799359    743.20833  0.022383096  0.022269358            4 
 2768000   0.82140918   -7.4619493    743.60941  0.022387085  0.022262833            2 
 2769000   0.82334309   -7.4923434    743.64983  0.022380216  0.022256306            7 
 2770000   0.80517131    -7.491699    743.69244  0.022373419  0.022249803            4 
 2771000   0.78030791   -7.4832618    742.18746  0.022320085  0.022243292            2 
 2772000   0.80122107   -7.4751567    742.67849  0.022326794  0.022236811            7 
 2773000   0.81548011   -7.5056986    743.21729  0.022334935  0.022230319            4 
 2774000   0.79891763   -7.4824606    745.89364  0.022407283  0.022223828            4 
 2775000   0.80229276   -7.4772494    745.16227  0.022377245  0.022217347            2 
 2776000   0.81169575   -7.4698529    744.30954  0.022343586  0.022210868            5 
 2777000   0.79906363   -7.4875207    745.15619  0.022360947  0.022204381            3 
 2778000   0.82045542   -7.5033686     743.2877  0.022296847  0.022197881            4 
 2779000   0.79569322   -7.4809661    744.68641  0.022330767   0.02219136            5 
 2780000   0.81592874   -7.4367824    743.80152  0.022296209  0.022184863            4 
 2781000   0.82574497   -7.4477737    745.16789  0.022329135  0.022178394            2 
 2782000   0.80903541    -7.475263    743.45144  0.022269693  0.022171908            3 
 2783000   0.81708304   -7.4625539    746.34968  0.022348475  0.022165435            4 
 2784000   0.80154514   -7.4660309     743.1328  0.022244157  0.022158951            7 
 2785000   0.80761261   -7.4533298    745.70801  0.022313226  0.022152473            5 
 2786000   0.81338047   -7.4885708    743.64985  0.022243654  0.022145983            3 
 2787000   0.79454973   -7.4835788    744.80013  0.022270067  0.022139478            3 
 2788000   0.80704529   -7.5009285    744.36858   0.02224918  0.022132951            3 
 2789000   0.81503765   -7.5161664    745.50481  0.022275153   0.02212641            3 
 2790000   0.80985239   -7.4885072    742.92303  0.022190055  0.022119892            3 
 2791000   0.79699472   -7.4898505    745.30853   0.02225333  0.022113327            3 
 2792000   0.80205394   -7.4986958    744.58104  0.022223646  0.022106762            3 
 2793000   0.80051315   -7.4962968    745.12116  0.022231805   0.02210024            3 
 2794000   0.81293098   -7.4742729    745.98653  0.022249658  0.022093761            3 
 2795000   0.82263498   -7.4897452    745.79261  0.022235916  0.022087294            2 
 2796000   0.81651201   -7.4942207    745.85667  0.022229872  0.022080786            4 
 2797000   0.81188329   -7.5034071    744.77129  0.022189587  0.022074285            2 
 2798000   0.80779968   -7.4852853    743.36129  0.022139662   0.02206779            2 
 2799000   0.79697271    -7.490808    745.69849  0.022201337  0.022061295            3 
 2800000   0.79503383   -7.4981556    744.77885  0.022166037  0.022054792            2 
 2801000    0.7819541   -7.4870178    745.35255  0.022175192  0.022048297            2 
 2802000   0.80071457   -7.4961937    745.12981  0.022160654   0.02204178           12 
 2803000   0.82248236    -7.493243    745.67406  0.022168928  0.022035262            6 
 2804000   0.79833227   -7.5158889    743.88218  0.022107768   0.02202874            4 
 2805000   0.77042125   -7.4902715    745.66412  0.022152826  0.022022222            7 
 2806000   0.81094884   -7.4857552    745.24092  0.022132363  0.022015701            4 
 2807000   0.79962366   -7.5033043    745.65076  0.022136645  0.022009198            4 
 2808000   0.78850071   -7.5023541    746.17663  0.022144368  0.022002724            5 
 2809000   0.78563266   -7.4486495    746.10564  0.022134379  0.021996268            3 
 2810000   0.80967826   -7.5095403    744.45123  0.022077439  0.021989808            5 
 2811000   0.79971143   -7.5035288    747.18839  0.022150729  0.021983385            2 
 2812000   0.81472083    -7.491589    747.01388   0.02213768  0.021976943            4 
 2813000   0.78412787   -7.4982119    746.02463  0.022100505  0.021970498            4 
 2814000   0.79902496    -7.509539    746.78223  0.022115086  0.021964062            3 
 2815000   0.81955423   -7.5138924    747.25717   0.02212129  0.021957637            4 
 2816000   0.81994898   -7.4755325    747.97123  0.022134565  0.021951197            4 
 2817000   0.81063529   -7.5034137    746.84992  0.022093537  0.021944805            2 
 2818000   0.78771285   -7.4898161     746.2159  0.022066948  0.021938376            6 
 2819000    0.8095387    -7.462559    748.44972  0.022125154  0.021931974            2 
 2820000   0.79448668   -7.4921777    748.27584   0.02211217  0.021925556            2 
 2821000   0.80582786   -7.5058543     747.8213  0.022090905  0.021919149            2 
 2822000   0.79056109   -7.4895355    747.70906  0.022079762  0.021912781            4 
 2823000   0.79637779   -7.4848242     747.6261  0.022069492  0.021906391            5 
 2824000   0.80817516   -7.4984956    747.60357  0.022061012  0.021899979            5 
 2825000   0.80186405    -7.511008    747.91778  0.022062471  0.021893591            5 
 2826000   0.79671024   -7.4948442    749.13657  0.022090604  0.021887183            5 
 2827000    0.7959533    -7.479742    749.80229  0.022102414  0.021880835            3 
 2828000   0.81361357   -7.4997056    748.62758  0.022059983  0.021874486            2 
 2829000   0.79144147   -7.5061256    747.54363  0.022020255  0.021868099            5 
 2830000   0.80703714   -7.5140255    748.10077   0.02202888  0.021861717            6 
 2831000   0.78063436    -7.508637    748.99647  0.022047465  0.021855328            6 
 2832000   0.79759256   -7.5190571    747.70134   0.02200157  0.021848937            4 
 2833000   0.80068957   -7.5294987    747.35617   0.02198365  0.021842511            8 
 2834000     0.797269   -7.5487381    747.69856  0.021985961  0.021836076           16 
 2835000   0.81101965   -7.5555436    747.50004   0.02197237  0.021829643            5 
 2836000   0.80895671   -7.5021093    748.85221  0.022004355  0.021823217            5 
 2837000   0.78761874   -7.4971108    748.92948  0.021998868  0.021816803            5 
 2838000   0.77986295   -7.5098747    747.99933  0.021963805  0.021810432            4 
 2839000   0.80371079   -7.5323273    746.87157  0.021922965  0.021804016            4 
 2840000   0.79862792   -7.5100067    748.38871  0.021959763  0.021797588            2 
 2841000    0.7913052   -7.5120646     750.3753  0.022010304  0.021791176            5 
 2842000   0.78202363   -7.4917227    749.98837  0.021991214  0.021784793            2 
 2843000   0.81799203   -7.5111778    748.44391  0.021938208  0.021778403            4 
 2844000   0.80857741   -7.5195421    748.28267   0.02192577  0.021771989            4 
 2845000   0.77432412   -7.5153081    747.45122  0.021893709  0.021765531            5 
 2846000   0.78528397   -7.5230645    748.98695  0.021930984  0.021759087            5 
 2847000   0.79260176   -7.5474155    746.96489  0.021864093   0.02175262            3 
 2848000   0.78488308   -7.5169209    747.58589  0.021874587  0.021746173            3 
 2849000   0.79794601   -7.5162776    747.81425  0.021873589   0.02173975            5 
 2850000   0.80444362     -7.54382    748.42894  0.021883887  0.021733328            4 
 2851000   0.78830432   -7.5336436     749.7112  0.021913691  0.021726902            4 
 2852000   0.76590142   -7.5165047    750.14153  0.021918581  0.021720493            3 
 2853000   0.79658161   -7.5222317    748.59036  0.021865591  0.021714075            7 
 2854000   0.77901702    -7.529855    748.46785  0.021854352  0.021707643            3 
 2855000   0.79419696   -7.5247871    749.16013  0.021866904  0.021701219            3 
 2856000   0.81404319   -7.5088304    750.80544  0.021907255  0.021694839            3 
 2857000   0.79156613   -7.5158228    749.32696  0.021856463  0.021688466            4 
 2858000   0.79738752   -7.5250552    750.60626  0.021886117  0.021682085            3 
 2859000   0.78409899   -7.5217267    751.33633  0.021899742  0.021675731            2 
 2860000   0.78206286   -7.5262576    749.39227  0.021835439  0.021669401            5 
 2861000   0.82081682   -7.5192814    749.31375   0.02182552  0.021663029            2 
 2862000   0.77614555    -7.520961    751.70222  0.021887439  0.021656672            2 
 2863000   0.77766807   -7.4942816    752.03709  0.021889541  0.021650313            5 
 2864000   0.77443299   -7.4837812    752.00333  0.021880916   0.02164399            4 
 2865000   0.80955523   -7.5147133    750.66505  0.021834353  0.021637708            4 
 2866000   0.79366619   -7.4998195    751.96222  0.021864452  0.021631378            3 
 2867000   0.80330609   -7.4926372    751.25564  0.021836288   0.02162506            3 
 2868000   0.78091541   -7.5293156    751.72736   0.02184238  0.021618747            5 
 2869000   0.80437701   -7.5108618    749.61735  0.021773479  0.021612435            8 
 2870000   0.77717437    -7.496179    749.77143  0.021770367   0.02160613            6 
 2871000   0.80082165   -7.5040509    750.35455  0.021779709  0.021599779            3 
 2872000   0.80085587   -7.4971823     751.4002  0.021802466  0.021593482            5 
 2873000    0.7944959   -7.5125877    751.65857  0.021802372  0.021587214            4 
 2874000   0.79456246   -7.5253891    750.32419  0.021756095  0.021580922            5 
 2875000   0.79220892   -7.4829038    752.90294  0.021823274  0.021574635            3 
 2876000   0.77705523   -7.5246396    752.27377  0.021797455  0.021568345            5 
 2877000   0.79800929   -7.5145031    751.81117  0.021776479  0.021562061            9 
 2878000   0.77934433   -7.5094609    754.37131  0.021843042  0.021555771            5 
 2879000   0.78906372   -7.5113255    751.90073  0.021763944  0.021549468            3 
 2880000   0.78623788    -7.496822    752.48259  0.021773223  0.021543165            4 
 2881000   0.78346348     -7.52992    752.36335  0.021762217  0.021536889            7 
 2882000   0.79852358   -7.5012375    752.70876  0.021764653   0.02153056            9 
 2883000   0.78588566   -7.5450104    752.40614  0.021748356  0.021524251           11 
 2884000   0.76556057   -7.5232904     752.7375   0.02175039  0.021517918           10 
 2885000   0.78828093   -7.5172468    751.44387  0.021705484  0.021511567           16 
 2886000   0.79516343   -7.5564572    751.56761  0.021701536  0.021505257            8 
 2887000   0.79929254   -7.5131117    751.79656  0.021700628  0.021498896            3 
 2888000   0.79224155   -7.4954968    753.05373   0.02172939  0.021492588            2 
 2889000   0.79092298    -7.523792    751.75931  0.021684531  0.021486292            3 
 2890000   0.81122012    -7.508437    751.02346  0.021655809  0.021479992            2 
 2891000   0.77894656    -7.509361    751.56438   0.02166391  0.021473691            5 
 2892000   0.79491981   -7.5198184    753.54424  0.021713469   0.02146743            1 
 2893000   0.78164997   -7.5209391     753.7331  0.021711404  0.021461158            3 
 2894000   0.76959539   -7.5034086    752.47571  0.021667695  0.021454865            4 
 2895000   0.79480807   -7.5293429    753.04616  0.021676631  0.021448564            4 
 2896000   0.78513306   -7.5295804    750.58772  0.021598403  0.021442266            7 
 2897000   0.76993083   -7.5102373    754.55707  0.021705128  0.021435992            3 
 2898000     0.781218   -7.5091487    754.39783  0.021693059  0.021429748            5 
 2899000   0.77900478    -7.554404     754.0273  0.021674925  0.021423485            4 
 2900000    0.7915693   -7.5270097    752.85516  0.021633769  0.021417188            4 
 2901000    0.7918723   -7.5502531     753.0882  0.021633006  0.021410872            3 
 2902000   0.78128587   -7.5385919    752.61621  0.021611998    0.0214046            3 
 2903000   0.77288943   -7.5291451    753.02876  0.021616396  0.021398302            6 
 2904000    0.7940394   -7.5172904    752.86469  0.021604244  0.021392008            3 
 2905000   0.78303465   -7.5515638    753.74133  0.021621954  0.021385704            3 
 2906000    0.7703813   -7.5288073    752.57503  0.021581069  0.021379374            3 
 2907000   0.77054505   -7.5423196    753.30512  0.021594574  0.021373065            7 
 2908000    0.7575831    -7.536491    753.07915  0.021580673  0.021366752            2 
 2909000   0.78880173   -7.5545751    753.62706   0.02158895   0.02136046            3 
 2910000    0.7919788   -7.5352999    754.86946  0.021617109  0.021354199           10 
 2911000   0.77957023   -7.5044306    753.96148  0.021583691  0.021347928            3 
 2912000   0.80119905   -7.5132871    754.27479  0.021585245  0.021341637            5 
 2913000   0.79472968    -7.548899    753.57201   0.02155773  0.021335365            7 
 2914000   0.77018687   -7.5491463    754.37333  0.021573248  0.021329096            5 
 2915000   0.78453288   -7.5465411    755.31704  0.021592826  0.021322852            5 
 2916000   0.77381061   -7.5398835     753.1981  0.021524866  0.021316591            2 
 2917000    0.7921735   -7.5450646    753.65187   0.02153045  0.021310352            2 
 2918000   0.76926428   -7.5641109     753.2905  0.021512751    0.0213041            4 
 2919000   0.76798983   -7.5627524    755.41073  0.021565911   0.02129782            3 
 2920000   0.78850498   -7.5488936    753.41666  0.021501617  0.021291533            3 
 2921000   0.79610977   -7.5543493    754.59424  0.021527851   0.02128527            3 
 2922000   0.76597317    -7.543265    754.36081  0.021513826  0.021278997            3 
 2923000   0.78186329   -7.5523188    755.35744   0.02153488  0.021272695            4 
 2924000   0.77547475    -7.541493    752.85021  0.021456059   0.02126638            4 
 2925000   0.77753771   -7.5612572    755.03801  0.021511055  0.021260106            5 
 2926000   0.79143515   -7.5431422    754.32866    0.0214835  0.021253838            4 
 2927000   0.78682405    -7.531362    754.66651  0.021485779  0.021247599            7 
 2928000   0.78298718   -7.5265797     757.5888  0.021561612  0.021241359            4 
 2929000   0.78349965   -7.5514189    755.34681  0.021490463  0.021235114            4 
 2930000   0.77039675   -7.5335868    754.48392  0.021458587  0.021228862            3 
 2931000   0.78329264   -7.5364581    755.87534  0.021490826  0.021222655            4 
 2932000   0.79013365   -7.5326685    755.93896  0.021485305  0.021216434            5 
 2933000   0.77654875   -7.5455176    756.55468  0.021495473  0.021210194            3 
 2934000   0.78872545   -7.5430002    754.76016  0.021437178  0.021203958            3 
 2935000   0.77333915    -7.528738    756.55739  0.021480903  0.021197724            4 
 2936000   0.78084037   -7.5658765    753.76632  0.021394366  0.021191497            4 
 2937000    0.7795058   -7.5398629    754.08202   0.02139604  0.021185241            4 
 2938000   0.77533197   -7.5773484    756.42547  0.021455227  0.021178975            2 
 2939000   0.78971423   -7.5304728    756.23583  0.021442549    0.0211727            3 
 2940000    0.7727115   -7.5550946    754.95979  0.021399087  0.021166465            5 
 2941000   0.79784316   -7.5323645    756.19469  0.021426802  0.021160256            4 
 2942000   0.77442138   -7.5833752    755.01398  0.021386075  0.021154033            5 
 2943000   0.77412735   -7.5596967    754.93344  0.021376527  0.021147811            6 
 2944000   0.77842276   -7.5602796    754.46214  0.021355926  0.021141575            5 
 2945000   0.77893066   -7.5674837    754.26776  0.021343174  0.021135347            4 
 2946000   0.76837787   -7.5891578    755.12655  0.021360222  0.021129093            2 
 2947000   0.76956862   -7.5527675    756.38197  0.021388473  0.021122836            2 
 2948000   0.78809731   -7.5542295    754.38332  0.021324721  0.021116576            3 
 2949000   0.79477279   -7.5517456     757.4788  0.021404962  0.021110322            6 
 2950000   0.77682637   -7.5641501    756.41469  0.021367646   0.02110412            4 
 2951000    0.7827782    -7.544599    757.04699  0.021378261  0.021097893            2 
 2952000   0.76967823   -7.5517717     756.2736  0.021349187  0.021091691            3 
 2953000   0.78591148   -7.5704019    755.46058  0.021319014  0.021085467            4 
 2954000   0.77620549   -7.5401009    754.81273  0.021293521  0.021079263            3 
 2955000   0.76598578   -7.5500423    756.27332  0.021327505  0.021073071            2 
 2956000    0.7727912   -7.5651049    757.01868  0.021341302  0.021066899            4 
 2957000   0.79701765    -7.583973    755.62876  0.021294915  0.021060711            3 
 2958000   0.76507634   -7.5523206    756.12987  0.021301833  0.021054491            2 
 2959000    0.7844707   -7.5644289    757.53326  0.021334157  0.021048302            6 
 2960000   0.77584231   -7.5223663    756.80651   0.02130649  0.021042112            3 
 2961000   0.77383384   -7.5591222    756.26976  0.021284188  0.021035919            3 
 2962000   0.78600285   -7.5517415    756.82008  0.021292485  0.021029695            4 
 2963000   0.76662626   -7.5737477    756.68235  0.021281425  0.021023495            3 
 2964000    0.7947206   -7.5552784    757.19064  0.021288536  0.021017282            3 
 2965000   0.77216615   -7.5567604    756.09772  0.021250639  0.021011072            6 
 2966000    0.7766411    -7.540364     756.8281  0.021263995  0.021004886            4 
 2967000   0.77471215   -7.5635465    756.68867  0.021252912  0.020998685            3 
 2968000   0.77408704   -7.5557575    755.20954  0.021204221  0.020992462            4 
 2969000   0.78656883    -7.565992    755.71507  0.021211268  0.020986256            3 
 2970000   0.77931125   -7.5603027    757.12461  0.021243676  0.020980059            7 
 2971000   0.78120166   -7.5587967    757.05829  0.021234665  0.020973876            5 
 2972000   0.77758655   -7.5367869    758.30664  0.021262524  0.020967722            3 
 2973000   0.78577815   -7.5437353    757.44604  0.021231249  0.020961576            3 
 2974000   0.77234289   -7.5295303    756.61977  0.021200957  0.020955451            3 
 2975000   0.77739697   -7.5235125    757.56797  0.021220391  0.020949321            4 
 2976000    0.7803743   -7.5626783    757.86654  0.021221621  0.020943196            2 
 2977000   0.77132478    -7.547521    758.71472  0.021238235   0.02093706           10 
 2978000   0.78831763    -7.557078     759.2396  0.021245791   0.02093091            3 
 2979000   0.77890834    -7.559057    757.41129  0.021187515  0.020924756            5 
 2980000   0.78448889   -7.5716072    759.11071  0.021227928  0.020918631            3 
 2981000   0.77238615   -7.5340351    758.77505  0.021211424  0.020912501            7 
 2982000   0.77895141   -7.5286895    759.97412  0.021237819  0.020906415            7 
 2983000   0.76660664   -7.5116022    759.12349  0.021206936  0.020900312            6 
 2984000   0.77771237   -7.5746089    758.60819  0.021185439  0.020894215            7 
 2985000   0.78821938   -7.5508192    757.60101  0.021150224  0.020888087            3 
 2986000   0.78443745   -7.5329931    759.23061  0.021188619  0.020881952            6 
 2987000   0.77824691   -7.5474653    759.01564  0.021175528  0.020875834            5 
 2988000   0.78061027   -7.5712557    757.40869  0.021123625  0.020869715            6 
 2989000   0.76808348   -7.5700069    758.87148   0.02115734  0.020863578           10 
 2990000   0.77383541    -7.566127    758.66345  0.021144466  0.020857412            5 
 2991000   0.76726176   -7.5432922    758.69476  0.021138269  0.020851279            8 
 2992000   0.75583212   -7.5420591    757.61564  0.021101149  0.020845143            5 
 2993000   0.77381876   -7.5564976     760.1769  0.021165411  0.020839009            5 
 2994000   0.78481191   -7.5724181     758.4906  0.021111406  0.020832869            6 
 2995000   0.77781883   -7.5580661    759.97648    0.0211457  0.020826724            3 
 2996000   0.78424338   -7.5908316    757.06451  0.021057647  0.020820589            2 
 2997000   0.75811443   -7.5704632    758.52331  0.021091183  0.020814451            6 
 2998000   0.77264198   -7.5675126    757.72775  0.021062035  0.020808331            3 
 2999000   0.75739406   -7.5397612    761.39487   0.02115691  0.020802224            4 
 3000000   0.76347977    -7.575069    758.57633  0.021071565  0.020796106            3 
 3001000   0.78156372   -7.5777485    757.36937  0.021031028  0.020789945            3 
 3002000    0.7754052   -7.5759277    758.87775  0.021065894  0.020783784            9 
 3003000   0.75886062   -7.5845947     758.2101  0.021040351  0.020777617            8 
 3004000   0.76067862   -7.5520623    758.36381  0.021037611  0.020771458            3 
 3005000   0.78715018   -7.5545037    759.21483   0.02105421  0.020765316           10 
 3006000   0.76843896   -7.5526099    759.97944  0.021068403  0.020759174            4 
 3007000   0.76239486   -7.5755144    757.97181  0.021005759  0.020753016            3 
 3008000    0.7547042   -7.5548158    758.95524  0.021026021  0.020746852            6 
 3009000   0.78273991   -7.6089257    758.03569  0.020993566  0.020740689            6 
 3010000   0.78722234   -7.6035232    756.16743  0.020934868   0.02073454            3 
 3011000   0.76726351   -7.5876688    759.70772  0.021025897    0.0207284            2 
 3012000   0.78374927   -7.5627098    759.58947  0.021015645  0.020722269           10 
 3013000   0.78414116   -7.5773662    761.06567  0.021049499  0.020716152            3 
 3014000   0.76240987   -7.5797024    759.27381  0.020992972  0.020710051            4 
 3015000   0.79365145   -7.5698803    758.62213  0.020967997  0.020703931            4 
 3016000   0.75605231   -7.5628862    759.72122  0.020991413  0.020697815            7 
 3017000   0.75321343   -7.5770096    758.62058  0.020954054  0.020691684            2 
 3018000   0.76939106   -7.5622103    761.78624  0.021034522  0.020685603            2 
 3019000   0.76963402   -7.5572858    759.23894  0.020957241  0.020679505            2 
 3020000   0.78588951   -7.5821526    759.38724  0.020954394  0.020673404            6 
 3021000   0.77585248   -7.5710679    759.02691  0.020937518  0.020667329            3 
 3022000     0.773092   -7.5625692    760.09737  0.020960108  0.020661237            6 
 3023000   0.77575286   -7.5582233    759.99387  0.020950322  0.020655131            3 
 3024000   0.78233613   -7.5776711    760.51458  0.020957743  0.020649036            6 
 3025000   0.75803736   -7.5773842    759.63217  0.020926506  0.020642912            4 
 3026000   0.77131749   -7.5759861    760.71821  0.020949499  0.020636819            3 
 3027000   0.75971541   -7.5876291    759.82321  0.020917939  0.020630694            6 
 3028000   0.76832261   -7.5938519    759.19761  0.020893813  0.020624574            2 
 3029000   0.77246661   -7.6145514    758.29538  0.020862094  0.020618436            6 
 3030000   0.77902673   -7.6156604    759.69538  0.020893712  0.020612327            3 
 3031000   0.76313503     -7.57393    760.72619   0.02091516  0.020606246            3 
 3032000   0.75325071   -7.5695688    760.39905   0.02089927  0.020600148            2 
 3033000   0.77030557   -7.5995575    760.32588  0.020890369   0.02059405            7 
 3034000   0.77929119   -7.5649328    760.03188  0.020875409  0.020587948            4 
 3035000   0.76625272    -7.607993    761.32828  0.020904126  0.020581853            5 
 3036000   0.76614707   -7.6219891     759.3798  0.020843758  0.020575719            5 
 3037000   0.76915568   -7.5653927    761.05175  0.020882772  0.020569622            6 
 3038000   0.77882424   -7.6180368    760.00922  0.020847301  0.020563561           10 
 3039000   0.74858092   -7.5691567    761.49389  0.020881153  0.020557494            4 
 3040000   0.78319514   -7.5681914    760.46721  0.020846141  0.020551415            6 
 3041000   0.75441814   -7.5775204    760.84268  0.020849575  0.020545366            4 
 3042000   0.75163011   -7.5786939    761.50739   0.02086093  0.020539311            7 
 3043000   0.78343829   -7.5940867    763.13584   0.02089867  0.020533254            5 
 3044000   0.77523698   -7.5818251    760.55725  0.020821213   0.02052718            5 
 3045000   0.76817766   -7.5770793    762.34184  0.020863214    0.0205211            5 
 3046000   0.78095513   -7.5946092    761.45042  0.020831977  0.020515028            8 
 3047000    0.7603823   -7.5497237    761.64447  0.020830447  0.020508964            6 
 3048000   0.76296428   -7.5649956    760.75419  0.020799272  0.020502925            3 
 3049000   0.78007321   -7.6013281    760.21918  0.020777828  0.020496887            4 
 3050000   0.75481262   -7.5877642     760.3084  0.020773453  0.020490812            6 
 3051000   0.75801372   -7.5744845      760.318  0.020766907  0.020484723            2 
 3052000   0.76007134    -7.589271    761.21522  0.020784601   0.02047865            4 
 3053000   0.74034581   -7.5810477    762.41247  0.020810473  0.020472571            1 
 3054000   0.75442929   -7.5818733     762.2627  0.020799572  0.020466516            7 
 3055000   0.77029888   -7.6094032    762.01089  0.020785894  0.020460468           10 
 3056000   0.75335397    -7.606107    761.63917  0.020768956  0.020454403            5 
 3057000   0.75497906   -7.6007254    761.13975  0.020748549  0.020448334            4 
 3058000   0.76680875   -7.5986253    761.81791  0.020760244   0.02044224            4 
 3059000   0.76061232   -7.6091189    761.65275  0.020748958  0.020436177            5 
 3060000   0.77485027   -7.6261842    762.90879  0.020776383  0.020430102            5 
 3061000    0.7451015   -7.6178625    761.19245   0.02072287  0.020424017            6 
 3062000   0.76932825   -7.5717429      762.175  0.020742842  0.020417969            5 
 3063000   0.75252584   -7.5775387    762.66424  0.020749381   0.02041196            6 
 3064000   0.76261167   -7.6173045    760.87549  0.020693959  0.020405951            3 
 3065000   0.75546639   -7.5855283    761.04752  0.020691885  0.020399921            3 
 3066000   0.75994655   -7.5787858      762.546  0.020725864  0.020393895            3 
 3067000   0.74844923   -7.5963408    761.19821  0.020682486  0.020387841            4 
 3068000   0.75773842   -7.6051682    762.38375  0.020707946  0.020381785            3 
 3069000   0.76999444   -7.5873902    763.79847  0.020739613  0.020375767            7 
 3070000   0.75259971   -7.6080031    762.97862  0.020710603   0.02036975            2 
 3071000   0.75176522   -7.5837037     764.8686  0.020755145  0.020363744            4 
 3072000   0.75107018   -7.5845088    764.20284  0.020730329  0.020357756            5 
 3073000   0.73650833    -7.572196    765.40915  0.020756295  0.020351821            3 
 3074000   0.76144548   -7.5900643    763.29755    0.0206923  0.020345874            5 
 3075000   0.77778573   -7.6035172    765.47513  0.020744584  0.020339961            8 
 3076000   0.75436387   -7.5828038    766.04473  0.020753271  0.020334035            3 
 3077000   0.75109615   -7.5988067     762.7755  0.020657987  0.020328076            3 
 3078000    0.7656106   -7.5985174      763.708  0.020676522   0.02032209           10 
 3079000   0.75516326   -7.5960922    763.47285  0.020663442  0.020316116            4 
 3080000   0.75751376     -7.58416    763.39076  0.020654512  0.020310135            4 
 3081000   0.76992961   -7.5806032    764.72918  0.020684009  0.020304181            8 
 3082000   0.75584436   -7.5968193    766.56077  0.020726822  0.020298217            3 
 3083000   0.75519919   -7.6088653    764.53347  0.020665301  0.020292248            7 
 3084000   0.76260337   -7.6014343    765.00482  0.020671337  0.020286293            5 
 3085000   0.75577986   -7.6036302    765.04806  0.020665804  0.020280346            2 
 3086000   0.75518202   -7.5955211    765.60741  0.020674212   0.02027439            8 
 3087000   0.75211851   -7.6103528    764.52764  0.020638366  0.020268422            3 
 3088000   0.76275568   -7.5821771    762.56613  0.020578749  0.020262457            4 
 3089000   0.74698403   -7.6020932    763.69383   0.02060251  0.020256469            6 
 3090000   0.75012647   -7.5981156    764.29093  0.020611945  0.020250497            2 
 3091000   0.74073289   -7.6009459    764.16614  0.020601912  0.020244514            3 
 3092000   0.75094938   -7.5958999    764.26907  0.020598024  0.020238538            4 
 3093000   0.77102213    -7.595897    766.07535   0.02064003  0.020232575            4 
 3094000   0.74390298   -7.6193843    764.90686  0.020601887  0.020226618            5 
 3095000   0.74238097   -7.6236627    763.74479  0.020563942   0.02022064            3 
 3096000   0.76485545   -7.6081312    762.91739  0.020535029  0.020214651            4 
 3097000   0.75953221   -7.6247913    765.01849  0.020584934  0.020208673            2 
 3098000   0.75916457   -7.6301167    763.96134  0.020549853  0.020202681            4 
 3099000   0.74901515   -7.5984053    764.87756  0.020567859  0.020196684           10 
 3100000   0.74497291   -7.6355499    765.97408  0.020590701  0.020190689            2 
 3101000   0.75557585   -7.6256777    762.82613  0.020499466   0.02018472            2 
 3102000   0.76723266   -7.5810818    764.86093  0.020547521  0.020178754           10 
 3103000   0.76249292   -7.6120853    765.24315  0.020551164  0.020172798            5 
 3104000   0.75533036   -7.6141999    765.32993  0.020546873  0.020166852            5 
 3105000   0.72718895   -7.6146769    766.29507  0.020566159  0.020160906            5 
 3106000    0.7446655   -7.6071372     765.1547  0.020528941   0.02015494            4 
 3107000   0.75650814    -7.612369    763.36115  0.020474229  0.020148985            5 
 3108000   0.77071915   -7.5866016    766.91783  0.020563005  0.020143069            3 
 3109000   0.77181446   -7.6034101    765.33244  0.020513896  0.020137151            4 
 3110000   0.75499874   -7.5982967    764.42327  0.020482939  0.020131241            3 
 3111000   0.73829246   -7.6098611    765.26787  0.020498979  0.020125323            2 
 3112000    0.7532265    -7.629235    764.79807  0.020479811  0.020119385            2 
 3113000   0.77509394   -7.6367432    764.52334  0.020465878  0.020113454            5 
 3114000   0.74249191   -7.6211369    766.19679  0.020504089  0.020107516            2 
 3115000   0.75435457   -7.6063936    766.19752  0.020497526  0.020101598            3 
 3116000   0.77073588   -7.6055928    764.97202  0.020458173  0.020095686            5 
 3117000   0.74476214   -7.5847113    765.65559  0.020469885  0.020089778            4 
 3118000   0.74375438   -7.6226146    764.49711  0.020432358   0.02008384            3 
 3119000   0.75517998   -7.6050137    765.26673   0.02044637  0.020077886            6 
 3120000   0.74682096   -7.6217276    765.60354  0.020448813  0.020071928            4 
 3121000   0.75928946   -7.6238171    766.73618  0.020472503  0.020065977            3 
 3122000   0.74570753   -7.6296283    764.96458  0.020418657  0.020060032            3 
 3123000   0.76591991   -7.6188691    765.80841  0.020434636  0.020054119            2 
 3124000   0.76733521    -7.623423    765.85838  0.020429427  0.020048215            2 
 3125000   0.75218271   -7.6132138    765.92291  0.020424611  0.020042294            5 
 3126000    0.7504299   -7.5775256    767.56285  0.020461795  0.020036396            3 
 3127000   0.76070634   -7.6259163    765.83962  0.020409328  0.020030511            3 
 3128000   0.73576228   -7.6143553    765.61053    0.0203967  0.020024581            4 
 3129000   0.73574638   -7.6176514    765.89213  0.020397681  0.020018657            3 
 3130000    0.7468361   -7.6398541    765.78392  0.020388283  0.020012745            5 
 3131000   0.75379038   -7.5970238    765.23638  0.020367198  0.020006833            2 
 3132000   0.75727357   -7.6199484    765.76206  0.020374682  0.020000902            6 
 3133000    0.7453526   -7.6294132    766.00827  0.020374728  0.019994997            6 
 3134000   0.74589772   -7.5999587    766.29939  0.020375968  0.019989085            3 
 3135000   0.71967086   -7.6190329    766.25348  0.020368248  0.019983158            4 
 3136000   0.76071454   -7.6342113    764.06077  0.020303486  0.019977219            2 
 3137000   0.74970461   -7.6129086    765.60924  0.020338148  0.019971308            3 
 3138000   0.74138022   -7.6216987    765.80203  0.020336787  0.019965408            2 
 3139000   0.74000089   -7.6054151    767.28448  0.020369663  0.019959497            4 
 3140000   0.74813751   -7.5924112     768.9908  0.020408461  0.019953636            6 
 3141000   0.74486114   -7.5991146    770.49609    0.0204419  0.019947786            3 
 3142000   0.73378635   -7.5941096    766.02821  0.020316895  0.019941919            4 
 3143000   0.75776442   -7.5792204    768.11284  0.020365703  0.019936049            6 
 3144000   0.74507879   -7.6116756    765.85276   0.02029932   0.01993017            4 
 3145000   0.75146817   -7.6045103    766.41606  0.020307792  0.019924284            4 
 3146000   0.76502317   -7.6204968    766.34583  0.020299476  0.019918416            1 
 3147000   0.76327696   -7.6013991    769.40501  0.020374034  0.019912544            2 
 3148000   0.71879626   -7.6088045    767.89338  0.020327546  0.019906666            9 
 3149000   0.74157552   -7.6435759    766.99904  0.020297424  0.019900777            4 
 3150000   0.75908694   -7.6238933    765.87928  0.020261357  0.019894859            4 
 3151000   0.75734304   -7.6292996    766.37391  0.020268008  0.019888926            6 
 3152000   0.75630435   -7.6267348    768.21159  0.020310163  0.019883028            6 
 3153000   0.75324643   -7.6206907    768.61278  0.020314325  0.019877145            3 
 3154000   0.73905107   -7.6202687    767.09306   0.02026773  0.019871264            3 
 3155000   0.75155497   -7.6120333    767.53111  0.020272877   0.01986538            4 
 3156000   0.74601171   -7.5976562     765.7083  0.020218322  0.019859483            5 
 3157000   0.73387728   -7.6432134    766.45174  0.020231542  0.019853575            4 
 3158000   0.75109429   -7.6257115    769.19704  0.020297579  0.019847676            2 
 3159000   0.73910134   -7.6277996    768.30544  0.020267633  0.019841794            3 
 3160000   0.72821524   -7.6306387    768.22869  0.020259196  0.019835925            2 
 3161000   0.74254787   -7.6474165    767.75334  0.020240255  0.019830044            4 
 3162000   0.75281827   -7.6357359    765.54912  0.020175762  0.019824136            5 
 3163000    0.7374608   -7.6386221     769.5025   0.02027354  0.019818224            5 
 3164000   0.74993178   -7.6361449    765.26815  0.020155609  0.019812324            3 
 3165000   0.75133465   -7.6336227    767.32815  0.020203479   0.01980642            7 
 3166000   0.74970476   -7.6677718    767.73412  0.020207784  0.019800532            5 
 3167000   0.72786854    -7.658608    765.98404  0.020155353   0.01979464            3 
 3168000   0.75258897   -7.6230365     765.5305  0.020137061  0.019788724            6 
 3169000   0.73714963   -7.6183512    768.03467  0.020196557  0.019782847            2 
 3170000   0.74175588   -7.6786134    767.02078  0.020163533  0.019776969            5 
 3171000   0.75800588   -7.6245698    767.19499  0.020161752  0.019771099           10 
 3172000   0.72495091   -7.6052393    767.61378  0.020166398   0.01976526            3 
 3173000   0.75904477     -7.60712    769.53399  0.020210474  0.019759434            4 
 3174000   0.75120436   -7.6007605    768.92391  0.020188088   0.01975362            3 
 3175000   0.74071183   -7.6007721    768.75784  0.020177371    0.0197478            4 
 3176000   0.73098837   -7.5970058    768.16985   0.02015559  0.019741971            3 
 3177000   0.73990026   -7.6328028    769.37902  0.020180963  0.019736132           10 
 3178000   0.73274826   -7.6020753    770.15753  0.020195026  0.019730285            2 
 3179000   0.74122254   -7.6290252    769.76393  0.020178356  0.019724475            8 
 3180000   0.73973202   -7.6262228    768.70827  0.020144347  0.019718653            6 
 3181000    0.7482365   -7.6342939    768.27808  0.020126744   0.01971284            3 
 3182000   0.73246754   -7.6241062    769.55266  0.020153799  0.019707004           10 
 3183000   0.74811804   -7.6494297    768.42685  0.020117993  0.019701204           13 
 3184000   0.74043213     -7.62632     768.1492  0.020104407   0.01969541            4 
 3185000   0.73872609   -7.6326849    767.65557   0.02008518  0.019689583            2 
 3186000    0.7389644   -7.6419719     768.6708   0.02010543  0.019683786            4 
 3187000   0.74601239   -7.6400693     768.5813  0.020096781  0.019677971            7 
 3188000   0.74440986   -7.6216598    769.09834  0.020103993  0.019672166            5 
 3189000   0.74544152   -7.6105498    770.15183  0.020125218  0.019666369            4 
 3190000   0.75398489   -7.6273443    769.14267  0.020092546  0.019660549            5 
 3191000   0.74497327   -7.6497216    769.76439  0.020102486  0.019654716            4 
 3192000   0.75921817   -7.6726113    769.34725  0.020085298  0.019648868            4 
 3193000   0.74793877   -7.6493594    769.00586  0.020070098  0.019643048            4 
 3194000   0.74459954   -7.6385008    769.56786  0.020078477  0.019637232            3 
 3195000     0.736192   -7.6250298    769.65337  0.020074423  0.019631418            9 
 3196000   0.74405165   -7.6348007    770.04459  0.020078342   0.01962564            3 
 3197000   0.75167611   -7.6214591    771.23412  0.020103069   0.01961988            5 
 3198000   0.73249331     -7.64406    768.54105  0.020026606  0.019614116            6 
 3199000   0.74787953   -7.6179526    768.52739   0.02001999  0.019608341            5 
 3200000   0.72749037   -7.6183051    770.03673   0.02005304  0.019602546            5 
 3201000   0.74531784    -7.628103    771.45649  0.020083737  0.019596763            5 
 3202000   0.73559717   -7.6240619     769.4043  0.020024055  0.019590993            4 
 3203000   0.75215581    -7.644199    768.75019  0.020000785  0.019585214           10 
 3204000   0.74948758   -7.6321453    770.71821   0.02004573  0.019579449            4 
 3205000   0.75434635   -7.6222177    771.47238  0.020059084  0.019573704            4 
 3206000   0.74397358   -7.6069314     769.8316  0.020010179  0.019567955            4 
 3207000   0.74063277   -7.6528782    768.99471  0.019982193  0.019562182            7 
 3208000   0.73020743   -7.6326832    770.69348  0.020020093  0.019556408            5 
 3209000   0.73970822   -7.6494827    770.81973  0.020017132  0.019550624            2 
 3210000   0.73537944   -7.6269179    770.36103  0.019998988  0.019544843            8 
 3211000   0.72713809   -7.6535059    769.05792  0.019958941  0.019539048            6 
 3212000   0.72516978   -7.6454339     769.3784  0.019961042  0.019533271            4 
 3213000    0.7281255   -7.6257511    771.37179   0.02000653   0.01952748            7 
 3214000   0.72603888   -7.6413188    769.67362  0.019956275  0.019521688            3 
 3215000    0.7431823   -7.6104643    770.69506  0.019976544  0.019515883           18 
 3216000   0.74335291    -7.651416    769.15818  0.019930508  0.019510095            6 
 3217000    0.7313886   -7.6404091    769.72896  0.019939098   0.01950431            4 
 3218000   0.72418112    -7.641352     770.0968  0.019942428  0.019498519            7 
 3219000   0.74297233   -7.6626343    768.77146  0.019901922  0.019492715            9 
 3220000   0.74674269   -7.6610652    768.49662  0.019888629  0.019486889            8 
 3221000   0.75349562   -7.6250385    769.61596  0.019911414  0.019481073            4 
 3222000   0.74287147   -7.6505615    768.99776  0.019889245  0.019475262            7 
 3223000   0.73710453   -7.6587503    769.37405  0.019892803  0.019469435            8 
 3224000   0.73584206   -7.6574605    770.64355  0.019919447   0.01946361            4 
 3225000    0.7353443   -7.6692136    768.79822  0.019865587  0.019457791            5 
 3226000   0.74624093   -7.6371262     768.4242  0.019849767   0.01945198            4 
 3227000   0.73319101    -7.621148    769.79907  0.019879121  0.019446205            3 
 3228000   0.72489611   -7.6300923    771.55246  0.019918228  0.019440452            5 
 3229000   0.71882606    -7.662689    771.52267   0.01991129  0.019434694            4 
 3230000   0.74292286   -7.6659204    769.78436  0.019860278  0.019428947            3 
 3231000   0.72949668   -7.6480442    770.01207  0.019860004  0.019423164            7 
 3232000   0.72757891   -7.6319602    771.31569  0.019887472  0.019417392            8 
 3233000   0.71911618   -7.6575329    770.64519  0.019864037  0.019411618            4 
 3234000   0.72591271   -7.6419526    771.45023  0.019878639  0.019405834            3 
 3235000   0.74217551   -7.6546629    769.98301  0.019834699  0.019400057           13 
 3236000   0.72793118   -7.6439952    768.25192   0.01978399  0.019394273            5 
 3237000   0.72569733   -7.6357038    769.86706  0.019819459  0.019388491            4 
 3238000   0.74005418   -7.6601418    769.95324  0.019815556  0.019382681            9 
 3239000   0.72760098   -7.6360703    769.87392  0.019807397  0.019376877            5 
 3240000   0.71151303   -7.6288886    770.87066   0.01982692  0.019371113            5 
 3241000   0.74007261   -7.6465239    772.90544  0.019873121   0.01936537            3 
 3242000   0.71894683   -7.6653457    771.61306  0.019833772  0.019359629            3 
 3243000   0.72726257   -7.6390521     771.6616  0.019828903  0.019353891            2 
 3244000   0.73892737   -7.6483006    772.82799  0.019852754  0.019348144            4 
 3245000   0.71794196   -7.6586493    772.08756  0.019827621  0.019342413            3 
 3246000   0.73850097   -7.6617265    771.38657  0.019803516  0.019336654            4 
 3247000   0.74273216   -7.6637148    772.43966  0.019824445  0.019330885           12 
 3248000   0.73770745   -7.6824508    770.35152  0.019764766  0.019325098            5 
 3249000   0.74699281   -7.6833883    769.51389  0.019737198  0.019319321           10 
 3250000   0.73121923   -7.6459495    770.53694  0.019757358  0.019313553            4 
 3251000   0.71699349   -7.6725605    771.34796  0.019772069  0.019307794            3 
 3252000   0.73669319   -7.6525144    771.80951  0.019777816  0.019302049            2 
 3253000    0.7289559   -7.6597457     771.4845  0.019763411   0.01929631            3 
 3254000    0.7085486   -7.6505189    771.70278  0.019762927  0.019290582            7 
 3255000   0.72479628   -7.6472659    770.82493  0.019734381  0.019284833            6 
 3256000   0.73039794   -7.6569271     769.8383  0.019703069   0.01927907            3 
 3257000    0.7096523   -7.6876527    770.11607  0.019704126  0.019273298            4 
 3258000    0.7369124    -7.668777    769.53868   0.01968331  0.019267523            5 
 3259000   0.74020981   -7.6833851    770.16796  0.019693361  0.019261732            4 
 3260000   0.73094853   -7.6813402    770.78955  0.019703209  0.019255938            5 
 3261000   0.72075869   -7.6465495    770.13782  0.019680513  0.019250141            2 
 3262000   0.72799052   -7.6571612    770.63471  0.019687173  0.019244349            6 
 3263000   0.73695116   -7.6690379    769.98916  0.019664653  0.019238541            3 
 3264000   0.74323468   -7.6745712    771.15958  0.019688511  0.019232739            7 
 3265000    0.7174068   -7.6596992     770.3053  0.019660676  0.019226916            2 
 3266000    0.7209614   -7.6656092    771.91593  0.019695753  0.019221124            8 
 3267000   0.72565462     -7.65013    771.84002  0.019687788  0.019215345            4 
 3268000   0.72966717   -7.6772037    771.67955  0.019677671  0.019209587            4 
 3269000   0.74958189   -7.6724494    770.82962  0.019649985  0.019203793            8 
 3270000   0.73197043   -7.6756176    770.30711   0.01963066  0.019198005            5 
 3271000   0.72558178    -7.680706    770.48056  0.019629078  0.019192215            5 
 3272000   0.72320637   -7.6976074    770.92498  0.019634398  0.019186424            9 
 3273000   0.73423897   -7.6777046    770.78577  0.019624854  0.019180635            7 
 3274000   0.71610844    -7.681595    768.72825   0.01956649  0.019174826            9 
 3275000   0.70497641   -7.6556552    770.32017  0.019601022  0.019169042            6 
 3276000   0.73123913   -7.6924543    771.12218   0.01961544  0.019163267            6 
 3277000   0.71997193    -7.672809    771.46888  0.019618271  0.019157512            7 
 3278000   0.71345313   -7.6525073     770.4062   0.01958527  0.019151753            6 
 3279000   0.72025209   -7.6476462    772.34958  0.019628687  0.019145999            6 
 3280000   0.72516826   -7.6703357    770.87457  0.019585228  0.019140249            5 
 3281000   0.73486883   -7.6468812    772.00241  0.019607904  0.019134497            8 
 3282000   0.72209915   -7.6868217    771.00231  0.019576536  0.019128727            6 
 3283000   0.74103264   -7.6707152    770.84225  0.019566511  0.019122981            4 
 3284000   0.72530473   -7.6683293    772.16403  0.019594093  0.019117236            4 
 3285000   0.73159754   -7.6793677    771.13003  0.019561898  0.019111492            6 
 3286000   0.73123381   -7.6995105    771.21203  0.019558025  0.019105738            5 
 3287000   0.73623819    -7.656962    770.72806  0.019539805  0.019099977            9 
 3288000   0.72466943   -7.6880808    770.72125  0.019533689  0.019094218           13 
 3289000   0.69480301   -7.6664097    771.62586   0.01955067  0.019088459            3 
 3290000   0.72197325   -7.6665278    770.97047  0.019528127   0.01908271            7 
 3291000    0.7206126   -7.6775538    771.70303  0.019540743  0.019076972            2 
 3292000     0.732713   -7.6489365    771.62836  0.019532917  0.019071235            5 
 3293000    0.7338006    -7.657149    771.40087  0.019521229  0.019065503            4 
 3294000    0.7280487    -7.672258    771.20904  0.019510449  0.019059757            6 
 3295000   0.72992887   -7.6684839    772.65939  0.019541209   0.01905403            8 
 3296000   0.72552659   -7.6862573    771.57455  0.019507852  0.019048319            4 
 3297000    0.7345637   -7.6936458     772.1848  0.019517359  0.019042603           12 
 3298000   0.71659826   -7.6635315    770.70445  0.019474036  0.019036857            6 
 3299000   0.73138887   -7.6773046    771.17196  0.019479942  0.019031133            6 
 3300000    0.7191285   -7.6504604    773.37645  0.019529708  0.019025419           12 
 3301000   0.71647361    -7.679138    772.84212  0.019510303  0.019019713            5 
 3302000   0.71914517   -7.6995656     772.3877  0.019492926  0.019014032            5 
 3303000   0.74230143   -7.6788092    772.55189  0.019491167  0.019008351            6 
 3304000   0.72403806   -7.6734527      773.175  0.019500984  0.019002672            4 
 3305000   0.72010794   -7.6533568    771.07528   0.01944214  0.018996982           11 
 3306000   0.73100023   -7.6814514    772.68676  0.019476879  0.018991281            7 
 3307000   0.72855382   -7.6682562    772.44025  0.019464778  0.018985587            5 
 3308000   0.72386549   -7.6673884    773.60732  0.019488294  0.018979932            3 
 3309000   0.72053324   -7.6772023     772.4956  0.019454407  0.018974256            5 
 3310000      0.72456    -7.684187    773.07329  0.019463074  0.018968555            6 
 3311000   0.73520099   -7.6680274    772.92656  0.019453502  0.018962836            3 
 3312000   0.71027774   -7.6599706    774.85441  0.019496135  0.018957134            3 
 3313000   0.71229911   -7.7009496    770.60834  0.019383447  0.018951427            4 
 3314000   0.73154827   -7.7104951    771.62004  0.019403039  0.018945712            5 
 3315000   0.71718045   -7.6836973    772.23733  0.019412703  0.018939992            5 
 3316000   0.72926199   -7.6924002    772.58859  0.019415676   0.01893426           11 
 3317000   0.71061852   -7.6987467    771.94304  0.019393605  0.018928529            9 
 3318000   0.73803653   -7.6789496     773.4664   0.01942602  0.018922811            6 
 3319000   0.73257365   -7.6693329    772.49374  0.019395745  0.018917128            4 
 3320000   0.70255299   -7.6827054    774.30151  0.019435279  0.018911465            5 
 3321000   0.70840146   -7.6575495    773.18184  0.019401331  0.018905774            6 
 3322000   0.71351874   -7.6859055    773.05541  0.019392319  0.018900074            6 
 3323000   0.71994586   -7.6588293    773.15277  0.019388925  0.018894376            3 
 3324000   0.71374652   -7.6729434    772.29641  0.019361623  0.018888699            4 
 3325000   0.71276654     -7.68724    773.44913   0.01938469  0.018883018            4 
 3326000   0.72329829   -7.6919589    773.64808  0.019383846  0.018877341            1 
 3327000   0.71513661   -7.6614204    773.55793  0.019375762  0.018871672            4 
 3328000   0.72438408   -7.6734869    774.24029  0.019387026  0.018865987            5 
 3329000   0.71445003   -7.6816131    773.64955  0.019366415  0.018860308            4 
 3330000   0.70356347   -7.6564518    772.37004   0.01932858  0.018854606            3 
 3331000   0.73420034    -7.685907    771.70217  0.019306068  0.018848909            7 
 3332000   0.71949235   -7.7021484    772.66091  0.019324253  0.018843212            7 
 3333000   0.71463506   -7.6752767    772.60461  0.019317047  0.018837525            6 
 3334000   0.72913403   -7.6937248    772.99094  0.019320909  0.018831822            4 
 3335000   0.74004109   -7.6815771    772.91557  0.019313233  0.018826147            3 
 3336000   0.71606262   -7.6831244    771.14325  0.019263171  0.018820456            5 
 3337000    0.7165572   -7.6864241    773.14822  0.019307467  0.018814768            8 
 3338000   0.72226715    -7.665633    774.64751  0.019339113  0.018809088            5 
 3339000   0.72093696   -7.6632112    774.72899  0.019335355  0.018803445            5 
 3340000   0.72499159   -7.7070211    773.37261  0.019295724  0.018797794            4 
 3341000   0.72822366   -7.6821136    774.67329  0.019322391   0.01879214            3 
 3342000   0.70833556   -7.6808339    773.44464  0.019285972  0.018786471            3 
 3343000    0.7218841   -7.7063196    774.08619  0.019296196  0.018780814            3 
 3344000   0.73199931    -7.665826    773.43914  0.019274301  0.018775178            4 
 3345000   0.71369704   -7.6568038    774.07798  0.019284454  0.018769523            5 
 3346000   0.71312712   -7.7110705    772.69499  0.019244247  0.018763862            4 
 3347000   0.71541327   -7.6728654    773.07456  0.019247947  0.018758199            3 
 3348000   0.73288383   -7.7119697    774.43639  0.019276095  0.018752525            8 
 3349000   0.71561394   -7.6996868    772.52668   0.01922282   0.01874687            5 
 3350000   0.73067974   -7.6851284    772.32644    0.0192121  0.018741211            3 
 3351000   0.71387771   -7.6824166    772.64044  0.019214176  0.018735549            6 
 3352000   0.70599278   -7.7093256    773.08519  0.019219501  0.018729878            5 
 3353000   0.71106767   -7.6871686    774.84123  0.019257412  0.018724219            2 
 3354000   0.71403954    -7.701071    773.47123  0.019217632   0.01871855            5 
 3355000   0.71554242   -7.7043386    772.69721  0.019192678  0.018712876            7 
 3356000   0.72562952   -7.7056713    773.50396  0.019206991  0.018707224            3 
 3357000    0.7107497   -7.6973899    773.34856  0.019197412  0.018701548            5 
 3358000   0.72629384    -7.702899    773.78493  0.019202525  0.018695886            6 
 3359000   0.70958092   -7.7080477    772.47216  0.019164239  0.018690236            2 
 3360000   0.73538685   -7.7055112    771.70544   0.01913952  0.018684573            4 
 3361000   0.73332594   -7.7080418     773.5305  0.019179076   0.01867891            3 
 3362000   0.71621654   -7.7136845    773.86596  0.019181686  0.018673236            2 
 3363000    0.7123052    -7.722213    773.59022   0.01916915  0.018667562            4 
 3364000   0.71985171   -7.6863704    774.60485  0.019188586    0.0186619            3 
 3365000   0.73187282   -7.7048623    775.20668  0.019197788  0.018656257            3 
 3366000    0.7041909   -7.6755818    775.30829    0.0191946  0.018650609            3 
 3367000   0.70696019    -7.703906    773.12732   0.01913492  0.018644955            7 
 3368000   0.70802347   -7.6977954    772.90188  0.019123661  0.018639303           10 
 3369000   0.72365055   -7.7152336    773.34772  0.019129013  0.018633664            8 
 3370000    0.7198375   -7.7115158    773.47594  0.019126507  0.018628002            5 
 3371000     0.722087   -7.7012235    773.43576   0.01911984  0.018622348            5 
 3372000   0.70700355   -7.7286255     772.7802  0.019097968  0.018616686            5 
 3373000   0.72562295   -7.7186949    772.80394  0.019092893   0.01861103            5 
 3374000    0.7291755   -7.7065995    771.20843  0.019047827  0.018605363            4 
 3375000   0.70939238   -7.7375441    773.04784  0.019087601  0.018599686            4 
 3376000    0.7126289   -7.6943418    772.94227  0.019079341  0.018594014            3 
 3377000   0.69938034    -7.690462    772.75669  0.019069112  0.018588345            5 
 3378000   0.71920143   -7.7172523    772.97056  0.019068743  0.018582685            6 
 3379000   0.70410527   -7.7233122    773.71407  0.019081436   0.01857703            7 
 3380000   0.71053502   -7.7058635    773.30338  0.019065665  0.018571358            8 
 3381000   0.72259044   -7.7196003    774.60936  0.019092215  0.018565689            6 
 3382000   0.71875062   -7.7267708    772.67155  0.019038822  0.018560014            5 
 3383000   0.71226907   -7.7328539    772.89608  0.019038725  0.018554356            7 
 3384000    0.7018203   -7.6975133    774.31872  0.019068132  0.018548687            2 
 3385000   0.72050709   -7.6986665    775.12189  0.019082272  0.018543029            3 
 3386000   0.72786235   -7.7145633    774.78638  0.019068379  0.018537385            3 
 3387000   0.71556259   -7.7094847    774.54354  0.019056775  0.018531736            2 
 3388000    0.7179314   -7.7154816    772.21598  0.018993899  0.018526079            3 
 3389000   0.71409695   -7.7248507    773.79515  0.019027126  0.018520409            3 
 3390000   0.69238144   -7.7126079    773.79063  0.019021402  0.018514753            5 
 3391000   0.71512055   -7.7053848    772.82892  0.018992159  0.018509119            7 
 3392000   0.71387918   -7.7275008    773.40872  0.019000804  0.018503471            3 
 3393000   0.72382703   -7.7203525    773.42317  0.018995559  0.018497822            5 
 3394000    0.7086429   -7.7036148    771.84851  0.018951299  0.018492149            7 
 3395000   0.69504108   -7.7310237    772.76314  0.018968167  0.018486486            3 
 3396000    0.7048782   -7.7008441    773.78243  0.018987594  0.018480837            6 
 3397000   0.71886048   -7.7255746    772.40968  0.018948329  0.018475208            4 
 3398000   0.69370073   -7.7111083    773.65713  0.018973345  0.018469573            6 
 3399000   0.71096508   -7.7187012     775.3465  0.019009182  0.018463953            2 
 3400000   0.72213094   -7.7053118     774.2964  0.018977853  0.018458339            4 
 3401000   0.70665516   -7.7157185    774.51608  0.018977656  0.018452714            4 
 3402000   0.70989126   -7.7187267    774.21817   0.01896478  0.018447102            8 
 3403000   0.71792589   -7.7073678    773.52128  0.018942141  0.018441487            7 
 3404000    0.7133009   -7.7162858    771.54901  0.018888294  0.018435849           10 
 3405000   0.69928339   -7.7368371    775.59635    0.0189818  0.018430209           18 
 3406000   0.70888756   -7.7277295    773.51332  0.018925262   0.01842458           13 
 3407000   0.71205878   -7.7364008     774.7834  0.018950773  0.018418954           13 
 3408000   0.68730223   -7.7019095    773.60452  0.018916386  0.018413316            9 
 3409000   0.69337504   -7.7178903    773.85793  0.018917032   0.01840771            9 
 3410000   0.69771396   -7.7218594    774.87755  0.018936402  0.018402108           10 
 3411000   0.70358644   -7.7213177    775.04023  0.018934824  0.018396501            7 
 3412000   0.71736328   -7.7219221    774.65629  0.018919898  0.018390914            8 
 3413000   0.70299308   -7.7156088    773.57175  0.018887873  0.018385299            7 
 3414000   0.69473885   -7.7109745     775.7746  0.018936111  0.018379683            8 
 3415000   0.70652784   -7.7109574     774.5884   0.01890162  0.018374066            7 
 3416000   0.70916264   -7.7345701    774.39285  0.018891317  0.018368456            5 
 3417000   0.69968916   -7.7525832    773.22235  0.018857242  0.018362847            3 
 3418000   0.70827998   -7.7055917    773.68181  0.018862927  0.018357229            4 
 3419000   0.70379542   -7.7077964    775.58872  0.018903888  0.018351625            6 
 3420000   0.71427258   -7.7150942    774.64785  0.018875435  0.018346038            5 
 3421000   0.69907338   -7.7097235    775.31959  0.018886281   0.01834046            2 
 3422000   0.70177845   -7.6999392    775.17741  0.018877299  0.018334911            3 
 3423000   0.71963861   -7.7086379    775.85263  0.018888223  0.018329354           11 
 3424000   0.70108509   -7.7267205    775.92511   0.01888447  0.018323815            3 
 3425000   0.70820352   -7.7161018    776.58207  0.018894941  0.018318261           12 
 3426000   0.68673132   -7.7243737    775.69723  0.018867903  0.018312703            2 
 3427000   0.69154073   -7.7189199    774.05666  0.018822504  0.018307132            4 
 3428000   0.69888854    -7.736137    774.69301  0.018832483  0.018301557            3 
 3429000    0.7106677   -7.7300128     775.3495  0.018842945  0.018295989            6 
 3430000   0.70458718   -7.7373729    774.19053  0.018809294  0.018290426            7 
 3431000   0.71711059   -7.6768121    775.76548  0.018842065  0.018284874            7 
 3432000    0.7033256    -7.701502    775.29034  0.018825037  0.018279327            7 
 3433000   0.70345178   -7.7207883     776.3168   0.01884447  0.018273786            3 
 3434000   0.69296319   -7.7189764    775.91994  0.018829352  0.018268232            5 
 3435000    0.6970874   -7.7293234    775.81532  0.018821332  0.018262693            4 
 3436000   0.69353805   -7.7314403    774.80392  0.018791325  0.018257165            2 
 3437000   0.69244617   -7.7157183    776.25857  0.018821127  0.018251616            7 
 3438000   0.70073673   -7.7245707    776.08034  0.018811333  0.018246087           12 
 3439000   0.72243819   -7.7360384    775.46337  0.018790912  0.018240576            5 
 3440000   0.71209005   -7.7108612     775.5735  0.018788118  0.018235051            9 
 3441000   0.70382212   -7.7357747    775.54896  0.018782063  0.018229526            6 
 3442000     0.693164   -7.7364526    775.75358  0.018781561  0.018223991            7 
 3443000    0.6952109   -7.7493555    776.98837  0.018805992  0.018218474            6 
 3444000   0.70098758   -7.7035516    776.95918  0.018799825   0.01821295            8 
 3445000   0.69867281   -7.7473941    776.48872  0.018782988  0.018207428            7 
 3446000   0.71286531   -7.7143485    777.38965  0.018799324  0.018201922            3 
 3447000   0.71202327   -7.7273808    778.00065  0.018808642  0.018196427            5 
 3448000   0.70740666   -7.7088006      777.819  0.018798796  0.018190944            2 
 3449000     0.701251   -7.7135658     777.5095  0.018785868  0.018185458            4 
 3450000   0.68348802   -7.7082862     775.5703  0.018733582   0.01817997            2 
 3451000   0.69735473   -7.7079225    776.90783  0.018760452  0.018174471            4 
 3452000    0.6913048   -7.7291267    775.32766  0.018716871  0.018168978            3 
 3453000   0.69898398   -7.7257628    776.47664  0.018739179  0.018163485            7 
 3454000    0.7033131   -7.7583433    776.81282  0.018741865   0.01815798            4 
 3455000   0.69159076   -7.7501648    774.96155  0.018691789  0.018152462            3 
 3456000   0.69519251   -7.7273075    776.70158  0.018728337  0.018146955            3 
 3457000   0.69910859   -7.7404421    777.15267  0.018733793  0.018141446            6 
 3458000   0.69582856   -7.7647223    776.36096  0.018709296   0.01813594            6 
 3459000    0.7037652   -7.7437678    776.08123  0.018697148   0.01813043            5 
 3460000   0.71288352   -7.7191727      777.174  0.018718064  0.018124921            4 
 3461000   0.70060555   -7.7402146    776.86028  0.018705102  0.018119417            4 
 3462000    0.7176956   -7.7263585    775.41301  0.018664862  0.018113922            4 
 3463000   0.71375517   -7.7495346    776.89355  0.018695099  0.018108419            3 
 3464000   0.69389385   -7.7244971    776.30029   0.01867543  0.018102914            5 
 3465000   0.70779658   -7.7538101    773.97091  0.018614019  0.018097414            3 
 3466000   0.69043069    -7.699625    776.72818  0.018674942  0.018091911            4 
 3467000   0.69654203    -7.736831    778.70743  0.018717129  0.018086433            5 
 3468000    0.7093414   -7.7447996    777.96457  0.018693881  0.018080967            5 
 3469000    0.6935112   -7.7205408    777.37783  0.018674398  0.018075502            5 
 3470000   0.70799192   -7.7171301    777.93103  0.018682301  0.018070048            2 
 3471000   0.69172562   -7.7154666    776.43936  0.018641106  0.018064599            5 
 3472000   0.70024268   -7.7377554    777.09455  0.018651463  0.018059139            4 
 3473000   0.69205918   -7.7366545     778.4866  0.018679494  0.018053687            5 
 3474000   0.68853986     -7.72832    775.82915  0.018610371  0.018048235            7 
 3475000   0.70634757   -7.7587924    777.67485  0.018649277  0.018042773            2 
 3476000   0.69786577   -7.7265467     775.2192   0.01858504  0.018037292            7 
 3477000   0.70138372   -7.7385437    775.42435  0.018584612  0.018031813            5 
 3478000   0.70174726   -7.7668384    776.58186  0.018607003  0.018026327            6 
 3479000    0.6900637    -7.744841    775.97229  0.018587053  0.018020832            3 
 3480000   0.69699739   -7.7417739    776.78492  0.018601172  0.018015344            3 
 3481000   0.69211829   -7.7755746    776.35298  0.018585487  0.018009831            3 
 3482000   0.69210062   -7.7622985    774.24385  0.018529673  0.018004328            3 
 3483000   0.69527727   -7.7656661    776.97278  0.018589644  0.017998823            6 
 3484000   0.69883168   -7.7736578    776.02475  0.018561633   0.01799332            9 
 3485000   0.68064771   -7.7648315    776.05414   0.01855701  0.017987806            6 
 3486000   0.69373816   -7.7751551    774.80056  0.018521719  0.017982297            7 
 3487000   0.69015764   -7.7727641    776.12256  0.018548001  0.017976813            6 
 3488000   0.68902932   -7.7600158    777.47238  0.018574933  0.017971335            5 
 3489000   0.70623792   -7.7691932    774.99388  0.018510411  0.017965841            9 
 3490000   0.69965141   -7.7574268    775.31608    0.0185128  0.017960343            8 
 3491000   0.68899836   -7.7368179    776.50212  0.018535809  0.017954838            8 
 3492000   0.68279663   -7.7502671    776.33877  0.018526603  0.017949348            7 
 3493000   0.68554276   -7.7567277    776.27233  0.018519714  0.017943877           10 
 3494000   0.68364246   -7.7370364    777.49711  0.018543625  0.017938429            5 
 3495000    0.6954685   -7.7321468     775.7258  0.018496085  0.017932983            8 
 3496000   0.68947809   -7.7402771    777.77904  0.018539737  0.017927549           10 
 3497000   0.68767196   -7.7634377    778.67297  0.018555738  0.017922095            5 
 3498000   0.68598984   -7.7494884    775.81777  0.018482413  0.017916638            7 
 3499000   0.69966808   -7.7427788    775.24511  0.018463492  0.017911162            9 
 3500000   0.69124652   -7.7438642    777.12888  0.018503069  0.017905684            9 
 3501000   0.67287521   -7.7481632    776.42597  0.018481052  0.017900213            2 
 3502000   0.68971335   -7.7346447    776.53379  0.018478341  0.017894758            9 
 3503000   0.68770496   -7.7378841    775.68149   0.01845279  0.017889302            9 
 3504000   0.69390388   -7.7364567    776.32517  0.018462832   0.01788384            7 
 3505000   0.68541513   -7.7609862    776.31715  0.018457374  0.017878368            4 
 3506000   0.66922599   -7.7537848    777.68391  0.018484596  0.017872898            8 
 3507000    0.6743443   -7.7452215    777.20506  0.018467947  0.017867442           14 
 3508000   0.69666336   -7.7676275    777.06906  0.018459451   0.01786196            9 
 3509000    0.6956664   -7.7402264    776.20137  0.018433584  0.017856496           16 
 3510000   0.70012319   -7.7715264    776.64086  0.018438767  0.017851018           11 
 3511000   0.68821964   -7.7610716    779.50667  0.018501535  0.017845555            6 
 3512000   0.68233676    -7.743958    775.57852  0.018403059  0.017840101           17 
 3513000   0.69632767   -7.7777125    776.96788  0.018430778  0.017834612            5 
 3514000    0.6853259   -7.7879847    776.61048  0.018417057  0.017829142           10 
 3515000    0.7047841   -7.7392061    774.60651  0.018364308  0.017823683            2 
 3516000   0.68939839   -7.7502731    774.67735  0.018360764  0.017818212            4 
 3517000   0.68524863   -7.7347042    775.62662  0.018378036  0.017812732            6 
 3518000   0.68195327   -7.7843763    777.51465  0.018417535  0.017807262            4 
 3519000   0.68477899   -7.7887229    776.02809  0.018377098  0.017801784            2 
 3520000   0.70105281   -7.7768865    777.59671  0.018409013  0.017796317            2 
 3521000   0.67891456   -7.7613194    776.25684  0.018372073  0.017790851            4 
 3522000   0.68082403   -7.7920936    775.65465  0.018352609  0.017785383            2 
 3523000   0.69660381   -7.7677127    777.11789  0.018382011  0.017779902            4 
 3524000   0.67065288   -7.7668018    777.35819  0.018382477  0.017774435            6 
 3525000   0.68883863   -7.7823163    774.97766  0.018320985  0.017768958            4 
 3526000   0.67314614    -7.770262    775.94635  0.018338683   0.01776347            4 
 3527000   0.68316944   -7.7704919    775.45304  0.018321828  0.017757984            3 
 3528000   0.68470625   -7.7728785    775.44207  0.018316375  0.017752522            4 
 3529000   0.68778335   -7.7607444    773.33366  0.018261397  0.017747051            3 
 3530000   0.67777648   -7.7900899    776.25304  0.018325143  0.017741563            4 
 3531000   0.68439722    -7.757641    774.99088  0.018290165   0.01773608            4 
 3532000   0.69285549   -7.7634112    777.22804   0.01833777  0.017730596            4 
 3533000   0.69278884   -7.7782963     775.1735  0.018284119  0.017725109            2 
 3534000   0.69614742    -7.781861    776.53771  0.018311114  0.017719616            4 
 3535000   0.67116626   -7.7918104    774.06329  0.018247602  0.017714094            4 
 3536000   0.68056684   -7.8015296    774.88086   0.01826171  0.017708598            3 
 3537000   0.69628134   -7.7941161    774.33041  0.018243578  0.017703109            2 
 3538000   0.68343154    -7.786057    776.38392  0.018286789  0.017697601            4 
 3539000   0.68309881   -7.7834312    775.96845  0.018271839  0.017692099            3 
 3540000    0.6882458   -7.7917692    775.91962  0.018265528  0.017686617            6 
 3541000   0.68532643   -7.7962729    774.62886  0.018229993  0.017681126            7 
 3542000   0.70204107   -7.7964896    777.29581  0.018287592   0.01767564            5 
 3543000   0.69177663   -7.7698144    778.36361  0.018307546  0.017670169            7 
 3544000   0.68449369     -7.78543     777.2332    0.0182758  0.017664706            3 
 3545000   0.70118649   -7.7492974    775.63498  0.018233074  0.017659239            3 
 3546000   0.67332582   -7.7675878    776.11909  0.018239309  0.017653778            3 
 3547000   0.68875116   -7.7920101     775.4395  0.018218201  0.017648327            2 
 3548000   0.69374513    -7.788124    776.95987  0.018248776  0.017642875            5 
 3549000   0.67826777   -7.7720066    776.37506  0.018229902  0.017637411            3 
 3550000   0.67500463   -7.7803809    776.00216  0.018216013  0.017631962            6 
 3551000   0.67036647   -7.7522839    777.10345  0.018236728  0.017626516            5 
 3552000   0.68724408   -7.7717861    777.55144  0.018242104  0.017621098           16 
 3553000   0.68815272   -7.7610618    777.23056  0.018229444  0.017615672           11 
 3554000    0.6855904   -7.7651182    777.76315  0.018236802  0.017610241            5 
 3555000   0.70719628   -7.7491363    776.00336  0.018190421  0.017604823            4 
 3556000   0.67636113   -7.7503355    778.86434  0.018252351  0.017599414           10 
 3557000   0.68357583   -7.7532212    777.85074  0.018223474  0.017594009            8 
 3558000   0.67713686   -7.7606593    777.55117  0.018211335  0.017588585            8 
 3559000   0.68797256   -7.7835131    778.44908  0.018227243   0.01758317            3 
 3560000   0.67375294   -7.7628108    774.81727  0.018137108  0.017577763            4 
 3561000   0.68295232   -7.7640225    776.30795    0.0181669  0.017572336            3 
 3562000     0.683494   -7.7934154    779.10565  0.018227252  0.017566912            5 
 3563000   0.67447107   -7.7440357    776.70229  0.018165925  0.017561511            6 
 3564000   0.69921394   -7.7671422    776.38523  0.018153415  0.017556123            5 
 3565000   0.69777256   -7.7921597    776.54547  0.018152068  0.017550726            3 
 3566000   0.67730614   -7.7573645    776.84636  0.018154009  0.017545345            3 
 3567000   0.67000058   -7.7663216    778.12766  0.018178854  0.017539968            7 
 3568000   0.68822413   -7.7721626    776.82353    0.0181433  0.017534569            7 
 3569000   0.68213268   -7.7698691    778.37737  0.018174497    0.0175292            4 
 3570000   0.68099502   -7.7771622    778.77152  0.018178607  0.017523843            4 
 3571000   0.67653157   -7.7495495    777.62931  0.018146862  0.017518464            5 
 3572000   0.68257981   -7.7926945     778.3629  0.018158896  0.017513085            3 
 3573000   0.68578016    -7.763492    777.58451  0.018135659  0.017507717            3 
 3574000   0.68815199   -7.7669577    778.09378  0.018142459  0.017502337            4 
 3575000   0.66891996   -7.7520884     777.3037  0.018118967  0.017496959            2 
 3576000    0.6771494   -7.7584779     778.4121   0.01813973  0.017491592            2 
 3577000   0.68847947   -7.7876121     778.0524  0.018126279  0.017486237            3 
 3578000   0.68470612   -7.7558361    780.33827  0.018174452  0.017480866            6 
 3579000   0.67996148   -7.7758012    777.65471   0.01810689  0.017475501            4 
 3580000   0.71323069   -7.7879427    777.51693  0.018098625  0.017470127            9 
 3581000   0.68598651   -7.7726827    776.80099   0.01807691  0.017464735           15 
 3582000   0.67099376   -7.7578586    777.22648  0.018081763   0.01745936            3 
 3583000   0.67974649   -7.7890356    777.67038   0.01808704  0.017453982            7 
 3584000   0.67072303   -7.7721122    777.35704  0.018074708  0.017448609            8 
 3585000   0.68789331   -7.7778357    777.48526  0.018072647  0.017443227            6 
 3586000   0.67601514    -7.765579    778.90042  0.018100493  0.017437859            7 
 3587000   0.68785384   -7.7758017    777.68496  0.018067209  0.017432478            4 
 3588000   0.68236468   -7.7980378    776.36031  0.018031408  0.017427102            9 
 3589000   0.67766833   -7.7854873    776.00535  0.018018142  0.017421723            4 
 3590000   0.66758332   -7.8015211    777.20895  0.018041062  0.017416348            6 
 3591000   0.67196612   -7.7857112     777.4891  0.018042539  0.017410977            9 
 3592000   0.66556921   -7.7949435    775.90534  0.018000774  0.017405599            4 
 3593000   0.66925712   -7.7799155    776.56549  0.018011074  0.017400226            6 
 3594000   0.67244353   -7.7970994     776.6428  0.018007856  0.017394852            4 
 3595000   0.66631603   -7.7699452    776.73355   0.01800495  0.017389471            3 
 3596000   0.68470259   -7.8046276    777.54274  0.018018695  0.017384108            6 
 3597000   0.67356232   -7.7685331    777.16056  0.018004832   0.01737873            7 
 3598000   0.67437746   -7.7855802    777.21397  0.018001065  0.017373351            5 
 3599000   0.65470593    -7.793073    776.06806   0.01796953  0.017367965            3 
 3600000    0.6687832    -7.785777    776.23063  0.017968302  0.017362589            4 
 3601000    0.6679426   -7.7970997     778.4867  0.018015521  0.017357221            4 
 3602000    0.6766045   -7.8052001     777.0432  0.017977124  0.017351852            4 
 3603000   0.67552567   -7.8145923    778.09019   0.01799635  0.017346475           12 
 3604000   0.66171146   -7.8114599    778.01137  0.017989534  0.017341123            8 
 3605000   0.67168648   -7.8039115    776.59895  0.017951894  0.017335768            7 
 3606000   0.67677798   -7.7764133    777.93636  0.017977823  0.017330409            8 
 3607000   0.66673775   -7.8098519    775.38928  0.017913993  0.017325049            4 
 3608000   0.67044619   -7.8074074    777.44675  0.017956549  0.017319703            7 
 3609000   0.67190754   -7.8020921    778.66036  0.017979596  0.017314348            6 
 3610000   0.67050923   -7.7837762    776.76411  0.017930843  0.017309002            3 
 3611000   0.65893521   -7.7867751    778.45868  0.017964984  0.017303641            5 
 3612000   0.67363021   -7.8038371    775.71702  0.017896757  0.017298286            3 
 3613000   0.67999106   -7.7877577    776.81788  0.017917194  0.017292936            3 
 3614000   0.68647547   -7.7918169    778.87956  0.017959776  0.017287587            3 
 3615000   0.67843535    -7.808497    778.36747  0.017943003  0.017282246            5 
 3616000   0.68039782   -7.8062395    776.43067  0.017893406  0.017276905            4 
 3617000   0.67969562    -7.794514    776.15745  0.017882164  0.017271569            5 
 3618000   0.66484975   -7.8055031    777.37363  0.017905234  0.017266225            4 
 3619000   0.68775833   -7.7919089    778.26436  0.017920797  0.017260899            7 
 3620000   0.67124147   -7.7913017     778.0992  0.017912044  0.017255565           13 
 3621000    0.6780057   -7.8028738    776.48572  0.017869965   0.01725024            5 
 3622000   0.66987139   -7.8011825    776.73293  0.017870719  0.017244919            4 
 3623000    0.6570104   -7.8179497     777.5349  0.017884233  0.017239586            7 
 3624000   0.66979672   -7.8200946    778.68871  0.017905829  0.017234242            3 
 3625000   0.65808511   -7.8165876    779.06589  0.017909561  0.017228897            5 
 3626000   0.68221102   -7.7704467    777.60227  0.017870984   0.01722356            4 
 3627000   0.65945595   -7.8020297    778.08274  0.017877096  0.017218228            3 
 3628000   0.68446969   -7.7874046    776.77766  0.017842192  0.017212885            5 
 3629000   0.68066119   -7.8109826    777.07975  0.017844212  0.017207533            5 
 3630000   0.66406667    -7.819822    776.47408  0.017825392  0.017202181            7 
 3631000   0.68378539   -7.7871488    775.65898  0.017801776  0.017196834            6 
 3632000   0.67126018   -7.8295074    777.22104  0.017832715  0.017191486            6 
 3633000   0.65210408   -7.8205799    777.79444  0.017840959  0.017186154            4 
 3634000   0.66953145   -7.8205439    778.89395  0.017861263  0.017180839            9 
 3635000   0.66755883   -7.7863771    779.14006  0.017861991  0.017175523            7 
 3636000   0.66001721   -7.8081588    777.44739  0.017818284  0.017170202            4 
 3637000    0.6739451   -7.8199988    777.36436  0.017811483  0.017164883            5 
 3638000   0.67535217   -7.8241436    777.61312  0.017812285  0.017159557            3 
 3639000   0.67812456   -7.8211274     778.4146  0.017825744  0.017154235            5 
 3640000   0.65666973   -7.8108992    776.70172  0.017781633  0.017148928            3 
 3641000   0.67272538   -7.8079087    780.00626  0.017852382   0.01714361            5 
 3642000   0.66333972    -7.813834    777.57089  0.017791756  0.017138289            3 
 3643000    0.6774029    -7.802836     777.1269  0.017776716  0.017132957            7 
 3644000   0.66768207   -7.8331389    775.88326  0.017743397  0.017127626            3 
 3645000   0.65450049   -7.8138507    778.32691  0.017794397  0.017122306            8 
 3646000   0.66749251   -7.8234593    778.85847  0.017801666  0.017116978            3 
 3647000   0.67392187   -7.8367322    775.39808  0.017717715  0.017111645            5 
 3648000   0.64939252   -7.8213527    776.10989  0.017729119  0.017106295            5 
 3649000   0.67104429    -7.835382    777.10343   0.01774695  0.017100965           11 
 3650000   0.66594042   -7.8222512    775.87475  0.017714035  0.017095633            7 
 3651000    0.6511897   -7.8014868     775.6815  0.017704773  0.017090298            4 
 3652000   0.64906267   -7.8308135    777.06874   0.01773158  0.017084977            6 
 3653000   0.65306943   -7.8294972     777.3183  0.017732419  0.017079638            4 
 3654000   0.66168904   -7.8308208    775.94678  0.017696287  0.017074299            8 
 3655000   0.66929179    -7.849064    778.13818  0.017741409  0.017068966            3 
 3656000   0.67357053   -7.8356165    776.68989  0.017703544  0.017063633           11 
 3657000   0.65554735   -7.8347502    775.57471  0.017673291  0.017058297            4 
 3658000   0.68565985   -7.8147347    777.66232  0.017716018  0.017052967            5 
 3659000   0.67872167    -7.836596    776.27873  0.017679665  0.017047633            6 
 3660000   0.65954183   -7.8561422    776.59571  0.017682052   0.01704231           10 
 3661000   0.65960251   -7.8430576    775.59774  0.017654506  0.017036975            7 
 3662000   0.66975972    -7.824006    776.19165    0.0176632  0.017031646            6 
 3663000   0.67093355   -7.8044944    777.24412  0.017682321  0.017026334            4 
 3664000   0.66956024   -7.8226762    776.94532    0.0176707  0.017021024            6 
 3665000   0.65872561   -7.8100116    776.76499  0.017661778  0.017015726            8 
 3666000   0.68782197   -7.7945579    777.45906  0.017672737  0.017010439            7 
 3667000   0.67383246   -7.8234447    778.40336  0.017689377  0.017005151            5 
 3668000   0.66467242     -7.83562    777.75225  0.017669762  0.016999867            6 
 3669000   0.67270132   -7.7977862     779.0161  0.017693652  0.016994588            5 
 3670000   0.66700051   -7.8177786    776.92734  0.017641402  0.016989313            4 
 3671000   0.65914463   -7.8119112    778.53249  0.017673034  0.016984033            5 
 3672000   0.66678754   -7.8104621    778.78694  0.017673996  0.016978763            7 
 3673000   0.66655056    -7.814404    777.84844  0.017647891   0.01697349            5 
 3674000   0.66722634   -7.7833867    779.03924  0.017670097  0.016968217            2 
 3675000   0.64976629   -7.8263305    777.66762  0.017634186  0.016962955            7 
 3676000   0.67136806   -7.8351591    776.92177  0.017612481  0.016957686            8 
 3677000   0.67008842   -7.8141862    778.55374  0.017644677  0.016952418            4 
 3678000   0.65210444   -7.8073391    777.57055  0.017617604  0.016947156            6 
 3679000   0.66744671   -7.8027962    780.77271  0.017685347  0.016941894            6 
 3680000   0.66503437   -7.8141247    776.92345  0.017593375  0.016936642            8 
 3681000   0.68069513   -7.8275266    777.92209  0.017611204  0.016931388            4 
 3682000    0.6625814   -7.8107621    779.48804  0.017641862   0.01692613            3 
 3683000   0.67503236   -7.8090879    778.37442  0.017611875  0.016920873            5 
 3684000    0.6599636   -7.8224156    779.33808  0.017628893  0.016915618            3 
 3685000   0.64502506   -7.8237275    778.45071  0.017604041  0.016910359            6 
 3686000   0.65565981   -7.8251404    777.94958  0.017587936  0.016905106            3 
 3687000   0.66124144   -7.8028665    777.48186  0.017572594  0.016899851            4 
 3688000   0.66315124   -7.8382373     778.9105  0.017600111   0.01689458            5 
 3689000   0.66153265   -7.8243783    777.69838  0.017567958  0.016889313            4 
 3690000   0.66933772   -7.8019608    779.59683  0.017606071  0.016884053            4 
 3691000    0.6512195   -7.8426381    776.98924  0.017542428  0.016878795            9 
 3692000   0.67498543     -7.81234    778.05613  0.017561758  0.016873531            4 
 3693000   0.66756936   -7.8311207    777.23686  0.017538516  0.016868256            7 
 3694000   0.66233052   -7.8334699    778.21494  0.017555832  0.016862987            6 
 3695000   0.66787968   -7.8315387    778.00252  0.017546291  0.016857717            5 
 3696000   0.65452584   -7.8214247    777.59605  0.017532378   0.01685246            6 
 3697000   0.67725253   -7.7981261    777.55696  0.017526755  0.016847217            2 
 3698000   0.66104672   -7.8279531    777.95208  0.017530919   0.01684197            4 
 3699000   0.64808724    -7.838402    776.08066  0.017484019  0.016836704            4 
 3700000   0.65488345   -7.8295113    778.91392  0.017543106  0.016831453            8 
 3701000     0.678927   -7.8053319    778.14112  0.017520966  0.016826225            5 
 3702000   0.66140983   -7.8234171    778.79709  0.017530999  0.016820983            4 
 3703000   0.64721036   -7.8181209    776.90929  0.017483781  0.016815752            6 
 3704000   0.65655102   -7.8305064    777.73373  0.017497609  0.016810511           10 
 3705000   0.66022399   -7.8179791    779.00337  0.017521443  0.016805264            7 
 3706000    0.6613914   -7.8434591    777.43808  0.017481518   0.01680002            7 
 3707000   0.65559959   -7.8509132    776.78215  0.017462057  0.016794763           14 
 3708000   0.64997255   -7.8594066    778.30847   0.01749165  0.016789513            6 
 3709000   0.66442041   -7.8226547    776.69874  0.017450767  0.016784269            6 
 3710000   0.65640918   -7.8574581    778.03421   0.01747606  0.016779012            6 
 3711000   0.66598576   -7.8417532    777.28703  0.017454573  0.016773752            3 
 3712000   0.67852058   -7.8308373    777.32536  0.017450731  0.016768499            7 
 3713000   0.66502189   -7.8453295    777.85964  0.017458022  0.016763241            4 
 3714000   0.67264289   -7.8377982     777.9252  0.017454793  0.016757992            5 
 3715000   0.65010991   -7.8420138    775.69496  0.017400066  0.016752739            5 
 3716000   0.66119746   -7.8363966     778.3581  0.017455106   0.01674748            5 
 3717000   0.65107103   -7.8500967     778.2748  0.017448543  0.016742238            4 
 3718000   0.66872142   -7.8284615    777.00569  0.017415405  0.016736995            6 
 3719000   0.66235146   -7.8296999    777.72948   0.01742694  0.016731758            3 
 3720000   0.65333108   -7.8460203    777.64819  0.017420434  0.016726513           10 
 3721000   0.65116921   -7.8347448    777.39605  0.017410106  0.016721288            3 
 3722000   0.64586304   -7.8454107    778.01813  0.017419356  0.016716053            5 
 3723000   0.65873239    -7.852572    779.31191  0.017443637  0.016710821            5 
 3724000   0.66587359   -7.8516359    777.62166  0.017401129  0.016705608            5 
 3725000   0.67568882   -7.8471716     777.7397  0.017399098  0.016700386            2 
 3726000    0.6533174   -7.8140931    778.11644  0.017402855  0.016695167            5 
 3727000   0.64465875   -7.8479998    777.66326  0.017388053  0.016689939            6 
 3728000   0.64781402   -7.8600138    776.80064  0.017364106  0.016684718            4 
 3729000   0.65636574   -7.8443435    776.01637  0.017341923  0.016679496            6 
 3730000   0.65524304   -7.8143254    777.97371  0.017381003  0.016674288            9 
 3731000   0.65238693   -7.8404608     777.9806  0.017376499  0.016669074            7 
 3732000   0.66522069   -7.8395375    775.93682  0.017326206  0.016663862            7 
 3733000   0.66655802   -7.8420092    777.11818  0.017347937  0.016658646            3 
 3734000   0.64629639   -7.8419167    778.68651  0.017378292  0.016653437            6 
 3735000   0.63752597   -7.8582968    777.79328   0.01735371  0.016648225            6 
 3736000   0.64792279   -7.8415198    777.47598  0.017341988  0.016643013            8 
 3737000   0.64429956   -7.8600757    775.36499  0.017290273  0.016637785            6 
 3738000   0.64288033    -7.847093    777.87167   0.01734153  0.016632567            2 
 3739000   0.66611945   -7.8547858    778.59093  0.017352923  0.016627343            7 
 3740000   0.65486069   -7.8495622    774.94808  0.017267114  0.016622107            4 
 3741000   0.64816864   -7.8741392    776.75746  0.017302804  0.016616872            6 
 3742000   0.66867651   -7.8779153    776.95294  0.017302533  0.016611641            3 
 3743000   0.65460625   -7.8897359    776.46025  0.017286941  0.016606397            3 
 3744000   0.64814716     -7.85783    778.27535  0.017322724  0.016601171           10 
 3745000   0.67943938    -7.862534    777.42297  0.017299132  0.016595954            5 
 3746000   0.65769848   -7.8363651    779.03755  0.017330431  0.016590757            5 
 3747000   0.65902584   -7.8657634    776.51965  0.017269808   0.01658556            7 
 3748000   0.65204611   -7.8627276    777.40405  0.017284864  0.016580368            6 
 3749000   0.66724317   -7.8506416    775.48619  0.017237623  0.016575166            5 
 3750000   0.64812817   -7.8618008    776.76756  0.017261501  0.016569975           11 
 3751000   0.65675056   -7.8375395    778.23571  0.017289516  0.016564784            3 
 3752000   0.64961203   -7.8487251    777.85898  0.017276541    0.0165596            5 
 3753000    0.6450011   -7.8285329    777.57406  0.017265611  0.016554396            3 
 3754000   0.64828512   -7.8526191    777.72648  0.017264395  0.016549205            9 
 3755000   0.64135554   -7.8433861    778.17548  0.017269762  0.016544024            9 
 3756000   0.65515343   -7.8515341    777.39051  0.017247748  0.016538843            6 
 3757000   0.65693958   -7.8356307    776.38349  0.017220821  0.016533668            6 
 3758000    0.6601404   -7.8296703    776.95752  0.017228968  0.016528497            6 
 3759000   0.64442912   -7.8437769    778.37978  0.017255914  0.016523327            4 
 3760000   0.64701516   -7.8361044    777.41711  0.017229989  0.016518153            5 
 3761000    0.6395354   -7.8543703    778.18983  0.017242529  0.016512988            4 
 3762000   0.64020462   -7.8539851    779.35143  0.017263677  0.016507812            4 
 3763000   0.64373567   -7.8357323    778.22112  0.017234058  0.016502648            3 
 3764000   0.64872355   -7.8471907    776.71321  0.017196095  0.016497492            5 
 3765000   0.65592176   -7.8356726    777.61318  0.017211447  0.016492332            3 
 3766000    0.6554359   -7.8535281     776.8496  0.017189981  0.016487174            3 
 3767000   0.63545892   -7.8459976    777.02136  0.017189217  0.016482004            6 
 3768000   0.64996315   -7.8355929    777.20866  0.017188797  0.016476833            6 
 3769000    0.6449498   -7.8591204    777.71237  0.017195374   0.01647166            9 
 3770000   0.64118301   -7.8392582    778.43205  0.017206721   0.01646649            6 
 3771000   0.65468676   -7.8442776    778.63269  0.017206592  0.016461318            7 
 3772000   0.65094869   -7.8347733    777.19598  0.017170289  0.016456164           10 
 3773000   0.65395111   -7.8532016    776.42046   0.01714861  0.016450991            5 
 3774000    0.6413713   -7.8478439    777.39008  0.017165476  0.016445834            7 
 3775000   0.63076019   -7.8613069    775.99288  0.017130086  0.016440671            5 
 3776000   0.65401746   -7.8529364    777.35485  0.017155607  0.016435519            9 
 3777000   0.64046954   -7.8484418    777.81091  0.017161127  0.016430373            8 
 3778000   0.64942088   -7.8559745    778.00844  0.017160941  0.016425212            3 
 3779000     0.641721   -7.8478982    777.47372  0.017144609  0.016420054            6 
 3780000   0.65539006   -7.8697657    776.33175  0.017114897  0.016414894            8 
 3781000   0.64956446   -7.8571436    776.69691  0.017118419  0.016409728            4 
 3782000   0.64572988   -7.8590461    777.12204   0.01712326  0.016404559            7 
 3783000   0.62948644   -7.8636469    776.71533  0.017109775  0.016399403            9 
 3784000   0.65464857   -7.8471092    777.44732  0.017121373  0.016394252            3 
 3785000   0.64947547   -7.8556956    778.52156  0.017140501  0.016389095            9 
 3786000    0.6486933   -7.8627264    777.44816  0.017112347  0.016383942            8 
 3787000   0.64670266   -7.8412565    777.81633   0.01711593  0.016378793            4 
 3788000   0.64907868   -7.8731717    777.66895  0.017108169  0.016373648            3 
 3789000   0.63644641   -7.8483057    777.99556  0.017110837  0.016368508            6 
 3790000    0.6515387   -7.8469177    777.37515  0.017092681   0.01636337            5 
 3791000   0.64950979   -7.8594193    776.59951  0.017071123  0.016358233            7 
 3792000   0.63487326   -7.8726992    778.04565  0.017098401  0.016353084            4 
 3793000    0.6473164   -7.8539381    777.58253  0.017083718  0.016347929            9 
 3794000   0.63029151   -7.8705609    777.09407  0.017068487  0.016342782            5 
 3795000   0.65321041   -7.8772581     778.8027  0.017101509  0.016337627            4 
 3796000   0.64451325   -7.8807438    777.82715  0.017075587  0.016332472            3 
 3797000   0.62717342   -7.8667406    778.13662  0.017077882  0.016327318            4 
 3798000   0.64749727    -7.864711    777.66728  0.017063088  0.016322177            6 
 3799000   0.63994974   -7.8696852    777.03726  0.017044776  0.016317037            3 
 3800000   0.64568296   -7.8585714    778.02392  0.017061928  0.016311892            4 
 3801000   0.63909132   -7.8532673    777.42792  0.017044373  0.016306762            5 
 3802000   0.64873981   -7.8810325    777.30162  0.017037121  0.016301623            4 
 3803000   0.64559983   -7.8514919    776.68811  0.017019198   0.01629649            7 
 3804000   0.64505956   -7.8712091    774.51432  0.016967103  0.016291354            6 
 3805000   0.63916175   -7.8586255    776.83235  0.017013411  0.016286224            4 
 3806000   0.64128194   -7.8657422    777.87343  0.017031736  0.016281117            8 
 3807000   0.62779556   -7.8650929    779.31075  0.017058724  0.016275999            5 
 3808000   0.64335709    -7.867656     778.0992  0.017027731  0.016270888            5 
 3809000   0.64869693   -7.8647637    778.59363  0.017034078  0.016265782            5 
 3810000   0.64400771   -7.8685677    777.04237  0.016995677  0.016260679            7 
 3811000   0.64967272   -7.8366077    778.62598  0.017025846   0.01625558            8 
 3812000    0.6469211   -7.8361186    778.11622  0.017010236  0.016250476            4 
 3813000   0.63213012   -7.8562542    778.76328  0.017019916  0.016245373            6 
 3814000   0.64108548     -7.86683    778.51643   0.01701006  0.016240263            7 
 3815000   0.64772958   -7.8928706    777.48218   0.01698301  0.016235141            8 
 3816000    0.6275788   -7.8560603    777.55101  0.016980062  0.016230028            4 
 3817000    0.6503333   -7.8845557     777.3443  0.016971101  0.016224916            4 
 3818000   0.63236326   -7.8872517    776.95647  0.016958191  0.016219799            6 
 3819000   0.64571508   -7.8652763    777.32515  0.016961795  0.016214682            3 
 3820000   0.63134306   -7.8838253    777.92232  0.016970382  0.016209573            5 
 3821000   0.65076063   -7.8637833    779.16292  0.016992998  0.016204474            5 
 3822000   0.64379889   -7.8709835    777.13367  0.016944306  0.016199372            7 
 3823000   0.64225596   -7.8831999    777.78016  0.016953966   0.01619427            8 
 3824000   0.63712213    -7.881895    777.56229  0.016944785   0.01618916            8 
 3825000   0.62539401   -7.8922945    778.50758   0.01696095  0.016184058            9 
 3826000   0.64005915   -7.8624219    777.72531  0.016939478  0.016178955            9 
 3827000   0.64853678    -7.888087    777.38395  0.016927619  0.016173843            6 
 3828000   0.63821112   -7.8771422    776.68829  0.016908052  0.016168734           15 
 3829000   0.64475743   -7.8949366    777.25811  0.016916038  0.016163635           14 
 3830000    0.6262496   -7.8851887    776.82733  0.016902248  0.016158537           12 
 3831000   0.62378848   -7.8832148    777.87205  0.016920561  0.016153425            8 
 3832000   0.64165867   -7.8694979    776.26443  0.016881185  0.016148321            6 
 3833000   0.64133182   -7.9034017    776.50492   0.01688201  0.016143223            9 
 3834000   0.65585641   -7.8992803    777.42083  0.016897514  0.016138122           16 
 3835000   0.65347035   -7.9005837     777.5048  0.016894933   0.01613303            4 
 3836000   0.63854474   -7.9007355    777.26159  0.016885245  0.016127941            6 
 3837000   0.63331728   -7.8700523    776.84515    0.0168718  0.016122853           10 
 3838000   0.62255073   -7.9000121    777.61365   0.01688409  0.016117762            6 
 3839000   0.63287405    -7.889304    776.58733  0.016857414  0.016112665            7 
 3840000   0.62821833    -7.860114    777.23782   0.01686714  0.016107578            7 
 3841000   0.65276522   -7.9059469    777.58252  0.016870227  0.016102498            8 
 3842000   0.62634495   -7.8932755    777.33061  0.016860372  0.016097421            5 
 3843000   0.63614945   -7.9125418    777.43329  0.016858212  0.016092346            5 
 3844000   0.62664062   -7.8936547    777.61077  0.016857674  0.016087273            8 
 3845000   0.62914122   -7.8907393    776.25778  0.016823966  0.016082204            8 
 3846000   0.66004041   -7.8847514    777.62683  0.016849255  0.016077149            3 
 3847000   0.64130512   -7.8702538    779.34385  0.016882069  0.016072103            8 
 3848000   0.64012681   -7.8717245    777.47936  0.016837304  0.016067051            7 
 3849000   0.64617829   -7.8886806    777.39718  0.016831151  0.016061989            4 
 3850000     0.635181   -7.8875289    777.84922  0.016836563  0.016056933            4 
 3851000   0.63830559   -7.8936211    777.38462  0.016822137  0.016051878            5 
 3852000   0.63055973   -7.8843888    777.65554  0.016823632  0.016046825            8 
 3853000   0.62905444   -7.8824268    777.88793  0.016824291   0.01604178            6 
 3854000   0.63992186   -7.9022616    776.65133  0.016793187   0.01603672            6 
 3855000   0.63081218   -7.8904153    776.99727  0.016796309   0.01603166            5 
 3856000   0.64125273   -7.8985704     777.1953  0.016796233  0.016026597            4 
 3857000   0.63123246   -7.8787179    778.03774   0.01681008  0.016021535           12 
 3858000   0.62387196   -7.8666266    779.56905  0.016838799  0.016016486            6 
 3859000   0.64562497   -7.8823001    776.50332  0.016768233  0.016011448            7 
 3860000   0.63014779   -7.8950282    776.68499  0.016767811  0.016006404            6 
 3861000   0.64349723   -7.8892912    777.75898  0.016786648  0.016001366            3 
 3862000   0.64053478   -7.9010527    777.69063  0.016780827  0.015996332           10 
 3863000   0.63258122    -7.903479    777.62203  0.016775003  0.015991292            5 
 3864000   0.62847168   -7.9123729    777.34714  0.016764733  0.015986253            6 
 3865000   0.62248258   -7.8674277    778.70531  0.016789679  0.015981225            5 
 3866000    0.6254233    -7.872528    777.70577  0.016763791  0.015976197            8 
 3867000   0.63022321    -7.878992    778.14652  0.016768954  0.015971167            6 
 3868000   0.63192959   -7.8985564    780.36234  0.016812356  0.015966134            4 
 3869000   0.64739392    -7.911206    777.07508  0.016737208  0.015961107            6 
 3870000   0.64103321   -7.8996972    778.15625  0.016756164  0.015956079            9 
 3871000   0.62031727   -7.8924619    779.43652  0.016779396  0.015951047            5 
 3872000   0.63219354   -7.9022961    778.36731  0.016752051   0.01594601            6 
 3873000   0.63484043   -7.8809263    776.75982  0.016713138  0.015940982            3 
 3874000   0.63950561   -7.8986912    777.19805  0.016718251  0.015935959            5 
 3875000   0.63738458   -7.8983104     777.7186  0.016725131  0.015930936            7 
 3876000   0.62359413   -7.9101047    777.49242  0.016715953  0.015925921            4 
 3877000     0.631858   -7.8863558    777.31229   0.01670777  0.015920908            8 
 3878000   0.64420507   -7.8957547    778.77838  0.016734966  0.015915884            5 
 3879000   0.63148282   -7.8925865    777.61775  0.016705718  0.015910866            5 
 3880000   0.62254844   -7.8730695    776.60966  0.016679761  0.015905832            4 
 3881000   0.63990635   -7.9127763    777.02295  0.016684337  0.015900805            6 
 3882000   0.63482888   -7.8971434    777.95518  0.016700051   0.01589579            7 
 3883000   0.62758426   -7.8823067    779.75612    0.0167344  0.015890783            3 
 3884000   0.62174235    -7.902867    778.66725   0.01670673  0.015885772            4 
 3885000   0.64244051   -7.8801875    776.54376   0.01665688  0.015880764            5 
 3886000   0.63501232   -7.8811141    778.98726  0.016704993  0.015875758            3 
 3887000   0.63508371   -7.8874986    777.57116  0.016670336   0.01587075            4 
 3888000   0.62723304   -7.9072828    776.58434  0.016644897  0.015865738            9 
 3889000   0.62302961   -7.8679166    778.42023  0.016679957  0.015860737            3 
 3890000   0.65009214   -7.8938965     777.8854  0.016664212  0.015855727            5 
 3891000   0.62767879   -7.8976189     776.9562  0.016640028  0.015850721            6 
 3892000   0.63089127   -7.9045089     777.6104   0.01664976  0.015845717            5 
 3893000    0.6197928   -7.8748148    776.43988  0.016620427  0.015840706            4 
 3894000    0.6343399   -7.9015408    777.02979  0.016628783   0.01583569           13 
 3895000   0.62547283   -7.8934064     778.6448  0.016659067  0.015830671            4 
 3896000   0.62972226    -7.924604    778.02922  0.016641624  0.015825652            4 
 3897000   0.62136072   -7.9128612    778.10451  0.016638964  0.015820635            5 
 3898000   0.64053105   -7.9257358     777.3348   0.01661824  0.015815625           12 
 3899000   0.63624682   -7.9060729     777.8232  0.016624416  0.015810616            4 
 3900000   0.64147524    -7.906832    777.43052  0.016611763  0.015805606           13 
 3901000   0.62117039   -7.8890815    777.64125  0.016612006  0.015800614            7 
 3902000   0.61109561   -7.9087717    777.41052  0.016602822  0.015795618            6 
 3903000   0.64271134   -7.9089716    776.10108   0.01657061  0.015790612            5 
 3904000   0.62762588   -7.9328879    777.79566  0.016602537  0.015785617            6 
 3905000   0.63107805   -7.9062513    778.12978  0.016605416  0.015780616            9 
 3906000    0.6430045   -7.9194474    777.26177  0.016582646  0.015775612            6 
 3907000   0.62315803    -7.916148    778.12045  0.016596716  0.015770609            6 
 3908000   0.62667473   -7.9176677    777.52495  0.016579771  0.015765607            5 
 3909000   0.62300663   -7.8967545    778.67888   0.01660013  0.015760613            7 
 3910000   0.63450506   -7.9248124    776.16126  0.016542226  0.015755626           11 
 3911000   0.62273718    -7.902868    777.53839   0.01656734  0.015750654            7 
 3912000   0.61969587   -7.9049661     777.5061  0.016562417  0.015745676           10 
 3913000   0.61500289   -7.8970218    776.91473   0.01654559  0.015740695            4 
 3914000    0.6206465    -7.898592    778.10287   0.01656666  0.015735719            6 
 3915000   0.62142827   -7.8988462    775.94108  0.016516413  0.015730735           10 
 3916000   0.63242877   -7.9010683    776.46959  0.016523442  0.015725762           10 
 3917000   0.62788176   -7.9092486    777.82046  0.016547963  0.015720792           14 
 3918000   0.63551838   -7.8966832    778.69695  0.016562382   0.01571583            9 
 3919000   0.61813484     -7.91568    777.74017  0.016537811   0.01571087            6 
 3920000   0.62496015   -7.9042223     777.1077  0.016520147  0.015705899            6 
 3921000   0.62645194    -7.906838    777.62824  0.016526996  0.015700932            5 
 3922000   0.60592405   -7.9227161    777.74489  0.016525261  0.015695961           10 
 3923000   0.61361929   -7.9137024    778.37595  0.016534454  0.015690994            9 
 3924000   0.62279337   -7.9144986    777.21723  0.016505633   0.01568603            9 
 3925000   0.63184802   -7.9082034    778.20576  0.016522415  0.015681065            6 
 3926000   0.62302039   -7.9078906    777.08172  0.016494348  0.015676106            8 
 3927000   0.63416169   -7.8979245     778.2292  0.016514498  0.015671151            6 
 3928000   0.62248606   -7.9275907    777.92746  0.016503892  0.015666191            5 
 3929000   0.61869855   -7.9381501    777.55561  0.016491805  0.015661234            5 
 3930000   0.63295944   -7.9302003    777.86692  0.016494209  0.015656275            4 
 3931000    0.6326483   -7.9092139    778.60917  0.016505748  0.015651317            5 
 3932000   0.63327867   -7.9012213    778.55533   0.01650041  0.015646353            7 
 3933000   0.62711274   -7.9071051     778.2378  0.016489486  0.015641398            9 
 3934000   0.61991618   -7.9192325    777.50683  0.016469811   0.01563645            5 
 3935000   0.62504264   -7.9054339     776.4703  0.016443674  0.015631501            6 
 3936000   0.62293442   -7.9201628    777.68701  0.016465257  0.015626553            5 
 3937000    0.6244738   -7.9060608    778.71458  0.016482825   0.01562161            4 
 3938000   0.60967045   -7.9096459    776.82562  0.016438667  0.015616676            5 
 3939000    0.6240293   -7.9137868    778.88032  0.016477962  0.015611728            5 
 3940000   0.62156929   -7.9095587    776.27425   0.01641866  0.015606777            9 
 3941000   0.62241557   -7.9205066    777.11103  0.016432188  0.015601814            5 
 3942000   0.61778021   -7.9190829    776.70191  0.016419371  0.015596853            3 
 3943000   0.61627377    -7.923716    776.07821  0.016402025   0.01559189           13 
 3944000   0.60622899   -7.9084919    775.52401  0.016386156  0.015586935            7 
 3945000   0.62111711   -7.9244233    776.77996  0.016408533  0.015581993            4 
 3946000   0.61589648   -7.9211011    777.89236  0.016427867  0.015577047            3 
 3947000   0.62040757   -7.9247872     777.0525  0.016405973    0.0155721            3 
 3948000   0.62995098   -7.9444353    776.51377  0.016390446  0.015567148            3 
 3949000   0.61738319   -7.9385559    778.48076  0.016427804   0.01556221            5 
 3950000   0.63215542   -7.9478791    777.73046  0.016407816  0.015557269           15 
 3951000   0.61508945   -7.9408529    776.14508  0.016370224  0.015552331            7 
 3952000   0.62179903   -7.9405579    775.45093  0.016351445  0.015547391            6 
 3953000   0.62296259   -7.9400308     777.1769  0.016383694  0.015542455            7 
 3954000   0.61165504   -7.9353449    777.25055  0.016381102  0.015537521            4 
 3955000   0.61921667   -7.9363087    776.39014  0.016358832   0.01553258            8 
 3956000    0.6154083   -7.9147956    776.65103  0.016360192  0.015527647           14 
 3957000   0.61317898   -7.9279582    776.28343  0.016348316  0.015522717            8 
 3958000   0.61978881   -7.9383919    776.02961  0.016338841   0.01551779            5 
 3959000   0.62292991   -7.9336128    776.19098  0.016338111  0.015512854            3 
 3960000   0.61597719   -7.9393099    777.18196  0.016354839  0.015507934            4 
 3961000   0.62404913   -7.9314971    776.46284  0.016335581  0.015503016           14 
 3962000   0.61038046   -7.9270278    776.00291  0.016321784  0.015498103            6 
 3963000   0.61486624   -7.9466635    776.66854  0.016331662  0.015493177            7 
 3964000   0.61866853   -7.9252851    776.85209  0.016331401   0.01548825            5 
 3965000   0.61506835   -7.9158074    777.92688  0.016349871  0.015483333            4 
 3966000   0.60857397   -7.9106069    776.89861  0.016324143  0.015478421            4 
 3967000   0.61599501   -7.9270826      777.006  0.016322284  0.015473518            6 
 3968000   0.59504296   -7.9363361    777.67127  0.016332142  0.015468611           11 
 3969000   0.61853441   -7.9408888    777.63465  0.016327258  0.015463697            5 
 3970000   0.61786579   -7.9414567    776.93526  0.016308465  0.015458795            7 
 3971000   0.61866553   -7.9238809    777.38213  0.016313736  0.015453874            3 
 3972000   0.61968551   -7.9220783    777.99827  0.016322555  0.015448961            4 
 3973000   0.60770336   -7.9447645    776.24919   0.01628176  0.015444056            6 
 3974000   0.61034532   -7.9464221    776.97361  0.016292854  0.015439141            5 
 3975000   0.62061878   -7.9363529    776.34983  0.016275678  0.015434231            8 
 3976000   0.61222099   -7.9361425    776.98739  0.016284947  0.015429316            5 
 3977000   0.60883709   -7.9233586    777.21351   0.01628559  0.015424399            6 
 3978000   0.62260793   -7.9302673    776.60507   0.01626875  0.015419485            5 
 3979000   0.61672261   -7.9497517    776.14679  0.016255064  0.015414579            3 
 3980000   0.60654389   -7.9336365    776.24553  0.016253047  0.015409663            4 
 3981000   0.61626615   -7.9261657    777.45382  0.016274257  0.015404754            3 
 3982000   0.61616042   -7.9452602    776.45815  0.016249333  0.015399847            3 
 3983000   0.62940577   -7.9382334    777.78599  0.016273035  0.015394937            2 
 3984000   0.62691072   -7.9403567    777.77024  0.016268621   0.01539003            6 
 3985000   0.59892829   -7.9523722    776.72469  0.016242674  0.015385132            4 
 3986000   0.60808236   -7.9276333    776.54656  0.016234875  0.015380221            4 
 3987000   0.61440592   -7.9332394     777.1763  0.016243966  0.015375327            3 
 3988000   0.62515637   -7.9449364    776.28425  0.016221252  0.015370434            3 
 3989000   0.62299932   -7.9617739    776.91631   0.01623039  0.015365535            6 
 3990000   0.62469751   -7.9626408    777.16269  0.016231468  0.015360636            8 
 3991000   0.61357945    -7.937974    776.38851  0.016211236   0.01535574            6 
 3992000   0.61470732   -7.9334139    776.78141  0.016215377  0.015350845            8 
 3993000   0.61378439   -7.9433086    776.44874  0.016204373  0.015345958            6 
 3994000   0.61870567   -7.9382292    774.09778  0.016151264  0.015341056            7 
 3995000   0.61342097   -7.9281258       776.71  0.016201711  0.015336163            4 
 3996000   0.60507486   -7.9364016    774.99038  0.016161795  0.015331276            3 
 3997000    0.6042112   -7.9321759    777.63165  0.016212819  0.015326392            6 
 3998000   0.62441469     -7.95923    776.25749  0.016180121   0.01532151            5 
 3999000   0.60095193   -7.9480393    775.67482  0.016163933  0.015316625            7 
 4000000   0.59617854    -7.925549    774.90707  0.016143897  0.015311737            6 
 4001000   0.61410009   -7.9212628    775.79157  0.016158285  0.015306852            7 
 4002000   0.60751575   -7.9397109    776.00411  0.016158673  0.015301966            7 
 4003000   0.60765975   -7.9392173    776.71938  0.016169527  0.015297079            8 
 4004000   0.61121719   -7.9424593    776.03461  0.016151237  0.015292199            4 
 4005000   0.60802014   -7.9519933    777.01708  0.016167646  0.015287322            4 
 4006000   0.61427731   -7.9389408    776.01012  0.016142663  0.015282446            7 
 4007000   0.60579755   -7.9433848    775.43394  0.016126652  0.015277561            7 
 4008000   0.61231117   -7.9513967    776.02882  0.016134997  0.015272676            5 
 4009000   0.61268524   -7.9649795    776.77194  0.016146419  0.015267802            6 
 4010000   0.61022408   -7.9172576    775.98422  0.016126023  0.015262922            5 
 4011000     0.612107   -7.9504221    775.83384  0.016118878  0.015258045           10 
 4012000    0.6059704   -7.9506477     776.5278  0.016129275  0.015253179            4 
 4013000   0.62027505   -7.9375569    776.03476  0.016115017  0.015248306            9 
 4014000   0.61249528   -7.9521706    776.49223    0.0161205  0.015243433            7 
 4015000   0.60952316   -7.9427363    774.60863   0.01607739  0.015238561            6 
 4016000   0.61847615    -7.948547    775.82674  0.016098662  0.015233692            8 
 4017000   0.60848062   -7.9551358    777.73009   0.01613414  0.015228826            4 
 4018000   0.60319754   -7.9425197    776.07164  0.016095728  0.015223961            3 
 4019000   0.62944254   -7.9427952    776.58077   0.01610228   0.01521909            6 
 4020000   0.60433167   -7.9502236     776.6857   0.01610045  0.015214231            7 
 4021000   0.60553552   -7.9592539    775.38592  0.016069508  0.015209371            7 
 4022000   0.60676416   -7.9576916    776.07135  0.016079715  0.015204507            4 
 4023000   0.60884624   -7.9522308    775.52495  0.016064399  0.015199647            7 
 4024000   0.62033923   -7.9347919    775.75312  0.016065132  0.015194793            7 
 4025000   0.59494583   -7.9409827    776.30566  0.016072581  0.015189938            4 
 4026000   0.60228932   -7.9308397    776.66526  0.016076032   0.01518508            4 
 4027000   0.61230717   -7.9569679    777.94038  0.016098427  0.015180222            5 
 4028000   0.60780926   -7.9421555     776.9839  0.016074642  0.015175365            3 
 4029000   0.61380367    -7.979281     775.2721  0.016035246  0.015170509            7 
 4030000   0.60096302   -7.9591914    776.00656  0.016046455  0.015165658           13 
 4031000   0.61246344   -7.9641479    775.35866   0.01602908  0.015160813            8 
 4032000   0.60209636   -7.9395977    775.94903  0.016037306  0.015155954            6 
 4033000   0.61688377   -7.9654552    775.88266  0.016031958  0.015151099            8 
 4034000   0.61513498   -7.9667717    774.98309  0.016009401  0.015146249            6 
 4035000   0.60244431   -7.9532107    775.37834  0.016013596  0.015141386            7 
 4036000   0.60263774   -7.9666573    777.39504  0.016051269  0.015136539            6 
 4037000   0.60545047   -7.9659337    774.56507  0.015988875  0.015131692            5 
 4038000   0.60468226   -7.9667628    775.23514  0.015998744  0.015126843            6 
 4039000   0.60538892   -7.9778689    775.68402  0.016004044  0.015121996            6 
 4040000   0.60722802   -7.9614448    775.44923   0.01599524  0.015117152            6 
 4041000   0.61699249   -7.9460511    774.67548  0.015975325  0.015112306            4 
 4042000   0.60991138   -7.9462357    775.57834  0.015989987   0.01510746            4 
 4043000   0.61244943   -7.9588158    775.30495  0.015980397  0.015102624            4 
 4044000   0.59348854   -7.9994062    775.74165  0.015985444  0.015097784            7 
 4045000   0.59747901   -7.9616133    775.63252  0.015979244  0.015092944            6 
 4046000   0.61501485   -7.9306229    775.51554  0.015972886  0.015088121           10 
 4047000   0.59562462     -7.96544    775.16813  0.015961785  0.015083295            7 
 4048000   0.59617512   -7.9608418    775.82177  0.015971298  0.015078459           10 
 4049000   0.60638223   -7.9533759     774.3794  0.015937668  0.015073622            6 
 4050000   0.59260133    -7.970143    774.65066  0.015939314  0.015068786            4 
 4051000   0.60801533   -7.9591477    775.74449  0.015957881  0.015063949            3 
 4052000   0.60591085   -7.9736658     776.2553  0.015964448  0.015059122            6 
 4053000    0.6086226   -7.9756951    775.37915  0.015942494  0.015054296           11 
 4054000   0.61371657   -7.9610322    775.86392  0.015948527  0.015049469            9 
 4055000   0.60399237   -7.9487129    775.28817  0.015932761  0.015044644            4 
 4056000   0.60232821    -7.955314    776.03446  0.015944166  0.015039822            6 
 4057000   0.59594491   -7.9699313    776.68204  0.015953538  0.015035001            3 
 4058000   0.58583164   -7.9557755    775.76121  0.015930697  0.015030187            4 
 4059000   0.59372489   -7.9514963    775.68444  0.015925196  0.015025381            4 
 4060000   0.59303119   -7.9464837    775.23432  0.015912034   0.01502058            6 
 4061000    0.6001409   -7.9674896    775.98733  0.015923568  0.015015785            3 
 4062000   0.59281038   -7.9686299    776.23005  0.015924628  0.015010988            6 
 4063000   0.59305246   -7.9602631    776.06098  0.015917241  0.015006191            4 
 4064000    0.5926723   -7.9617027    775.45232  0.015900843  0.015001388            3 
 4065000   0.60063811   -7.9661182    777.22139  0.015933198  0.014996592            3 
 4066000   0.60424833   -7.9425766      776.765  0.015919925  0.014991789            6 
 4067000   0.60204069   -7.9812202    775.68778  0.015893939  0.014987002            6 
 4068000   0.59800075   -7.9704187    776.35634  0.015903727  0.014982197            5 
 4069000   0.59018127   -7.9733883     775.8725  0.015889909    0.0149774            8 
 4070000   0.60865968   -7.9705786    775.23636   0.01587298  0.014972609            4 
 4071000   0.61732565   -7.9779055    775.66636  0.015877883  0.014967815            6 
 4072000   0.59581509   -7.9595291    774.46676  0.015849434  0.014963024            5 
 4073000   0.59782087   -7.9701098    776.42067   0.01588552  0.014958226            6 
 4074000   0.60558523   -7.9580155     775.3215  0.015859137  0.014953433            6 
 4075000   0.60431321   -7.9638354    774.49469  0.015838337  0.014948643            7 
 4076000   0.61884539   -7.9550841    776.30699  0.015871504  0.014943853            4 
 4077000   0.60659581   -7.9638681    776.71929  0.015876038  0.014939077            9 
 4078000    0.5946079   -7.9746636    776.97801  0.015877432    0.0149343            4 
 4079000   0.58386968   -7.9780299    775.11876  0.015835555  0.014929522            4 
 4080000   0.59325993   -7.9754384    775.04656  0.015830199  0.014924739            5 
 4081000   0.59635982   -7.9746053    775.71242  0.015839917  0.014919952            6 
 4082000   0.59504423   -7.9814378    775.71731  0.015836136  0.014915166            6 
 4083000   0.60352199   -8.0082667    775.45165  0.015826836   0.01491038            5 
 4084000   0.59854599   -7.9801522    776.41558  0.015842629  0.014905589            5 
 4085000   0.58851216   -7.9907612    774.35698  0.015796756  0.014900798            4 
 4086000   0.59435571    -7.987462    775.94157  0.015825207  0.014896009            5 
 4087000   0.60250035   -7.9559272    774.59763  0.015793933   0.01489122            8 
 4088000   0.59360101   -7.9759608    775.12172  0.015800753  0.014886429            2 
 4089000   0.60008562   -7.9938202    774.69486  0.015788189  0.014881644            4 
 4090000   0.59601689   -7.9897401    775.34953  0.015797668  0.014876864           14 
 4091000   0.60137553   -7.9737162    774.87259  0.015784091  0.014872084            7 
 4092000   0.59625813   -7.9822198    774.10091  0.015764518   0.01486731            4 
 4093000   0.60275002   -7.9750225    776.15454  0.015802479  0.014862534            5 
 4094000   0.59080568   -7.9831621    775.96056   0.01579467  0.014857758            8 
 4095000   0.59258193   -7.9871186    775.33926   0.01577817  0.014852991            5 
 4096000   0.60337896   -7.9694393    774.41045  0.015755421  0.014848218            7 
 4097000   0.60628646   -7.9637926    774.62495  0.015755938  0.014843453           12 
 4098000   0.59146801   -7.9913016    773.03677  0.015719798  0.014838691           11 
 4099000   0.60613683   -8.0041224    775.30247  0.015762025  0.014833924           10 
 4100000   0.58573292   -7.9900208     774.6436  0.015744789  0.014829158            6 
 4101000   0.60681928   -7.9901785    773.91573  0.015726159  0.014824395            5 
 4102000   0.59379885   -7.9761904     775.1751   0.01574791  0.014819642            4 
 4103000   0.58410388   -7.9744914    775.32161  0.015747047  0.014814884            6 
 4104000   0.59628418   -7.9919849    775.23444   0.01574144  0.014810126           11 
 4105000   0.59234296   -7.9880345    775.31742   0.01573929  0.014805367            6 
 4106000   0.59067477   -7.9779979    773.86923  0.015706065   0.01480061            7 
 4107000   0.59492637   -7.9969671    774.81662  0.015721464  0.014795851            5 
 4108000   0.60053502   -7.9980307    774.14049  0.015703921  0.014791102            7 
 4109000   0.58209209   -7.9800689    775.01859  0.015717908  0.014786352            7 
 4110000   0.58754427   -7.9742075    775.20058  0.015717773  0.014781599            8 
 4111000   0.59128613   -7.9829398    774.98206   0.01570952  0.014776847            6 
 4112000   0.59284751   -8.0060428    774.68937  0.015699768  0.014772098            6 
 4113000   0.59536759   -7.9672397    775.17401  0.015705771  0.014767352            4 
 4114000   0.61467515   -7.9741405    774.44919  0.015687271  0.014762606            9 
 4115000   0.59717089   -7.9789794    774.41945  0.015682856  0.014757861            5 
 4116000   0.58783421   -7.9897425    774.54823  0.015681654  0.014753118            6 
 4117000    0.5775569   -8.0001229    774.22659  0.015671334  0.014748367            6 
 4118000   0.58972548   -7.9913788    774.70496  0.015677209  0.014743621            5 
 4119000   0.58474409    -7.997478    772.48617  0.015628514  0.014738873           14 
 4120000   0.58869262   -7.9674438    773.33199  0.015641828  0.014734121            6 
 4121000    0.5920409   -7.9877235    775.13448  0.015674482   0.01472938            5 
 4122000   0.58904503   -7.9927803    774.35029  0.015654825  0.014724634            3 
 4123000   0.59828217   -7.9864242    774.00963  0.015644143  0.014719896            8 
 4124000   0.57607816   -7.9661329    774.85432  0.015657418   0.01471515            4 
 4125000   0.59110229   -8.0032808    774.87355  0.015654011  0.014710415            5 
 4126000    0.5790843    -7.975129    774.60832   0.01564486  0.014705684            6 
 4127000    0.6033114   -7.9864235    775.23976   0.01565382  0.014700952            7 
 4128000   0.59104159   -7.9917082     775.5926   0.01565715  0.014696226            6 
 4129000   0.59903923   -7.9695147    775.13355  0.015644094  0.014691505            3 
 4130000   0.59628585   -7.9670641    774.00636  0.015617562  0.014686785            5 
 4131000   0.60208289   -7.9800755    775.21344  0.015638131  0.014682065            7 
 4132000    0.5987714   -7.9654816    774.26555   0.01561523  0.014677351            3 
 4133000   0.59253634   -7.9759194    775.25644  0.015631431  0.014672651            7 
 4134000   0.59175673   -7.9897309    775.36274  0.015629792  0.014667939            6 
 4135000   0.58725215   -7.9732873    775.28991  0.015624545  0.014663222            4 
 4136000    0.5990418   -7.9693944     772.4805  0.015564162  0.014658518            4 
 4137000   0.58523901   -8.0127452    775.00599  0.015611272   0.01465381            6 
 4138000   0.58069947   -7.9853291    775.62291  0.015619923    0.0146491           10 
 4139000   0.58256374   -8.0092909    774.66484   0.01559686  0.014644388            7 
 4140000   0.58277032   -7.9993823    774.22384  0.015584216  0.014639679            7 
 4141000   0.60373385    -7.977634     774.6567  0.015589163  0.014634977            4 
 4142000   0.58657323   -7.9961495    776.16603  0.015615766  0.014630273            8 
 4143000    0.5785518   -7.9895364    775.26883   0.01559395  0.014625568            4 
 4144000   0.60339628   -7.9805176    774.93591  0.015583492  0.014620868            4 
 4145000   0.59512564   -8.0071608    774.53079  0.015571588  0.014616161           11 
 4146000   0.59316943   -7.9839824     773.5546  0.015548211  0.014611457            5 
 4147000   0.59001212    -7.986496    774.82865  0.015570064  0.014606752            5 
 4148000    0.5891486   -7.9897158     774.3449  0.015556591  0.014602047           11 
 4149000   0.57054254   -8.0163896    774.92568  0.015564507  0.014597343            5 
 4150000   0.58199674    -7.998672    774.88051   0.01555985  0.014592644            4 
 4151000   0.59028322   -8.0062252    775.01605  0.015558822  0.014587954            7 
 4152000   0.59251352   -8.0076983    774.72861  0.015549306  0.014583259            5 
 4153000   0.57413633   -7.9995551    773.80404  0.015527009  0.014578563            8 
 4154000   0.59219258   -7.9760562    774.01091  0.015527422   0.01457387           18 
 4155000   0.59211052   -7.9916256    774.22838  0.015528046  0.014569187            9 
 4156000    0.5995918   -8.0245336    774.13612   0.01552246  0.014564493           14 
 4157000   0.59446079   -7.9944537    774.79095  0.015531853  0.014559807            9 
 4158000   0.57927195   -7.9906657    775.50608   0.01554245   0.01455512           12 
 4159000   0.57672294   -8.0113876    774.68158  0.015522193  0.014550438            7 
 4160000     0.576008   -8.0103055    775.24657  0.015529779  0.014545756            9 
 4161000   0.58350492   -8.0043232    774.35953  0.015508282  0.014541073            5 
 4162000   0.58494707   -8.0089303    773.49337  0.015487213  0.014536393            6 
 4163000   0.58166235    -7.977384    773.79977  0.015489626  0.014531711            9 
 4164000   0.59325115   -7.9937878    773.81846   0.01548628  0.014527029            8 
 4165000   0.60901461    -7.996363    773.63108  0.015478813  0.014522351            7 
 4166000   0.59521603   -8.0044384    774.94518  0.015501384  0.014517672            7 
 4167000   0.58090561   -8.0010322    774.69215  0.015492604  0.014512996            4 
 4168000    0.5833166   -8.0084516    774.30772    0.0154812  0.014508323            5 
 4169000    0.5803107   -7.9974379    773.83475  0.015468033  0.014503654            8 
 4170000   0.59311724   -7.9969323    773.58831  0.015459399  0.014498984            5 
 4171000   0.60082881   -7.9883293    773.29825  0.015449897  0.014494315            5 
 4172000   0.58879957   -8.0078062    773.32839  0.015446796  0.014489638           17 
 4173000   0.57316459   -8.0102734    773.64494  0.015449416   0.01448496            8 
 4174000   0.57228923   -8.0069814    774.03203  0.015453443  0.014480292           11 
 4175000   0.57868675   -8.0075951    774.73646  0.015463802  0.014475623            5 
 4176000   0.58539054   -7.9761591    774.00586  0.015445519  0.014470958            7 
 4177000    0.5616795   -8.0018522    772.70952  0.015415959  0.014466289            6 
 4178000    0.5870539   -8.0112423    774.31965  0.015444384  0.014461625            5 
 4179000   0.58133564    -8.018181    774.30985  0.015440493   0.01445697            6 
 4180000   0.58948684   -8.0336735    774.23108  0.015435229  0.014452315           10 
 4181000   0.59255834   -8.0112073    773.78779  0.015422702  0.014447651            6 
 4182000   0.58233368   -8.0042164    773.67961  0.015416858  0.014442994            5 
 4183000   0.58259515   -8.0156691    774.25517  0.015424639  0.014438334            9 
 4184000   0.57925591    -8.003771    774.99542  0.015435696  0.014433674            8 
 4185000   0.58083764   -8.0162072    773.86199  0.015409438  0.014429025           13 
 4186000   0.57170371   -7.9852168    773.23783  0.015393332  0.014424377            8 
 4187000   0.56854414   -8.0074496    773.28782   0.01539065  0.014419723           13 
 4188000     0.576159   -8.0171764    774.05895  0.015402319  0.014415078            6 
 4189000   0.57546139   -8.0234375    773.31606  0.015383864  0.014410432           10 
 4190000   0.59095099   -8.0184474    773.96363  0.015393071  0.014405784            8 
 4191000    0.5724536   -8.0077916    774.02928  0.015390704  0.014401144           10 
 4192000   0.58559634   -8.0073597    773.41485  0.015374818  0.014396506           10 
 4193000   0.58964018   -8.0147075    773.56711  0.015374177  0.014391865           12 
 4194000   0.58001219   -8.0114541    773.44909  0.015368167  0.014387235           24 
 4195000   0.58092125   -8.0106649    774.68155  0.015388986  0.014382604           14 
 4196000    0.5767577   -7.9955128    774.62753  0.015384245  0.014377974            9 
 4197000   0.57046853   -8.0204627    774.07963  0.015369701  0.014373351           14 
 4198000   0.57204842   -8.0002753    774.87245  0.015381778  0.014368729           12 
 4199000   0.59261631   -8.0349179    774.87169    0.0153781  0.014364112           12 
 4200000   0.57430306   -8.0262869    773.99863  0.015357116  0.014359492           10 
 4201000   0.58250019   -8.0092157    774.81416  0.015369637  0.014354875            5 
 4202000   0.57793862   -8.0194138    774.37242  0.015357219  0.014350267           10 
 4203000   0.57922962    -7.988235    774.01128  0.015346405  0.014345657           12 
 4204000   0.56514075   -8.0064088    772.17374   0.01530633  0.014341039            8 
 4205000   0.58637899   -7.9932743    773.99798  0.015338842   0.01433642            5 
 4206000   0.57238184   -8.0150974    774.04956  0.015336217  0.014331803            8 
 4207000   0.57142538   -8.0174454    775.92908  0.015369802  0.014327187           10 
 4208000   0.58758912   -8.0134069     773.6634  0.015321281  0.014322568            8 
 4209000   0.58230421   -8.0337382      773.152  0.015307516  0.014317958            7 
 4210000   0.57064629   -8.0254569    774.61246  0.015332788  0.014313344            7 
 4211000   0.57548624   -8.0142136    774.10384  0.015319082  0.014308735           15 
 4212000   0.58307056   -8.0073879    773.70879  0.015307629  0.014304131            9 
 4213000   0.57826088   -7.9997645    773.29246   0.01529576   0.01429953           14 
 4214000   0.57787099   -8.0017169     773.3994  0.015294245  0.014294924            9 
 4215000   0.59286822   -8.0224121    773.23351  0.015287337  0.014290323           21 
 4216000   0.56814919   -8.0263549    773.65019  0.015291947  0.014285713            7 
 4217000   0.56680342   -8.0195872    775.17772  0.015318507  0.014281111           12 
 4218000   0.56762255   -8.0086702    773.41014  0.015279954  0.014276515           12 
 4219000   0.56013197   -8.0157313      773.888  0.015285771   0.01427192           10 
 4220000   0.56866313   -8.0036013    774.04192  0.015285188  0.014267323           13 
 4221000     0.571048   -8.0142175    773.31771  0.015267269  0.014262733           24 
 4222000   0.57363784   -8.0133864    774.69769  0.015290891  0.014258142           19 
 4223000   0.57382117   -8.0269419    773.74214  0.015268414  0.014253557           23 
 4224000   0.56617646   -8.0315567    774.09213  0.015271704  0.014248971           13 
 4225000   0.58827354   -8.0148673     772.7896  0.015242398  0.014244384           13 
 4226000    0.5818458   -8.0222785    772.85872  0.015240155  0.014239794           10 
 4227000   0.58342293   -8.0032552    774.39923   0.01526692  0.014235203           12 
 4228000   0.57410762   -8.0233721    774.38331  0.015262995  0.014230614           15 
 4229000   0.57665229   -8.0017783     772.6353  0.015224941  0.014226026            7 
 4230000   0.57228026   -8.0295837    771.89755  0.015206807  0.014221435           13 
 4231000   0.57327319   -8.0096843    773.18749   0.01522862  0.014216852           22 
 4232000     0.586584   -8.0235953    773.42498  0.015229698  0.014212273           17 
 4233000   0.58595468   -8.0360678    773.10197  0.015219741    0.0142077           11 
 4234000   0.57623788   -8.0199976    773.35352  0.015221097  0.014203124           20 
 4235000   0.58070893   -8.0194956    773.98352    0.0152299  0.014198549           14 
 4236000   0.57672181    -8.038892      773.778  0.015222262  0.014193973            7 
 4237000   0.57535816   -8.0070921       773.55  0.015214185  0.014189406           20 
 4238000   0.57472379   -8.0343447    773.23655  0.015204431  0.014184835           15 
 4239000   0.56911594   -8.0347616    773.42357  0.015204521  0.014180264           16 
 4240000   0.57225415   -8.0407868    775.51141  0.015241969  0.014175691            8 
 4241000   0.58390768   -8.0203045     773.3415  0.015195738  0.014171126           11 
 4242000   0.57274362   -8.0036188    773.45522   0.01519439  0.014166562            6 
 4243000   0.57174803   -8.0196044    773.90697  0.015199681  0.014162001           17 
 4244000   0.57796492   -8.0325608    773.62821  0.015190626  0.014157434           15 
 4245000   0.56997039   -8.0205626    773.03697  0.015175441   0.01415287            8 
 4246000   0.57813711   -8.0228313    772.80619  0.015167338  0.014148307           12 
 4247000   0.57346343   -8.0346597    774.25296  0.015192154   0.01414375           12 
 4248000   0.57106003   -8.0265177    772.51683   0.01515452  0.014139191           16 
 4249000   0.57029259    -8.011113    773.79088  0.015175941  0.014134632           15 
 4250000   0.57543662   -8.0402659    773.60733  0.015168771  0.014130078           17 
 4251000   0.57495657   -8.0136384    773.12143  0.015155678  0.014125519           23 
 4252000   0.57256055   -8.0345852     773.0555  0.015150821  0.014120958           18 
 4253000   0.57063338   -8.0441651    773.86498   0.01516312  0.014116398           18 
 4254000   0.57208931   -8.0340539    774.31568  0.015168384  0.014111847           22 
 4255000   0.56640989   -8.0272908    773.72772  0.015153304  0.014107288           16 
 4256000   0.57049235   -8.0283326    773.47859  0.015144866  0.014102733           20 
 4257000   0.57013843   -8.0300261    774.88108  0.015168763  0.014098185           23 
 4258000   0.57626418   -8.0415468    772.92781  0.015126973  0.014093641           13 
 4259000    0.5702432   -8.0202931    772.40244  0.015113142  0.014089094           11 
 4260000    0.5766171   -8.0407031    772.19232  0.015105484  0.014084548           36 
 4261000   0.55940945   -8.0231279    773.11307  0.015119946  0.014079996           11 
 4262000   0.57280582   -8.0334699    772.64258  0.015107199  0.014075448           16 
 4263000    0.5678837    -8.025662    772.88998  0.015108491  0.014070902            9 
 4264000   0.58091753    -8.050381     772.4009   0.01509539  0.014066354           11 
 4265000    0.5740472   -8.0478664    773.11363  0.015105776  0.014061804           16 
 4266000    0.5645396   -8.0564403    773.64765  0.015112667  0.014057266           21 
 4267000   0.56280814   -8.0382591    773.20008  0.015100384  0.014052731           22 
 4268000   0.56242284   -8.0194348     772.8548  0.015090105  0.014048196            9 
 4269000   0.56854479   -8.0278857    773.31643  0.015095581  0.014043668            8 
 4270000   0.57657075   -8.0282853    772.60838  0.015078228  0.014039139           23 
 4271000   0.57119894   -8.0380258    772.57951  0.015074134  0.014034611           19 
 4272000   0.56678672   -8.0160933    773.55786   0.01508969  0.014030089           19 
 4273000   0.56228072   -8.0442527    772.18561  0.015059396  0.014025563           14 
 4274000   0.56117496   -8.0397614    772.42615  0.015060563  0.014021035           32 
 4275000   0.56546751   -8.0377957    772.29752  0.015054533  0.014016513           23 
 4276000   0.57676199   -8.0334308    772.68576  0.015058578  0.014011991           16 
 4277000   0.57617134   -8.0343496    772.58585  0.015053111  0.014007464           18 
 4278000   0.55752071   -8.0450688    772.65127  0.015050866  0.014002946           13 
 4279000   0.57183642   -8.0367898     773.0477  0.015055069  0.013998426           17 
 4280000    0.5688265   -8.0304303    773.30379  0.015056538  0.013993912           18 
 4281000   0.56591389   -8.0419861    772.60146  0.015039349  0.013989398            9 
 4282000   0.56813893   -8.0512862    773.73739  0.015057944  0.013984895            9 
 4283000   0.57276103   -8.0274055    774.17352  0.015062914   0.01398039            9 
 4284000   0.55763166   -8.0654882    772.57356  0.015028275  0.013975882           10 
 4285000   0.56343107   -8.0262247    772.58369  0.015024965  0.013971376            8 
 4286000   0.56449674   -8.0330031    772.73929  0.015024485  0.013966879           12 
 4287000   0.56761766   -8.0392059    772.88302  0.015023774  0.013962379           16 
 4288000   0.57251748   -8.0409467    772.57824  0.015014347  0.013957879            9 
 4289000   0.56580071    -8.046006    773.33789  0.015025606  0.013953388           10 
 4290000   0.54883007   -8.0055823    773.16911  0.015018825  0.013948896           12 
 4291000      0.55336   -8.0337667     772.9734  0.015011524  0.013944395           18 
 4292000   0.56445522   -8.0336108    773.34701  0.015015281  0.013939901            8 
 4293000   0.55515837   -8.0542457    771.75989  0.014980975  0.013935403           14 
 4294000   0.57009299   -8.0493942    772.60125  0.014993814  0.013930911           15 
 4295000   0.56503596   -8.0367121    773.37035  0.015005245  0.013926422           10 
 4296000    0.5690396   -8.0317627    774.34153  0.015020591  0.013921931           13 
 4297000    0.5574815    -8.046385    772.58719  0.014983073  0.013917448            7 
 4298000   0.55930991   -8.0375049    771.93901   0.01496702  0.013912965           13 
 4299000   0.56192477    -8.061051    772.72591  0.014978792  0.013908478           12 
 4300000   0.56373771   -8.0501275    772.70717  0.014974945  0.013903986           11 
 4301000   0.56845309    -8.041912    773.46208   0.01498609  0.013899503           11 
 4302000    0.5489056    -8.034933    772.59547   0.01496582  0.013895022           10 
 4303000    0.5627174   -8.0480257    772.36882  0.014957952  0.013890541           13 
 4304000   0.56157181   -8.0597536    772.41816  0.014955432  0.013886062            5 
 4305000   0.56773412   -8.0701662    773.24712  0.014968005  0.013881588           15 
 4306000   0.56968199   -8.0492262    772.92346  0.014958265  0.013877113            9 
 4307000    0.5537612   -8.0332657    772.82411   0.01495287   0.01387264           12 
 4308000   0.55629233   -8.0502861    773.23729  0.014957391  0.013868173            8 
 4309000    0.5804278   -8.0437014     771.7586  0.014925323  0.013863708           10 
 4310000   0.55717165   -8.0481125    772.95237  0.014944941  0.013859243           14 
 4311000   0.56592406   -8.0533073    772.65143  0.014935657  0.013854772           14 
 4312000   0.56170509   -8.0375223     771.9336  0.014918321   0.01385031           11 
 4313000   0.56939889   -8.0503443    772.92929    0.0149341  0.013845851           14 
 4314000   0.55719084   -8.0494853    772.63496  0.014924953  0.013841389            7 
 4315000   0.56161059   -8.0412793    773.89371  0.014945804  0.013836931            6 
 4316000   0.54722054   -8.0431171    772.75054  0.014920268  0.013832478            4 
 4317000    0.5557661    -8.027596     772.8857  0.014919421  0.013828025            7 
 4318000   0.55566317   -8.0484226    772.67886  0.014911974  0.013823581            9 
 4319000   0.57689886   -8.0620076    773.18299  0.014918249  0.013819129            6 
 4320000   0.55820062   -8.0556437    774.05935    0.0149317  0.013814683            7 
 4321000   0.55437217   -8.0352062    773.66334  0.014920608  0.013810241           10 
 4322000   0.56138341   -8.0665507    772.18605  0.014888671  0.013805795            7 
 4323000   0.57356173   -8.0498977    771.54293   0.01487283  0.013801352            8 
 4324000   0.57177279   -8.0388703    772.91892  0.014895909  0.013796909           15 
 4325000    0.5552987   -8.0608906    772.88935  0.014891895  0.013792469           11 
 4326000   0.56089087   -8.0421876    772.14701  0.014874153  0.013788037            9 
 4327000   0.55841678   -8.0387767    773.18493  0.014890704  0.013783596           12 
 4328000    0.5605713   -8.0490481    772.29758  0.014870178  0.013779167            7 
 4329000   0.56230009   -8.0579905    772.99743  0.014880215  0.013774727           11 
 4330000     0.556619   -8.0658947     773.8178  0.014892567  0.013770292            6 
 4331000   0.54540858   -8.0490887    772.22745  0.014858529  0.013765854            7 
 4332000   0.55772938   -8.0655116    773.51474  0.014879862  0.013761419           11 
 4333000    0.5479092   -8.0583918    771.21845  0.014832265  0.013756993           12 
 4334000   0.55835341    -8.050838    774.14576  0.014885128  0.013752566            7 
 4335000     0.557679   -8.0550937    773.99358  0.014878769  0.013748145            5 
 4336000   0.54863165   -8.0494351    771.78625  0.014832915   0.01374372            5 
 4337000    0.5582311   -8.0801976    773.57469  0.014863859  0.013739297           11 
 4338000   0.55539099   -8.0744787    772.64473  0.014842568  0.013734875            6 
 4339000   0.55038828   -8.0824813    772.85499  0.014843186   0.01373045            8 
 4340000   0.55630693   -8.0648757    771.81674   0.01481983  0.013726023           10 
 4341000   0.56757219   -8.0548028    773.56995  0.014850072  0.013721598            7 
 4342000   0.55796483   -8.0500293     772.3009  0.014822296  0.013717176            9 
 4343000   0.55628818   -8.0437041    773.16711  0.014835504   0.01371275            9 
 4344000    0.5545281   -8.0559851    771.36313  0.014797482  0.013708328            7 
 4345000   0.55808287   -8.0617205    771.79085  0.014802279  0.013703904           15 
 4346000   0.55749134   -8.0728088    772.22857  0.014807267   0.01369948           13 
 4347000   0.55227139    -8.065552    771.52354  0.014790345  0.013695059            4 
 4348000   0.55548369   -8.0620025    771.20164  0.014780774  0.013690643            4 
 4349000   0.54882564    -8.065523    772.51638  0.014802567  0.013686224           11 
 4350000   0.55386376   -8.0702422    771.10877  0.014772199  0.013681808            9 
 4351000   0.56060448   -8.0730736    772.33034    0.0147922  0.013677389            5 
 4352000   0.54572406   -8.0684231    772.25067  0.014787275  0.013672976            8 
 4353000   0.54499505   -8.0517773    772.67805   0.01479206  0.013668559            6 
 4354000   0.55167526    -8.065036    771.42849  0.014764747  0.013664147           11 
 4355000   0.55560053   -8.0478725    772.98659  0.014791171  0.013659737            5 
 4356000    0.5618797   -8.0453758    772.35511  0.014775695  0.013655326            6 
 4357000   0.55701273   -8.0633764     771.5921   0.01475771  0.013650918           14 
 4358000   0.53807084   -8.0527489    771.26661  0.014748099  0.013646514            9 
 4359000   0.55600975   -8.0552523    772.09798   0.01476061   0.01364211            8 
 4360000   0.54083861   -8.0603623    771.55206   0.01474679   0.01363771           10 
 4361000   0.56418864   -8.0769031    772.99584  0.014770998  0.013633313            6 
 4362000   0.55599463   -8.0592003    772.01081  0.014748793  0.013628917           18 
 4363000   0.54818521   -8.0691053    772.05318  0.014746222  0.013624522            7 
 4364000   0.55441717   -8.0593088    771.59769  0.014734145   0.01362013            6 
 4365000   0.55042702   -8.0600137    772.00614  0.014738567  0.013615743            7 
 4366000   0.54669936   -8.0597643     771.5105  0.014725731  0.013611351            7 
 4367000   0.56434957   -8.0667517    772.13657  0.014734306   0.01360697            8 
 4368000   0.56100221    -8.056587    771.68267  0.014722273  0.013602587            5 
 4369000   0.54641617   -8.0873165     772.5916   0.01473624  0.013598202            6 
 4370000   0.55304366   -8.0640086    772.03523  0.014722258  0.013593819            7 
 4371000   0.56050264   -8.0521879    772.72805  0.014732099  0.013589437            7 
 4372000   0.55030516   -8.0604459    771.30829  0.014701668  0.013585058            8 
 4373000   0.55920654   -8.0592322    771.42914  0.014700609  0.013580685            8 
 4374000   0.56770015   -8.0494077    772.33441  0.014714495  0.013576311            8 
 4375000   0.54673458   -8.0449438    771.55085  0.014696207  0.013571937           19 
 4376000   0.55320241   -8.0649046    771.62165  0.014694197  0.013567555           16 
 4377000   0.54826229   -8.0676476    772.91942  0.014715548  0.013563181           13 
 4378000   0.54054107   -8.0471245    771.93703  0.014693487  0.013558807            9 
 4379000    0.5418892   -8.0645869     773.4065  0.014718096  0.013554438           15 
 4380000   0.55204835   -8.0669593    771.51053  0.014678663   0.01355007           14 
 4381000   0.55328189    -8.061346    773.27206   0.01470882  0.013545698            8 
 4382000   0.55077784   -8.0767969     772.4338  0.014689521  0.013541332           12 
 4383000   0.55178027   -8.0766224    770.71919   0.01465357  0.013536965           12 
 4384000   0.54743951   -8.0796356    772.30987  0.014680464  0.013532606           13 
 4385000   0.54472984   -8.0624908    771.89688  0.014669268  0.013528253           10 
 4386000    0.5442213   -8.0648086    771.80122  0.014664106  0.013523888            9 
 4387000   0.54949775   -8.0668895    771.71594  0.014659143  0.013519528           10 
 4388000   0.56081508   -8.0805335    771.11866  0.014644459  0.013515167            7 
 4389000   0.56079755   -8.0881587    770.63453  0.014631931  0.013510807            7 
 4390000    0.5581359   -8.0936928    772.74962  0.014668748  0.013506448            7 
 4391000   0.54700547   -8.0763156    772.02127  0.014651584   0.01350209           10 
 4392000   0.54801326   -8.0626099    771.99367  0.014647724  0.013497733           19 
 4393000   0.54258914   -8.0622743    771.24103  0.014630113  0.013493384           15 
 4394000   0.55997319   -8.0910121    771.55036   0.01463265  0.013489037            8 
 4395000   0.54671016   -8.0670145    770.87209   0.01461646  0.013484691           12 
 4396000   0.54081772   -8.0703518    772.62038  0.014646277  0.013480341            7 
 4397000   0.53553296   -8.0634969    771.85311  0.014628404  0.013476004            6 
 4398000   0.55832253   -8.0771081    771.77581  0.014623613  0.013471662           11 
 4399000   0.55075896   -8.0671789    771.44675  0.014614055  0.013467321            9 
 4400000   0.54602935   -8.0850223    771.57421  0.014613148  0.013462981            6 
 4401000   0.55193364   -8.0728619    771.75011  0.014613158  0.013458643           16 
 4402000   0.52732292   -8.1031592    770.69263   0.01458982    0.0134543           12 
 4403000   0.56170596   -8.0482043    772.09372  0.014613024  0.013449963            5 
 4404000   0.54421376   -8.0844555    771.24119  0.014593574  0.013445629            3 
 4405000   0.54084321   -8.0772672    770.21435  0.014570835  0.013441291            7 
 4406000   0.55020158   -8.0701411    771.50315  0.014591904  0.013436952            7 
 4407000    0.5458132   -8.0681064    770.74798  0.014574313  0.013432621            8 
 4408000   0.55292144   -8.0732144    771.58798  0.014586887   0.01342829            8 
 4409000   0.54986443   -8.0774642    772.67228  0.014604073  0.013423959            7 
 4410000   0.55110079   -8.0817483    772.01256  0.014588295  0.013419634            7 
 4411000   0.54915736   -8.0521828    771.47768  0.014574882  0.013415309            8 
 4412000   0.54633372   -8.0734621    771.48004  0.014571624  0.013410984           10 
 4413000   0.53898809     -8.10449    770.91769  0.014557702  0.013406659            8 
 4414000   0.54876058   -8.0793016    770.62421  0.014548864  0.013402332            5 
 4415000   0.56188754   -8.0631515    771.95184  0.014570627  0.013398013            6 
 4416000   0.54068448   -8.0794294     770.5379  0.014540646  0.013393697           10 
 4417000    0.5460812   -8.1144214    771.50687  0.014555635  0.013389384            6 
 4418000   0.54533503     -8.06606    771.42324  0.014550763  0.013385068           11 
 4419000   0.54249491   -8.0817201    772.40307  0.014565948  0.013380756           11 
 4420000   0.53581361   -8.0905234     771.5234  0.014546067  0.013376444           10 
 4421000   0.54818429    -8.080926    769.94399  0.014513006  0.013372134            7 
 4422000   0.55590819   -8.0820824    770.62574  0.014522572  0.013367814           11 
 4423000   0.54707107   -8.0642052     771.1527  0.014529217  0.013363504            5 
 4424000    0.5510171   -8.0848085    770.54394  0.014514465  0.013359196            9 
 4425000   0.53367137   -8.0714987    769.66051  0.014494548  0.013354886           10 
 4426000   0.54423026   -8.0823038    771.02875  0.014517035   0.01335058            6 
 4427000   0.54986212   -8.0662478    772.37632  0.014539122  0.013346279            7 
 4428000   0.54711366   -8.0775094      770.568  0.014501807   0.01334198           14 
 4429000   0.52988405   -8.0885582    770.77967  0.014502515  0.013337682            5 
 4430000   0.53676922   -8.0958447    769.41922   0.01447365  0.013333385            4 
 4431000   0.53598965   -8.0909786     771.5827  0.014511072  0.013329092            4 
 4432000   0.54387729   -8.0972864    770.89365  0.014494842  0.013324799            8 
 4433000   0.55695229   -8.1012572     770.8059  0.014489922  0.013320505           10 
 4434000   0.54677239   -8.0749529       771.71  0.014503646  0.013316215            7 
 4435000   0.53603714   -8.0741611     771.1939  0.014490678  0.013311925            9 
 4436000   0.54046334    -8.074909    770.80437  0.014480094  0.013307635            4 
 4437000   0.54134942   -8.0679242    770.77602  0.014476298  0.013303346           10 
 4438000   0.53771759   -8.0909366    771.56966  0.014487939  0.013299057            6 
 4439000   0.54435541   -8.0918127    771.44711  0.014482374  0.013294774            7 
 4440000    0.5381749   -8.1222126    771.93341   0.01448824   0.01329049            7 
 4441000   0.53346478   -8.0855108    770.62344  0.014460396  0.013286207            6 
 4442000   0.54385705   -8.0971877    770.62352  0.014457142   0.01328193            8 
 4443000   0.53875217   -8.0659675    771.83042  0.014476525   0.01327765            6 
 4444000   0.53917385    -8.088655    770.09995  0.014440818  0.013273376           10 
 4445000   0.56048748   -8.0901026    772.02848  0.014473725  0.013269106            6 
 4446000    0.5449566   -8.0884433    771.05304  0.014452186  0.013264835            8 
 4447000   0.53536741   -8.0814208     772.9365  0.014484231  0.013260564            7 
 4448000    0.5510959   -8.0645295    771.99722  0.014463377    0.0132563            6 
 4449000   0.53591397   -8.1016027    771.36804  0.014448341  0.013252036            7 
 4450000    0.5292077   -8.1001544    772.52807  0.014466818  0.013247769            6 
 4451000   0.53766404   -8.0838353    770.80533  0.014431314  0.013243502            8 
 4452000   0.53115475   -8.0864408    770.96269  0.014431018  0.013239238            5 
 4453000   0.53261029   -8.0728877    771.88842  0.014445101  0.013234974            5 
 4454000   0.54203444   -8.0650598    770.71783  0.014419956  0.013230714            8 
 4455000   0.54133715    -8.066786     772.2951  0.014446223  0.013226457            7 
 4456000   0.53568625   -8.0929301    771.54127  0.014428884  0.013222199            9 
 4457000   0.53661546   -8.0933321    772.01334  0.014434473  0.013217943            6 
 4458000   0.55208029   -8.0997291     771.3314  0.014418487  0.013213692            9 
 4459000   0.54153616    -8.097903    771.11585  0.014411225  0.013209438            8 
 4460000   0.52044635    -8.087365    772.09268  0.014426246  0.013205186            6 
 4461000    0.5326604   -8.0793184    769.95803  0.014383136  0.013200932           12 
 4462000   0.53531022    -8.107133     770.7177    0.0143941  0.013196681            6 
 4463000   0.53378361   -8.0900997    770.94035  0.014395032  0.013192433            3 
 4464000   0.53834334   -8.0991823    770.76204  0.014388479  0.013188189            6 
 4465000   0.53110904   -8.0703836    770.97156  0.014389167  0.013183944            3 
 4466000    0.5243824   -8.1147235    770.66123  0.014380154    0.0131797            9 
 4467000   0.53283842   -8.0982241    770.15993  0.014367583   0.01317545           10 
 4468000   0.53333845   -8.0892465      770.418  0.014369181  0.013171208            5 
 4469000   0.52577948   -8.1085461     771.5109  0.014386345  0.013166969            4 
 4470000   0.53326257   -8.0996199    771.72959  0.014387203  0.013162721            8 
 4471000   0.52776152   -8.0921123    770.64519  0.014363774   0.01315848            4 
 4472000    0.5347767   -8.0931475    769.51659  0.014339531  0.013154244            7 
 4473000   0.54094233   -8.1089925    770.50248  0.014354693  0.013150008            5 
 4474000   0.55146022   -8.1014473    771.76308  0.014374964  0.013145771            6 
 4475000    0.5463012   -8.1053802    770.41518  0.014346651  0.013141539            7 
 4476000   0.54413578   -8.0985544    771.82624  0.014369717  0.013137305            4 
 4477000   0.53440081    -8.109708    769.49502  0.014323115  0.013133072            7 
 4478000   0.52991027   -8.0980101    769.26648  0.014315663  0.013128843            6 
 4479000   0.53458164   -8.0991953    769.86114  0.014323531  0.013124614            4 
 4480000   0.53907977   -8.1050327    771.76634  0.014355773  0.013120386            6 
 4481000   0.53468402   -8.1062481    770.91911  0.014336813  0.013116162            4 
 4482000    0.5372697   -8.1028385    771.23423  0.014339473  0.013111945            4 
 4483000    0.5357734   -8.0962732    770.29989  0.014318906  0.013107726            4 
 4484000   0.52459689   -8.1086122    771.62552  0.014340349  0.013103507           12 
 4485000   0.52434364    -8.118747    770.01961  0.014307314  0.013099289            6 
 4486000   0.53301984   -8.1151028    770.91801  0.014320813  0.013095069            6 
 4487000   0.53834065    -8.110591    770.00008  0.014300573  0.013090846            5 
 4488000   0.53420929   -8.1164161    769.79228  0.014293529  0.013086626            8 
 4489000   0.52834832   -8.1071752    770.63079  0.014305911  0.013082413            4 
 4490000   0.53324285   -8.0952556    771.55206  0.014319823  0.013078201            6 
 4491000   0.52739655   -8.1045561    771.06771  0.014307647  0.013073987            3 
 4492000   0.53957291   -8.0915962    770.45818  0.014293154  0.013069778            4 
 4493000   0.53162488   -8.1026221    770.37776  0.014288481  0.013065569            7 
 4494000   0.54081975   -8.0989791    770.87017  0.014294433  0.013061363            6 
 4495000   0.53040452   -8.0919132    770.87358  0.014291316   0.01305716            6 
 4496000   0.52539501    -8.118491    770.57741  0.014282648  0.013052948            5 
 4497000   0.53511783   -8.1159799    770.15561  0.014271655  0.013048745            5 
 4498000   0.54004314   -8.1200206    770.64853  0.014277615  0.013044541            7 
 4499000   0.52788889   -8.0963904    769.94803  0.014261466  0.013040334            5 
 4500000   0.52782096   -8.0952763    768.32072  0.014228161   0.01303613            5 
 4501000   0.53416317   -8.1142122    770.17346  0.014259303  0.013031928            7 
 4502000   0.51698304   -8.0946015    770.56498  0.014263383  0.013027728            6 
 4503000   0.53097695   -8.0989592     770.5017  0.014259044  0.013023529           10 
 4504000   0.53510352   -8.1149292      769.667  0.014240434  0.013019334            6 
 4505000   0.52389188   -8.1102276    770.23679  0.014247813  0.013015139            5 
 4506000   0.53164308   -8.1326682    768.96972  0.014221218  0.013010948            4 
 4507000   0.52722244   -8.1047899     769.0085   0.01421878  0.013006753            7 
 4508000   0.53033301   -8.1019916    769.97305  0.014233456   0.01300256            5 
 4509000   0.53865134   -8.1016092    770.67073  0.014243194   0.01299837            4 
 4510000    0.5342894   -8.1308454    770.39179  0.014234882  0.012994175            4 
 4511000    0.5301913   -8.1266119     771.4608  0.014251474  0.012989982            4 
 4512000   0.53443936   -8.1132148    768.62156  0.014195877  0.012985793            5 
 4513000   0.53023138   -8.1206533    768.70472  0.014194267  0.012981604            3 
 4514000   0.52990406   -8.1220212    770.50013  0.014224268  0.012977418            5 
 4515000   0.53506672   -8.1144137    769.32911  0.014199504  0.012973231            7 
 4516000   0.53293422   -8.1219946    769.21437  0.014194242  0.012969046            3 
 4517000    0.5223245    -8.109637     769.1868  0.014190591  0.012964865            3 
 4518000   0.52375484   -8.1169614    771.11585  0.014223031  0.012960688            4 
 4519000   0.52926091   -8.1335119    770.70097  0.014212233  0.012956514            6 
 4520000   0.52766122   -8.1263489    770.39246  0.014203401  0.012952336            6 
 4521000   0.52156458   -8.1279279    770.13934  0.014195594  0.012948157            7 
 4522000   0.53536582     -8.11556    770.39333  0.014197135   0.01294398            5 
 4523000   0.52571461   -8.1141672    768.95238  0.014167447  0.012939806            2 
 4524000   0.52886975   -8.1165641    769.61307  0.014176486  0.012935633            6 
 4525000   0.53886866   -8.1204023    769.69574  0.014174876  0.012931459            8 
 4526000   0.53001852   -8.1005143    768.82819   0.01415577  0.012927294           12 
 4527000    0.5356507   -8.1172833    769.66982  0.014168136  0.012923128            4 
 4528000   0.53375411   -8.1207957    769.78755  0.014167174  0.012918964            4 
 4529000    0.5269123    -8.113923    770.30108  0.014173495  0.012914805            4 
 4530000   0.52551634   -8.1040542    769.76382  0.014160482  0.012910645            7 
 4531000   0.52694045   -8.1202415     769.8309  0.014158591  0.012906486            9 
 4532000     0.544851   -8.1302067    769.38045  0.014147184  0.012902334           12 
 4533000   0.51889472   -8.1266217    769.30574   0.01414269  0.012898183            8 
 4534000   0.52737455   -8.1067507    770.59508  0.014163268  0.012894029            7 
 4535000   0.52081717   -8.1137852    769.30269  0.014136396  0.012889875           12 
 4536000   0.52643737   -8.1262018    770.60467  0.014157199  0.012885728            5 
 4537000   0.53475989   -8.1300434    769.13483  0.014127082  0.012881581            8 
 4538000   0.53644302   -8.1025992    770.40721  0.014147334  0.012877435            3 
 4539000   0.53146563   -8.1061908    769.02783  0.014118892  0.012873294            4 
 4540000   0.51668139   -8.1051419    770.43002   0.01414152  0.012869152            7 
 4541000   0.53269848   -8.1228547    769.66212  0.014124314  0.012865009            8 
 4542000   0.51610858   -8.1282982    769.27174  0.014114042  0.012860871            7 
 4543000   0.53068414   -8.1307726    769.97423  0.014123821  0.012856734            8 
 4544000   0.53087402    -8.109392    769.11472   0.01410495  0.012852595            4 
 4545000   0.51464253   -8.1190615    770.32447  0.014124028   0.01284846            5 
 4546000   0.54030631   -8.1176288    770.55549  0.014125156  0.012844329            6 
 4547000   0.52677609   -8.1156966    771.03232  0.014130788  0.012840199            4 
 4548000   0.51882344    -8.111516    770.53029  0.014118482  0.012836072            6 
 4549000   0.52026096    -8.113742    770.67651  0.014118057  0.012831947            7 
 4550000   0.52959113   -8.1140973    768.77866  0.014080195   0.01282782            6 
 4551000   0.52118738   -8.1225304    769.09239  0.014082846  0.012823695            9 
 4552000   0.53430463   -8.1264348    768.80808  0.014074547  0.012819571            6 
 4553000   0.52844464   -8.1282573    768.90057  0.014073149  0.012815447            5 
 4554000   0.52194876   -8.1338002     769.2152  0.014075816  0.012811327            4 
 4555000    0.5350797   -8.1332036     769.1148  0.014070889  0.012807207           10 
 4556000    0.5197721   -8.1277999    769.82476  0.014080787  0.012803087            7 
 4557000   0.52552057   -8.1240436    769.05885  0.014063691  0.012798972           10 
 4558000   0.51959103   -8.1051823    769.67173   0.01407181  0.012794854           10 
 4559000   0.52685339   -8.1163767    768.70519  0.014051056  0.012790742           12 
 4560000   0.52735841   -8.1268628    769.18361  0.014056718  0.012786632            7 
 4561000   0.50855515   -8.1291549    770.72131  0.014081731   0.01278252            9 
 4562000   0.51397572   -8.1337505    769.83823  0.014062513  0.012778411           10 
 4563000   0.51843427   -8.1116505    771.69896  0.014093414  0.012774303            6 
 4564000   0.52479225   -8.1265851    768.93575  0.014039873  0.012770198            4 
 4565000   0.51844502   -8.1244413      769.786  0.014052318  0.012766093            4 
 4566000   0.52068259   -8.1260615    770.74527  0.014066748  0.012761992            7 
 4567000   0.53248504   -8.1265113    770.42722  0.014057865  0.012757896            5 
 4568000   0.52802962   -8.1129343    769.82479  0.014043797  0.012753797            6 
 4569000   0.51255671    -8.127529    769.71072  0.014038643  0.012749698            8 
 4570000   0.51513412   -8.1237788    769.99194  0.014040699  0.012745601            5 
 4571000   0.51887418   -8.1046509    770.05379  0.014038755  0.012741505            6 
 4572000   0.53297743   -8.1445028    769.73795  0.014029928  0.012737418            8 
 4573000   0.52596348   -8.1174048    770.52845  0.014041265  0.012733332            5 
 4574000   0.51556468   -8.1263697    770.60238  0.014039542  0.012729242            8 
 4575000    0.5170866   -8.1322079    769.83572  0.014022508   0.01272515           11 
 4576000   0.52022788   -8.1333057    768.81507  0.014000857  0.012721062            6 
 4577000   0.51263602   -8.1467469    769.95286  0.014018514  0.012716972            7 
 4578000   0.52922371   -8.1406038    769.26788  0.014002983  0.012712882            8 
 4579000   0.51930473   -8.1339323    770.33558  0.014019356  0.012708799            8 
 4580000   0.52860963   -8.1355445    769.95805  0.014009426   0.01270472           15 
 4581000   0.51966764   -8.1305066    769.69329  0.014001551  0.012700634            5 
 4582000   0.53026467   -8.1297236    770.38654  0.014011104  0.012696558            3 
 4583000   0.51902069   -8.1448863    768.71878  0.013977722  0.012692478            8 
 4584000   0.51527074   -8.1479374    769.18471  0.013983143  0.012688394            5 
 4585000   0.52199095   -8.1324955    769.94185  0.013993854  0.012684317            7 
 4586000   0.52725947   -8.1297162     768.2873  0.013960737  0.012680243            3 
 4587000   0.51237091   -8.1322803    769.32386  0.013976525   0.01267617            4 
 4588000   0.52647984   -8.1427594    769.93355  0.013984553  0.012672094            4 
 4589000   0.52156032   -8.1330052     769.0732  0.013965882  0.012668022            8 
 4590000   0.52169146    -8.143102    768.16344  0.013946322  0.012663952            5 
 4591000   0.51147279   -8.1210479     770.2485  0.013981132  0.012659883           11 
 4592000   0.51987862   -8.1413633    769.10093  0.013957261  0.012655815            7 
 4593000    0.5128968   -8.1306049    769.12602  0.013954678  0.012651749           11 
 4594000   0.50844402   -8.1377121    770.45166  0.013975687  0.012647687           13 
 4595000   0.51475774   -8.1198326     768.5921  0.013938921  0.012643625            5 
 4596000   0.51128156   -8.1533896    769.69037  0.013955802  0.012639564            7 
 4597000   0.51174944   -8.1329591    769.46954  0.013948763  0.012635506           10 
 4598000    0.5307079   -8.1465218    770.81349  0.013970086  0.012631448           13 
 4599000   0.50859688   -8.1373889    769.15685  0.013937031  0.012627396            5 
 4600000   0.51265813   -8.1408074     770.7116  0.013962167  0.012623351            8 
 4601000   0.50650667   -8.1250666    769.16641  0.013931146    0.0126193            4 
 4602000   0.50718321   -8.1339334    770.41878  0.013950796  0.012615253            5 
 4603000   0.51201444   -8.1352373    770.66008  0.013952134  0.012611204            7 
 4604000   0.52523923   -8.1376078     769.0659  0.013920249  0.012607156            5 
 4605000   0.51621246   -8.1399662    769.27847  0.013921073  0.012603114            9 
 4606000   0.52069979   -8.1411333    768.60694  0.013905901  0.012599072            7 
 4607000     0.531228   -8.1255243    768.99421  0.013909887  0.012595029           10 
 4608000   0.51964657   -8.1271477    769.02881  0.013907494  0.012590989            5 
 4609000   0.50192093   -8.1603818    768.63904   0.01389743  0.012586945            8 
 4610000   0.50284162   -8.1300743    767.88651  0.013880812  0.012582903            8 
 4611000   0.50435542   -8.1222084    768.99388  0.013897815  0.012578864            8 
 4612000   0.51087979   -8.1473189    769.87179  0.013910664  0.012574825           12 
 4613000   0.50819185   -8.1480615    769.94476  0.013908967  0.012570786            6 
 4614000   0.51051091   -8.1625295    768.31765  0.013876565  0.012566748            3 
 4615000   0.50789675   -8.1414767    768.33809  0.013873927  0.012562713            4 
 4616000   0.51066473    -8.143144    769.43528  0.013890729  0.012558682            4 
 4617000   0.50645476   -8.1448681    768.65879  0.013873706  0.012554653            7 
 4618000    0.5071922   -8.1505718    769.36949  0.013883526  0.012550623            5 
 4619000    0.5074652   -8.1433326    769.17965  0.013877096  0.012546595            9 
 4620000   0.51514555   -8.1566253    768.46678  0.013861233  0.012542567           13 
 4621000   0.51430901   -8.1388676    769.17802   0.01387106  0.012538541            8 
 4622000   0.51159774   -8.1457194    768.56412   0.01385699   0.01253452            5 
 4623000   0.51354249   -8.1360118    768.77863   0.01385786  0.012530499           10 
 4624000   0.51194486   -8.1450894    767.90087  0.013839044  0.012526477            4 
 4625000   0.50642776   -8.1451574    770.41118  0.013881282  0.012522463           15 
 4626000   0.50823057   -8.1354043    768.92546  0.013851518  0.012518449           10 
 4627000   0.49993619   -8.1286786    768.67634  0.013844037  0.012514432            8 
 4628000   0.51010731   -8.1335462    768.35507  0.013835261  0.012510421            5 
 4629000   0.51117022   -8.1366032    769.68586   0.01385623  0.012506409           11 
 4630000    0.5071641    -8.153365    769.44657   0.01384893    0.0125024            6 
 4631000   0.50546955   -8.1600332    769.27466  0.013842846  0.012498394           17 
 4632000   0.49538562   -8.1491679    768.78865  0.013831114  0.012494388            7 
 4633000   0.50699885   -8.1314103    769.33446  0.013837946  0.012490382           10 
 4634000    0.5015307   -8.1475944    769.61943  0.013840085  0.012486379           15 
 4635000   0.50686376   -8.1556488    768.18662  0.013811338  0.012482378            9 
 4636000   0.51194324    -8.142711    769.20124  0.013826597  0.012478374            7 
 4637000   0.49837135   -8.1477613    769.50303  0.013829039  0.012474376           10 
 4638000    0.5140499   -8.1338827      768.377  0.013805825  0.012470376            5 
 4639000   0.50552976   -8.1400132    769.65929  0.013825884  0.012466377            5 
 4640000   0.51131949   -8.1314974    768.32642  0.013798966  0.012462383           11 
 4641000   0.52200009   -8.1528232    768.81293  0.013804728  0.012458392            9 
 4642000   0.50835374   -8.1209713    768.56764  0.013797351  0.012454399           12 
 4643000   0.50332009   -8.1661839    768.93884  0.013801042  0.012450408            9 
 4644000    0.5132836   -8.1613493    768.70498  0.013793873  0.012446421            7 
 4645000    0.5046662   -8.1347147    769.92981  0.013812878  0.012442431            6 
 4646000   0.50336959   -8.1420398    768.89349  0.013791317  0.012438446            4 
 4647000   0.50870796   -8.1459801    768.27108  0.013777188  0.012434463            7 
 4648000   0.50913971   -8.1443832    767.69337  0.013763866  0.012430478            5 
 4649000   0.50378738   -8.1517105    768.93001  0.013783072  0.012426495            5 
 4650000   0.50511846   -8.1553309    769.03216  0.013781938  0.012422515            6 
 4651000   0.51082024   -8.1519296    768.89962    0.0137766  0.012418535            9 
 4652000   0.49406979   -8.1484712    768.98563   0.01377518  0.012414554            5 
 4653000   0.49450086   -8.1611551    768.71131  0.013767306  0.012410574            4 
 4654000   0.50409892   -8.1389788    768.30135  0.013757007  0.012406596            7 
 4655000   0.51310196   -8.1554183    769.47767   0.01377511   0.01240262            5 
 4656000    0.5188214    -8.160387    768.17321  0.013748805  0.012398649            8 
 4657000   0.50626964   -8.1588596    769.45396   0.01376877  0.012394675            6 
 4658000   0.51047012   -8.1574505    769.70357   0.01377028  0.012390704            3 
 4659000   0.51217984    -8.146283    769.44207  0.013762647  0.012386736            7 
 4660000   0.49804578   -8.1531328    768.42776  0.013741555  0.012382769           11 
 4661000   0.51046413   -8.1579744    768.96034  0.013748129  0.012378802            6 
 4662000   0.49454009   -8.1683404    768.78456  0.013742038  0.012374836            8 
 4663000   0.50676762   -8.1544681    768.61873  0.013736127  0.012370873            9 
 4664000   0.50569118   -8.1454928    769.13087  0.013742333  0.012366916            8 
 4665000   0.50422612   -8.1482891    769.20303  0.013740676  0.012362961           11 
 4666000   0.50759694   -8.1559931     768.0201  0.013716604  0.012359005            4 
 4667000   0.50230867   -8.1471017    769.18737  0.013734508  0.012355052            4 
 4668000   0.50375853   -8.1500392     769.0587  0.013729268  0.012351097            7 
 4669000   0.50946445   -8.1538949    768.94818  0.013724355  0.012347145            7 
 4670000   0.50424067   -8.1367218    767.99894  0.013704478  0.012343195           11 
 4671000   0.51015537    -8.150884    769.17404  0.013722508  0.012339248           10 
 4672000   0.50578759   -8.1514113    768.24697  0.013703035  0.012335298            4 
 4673000   0.52086254   -8.1626994    768.44326  0.013703603   0.01233135            6 
 4674000   0.50339452   -8.1612081    767.89447  0.013690887  0.012327406            6 
 4675000   0.51073948   -8.1487951    767.92373   0.01368848  0.012323463           17 
 4676000   0.50027177   -8.1489594    768.71307   0.01369962  0.012319522            5 
 4677000   0.50824604   -8.1567764    769.30993  0.013707325  0.012315581           14 
 4678000   0.50179517   -8.1581389    768.79477  0.013695218  0.012311641           13 
 4679000   0.50442516   -8.1591102    768.70015  0.013690606  0.012307703            8 
 4680000   0.51169739   -8.1791378    767.52947  0.013666835  0.012303765           13 
 4681000    0.4925021   -8.1682164    768.79018  0.013686359  0.012299831            7 
 4682000   0.49798837   -8.1668972    768.17872  0.013672553  0.012295894            6 
 4683000   0.50603903   -8.1611462    768.53605  0.013675992  0.012291965            8 
 4684000   0.49879789   -8.1520148    769.27964  0.013686302  0.012288028            9 
 4685000   0.50209616   -8.1597392    767.57363  0.013653035  0.012284101           12 
 4686000   0.50872092   -8.1503544    768.24297  0.013662025   0.01228017            4 
 4687000    0.4998022   -8.1586976    769.06871  0.013673791  0.012276243            6 
 4688000   0.50915214   -8.1596306    767.43933  0.013641911  0.012272315           11 
 4689000   0.49905988   -8.1392803    768.06952  0.013650201  0.012268391           14 
 4690000   0.49572922   -8.1782644    769.06916  0.013665053  0.012264467           17 
 4691000   0.50837499   -8.1743006    768.60197   0.01365384  0.012260542            7 
 4692000   0.50703769   -8.1587915    767.10457  0.013624335   0.01225662            6 
 4693000    0.5094633   -8.1459929    768.52605  0.013646673  0.012252703            6 
 4694000   0.49915441   -8.1580084    768.10369  0.013636268  0.012248784           12 
 4695000   0.50676389   -8.1564858    768.19113  0.013634915  0.012244869            5 
 4696000   0.50398762   -8.1658931    768.15816  0.013631427  0.012240953            6 
 4697000    0.4914576   -8.1749943    769.28533  0.013648523   0.01223704            8 
 4698000   0.50304756   -8.1539637    769.42727  0.013648135  0.012233129           10 
 4699000    0.5055781   -8.1569345    769.05603  0.013638647  0.012229216            5 
 4700000   0.49318689   -8.1540382    768.88747  0.013632757  0.012225308            7 
 4701000   0.50510155   -8.1759511    768.27649  0.013619026  0.012221402           10 
 4702000   0.50478813   -8.1737028    769.06497  0.013630104  0.012217499            5 
 4703000   0.49617951   -8.1672094    768.94719  0.013625118  0.012213595           10 
 4704000   0.49597107   -8.1635338     768.9861  0.013622911   0.01220969            4 
 4705000   0.48477649   -8.1789063    766.47564  0.013575552  0.012205786            7 
 4706000   0.50212867    -8.166181    768.50961  0.013608684  0.012201885            7 
 4707000   0.49272841   -8.1506734    767.28083  0.013584039  0.012197985            5 
 4708000   0.48755212   -8.1516601    766.74619   0.01357169  0.012194089            6 
 4709000   0.50067295   -8.1572115    769.01585  0.013608973  0.012190192            4 
 4710000   0.48047065    -8.180216     769.6863  0.013617946  0.012186298            8 
 4711000    0.4933075   -8.1736625    768.26148  0.013589851  0.012182404            6 
 4712000   0.50436704   -8.1556629    768.55642  0.013592183  0.012178511            7 
 4713000   0.49486718   -8.1832753    767.75245  0.013575084  0.012174619           12 
 4714000   0.50013402   -8.1737905    768.50357  0.013585482  0.012170726            9 
 4715000   0.50333577   -8.1684354    768.74858  0.013586932   0.01216684            3 
 4716000   0.50189816   -8.1703766    768.29892  0.013576105  0.012162955            7 
 4717000    0.4964335   -8.1688454    768.64314  0.013579308  0.012159071            6 
 4718000   0.49807934   -8.1764447    767.57798  0.013557616  0.012155191           14 
 4719000   0.51368441   -8.1620071    768.83757  0.013576986  0.012151309           10 
 4720000   0.48785522   -8.1600022     768.2187  0.013563183  0.012147426           11 
 4721000   0.49555317   -8.1663556    767.72621  0.013551617   0.01214355            5 
 4722000   0.49806179   -8.1614226    768.67302  0.013565456  0.012139671            7 
 4723000   0.48891152   -8.1682229    768.07339  0.013552004  0.012135798            7 
 4724000   0.49805281   -8.1515228    768.38495  0.013554631  0.012131929           19 
 4725000   0.48670374    -8.158282    768.11701  0.013547037  0.012128061            8 
 4726000   0.51217659   -8.1599688    767.83992  0.013539285  0.012124191            3 
 4727000   0.48617015   -8.1735218    768.62173  0.013550203  0.012120328            7 
 4728000   0.48604923   -8.1679901    766.86117  0.013516307  0.012116463            5 
 4729000   0.49564939   -8.1715112    767.60235  0.013526509  0.012112598            7 
 4730000   0.49243839   -8.1695429    768.21532  0.013534449  0.012108738            6 
 4731000   0.48594401   -8.1722664    768.85149  0.013542794  0.012104877            6 
 4732000   0.48865851   -8.1747459    769.96225  0.013559493  0.012101018            5 
 4733000   0.49831273   -8.1619217    767.80238    0.0135186   0.01209716            8 
 4734000   0.48533505   -8.1784492    767.64189  0.013512919  0.012093302            7 
 4735000   0.49125652   -8.1810607     767.7741  0.013512392  0.012089443            8 
 4736000   0.48645232   -8.1860684    768.16927  0.013516492  0.012085589            8 
 4737000    0.4874097   -8.1640292    768.50276  0.013519505  0.012081736            6 
 4738000   0.48746221   -8.1537346    768.34761  0.013513923  0.012077887           10 
 4739000    0.5080675   -8.1820655    767.92588  0.013503655  0.012074035            5 
 4740000   0.50453999   -8.1757158    768.51344  0.013511137  0.012070188            8 
 4741000   0.48982424   -8.1700029    768.56856  0.013509255  0.012066346            7 
 4742000   0.49123205   -8.1792913    767.33468  0.013484723  0.012062501            4 
 4743000   0.48920376    -8.190465    768.56801  0.013503549  0.012058659            8 
 4744000   0.49714012   -8.1837958    768.03278  0.013491301  0.012054812            7 
 4745000   0.49070932   -8.1955242    768.52555  0.013497112  0.012050972            9 
 4746000   0.49548007   -8.1769936    768.57854  0.013495198  0.012047136            7 
 4747000   0.48017417   -8.1776643    766.77025  0.013460611  0.012043299            8 
 4748000   0.48046952   -8.1799744    768.91849   0.01349548  0.012039463            8 
 4749000    0.4904207   -8.1699417    767.75211  0.013472171   0.01203563            9 
 4750000   0.48359032   -8.1700833    768.14935  0.013476304  0.012031796           10 
 4751000   0.49041609    -8.176411    766.81183  0.013450008  0.012027963            7 
 4752000   0.48643259   -8.1854538    767.96943  0.013467477  0.012024134            7 
 4753000   0.49154957   -8.1734882    767.86686  0.013462845  0.012020303           14 
 4754000   0.48771359   -8.1759757    766.45296  0.013435229  0.012016476            7 
 4755000   0.49177758   -8.1719662    768.22565  0.013463471   0.01201265           11 
 4756000   0.49480681   -8.1748098     767.8096   0.01345335  0.012008824            6 
 4757000   0.48053566   -8.1568361    768.12881  0.013456114  0.012005003           11 
 4758000   0.48992398   -8.1610989    768.13263  0.013453353  0.012001181            6 
 4759000   0.48927072   -8.1990992    767.91304  0.013446681  0.011997359            8 
 4760000   0.48854078   -8.1753292    767.59091  0.013438216  0.011993542            4 
 4761000   0.49010386   -8.1634038    768.93046   0.01345884  0.011989724            5 
 4762000    0.4912961   -8.1887488    767.33992   0.01342818   0.01198591            5 
 4763000   0.49410512   -8.1700119    767.97378  0.013436451  0.011982095            7 
 4764000   0.49179691   -8.1780049    767.40086  0.013423609  0.011978282            5 
 4765000   0.48129538     -8.17984    769.32117  0.013454375  0.011974471            4 
 4766000   0.48895692   -8.1859498    767.87613  0.013426286  0.011970667            6 
 4767000   0.49315833   -8.1777241    768.66042   0.01343718  0.011966858            5 
 4768000   0.48913634   -8.1785912    768.26015  0.013427366  0.011963054            9 
 4769000   0.49228363   -8.1865002    767.33311  0.013408351   0.01195925            8 
 4770000   0.47874086   -8.1678225    766.84646  0.013397038  0.011955448           10 
 4771000   0.49749119     -8.17307    768.09996  0.013416124  0.011951649            5 
 4772000   0.48771539   -8.1812715    767.50142  0.013402861  0.011947847            6 
 4773000   0.49278844    -8.182056    768.66446  0.013420359   0.01194405            7 
 4774000   0.48640563   -8.1889557    768.66242  0.013417512  0.011940249            6 
 4775000    0.4855254   -8.1658613    768.13673  0.013405527   0.01193645            4 
 4776000   0.48710689   -8.1895189     767.5331  0.013392188  0.011932652            8 
 4777000   0.49030284   -8.1958032    768.17729  0.013400623  0.011928856           13 
 4778000   0.49046579   -8.1858616    767.26139  0.013381844  0.011925063           11 
 4779000   0.47948595   -8.1782691    768.18975  0.013395232  0.011921271            4 
 4780000   0.48636657   -8.1824008    767.07803  0.013373048  0.011917481           14 
 4781000    0.4812699   -8.1870445    768.27914  0.013391186  0.011913693            9 
 4782000   0.48654997    -8.171522    767.38148  0.013372743  0.011909906            4 
 4783000    0.4909604   -8.1883157    768.03769   0.01338138  0.011906117           14 
 4784000   0.49311446   -8.1749327    767.00522  0.013360598  0.011902334            6 
 4785000   0.49485227   -8.1770053    768.07983  0.013376521   0.01189855            4 
 4786000   0.48360118   -8.1731556    768.08102  0.013373747  0.011894768            5 
 4787000   0.48728274   -8.1616685    766.87027  0.013349876  0.011890984            5 
 4788000   0.50709337   -8.1982136    768.11245  0.013368707  0.011887206           16 
 4789000   0.48591964   -8.2024114    767.40336  0.013353577  0.011883424            6 
 4790000   0.48867921   -8.1784623    769.09589  0.013380235  0.011879648            7 
 4791000   0.48819331    -8.177677     767.7786  0.013354529  0.011875873            8 
 4792000   0.48619547   -8.1942055    767.76296  0.013351471    0.0118721           16 
 4793000   0.48741353   -8.1762082    767.84394  0.013350093  0.011868328            9 
 4794000   0.48836586   -8.1743621     767.3666  0.013339011  0.011864556            9 
 4795000   0.47733984   -8.1977852    767.68668  0.013341791  0.011860785            7 
 4796000   0.48922934   -8.1821092    768.12624  0.013346647  0.011857015            9 
 4797000    0.4774606   -8.1904683    767.23802  0.013328435  0.011853253            4 
 4798000   0.48235174   -8.1679251    767.08663  0.013323027  0.011849485            5 
 4799000   0.48300604   -8.1932878    768.00497  0.013336198  0.011845721            8 
 4800000   0.48695676   -8.1813988    767.30037  0.013321187   0.01184196            5 
 4801000    0.4842541   -8.1916873    767.66633  0.013324764  0.011838197            4 
 4802000    0.4825081   -8.1552151    767.37935  0.013317009  0.011834437            4 
 4803000   0.47793059   -8.1756625    767.86042  0.013322583   0.01183068            4 
 4804000     0.487469   -8.1969297     768.8502   0.01333698  0.011826919            8 
 4805000   0.48170792   -8.1900511    767.28587  0.013307074  0.011823162            6 
 4806000   0.48336226   -8.1760417    768.20679  0.013320273  0.011819406           17 
 4807000   0.48457334   -8.1778799    768.19155  0.013317238  0.011815656           13 
 4808000   0.48629906   -8.1977582    768.03474   0.01331175  0.011811905            8 
 4809000    0.4738731   -8.1853353    767.06777  0.013292226  0.011808158           11 
 4810000    0.4852667   -8.1903154    766.62365  0.013281768  0.011804408            5 
 4811000    0.4939584   -8.1919277    768.49335  0.013311393  0.011800663            6 
 4812000   0.48947066   -8.1868696    766.84885  0.013280148  0.011796913           14 
 4813000   0.47404349   -8.2001306    766.65993  0.013274118  0.011793167            5 
 4814000   0.48819832   -8.1946111    768.10543  0.013296383  0.011789422            6 
 4815000     0.486212     -8.19467    767.69309  0.013286485   0.01178568            9 
 4816000   0.48888999   -8.1928267     767.0149  0.013271991  0.011781938            6 
 4817000   0.47341985   -8.1927071    767.55266  0.013278539  0.011778198            3 
 4818000   0.48655668   -8.2034939    767.10223  0.013267992  0.011774461            6 
 4819000   0.48209075   -8.1911644    767.43314  0.013270961  0.011770721            5 
 4820000   0.48046944   -8.1950191    768.16536  0.013280867  0.011766986            8 
 4821000    0.4764775   -8.1967892    766.49067  0.013249165  0.011763251            5 
 4822000   0.47646142   -8.1860499    766.86375  0.013252864  0.011759518            9 
 4823000   0.47990496   -8.1926502    767.53194  0.013261662  0.011755788            6 
 4824000   0.47711373    -8.182035     766.1362  0.013234802  0.011752057           11 
 4825000   0.47445391   -8.1939776    767.65139  0.013258228   0.01174833           10 
 4826000   0.47495686    -8.193769    769.44036  0.013286372  0.011744604            8 
 4827000   0.46757618   -8.1910876    767.39656  0.013248335  0.011740878            8 
 4828000   0.47524653   -8.1886429    767.40867    0.0132458  0.011737153            6 
 4829000   0.48299396   -8.1868936    767.92387  0.013251948   0.01173343            5 
 4830000   0.48454275   -8.1930142    767.93388  0.013249377  0.011729713            9 
 4831000   0.48501853   -8.1943782    767.01086  0.013230712  0.011725994            9 
 4832000   0.48970348   -8.1807016     767.3364  0.013233589  0.011722276            5 
 4833000   0.47977436   -8.2076248    767.00543  0.013225144  0.011718562           15 
 4834000   0.48149579   -8.1790461    766.60286  0.013215468  0.011714846           14 
 4835000   0.47370901   -8.1829166    767.23857  0.013223691  0.011711132            7 
 4836000   0.47354052   -8.2004254    767.19783  0.013220255  0.011707423            6 
 4837000   0.46242663   -8.2067492     766.6206  0.013207577   0.01170371            7 
 4838000   0.47046555   -8.2017724    767.88176   0.01322657  0.011699998            5 
 4839000   0.46765911   -8.1991819    766.92819  0.013207415   0.01169629            8 
 4840000   0.47641511   -8.1801902    768.76082   0.01323624  0.011692586           12 
 4841000   0.47148718   -8.2053411    767.28107  0.013208033  0.011688881            7 
 4842000   0.46940063   -8.1886146    767.10312  0.013202243   0.01168518            7 
 4843000   0.47435425   -8.2146022    766.46904  0.013188606  0.011681475            8 
 4844000   0.47853061   -8.1879098    767.53971  0.013204303  0.011677774            5 
 4845000   0.47294213   -8.1812359    766.03054   0.01317562  0.011674075            9 
 4846000   0.47399209   -8.1912278    767.69096  0.013201454  0.011670375            8 
 4847000   0.45886147   -8.1989823    768.70583  0.013216179  0.011666678           10 
 4848000   0.46665192   -8.2057122    766.35149  0.013172983  0.011662978            6 
 4849000   0.47893145   -8.2037066    766.84436  0.013178737  0.011659283            8 
 4850000   0.47713409   -8.2040867    767.73138  0.013191261  0.011655591            4 
 4851000   0.48111295   -8.1995629    767.45995  0.013183879  0.011651903            6 
 4852000   0.47368763   -8.1909252    767.85855  0.013188008  0.011648215            5 
 4853000   0.47358286   -8.1987507    767.29047  0.013175535  0.011644528            5 
 4854000    0.4704788   -8.2188391    766.76659  0.013163827  0.011640844            6 
 4855000   0.48044973    -8.182358     767.1993  0.013168543   0.01163716            6 
 4856000   0.46546354    -8.184401    766.34044  0.013151092   0.01163348            9 
 4857000   0.47837882   -8.1934392     766.8891  0.013157798  0.011629794           10 
 4858000    0.4675938   -8.2034678    769.01955  0.013191635  0.011626112            5 
 4859000   0.48176903   -8.1940281    766.64866  0.013148259   0.01162243           16 
 4860000   0.46629031   -8.1923524    766.52569  0.013143445  0.011618753           14 
 4861000   0.47525903   -8.1888026    768.34046  0.013171852  0.011615077            4 
 4862000   0.46853492   -8.2012573      766.501  0.013137615  0.011611401           12 
 4863000   0.47051315   -8.2094324    767.02427   0.01314388  0.011607726            5 
 4864000   0.46418674   -8.1930912    767.73031  0.013153274  0.011604053           10 
 4865000   0.47476917   -8.1924346     767.6719   0.01314957  0.011600383            5 
 4866000   0.46962992   -8.1919632    767.52235  0.013144307  0.011596714            6 
 4867000   0.46928745   -8.2059412    766.78173  0.013128925  0.011593047            6 
 4868000   0.46751378   -8.2000162    765.97913  0.013112488  0.011589379            4 
 4869000   0.47517984   -8.1990073    767.75216  0.013140141  0.011585712            3 
 4870000   0.46733729   -8.2098098    768.07674  0.013142997  0.011582047            4 
 4871000   0.48572617   -8.1984188    765.94043  0.013103751  0.011578385           11 
 4872000   0.47075735   -8.2151536    767.39128  0.013125877  0.011574725            4 
 4873000   0.46419585   -8.2196976    766.52371  0.013108347  0.011571063            4 
 4874000   0.46759553   -8.2163537    766.65341  0.013107875  0.011567401           13 
 4875000   0.48076077   -8.1938283    767.83874  0.013125449  0.011563746            8 
 4876000   0.47876398   -8.1942132    765.75477  0.013087141  0.011560091            5 
 4877000   0.46773417   -8.2008268    766.81589  0.013102589  0.011556438            7 
 4878000   0.47333386   -8.1973811    766.81091  0.013099817  0.011552788            6 
 4879000    0.4824819   -8.2001664    766.80594  0.013097048  0.011549137            5 
 4880000   0.46799951    -8.187668    766.68422  0.013092285  0.011545488            4 
 4881000   0.46473845   -8.2038304    765.95246  0.013077109   0.01154184           12 
 4882000   0.47565988   -8.2128943    768.08138  0.013110771  0.011538193            5 
 4883000   0.46258664   -8.2135469     767.0145  0.013089878  0.011534547            6 
 4884000   0.47537243   -8.2067958    766.28772  0.013074797  0.011530904            5 
 4885000   0.46958002   -8.2113824    766.82413  0.013081271  0.011527262            5 
 4886000   0.47152545   -8.1938594     766.5131  0.013073289  0.011523621            5 
 4887000   0.46165515   -8.2044707    766.54539  0.013071165  0.011519982            4 
 4888000   0.48052132    -8.198039    766.71978  0.013071464  0.011516346            3 
 4889000   0.46574532   -8.2093973    767.62819  0.013084274  0.011512708            4 
 4890000   0.47108256   -8.1963715    766.36478  0.013060068  0.011509075            3 
 4891000   0.46830483   -8.2214953    766.71734  0.013063405   0.01150544            5 
 4892000   0.47037709   -8.1952168    765.92019  0.013047155  0.011501807            3 
 4893000   0.47628038   -8.2087596    765.53557  0.013037938  0.011498175            4 
 4894000   0.46616428   -8.2128149    766.14388  0.013045632  0.011494541            3 
 4895000   0.47705263   -8.2197496    766.40374  0.013047391   0.01149091            3 
 4896000   0.47308125   -8.1972741    766.73028  0.013050284  0.011487279            4 
 4897000   0.46630413   -8.2092224    766.40241  0.013042039  0.011483652            3 
 4898000   0.46660063   -8.2150023    766.59843  0.013042712  0.011480028            6 
 4899000   0.46133207   -8.2137392    767.68136   0.01305847  0.011476404            4 
 4900000   0.46830522     -8.21273     768.1645  0.013064022  0.011472783            3 
 4901000   0.47402274   -8.1931436     766.5014  0.013033078  0.011469162            6 
 4902000   0.46646612   -8.2113285    767.49759  0.013047355  0.011465539            6 
 4903000   0.46446841   -8.2040674    765.38168  0.013008731  0.011461919            5 
 4904000   0.46355544   -8.2200304    766.93465  0.013032468  0.011458299            3 
 4905000   0.45981162   -8.2112814    766.52074  0.013022778  0.011454679            2 
 4906000   0.46547475   -8.2010277    766.76672  0.013024302  0.011451057            5 
 4907000   0.46754183   -8.2240267    766.54531  0.013017888  0.011447438            3 
 4908000   0.45366407   -8.2094005    767.37384  0.013029303  0.011443821            2 
 4909000   0.47458635   -8.2084171    766.09542  0.013004947  0.011440211            5 
 4910000   0.47109501    -8.215033    766.58199  0.013010557  0.011436599            5 
 4911000    0.4661491   -8.2233763    766.45336  0.013005725  0.011432987            5 
 4912000   0.46593433   -8.2009051    766.12173  0.012997451  0.011429377            8 
 4913000   0.46034275   -8.2071074    765.98119  0.012992421  0.011425767            3 
 4914000   0.46959407    -8.215056    766.46671  0.012998011   0.01142216            3 
 4915000    0.4669748   -8.2240419    766.08613  0.012988914  0.011418552            2 
 4916000   0.46837715   -8.2164002     765.7023  0.012979765  0.011414948            4 
 4917000   0.45867645   -8.2153226    765.77556  0.012978367  0.011411346            3 
 4918000     0.460148   -8.2261952    766.32379  0.012985017  0.011407742            4 
 4919000   0.46395867   -8.2259584    766.67568  0.012988339  0.011404139            2 
 4920000    0.4591435   -8.2198864    766.62422  0.012984828  0.011400538            2 
 4921000   0.45868263   -8.2159373    766.47953  0.012979739  0.011396939            6 
 4922000   0.46701052   -8.2089112    766.98649  0.012985685  0.011393344            4 
 4923000   0.46063311   -8.2104812    765.98838  0.012966152  0.011389748            5 
 4924000   0.47857467   -8.2168787    765.66947  0.012958121  0.011386154            3 
 4925000   0.47144936   -8.2205337     765.7293  0.012956503  0.011382562            4 
 4926000   0.46007541   -8.2322895    766.94232  0.012974393  0.011378971            3 
 4927000    0.4526611   -8.2114631    766.87396  0.012970604  0.011375383            4 
 4928000   0.46829666   -8.2115475    766.11673  0.012955167  0.011371793            3 
 4929000   0.47221536   -8.2071604    765.65918  0.012944802  0.011368209            3 
 4930000   0.47090746    -8.211734    766.69609  0.012959704  0.011364626            3 
 4931000   0.46666871   -8.1997248    765.30159  0.012933509  0.011361042            3 
 4932000   0.46091866   -8.2183254    765.50853  0.012934383   0.01135746            4 
 4933000   0.46561761   -8.2302679    765.71088  0.012935179  0.011353876            5 
 4934000   0.46720189   -8.2164081    766.48862  0.012945693  0.011350297            4 
 4935000   0.46516671   -8.2309313    767.43379  0.012959031   0.01134672            4 
 4936000   0.47044991    -8.209211    766.88223  0.012947093  0.011343141            4 
 4937000   0.46730182   -8.2343228    767.43027  0.012953721   0.01133957            4 
 4938000   0.46663295   -8.2193225    766.09857  0.012928624  0.011335996            3 
 4939000   0.45985903   -8.2114279    765.66731   0.01291873  0.011332425            4 
 4940000   0.46155561   -8.2286393    766.39858  0.012928451  0.011328853            3 
 4941000   0.46519804   -8.2034374    765.79623  0.012915675  0.011325286            3 
 4942000   0.46302416   -8.2275044    767.25971   0.01293774  0.011321718            6 
 4943000   0.46942846   -8.2338397    766.73032  0.012926197  0.011318152            6 
 4944000   0.46151292   -8.2215697    765.20218  0.012897825  0.011314588            6 
 4945000   0.46725421   -8.2310584    766.07359  0.012909902  0.011311024            4 
 4946000   0.45695825   -8.2278758    765.98001  0.012905715  0.011307463            8 
 4947000   0.46389554   -8.2219486    766.30405  0.012908565    0.0113039            3 
 4948000   0.45112595    -8.224708    766.37664  0.012907179   0.01130034            5 
 4949000   0.45404942   -8.2380633    765.84054  0.012895544   0.01129678            3 
 4950000   0.45040081   -8.2265247    766.95978  0.012911781  0.011293223            7 
 4951000   0.45631002   -8.2214185    765.98935  0.012892839  0.011289667            3 
 4952000   0.46191817   -8.2216248    766.99857  0.012907219  0.011286113            4 
 4953000    0.4617382   -8.2223254    765.25851  0.012875337  0.011282561            3 
 4954000   0.46361123   -8.2226055    765.90272  0.012883574  0.011279009            2 
 4955000   0.45882734   -8.2394789     766.7676   0.01289552  0.011275459            4 
 4956000   0.45266751   -8.2289595    764.27842  0.012851063   0.01127191            5 
 4957000   0.45722767   -8.2296128    766.55461  0.012886736  0.011268361            2 
 4958000   0.45150491   -8.2063623    766.02736  0.012875275  0.011264811            9 
 4959000   0.45830762   -8.2272999    766.81654   0.01288594  0.011261269            7 
 4960000   0.45669968   -8.2151417    766.16957  0.012872473  0.011257726            5 
 4961000   0.44287308   -8.2508546    765.91376  0.012865581  0.011254181            6 
 4962000   0.46545542   -8.2213972    765.98417   0.01286417  0.011250639           11 
 4963000   0.45618899   -8.2099313    765.63604  0.012855733  0.011247099            4 
 4964000    0.4634355   -8.2383955    766.84684   0.01287347   0.01124356            5 
 4965000   0.46192011   -8.2253934    765.32922  0.012845405  0.011240022           11 
 4966000     0.463985   -8.2124905    765.52884  0.012846168  0.011236484           10 
 4967000   0.45973719   -8.2400112    765.68887  0.012846267  0.011232949            6 
 4968000   0.45466122   -8.2250929     765.5995  0.012842182  0.011229417           13 
 4969000   0.45591413   -8.2417376    766.22123  0.012850024  0.011225885            8 
 4970000   0.45682407   -8.2312455    765.79767  0.012840336  0.011222354            7 
 4971000   0.45985317   -8.2306227    765.68201  0.012835815  0.011218822            6 
 4972000   0.45520965   -8.2221648    765.20993  0.012825321  0.011215293            5 
 4973000   0.45599372   -8.2280661    765.35365   0.01282515  0.011211766            5 
 4974000   0.44536139   -8.2304987    766.73432  0.012845703  0.011208239            3 
 4975000   0.45745821   -8.2339723    764.93831  0.012813037  0.011204714            6 
 4976000   0.45049508   -8.2316496    765.54063  0.012820549   0.01120119            7 
 4977000   0.46595261   -8.2467382    766.50089  0.012834051  0.011197667            5 
 4978000   0.45699382   -8.2354051    767.38975  0.012846353  0.011194145            2 
 4979000   0.45503367   -8.2533765    766.57611  0.012830155  0.011190629            4 
 4980000   0.43943788   -8.2470945    765.40989  0.012808064   0.01118711            6 
 4981000   0.44692346   -8.2340347    765.59756  0.012808632  0.011183591            6 
 4982000   0.45617625   -8.2282922    766.31019  0.012817981  0.011180074            4 
 4983000   0.45217678   -8.2237116     764.8173  0.012790442  0.011176562            3 
 4984000   0.45687116   -8.2323865    766.34071  0.012813348  0.011173048            4 
 4985000   0.45517637   -8.2435513    766.05204  0.012805952  0.011169534            4 
 4986000   0.45549536   -8.2415798    765.50927  0.012794312  0.011166024            5 
 4987000   0.46102533   -8.2299715     765.2228  0.012786959  0.011162512            9 
 4988000   0.45610871   -8.2355605    765.83387  0.012794605  0.011159003            7 
 4989000   0.45208576   -8.2262149    766.10152  0.012796511  0.011155496            5 
 4990000   0.44836995   -8.2236393    765.81938  0.012789235  0.011151991            7 
 4991000      0.44559   -8.2283181    766.03169  0.012790217  0.011148487            5 
 4992000   0.46384708   -8.2326543     765.7809  0.012783468  0.011144987            7 
 4993000   0.46088845    -8.234464    764.84789  0.012765336   0.01114149            8 
 4994000   0.46163979   -8.2429976      765.481  0.012773345  0.011137992            7 
 4995000   0.45740978   -8.2430162    766.71066  0.012791302  0.011134496            4 
 4996000   0.45430769   -8.2285034    765.31768  0.012765507  0.011130998            4 
 4997000    0.4511557   -8.2465305    765.94985  0.012773495  0.011127504            7 
 4998000   0.45766239    -8.228804    764.29373  0.012743326  0.011124008            5 
 4999000   0.45616703   -8.2451007    765.74058  0.012764896  0.011120514            4 
 5000000   0.45543531   -8.2423605    765.61388  0.012760231  0.011117023            7 
 5001000   0.46587632   -8.2219716    765.09725  0.012749071  0.011113534            5 
 5002000    0.4539135     -8.24565    765.57935  0.012754554  0.011110049            9 
 5003000    0.4561411   -8.2358335    764.84287  0.012739737  0.011106563            6 
 5004000     0.458304   -8.2506431    765.44814  0.012747271  0.011103078            7 
 5005000   0.45462783   -8.2185677    765.94733  0.012753036  0.011099593            4 
 5006000   0.45379099   -8.2368738    765.07168  0.012735912   0.01109611            5 
 5007000   0.44816044   -8.2426287    765.23797  0.012736136   0.01109263            6 
 5008000   0.45114213   -8.2341632    764.97586  0.012729231   0.01108915            8 
 5009000    0.4490858   -8.2359478    765.80481  0.012740481  0.011085672            7 
 5010000   0.44894401   -8.2354652     765.4203  0.012731542  0.011082194            5 
 5011000   0.44246739   -8.2486155    764.88317  0.012720069   0.01107872           10 
 5012000   0.45351294   -8.2357772    766.49835  0.012744386  0.011075246            3 
Loop time of 11391.7 on 48 procs for 5000000 steps with 4000 atoms

Performance: 75844.562 tau/day, 438.915 timesteps/s
99.4% CPU use with 48 MPI tasks x no OpenMP threads

MPI task timing breakdown:
Section |  min time  |  avg time  |  max time  |%varavg| %total
---------------------------------------------------------------
Pair    | 726.23     | 764.78     | 811.26     |  78.7 |  6.71
Neigh   | 74.152     | 76.564     | 81.519     |  16.2 |  0.67
Comm    | 695.3      | 739.7      | 779.5      |  83.8 |  6.49
Output  | 27.185     | 27.191     | 27.271     |   0.2 |  0.24
Modify  | 9654.4     | 9676.5     | 9704.5     |   9.8 | 84.94
Other   |            | 107        |            |       |  0.94

Nlocal:        83.3333 ave          91 max          70 min
Histogram: 1 0 1 2 5 9 11 11 5 3
Nghost:        1931.81 ave        1975 max        1912 min
Histogram: 5 8 11 9 9 4 0 1 0 1
Neighs:        12217.7 ave       13909 max       10140 min
Histogram: 1 0 4 3 9 13 7 7 3 1
FullNghs:      24435.8 ave       26783 max       20288 min
Histogram: 1 0 0 4 3 11 12 9 4 4

Total # of neighbors = 1172920
Ave neighs/atom = 293.23000
Neighbor list builds = 268573
Dangerous builds = 0

#clear
#
#next RN
#
#jump SELF
Total wall time: 3:09:54
