
units lj                  # Use reduced LJ style units
atom_style atomic         # Uncharged point particles
atom_modify map hash      # Needed for indexing of clusters etc
                          # Used to be able to find where atoms are in relation to each other.

lattice fcc 1.0 spacing 1 1 1
Lattice spacing in x,y,z = 1.5874011 1.5874011 1.5874011
region box block 0 10 0 10 0 10 units lattice
create_box 2 box
Created orthogonal box = (0.0000000 0.0000000 0.0000000) to (15.874011 15.874011 15.874011)
  3 by 4 by 4 MPI processor grid
create_atoms 1 box
Created 4000 atoms
  using lattice units in orthogonal box = (0.0000000 0.0000000 0.0000000) to (15.874011 15.874011 15.874011)
  create_atoms CPU = 0.002 seconds
set type 1 type/fraction 2 0.24 78393
Setting atom values ...
  997 settings made for type/fraction
mass 1 1.0
mass 2 1.0
pair_style lj/cut  3.5
pair_modify tail  yes
pair_coeff 1  1  1.0  1.0   # Intearaction between 1 and 1 set with epsilon = 1 and sigma = 1
pair_coeff 1  2  1.5  0.8
pair_coeff 2  2  0.5  0.88

write_data data.0
System init for write_data ...
Neighbor list info ...
  update every 1 steps, delay 10 steps, check yes
  max neighbors/atom: 2000, page size: 100000
  master list distance cutoff = 3.8
  ghost atom cutoff = 3.8
  binsize = 1.9, bins = 9 9 9
  1 neighbor lists, perpetual/occasional/extra = 1 0 0
  (1) pair lj/cut, perpetual
      attributes: half, newton on
      pair build: half/bin/atomonly/newton
      stencil: half/bin/3d
      bin: standard
WARNING: Not all mixed pair coeffs generated from mixing. Use write_data with 'pair ij' option to store all pair coeffs. (../write_data.cpp:312)


#############################
#   M E L T   S Y S T E M   #
#############################

velocity all create 2.4 9580093 mom yes dist gaussian # Assign velocities
                                                    # Temperature 2.4, random number seed, zero linear momentum
                                                                                # Gaussian distribution

timestep 0.002   # simulation timestep
thermo 1000       # output thermodynamic data every 1000 steps bf 100

# Define a fix  in this case with index 1 applied to all
# particles in the simulation. This fix is for simulations
# in the anisotropic NPT ensemble. Note that we use the MTK
# correction.
fix 1 all npt temp 2.4 2.4 0.1 iso 5.68 5.68 0.5 mtk yes tchain 5 pchain 5 # Use NPT ensemble
                                                                         # Set temperature and pressure and damping
                                                                         # Numbers of thermostats in chain and in barostat
run 10000          # run for 10000 steps
Per MPI rank memory allocation (min/avg/max) = 3.642 | 3.644 | 3.648 Mbytes
Step Temp E_pair E_mol TotEng Press Volume 
       0          2.4   -6.7864136            0   -3.1873136   -3.7949501         4000 
    1000    2.4165932   -4.8612585            0   -1.2372749    5.7395563    4346.7245 
    2000    2.4312076   -4.8916486            0   -1.2457489    6.0898944    4302.7639 
    3000    2.4213925   -4.8742375            0   -1.2430569    5.6823014    4364.1489 
    4000     2.373551    -4.908922            0   -1.3494855    5.7354374    4328.0294 
    5000    2.4036156   -4.8942521            0     -1.28973    5.7033467    4342.0345 
    6000    2.4026586   -4.9289923            0   -1.3259053    5.8510966    4303.4512 
    7000    2.4111959   -4.8406452            0   -1.2247555    6.0355064    4338.7782 
    8000    2.4244264   -4.9201088            0   -1.2843784     5.687036    4328.5721 
    9000    2.4139729   -4.9129138            0   -1.2928597    5.7811447    4322.5018 
   10000    2.3833292   -4.9456645            0   -1.3715644    5.7916492    4310.6944 
Loop time of 2.32922 on 48 procs for 10000 steps with 4000 atoms

Performance: 741878.416 tau/day, 4293.278 timesteps/s
99.6% CPU use with 48 MPI tasks x no OpenMP threads

MPI task timing breakdown:
Section |  min time  |  avg time  |  max time  |%varavg| %total
---------------------------------------------------------------
Pair    | 0.9844     | 1.0675     | 1.1536     |   3.1 | 45.83
Neigh   | 0.19628    | 0.20606    | 0.21385    |   0.9 |  8.85
Comm    | 0.70258    | 0.79676    | 0.87871    |   3.9 | 34.21
Output  | 0.00023798 | 0.00024293 | 0.00030504 |   0.0 |  0.01
Modify  | 0.21318    | 0.2438     | 0.26606    |   2.7 | 10.47
Other   |            | 0.0149     |            |       |  0.64

Nlocal:        83.3333 ave          91 max          72 min
Histogram: 2 0 4 3 4 10 8 10 5 2
Nghost:        1560.08 ave        1583 max        1538 min
Histogram: 2 2 7 8 7 5 4 11 1 1
Neighs:        8846.62 ave       10130 max        7128 min
Histogram: 2 0 1 5 8 10 8 8 3 3

Total # of neighbors = 424638
Ave neighs/atom = 106.15950
Neighbor list builds = 904
Dangerous builds = 190

# Equilibrate just above the melting temperature to avoid step fn in T

fix 1 all npt temp 1.25 1.25 0.1 iso 5.68 5.68 0.5 mtk yes tchain 5 pchain 5
run 2000
Per MPI rank memory allocation (min/avg/max) = 3.643 | 3.645 | 3.649 Mbytes
Step Temp E_pair E_mol TotEng Press Volume 
   10000    2.3833292   -4.9456645            0   -1.3715644    5.7916492    4310.6944 
   11000    1.2355626   -6.6548019            0   -4.8019214    5.7261354    3524.6768 
   12000    1.2604884   -6.6443878            0    -4.754128    5.7165856    3529.5607 
Loop time of 0.513389 on 48 procs for 2000 steps with 4000 atoms

Performance: 673173.249 tau/day, 3895.679 timesteps/s
99.6% CPU use with 48 MPI tasks x no OpenMP threads

MPI task timing breakdown:
Section |  min time  |  avg time  |  max time  |%varavg| %total
---------------------------------------------------------------
Pair    | 0.2286     | 0.25425    | 0.27865    |   2.0 | 49.52
Neigh   | 0.033879   | 0.035726   | 0.038515   |   0.6 |  6.96
Comm    | 0.14742    | 0.17157    | 0.19662    |   2.5 | 33.42
Output  | 4.9848e-05 | 5.1563e-05 | 6.6248e-05 |   0.0 |  0.01
Modify  | 0.039364   | 0.047255   | 0.053534   |   1.8 |  9.20
Other   |            | 0.00454    |            |       |  0.88

Nlocal:        83.3333 ave          94 max          75 min
Histogram: 3 3 5 11 6 11 3 4 1 1
Nghost:        1787.23 ave        1813 max        1764 min
Histogram: 3 4 7 4 5 10 7 3 4 1
Neighs:        10828.5 ave       12161 max        9698 min
Histogram: 5 3 5 11 7 3 4 3 3 4

Total # of neighbors = 519767
Ave neighs/atom = 129.94175
Neighbor list builds = 144
Dangerous builds = 11

#############################
# L I N E A R  Q U E N C H  #
#############################

# Define solid atoms. This closely follows ten Wolde  Ruiz-Montero and Frenkel  Faraday Discuss  1996  104  93-110
# Compute components of the per-atom q6 vector
compute q6 all orientorder/atom degrees 1 6 components 6 nnn NULL cutoff 1.3 # compute the Q6 parameter.
                                                                             # Use all neighbours within 1.3 unit cell.

# get number of connections
compute coord_number all coord/atom orientorder q6 0.5

# An atom is solid if it has 8 or more connections (of a possible 14)
variable is_solid atom c_coord_number>=8
group solid dynamic all var is_solid    # Must be dynamic to update
dynamic group solid defined

# do clustering
compute cluster solid cluster/atom 1.3 # Create a cluster where all atoms within are solid and max 1.3 units from another member

# define chunks one chunk per cluster
compute clus_chunks solid chunk/atom c_cluster nchunk every compress yes  # Says which atoms are in which chunk

# count the size of each chunk
compute size_chunks solid property/chunk clus_chunks count


# Find the maximum entry in the vector of chunk sizes
variable max_n equal max(c_size_chunks)


# Thermo style which includes this variable
# thermo_style custom step temp pe vol v_max_n

thermo ${N}  # Print the thermo information every 100 steps
thermo 1000  

# Reset the npt fix at a lower temperature (below freezing)
fix 1  all npt temp  ${temp} ${temp}  0.1  iso  5.68  5.68  0.5  mtk yes tchain  5  pchain  5
fix 1  all npt temp  0.45 ${temp}  0.1  iso  5.68  5.68  0.5  mtk yes tchain  5  pchain  5
fix 1  all npt temp  0.45 0.45  0.1  iso  5.68  5.68  0.5  mtk yes tchain  5  pchain  5

dump dmp2 all dcd ${N} traj.dcd
dump dmp2 all dcd 1000 traj.dcd


compute msd all msd com yes
variable twopoint equal c_msd[4]/6/(step*dt+1.0e-6)
fix 9 all vector 10 c_msd[4]
variable fit equal slope(f_9)/6/(10*dt)
thermo_style custom step temp pe c_msd[4] v_twopoint v_fit v_max_n

fix 1 all npt temp 1.25 ${temp} 0.1 iso 5.68 5.68 0.5 mtk yes tchain 5 pchain 5
fix 1 all npt temp 1.25 0.45 0.1 iso 5.68 5.68 0.5 mtk yes tchain 5 pchain 5
run 500000 # 5000000  # Run for this many steps
Neighbor list info ...
  update every 1 steps, delay 10 steps, check yes
  max neighbors/atom: 2000, page size: 100000
  master list distance cutoff = 3.8
  ghost atom cutoff = 3.8
  binsize = 1.9, bins = 9 9 9
  4 neighbor lists, perpetual/occasional/extra = 1 3 0
  (1) pair lj/cut, perpetual
      attributes: half, newton on
      pair build: half/bin/atomonly/newton
      stencil: half/bin/3d
      bin: standard
  (2) compute orientorder/atom, occasional
      attributes: full, newton on
      pair build: full/bin/atomonly
      stencil: full/bin/3d
      bin: standard
  (3) compute coord/atom, occasional
      attributes: full, newton on
      pair build: full/bin/atomonly
      stencil: full/bin/3d
      bin: standard
  (4) compute cluster/atom, occasional
      attributes: full, newton on
      pair build: full/bin/atomonly
      stencil: full/bin/3d
      bin: standard
Per MPI rank memory allocation (min/avg/max) = 9.780 | 9.789 | 9.795 Mbytes
Step Temp PotEng c_msd[4] v_twopoint v_fit v_max_n 
   12000    1.2604884   -6.6443878 4.7442095e-30 3.2945898e-32 8.3333333e+20            2 
   13000    1.2761002   -6.7115833   0.50086499 0.0032106729  0.041281298            1 
   14000     1.222248     -6.69894    1.0060163 0.0059881919  0.040508875            2 
   15000    1.2485633   -6.6966783    1.5243788 0.0084687708    0.0414433            1 
   16000    1.2391783   -6.6881548    1.9813872  0.010319725  0.041407326            3 
   17000    1.2448737   -6.6951903    2.4744882  0.012129844  0.040834194            1 
   18000    1.2188599   -6.7222418    2.9791885  0.013792539  0.041024529            1 
   19000    1.2255334   -6.7259137    3.4866639  0.015292385  0.041021174            2 
   20000     1.211623   -6.7297481     3.932215  0.016384229  0.041050764            3 
   21000    1.2245022   -6.7139341    4.4686475  0.017732728  0.041118438            3 
   22000    1.2353266    -6.710605    4.9960728  0.018924518  0.041313178            1 
   23000    1.2296457   -6.7442246    5.4155272  0.019621475  0.041346465            2 
   24000    1.2208971   -6.7363961     5.917312  0.020546222  0.041255007            1 
   25000    1.2136153   -6.7187041    6.3839238  0.021279746   0.04116764            4 
   26000    1.2401557   -6.7312409    6.8308112  0.021893625   0.04100907            2 
   27000    1.2290651   -6.7363202    7.3309577  0.022626412  0.040859833            1 
   28000    1.2331204   -6.7678322    7.7549347  0.023080162  0.040706259            1 
   29000    1.2031699   -6.7012475    8.3049975  0.023864935  0.040608749            1 
   30000    1.1922227   -6.7587823    8.8510548  0.024586263   0.04061681            1 
   31000     1.222555   -6.7655652    9.2412044  0.024841947  0.040589284            1 
   32000    1.2261326   -6.7767143    9.7322354  0.025344363  0.040484107            1 
   33000    1.2127953   -6.7558147    10.173512  0.025690686  0.040383979            2 
   34000    1.2085744   -6.7922199    10.581538  0.025935142  0.040284938            1 
   35000    1.1976127   -6.8022734    10.979203   0.02614096  0.040176241            2 
   36000    1.2209439   -6.8011478    11.478399  0.026570367  0.040050399            1 
   37000    1.2275984   -6.7772179    11.911075  0.026826744  0.039922938            3 
   38000    1.2048586   -6.7915141    12.401855   0.02719705  0.039786922            2 
   39000    1.2081486   -6.7945977     12.75564   0.02725564   0.03966107            2 
   40000    1.2238601   -6.7734446    13.240949   0.02758531  0.039520626            2 
   41000    1.2061894   -6.8193952    13.757209  0.027961806  0.039430388            2 
   42000     1.201749   -6.7218254    14.272465  0.028318383  0.039384146            1 
   43000    1.2069329   -6.7464588    14.781303  0.028645937  0.039344159            2 
   44000    1.1955546    -6.845215    15.342908  0.029058537  0.039363729            2 
   45000     1.200204   -6.7982874    15.806812  0.029271874   0.03939279            2 
   46000    1.2201713   -6.7942715    16.246035  0.029431222  0.039413615            2 
   47000    1.1650941    -6.785222    16.778922  0.029749861  0.039428921            2 
   48000    1.1811286   -6.8159934    17.333671  0.030093178  0.039483039            1 
   49000    1.1813524   -6.7913623    17.949288  0.030525999  0.039543785            2 
   50000    1.1934662   -6.7590383    18.345879  0.030576465  0.039601166            2 
   51000    1.2095036   -6.8419245    18.673484  0.030512228  0.039613369            2 
   52000    1.1916295   -6.8611511    19.103765  0.030615008  0.039603289            3 
   53000    1.1711144   -6.8436799    19.524292  0.030698572  0.039586751            2 
   54000    1.1941942   -6.8413399     19.88213    0.0306823  0.039551447            2 
   55000    1.1848772   -6.8422721    20.257641  0.030693395  0.039486583            2 
   56000    1.1759044   -6.8417173    20.608806  0.030667866  0.039402909            1 
   57000    1.1786727    -6.885657    20.936879  0.030609473  0.039293054            2 
   58000    1.1833696   -6.8372332    21.449488  0.030818229  0.039190664            2 
   59000    1.1792855   -6.8241608    21.853616  0.030866689  0.039092532            3 
   60000    1.1463482   -6.7962696    22.308482  0.030984003   0.03900655            5 
   61000    1.1927123   -6.8859866    22.819064  0.031173584  0.038924881            2 
   62000    1.1742842    -6.883988    23.197467  0.031179391  0.038843145            1 
   63000    1.1655725   -6.8743401    23.491309   0.03107316  0.038766168            2 
   64000    1.1505786    -6.806293    24.062087  0.031330843  0.038682945            2 
   65000    1.1681321   -6.8542251    24.281108  0.031129625  0.038594368            1 
   66000    1.1518322   -6.8563351    24.491281  0.030923334  0.038474573            2 
   67000    1.1718176   -6.8849122    24.915116   0.03098895  0.038341863            1 
   68000    1.1636071   -6.8498292    25.206392  0.030890186  0.038209375            1 
   69000    1.1361798   -6.8981891    25.565183  0.030875825  0.038073093            3 
   70000    1.1580163   -6.8886738    25.989944   0.03094041    0.0379401            2 
   71000    1.1568929   -6.8982366    26.343567  0.030919679  0.037814042            1 
   72000    1.1371485   -6.9233872    26.760131  0.030972373   0.03768865            2 
   73000    1.1684659   -6.8328416    27.283115  0.031145108  0.037571801            1 
   74000    1.1695386   -6.8843986     27.66044  0.031149144  0.037470234            3 
   75000    1.1413197   -6.8833084    28.180444  0.031311604  0.037371711            3 
   76000    1.1513637   -6.8807899    28.365078  0.031102059  0.037269467            2 
   77000    1.1456147   -6.9153917    28.897227  0.031274055  0.037165937            1 
   78000    1.1417248   -6.8784672    29.200176  0.031196769  0.037071725            2 
   79000    1.1560698   -6.9396952    29.517832  0.031136954  0.036975442            2 
   80000    1.1146193    -6.902289    29.720799  0.030959165  0.036862886            1 
   81000     1.143002   -6.9306528    29.803554  0.030662092  0.036735331            2 
   82000    1.1648662   -6.9215401    30.296107  0.030788726  0.036597692            2 
   83000    1.1472466   -6.8990122    30.989513  0.031113969  0.036481143            2 
   84000    1.1293492   -6.9112583    31.105434  0.030858565  0.036368348            1 
   85000    1.1478324   -6.9604476    31.194985  0.030583319  0.036249746            2 
   86000    1.1430831   -6.9542086     31.58098  0.030601725  0.036123568            2 
   87000    1.1525626    -6.934625    32.059147  0.030707995  0.036002652            3 
   88000    1.1178212   -6.9100596    32.504549  0.030780823  0.035884039            1 
   89000     1.107954   -6.9815499    32.821909  0.030732125  0.035774647            1 
   90000    1.1202445   -6.9260513    33.188304  0.030729911  0.035664991            1 
   91000    1.1226843   -6.9479802    33.399793  0.030585891  0.035548676            1 
   92000    1.1244769   -6.9610836    33.510048  0.030353304  0.035427624            4 
   93000    1.1238926   -6.9775546    33.791675  0.030279279  0.035300377            1 
   94000    1.1249462   -6.9389922    34.150412  0.030275188  0.035173981            1 
   95000    1.1190565   -6.9357666    34.364331   0.03014415  0.035043209            1 
   96000    1.1218128   -6.9981701    34.589476  0.030025586  0.034910437            1 
   97000    1.0989969   -6.9672299    34.956783    0.0300316  0.034777151            2 
   98000    1.0993535   -6.9833155    35.421154  0.030120029  0.034646533            4 
   99000    1.1077926    -7.005769    35.668933  0.030024355   0.03452403            1 
  100000    1.1329009   -6.9739279    36.012086  0.030010072  0.034403685            1 
  101000    1.1161653   -6.9684659    36.499807  0.030115352  0.034291403            2 
  102000    1.1104037   -6.9853046    36.768022  0.030039233  0.034178758            2 
  103000    1.1006487   -6.9721515    37.188856  0.030088071  0.034074275            2 
  104000    1.0982992   -7.0108196    37.411754  0.029977367  0.033973028            1 
  105000    1.0979389    -6.956855    37.968668  0.030133863  0.033877527            3 
  106000    1.1254147   -6.9883808    38.383248  0.030175509  0.033787835            1 
  107000    1.1240882   -6.9815961    38.719102  0.030155064  0.033709813            1 
  108000    1.1074652   -7.0174818    38.886935  0.030005351  0.033624468            2 
  109000    1.1188897   -6.9607389     39.45249  0.030162454  0.033539855            2 
  110000    1.0959663   -7.0181819    39.510698  0.029932347  0.033455463            6 
  111000    1.0856969   -7.0013053     39.96445   0.03000334  0.033376675            1 
  112000      1.06738   -7.0336986    40.264672  0.029958834  0.033300556            3 
  113000    1.0967739   -7.0344978    41.009786  0.030243205  0.033228619            3 
  114000    1.0874654    -7.046972    41.276171  0.030172639  0.033163767            1 
  115000    1.0794291   -7.0285785    41.589146  0.030137062   0.03310036            2 
  116000    1.0665638   -7.0522336    41.928283  0.030120893  0.033035778            1 
  117000    1.0840267   -7.0211033    42.288627  0.030120104  0.032970213            2 
  118000      1.07607   -7.0754941    42.605788  0.030088833  0.032910993            1 
  119000    1.0833682   -7.0448292    43.149201  0.030216527  0.032853062            2 
  120000    1.0815964   -7.0684847    43.199581  0.029999709  0.032794873            2 
  121000    1.0776316   -7.0550151    43.421179  0.029904393   0.03272817            4 
  122000     1.058397   -7.0110456     43.88433  0.029975635  0.032665326            2 
  123000    1.0653891   -7.0748321    44.095508  0.029875005   0.03260641            2 
  124000    1.0786624    -7.031867    44.253466  0.029740232  0.032546177            1 
  125000    1.0828153   -7.0554898    44.737594  0.029825062  0.032480066            5 
  126000     1.069168   -7.0865228    44.925625  0.029712715  0.032415668            2 
  127000    1.0800633   -7.0297342    45.189474  0.029651886  0.032348392            1 
  128000    1.0734146   -7.0455481    45.381383  0.029545171  0.032278698            1 
  129000    1.0616251   -7.0735716    45.755627  0.029557899  0.032208717            3 
  130000      1.09121   -7.0919773    45.915788  0.029433198  0.032137446            2 
  131000    1.0707488   -7.0742699    46.298808  0.029452168  0.032066134            2 
  132000    1.0712659   -7.0883993    46.365364  0.029271063  0.031991634            2 
  133000    1.0685472   -7.0696822    46.619213  0.029210033  0.031917423            3 
  134000    1.0641469   -7.0951889     46.80315  0.029106437  0.031838712            1 
  135000    1.0712116   -7.1071363    47.196187  0.029133449  0.031760512            1 
  136000    1.0482854   -7.1112146    47.354056  0.029015966  0.031684629            2 
  137000    1.0497957   -7.0941625    47.676516  0.029000313  0.031604989            3 
  138000     1.060126   -7.1219627     47.92417  0.028939716  0.031526009            1 
  139000    1.0416166   -7.1042249    48.076852  0.028823053   0.03144406            3 
  140000    1.0292619   -7.0625532    48.206778  0.028694511  0.031359952            2 
  141000    1.0219815   -7.1600371    48.305419  0.028549302  0.031273196            3 
  142000    1.0618976   -7.1207714    48.562629  0.028499195  0.031186123            2 
  143000    1.0457297   -7.1206851    48.859259  0.028472761  0.031099221            1 
  144000    1.0536516   -7.1199254    49.085711  0.028406083  0.031011559            2 
  145000    1.0238309    -7.106321    49.291181  0.028328265  0.030926048            1 
  146000    1.0581291   -7.1222374    49.454288  0.028227333  0.030841086            3 
  147000    1.0263995   -7.1290531    49.657306    0.0281504  0.030753521            1 
  148000    1.0447436   -7.1499698    49.788059  0.028033817  0.030663015            1 
  149000    1.0208679   -7.1743643    50.147016  0.028046429  0.030573371            3 
  150000     1.027553   -7.1606924    50.303323  0.027946291  0.030485325            3 
  151000    1.0193762   -7.1476845    50.535825  0.027889528  0.030394667            2 
  152000    1.0106093   -7.1500456    50.641706  0.027764093  0.030302515            4 
  153000     1.022722   -7.1529065    50.994691  0.027774886  0.030211638            3 
  154000    1.0433341   -7.1792512    51.190655  0.027700571  0.030124026            2 
  155000    1.0232409   -7.1861965    51.342645  0.027603573   0.03003489            4 
  156000    1.0398971   -7.1740501    51.504363  0.027513014   0.02994194            3 
  157000   0.99800716   -7.1700721    51.805197  0.027497451  0.029851077            2 
  158000    1.0383651   -7.1552767    52.188866  0.027525773  0.029764009            3 
  159000    1.0167093   -7.1878366    52.420131  0.027473863  0.029678324            2 
  160000    1.0033119    -7.151326    52.789334  0.027494445   0.02959382            2 
  161000   0.99556244   -7.1962162     52.87987  0.027370533  0.029509561            3 
  162000    1.0199605   -7.2012341    53.132021  0.027331287   0.02942678            3 
  163000     1.010001   -7.1980236    53.411227  0.027306353  0.029345207            3 
  164000    1.0064217   -7.2048042    53.668591  0.027270626  0.029265411            2 
  165000    1.0005547   -7.2292221    53.807086  0.027175296  0.029187505            2 
  166000    0.9949577   -7.1750253    54.246662   0.02723226  0.029108004            2 
  167000   0.98576573   -7.2133487    54.269876  0.027080776   0.02902981            2 
  168000   0.99553485   -7.1995667    54.718116  0.027141923  0.028952255            3 
  169000    1.0014674   -7.2344831    54.880437   0.02706136  0.028873668            3 
  170000   0.98948108   -7.2034132    55.135321  0.027027118  0.028798301            2 
  171000   0.99560409   -7.2285655    55.519426  0.027056251  0.028723726            3 
  172000    1.0139461   -7.2093686    55.572802  0.026924807  0.028650177            2 
  173000   0.97682184   -7.2013022    55.798982  0.026878122  0.028576774            2 
  174000   0.98948762   -7.2668696    55.713056  0.026682498  0.028502394            1 
  175000    1.0068601   -7.2405961    56.033127  0.026682441   0.02842524            2 
  176000    0.9949913   -7.2411119    56.272269  0.026644067  0.028348385            3 
  177000   0.99708851   -7.2442309    56.408717  0.026557776   0.02827206            5 
  178000    0.9956753   -7.2212275    56.753068  0.026569788  0.028197893            3 
  179000   0.97018515   -7.2456582    56.988615  0.026531012  0.028124332            3 
  180000   0.97692095   -7.2356972    57.197301  0.026480232  0.028051842            3 
  181000   0.96838369   -7.2601209    57.443671  0.026447362  0.027981549            1 
  182000   0.98144932   -7.2819449    57.573293  0.026361398  0.027909587            2 
  183000   0.95645878   -7.2453227    57.726446  0.026287088  0.027836064            8 
  184000   0.96312756   -7.3142153    57.849159    0.0261998  0.027762556            2 
  185000   0.96577048   -7.2881299      58.1276  0.026183604  0.027688499            1 
  186000   0.96735647   -7.2838715    58.274813  0.026108787  0.027615501            2 
  187000   0.98949852   -7.3131648    58.741998  0.026177361  0.027543253            3 
  188000   0.96752199   -7.2844484    58.951709  0.026131077  0.027472671            1 
  189000   0.95263019   -7.2721148    59.239693  0.026119794  0.027402235            3 
  190000   0.96771554   -7.2816575    59.150418  0.025943166  0.027331004            3 
  191000   0.94181968   -7.3006783     59.32353  0.025882867  0.027260889            1 
  192000   0.96834725   -7.2991836     59.70262  0.025912595  0.027193761            3 
  193000   0.96701185   -7.2801659     60.02576  0.025917858  0.027127355            1 
  194000   0.95626524   -7.2904744    59.972804  0.025761514   0.02706028            1 
  195000   0.96644843   -7.2787736     60.41889  0.025820038  0.026994017            3 
  196000   0.92289794   -7.3497011    60.550129  0.025744102  0.026926739            1 
  197000   0.96902689   -7.3214512    60.396618  0.025548485  0.026858618            3 
  198000    0.9732041   -7.3240966    60.531951   0.02547641  0.026789697            3 
  199000   0.95165905   -7.3168397    60.823584  0.025470513  0.026720138            2 
  200000   0.95057578   -7.2944867    61.058557  0.025441065  0.026650293            2 
  201000   0.95658075   -7.2667395    61.218588  0.025380841  0.026582098            4 
  202000   0.93086254   -7.3371971    61.441532  0.025347167  0.026514884            3 
  203000   0.94749605   -7.3410449    61.769638  0.025356994  0.026448122            2 
  204000   0.95894134   -7.3203924    61.805499  0.025247344  0.026381093            1 
  205000   0.95151048    -7.331999    61.867583  0.025149424  0.026313238            4 
  206000   0.94297376   -7.3419127    62.094187  0.025119007  0.026244697            2 
  207000   0.95111077   -7.3427671    62.163551  0.025025584  0.026176163            1 
  208000   0.93548122   -7.3790532    62.156495  0.024902442   0.02610814            2 
  209000   0.93869501   -7.3581757    62.431512  0.024892947   0.02604005            3 
  210000   0.95329753   -7.3181642    62.777431  0.024911679  0.025971864            2 
  211000   0.90575394    -7.369417    62.819992  0.024810423  0.025903825            2 
  212000    0.9347451   -7.3424779    63.186592  0.024837497  0.025836134            1 
  213000   0.92248351   -7.3696379    63.198641  0.024725603  0.025768716            2 
  214000   0.93657896   -7.3780711    63.259528  0.024633773  0.025701576            2 
  215000   0.93090391   -7.3564599    63.596062  0.024649636  0.025633636            4 
  216000    0.9381835   -7.4267456    63.570458   0.02452564  0.025566233            3 
  217000   0.91019099   -7.3991896     63.59548  0.024422227  0.025497867            2 
  218000   0.92074846   -7.3944751    63.625806  0.024321791  0.025428069            2 
  219000   0.92462978    -7.392907    63.777751  0.024268551  0.025357784            3 
  220000   0.91373452   -7.3988628    63.766817  0.024154097  0.025287099            2 
  221000   0.91847395   -7.4360574    63.960177  0.024117714  0.025217066            3 
  222000   0.92364314   -7.4191471    64.118651  0.024068563  0.025147121            4 
  223000   0.92641631   -7.3987052    64.442825  0.024081773  0.025078067            3 
  224000   0.91596493   -7.4609898    64.336209  0.023934602  0.025009595            2 
  225000    0.9185685   -7.4203867    64.782697  0.023993591  0.024941221            3 
  226000   0.89902346   -7.4031155    65.143956  0.024020633   0.02487467            2 
  227000   0.91074814   -7.4187278    64.963636  0.023848618  0.024807696            3 
  228000    0.9158111   -7.4354848    65.073187  0.023784059   0.02473988            4 
  229000   0.90512851   -7.4841548    65.137841  0.023703727  0.024672403            2 
  230000   0.90347928   -7.4472775    65.505533  0.023733889  0.024604729            5 
  231000   0.90214294   -7.4274642    65.376022  0.023584424  0.024536879            6 
  232000   0.90757768   -7.4389101    65.630164  0.023574053   0.02446976            3 
  233000   0.88795304   -7.4226538    65.895655  0.023567831  0.024403166            3 
  234000   0.88571906   -7.4661665    65.913028    0.0234733  0.024337187            4 
  235000    0.8810599   -7.4489454    65.973629  0.023394904   0.02427031            2 
  236000   0.87635587   -7.4565458    66.118526  0.023346937   0.02420312            2 
  237000     0.882272   -7.4665949    66.115848  0.023247485   0.02413616            2 
  238000   0.87354759   -7.4701104    66.207155  0.023181777  0.024069003            9 
  239000   0.89220413   -7.4326046     66.22999  0.023092744  0.024001777            2 
  240000   0.89267203   -7.4598886     66.47179  0.023080482  0.023934811            2 
  241000   0.87645085   -7.4279795    66.806291  0.023100377  0.023868493            1 
  242000   0.87199372   -7.4754518    66.788555  0.022998814  0.023802137            2 
  243000   0.87855303   -7.4924325    66.907809  0.022945065  0.023736863            2 
  244000   0.86534331   -7.4859216    66.942234  0.022862785  0.023671556            3 
  245000   0.87286767   -7.4838358    67.394898  0.022923434  0.023605641            2 
  246000   0.86791988   -7.5238707    67.046855  0.022712349  0.023539569            3 
  247000   0.89630686    -7.498802    67.470889  0.022763458  0.023472935            3 
  248000   0.85926927   -7.4921704    67.462464  0.022668839  0.023406847            2 
  249000   0.85555985   -7.5351689    67.670404  0.022647391  0.023340784            3 
  250000   0.85874417   -7.5007479     67.42633  0.022475443  0.023274841            2 
  251000   0.87506993   -7.5143422    67.626952  0.022452507  0.023208395            4 
  252000   0.85163456   -7.4865837    67.843429  0.022434996  0.023142299            3 
  253000   0.86559043   -7.5021637    68.090874  0.022427824  0.023077152            2 
  254000   0.86037013   -7.5246439    67.982651  0.022304019  0.023012062            5 
  255000   0.87542159   -7.5122548    68.314076  0.022324861  0.022947301            2 
  256000   0.84243942   -7.4868945    68.494547  0.022296402   0.02288275            1 
  257000   0.86282129   -7.5358816    68.356968  0.022165035  0.022818858            4 
  258000   0.86562395   -7.5305815    68.616202  0.022162856  0.022755021            3 
  259000   0.84810349   -7.5247914    68.501254    0.0220403  0.022690834            2 
  260000   0.85113763   -7.5461164    68.701967  0.022019861    0.0226265            3 
  261000   0.86473958     -7.54888     68.81488  0.021971545  0.022562829            6 
  262000   0.84444706   -7.5664122     68.83608  0.021894428  0.022499132            4 
  263000   0.84802143   -7.5498972    69.133468  0.021905408  0.022435754            5 
  264000   0.83620768   -7.5521682    69.114558  0.021816464  0.022372718            6 
  265000    0.8375251   -7.5706955    69.390493   0.02182091  0.022310106            4 
  266000   0.84572248    -7.582916    69.276671  0.021703218  0.022246953            3 
  267000   0.86036527   -7.5619247     69.24337  0.021611539  0.022183784            2 
  268000   0.83125473   -7.6032859    69.356466  0.021566065  0.022120518            6 
  269000    0.8288686   -7.5659645    69.537105  0.021541854   0.02205695            3 
  270000   0.83639143   -7.5856735    69.601807  0.021482039  0.021994371            4 
  271000   0.83740798   -7.5913897    69.661154  0.021421019  0.021931556            2 
  272000   0.83541514   -7.5748777    69.952635  0.021431567  0.021868682            3 
  273000   0.82883603   -7.5930468     69.82022  0.021312643  0.021805975            3 
  274000   0.83667096   -7.6024422    69.924282  0.021266509  0.021742833            3 
  275000   0.82276909   -7.5873867    69.909732  0.021184767  0.021679492            2 
  276000   0.83050576   -7.6117477    69.947479  0.021119408  0.021616336            1 
  277000    0.8161208   -7.6123086    69.911889  0.021032458  0.021553144            2 
  278000   0.81982462    -7.629154    69.959013  0.020970927  0.021489764            2 
  279000   0.81546752   -7.6026152    70.116165  0.020942701  0.021426719            1 
  280000   0.81121649   -7.6416382    70.105312  0.020864676  0.021363644            2 
  281000   0.83979821   -7.6505166    70.260806  0.020836538  0.021300274            2 
  282000   0.81624151   -7.6620129    70.220409  0.020750712  0.021237102            1 
  283000   0.80921193   -7.6274974    70.373416  0.020722443  0.021173977            3 
  284000   0.81288835   -7.6067319    70.752365   0.02076067  0.021111981            2 
  285000   0.81328795     -7.62445    70.888993  0.020727776  0.021050563            1 
  286000   0.83234627   -7.6213353    70.817211  0.020634386  0.020989456            2 
  287000   0.80123765   -7.6684097    70.835886  0.020567911  0.020928576            3 
  288000   0.81199878     -7.64758    70.744933  0.020470177  0.020867346            2 
  289000   0.81699486   -7.6570501    71.054073  0.020488487  0.020806196            5 
  290000   0.81201574   -7.6620101     70.96622  0.020392592  0.020745417            5 
  291000   0.80881759   -7.6524603    71.208135  0.020391791  0.020685144            5 
  292000   0.78781544   -7.6702436    71.137578   0.02030182  0.020624771            3 
  293000   0.81035325   -7.6727765    71.067758  0.020212673  0.020563831            4 
  294000   0.80384414   -7.6846592     71.15684  0.020169172  0.020503013            3 
  295000    0.8107153   -7.6933395    71.339037   0.02015227  0.020442345            4 
  296000   0.79018219   -7.6561622    71.462131  0.020118843  0.020382144            2 
  297000   0.78142564   -7.6683816    71.459102  0.020050253  0.020322222            3 
  298000   0.79622509   -7.6800043    71.614933  0.020026547  0.020262016            3 
  299000   0.80619348   -7.6677647    71.517857  0.019932513  0.020201532            5 
  300000   0.78935231   -7.6898009     71.39809  0.019832803  0.020140948            4 
  301000   0.81174896   -7.6818275    71.615016   0.01982697  0.020080948            2 
  302000   0.78559365   -7.7046406    71.495163  0.019728246  0.020020784            3 
  303000   0.79190098   -7.6804344    71.637171  0.019702192  0.019960583            2 
  304000   0.80142723   -7.7187678    71.591627  0.019624898  0.019900325            3 
  305000   0.76770115   -7.6851445    71.927988  0.019652456  0.019840455            2 
  306000   0.78776806   -7.6903615    71.756299  0.019541476  0.019780737            2 
  307000   0.76523097   -7.7048469    71.980638  0.019538718  0.019721307            4 
  308000   0.79077398   -7.7139344     72.00222   0.01948112  0.019661946            1 
  309000    0.7694715    -7.716756    72.012985  0.019420978  0.019602982            3 
  310000   0.78296051   -7.7373708     72.25736  0.019424021  0.019544478            4 
  311000   0.78360377   -7.7526043    72.081004   0.01931431  0.019485924            2 
  312000   0.76208837   -7.7248498    72.156109  0.019272465  0.019427569            2 
  313000   0.77457632   -7.7090077    72.409416  0.019278332   0.01936952            2 
  314000   0.78194087   -7.7401837     72.39982  0.019214389  0.019311476            4 
  315000   0.75276873   -7.7543559    72.414235  0.019157205  0.019253834            4 
  316000   0.75661318   -7.7832361    72.328867  0.019074068   0.01919582            3 
  317000   0.75905824   -7.7428974     72.41196  0.019035741  0.019137611            3 
  318000   0.76092139   -7.7587086    72.534395  0.019007965  0.019079916            7 
  319000   0.76341008    -7.741953    72.554195  0.018953551  0.019021939            3 
  320000    0.7470059   -7.7644717    72.411869  0.018857258  0.018963692            4 
  321000   0.76633627   -7.7443579    72.327178  0.018776526  0.018905378            2 
  322000   0.75568516   -7.7748589    72.511497  0.018765915  0.018847009            3 
  323000    0.7363454   -7.7712067    72.398426  0.018678644  0.018788756            1 
  324000   0.74426907   -7.7960122    72.402841   0.01862213  0.018730617            5 
  325000   0.75565811   -7.7960754    72.443155  0.018575168  0.018672456            6 
  326000   0.74539103   -7.7974565    72.495863  0.018531662  0.018614909            3 
  327000   0.73629757   -7.7734145    72.634535   0.01851033  0.018557512            3 
  328000   0.74101127   -7.7854302     72.43813  0.018403996  0.018499868            7 
  329000    0.7380089   -7.8034673    72.664426  0.018405376  0.018442061            5 
  330000   0.73674706   -7.7974322      72.4752  0.018301818   0.01838427            2 
  331000   0.73968364   -7.8155479    72.489548  0.018250138  0.018326357            2 
  332000   0.74213545   -7.8398139    72.462607  0.018188405   0.01826853            3 
  333000   0.74432088   -7.8280237    72.485182  0.018139435  0.018211003            4 
  334000   0.73026493   -7.8379944    72.618667   0.01811843  0.018153396            6 
  335000    0.7323195   -7.8270375     72.55018  0.018047308  0.018096097            3 
  336000   0.74280183   -7.8210356    72.540833  0.017991278  0.018038528            5 
  337000   0.71727369   -7.8540726    72.726127  0.017983711  0.017981077            9 
  338000   0.75002836   -7.8590305    72.545993  0.017886093  0.017923859            5 
  339000   0.74205265   -7.8453682    72.655046  0.017860139  0.017867084            6 
  340000   0.73441962   -7.8813433     72.73693  0.017827679  0.017810196            5 
  341000   0.70835848   -7.8395673    72.711221  0.017769116  0.017753471            3 
  342000   0.70278754   -7.8865322    72.632323  0.017697935  0.017696852            3 
  343000    0.7313086   -7.8787759     72.75525  0.017676203  0.017640293            5 
  344000   0.70533842   -7.8685358    72.712419  0.017614443  0.017583749            3 
  345000   0.70974607   -7.8621044    72.775076  0.017578521  0.017527184            2 
  346000     0.723801   -7.8755836    72.734773  0.017518009  0.017470683            3 
  347000    0.7065573   -7.8676749    72.844381  0.017493848  0.017414719            2 
  348000   0.70154446   -7.8806634    72.852439  0.017445507  0.017358847            1 
  349000   0.71479006   -7.8787643    72.849197  0.017394746  0.017303296            3 
  350000   0.70639191    -7.886347    72.936152   0.01736575   0.01724797            3 
  351000   0.70590551      -7.8641    72.970725  0.017324484  0.017192728            5 
  352000   0.70946351    -7.902349    72.922053  0.017263744  0.017137684            4 
  353000   0.68736127   -7.8975363    72.758105  0.017176134  0.017082681            3 
  354000   0.70238426   -7.8925297    72.946216  0.017171896  0.017027782            3 
  355000   0.68509618   -7.9201216    72.824592  0.017094975  0.016972878            6 
  356000   0.68735113   -7.8884457    72.815599   0.01704485   0.01691765            3 
  357000   0.70525223   -7.9104018    72.823799  0.016999019   0.01686288            4 
  358000    0.6965666   -7.9151863    72.923319  0.016974702   0.01680849            2 
  359000   0.67895208   -7.9186501    72.965457    0.0169372  0.016754401            2 
  360000   0.68324847   -7.9128863    73.007839  0.016899963  0.016700382            1 
  361000   0.70237279   -7.9263369    72.942216     0.016838  0.016646406            1 
  362000   0.69485584   -7.9255475    72.967504  0.016797308  0.016592493            7 
  363000   0.69838264   -7.9267466    73.086351  0.016778318  0.016538895            1 
  364000   0.68075633   -7.9434061    72.857353  0.016679797  0.016485408            4 
  365000   0.69326274   -7.9317864     72.84544  0.016631379  0.016431829            3 
  366000    0.6847872   -7.9237753    72.977372  0.016615977  0.016378509            2 
  367000   0.67085929   -7.9283125    72.973477  0.016569818   0.01632526            4 
  368000   0.68606657   -7.9517471    72.911615  0.016510782  0.016272152            2 
  369000   0.68535255   -7.9508302    72.942891  0.016473101  0.016218832            4 
  370000   0.68234543   -7.9574307    72.998524  0.016441109  0.016165862            3 
  371000   0.67805598   -7.9427925    72.901238  0.016374941  0.016113149            5 
  372000   0.67361633   -7.9844937    72.931929  0.016337798  0.016060462            6 
  373000   0.66581604   -7.9825588    72.996394  0.016308399  0.016008164            3 
  374000   0.68322634   -7.9846687    72.933146  0.016250701  0.015955918            4 
  375000   0.67123925   -7.9873678    72.926223  0.016205827  0.015903601            4 
  376000   0.65580853   -7.9727661    73.038328  0.016187573  0.015851822            4 
  377000   0.65155495   -7.9781719    73.058737  0.016149146  0.015800521            4 
  378000   0.66929885    -8.004221    73.225526  0.016143194   0.01574922            3 
  379000   0.66832338   -7.9973903    73.218309  0.016099012  0.015698189            6 
  380000   0.66416451   -7.9969015    73.270832  0.016068165  0.015647379            3 
  381000   0.64387013   -7.9866385    73.049656  0.015977615  0.015596624            3 
  382000   0.66208822   -8.0109446    73.180171  0.015964261  0.015546127            2 
  383000   0.64974021   -7.9984915    73.089472  0.015902844  0.015495789            4 
  384000   0.66020524   -8.0442611     73.06778  0.015856723  0.015445511            3 
  385000   0.66595935   -8.0032962    73.204735  0.015845181   0.01539518            2 
  386000   0.65467373   -8.0135802     73.09981  0.015781479  0.015344852            8 
  387000   0.64720634   -8.0159602    72.946266  0.015707637  0.015294649            3 
  388000   0.62670316   -8.0396274    73.081503  0.015696199  0.015244496            3 
  389000   0.62747073   -8.0350301    73.009682  0.015640463  0.015194714            6 
  390000   0.65270674   -8.0378342     73.09606  0.015618816  0.015145138            6 
  391000   0.66009827   -8.0292473    73.074097  0.015574189  0.015095663            6 
  392000   0.65011645   -8.0531558    73.000346  0.015518781  0.015046285            3 
  393000    0.6218783   -8.0520948    73.011036   0.01548156   0.01499673            3 
  394000   0.63667681     -8.04796     72.96492  0.015432513  0.014947502            3 
  395000   0.62952809    -8.066007    72.976254  0.015395834  0.014898289            4 
  396000    0.6294402   -8.0655102    72.908604   0.01534272  0.014849145            5 
  397000   0.63594947   -8.0429418    73.137932  0.015352211  0.014800338            7 
  398000   0.61958139   -8.0535686    73.129217  0.015311812  0.014751687            5 
  399000   0.63751148    -8.061371    73.026093  0.015251899  0.014703399            2 
  400000   0.62689044   -8.0709731    73.122071  0.015233765  0.014655119            6 
  401000   0.62136475   -8.0836754    73.086256  0.015188332   0.01460719            4 
  402000   0.62685738   -8.0763424    72.997604  0.015132173  0.014559454            2 
  403000   0.63005861   -8.0601792    73.010653  0.015097323  0.014511821            5 
  404000   0.61710885    -8.088727    73.057694  0.015069656  0.014464449            3 
  405000   0.61089936   -8.0851657    73.092221  0.015039552  0.014417169            6 
  406000   0.62755297   -8.1021127    73.176924  0.015019894   0.01437022            2 
  407000   0.61284615    -8.078509    73.210541  0.014989873  0.014323454            4 
  408000   0.62206047   -8.0968043    73.014948  0.014913184  0.014276831            4 
  409000    0.6049443   -8.0884492    73.078869  0.014889745  0.014230237            2 
  410000   0.61358835   -8.0906527    73.058645  0.014849318  0.014183661            3 
  411000    0.6226929   -8.0801229    73.081714  0.014817866  0.014137165            2 
  412000   0.60205893   -8.0947415    73.019835  0.014769384   0.01409087            3 
  413000   0.61074735   -8.1203071    73.085392  0.014746851  0.014044859            5 
  414000    0.5973678   -8.1208906    73.040622  0.014702219  0.013998962            2 
  415000   0.59947036   -8.1179183    73.135344  0.014685812   0.01395324            4 
  416000   0.59837795   -8.1193295    72.974298  0.014618249  0.013907628            2 
  417000   0.61063223   -8.1345938    72.988346     0.014586  0.013862076            3 
  418000   0.59840045   -8.1279843    73.034361  0.014560279   0.01381656            3 
  419000    0.5952089   -8.1394186     72.89368   0.01449755  0.013771319            7 
  420000   0.59899192   -8.1440456     73.10664  0.014505286  0.013726166            6 
  421000   0.60099687   -8.1418811    72.936224  0.014437099  0.013681235            6 
  422000   0.59415874   -8.1339571     72.80812  0.014377591  0.013636338            2 
  423000    0.5992074   -8.1502169    73.047944  0.014390848  0.013591551            5 
  424000   0.59027236   -8.1386792    72.921418   0.01433204  0.013546997            3 
  425000   0.57590899   -8.1578993    72.991565  0.014312071  0.013502608            3 
  426000   0.58554184   -8.1533224    72.953781  0.014271084   0.01345843            3 
  427000   0.57954182   -8.1453339    73.049707  0.014256383  0.013414451            4 
  428000   0.58729569   -8.1531156     73.01977  0.014217245   0.01337048            3 
  429000   0.57764244   -8.1697043    72.904035  0.014161623  0.013326743            3 
  430000   0.57868422    -8.197185    72.910992  0.014130037  0.013283149            2 
  431000   0.57451745   -8.1571109    72.989576  0.014112447  0.013239695            4 
  432000   0.58804771   -8.1600668    73.002823  0.014082335  0.013196444            3 
  433000   0.58949794    -8.169004    72.929433  0.014035688  0.013153386            3 
  434000   0.58856241   -8.1840517     72.85061  0.013988212  0.013110544            5 
  435000   0.58498787   -8.1913677    72.892919  0.013964161  0.013067782            5 
  436000   0.56769367   -8.1512098    72.938937  0.013940928  0.013025238            3 
  437000   0.56834136   -8.1847928    73.005771  0.013921772  0.012982925            4 
  438000   0.56523878   -8.1880673    72.943555   0.01387815  0.012940664            3 
  439000   0.55853879   -8.2018203    72.950928  0.013847936  0.012898534            5 
  440000   0.56979539   -8.1876704    72.829874  0.013793537  0.012856502            5 
  441000   0.56118295   -8.2128999      72.8682  0.013769501  0.012814593            3 
  442000   0.55835349   -8.2071354    72.837937  0.013732643   0.01277279            4 
  443000   0.55154181   -8.2094426    72.883018  0.013710124  0.012731249            2 
  444000   0.56378057   -8.1938348    72.895036  0.013681501  0.012689836            4 
  445000   0.55052965   -8.2106795    72.830719  0.013638711  0.012648526            3 
  446000   0.57184155   -8.2124503    72.909856  0.013622918  0.012607386            6 
  447000   0.55483552   -8.2315479    72.708564  0.013554915  0.012566401            6 
  448000   0.56168958   -8.2315873    72.698197   0.01352273  0.012525509            8 
  449000   0.54363546   -8.2028451    72.741519  0.013500653  0.012484715            6 
  450000   0.54369173   -8.2321591      72.7615  0.013474352  0.012444077            3 
  451000   0.53872776    -8.238529    72.744429  0.013441321  0.012403567            5 
  452000   0.54506582     -8.22636    72.737494  0.013410305  0.012363236            7 
  453000    0.5304283   -8.2329347    72.812074  0.013394421  0.012323024            3 
  454000   0.54295737   -8.2525089    72.832757  0.013368715  0.012282939            4 
  455000   0.52505393   -8.2623441    72.788038  0.013331143  0.012242992            7 
  456000   0.53779534   -8.2574486    72.723889  0.013290184  0.012203181            2 
  457000   0.54077383   -8.2326727    72.655886  0.013248703  0.012163547            3 
  458000   0.53997606   -8.2601532    72.591669  0.013208091  0.012124082            2 
  459000   0.52557797   -8.2648603    72.667805  0.013193138  0.012084747            3 
  460000   0.53345811   -8.2394197    72.614494    0.0131548   0.01204557            4 
  461000   0.52398244   -8.2549078    72.745873  0.013150013  0.012006592            5 
  462000   0.53356374   -8.2486869    72.694245  0.013112238  0.011967667            5 
  463000   0.53007147   -8.2621585    72.690273  0.013083203  0.011928897            3 
  464000   0.52355399   -8.2605173    72.743892  0.013064636  0.011890329            5 
  465000   0.53454731   -8.2522534    72.623165  0.013014904  0.011851924            3 
  466000   0.51654956   -8.2516722    72.721587  0.013004576  0.011813628            2 
  467000   0.51588139   -8.2720493    72.601376  0.012955278  0.011775384            3 
  468000   0.51374496   -8.2818183    72.540586  0.012916771  0.011737323            5 
  469000   0.50841008   -8.2740791    72.558824   0.01289247  0.011699367            3 
  470000   0.50686905   -8.2854987    72.680343  0.012886586  0.011661504            3 
  471000   0.51425039   -8.2912975    72.458543  0.012819983  0.011623811            3 
  472000   0.51713538   -8.2773621     72.48239  0.012797032  0.011586349            6 
  473000   0.50537966   -8.2995205    72.591206  0.012789148  0.011548941            2 
  474000   0.49878864   -8.2671104    72.610953  0.012765639  0.011511727            3 
  475000   0.50681599   -8.3151019    72.655852  0.012746641   0.01147462            3 
  476000   0.50049521   -8.3105668    72.574114  0.012705552  0.011437666            2 
  477000   0.50113052   -8.3187779    72.433283  0.012654312  0.011400798            4 
  478000   0.50768149   -8.3019078    72.686945  0.012672062  0.011364064            4 
  479000    0.4978589   -8.3130732    72.535595  0.012619275  0.011327529            2 
  480000   0.50976384   -8.3186789    72.487083  0.012584563  0.011291168            3 
  481000   0.49753816   -8.3057478    72.536045  0.012566882  0.011254877            3 
  482000   0.50610796   -8.2945167    72.602296  0.012552264  0.011218794            2 
  483000   0.48056092    -8.331722    72.581707  0.012522724  0.011182805            3 
  484000   0.48932303   -8.3254073    72.498403  0.012482507  0.011146926            5 
  485000   0.49457603   -8.3095145    72.469257  0.012451762  0.011111228            5 
  486000   0.48494201   -8.3238077    72.434373   0.01242016  0.011075701            2 
  487000   0.49522084   -8.3286902    72.365386  0.012382852  0.011040262            3 
  488000   0.48790715     -8.33145    72.563461  0.012391301  0.011005092            3 
  489000   0.49221155   -8.3377729    72.436958  0.012344403  0.010969978            2 
  490000   0.47866631   -8.3360612    72.415851  0.012315621  0.010935039            3 
  491000   0.48123293   -8.3348884    72.513624  0.012307132  0.010900208            5 
  492000   0.48641072   -8.3442101    72.547438  0.012287845  0.010865519            2 
  493000   0.47526265   -8.3435195    72.405759  0.012238972  0.010830806            3 
  494000    0.4708078   -8.3387106    72.415633  0.012215862  0.010796325            1 
  495000   0.48127257   -8.3523814    72.354674  0.012180921  0.010761944            2 
  496000   0.47811371   -8.3618744     72.42326  0.012167886  0.010727699            5 
  497000   0.47812825    -8.354316    72.350365  0.012131181  0.010693621            2 
  498000   0.47280599   -8.3528152    72.458978  0.012124996  0.010659647            7 
  499000   0.47823459   -8.3828507    72.387731  0.012088799  0.010625824            2 
  500000   0.46317803   -8.3630172    72.366232  0.012061039  0.010592055            5 
  501000    0.4660591   -8.3663996    72.340046  0.012032609  0.010558445            7 
  502000   0.46699236   -8.3717571    72.437976  0.012024896   0.01052502            2 
  503000   0.46777641   -8.3729814    72.272084  0.011973506    0.0104917            4 
  504000   0.46288912   -8.3806473    72.474575   0.01198323  0.010458489            4 
  505000   0.45720619   -8.3687941    72.242911  0.011921272  0.010425462            3 
  506000   0.46259188   -8.3957309    72.305469  0.011908015  0.010392504            3 
  507000   0.45102158   -8.3909147    72.192348  0.011865935  0.010359691            3 
  508000   0.45248961   -8.3766667    72.229266  0.011848633  0.010326977            6 
  509000   0.45711368   -8.3826281    72.232932  0.011825955  0.010294425            2 
  510000   0.46759617   -8.3792595    72.323635  0.011817587  0.010261959            3 
  511000   0.44653547   -8.3967876    72.331203  0.011795695  0.010229629            5 
  512000   0.45513731   -8.4036586    72.228674  0.011755969  0.010197412            2 
Loop time of 1167.34 on 48 procs for 500000 steps with 4000 atoms

Performance: 74014.546 tau/day, 428.325 timesteps/s
99.4% CPU use with 48 MPI tasks x no OpenMP threads

MPI task timing breakdown:
Section |  min time  |  avg time  |  max time  |%varavg| %total
---------------------------------------------------------------
Pair    | 70.905     | 76.709     | 82.129     |  29.4 |  6.57
Neigh   | 7.5539     | 7.9803     | 8.4753     |   6.6 |  0.68
Comm    | 72.492     | 78.895     | 85.821     |  34.3 |  6.76
Output  | 0.83965    | 0.8402     | 0.84932    |   0.1 |  0.07
Modify  | 989.34     | 992.39     | 994.61     |   3.7 | 85.01
Other   |            | 10.52      |            |       |  0.90

Nlocal:        83.3333 ave          93 max          76 min
Histogram: 3 2 11 9 5 9 3 3 2 1
Nghost:        1985.52 ave        2008 max        1962 min
Histogram: 3 2 7 5 5 6 11 1 6 2
Neighs:        12673.6 ave       14420 max       10799 min
Histogram: 2 1 2 8 12 7 10 1 1 4
FullNghs:      25347.0 ave       28777 max       23007 min
Histogram: 3 3 9 12 5 7 5 2 1 1

Total # of neighbors = 1216657
Ave neighs/atom = 304.16425
Neighbor list builds = 26817
Dangerous builds = 0

#clear
#
#next RN
#
#jump SELF
Total wall time: 0:19:30
