
units lj                  # Use reduced LJ style units
atom_style atomic         # Uncharged point particles
atom_modify map hash      # Needed for indexing of clusters etc
                          # Used to be able to find where atoms are in relation to each other.

lattice fcc 1.0 spacing 1 1 1
Lattice spacing in x,y,z = 1.5874011 1.5874011 1.5874011
region box block 0 10 0 10 0 10 units lattice
create_box 2 box
Created orthogonal box = (0.0000000 0.0000000 0.0000000) to (15.874011 15.874011 15.874011)
  3 by 4 by 4 MPI processor grid
create_atoms 1 box
Created 4000 atoms
  using lattice units in orthogonal box = (0.0000000 0.0000000 0.0000000) to (15.874011 15.874011 15.874011)
  create_atoms CPU = 0.003 seconds
set type 1 type/fraction 2 0.31 78393
Setting atom values ...
  1268 settings made for type/fraction
mass 1 1.0
mass 2 1.0
pair_style lj/cut  3.5
pair_modify tail  yes
pair_coeff 1  1  1.0  1.0   # Intearaction between 1 and 1 set with epsilon = 1 and sigma = 1
pair_coeff 1  2  1.5  0.8
pair_coeff 2  2  0.5  0.88

write_data data.0
System init for write_data ...
Neighbor list info ...
  update every 1 steps, delay 10 steps, check yes
  max neighbors/atom: 2000, page size: 100000
  master list distance cutoff = 3.8
  ghost atom cutoff = 3.8
  binsize = 1.9, bins = 9 9 9
  1 neighbor lists, perpetual/occasional/extra = 1 0 0
  (1) pair lj/cut, perpetual
      attributes: half, newton on
      pair build: half/bin/atomonly/newton
      stencil: half/bin/3d
      bin: standard
WARNING: Not all mixed pair coeffs generated from mixing. Use write_data with 'pair ij' option to store all pair coeffs. (../write_data.cpp:312)


#############################
#   M E L T   S Y S T E M   #
#############################

velocity all create 2.4 6229865 mom yes dist gaussian # Assign velocities
                                                    # Temperature 2.4, random number seed, zero linear momentum
                                                                                # Gaussian distribution

timestep 0.002   # simulation timestep
thermo 1000       # output thermodynamic data every 1000 steps bf 100

# Define a fix  in this case with index 1 applied to all
# particles in the simulation. This fix is for simulations
# in the anisotropic NPT ensemble. Note that we use the MTK
# correction.
fix 1 all npt temp 2.4 2.4 0.1 iso 5.68 5.68 0.5 mtk yes tchain 5 pchain 5 # Use NPT ensemble
                                                                         # Set temperature and pressure and damping
                                                                         # Numbers of thermostats in chain and in barostat
run 10000          # run for 10000 steps
Per MPI rank memory allocation (min/avg/max) = 3.642 | 3.644 | 3.648 Mbytes
Step Temp E_pair E_mol TotEng Press Volume 
       0          2.4   -6.3727134            0   -2.7736134   -4.0086663         4000 
    1000    2.4087765    -4.982248            0   -1.3699865    5.5872652    4133.9981 
    2000    2.3606843   -5.0646006            0   -1.5244594    5.4955091    4098.8153 
    3000    2.4293745   -4.9549556            0   -1.3118048    5.6112132    4149.4136 
    4000    2.3854425    -4.950218            0   -1.3729488    5.8472625    4121.3261 
    5000    2.4320097   -5.0109844            0   -1.3638818    5.8591076    4107.4203 
    6000    2.4178612   -4.9592391            0   -1.3333541    5.9559413    4116.3903 
    7000    2.4477267   -5.0157049            0   -1.3450327    5.4481073    4145.7852 
    8000    2.4291488   -4.9622443            0   -1.3194321    5.6375729    4140.1026 
    9000    2.3562086   -5.0662261            0   -1.5327967    5.3965907      4111.51 
   10000    2.4070106   -5.0375825            0   -1.4279691    5.7286948    4097.0955 
Loop time of 2.66793 on 48 procs for 10000 steps with 4000 atoms

Performance: 647693.617 tau/day, 3748.227 timesteps/s
99.4% CPU use with 48 MPI tasks x no OpenMP threads

MPI task timing breakdown:
Section |  min time  |  avg time  |  max time  |%varavg| %total
---------------------------------------------------------------
Pair    | 1.0424     | 1.1176     | 1.1836     |   3.3 | 41.89
Neigh   | 0.20354    | 0.2111     | 0.2244     |   1.0 |  7.91
Comm    | 0.78257    | 0.91558    | 1.0067     |   5.7 | 34.32
Output  | 0.00024471 | 0.0002539  | 0.00037759 |   0.0 |  0.01
Modify  | 0.3246     | 0.40852    | 0.47953    |   7.4 | 15.31
Other   |            | 0.01484    |            |       |  0.56

Nlocal:        83.3333 ave          92 max          74 min
Histogram: 1 0 4 10 4 12 7 7 2 1
Nghost:        1615.48 ave        1642 max        1592 min
Histogram: 4 3 4 5 10 7 6 6 1 2
Neighs:        9328.25 ave       10526 max        7987 min
Histogram: 1 2 2 5 11 14 4 4 2 3

Total # of neighbors = 447756
Ave neighs/atom = 111.93900
Neighbor list builds = 908
Dangerous builds = 208

# Equilibrate just above the melting temperature to avoid step fn in T

fix 1 all npt temp 1.25 1.25 0.1 iso 5.68 5.68 0.5 mtk yes tchain 5 pchain 5
run 2000
Per MPI rank memory allocation (min/avg/max) = 3.643 | 3.645 | 3.649 Mbytes
Step Temp E_pair E_mol TotEng Press Volume 
   10000    2.4070106   -5.0375825            0   -1.4279691    5.7286948    4097.0955 
   11000    1.2614235   -6.8674639            0   -4.9758016    5.7585214    3313.5921 
   12000    1.2245092    -6.911074            0   -5.0747694    6.0408063    3290.2371 
Loop time of 0.666688 on 48 procs for 2000 steps with 4000 atoms

Performance: 518383.674 tau/day, 2999.906 timesteps/s
99.1% CPU use with 48 MPI tasks x no OpenMP threads

MPI task timing breakdown:
Section |  min time  |  avg time  |  max time  |%varavg| %total
---------------------------------------------------------------
Pair    | 0.25319    | 0.27216    | 0.29602    |   2.0 | 40.82
Neigh   | 0.038226   | 0.039919   | 0.043269   |   0.6 |  5.99
Comm    | 0.22027    | 0.24623    | 0.31061    |   3.3 | 36.93
Output  | 5.6818e-05 | 5.8698e-05 | 7.2053e-05 |   0.0 |  0.01
Modify  | 0.052842   | 0.10373    | 0.11316    |   3.1 | 15.56
Other   |            | 0.004587   |            |       |  0.69

Nlocal:        83.3333 ave          92 max          74 min
Histogram: 2 2 2 8 8 8 8 7 2 1
Nghost:        1867.85 ave        1884 max        1852 min
Histogram: 2 6 6 3 7 6 5 6 4 3
Neighs:        11583.9 ave       13690 max       10188 min
Histogram: 2 5 11 7 9 5 6 2 0 1

Total # of neighbors = 556028
Ave neighs/atom = 139.00700
Neighbor list builds = 144
Dangerous builds = 8

#############################
# L I N E A R  Q U E N C H  #
#############################

# Define solid atoms. This closely follows ten Wolde  Ruiz-Montero and Frenkel  Faraday Discuss  1996  104  93-110
# Compute components of the per-atom q6 vector
compute q6 all orientorder/atom degrees 1 6 components 6 nnn NULL cutoff 1.3 # compute the Q6 parameter.
                                                                             # Use all neighbours within 1.3 unit cell.

# get number of connections
compute coord_number all coord/atom orientorder q6 0.5

# An atom is solid if it has 8 or more connections (of a possible 14)
variable is_solid atom c_coord_number>=8
group solid dynamic all var is_solid    # Must be dynamic to update
dynamic group solid defined

# do clustering
compute cluster solid cluster/atom 1.3 # Create a cluster where all atoms within are solid and max 1.3 units from another member

# define chunks one chunk per cluster
compute clus_chunks solid chunk/atom c_cluster nchunk every compress yes  # Says which atoms are in which chunk

# count the size of each chunk
compute size_chunks solid property/chunk clus_chunks count


# Find the maximum entry in the vector of chunk sizes
variable max_n equal max(c_size_chunks)


# Thermo style which includes this variable
# thermo_style custom step temp pe vol v_max_n

thermo ${N}  # Print the thermo information every 100 steps
thermo 1000  

# Reset the npt fix at a lower temperature (below freezing)
fix 1  all npt temp  ${temp} ${temp}  0.1  iso  5.68  5.68  0.5  mtk yes tchain  5  pchain  5
fix 1  all npt temp  0.45 ${temp}  0.1  iso  5.68  5.68  0.5  mtk yes tchain  5  pchain  5
fix 1  all npt temp  0.45 0.45  0.1  iso  5.68  5.68  0.5  mtk yes tchain  5  pchain  5

dump dmp2 all dcd ${N} traj.dcd
dump dmp2 all dcd 1000 traj.dcd


compute msd all msd com yes
variable twopoint equal c_msd[4]/6/(step*dt+1.0e-6)
fix 9 all vector 10 c_msd[4]
variable fit equal slope(f_9)/6/(10*dt)
thermo_style custom step temp pe c_msd[4] v_twopoint v_fit v_max_n

fix 1 all npt temp 1.25 ${temp} 0.1 iso 5.68 5.68 0.5 mtk yes tchain 5 pchain 5
fix 1 all npt temp 1.25 0.45 0.1 iso 5.68 5.68 0.5 mtk yes tchain 5 pchain 5
run 5000000 # 5000000  # Run for this many steps
Neighbor list info ...
  update every 1 steps, delay 10 steps, check yes
  max neighbors/atom: 2000, page size: 100000
  master list distance cutoff = 3.8
  ghost atom cutoff = 3.8
  binsize = 1.9, bins = 8 8 8
  4 neighbor lists, perpetual/occasional/extra = 1 3 0
  (1) pair lj/cut, perpetual
      attributes: half, newton on
      pair build: half/bin/atomonly/newton
      stencil: half/bin/3d
      bin: standard
  (2) compute orientorder/atom, occasional
      attributes: full, newton on
      pair build: full/bin/atomonly
      stencil: full/bin/3d
      bin: standard
  (3) compute coord/atom, occasional
      attributes: full, newton on
      pair build: full/bin/atomonly
      stencil: full/bin/3d
      bin: standard
  (4) compute cluster/atom, occasional
      attributes: full, newton on
      pair build: full/bin/atomonly
      stencil: full/bin/3d
      bin: standard
Per MPI rank memory allocation (min/avg/max) = 9.814 | 9.818 | 9.824 Mbytes
Step Temp PotEng c_msd[4] v_twopoint v_fit v_max_n 
   12000    1.2245092    -6.911074 4.152761e-30 2.8838617e-32 8.3333333e+20            1 
   13000    1.2638004   -6.9445306   0.50903888 0.0032630696  0.041818362            1 
   14000    1.2363984   -6.8717335    1.0013197 0.0059602363  0.040789706            2 
   15000    1.2148841   -6.9196402    1.4495088 0.0080528261  0.040555151            2 
   16000    1.2312194   -6.9686605      1.88821 0.0098344265  0.039511679            3 
   17000    1.2511541   -6.9123024    2.3874594  0.011703232  0.038779844            2 
   18000    1.2457067   -6.8802671    2.8721822  0.013297139  0.038851518            1 
   19000    1.2657732   -6.8974583    3.3128889  0.014530214  0.038887023            1 
   20000    1.2421092   -6.9031358    3.8347069  0.015977945  0.038970589            1 
   21000    1.2459307   -6.8982559    4.3470184  0.017250073  0.039411503            2 
   22000    1.2637179   -6.9049569    4.8911054  0.018526914  0.039796465            2 
   23000    1.2493539   -6.9328874    5.4487629  0.019741894  0.040315785            2 
   24000    1.2538175   -6.9510334    5.8634337  0.020359144  0.040581654            2 
   25000    1.2542863   -6.9096223    6.3099209  0.021033069  0.040660082            1 
   26000    1.2806972   -6.9117591    6.8777253  0.022043991  0.040687251            2 
   27000     1.246301   -6.9012541    7.5149987   0.02319444  0.040971465            1 
   28000    1.2662985    -6.908776    8.0694157  0.024016118   0.04133991            2 
   29000    1.2713672    -6.874785    8.6385022  0.024823282  0.041729404            1 
   30000    1.2595407   -6.9268651    8.9843953  0.024956653  0.041894416            3 
   31000    1.2698704   -6.9039403    9.2508352  0.024867836  0.041807922            1 
   32000    1.2567355   -6.9235128    9.6667815   0.02517391   0.04153939            1 
   33000    1.2227735   -6.9155517    10.136855  0.025598117  0.041278458            2 
   34000     1.247078   -6.9241568    10.559362  0.025880788  0.041019513            2 
   35000     1.232605   -6.9315754    11.093892  0.026414028  0.040840135            1 
   36000    1.2656545   -6.9359408    11.582171   0.02681058  0.040721256            1 
   37000     1.257467   -6.8886699    12.125834  0.027310437  0.040660945            2 
   38000     1.212875   -6.8777634    12.619278  0.027673854  0.040613512            1 
   39000    1.2702571    -6.885475    13.191673  0.028187335   0.04060674            1 
   40000    1.2567467   -6.9306219    13.658694  0.028455613  0.040581073            2 
   41000    1.2290688   -6.9346608    14.054746  0.028566558  0.040543062            3 
   42000    1.2450164   -6.9197052    14.380493  0.028532724  0.040469026            1 
   43000    1.2446011   -6.9173769    14.674402  0.028438763  0.040326488            1 
   44000    1.2633713   -6.9507414    15.100182  0.028598829  0.040132307            3 
   45000    1.2487467   -6.9798312    15.376384  0.028474784  0.039914306            2 
   46000    1.2270607    -6.902705     15.82649  0.028671178  0.039727725            2 
   47000    1.2086528   -6.9157093    16.329972  0.028953851  0.039547855            1 
   48000    1.2428686   -6.9328369    16.771947  0.029117964   0.03938577            2 
   49000    1.2713108   -6.9544969    17.183743  0.029224052  0.039229092            3 
   50000    1.2514483   -6.8902792    17.712037  0.029520062  0.039096834            2 
   51000    1.2651701   -6.9049618    18.152151  0.029660378  0.039001168            2 
   52000    1.2239413   -6.9064451     18.53149    0.0296979  0.038879887            1 
   53000    1.2381418    -6.929012    19.004517  0.029881315  0.038785515            2 
   54000    1.2485235   -6.9541551    19.410845  0.029955007  0.038679756            1 
   55000    1.2345557   -6.9007402    19.892709  0.030140468  0.038585037            1 
   56000    1.2461811   -6.8957962    20.430365  0.030402329  0.038504529            1 
   57000    1.2101734   -6.9046981    20.941753  0.030616598  0.038449736            1 
   58000    1.2287207    -6.937953    21.443242  0.030809256  0.038417925            2 
   59000    1.2650302   -6.9412731    21.986259  0.031054037  0.038408065            2 
   60000    1.2322319   -6.9002267    22.363024  0.031059755   0.03841484            3 
   61000    1.2440836   -6.9046837    22.908686  0.031296019  0.038409022            3 
   62000    1.2279622   -6.9135518    23.335067  0.031364337  0.038408261            3 
   63000    1.2317939   -6.9245612    23.832568  0.031524561  0.038418409            2 
   64000    1.2196398   -6.9055084    24.328734  0.031678039  0.038436226            2 
   65000    1.2378873   -6.8694884    24.847848  0.031856216  0.038455103            1 
   66000    1.2427353   -6.8818304    25.401722  0.032072881  0.038472602            1 
   67000    1.2560608   -6.9868842    25.763544  0.032044208  0.038492738            2 
   68000    1.2508178   -6.9096812    26.177841  0.032080687   0.03849339            2 
   69000    1.2264175   -6.8902631    26.492261  0.031995484  0.038472566            1 
   70000    1.2493721   -6.9324965    26.920451  0.032048155  0.038442255            2 
   71000     1.216204   -6.9014186    27.645838  0.032448166  0.038447078            3 
   72000    1.2471308   -6.9120889    28.070635  0.032489161  0.038466344            1 
   73000    1.2584951   -6.9089673    28.621651  0.032673117  0.038482783            2 
   74000     1.225895   -6.8874072     29.40389  0.033112489   0.03852545            2 
   75000    1.2410905   -6.9063264    30.005147  0.033339052  0.038579209            2 
   76000    1.2104237   -6.9096062    30.414844  0.033349609  0.038632882            1 
   77000    1.2308175   -6.9462119    30.889489  0.033430183  0.038683029            1 
   78000    1.2308712   -6.9378052    31.254457  0.033391514  0.038736694            3 
   79000    1.2468119   -6.9081802    31.713114  0.033452652  0.038770759            2 
   80000    1.2309528   -6.9253217    32.116464   0.03345465  0.038796988            1 
   81000     1.270593   -6.8660919    32.623713   0.03356349  0.038823365            2 
   82000    1.2519805   -6.8878533    33.034538  0.033571685  0.038844087            3 
   83000    1.2406152   -6.9079883    33.353912  0.033487863  0.038854828            1 
   84000    1.2410302   -6.9135569    33.758534  0.033490609  0.038853854            1 
   85000    1.2132281   -6.9306134    34.170705  0.033500691  0.038850179            1 
   86000    1.2370973   -6.9415261    34.586342  0.033513897  0.038842536            1 
   87000    1.2134694    -6.918964    35.106478  0.033626894  0.038829982            1 
   88000    1.2384067   -6.9093206    35.489174  0.033607172  0.038815429            1 
   89000    1.2266731   -6.9159481    35.871864  0.033587887  0.038800416            1 
   90000    1.2572637   -6.8766916    36.302102  0.033613057  0.038777325            1 
   91000    1.2466794   -6.9051767    36.751556  0.033655271  0.038759062            3 
   92000    1.2323977    -6.925394    37.077816  0.033584978  0.038736917            2 
   93000     1.235527    -6.939401    37.566594  0.033661822  0.038708712            1 
   94000     1.224681   -6.8929769    37.922944  0.033619631   0.03868521            1 
   95000    1.2430071    -6.956814    38.356448  0.033646007  0.038656419            1 
   96000    1.2460474   -6.9628482    38.685602  0.033581251  0.038625364            3 
   97000    1.2422091    -6.878711    39.395302  0.033844761  0.038594564            1 
   98000    1.2469881    -6.948683    39.468645  0.033561773  0.038565608            1 
   99000    1.2428784   -6.9206057    39.909043  0.033593471  0.038534066            1 
  100000    1.2373434   -6.9401607    40.476572  0.033730476  0.038497972            1 
  101000    1.2385204   -6.9329269    40.883834  0.033732536  0.038465238            1 
  102000    1.2098776   -6.9283361    41.496097   0.03390204  0.038430686            1 
  103000    1.2476684    -6.864625      41.8732  0.033877994  0.038405622            2 
  104000    1.2450127   -6.9202969    42.232429  0.033840088  0.038370289            1 
  105000    1.2133869   -6.9265333    42.588343  0.033800272  0.038333343            1 
  106000    1.2319424    -6.926317     43.12243  0.033901281  0.038305246            2 
  107000    1.2137408   -6.9847575    43.357519  0.033767538  0.038273853            1 
  108000    1.2125317   -6.9772733     43.93604  0.033901265  0.038245545            2 
  109000    1.2491104   -6.8855594     44.55711  0.034065069  0.038222502            2 
  110000    1.2553288    -6.927175    44.830831   0.03396275  0.038202005            1 
  111000    1.2594104   -6.9343196    45.422628  0.034101072  0.038178371            1 
  112000    1.2256738   -6.9332859    45.910761  0.034159792  0.038157309            1 
  113000    1.2303749   -6.9127592    46.443653  0.034250482  0.038137279            1 
  114000    1.2174886   -6.9160818    46.932278  0.034307221    0.0381238            1 
  115000    1.2490247    -6.960751    47.337157  0.034302288  0.038109828            2 
  116000    1.2470401   -6.9065466    47.786369  0.034329288    0.0380986            1 
  117000    1.2577202   -6.9556834    48.345162  0.034433876  0.038087968            1 
  118000    1.2548164   -6.9286805    48.670091  0.034371533  0.038079834            1 
  119000     1.236862   -6.9284725    49.282332  0.034511437  0.038067132            1 
  120000    1.2317037   -6.9573366    49.358334  0.034276621  0.038052877            1 
  121000    1.1934112   -6.9034173    49.865757  0.034342808  0.038037745            1 
  122000    1.2164553   -6.9672239    50.608657  0.034568755  0.038026235       -1e+20 
  123000    1.2271035   -6.9474923     50.84369  0.034446944  0.038017438            3 
  124000    1.2469911   -6.9566352    51.097622    0.0343398  0.037999406            2 
  125000      1.21356   -6.9555031    51.673189  0.034448793  0.037985104            1 
  126000    1.2455374   -6.9315113    52.358458   0.03462861  0.037979027            1 
  127000    1.2539979   -6.9287759    53.176079   0.03489244  0.037979822            1 
  128000    1.2275393   -6.9701827    53.449007  0.034797531  0.037983858            2 
  129000    1.2173911   -6.9730582    53.758816  0.034727917  0.037984977            2 
  130000    1.2371056   -6.9563501    54.242724  0.034770977  0.037983004            1 
  131000    1.2373644   -6.9510906    54.594247  0.034729165  0.037979317            1 
  132000    1.2149698   -6.9157714    55.110455  0.034791954  0.037977613            1 
  133000    1.2349767   -6.9729751    55.653621  0.034870689  0.037976498            1 
  134000    1.2254483   -6.9410703    56.038416  0.034849761  0.037978096            1 
  135000    1.2064961   -6.9490758    56.650227  0.034969276  0.037979855            2 
  136000    1.2052198   -6.9848717    56.977981  0.034912978  0.037983031            1 
  137000    1.2439408   -6.9736115    57.536185   0.03499768   0.03798026            1 
  138000    1.2161698   -6.9455632    58.173195  0.035128741  0.037983952            1 
  139000     1.249132   -6.9687101    58.695046  0.035188876  0.037992743            1 
  140000     1.229356   -6.9643148    59.004519  0.035121737  0.037997386            2 
  141000    1.2303839   -6.9465825     59.33372  0.035067211  0.037997044            2 
  142000    1.2407954     -6.97127    59.899953  0.035152554   0.03799532            1 
  143000    1.2304935   -6.9417702    60.016912   0.03497489  0.037994629            2 
  144000     1.210234   -6.9412282    60.703561  0.035129376  0.037992555            2 
  145000    1.2214496   -6.9322854    61.237824  0.035194152  0.037993802            1 
  146000    1.2156337   -6.9355718    62.173311   0.03548705  0.037996472            3 
  147000    1.2152223   -6.9589112    62.296516  0.035315485  0.038001598            1 
  148000    1.2255052   -6.9408739    62.663104  0.035283279  0.038003738            1 
  149000    1.2184975   -6.9339688    63.262609  0.035381772   0.03800683            3 
  150000    1.2265066   -6.9386695    63.704876  0.035391598  0.038010253            1 
  151000    1.2563363   -6.9463848    63.981148  0.035309684  0.038013527            1 
  152000    1.2118722   -6.9711466    64.231815  0.035214811  0.038014614            3 
  153000     1.238824   -6.9536249    64.714118  0.035247341  0.038016025            2 
  154000    1.2287027   -6.9495358    65.260744  0.035314256  0.038014186            1 
  155000    1.2526913   -6.9256538    65.453897  0.035190267  0.038012134            1 
  156000    1.2268985   -6.9620394    65.885908  0.035195464  0.038008353            1 
  157000    1.2061001   -6.9626044    66.313717  0.035198363  0.038003795            2 
  158000    1.2295391   -6.9392037    66.928435  0.035299807  0.037999833            2 
  159000    1.2131616   -6.9409745    67.534695  0.035395542  0.037997581            3 
  160000    1.2045819   -6.9689731    67.878457  0.035353363  0.037993054            2 
  161000    1.2244977   -6.9398389    68.661836  0.035539253   0.03799345            2 
  162000    1.2056634   -6.9512568    68.838332  0.035410665   0.03799294            1 
  163000    1.2362005   -6.9701317     68.78122  0.035164223  0.037988361            1 
  164000    1.2191388   -6.9491699    69.566452  0.035348807  0.037979912            2 
  165000    1.2252812   -6.9244591    69.724854  0.035214572  0.037971103            1 
  166000    1.2289092     -6.92471    70.405132  0.035343941  0.037962914            2 
  167000    1.2328178   -6.9378513    70.779293  0.035319008  0.037957449            2 
  168000    1.2175693   -6.9524915    71.501099  0.035466815  0.037954075            1 
  169000    1.2182012    -6.967698     72.15118  0.035577505  0.037951693            2 
  170000     1.214122   -6.9564155    72.212805  0.035398434  0.037949796            1 
  171000    1.2187074     -6.90368    73.169761  0.035657778  0.037949334            2 
  172000    1.2450481   -6.9487675    73.279163   0.03550347  0.037948723            1 
  173000    1.2126593   -6.9356963    73.581034  0.035443658  0.037943332            1 
  174000    1.2243001   -6.9321681    74.169817  0.035521943  0.037938006            3 
  175000    1.2336788   -6.9383352    74.510688   0.03548128  0.037932283            1 
  176000    1.2304333   -7.0225426    74.640694  0.035341238   0.03792336            1 
  177000    1.2164501   -6.9283394     75.24511  0.035426135  0.037915211            3 
  178000    1.2412805   -6.9666558    75.726808  0.035452625  0.037906844            3 
  179000    1.2258262   -6.9854522    76.139187  0.035446549  0.037897539            2 
  180000    1.2181095   -6.9382341    76.648769  0.035485541  0.037893033            1 
  181000    1.2441312   -6.9559459    76.974032  0.035439241  0.037885271            1 
  182000    1.2406499    -6.948081    77.275386  0.035382502  0.037876922            2 
  183000    1.2331076   -6.9534243    77.787625  0.035422416  0.037866335            3 
  184000    1.2373859   -6.9620411    78.299076  0.035461538  0.037857357            1 
  185000    1.2209856   -6.9478752    78.488541  0.035355199  0.037848736            1 
  186000    1.2221695   -7.0106394     79.03437  0.035409664  0.037838721            2 
  187000    1.2266116   -6.9756029    79.274366  0.035327257  0.037826992            1 
  188000    1.2411802   -6.9498693    79.817667  0.035380171   0.03781534            3 
  189000    1.2237419   -6.9577619       80.262  0.035388889  0.037801722            1 
  190000    1.2200556   -6.9935005    80.704253  0.035396602  0.037788951            2 
  191000    1.2135775   -6.9612423    81.001508  0.035340972  0.037776043            2 
  192000    1.2522826   -6.9516663    80.993448  0.035153406  0.037760364            1 
  193000    1.2090614   -7.0353474    81.506406  0.035192749  0.037744834            2 
  194000     1.228771   -7.0059468    82.549063  0.035459219  0.037731795            1 
  195000    1.2184408   -6.9521711     83.08576  0.035506735  0.037723014            1 
  196000    1.2181976   -7.0088047    83.326156  0.035427787  0.037716448            2 
  197000    1.1726999   -6.9931931    84.154347  0.035598286   0.03771161            2 
  198000    1.2350604   -6.9770056    84.496443  0.035562476  0.037707147            3 
  199000    1.2504262   -6.9671504    84.962639  0.035578995  0.037704716            1 
  200000    1.2204286   -6.9440259    85.837856  0.035765773  0.037703129            4 
  201000    1.2239704   -6.9319689    86.329729  0.035791762  0.037702561            2 
  202000    1.2168445   -6.9311086    86.883844   0.03584317  0.037702398            1 
  203000    1.2279946   -6.9443901    87.127718  0.035766715  0.037702907            2 
  204000    1.2450813   -6.9751213    87.864055  0.035892179  0.037704183            1 
  205000    1.2127184   -7.0135815    88.060642  0.035797009  0.037708109            1 
  206000    1.2065533   -6.9435808    88.629538  0.035853373  0.037710658            1 
  207000     1.202586   -6.9438044    88.933124  0.035802385  0.037709405            2 
  208000    1.2130954   -6.9570495    88.996087  0.035655483  0.037704503            2 
  209000    1.2168719   -6.9793881    89.313072  0.035611273  0.037698814            3 
  210000    1.2322307   -6.9625501    90.054255  0.035735815   0.03769335            1 
  211000    1.2218703   -6.9652916    90.076134  0.035575092  0.037685897            1 
  212000    1.2278665   -6.9591037    90.232838  0.035468883  0.037678939            2 
  213000    1.2232476   -6.9548231     90.71509  0.035491037  0.037668456            1 
  214000    1.1819498   -6.9912644    90.898086  0.035396451   0.03765787            2 
  215000    1.2111856   -6.9824688     91.48769  0.035460345  0.037645353            1 
  216000    1.2452732   -6.9657133    91.631644  0.035351714  0.037631951            2 
  217000    1.2269119    -6.986109     92.16931   0.03539528  0.037617523            2 
  218000    1.2067628   -6.9587416    92.860505  0.035497135  0.037605286            2 
  219000    1.2031276   -6.9624157    92.736958  0.035288036  0.037591133            2 
  220000    1.2077096   -7.0023014    93.036767  0.035241199  0.037576503            1 
  221000    1.2013289    -6.995757    93.980448  0.035437575  0.037561078            3 
  222000    1.2078155    -6.962392    94.599604  0.035510362  0.037547705            1 
  223000    1.2299698   -7.0108996     94.44884  0.035294783  0.037534749            1 
  224000    1.2560808   -6.9721202    95.300063  0.035453892  0.037521607            1 
  225000    1.2199462   -7.0075307    95.484319  0.035364562  0.037509385            3 
  226000    1.1964969   -6.9993231    95.738882  0.035301948  0.037494836            1 
  227000    1.2215092   -6.9322593    96.539413  0.035440313  0.037481115            1 
  228000    1.2187285    -7.013574    96.590407  0.035303511  0.037466097            2 
  229000    1.2076069   -6.9457103    97.386075  0.035438892  0.037450686            3 
  230000    1.2030493   -6.9806538    97.339631  0.035267982  0.037436636            1 
  231000    1.2171584   -7.0068179    98.253547  0.035445003  0.037424657            1 
  232000    1.2074245   -6.9828406    98.470064  0.035369994  0.037411171            2 
  233000    1.2113695   -7.0411275    98.867571  0.035360362   0.03739897            1 
  234000    1.2192568   -6.9923861     99.13376  0.035304045  0.037386921            2 
  235000     1.249168    -6.973634    99.733394  0.035366452  0.037374851            4 
  236000    1.2135713   -7.0029735    100.20914  0.035384582  0.037362499            2 
  237000    1.2251898   -6.9671823    100.54325  0.035352761  0.037350274            2 
  238000    1.2123088   -6.9852471    100.85782  0.035314362  0.037336305            1 
  239000     1.208406   -6.9844781    101.49992  0.035390487  0.037323599            1 
  240000    1.2299263   -6.9587543    101.89183  0.035379108  0.037310942            2 
  241000    1.2123332   -6.9894897    102.24079  0.035352971  0.037297446            1 
  242000    1.1888842    -6.943461    102.72276   0.03537285  0.037284205            3 
  243000    1.1988464   -6.9799112    103.35162  0.035442943  0.037272539            2 
  244000    1.2093973   -7.0049487    102.81582  0.035114691  0.037259921            1 
  245000    1.2239769   -6.9552329    104.07386  0.035399272  0.037246709            2 
  246000     1.196304   -6.9572946    104.20603  0.035300147  0.037233798            2 
  247000    1.1839293   -6.9723366    104.80713  0.035360029  0.037220998            1 
  248000    1.2103146   -7.0393735    105.11108  0.035319582  0.037209874            4 
  249000    1.2319033    -6.962762    105.70238  0.035375629   0.03719752            1 
  250000     1.220491   -6.9930809    105.98199   0.03532733  0.037185003            1 
  251000    1.2158153   -6.9717458     106.2017   0.03525953  0.037171396            1 
  252000    1.2121595   -6.9618835    106.38366  0.035179782  0.037156653            1 
  253000    1.2159798   -6.9859186    106.62533  0.035120332  0.037141128            2 
  254000    1.2326947   -6.9671189    107.41235  0.035240274  0.037125175            2 
  255000    1.1964826    -6.961933    107.35957  0.035084828  0.037108785            1 
  256000    1.2155508    -7.055619    107.41499  0.034965816   0.03709009            1 
  257000    1.2092415    -7.020452    108.53324  0.035192361  0.037072556            2 
  258000    1.2142173   -7.0108948    108.55348  0.035062494  0.037055864            2 
  259000    1.1928109   -6.9935882    109.11717  0.035108485  0.037040945            3 
  260000    1.2290479   -6.9877769    109.34424  0.035046231  0.037024631            1 
  261000    1.2030249   -6.9964292    109.67111   0.03501632  0.037006709            2 
  262000    1.2194839   -6.9879695    110.20621  0.035052865  0.036988606            2 
  263000    1.2298805   -6.9774436    110.62524  0.035052357   0.03697061            2 
  264000    1.2216442   -7.0187653    110.61221  0.034915472  0.036952428            1 
  265000    1.2137677   -6.9846485    111.03872  0.034917837  0.036935389            1 
  266000    1.1997252   -6.9924979    111.32254  0.034875483  0.036916502            1 
  267000    1.2171191   -6.9798854    112.22938  0.035027897  0.036898347            1 
  268000    1.2072423   -6.9955622    112.57092  0.035003394  0.036882233            2 
  269000    1.1967193   -7.0038741    112.76253  0.034932631  0.036866359            1 
  270000    1.2167855   -6.9940159    114.03617  0.035196348  0.036850277            3 
  271000    1.1882437   -7.0295742    113.60588  0.034934156  0.036834883            2 
  272000    1.1919613   -6.9992689    114.70769  0.035143288  0.036820989            1 
  273000    1.1941917   -6.9582987     115.0034  0.035104823  0.036808361            2 
  274000    1.2307339    -6.980388    115.36133  0.035085563  0.036795822            1 
  275000     1.199882    -7.013248    115.72437  0.035067992  0.036782529            1 
  276000     1.229806   -7.0076548     116.2339  0.035094777  0.036769201            2 
  277000    1.2007621   -6.9938203    116.24691  0.034971996  0.036755277            1 
  278000    1.1794068   -6.9724106    116.99352  0.035070001  0.036740235       -1e+20 
  279000    1.1984999   -7.0071515     117.2473  0.035020103  0.036726046            1 
  280000    1.2081849   -7.0010679    117.87487  0.035081806  0.036711433            2 
  281000    1.1981664   -6.9966571    118.26035  0.035071278  0.036696791            1 
  282000    1.2018726   -7.0093305     118.6294   0.03505597   0.03668323            1 
  283000    1.2035036   -6.9907305    119.25493  0.035116294  0.036670323            1 
  284000    1.2307287   -7.0122577    119.07528  0.034939931  0.036657154            5 
  285000    1.1977453    -6.972818    120.12298  0.035123678  0.036645937            1 
  286000    1.2047556   -6.9924874    120.34796  0.035066423  0.036634124            1 
  287000    1.1912038   -7.0098957    120.28637  0.034926356  0.036620163            1 
  288000    1.1710248   -7.0221353    120.31918  0.034814578  0.036604509            2 
  289000    1.1887377   -7.0071825    120.96533  0.034880431   0.03658786            4 
  290000    1.2374751   -6.9996282    121.11894  0.034804294  0.036572075            2 
  291000    1.2099561   -6.9919213     122.3457  0.035035997  0.036557959            1 
  292000    1.2011192   -7.0057347    122.28495  0.034898673  0.036543926            2 
  293000    1.1905924   -7.0255824    122.59176  0.034866827  0.036529542            4 
  294000    1.1952762   -7.0143924    123.30563  0.034950575  0.036515131            1 
  295000    1.1942461   -7.0118043    123.37485  0.034851653  0.036499713            1 
  296000    1.2011021   -6.9877759    123.73897  0.034836422  0.036484036            2 
  297000     1.218567   -6.9954235    124.26116  0.034865644  0.036468581            3 
  298000    1.1867905   -7.0030423    124.73322  0.034880653    0.0364548            3 
  299000    1.2119792    -7.057911    125.04454  0.034850764  0.036440091            1 
  300000    1.1992325   -6.9773498     126.0354  0.035009832  0.036426376            1 
  301000    1.1643519    -7.020111    126.26668  0.034957553  0.036414373            1 
  302000    1.1995638   -7.0375956    126.28208  0.034846047  0.036401598            2 
  303000    1.1999938     -6.96588    127.30629   0.03501273  0.036389253            1 
  304000    1.1942025   -7.0135619    127.47123  0.034942772  0.036377448            2 
  305000    1.1966179   -7.0178629    127.91907  0.034950566  0.036365609            1 
  306000    1.2180203   -6.9994306     128.1326  0.034894498   0.03635527            3 
  307000    1.2158567   -7.0075759    128.38136  0.034848359  0.036343681            1 
  308000    1.1904577   -7.0319957    129.42563  0.035017756  0.036332658            2 
  309000    1.1887327   -7.0006786    130.21908  0.035118414  0.036322965            1 
  310000    1.2194547   -7.0136704     130.3812  0.035048711  0.036313453            1 
  311000    1.2152178   -7.0348247    130.63593  0.035004268  0.036303912            2 
  312000    1.1976603    -6.991114    131.11895  0.035021088  0.036294877            2 
  313000    1.2074835   -7.0061074    131.77171   0.03508299  0.036285698            3 
  314000    1.2071796   -6.9600423    132.26545  0.035102295  0.036276514            1 
  315000    1.2091241   -7.0310012    132.69311  0.035103997    0.0362703            1 
  316000    1.1965906   -7.0089552    133.81991   0.03529006   0.03626381            1 
  317000    1.1728425   -7.0074411    133.70749  0.035149182   0.03625759            1 
  318000    1.2083823   -7.0262461     133.8342  0.035071856  0.036251431            1 
  319000    1.2218159   -6.9956213    134.66736  0.035179562  0.036245131            1 
  320000    1.1982508   -7.0358912    134.62019   0.03505734  0.036238039            2 
  321000      1.20752   -6.9745269    135.23817  0.035108559  0.036230676            2 
  322000    1.2008084   -6.9859558    136.29825  0.035273875  0.036223836            1 
  323000     1.201935   -7.0599219    136.08096  0.035108608  0.036217005            2 
  324000     1.210776   -7.0478095    136.32981  0.035064253  0.036210841            1 
  325000    1.1832732   -7.0391667    136.95564  0.035116831  0.036204443            3 
  326000    1.2089985   -7.0392274    137.31043  0.035099802   0.03619886            2 
  327000    1.1992881    -7.030121    137.62655  0.035073025  0.036192701            2 
  328000    1.2236447   -7.0001889    138.60781    0.0352154  0.036187587            1 
  329000    1.2219568    -7.032532    139.10952  0.035235441  0.036184036            1 
  330000    1.2004589   -6.9984401    139.88065  0.035323397  0.036181311            3 
  331000    1.1835272   -6.9743165    140.63335  0.035406181  0.036178255            2 
  332000    1.2251491    -7.060707    140.49457  0.035264702  0.036175386            2 
  333000    1.1930004   -7.0002275     140.9859  0.035281757  0.036172805            2 
  334000    1.2099915   -7.0218472    141.59135  0.035327184  0.036169923            2 
  335000    1.2020215   -7.0169023    142.06388  0.035339275   0.03616746            1 
  336000    1.2005558   -6.9841446    142.61167  0.035369958  0.036165164            1 
  337000    1.1946464   -6.9948144    142.92713   0.03534301  0.036161939            1 
  338000    1.1938138   -7.0443476    142.64928  0.035169941  0.036158374            3 
  339000    1.1824487   -7.0131625    143.19283   0.03519981   0.03615352            2 
  340000    1.2221075   -7.0005942    143.70274  0.035221259  0.036149368            1 
  341000    1.1941087   -7.0180987    143.81492  0.035145386   0.03614496            1 
  342000    1.2060346   -6.9850793    144.17536  0.035130449  0.036139484            1 
  343000    1.2048056   -7.0369545     144.9184  0.035208552    0.0361346            1 
  344000     1.209423   -7.0129274     145.3054  0.035199951  0.036129291            2 
  345000    1.1823053   -7.0034086    145.41208  0.035123691  0.036123653            2 
  346000    1.2097605    -7.007663    145.68017  0.035086747  0.036117645            1 
  347000    1.2134154   -7.0262329    146.06385  0.035077775  0.036111175            1 
  348000    1.1843365   -7.0537467    146.58822  0.035102543  0.036106133            1 
  349000    1.2007576   -7.0374993     147.1204  0.035129036  0.036101908            2 
  350000    1.2152518   -7.0714914     147.4044  0.035096286   0.03609757            1 
  351000    1.2061269   -7.0256669    148.29874  0.035208628  0.036092714            2 
  352000     1.186079   -7.0434371    148.15334  0.035074182  0.036089312            2 
  353000    1.1989933   -7.0351124    148.78629  0.035124243  0.036083996            3 
  354000    1.1774662   -7.0328103    149.31384   0.03514921  0.036078217            1 
  355000    1.1907439   -7.0266618    150.24957  0.035269853  0.036073021            1 
  356000    1.1735105   -7.0530861    149.43533  0.034980181  0.036066545            1 
  357000    1.2343892   -7.0443951    150.57379  0.035147943  0.036060579            1 
  358000    1.1742685   -7.0324464    150.36029  0.035000067  0.036054209            2 
  359000    1.1782921   -6.9845065     150.9749  0.035045242  0.036048076            1 
  360000    1.1849235   -7.0194743    151.77578  0.035133281  0.036041463            1 
  361000    1.1894847   -7.0384716    151.67959  0.035013756  0.036035617            1 
  362000    1.2215179   -7.0446597    151.96076  0.034981758  0.036029136            3 
  363000    1.2012117   -7.0432153    152.46371  0.035000853  0.036022808            2 
  364000     1.186619   -7.0008092    153.58634  0.035161708  0.036017277            1 
  365000    1.1777611   -6.9911748    153.73705  0.035099783  0.036011558            1 
  366000    1.2157999   -6.9984603    154.12554  0.035092336  0.036005559            1 
  367000    1.1878095   -7.0164223    153.91897  0.034949811  0.035998496            2 
  368000    1.1844332   -7.0448632    154.09013  0.034893599  0.035991878            2 
  369000    1.1754041   -7.0074504    155.07689  0.035021881  0.035985265            4 
  370000    1.2048572   -7.0909263    154.41908  0.034779071  0.035978272            2 
  371000    1.1911406   -7.0439669    155.69435  0.034971777  0.035970486            3 
  372000    1.1898589   -7.0021439    156.00629  0.034947645  0.035963185            2 
  373000    1.1955598   -7.0228067    157.26272  0.035134655  0.035956716            2 
  374000    1.2469083   -7.0175553    157.25553  0.035039112  0.035950193            1 
  375000    1.1680853   -7.0182746    157.69666  0.035043702  0.035943482            2 
  376000    1.2244143   -7.0500702    157.89442  0.034994331  0.035936122            2 
  377000    1.1945055   -7.0035833    158.27325  0.034985246  0.035928839            1 
  378000    1.1824566    -7.004769    158.69526  0.034985727  0.035921989            2 
  379000    1.1676912   -7.0437983    159.18586  0.035001289  0.035915453            1 
  380000     1.184024   -7.0227072    159.99421  0.035086449  0.035908819            2 
  381000    1.1870347   -7.0256897    160.22645  0.035045155  0.035902882            1 
  382000    1.1884326   -7.0114884    160.59306   0.03503339  0.035896652            1 
  383000    1.2008997   -7.0124762    161.22463  0.035079336  0.035891058            1 
  384000    1.1851819   -7.0069826    161.59924  0.035069279  0.035885776            2 
  385000    1.1914658   -7.0576001    161.99918  0.035064758   0.03588094            1 
  386000    1.1792599   -7.0306248    162.20469  0.035018284  0.035876579            1 
  387000    1.1752323   -7.0525037    162.54047    0.0350001  0.035871837            2 
  388000    1.2217055   -7.0705518    162.63908  0.034931073  0.035866695            1 
  389000    1.1890602   -7.0375492    163.46968  0.035019213  0.035861641            2 
  390000    1.1874948   -7.0006022    164.51035  0.035151784  0.035855519            1 
  391000    1.1992517   -7.0423037    163.22279  0.034787466  0.035847983            1 
  392000    1.1973303   -7.0592285    163.16376  0.034686173  0.035839399            1 
  393000    1.1921857   -7.0243573     163.8388  0.034741053  0.035829699            1 
  394000    1.2104062   -7.0336592    164.36442  0.034764049  0.035820195            2 
  395000    1.1979116   -7.0430517     164.7713  0.034761878  0.035810807            1 
  396000     1.183396   -7.0417184    164.74762  0.034669113  0.035800971            2 
  397000    1.1724687   -7.0421311    165.86421  0.034816166   0.03579275       -1e+20 
  398000    1.1813779   -7.0662093    166.23438  0.034806193  0.035783919            2 
  399000    1.1872832     -7.05918    166.21773  0.034715483  0.035775831            2 
  400000    1.1582656   -7.0492082    167.02339  0.034796539  0.035767549            1 
  401000    1.1941439   -7.0284002    167.17657  0.034741599  0.035758797            2 
  402000    1.1413663   -7.0159125    167.61005  0.034745035  0.035749669            1 
  403000     1.180198      -7.0184    168.03872  0.034747462  0.035741125            4 
  404000     1.201633   -7.0243735    168.37252  0.034730306  0.035731375       -1e+20 
  405000    1.1998007   -7.0032391    168.57465  0.034686143  0.035721996            2 
  406000    1.1504431   -7.0419013    169.18415   0.03472581   0.03571274            1 
  407000    1.2141136   -7.0198665    169.07464  0.034618068  0.035702704            1 
  408000    1.1838882   -7.0421423    169.04767   0.03452771  0.035692593            1 
  409000    1.1769029   -7.0374388    169.78647   0.03459382  0.035683463            1 
  410000    1.1866258   -7.0154739    170.37923  0.034629926  0.035674332            1 
  411000    1.1625132   -7.0261836    170.72886  0.034616557  0.035664244            1 
  412000    1.1674007    -7.056435    171.07182  0.034601906   0.03565472            1 
  413000    1.1728729   -7.1050493    170.81346  0.034465993  0.035644947            2 
  414000    1.1919231   -7.0681484    171.90723  0.034602905  0.035635406            2 
  415000    1.1925236    -7.024876    172.52694  0.034643964  0.035627246            2 
  416000    1.1721154   -7.0425252    173.01042  0.034657536  0.035618523            5 
  417000    1.1460869   -7.0525768    172.39151  0.034450741  0.035608913            1 
  418000    1.2209281   -7.0209761    173.26128  0.034541723  0.035599285            1 
  419000    1.1864856   -7.0691407    173.39577  0.034486032  0.035589352            5 
  420000    1.1677619   -7.0572664    174.00792  0.034525381  0.035579566            1 
  421000     1.183505   -7.0635226     174.1357  0.034468665  0.035569404            1 
  422000     1.163832   -7.0125382     174.8552  0.034529068  0.035559455            1 
  423000     1.184256   -7.0531276    174.59333  0.034395849  0.035548755            1 
  424000      1.17106   -7.0544337    175.75192  0.034542437  0.035537985            1 
  425000    1.1915938   -7.0693089    175.07344  0.034328125  0.035528094            3 
  426000    1.1938674   -7.0607915    176.28744  0.034485024  0.035517533            5 
  427000    1.1721149   -7.0303755    176.70461  0.034485676  0.035507234            3 
  428000    1.1669362   -7.0638065     177.8487  0.034627861  0.035498688            2 
  429000    1.1578518   -7.0662987    177.65474  0.034509468  0.035490011            1 
  430000    1.1859915   -7.0215303    178.59274  0.034610995  0.035481565            2 
  431000    1.2073995   -7.0414615    178.70831  0.034553037  0.035473626            1 
  432000    1.1850443    -7.103146    179.47997  0.034621907  0.035465377            2 
  433000    1.1841926   -7.0815098    179.35163   0.03451725  0.035457548            4 
  434000    1.1711258   -7.0301555    180.84014   0.03472353  0.035449858            3 
  435000    1.1966707   -7.0383807    180.65161  0.034607588  0.035442149            4 
  436000     1.174616   -7.0509948     180.8384  0.034563914  0.035434221            2 
  437000    1.1825737    -7.033393    180.90105  0.034496767  0.035425294            2 
  438000    1.1734723   -7.0256224    181.65791  0.034562008  0.035416993            1 
  439000    1.1615198   -7.0940523    181.95974  0.034540573  0.035409084            1 
  440000    1.1733459    -7.026124    182.28777  0.034524198  0.035400285            3 
  441000    1.1876044   -7.0243049    182.74694  0.034532679  0.035392021            1 
  442000    1.1595926   -7.0568743    182.88154  0.034479927  0.035383178            3 
  443000    1.1684928   -7.0110183    183.18449  0.034459084  0.035374204            1 
  444000    1.1763206    -7.085426    182.87088  0.034322613  0.035364485            1 
  445000    1.1788829   -7.0402896    183.17662  0.034302738    0.0353546            1 
  446000    1.1883688   -7.0787311    183.23318  0.034236393   0.03534419            2 
  447000    1.1815366   -7.0994501    183.90315  0.034284703  0.035333584            4 
  448000    1.1652961   -7.0452223    184.44632  0.034309211  0.035322852            2 
  449000    1.1858681   -7.1276502    183.88386  0.034128408  0.035311667            1 
  450000    1.1881828   -7.0810283    185.13549   0.03428435  0.035301555            1 
  451000    1.1720577   -7.0590777    186.02142  0.034372028  0.035291801            2 
  452000    1.1799749   -7.0735909    186.57252  0.034397589  0.035282291            1 
  453000    1.1809207    -7.087636    186.73283  0.034351145  0.035272958            1 
  454000    1.1817001   -7.0486983    187.50519  0.034417253  0.035264299            1 
  455000    1.1978951   -7.0743156    187.38301  0.034319233  0.035255654            2 
  456000    1.1931713    -7.087353    187.24632  0.034218991  0.035246459            1 
  457000    1.2000471   -7.0436309    188.22607  0.034322771  0.035237474            2 
  458000    1.2003647   -7.0553537    188.33744  0.034268093  0.035227542            2 
  459000      1.16567    -7.111096    188.00766  0.034133561  0.035217349            1 
  460000    1.1575508   -7.0449318    188.47388  0.034143819  0.035207379            2 
  461000    1.1785037   -7.0612978    188.90106  0.034146974  0.035197265            2 
  462000    1.1651638   -7.0015432    190.73446  0.034403763  0.035187048       -1e+20 
  463000    1.1815973   -7.0379739     190.4354   0.03427563  0.035177821            3 
  464000    1.1758368   -7.0850146    190.12452  0.034145926  0.035168033            2 
  465000    1.2066633   -7.0565035    191.03481  0.034235628  0.035157903            1 
  466000     1.175184   -7.0482667    190.58157  0.034081111  0.035148128            1 
  467000    1.1729813   -7.0871207    191.56021  0.034182765  0.035137884            1 
  468000    1.1703471   -7.0587477    192.37131   0.03425415  0.035128323            2 
  469000    1.1772288   -7.0667768    191.92811  0.034102365  0.035118703            2 
  470000    1.1692035   -7.0617055    192.36516  0.034107298  0.035108828            1 
  471000    1.1598209    -7.096379    193.07538  0.034160541  0.035099368            1 
  472000    1.1731131   -7.0397771    193.51924  0.034166533  0.035089138            2 
  473000    1.1756387   -7.0530466    193.42267  0.034077284  0.035078963            1 
  474000    1.1531097   -7.0607477    193.68603  0.034051693  0.035067588            2 
  475000    1.1482127   -7.0337592    194.58148  0.034137101  0.035057317            1 
  476000    1.1862139   -7.0672817    194.87866  0.034117413  0.035047141            1 
  477000    1.1825894   -7.0860845    195.04995  0.034075812  0.035036723            4 
  478000    1.1685662   -7.0670908    195.30228  0.034048515  0.035025811            1 
  479000    1.1845934   -7.0539538    195.45396   0.03400382  0.035014841            1 
  480000    1.1900408   -7.0698389    195.87735  0.034006484  0.035004195            2 
  481000    1.1909858   -7.0623408    196.94792   0.03412126  0.034993372            2 
  482000    1.1740729   -7.0836826    196.39603  0.033955054  0.034982546            1 
  483000    1.1621313   -7.0740506    197.31239  0.034042856  0.034972444            1 
  484000    1.1646729   -7.0491691    197.02174  0.033922475  0.034961846            1 
  485000    1.1961883   -7.0864275    197.32379  0.033904431  0.034951036            1 
  486000    1.1404371   -7.0409829    198.22051  0.033988427  0.034940184            1 
  487000    1.1564109   -7.0833792    198.36503  0.033943366  0.034928864            2 
  488000    1.1752035   -7.0377964    198.58109  0.033910705  0.034917487            1 
  489000     1.177794   -7.0794249     198.9566  0.033905351   0.03490549            1 
  490000    1.1867441    -7.049525    199.26131  0.033887978  0.034894314            1 
  491000    1.1865704   -7.0414163    200.36269  0.034005888  0.034883501            2 
  492000    1.1886784      -7.0564    200.14268  0.033899506  0.034872806            2 
  493000     1.168613   -7.0843979    200.30493  0.033858169  0.034861418            1 
  494000    1.2000006   -7.0817258    200.77768  0.033869379  0.034850097            2 
  495000    1.1874742   -7.0858359    200.84688  0.033812605  0.034838286            1 
  496000     1.160443   -7.0388895    201.10244  0.033787372  0.034826254            1 
  497000    1.1651687   -7.0736666    200.90663  0.033686557  0.034813794            1 
  498000    1.1697551   -7.0969473    201.63977  0.033741595   0.03480152            1 
  499000    1.1779063   -7.0769303     201.8845  0.033714847  0.034788711            1 
  500000    1.1781115   -7.0415774    201.90525  0.033650875  0.034775442            3 
  501000    1.1640005   -7.0335065    203.00883  0.033767271  0.034762616            1 
  502000    1.1621633   -7.0890747    202.84811  0.033673325  0.034749595            2 
  503000     1.166755   -7.0720512    203.47224  0.033709782  0.034736388            2 
  504000    1.1740044   -7.0727552    203.24406  0.033605169  0.034723544            1 
  505000    1.1962638   -7.0565791    203.80578  0.033631316   0.03471026            2 
  506000    1.1717929   -7.1082909    203.37664  0.033494177  0.034697183            1 
  507000     1.142332   -7.0876765    204.30135  0.033580104  0.034683967            1 
  508000    1.1947395   -7.1309762    205.40107  0.033694401  0.034670903            1 
  509000    1.1737278   -7.0633785    205.46978  0.033639453  0.034658368            1 
  510000    1.1470556   -7.0225992    206.23976  0.033699307  0.034646054            1 
  511000    1.1605657   -7.0913157    205.89426  0.033577015  0.034633889            2 
  512000    1.1851664   -7.0811883    206.81783  0.033661757  0.034622075            3 
  513000    1.1839534   -7.0546513    207.30592  0.033675426   0.03461052            1 
  514000     1.165015   -7.0826089    207.01777  0.033563193  0.034598977            5 
  515000    1.1754958   -7.0841039    207.50245  0.033576448  0.034587194            3 
  516000    1.1789107   -7.0832899    208.11075  0.033609617  0.034574672            1 
  517000    1.1695753   -7.0825126    208.51491  0.033609754  0.034562408            1 
  518000    1.1700522   -7.0505992    208.26941  0.033505375  0.034550135            2 
  519000    1.1489528    -7.061713    208.30488  0.033446513  0.034537342            1 
  520000    1.1613098   -7.0752583    209.25493  0.033534444  0.034524696            2 
  521000    1.1682307   -7.0661422    209.64107  0.033531841  0.034511963            1 
  522000    1.1824643   -7.0955528    209.18326  0.033394518  0.034499019            2 
  523000    1.2121614   -7.0484966    209.77548  0.033425029  0.034486389            2 
  524000      1.17148   -7.0855838    209.85456  0.033373816  0.034473857            2 
  525000    1.1944165   -7.0850017    210.54261  0.033419462  0.034461071            1 
  526000    1.1760127    -7.054878    210.72623  0.033385018  0.034448061            1 
  527000    1.1429912   -7.0812463    211.47631  0.033440277  0.034434985            1 
  528000    1.1781427   -7.0802609    210.96743  0.033296627  0.034421929            2 
  529000    1.1694541   -7.0787963    211.75023     0.033357  0.034408107            1 
  530000     1.149092   -7.0920058     211.1778  0.033204057  0.034394335            3 
  531000    1.1695095    -7.121895    211.98755  0.033268605  0.034380651            2 
  532000    1.1703033   -7.1061807    212.67472  0.033313709  0.034366985            1 
  533000    1.1774582   -7.0830569    212.57107  0.033235002  0.034353424            1 
  534000    1.1867138   -7.1460669    212.97932  0.033236473  0.034340815            2 
  535000    1.1644789   -7.1072079    213.79059  0.033300714  0.034328058            1 
  536000    1.1716622   -7.1013029    214.20845  0.033303553  0.034315463            2 
  537000    1.1751178   -7.0867242     214.4232   0.03327486  0.034302612            1 
  538000    1.1529776   -7.1075023    214.67515  0.033252036  0.034289715            1 
  539000     1.175704   -7.1112411    215.62958  0.033337907  0.034277202            2 
  540000    1.1783673   -7.0918249    215.77394  0.033298448   0.03426506            1 
  541000    1.1430803   -7.0989599    215.78762  0.033239005  0.034253488            3 
  542000    1.1723682   -7.1046332    216.37514  0.033268011  0.034241524            3 
  543000      1.16929   -7.1321714    216.61223  0.033243129  0.034229422            2 
  544000    1.1640131    -7.078132    217.48407  0.033315575  0.034217847            1 
  545000    1.1923391    -7.097006    217.11873  0.033198583   0.03420614            1 
  546000    1.1727357   -7.0811755    217.77922  0.033238587  0.034194295            1 
  547000    1.1674241   -7.0869982    218.41599  0.033274831  0.034181928            3 
  548000    1.1620354   -7.1266523    218.18574  0.033179096  0.034168943            4 
  549000    1.1843191   -7.1452783    217.70361  0.033045478  0.034155623            1 
  550000    1.1360105   -7.1341782    218.27295  0.033071659  0.034141741            2 
  551000    1.1433004   -7.0618384    219.26065  0.033161019  0.034128381            2 
  552000    1.1556763   -7.0840651    219.25055  0.033099419  0.034115331            1 
  553000    1.1682099   -7.0539582    219.61128  0.033093925  0.034102588            2 
  554000    1.1707334   -7.1180313     220.0751  0.033103956  0.034089782            1 
  555000    1.1569121   -7.0715551    221.07208  0.033194006  0.034077861            2 
  556000    1.1601479   -7.0864377    221.95703  0.033266942  0.034065885            3 
  557000    1.1738544   -7.0954081    221.11218  0.033080817  0.034053387            1 
  558000    1.1473179    -7.072815    222.12663  0.033173034  0.034040855            2 
  559000     1.176945   -7.0563972    223.08878  0.033257122  0.034029076            1 
  560000    1.1748343   -7.0751728    222.87362  0.033165718  0.034017025            2 
  561000    1.2135691   -7.0942516    222.90556  0.033111343  0.034004869            1 
  562000    1.1596986   -7.0879751    222.95775  0.033060165  0.033992513            3 
  563000    1.1737284   -7.0854697    223.19879  0.033037121  0.033980039            1 
  564000    1.1762936   -7.0880494     223.4833  0.033020581  0.033967543            2 
  565000    1.1667765    -7.096673     223.9931   0.03303733  0.033954664            1 
  566000    1.1860874   -7.1156171    224.19465  0.033008635   0.03394181            4 
  567000    1.1381425   -7.0937518    224.55907  0.033003978  0.033929336            2 
  568000    1.1583055   -7.1413789    224.21561  0.032895482  0.033916997            1 
  569000    1.1235606   -7.0684229    226.10062   0.03311374  0.033904387            2 
  570000     1.148859   -7.0908081    225.77851  0.033008555  0.033892771            1 
  571000    1.1555893   -7.0938953    225.93663  0.032973821  0.033880439            3 
  572000    1.1933312   -7.0994494    226.75388  0.033035238  0.033868367            1 
  573000    1.1680766   -7.1283332    226.99087  0.033012052  0.033856604            2 
  574000    1.1628031   -7.0822236    227.86112  0.033080883  0.033845242            1 
  575000    1.1502304   -7.1049388    228.12814  0.033062049  0.033833591            1 
  576000    1.1720792   -7.0897293     228.2423  0.033021166  0.033821923            2 
  577000    1.1653963    -7.052432    229.12342  0.033091192   0.03381055            2 
  578000    1.1609647   -7.0607855    229.95119  0.033153285  0.033799519            1 
  579000    1.1325343   -7.1201829    229.61979  0.033048329  0.033788474            2 
  580000    1.1887381   -7.1174707    230.10205  0.033060639  0.033777337            4 
  581000    1.1515945   -7.0725153    230.35901  0.033040592  0.033766407            1 
  582000    1.1613137   -7.0733237    231.12569  0.033093598  0.033755725            1 
  583000    1.1500981   -7.1027556    230.49452  0.032946615  0.033744855            2 
  584000    1.1336792   -7.1289159    230.84132  0.032939687  0.033733629            1 
  585000    1.1652124   -7.0588774    232.37578  0.033101963  0.033723099            1 
  586000    1.1892339   -7.1266125     232.3889  0.033047341  0.033712455            1 
  587000    1.1708527    -7.095337    232.98444  0.033075587  0.033701893            1 
  588000    1.1218068   -7.0879858    232.34201  0.032928289  0.033691598            2 
  589000    1.1276092   -7.1057429    232.77013  0.032932956  0.033680913            2 
  590000    1.1711967   -7.0669218    233.64976  0.033001378   0.03367083            1 
  591000    1.1427735   -7.1229105    233.64438   0.03294478  0.033660609            2 
  592000    1.1669616   -7.1425948     233.8856  0.032923086  0.033650148            1 
  593000    1.1524642   -7.0834536    235.05352  0.033031692  0.033640259            1 
  594000    1.1219457   -7.0766564    235.64049   0.03305843  0.033630201            1 
  595000    1.1359537   -7.0896877    235.41375  0.032971113  0.033620383            1 
  596000    1.1648907   -7.0574671    236.28214  0.033037212  0.033610559            3 
  597000    1.1503698   -7.0829615    236.52091  0.033015202  0.033601049            1 
  598000    1.1410742   -7.0708999    235.73778  0.032850861  0.033590876            2 
  599000    1.1669915   -7.0807178    237.09944  0.032985453  0.033581244            2 
  600000    1.1457773   -7.0909479     237.6241  0.033003347  0.033571721            2 
  601000    1.1463246   -7.1148306    237.60392  0.032945634  0.033561471            1 
  602000    1.1773881    -7.125422    237.62495  0.032893819  0.033551573            2 
  603000    1.1680354   -7.1168195      238.105  0.032905611  0.033541944            2 
  604000    1.1825836   -7.0579698    238.97142  0.032970671  0.033532362            2 
  605000    1.1479746   -7.0673724    238.95766  0.032914279  0.033522789            1 
  606000    1.1516352    -7.093209    239.94627  0.032995911  0.033513083            1 
  607000    1.1568341   -7.1502817     239.6877  0.032906054  0.033503366            1 
  608000    1.1577759   -7.0871308    240.20726  0.032923145  0.033493621            2 
  609000    1.1543434   -7.0917854    241.14206  0.032996997   0.03348427            3 
  610000    1.1592663   -7.0773641    239.99449  0.032786132  0.033474645            2 
  611000     1.130395   -7.0908259    241.52438  0.032941133  0.033465046            2 
  612000    1.1672129   -7.0947398    241.65425  0.032904991  0.033455427            1 
  613000    1.1703385   -7.0954573    242.35186  0.032946148  0.033445562            3 
  614000    1.1585658   -7.0892581    243.05727  0.032988229  0.033436357            2 
  615000    1.1765157   -7.0711371    242.37145   0.03284166  0.033427802            2 
  616000    1.1352749   -7.0828274    243.35052  0.032920795  0.033419139            1 
  617000    1.1700962   -7.1475699    243.10573  0.032834378  0.033410002            1 
  618000    1.1507755    -7.142189    243.85988   0.03288294  0.033401147            1 
  619000    1.1552557   -7.1405244    244.01583  0.032850812   0.03339231            1 
  620000    1.1625794   -7.1076844    245.17725  0.032953932  0.033383497            2 
  621000    1.1592655   -7.1356371    245.12136  0.032893365  0.033374952            1 
  622000    1.1520349   -7.1105628    245.67145  0.032914182  0.033366384            1 
  623000    1.1284352   -7.0740269    246.80556  0.033013049  0.033358067            2 
  624000    1.1770206   -7.1418609    245.98087  0.032850009  0.033349712            2 
  625000    1.1439791   -7.1308028    246.49387  0.032865849  0.033341195            3 
  626000    1.1585622   -7.1628659    246.21803  0.032776628  0.033332447            3 
  627000     1.157109    -7.115706    247.46206  0.032889694  0.033323547            3 
  628000    1.1671822   -7.1217614    246.97352  0.032772495  0.033315087            1 
  629000    1.1564593   -7.1511821    247.53128  0.032794287  0.033306362            2 
  630000     1.158516   -7.1252748    247.69767  0.032764242  0.033297384            2 
  631000    1.1357599   -7.1212093    247.77613  0.032722679  0.033288442            2 
  632000    1.1858675   -7.0964662    249.40613   0.03288583  0.033279787            1 
  633000    1.1226099   -7.0778731    249.48802  0.032844657  0.033270705            1 
  634000    1.1272725   -7.1207492    248.12816  0.032614112  0.033261873            1 
  635000    1.1522933   -7.1100734    249.24168  0.032708881  0.033252707            2 
  636000    1.1552756   -7.1480183    249.51146  0.032692802  0.033244226            1 
  637000     1.143319   -7.1109486    250.85426  0.032817145  0.033235836            2 
  638000    1.1460758   -7.0919173    251.56447  0.032858473  0.033226977            2 
  639000    1.1541909   -7.1094913    251.12757  0.032750074  0.033218643            4 
  640000     1.137847   -7.1394434    251.51279  0.032749061  0.033210598            3 
  641000    1.1317979   -7.1797534    251.30341   0.03267075  0.033202462            3 
  642000    1.1689903   -7.1838473    251.18806  0.032604888  0.033193704            2 
  643000    1.1340961   -7.1003992    252.85694  0.032770469  0.033184854            2 
  644000    1.1547382   -7.1023275    252.79181  0.032711155  0.033176047            1 
  645000    1.1752841   -7.0858894    253.37222  0.032735428  0.033167341            1 
  646000    1.1578363    -7.114172    254.17455  0.032788255  0.033159184            2 
  647000    1.1369985   -7.0996224    254.34694  0.032759781  0.033150836            1 
  648000    1.1362033   -7.1119882    254.51494   0.03273083  0.033142972            1 
  649000    1.1502007   -7.1079593    255.54976  0.032813272   0.03313505            2 
  650000     1.121687   -7.1201785    254.81169  0.032668165  0.033126971            2 
  651000    1.1524959    -7.109853    255.89623  0.032756814  0.033118831            1 
  652000    1.1498368   -7.0716383     256.9391  0.032839864  0.033110881            1 
  653000    1.1618721   -7.1299783    255.66912  0.032627504  0.033102327            2 
  654000    1.1491438   -7.1210885    257.03789  0.032752025  0.033093841            2 
  655000    1.1624601   -7.0698211    256.68901  0.032657635  0.033085798            2 
  656000    1.1353492   -7.1473945    257.19333  0.032671917  0.033077846            2 
  657000    1.1252532   -7.0764211    258.63541    0.0328051  0.033069764            3 
  658000    1.1404822   -7.1284124     259.0252  0.032804609  0.033062013            4 
  659000    1.1352691   -7.1558593    257.95802  0.032619882  0.033053446            2 
  660000    1.1331606   -7.1214503    258.14071  0.032593524  0.033044889            3 
  661000    1.1612424    -7.105315     258.9871   0.03265092  0.033036572            1 
  662000    1.1303373   -7.1209181    259.20112   0.03262854   0.03302798            2 
  663000    1.1249214   -7.1000624    259.46139   0.03261204  0.033019892            4 
  664000    1.1523871   -7.1101438    259.64898  0.032586468  0.033011642            1 
  665000      1.15536   -7.1565839    259.75519  0.032550776  0.033003624            1 
  666000    1.1757605   -7.1425651    260.65468   0.03261445  0.032995308            1 
  667000    1.1401939   -7.1492789     260.8758  0.032593179  0.032987389            1 
  668000    1.1355212   -7.1003476    261.62296  0.032637595  0.032979502            1 
  669000    1.1484731   -7.1284888    262.66324   0.03271839  0.032972255            3 
  670000    1.1275772    -7.127751    262.02032  0.032589592  0.032964971            2 
  671000    1.1294381   -7.1516532    261.29627  0.032451101  0.032957166            2 
  672000    1.1523367   -7.1435735    262.18258  0.032512721   0.03294877            2 
  673000    1.1442815   -7.1014083    263.39879  0.032615006  0.032940544            1 
  674000    1.1231697   -7.1830416    262.57019  0.032464168  0.032932595            1 
  675000    1.1678274   -7.1219874    263.80815  0.032568907   0.03292493            2 
  676000    1.1235741    -7.162497    264.13561  0.032561096  0.032917494            2 
  677000    1.1522977   -7.1356845    264.98991  0.032618157  0.032910018            2 
  678000     1.121604   -7.1199465    265.06441  0.032579205  0.032902101            2 
  679000    1.1555515   -7.1167539    264.67025  0.032482849  0.032893646            1 
  680000    1.1367093   -7.1504638    264.80077  0.032451075   0.03288547            1 
  681000    1.1414141   -7.0937266    265.21246  0.032453801   0.03287675            1 
  682000    1.1362583   -7.1306014    265.51356  0.032443005  0.032867971            1 
  683000    1.1494902   -7.1279807    266.31711  0.032493547  0.032859093            1 
  684000    1.1442189   -7.1099809    265.76768  0.032379103  0.032850576            5 
  685000    1.1332976    -7.175997    266.52366  0.032423802  0.032842378            1 
  686000    1.1130202   -7.1419055    267.16701   0.03245469  0.032834321            3 
  687000    1.1265083   -7.1367867     268.5649  0.032577014  0.032826283            2 
  688000    1.1615137   -7.1265267    268.25157  0.032491711  0.032818206            1 
  689000    1.1555091   -7.1356722    267.85252   0.03239629  0.032809795            1 
  690000    1.1525454   -7.1533236    268.29566  0.032402858  0.032801292            1 
  691000    1.1239085   -7.1301741    269.15364  0.032459435  0.032793015            1 
  692000    1.1336645   -7.1329234    268.84733  0.032375642  0.032785049            3 
  693000    1.1412117   -7.1432522    269.29664  0.032382953  0.032776868            2 
  694000    1.1441423   -7.1769214    269.33728  0.032341172  0.032768503            3 
  695000    1.1240477   -7.1193826    270.86321  0.032477603  0.032760473            1 
  696000    1.1582185   -7.1288882    270.97286  0.032444069  0.032753168            2 
  697000    1.1443413   -7.1112884    271.20055  0.032424743  0.032745482            1 
  698000    1.1193768   -7.1677451    271.26306  0.032385752  0.032737715            1 
  699000    1.1341008   -7.1654589    271.69871  0.032391358  0.032730213            3 
  700000    1.1274866   -7.0948165    273.11004    0.0325131  0.032722922            1 
  701000    1.1356455   -7.1414398    273.48988  0.032511873  0.032715799            1 
  702000    1.1209777   -7.1254778    273.41038  0.032456123  0.032708779            1 
  703000    1.1251703   -7.1351035    273.60823  0.032433408  0.032701955            1 
  704000    1.1334676   -7.1544339    274.67469  0.032513576  0.032695738            1 
  705000    1.1677721   -7.1638114     275.7106  0.032589906   0.03268899            2 
  706000       1.1534   -7.1391105    274.62107   0.03241514  0.032682858            1 
  707000    1.1327809   -7.1452644    274.99767  0.032413681  0.032676486            3 
  708000    1.1438719   -7.1391229    276.10411  0.032498129  0.032669764            1 
  709000    1.1427422   -7.0946109    277.07784  0.032566742  0.032663585            1 
  710000    1.1366127   -7.1442066    276.86915  0.032496379  0.032657325            2 
  711000    1.1269132   -7.1714893     277.5197  0.032526922  0.032651273            2 
  712000    1.1559743   -7.1057061    278.84545  0.032636405  0.032645078            1 
  713000    1.1441302   -7.1046236    279.29456  0.032643123  0.032639333            1 
  714000    1.1414895   -7.1194961    278.97346  0.032559928  0.032633816            2 
  715000    1.1205117   -7.1327526    279.48098  0.032573541  0.032628022            1 
  716000    1.1559357    -7.135203    280.61385  0.032659898  0.032622678            2 
  717000    1.1470945   -7.1156447    280.63893  0.032617263  0.032617442            2 
  718000    1.1375108   -7.1351394    280.41665  0.032546036  0.032612062            1 
  719000    1.1322248   -7.1644379     280.9807  0.032566146  0.032606352            1 
  720000    1.1315444   -7.1105694    281.80613   0.03261645  0.032601527            1 
  721000    1.1339059   -7.1577287    280.89321  0.032465697  0.032596575            1 
  722000      1.15154   -7.2039107    281.34187  0.032472515  0.032591315            2 
  723000    1.1104492   -7.1189388    282.49584  0.032560609  0.032585619            2 
  724000    1.1299188   -7.1874061    281.67129  0.032420729  0.032579964            1 
  725000    1.1425283   -7.1817524    282.08245   0.03242327  0.032573939            1 
  726000    1.1366816   -7.1363328    282.57894  0.032435599  0.032567688            2 
  727000    1.1392309   -7.1490742    281.99325  0.032323848  0.032561724            2 
  728000    1.1236113   -7.1590028    283.19955  0.032417531  0.032555394            3 
  729000    1.1189355   -7.1432927    282.99865  0.032350097  0.032549085            1 
  730000    1.1214064   -7.1289596    284.61588  0.032490398  0.032542559            1 
  731000     1.116838   -7.1462103    283.71029  0.032342714  0.032536102            2 
  732000    1.1435646   -7.1569587    283.87009  0.032316722  0.032529552            2 
  733000    1.1227628   -7.1688817    285.10656  0.032413206  0.032523207            2 
  734000    1.1234967   -7.1153269    285.96801  0.032466849  0.032516757            4 
  735000    1.1070388    -7.192147    284.31128  0.032234839  0.032510069            1 
  736000    1.1435873   -7.1194139    285.62641  0.032339946  0.032503623            2 
  737000    1.1237719   -7.1396873    286.26485  0.032368256   0.03249748            2 
  738000    1.1292391   -7.1135363    286.65637  0.032368606  0.032491074            2 
  739000    1.1261673   -7.1456259    285.72635  0.032219932   0.03248497            2 
  740000     1.124487   -7.1681473    286.22136  0.032232135  0.032478496            1 
  741000    1.1564822   -7.1236738    286.70148  0.032242631   0.03247157            3 
  742000    1.1484635   -7.2153859    287.03357  0.032236475  0.032464718            1 
  743000    1.1527584   -7.1633184    287.16307  0.032207613  0.032457808            2 
  744000    1.1368313   -7.1346745    288.43606  0.032306906  0.032450926            2 
  745000    1.1342322    -7.125995     289.0072  0.032327427  0.032443906            4 
  746000    1.1343163   -7.1535819    288.37234  0.032213175  0.032436864            2 
  747000    1.1277512   -7.1772676    288.38191  0.032171119  0.032429702            3 
  748000    1.1304967   -7.2009249    287.45033  0.032024323  0.032421966            2 
  749000    1.1153106   -7.1022964    288.79353  0.032131011  0.032414629            1 
  750000    1.1303411   -7.1211864    289.62049  0.032180055  0.032407471            2 
  751000    1.0999058   -7.1695079    288.87054  0.032053987  0.032399837            2 
  752000    1.1264981   -7.1427634    289.83647  0.032118404  0.032392397            1 
  753000    1.1392596   -7.1795924    290.53607  0.032153173  0.032385052            2 
  754000    1.1246269    -7.158356    289.87044  0.032036963  0.032378025            2 
  755000     1.124682   -7.1555183    290.29353  0.032041228  0.032370821            4 
  756000    1.1517925   -7.1659213    291.49261   0.03213102  0.032363748            2 
  757000    1.1474296   -7.1634652    292.45878  0.032194934  0.032356666            2 
  758000     1.104549   -7.1702796    291.25295  0.032019893  0.032349818            1 
  759000    1.1471712   -7.1225799    292.98536  0.032167914  0.032342703            2 
  760000    1.1363126   -7.1530843    291.40352  0.031952141  0.032335728            1 
  761000    1.1313467   -7.1948292    292.43571  0.032023183  0.032328525            2 
  762000    1.1118336   -7.1230143    293.35824  0.032082047  0.032321282            1 
  763000    1.1184931   -7.1791592    294.48326  0.032162872  0.032314444            2 
  764000    1.1134718   -7.1927651    295.01176   0.03217842  0.032307543            1 
  765000    1.1320675   -7.1777006     293.5466  0.031976754  0.032300418            1 
  766000    1.1242028     -7.16074    294.74983  0.032065908  0.032293439            2 
  767000    1.1414161   -7.1390021    295.13028  0.032065436  0.032286536            1 
  768000    1.1108295   -7.1486954    297.12987  0.032240654  0.032279999            1 
  769000     1.094283   -7.1748746    296.33132  0.032112193  0.032273642            2 
  770000    1.1063319   -7.1402236    298.10646  0.032262604  0.032267827            2 
  771000    1.1504636    -7.214787    296.52477  0.032049802  0.032261338            3 
  772000    1.1090094   -7.1633153    297.85263  0.032151623  0.032254903            1 
  773000    1.1204749   -7.1670556    297.03763  0.032022168  0.032248516            1 
  774000    1.1583262   -7.1906554     298.0411  0.032088835  0.032242201            1 
  775000    1.1287063   -7.1639685    297.83397  0.032025158  0.032235213            1 
  776000    1.1118908   -7.1940927    298.16239  0.032019157   0.03222852            1 
  777000    1.1170111   -7.1805318    298.38848  0.032002197  0.032221661            2 
  778000    1.1325183   -7.1458632    299.01194  0.032027843  0.032214988            1 
  779000    1.1492534    -7.162737    300.24974  0.032119142  0.032208401            3 
  780000    1.1273587   -7.1137718    301.38039  0.032198759   0.03220208            2 
  781000    1.1161255   -7.1583814    301.37272  0.032156713  0.032196097            1 
  782000    1.1348247   -7.1338666    300.87097  0.032062123  0.032190048            1 
  783000    1.1289886   -7.1666899    300.43246  0.031974507  0.032183164            2 
  784000    1.1165585   -7.2000455    300.06191  0.031894336  0.032176233            1 
  785000     1.103935   -7.1438472    300.82967  0.031935209  0.032169287            4 
  786000    1.1151016   -7.2078638    300.92154  0.031904319  0.032162332            2 
  787000    1.1182785   -7.1790514    301.95202  0.031972895  0.032155186            2 
  788000    1.1233712   -7.1544546    301.67591  0.031903121  0.032147947            1 
  789000    1.1469559   -7.1791772    302.28468  0.031926983  0.032140954            2 
  790000     1.157657   -7.1746122    303.49421  0.032014157  0.032133893            2 
  791000    1.1334178   -7.1806487    302.08386  0.031825102  0.032126999            2 
  792000    1.1130282   -7.1868309    303.28419  0.031911215  0.032119862            1 
  793000    1.1440179   -7.1625018    303.81847  0.031927119  0.032112873            1 
  794000    1.1115709   -7.1365801    304.78459  0.031988307  0.032106131            1 
  795000     1.142428   -7.1795045    304.63139  0.031932012  0.032099312            2 
  796000    1.0929221   -7.1482929    304.43195  0.031871017  0.032092497            1 
  797000    1.1155371   -7.1661133    304.76564  0.031865918  0.032085732            2 
  798000    1.1200516   -7.1727535     305.6469  0.031918014  0.032078898            4 
  799000    1.1421732   -7.1910732    306.03194  0.031918224  0.032072219            2 
  800000    1.1339551   -7.1501896    307.23906  0.032004069   0.03206576            2 
  801000    1.1239802    -7.122056    306.94754  0.031933785  0.032059321            1 
  802000    1.1191531   -7.1861068    306.78435   0.03187701  0.032052628            1 
  803000    1.0952305   -7.2002511    306.81494  0.031840488  0.032045757            2 
  804000    1.1094206   -7.1980809    308.09092  0.031933139   0.03203915            1 
  805000    1.1170384   -7.1983705    307.84155  0.031867656  0.032032478            1 
  806000    1.1257528   -7.1528958    307.85641  0.031829654  0.032026278            1 
  807000    1.1371085   -7.1400444    309.96893  0.032008357  0.032020294            1 
  808000    1.1243687    -7.181309    309.45133   0.03191536  0.032014211            2 
  809000    1.1163457   -7.1857809    310.34527  0.031967992  0.032007958            1 
  810000    1.1078823   -7.1735628    310.53441  0.031947984  0.032001681            2 
  811000    1.1227771   -7.1732757    311.05369  0.031961949  0.031995541            1 
  812000    1.1228136   -7.1736329    310.70447  0.031886747  0.031989783            2 
  813000    1.1026621   -7.2027446    310.97776  0.031875539  0.031983538            1 
  814000    1.1223402   -7.1741963    311.27199  0.031866502  0.031977202            2 
  815000    1.1327901   -7.1690543    312.53888   0.03195694  0.031971551            2 
  816000    1.1150102    -7.160367     311.9384  0.031856455  0.031965911            1 
  817000    1.1094084   -7.2064174    312.28581  0.031852898  0.031960038            2 
  818000    1.1289897   -7.1683171     312.6456  0.031850611  0.031954125            1 
  819000    1.1338052   -7.1525873     313.5953  0.031908354  0.031948414            2 
  820000    1.1168404   -7.1779181    313.16065  0.031825269  0.031942717            1 
  821000    1.1249926   -7.2001721    314.59154  0.031931743  0.031937018            1 
  822000    1.1206388   -7.2051929    314.27874  0.031861186  0.031931216            3 
  823000    1.1203985   -7.2031173    315.46861  0.031942954  0.031925476            1 
  824000    1.1320967   -7.1863097    315.24423  0.031881495  0.031919908            1 
  825000    1.1140521   -7.2045998    315.35299  0.031853837  0.031914615            1 
  826000    1.1233649   -7.1928691    316.40342  0.031921249  0.031909237            1 
  827000    1.1229955   -7.1697548     317.2685  0.031969821  0.031903879            4 
  828000    1.1000529   -7.1698239    317.68929   0.03197356  0.031898718            4 
  829000    1.1390918    -7.156823     317.9757  0.031963781  0.031893545            3 
  830000    1.1399593   -7.1665745    318.15143  0.031942915  0.031888334            2 
  831000    1.1221195   -7.1677504    318.58907  0.031948362  0.031882899            1 
  832000    1.1194424   -7.1703017    318.53327  0.031904374  0.031877474            3 
  833000    1.1305266   -7.2252859    318.08798  0.031821527  0.031871908            2 
  834000      1.11159   -7.2218429    318.49504  0.031824044  0.031866401            2 
  835000    1.1355037   -7.1958084    318.85842  0.031822197  0.031860751            1 
  836000    1.1185683   -7.1807911    319.81875   0.03187986  0.031855301            2 
  837000    1.1133159   -7.2102064    320.44073  0.031903697  0.031849985            2 
  838000    1.1282165   -7.1959605    320.16187  0.031837895   0.03184459            2 
  839000    1.1237448   -7.2092439    320.37726  0.031821341  0.031839172            2 
  840000    1.1046763   -7.1726104     320.4669  0.031792351  0.031833759            2 
  841000    1.1140409   -7.1510665    322.56461  0.031962407  0.031828821            2 
  842000    1.1052454   -7.2021221    322.07426  0.031875917  0.031824104            4 
  843000    1.1383837   -7.1963688    322.20623   0.03185115  0.031819094            1 
  844000    1.1285182   -7.1826043    322.30478  0.031823142  0.031813831            3 
  845000     1.125489   -7.1798321    323.02211  0.031856224  0.031808441            1 
  846000    1.1248734   -7.2258587    322.73518  0.031790305  0.031802903            2 
  847000    1.0905376   -7.1425257    323.24501  0.031802932  0.031797635            1 
  848000    1.1247801   -7.1488642    323.48878  0.031789385  0.031792229            1 
  849000    1.1052721    -7.171524     324.3432  0.031835807  0.031786641            3 
  850000     1.113005   -7.2339605    323.69359  0.031734665  0.031780936            2 
  851000    1.1119239   -7.1547475    324.50845  0.031777169  0.031775156            1 
  852000    1.1019436   -7.1575878    324.72038    0.0317606  0.031769409            1 
  853000    1.1256477   -7.1460651    325.58166  0.031807509  0.031763774            1 
  854000    1.1364748   -7.1754852    325.89672  0.031801007  0.031758331            2 
  855000    1.0973511   -7.1649371    326.42527  0.031815328  0.031753066            2 
  856000    1.1022169   -7.1516749    326.01096  0.031737827  0.031747922            1 
  857000    1.1186276   -7.2252175    326.07955  0.031707463   0.03174231            1 
  858000    1.1204954   -7.1986757    326.57792  0.031718912  0.031736878            4 
  859000    1.1090032   -7.1917156    327.50867   0.03177228  0.031731722            3 
  860000    1.1270902   -7.2311961    327.56966  0.031741246  0.031726481            1 
  861000    1.1020555   -7.1853302     328.6527  0.031809204  0.031721488            1 
  862000    1.0942796   -7.2250964    327.43295  0.031654384  0.031716134            2 
  863000    1.1058815    -7.174259    328.54537  0.031725123  0.031710963            2 
  864000    1.1104281   -7.2222137    329.78978  0.031808428  0.031705832            2 
  865000    1.1195926   -7.1986796    328.28754   0.03162693  0.031700519            3 
  866000    1.1212633   -7.1915569    329.43953  0.031701263  0.031695506            2 
  867000    1.0888679   -7.2197116    329.33064  0.031654233   0.03169025            1 
  868000    1.1176077   -7.2323129    328.80792  0.031567581   0.03168483            2 
  869000    1.1123511   -7.2030074     331.3146  0.031771634  0.031679547            1 
  870000    1.0925538   -7.1780862    331.44409  0.031747518  0.031674512            4 
  871000     1.118051   -7.1722598     332.0602  0.031770015  0.031669551            2 
  872000    1.1258438   -7.2092254    331.91218  0.031719436   0.03166465            1 
  873000     1.138163   -7.1997013    332.23828   0.03171423  0.031659459            1 
  874000    1.1147581   -7.2527777    332.06916  0.031661819  0.031654202            1 
  875000    1.1212334   -7.1961012    333.02459  0.031716628  0.031648874            1 
  876000    1.0925432   -7.1936466     332.9704  0.031675266   0.03164396            2 
  877000    1.1255856   -7.2505847    333.74191  0.031712459  0.031638971            2 
  878000    1.1231717   -7.1787595    335.25032  0.031819507  0.031634411            1 
  879000     1.115101   -7.2422214    334.71554  0.031732607  0.031629907            3 
  880000    1.0957854   -7.1823755    335.78306  0.031797639   0.03162535            1 
  881000    1.1168097   -7.2048805    334.82235  0.031670673  0.031620589            4 
  882000    1.1059945   -7.2441622    335.73611  0.031721099  0.031616143            2 
  883000    1.1191663   -7.2034789    335.79944  0.031691151  0.031611533            1 
  884000    1.0818213   -7.1775313    337.96012  0.031858986  0.031607142            1 
  885000    1.1086814   -7.2036975    337.56638  0.031785912  0.031602947            2 
  886000    1.1243624    -7.222135    337.46127   0.03174015   0.03159855            1 
  887000    1.1177387   -7.2075871    337.33286  0.031692302  0.031594141            3 
  888000    1.1300193   -7.2637224    338.40945  0.031757643  0.031589942            2 
  889000    1.1183654   -7.1962791    339.51113   0.03182519  0.031586138            1 
  890000    1.1124052   -7.2293286    339.55585  0.031793619  0.031581899            1 
  891000    1.1157835   -7.1515582    339.35254   0.03173892  0.031577675            3 
  892000    1.1352476   -7.1417299    339.29312  0.031697787   0.03157351            1 
  893000    1.1035768   -7.1630325    339.91374  0.031720207  0.031569205            2 
  894000    1.1248243   -7.2362146    339.27193  0.031624901  0.031564736            3 
  895000    1.1150677   -7.1810078     339.7662  0.031635587  0.031559881            3 
  896000    1.1135575   -7.1943226    340.47137  0.031665864  0.031555114            1 
  897000    1.1384173   -7.2089989    339.41828  0.031532728  0.031550043            1 
  898000    1.0895137    -7.256339    340.46977   0.03159519  0.031545042            2 
  899000    1.1005808   -7.1900941    341.61839  0.031666517  0.031540142            5 
  900000    1.1157198   -7.2205729    340.67006  0.031543524  0.031534918            3 
  901000    1.1124234    -7.200888    341.19268  0.031556852  0.031529618            3 
  902000    1.0979859   -7.1903544    341.53692   0.03155367  0.031524149            1 
  903000    1.1015047    -7.218988    341.84292  0.031546966  0.031519037            1 
  904000     1.128452   -7.2046288    341.35788  0.031467357   0.03151363            2 
  905000    1.1099738   -7.2119923    342.41358  0.031529796  0.031508256            1 
  906000    1.0936501   -7.2163055    342.83417   0.03153368  0.031503155            1 
  907000    1.1238701   -7.2299237    343.16314  0.031529138  0.031498016            1 
  908000    1.1191973    -7.171334    343.79491  0.031552396  0.031492733            1 
  909000    1.1196166    -7.227081    342.59557  0.031407735  0.031487465            1 
  910000    1.1094993   -7.2251373    342.93965  0.031404729  0.031481861            1 
  911000    1.1218647   -7.2332397    343.76546  0.031445798  0.031476357            2 
  912000    1.0957483   -7.2022851    344.74276  0.031500618  0.031470931            3 
  913000    1.1111582   -7.1888873    345.13895  0.031502277  0.031465764            2 
  914000    1.0909052   -7.1977263    345.71858  0.031520659  0.031460565            1 
  915000    1.1151959   -7.2605089    346.05909  0.031517222  0.031455479            2 
  916000    1.0908177   -7.2080886     346.7043  0.031541512  0.031450459            2 
  917000    1.1229737   -7.2214169    345.77076  0.031422279  0.031445375            2 
  918000    1.1195085   -7.2401195     346.9053   0.03149104  0.031440474            1 
  919000    1.1065022   -7.2105595    347.80186  0.031538072  0.031435334            4 
  920000    1.1210637   -7.2427106    346.75928  0.031409355  0.031430462            2 
  921000    1.1049424   -7.2286973    347.60233  0.031451532  0.031425207            2 
  922000    1.1073672   -7.2345061     347.2443   0.03138506  0.031419986            3 
  923000    1.0954062   -7.2172955    348.52281  0.031466487  0.031414917            3 
  924000    1.0972413   -7.1997281    348.85794  0.031462657  0.031410078            1 
  925000    1.1199225   -7.2549552    347.60378  0.031315656  0.031404813            2 
  926000    1.1153484   -7.2224369     348.1459  0.031330625  0.031399527            1 
  927000    1.1073723   -7.2241128    350.07977  0.031470673  0.031394389            1 
  928000    1.0953615   -7.2493897    349.65889  0.031398966  0.031389254            2 
  929000    1.1284331   -7.2723744     349.8279  0.031380328  0.031383801            2 
  930000    1.1041889   -7.1928119    349.99011  0.031361121  0.031378274            2 
  931000    1.0938945   -7.2356866    350.34708  0.031359388   0.03137286            2 
  932000    1.0895467     -7.23852    350.13427  0.031306713  0.031367194       -1e+20 
  933000    1.1008744   -7.1827726    351.35146  0.031381874  0.031361522            2 
  934000    1.0960096   -7.2126721    351.74941   0.03138378  0.031355996            3 
  935000     1.130609   -7.2604821    350.63037  0.031250479  0.031350376            2 
  936000    1.0945313    -7.226257    351.38682  0.031284439  0.031344941            1 
  937000    1.1014907   -7.2289184    352.04103  0.031309234   0.03133925            2 
  938000    1.1064659   -7.2780062    352.80229  0.031343487  0.031333486            2 
  939000    1.0815152    -7.211229    352.93237  0.031321652  0.031327954            2 
  940000    1.1204446   -7.2233833    352.68824  0.031266688  0.031322177            1 
  941000    1.0851451   -7.2536895    353.41883  0.031298161  0.031316557            1 
  942000    1.1119886   -7.2232021    353.22316  0.031247625  0.031310796            2 
  943000    1.0893145   -7.2030873    353.67567  0.031254478    0.0313055            2 
  944000    1.0993798   -7.2567192    353.43266  0.031199917  0.031299738            1 
  945000    1.0719323   -7.2245039    353.85165  0.031203849  0.031293842            1 
  946000    1.0829549   -7.2255638    355.69026  0.031332827  0.031287965            1 
  947000    1.1165191   -7.2234974    354.23125  0.031171352  0.031282233            2 
  948000    1.1206164   -7.2428841    353.67096   0.03108922  0.031276446            2 
  949000    1.0845568   -7.2334316    355.59616  0.031225515  0.031270408            2 
  950000    1.0842527   -7.2440981    355.32182  0.031168581  0.031264299            1 
  951000    1.0975067   -7.2042498    355.02362  0.031109675   0.03125835            2 
  952000    1.0920811   -7.2402032    355.65286  0.031132078  0.031252286            2 
  953000    1.0954894   -7.2201306    355.67779  0.031101591   0.03124627            2 
  954000    1.0978477   -7.2305278     356.4258  0.031134329  0.031240088            3 
  955000    1.0791894   -7.2363999     355.9778  0.031062635  0.031233979            1 
  956000     1.089813   -7.2303995    357.55978  0.031168042   0.03122795            1 
  957000    1.1007815   -7.2374485    357.91769   0.03116664  0.031221794            3 
  958000    1.1116272   -7.2455488    357.89566   0.03113219  0.031215791            1 
  959000    1.1176287   -7.2131199    358.13983  0.031120944  0.031209746            2 
  960000    1.0930202    -7.207982    359.07084  0.031169344  0.031203763            2 
  961000    1.1244523   -7.2551433    358.30867  0.031070818  0.031197713            1 
  962000    1.0899274   -7.2268431     358.8814  0.031088133  0.031191392            2 
  963000    1.0988806   -7.2690248    358.36494  0.031011158  0.031185162            2 
  964000    1.0744576   -7.2095459     360.3295  0.031148816   0.03117887            2 
  965000    1.1167415    -7.242466    359.57621  0.031051486  0.031172851            2 
  966000    1.0887112   -7.2708282    360.14617   0.03106851  0.031166997            1 
  967000    1.0944394   -7.2392768     361.4546  0.031149138  0.031161367            1 
  968000    1.0948505   -7.2372968     361.9073  0.031155932  0.031155725            2 
  969000    1.0999342    -7.242573    361.91065  0.031124067  0.031150108            1 
  970000    1.0887958   -7.1878219    364.09601  0.031279726  0.031144521            1 
  971000    1.1039786   -7.2561676    362.15995  0.031081355  0.031139166            2 
  972000    1.1216495   -7.2441398    363.47996  0.031162548  0.031133724            1 
  973000    1.0975539    -7.260019    363.14902  0.031102177  0.031128298            3 
  974000    1.0844997   -7.2458939    363.19457  0.031074142  0.031122766            2 
  975000    1.0946896   -7.2518822    363.06917  0.031031553  0.031117162            2 
  976000    1.0897314   -7.2539415    364.67758  0.031137089  0.031111692            3 
  977000    1.1043882   -7.2201135      364.571  0.031096128  0.031106282            2 
  978000    1.0826453   -7.2443334     364.4158  0.031051107  0.031100791            2 
  979000    1.1100474     -7.20886    366.14564  0.031166636  0.031095277            2 
  980000    1.1069641   -7.2784596    364.50949  0.030995705  0.031089262            2 
  981000    1.0951813   -7.2402072    365.45053  0.031044048   0.03108323            1 
  982000    1.0812391   -7.1930434    365.71966  0.031035273  0.031077353            3 
  983000    1.0779886   -7.2679455    363.92927  0.030851922   0.03107122            1 
  984000    1.0855263   -7.2526463    365.39359  0.030944579  0.031064964            1 
  985000    1.1194042   -7.2459639    365.98502    0.0309632  0.031058817            3 
  986000    1.0758481   -7.2221306    366.87762  0.031007236  0.031052577            1 
  987000    1.0977003    -7.212587    366.83915  0.030972573  0.031046218            1 
  988000    1.0822939   -7.2433641    367.42194  0.030990379  0.031040249            1 
  989000     1.109262   -7.2685506    366.32003  0.030866197  0.031034058            1 
  990000    1.1066238   -7.2603434    366.77284  0.030873135  0.031027815            3 
  991000    1.0899329   -7.2304393    367.70215  0.030920127  0.031021897            2 
  992000    1.0904323   -7.2298071    367.60934  0.030881161  0.031015896            3 
  993000    1.0932911   -7.2545896    367.72584  0.030859839  0.031009964            2 
  994000    1.0798009   -7.2347624    368.66261  0.030907328  0.031004039            2 
  995000       1.0988   -7.2243413    368.26312  0.030842807  0.030997949            1 
  996000    1.0976462    -7.264187    368.73331  0.030851181  0.030991806            2 
  997000    1.1111947    -7.265276    368.05079  0.030763188  0.030985381            1 
  998000    1.0640716   -7.2694944    368.43051   0.03076407  0.030978886            4 
  999000    1.0989706   -7.2335577    370.89641  0.030938973  0.030972561            1 
 1000000    1.1002808   -7.2592368    369.24001  0.030770001  0.030966386            2 
 1001000    1.0663609   -7.2474782    370.81897   0.03087071  0.030960256            2 
 1002000    1.0798322   -7.2579704    369.88938   0.03076259  0.030953935            2 
 1003000    1.1002658    -7.271366    371.29923  0.030849055  0.030947601            1 
 1004000    1.0767689   -7.2120592    372.34272  0.030904941  0.030941426            1 
 1005000    1.1064037   -7.2708266    371.54524  0.030808063  0.030935286            1 
 1006000    1.0850301   -7.2684626    371.90561   0.03080729  0.030929138            2 
 1007000    1.0962867   -7.2593046    373.26528  0.030889215  0.030922925            2 
 1008000     1.062472   -7.2209096    373.29332   0.03086089  0.030916695            1 
 1009000    1.0866508   -7.2537691    370.85852  0.030629214  0.030910574            2 
 1010000     1.087147   -7.2391137    373.89327   0.03084928  0.030904326            2 
 1011000    1.0953081   -7.2083171    374.98957   0.03090913  0.030898125            4 
 1012000    1.0652055    -7.257969    373.29045  0.030738673  0.030891751            2 
 1013000    1.0981696   -7.2653308    373.72746  0.030744279  0.030885637            2 
 1014000    1.0823915   -7.2404819    375.57912  0.030866134   0.03087948            1 
 1015000    1.0783719   -7.2040558    374.52114  0.030748862  0.030873099            1 
 1016000    1.0927267   -7.2485156     375.2216   0.03077605  0.030866566            3 
 1017000    1.1005393   -7.2232486    374.90605  0.030719932  0.030860223            1 
 1018000    1.0617713   -7.2176977    375.64806  0.030750496  0.030853764            3 
 1019000    1.0828607   -7.2900696    374.98385     0.030666   0.03084721            3 
 1020000    1.0723558   -7.2248474    377.58456  0.030848411  0.030841034            2 
 1021000     1.088201   -7.2693637    376.60242  0.030738036  0.030834785            2 
 1022000    1.0959395   -7.2063723    378.57582   0.03086887  0.030828535            1 
 1023000    1.0850046   -7.2561011    377.48369  0.030749731  0.030822407            3 
 1024000    1.0779534   -7.2268401    378.84945  0.030830847  0.030816348            1 
 1025000    1.0949743    -7.266888    377.21425  0.030667826  0.030810215            2 
 1026000     1.074669   -7.2608715    378.76757  0.030764098  0.030804037            2 
 1027000    1.0926872   -7.2659708    377.28365  0.030613733  0.030797856            2 
 1028000    1.0896954   -7.2798538    378.96894  0.030720569  0.030791583            6 
 1029000    1.0933355   -7.2525147    379.04513  0.030696884  0.030785463            2 
 1030000    1.0733497   -7.2503486    379.22828    0.0306819  0.030779153            1 
 1031000    1.0765516   -7.2714568    378.30081  0.030577175  0.030772902            1 
 1032000    1.0560592   -7.2610491    380.72513  0.030743308  0.030766788            2 
 1033000    1.0874183   -7.2607482    379.48486  0.030613493  0.030760728            1 
 1034000    1.0965675   -7.2403941    379.96301  0.030622422  0.030754592            1 
 1035000    1.0846332     -7.23003    379.93697  0.030590738  0.030748432            1 
 1036000     1.087707   -7.2302518    380.98597  0.030645589  0.030742097            2 
 1037000    1.0905483   -7.2506982    381.20678  0.030633782  0.030735783            1 
 1038000    1.0649954   -7.2508888    380.74064  0.030566847  0.030729237            4 
 1039000    1.0908871   -7.2658045    380.13115  0.030488543  0.030722677            2 
 1040000    1.0818075   -7.2512269    381.59253  0.030576325   0.03071616            1 
 1041000    1.0735322    -7.248288    381.54771  0.030543365  0.030709737            3 
 1042000    1.1028767   -7.2400684     383.7912  0.030693474  0.030703443            1 
 1043000    1.0727029   -7.2567434    381.41009  0.030473801  0.030697061            3 
 1044000    1.0704107   -7.2869642    381.82983  0.030478115  0.030690443            1 
 1045000    1.0977905   -7.2856765      382.573  0.030508214  0.030683983            1 
 1046000    1.0659601   -7.1956037    384.36607  0.030621898  0.030677643            2 
 1047000    1.0918633   -7.3054312    382.03693  0.030407269  0.030671097            2 
 1048000    1.0782284   -7.2494766     383.9415  0.030529699  0.030664665            2 
 1049000    1.0962935   -7.2918671    383.75585  0.030485848   0.03065825            1 
 1050000    1.0634975   -7.3108956    383.89248  0.030467657  0.030651729            3 
 1051000     1.080254   -7.2762468    385.20194  0.030542495  0.030645349            5 
 1052000    1.0968925   -7.2340902    385.53379  0.030539749   0.03063869            1 
 1053000    1.0870374    -7.253092    385.89557  0.030539377  0.030631946            2 
 1054000    1.0768765    -7.285701    384.28287  0.030382896  0.030625237            2 
 1055000     1.066974   -7.2885292    385.62512   0.03046012  0.030618486            1 
 1056000    1.1019317   -7.2907504    385.24867  0.030401568    0.0306116            1 
 1057000    1.0794884   -7.2281255     386.1198  0.030441486  0.030604771            1 
 1058000      1.07649   -7.2755514     385.5721  0.030369573  0.030598112            1 
 1059000    1.1010243   -7.2800019    385.86731  0.030364125  0.030591277            1 
 1060000    1.0794381   -7.2787942    385.89123  0.030337361  0.030584526            2 
 1061000    1.0720874    -7.287282    387.43379  0.030429924  0.030578142            1 
 1062000     1.071776   -7.2311698     390.0491  0.030606489  0.030571933            1 
 1063000    1.0778798   -7.2680285    388.01765  0.030418442  0.030565641       -1e+20 
 1064000    1.0747858   -7.2747765    389.31467  0.030491437  0.030559348            1 
 1065000    1.0781112   -7.2494252    390.00179  0.030516572  0.030553058            3 
 1066000    1.0873113   -7.3018997     389.6275  0.030458685  0.030546593            4 
 1067000    1.0775679   -7.2770136     388.3026  0.030326664  0.030540059            2 
 1068000    1.0834247   -7.3007224    389.42972  0.030386214  0.030533478            2 
 1069000    1.0726248   -7.2562938    389.13179  0.030334564  0.030527027            1 
 1070000     1.066098   -7.2713682     389.8303  0.030360615  0.030520469            2 
 1071000    1.0948402   -7.2832458    389.93911  0.030340733  0.030513725            2 
 1072000    1.0761398   -7.2450903    390.26274  0.030337589  0.030507464            4 
 1073000    1.0725854   -7.2332402    392.04027  0.030447365  0.030500883            2 
 1074000    1.0517117   -7.2770348    391.38451  0.030368134  0.030494435            3 
 1075000    1.0654015   -7.2664969    391.63315  0.030359159  0.030487854            2 
 1076000    1.0624243   -7.2924261    391.96179  0.030356396  0.030481278            1 
 1077000    1.0794124   -7.2672631    391.81238  0.030316649  0.030474477            2 
 1078000    1.0719101   -7.2655087    390.83312  0.030212826  0.030468023            4 
 1079000    1.0686294   -7.2546796    391.91397  0.030268302  0.030461215            6 
 1080000     1.081598   -7.2937484    393.12907  0.030334033  0.030454488            2 
 1081000    1.0669978   -7.2817653    393.39593  0.030326544  0.030448065            1 
 1082000    1.0890632   -7.2709042    392.54443  0.030232935  0.030441553            1 
 1083000    1.0787658   -7.2613722    394.07653  0.030322909  0.030434973            1 
 1084000    1.0722014   -7.2613587    392.98492  0.030211018  0.030428403            1 
 1085000     1.087824    -7.304821    394.28769  0.030283233  0.030421784            2 
 1086000    1.0998012   -7.2463519    394.80195  0.030294809  0.030415244            1 
 1087000    1.0733339   -7.2796701    395.00642  0.030282614   0.03040861            2 
 1088000    1.0816146   -7.2684579    396.11149  0.030339422  0.030402009            1 
 1089000    1.0565702   -7.2986537    394.32775  0.030175065  0.030395621            2 
 1090000    1.0623013   -7.2852516    396.54778  0.030317109  0.030389253            1 
 1091000     1.092456   -7.2687522    396.50608  0.030286135   0.03038288            1 
 1092000    1.0755004   -7.2751402    397.78787  0.030356217  0.030376784            1 
 1093000    1.0632642   -7.2604473    397.22965  0.030285884  0.030370606            1 
 1094000    1.1078245   -7.2508235      398.693  0.030369667  0.030364403            1 
 1095000     1.070446   -7.2733967    397.19762  0.030228129  0.030358161            3 
 1096000    1.1128539   -7.2714104     397.5989   0.03023106  0.030351864            1 
 1097000    1.0624497   -7.2812576    397.44666  0.030191937  0.030345371            1 
 1098000    1.0875522   -7.2664022    398.48005   0.03024287  0.030339034            3 
 1099000     1.059742   -7.2586281    398.49484  0.030216473  0.030332682            4 
 1100000    1.1013062   -7.2854421    398.43088  0.030184158  0.030326431            4 
 1101000    1.0897313   -7.2483961    398.72595  0.030179076  0.030320282            1 
 1102000    1.0719519   -7.3001897    399.55559  0.030214428   0.03031391            3 
 1103000    1.0616104   -7.2493992    399.92062  0.030214613  0.030307692            2 
 1104000     1.061287   -7.2520381    400.77335  0.030251611  0.030301522            1 
 1105000    1.0762372   -7.2865452    399.76894  0.030148487  0.030295412            2 
 1106000    1.0859453   -7.2916819    400.51935  0.030177769  0.030288981            1 
 1107000    1.1003077   -7.3049755    402.20072  0.030277079  0.030282703            2 
 1108000    1.0776764    -7.215522    403.26143   0.03032953  0.030276896            5 
 1109000    1.0635292   -7.3125523    400.91423  0.030125806  0.030270999            2 
 1110000    1.0612339   -7.3023916    403.15108  0.030266597  0.030264804            1 
 1111000    1.0661782    -7.305246    402.24616  0.030171479  0.030258746            3 
 1112000    1.0600509   -7.3135901    403.13104  0.030210659  0.030252617            2 
 1113000    1.0848863   -7.2369903    403.47527  0.030209289  0.030246727            3 
 1114000    1.0627417   -7.2679322    404.87962  0.030287225  0.030240906            2 
 1115000    1.0813144   -7.2372041    403.99957  0.030194287  0.030234966            3 
 1116000    1.1051191   -7.2814953    402.76787  0.030075259  0.030229023            1 
 1117000    1.0881267   -7.2746558    404.17909  0.030153617  0.030222916            3 
 1118000    1.0717988   -7.2896118    404.49538  0.030150222  0.030216813            4 
 1119000    1.0687962   -7.2908306    405.43887  0.030193541  0.030210652            1 
 1120000    1.0750536   -7.2468982    406.43774  0.030240903  0.030204537            2 
 1121000    1.0499159   -7.2597007    406.39275  0.030210582  0.030198467            3 
 1122000    1.1033904   -7.2417098     406.8634  0.030218612  0.030192478            1 
 1123000    1.0652633   -7.2781234    403.96827  0.029976868   0.03018631            1 
 1124000    1.0545215   -7.3068788    405.13005  0.030036332  0.030179956            3 
 1125000    1.0836618    -7.314489    406.47089  0.030108955  0.030173645            1 
 1126000    1.0847115   -7.2677854    407.45542  0.030155078  0.030167263            1 
 1127000    1.0541239   -7.2838907    405.93336  0.030015776  0.030160888            2 
 1128000    1.0597617    -7.291857    407.28093  0.030088721  0.030154491            3 
 1129000    1.0542149      -7.3032    407.37114  0.030068729  0.030148215            1 
 1130000    1.0716822   -7.3135236    407.80849  0.030074372  0.030141877            2 
 1131000     1.076744   -7.2749923    408.78241  0.030119541  0.030135742            1 
 1132000    1.0843353   -7.2972223    408.95989  0.030105999  0.030129697            1 
 1133000    1.0491374   -7.2822365     408.0504  0.030012533  0.030123681            1 
 1134000    1.0523435   -7.2941278    409.84564  0.030117992  0.030117651            2 
 1135000    1.0773559   -7.3280626    408.75671  0.030011506  0.030111773            2 
 1136000    1.0549927   -7.2587859    410.12572  0.030085513  0.030105714            2 
 1137000    1.0664549   -7.2649742    411.04658  0.030126545  0.030099693            2 
 1138000    1.0572491   -7.2823989    410.40637   0.03005319  0.030093549            2 
 1139000    1.0805373    -7.297035    408.83759  0.029912027  0.030087321            1 
 1140000    1.0581177   -7.3158695    410.43793  0.030002773  0.030081054            3 
 1141000    1.0828959   -7.3366155    408.78647  0.029855863  0.030074585            2 
 1142000    1.0683388   -7.3021301      410.146  0.029928926  0.030068395            3 
 1143000    1.0567937   -7.3032933    410.92105  0.029959249  0.030062253       -1e+20 
 1144000    1.0750086   -7.3086215    411.64855  0.029986054  0.030055976            3 
 1145000    1.0648273    -7.300003    412.26043  0.030004398  0.030049725            2 
 1146000    1.0528969   -7.3016005    411.79936  0.029944688  0.030043235            1 
 1147000    1.0866375   -7.2699475    412.05818  0.029937386  0.030036831            2 
 1148000    1.0868328   -7.2764178    412.83204  0.029967482   0.03003047            1 
 1149000    1.0496692    -7.243363    412.81942  0.029940486  0.030024134            1 
 1150000    1.0579685   -7.3377147    411.36658  0.029809173  0.030017618            1 
 1151000    1.0574957   -7.3169024    412.29899  0.029850781  0.030011162            1 
 1152000    1.0729533   -7.3109099    413.47099  0.029909649  0.030004816            1 
 1153000    1.0592359   -7.2963514    413.29486  0.029870978  0.029998483            1 
 1154000    1.0752372   -7.3066339    414.03579  0.029898598  0.029992017            2 
 1155000    1.0607192   -7.3107599    414.53892  0.029909013   0.02998541            3 
 1156000    1.0830607   -7.3016976    414.27896    0.0298644  0.029978856            3 
 1157000    1.0779175   -7.3017995    413.85552   0.02980809  0.029972432            2 
 1158000    1.0461938   -7.2680625    414.50497  0.029829085  0.029965992            1 
 1159000    1.0704066   -7.3113652    414.79699  0.029824345  0.029959316            4 
 1160000    1.0882944   -7.3381293    414.31995  0.029764364  0.029952667            2 
 1161000    1.0397972   -7.3070993    415.94254  0.029855193   0.02994592            2 
 1162000    1.0616677   -7.2708957    416.70644  0.029884283  0.029939295            5 
 1163000    1.0625689   -7.3370746    413.39663  0.029621426  0.029932516            4 
 1164000     1.066176   -7.3115519    414.11017  0.029647063  0.029925571            3 
 1165000    1.0661164   -7.3091146    414.31959  0.029636594  0.029918824            3 
 1166000     1.045205   -7.2844541    416.71711  0.029782526  0.029911933            1 
 1167000    1.0615862   -7.2971645    416.81794  0.029764206  0.029905092            5 
 1168000    1.0752794   -7.2742352    416.57416   0.02972133  0.029898221            2 
 1169000    1.0474714   -7.2896691    417.05863  0.029730441  0.029891538            1 
 1170000    1.0650964   -7.3044208    415.99927  0.029629578    0.0298847            2 
 1171000     1.073143   -7.3024659    418.01101  0.029747439  0.029877712            1 
 1172000    1.0681108   -7.3141663    417.15355  0.029661089  0.029870727            2 
 1173000    1.0629971   -7.3269093    416.29844  0.029575052  0.029863705            6 
 1174000    1.0711058   -7.3558763    415.75932  0.029511593  0.029856845            1 
 1175000    1.0633093   -7.2935165    417.78843  0.029630385  0.029849949            1 
 1176000    1.0685522   -7.2832559    418.55491  0.029659503  0.029843169            2 
 1177000    1.0835474   -7.2883595    418.51695  0.029631616  0.029836557            1 
 1178000    1.0744896   -7.3184223    419.24356  0.029657864  0.029829819            1 
 1179000    1.0678975   -7.2974718    420.10606  0.029693671  0.029823122            1 
 1180000    1.0646377   -7.3398582     418.0524  0.029523475  0.029816299            4 
 1181000    1.0603659   -7.3092538    420.17551  0.029648286  0.029809357            1 
 1182000    1.0435273   -7.3452434    419.34653  0.029564758  0.029802359            1 
 1183000    1.0678757   -7.2943621    420.89486  0.029648835  0.029795399            7 
 1184000    1.0672915   -7.3061723    420.88361  0.029623002  0.029788705            2 
 1185000    1.0307436   -7.3102062    421.36727  0.029632016  0.029781938            3 
 1186000     1.038989   -7.3314317    419.99547  0.029510643  0.029774968            1 
 1187000    1.0878828   -7.2788748    420.90531  0.029549657  0.029768031            3 
 1188000    1.0549563   -7.2946472    419.81608  0.029448378  0.029760979            2 
 1189000    1.0446346   -7.3435938    421.48603  0.029540653  0.029753848            1 
 1190000    1.0645584   -7.3423594    421.02732  0.029483706   0.02974667            3 
 1191000     1.048431   -7.3462568    420.84437   0.02944615  0.029739446            3 
 1192000    1.0738272   -7.3294988    420.56613  0.029401994  0.029732218            2 
 1193000    1.0648553   -7.3303403    423.92778  0.029612167  0.029725257            2 
 1194000    1.0775188   -7.3093198    423.55479  0.029561334  0.029718505            1 
 1195000    1.0544559   -7.2927969    423.53929  0.029535515  0.029711562            2 
 1196000    1.0489964   -7.2824749    423.41467  0.029502137  0.029704456            3 
 1197000     1.071935   -7.3447439    421.98909  0.029378244  0.029697357            1 
 1198000    1.0603575   -7.3501871    424.57829  0.029533827  0.029690192            1 
 1199000    1.0304153   -7.3160316    422.74155  0.029381537  0.029683118            1 
 1200000    1.0519863   -7.3452904    422.60955  0.029347886  0.029675898            2 
 1201000    1.0536592   -7.3577989    423.02217  0.029352079  0.029668876            3 
 1202000    1.0609935   -7.2927945    425.37389  0.029490702  0.029661643            3 
 1203000    1.0710013   -7.3411893    424.20319  0.029385092  0.029654584            3 
 1204000    1.0595601    -7.323212    424.62157  0.029389643  0.029647271            4 
 1205000     1.033387   -7.3000187    424.80588     0.029378      0.02964            2 
 1206000     1.062396   -7.2763512    425.19975  0.029380856  0.029632754            2 
 1207000    1.0534668   -7.3384995    425.13132   0.02935179  0.029625578            3 
 1208000    1.0800821   -7.3181313    425.18225  0.029331005  0.029618285            2 
 1209000    1.0434822   -7.3282205    426.13439  0.029372373  0.029611063            1 
 1210000    1.0487054   -7.3764399    424.75101  0.029252824  0.029603657            2 
 1211000    1.0392447   -7.3267562    426.10262  0.029321678  0.029596247            4 
 1212000    1.0606875   -7.3318002    426.01623  0.029291545   0.02958897            1 
 1213000    1.0618082   -7.3050212    428.16071  0.029414723  0.029581814            3 
 1214000    1.0524948   -7.2834967    428.13378  0.029388645  0.029574796            2 
 1215000     1.069277   -7.3706877    426.57207  0.029257344  0.029567707            4 
 1216000    1.0498267   -7.3056832    427.02305  0.029264189  0.029560497            1 
 1217000    1.0734657   -7.3261929    427.87985  0.029298812  0.029553309            2 
 1218000    1.0623516    -7.316015    427.63798  0.029258208  0.029546169            2 
 1219000    1.0726908   -7.3148784    428.62993  0.029302019  0.029539042            1 
 1220000    1.0523191   -7.2964596    429.24458  0.029319985  0.029531974            4 
 1221000    1.0320738   -7.3492244    427.43381  0.029172387  0.029524878            3 
 1222000    1.0795432   -7.3745006    429.02423  0.029256972  0.029517548            3 
 1223000    1.0485782   -7.2995626    429.30498  0.029252179   0.02951026            4 
 1224000    1.0531337   -7.3444476    430.24946  0.029292583  0.029503138            1 
 1225000    1.0668975   -7.3242465    430.93748  0.029315475  0.029495934            2 
 1226000    1.0536515   -7.3407166    429.62168  0.029202126  0.029488885            2 
 1227000     1.061611   -7.3291903    429.15136  0.029146384  0.029481591            2 
 1228000    1.0692361   -7.3512011    430.07605    0.0291854  0.029474236            2 
 1229000    1.0420692   -7.3347785    431.46219  0.029255641  0.029466871            1 
 1230000    1.0654159   -7.3237009     430.8738  0.029191992  0.029459677            2 
 1231000    1.0508834   -7.3609004    430.94642  0.029173194  0.029452339            2 
 1232000    1.0379853   -7.3414909    431.68587  0.029199531  0.029445035            1 
 1233000    1.0333434    -7.341266    431.70813  0.029177354  0.029437777            4 
 1234000    1.0833549   -7.3291659    432.19623  0.029186671  0.029430705            1 
 1235000    1.0759585   -7.3335552    430.64135   0.02905812  0.029423558            2 
 1236000    1.0537298   -7.3569187    432.07292   0.02913113  0.029416301            2 
 1237000     1.042336   -7.3462148    433.16572  0.029181199    0.0294091            1 
 1238000    1.0612689   -7.3548314    433.88196   0.02920584  0.029401777            1 
 1239000    1.0569606   -7.3360074    432.88795  0.029115412  0.029394561            3 
 1240000    1.0462067   -7.3079561     433.2105  0.029113609  0.029387288            2 
 1241000    1.0827793   -7.3126876    433.04033  0.029078722  0.029379973            2 
 1242000    1.0586949   -7.3012692    434.68601  0.029165728  0.029372858            2 
 1243000     1.060448    -7.329603    433.93814  0.029092125  0.029365783            2 
 1244000    1.0448257   -7.2967276    434.59404  0.029112677   0.02935859            3 
 1245000    1.0459437   -7.3396384    435.25634  0.029133624  0.029351308            3 
 1246000    1.0407672   -7.2977018    434.38072   0.02905168  0.029344146            1 
 1247000    1.0415887   -7.2957746    435.26512  0.029087484  0.029336929            1 
 1248000    1.0448615   -7.3251881    436.46233  0.029144119  0.029329616            1 
 1249000    1.0240882   -7.3234693    436.25663  0.029107061  0.029322438            3 
 1250000    1.0472473   -7.3123249    436.68498  0.029112332  0.029315342            1 
 1251000    1.0532826   -7.3457238    436.02022  0.029044779  0.029308008            6 
 1252000     1.060666   -7.3937257    436.99675  0.029086578  0.029300591            1 
 1253000    1.0434869   -7.3626249    435.49658  0.028963592  0.029293087            1 
 1254000    1.0656413   -7.3658138     437.5077  0.029074143  0.029285781            2 
 1255000     1.049942    -7.378154    436.55945  0.028988012  0.029278484            2 
 1256000    1.0370303   -7.3315615    436.52198  0.028962445  0.029270998            3 
 1257000    1.0682153   -7.3059002    437.53419  0.029006509  0.029263499            2 
 1258000    1.0438323   -7.3651827    436.61516  0.028922573  0.029255811            2 
 1259000    1.0611273   -7.3164063    436.38269  0.028884213  0.029248006            4 
 1260000    1.0467134   -7.3401508     437.3136  0.028922857  0.029240285            2 
 1261000    1.0754346   -7.2985816    435.60637  0.028787098  0.029232562            1 
 1262000    1.0463748   -7.3315046    437.80833  0.028909689  0.029224691            2 
 1263000    1.0485323   -7.3207827    437.60471  0.028873364  0.029216948            2 
 1264000      1.06391   -7.3497841    436.85587  0.028801152  0.029209204            1 
 1265000    1.0413939   -7.3414994    437.66006  0.028831361  0.029201332            2 
 1266000    1.0576797   -7.2975718    439.03394  0.028899022  0.029193513            1 
 1267000    1.0668156   -7.3591141    437.10009   0.02874902  0.029185672            2 
 1268000    1.0429443    -7.378353    437.70687  0.028766224   0.02917759            2 
 1269000    1.0392237    -7.352256    438.25842  0.028779776  0.029169677            2 
 1270000    1.0732771   -7.3447977     439.5271  0.028840361  0.029161678            2 
 1271000    1.0583148   -7.3271032    439.47297  0.028814121  0.029153843            2 
 1272000    1.0619348   -7.3213236    440.57282  0.028863523  0.029146023            1 
 1273000    1.0630826   -7.3734788    439.48396   0.02876957  0.029138207            1 
 1274000    1.0348056   -7.3318017    440.09588  0.028787015  0.029130333            3 
 1275000    1.0479538   -7.3197233    440.87238  0.028815188  0.029122588            1 
 1276000    1.0571214   -7.3965765    440.44374  0.028764612  0.029114547            3 
 1277000    1.0523799   -7.3407256    440.71851  0.028760018  0.029106738            4 
 1278000    1.0408496   -7.3571168    440.53113  0.028725296  0.029098924            1 
 1279000    1.0440677   -7.3377058    439.67382  0.028646978  0.029091068            2 
 1280000    1.0186109   -7.3259466    440.30055    0.0286654   0.02908306            3 
 1281000    1.0514135   -7.2921447    440.80881  0.028676087  0.029075072            1 
 1282000    1.0581558   -7.3462897    441.19796  0.028679015  0.029067115            2 
 1283000    1.0317765   -7.3367458    440.96438   0.02864149  0.029059107            2 
 1284000    1.0633726   -7.3603149     441.5595  0.028657807  0.029050962            1 
 1285000    1.0600625   -7.3369455    442.94969  0.028725661  0.029042778            1 
 1286000    1.0471328   -7.3578123    441.48758  0.028608578  0.029034636            3 
 1287000    1.0500748   -7.3242186    441.39074  0.028580079  0.029026508            2 
 1288000    1.0351757   -7.3576152    441.69926  0.028577851  0.029018096            2 
 1289000    1.0411129   -7.3145502      442.682  0.028619214  0.029009968            2 
 1290000    1.0569386   -7.3399343    442.24731  0.028568948   0.02900186            2 
 1291000    1.0510472   -7.3339493    443.70038  0.028640613  0.028993858            3 
 1292000    1.0428913   -7.3459452    443.11686  0.028580809  0.028985913            1 
 1293000    1.0286546    -7.347369    443.72884  0.028598146  0.028977867            2 
 1294000     1.064933   -7.3674374    442.92311  0.028524157  0.028969867            2 
 1295000    1.0654931   -7.3721768    443.94178  0.028567682  0.028961789            1 
 1296000    1.0594891   -7.3734621    443.04167  0.028487761  0.028953754            2 
 1297000    1.0367342   -7.3476975    444.42577  0.028554727  0.028945819            2 
 1298000    1.0504132   -7.3782724    444.24076   0.02852085  0.028937877            2 
 1299000    1.0475864   -7.3652611    444.89469  0.028540845  0.028929984            2 
 1300000    1.0464024   -7.3538837    444.56675  0.028497869  0.028922121            1 
 1301000    1.0641245   -7.3807315    445.24209  0.028519222  0.028914114            3 
 1302000    1.0273824   -7.3751704    446.31518     0.028566  0.028906305            3 
 1303000    1.0492798   -7.3510607    445.08705  0.028465531  0.028898319            1 
 1304000    1.0479747   -7.3387215    447.09142  0.028571793  0.028890241            1 
 1305000    1.0434691   -7.3601139    446.65412  0.028521974  0.028882439            1 
 1306000    1.0659639   -7.3313616    447.94502  0.028582505  0.028874511            3 
 1307000     1.029241   -7.3552418    447.07623  0.028505243   0.02886665            2 
 1308000     1.040883   -7.3923164    446.02763  0.028416643  0.028858707            2 
 1309000    1.0341263   -7.3795996    447.47991  0.028487389  0.028850664            1 
 1310000    1.0341388   -7.3583238    447.36212   0.02845815  0.028842853            2 
 1311000    1.0410937   -7.3353601    447.44221  0.028441534  0.028834884            1 
 1312000    1.0686281   -7.3271412    449.58037  0.028555664  0.028827124            2 
 1313000    1.0345559   -7.3761608    448.04817   0.02843667  0.028819194            1 
 1314000    1.0536695   -7.3457032    449.14897  0.028484841   0.02881131            1 
 1315000    1.0421909    -7.383589    448.08194   0.02839556  0.028803355            1 
 1316000     1.057126   -7.3558213    449.36882  0.028455472  0.028795416            1 
 1317000    1.0436673   -7.3665856    448.46435  0.028376636  0.028787501            2 
 1318000    1.0348721   -7.3372153    450.31708  0.028472248  0.028779637            1 
 1319000    1.0211455   -7.3380106     450.3539  0.028452988  0.028771654            2 
 1320000    1.0439756   -7.3222678    450.13332  0.028417507  0.028763614            1 
 1321000    1.0381121   -7.3555533    451.51031  0.028482861  0.028755627            2 
 1322000    1.0469993    -7.321406    451.63813  0.028469373  0.028747717            1 
 1323000    1.0359254   -7.3388777    450.13672  0.028353283  0.028739876            3 
 1324000    1.0894897   -7.3769428    450.21485  0.028336786   0.02873184            1 
 1325000    1.0345071   -7.3466776    450.92507  0.028360067  0.028723766            2 
 1326000    1.0511265   -7.3372404     450.8351  0.028333025   0.02871572            1 
 1327000    1.0334765   -7.3738217    451.06691  0.028326232  0.028707683            2 
 1328000    1.0490512   -7.3529391     451.7681  0.028348902  0.028699692            3 
 1329000    1.0458392   -7.3853466    451.39799  0.028304363  0.028691681            2 
 1330000    1.0285043   -7.3817908    451.10266  0.028264578  0.028683711            1 
 1331000    1.0541829   -7.4083511     451.7856    0.0282861  0.028675615            2 
 1332000    1.0255833   -7.3893361     452.0712  0.028282733  0.028667576            1 
 1333000    1.0387108   -7.3617961    451.83221  0.028246575  0.028659525            1 
 1334000    1.0420881   -7.3663233    453.81558  0.028349299  0.028651748            1 
 1335000     1.047669   -7.3739482    452.51557  0.028246915  0.028643935            2 
 1336000    1.0437366   -7.3379745    453.33001  0.028276573  0.028636092            3 
 1337000    1.0548616   -7.3370423    454.06802  0.028301422   0.02862829            1 
 1338000     1.046881   -7.3679154    454.13398  0.028284378  0.028620534            1 
 1339000    1.0462402   -7.3274213    456.46914  0.028408585  0.028612939            1 
 1340000    1.0456296    -7.378664    453.88353  0.028226588  0.028605286            3 
 1341000    1.0334263   -7.3886998    454.85906  0.028266161  0.028597416            3 
 1342000    1.0376522   -7.3742042    454.77361  0.028239792  0.028589425            4 
 1343000    1.0510154   -7.3526474    456.01693  0.028295913   0.02858158            2 
 1344000    1.0503089   -7.3324784    456.13997  0.028282488  0.028573786            2 
 1345000    1.0413982   -7.3822005    454.74562   0.02817507  0.028565939            2 
 1346000     1.060271   -7.3767299    456.58524  0.028268031  0.028558081            2 
 1347000    1.0521909   -7.3572179     457.3441  0.028293993  0.028550137            1 
 1348000    1.0281219   -7.3503808    455.56221  0.028162847  0.028542159            3 
 1349000    1.0227377   -7.3587223     456.2428  0.028184013  0.028534205            2 
 1350000    1.0273754   -7.3756158    455.38945   0.02811046  0.028526153            2 
 1351000     1.027835   -7.3703538    456.26811  0.028143851  0.028518305            2 
 1352000    1.0486169   -7.4142853    457.05259  0.028171387   0.02851049            2 
 1353000    1.0361458   -7.3888172    457.07365  0.028151863  0.028502695            1 
 1354000     1.043005   -7.3999186     457.0809  0.028131518  0.028494988            6 
 1355000    1.0216885   -7.3538992    458.57778  0.028202816  0.028487455            2 
 1356000    1.0562506   -7.3720752     459.0495  0.028211006  0.028479965            2 
 1357000    1.0316585   -7.3656503    460.09071  0.028254158  0.028472428            1 
 1358000    1.0365826   -7.3786834    458.91512  0.028161212  0.028464801            1 
 1359000     1.011439   -7.4006958    459.40914  0.028170784  0.028457273            1 
 1360000    1.0266929   -7.3460258    461.42645   0.02827368  0.028449908            2 
 1361000     1.029085   -7.3788983    461.42438  0.028252779  0.028442577            3 
 1362000    1.0396444   -7.3837724    460.30774  0.028163714  0.028435167            1 
 1363000    1.0473176   -7.3752311    461.24782  0.028200527  0.028427731            2 
 1364000    1.0623514   -7.3888052    460.37157  0.028126318  0.028420227            1 
 1365000    1.0340941   -7.3528512    462.38848  0.028228845  0.028412908            2 
 1366000    1.0433788   -7.3831258    462.16008  0.028194246  0.028405454            2 
 1367000    1.0406789   -7.3593192    462.77544  0.028211134  0.028398028            3 
 1368000    1.0220256   -7.3636367    463.08183  0.028209176  0.028390721            3 
 1369000    1.0348587   -7.3682713    462.99239  0.028183126  0.028383392            1 
 1370000    1.0378471   -7.3707912    462.13686  0.028110514   0.02837593            3 
 1371000    1.0433785   -7.3745757    463.71938  0.028186201  0.028368422            2 
 1372000    1.0286763    -7.364167    461.56192  0.028034616  0.028360989            1 
 1373000    1.0503865   -7.3617655    462.50786  0.028071611  0.028353468            6 
 1374000    1.0217438   -7.3950556    463.64251  0.028119997  0.028345984            2 
 1375000    1.0396342   -7.3956815    462.45863  0.028027796  0.028338421            2 
 1376000    1.0272159   -7.4016688    463.26003  0.028055961  0.028330918            2 
 1377000    1.0279901   -7.3861405    464.96723  0.028138903  0.028323555            2 
 1378000    1.0322641   -7.3584947    465.15246  0.028129684  0.028316294            2 
 1379000      1.02128   -7.3889524    463.59671  0.028015271  0.028309092            2 
 1380000    1.0188859   -7.3690932    465.68415  0.028121024  0.028301759            1 
 1381000    1.0417308    -7.403985    465.01071  0.028060023   0.02829442            2 
 1382000    1.0482781   -7.3714909     465.1841  0.028050175  0.028287147            6 
 1383000    1.0449188   -7.3807201     465.0589  0.028022348  0.028279823            1 
 1384000      1.04198   -7.3908885    465.41079  0.028023289  0.028272419            3 
 1385000     1.005309   -7.3565586    465.96286  0.028036273  0.028264851            1 
 1386000    1.0170863   -7.3600981    466.33578  0.028038467  0.028257369            3 
 1387000    1.0133259   -7.4091704     464.8626  0.027929741  0.028249843            2 
 1388000    1.0170867   -7.3823463    466.66609  0.028017897  0.028242268            1 
 1389000    1.0393348   -7.4053089     465.1126  0.027904524  0.028234807            1 
 1390000    1.0152344   -7.4081352    465.97119  0.027935922  0.028227281            1 
 1391000    1.0290999   -7.3782165    467.51996  0.028008624   0.02821983            3 
 1392000    1.0180276   -7.3835755    467.49163  0.027986807  0.028212463            2 
 1393000    1.0186475   -7.3387042    467.76186  0.027982882  0.028205035            4 
 1394000    1.0368757   -7.4146169    468.23509  0.027991098   0.02819779            3 
 1395000     1.029071   -7.3470242    469.85669  0.028067903    0.0281905            1 
 1396000    1.0351586   -7.4071592    468.74086  0.027981188  0.028183319            1 
 1397000     1.035472   -7.4094575    469.75493  0.028021649  0.028176042            2 
 1398000    1.0186133   -7.4169022    468.79325   0.02794428  0.028168904            3 
 1399000    1.0270578   -7.3752192    469.90147  0.027990319  0.028161729            1 
 1400000    1.0364922   -7.4179817    468.39913  0.027880901  0.028154408            3 
 1401000    1.0063148   -7.3796423    471.38515  0.028038612  0.028147175            2 
 1402000    1.0449751    -7.347743     471.0475  0.027998544  0.028139966            3 
 1403000    1.0316929   -7.4329626     469.4209  0.027881973   0.02813278            2 
 1404000    1.0205005   -7.3854377     471.2716  0.027971961  0.028125412            2 
 1405000    1.0344878   -7.3981765    471.06877  0.027940022  0.028118306            1 
 1406000    1.0398735   -7.3903229    471.19922  0.027927882  0.028111087            1 
 1407000    1.0155373   -7.4547839    471.52494  0.027927324  0.028103875            2 
 1408000    1.0090228   -7.4372243    470.53971  0.027849178  0.028096551            2 
 1409000    1.0254578   -7.3889386    472.31791  0.027934582  0.028089268            1 
 1410000    1.0137715   -7.4114852    471.31008  0.027855205   0.02808197            4 
 1411000    1.0153113   -7.4212341    471.23455  0.027831003  0.028074468            1 
 1412000    1.0301518   -7.3819819    470.72634    0.0277813  0.028066983            2 
 1413000     1.028657   -7.4413698    470.14334  0.027727255  0.028059459            1 
 1414000    1.0354137   -7.4039032     473.4199  0.027900749  0.028051915            2 
 1415000    1.0453592   -7.3999954    472.87934  0.027849196   0.02804453            1 
 1416000    1.0441976   -7.3904676    471.10821  0.027725295   0.02803707            2 
 1417000     1.028842   -7.4054895    471.67206  0.027738889  0.028029672            3 
 1418000    1.0308124   -7.4141915    471.83084  0.027728657  0.028022111            1 
 1419000    1.0365388   -7.3908882    472.56251  0.027752085  0.028014551            3 
 1420000    1.0279128   -7.4075444    473.16365   0.02776782  0.028007053            2 
 1421000    1.0341736   -7.3408502    475.23011  0.027869465  0.027999661            2 
 1422000    1.0124152   -7.3834018    475.26799  0.027852086  0.027992279            1 
 1423000   0.99519921   -7.4216462    472.73561  0.027684213  0.027984865            3 
 1424000    1.0204783   -7.4169541    472.91835  0.027675465  0.027977358            2 
 1425000    1.0379494   -7.3839522    474.24958  0.027733894  0.027969949            2 
 1426000    1.0023642   -7.4018147    473.28255  0.027657933  0.027962455            1 
 1427000    1.0440943   -7.4085032    474.61908  0.027716601  0.027954991            2 
 1428000    1.0185076   -7.3830065    475.83354  0.027768064  0.027947415            2 
 1429000     1.035885   -7.4042965    475.42175  0.027724618  0.027940108            3 
 1430000    1.0384602   -7.4284688    475.29744  0.027697986  0.027932548            2 
 1431000    1.0281701   -7.4177788    474.52462  0.027633626  0.027924915            3 
 1432000    1.0228583   -7.3796324    474.80263  0.027630507   0.02791736            1 
 1433000    1.0233653   -7.4404049    475.10994  0.027629096  0.027909759            1 
 1434000    1.0267095   -7.4169718    475.33999  0.027623198  0.027902022            1 
 1435000    1.0265861   -7.4201396    475.19013  0.027595246  0.027894364            3 
 1436000    1.0412399   -7.4010289    474.42767  0.027531782  0.027886644            4 
 1437000    1.0273756   -7.3967852    475.59612  0.027580383  0.027878889            2 
 1438000    1.0267274   -7.4229381    475.79944  0.027572986   0.02787122            2 
 1439000    1.0279847   -7.4242227     475.6114  0.027542935  0.027863386            1 
 1440000     1.018648   -7.3755515    476.60816  0.027581491  0.027855414            2 
 1441000    1.0293707    -7.410012    475.99107  0.027526664  0.027847655            2 
 1442000    1.0233057   -7.4068406    476.55868  0.027540377  0.027839816            2 
 1443000     1.016643   -7.4308715    475.32939    0.0274503  0.027831894            3 
 1444000    1.0305847   -7.4070498    474.75176  0.027397955   0.02782383            2 
 1445000    1.0371678   -7.4345103    475.92814  0.027446836  0.027815813            2 
 1446000    1.0294738   -7.3874277    476.15821  0.027441114   0.02780791            1 
 1447000    1.0391048   -7.4391077    476.84204  0.027461532  0.027800003            4 
 1448000    1.0346081   -7.4150469    477.35755  0.027472234  0.027792169            2 
 1449000    1.0227204   -7.3918448    477.44948  0.027458562  0.027784458            1 
 1450000    1.0183605   -7.3888108    478.13464  0.027479002  0.027776501            2 
 1451000    0.9871959   -7.4215952    477.85357  0.027443922  0.027768547            3 
 1452000    1.0278907   -7.4293128    476.25694  0.027333387  0.027760533            4 
 1453000    1.0316163   -7.3969894    478.68044   0.02745357   0.02775251            3 
 1454000    1.0266297   -7.3842612     479.0278  0.027454596  0.027744549            1 
 1455000    1.0145991   -7.3922438    480.02833  0.027493032  0.027736606            2 
 1456000    1.0214075   -7.3737201    478.46932   0.02738492   0.02772868            2 
 1457000    1.0150371   -7.4111063    477.27424  0.027297772  0.027720601            2 
 1458000    1.0040666   -7.4402918    478.37069  0.027341718  0.027712591            2 
 1459000    1.0229359   -7.4251525    478.12312  0.027308837  0.027704559            1 
 1460000    1.0117577   -7.4422037    478.67656  0.027321721  0.027696627            3 
 1461000     1.025905   -7.4560159    478.95877  0.027319118  0.027688668            3 
 1462000    1.0178881   -7.4111586    479.20871  0.027314678  0.027680812            2 
 1463000   0.99786655   -7.4226051    478.59015  0.027260774  0.027672899            2 
 1464000    1.0161875    -7.445082    478.92982  0.027261488  0.027664881            2 
 1465000    1.0128471   -7.4140703    479.20644  0.027258614  0.027656785            1 
 1466000    1.0243234   -7.4209361    481.16326  0.027351254  0.027648755            1 
 1467000    1.0208774   -7.4252624    479.74492   0.02725204  0.027640713            2 
 1468000    1.0104251   -7.4146763    480.10986  0.027254193   0.02763274            3 
 1469000    1.0177767   -7.4356067    480.25827  0.027244059  0.027624676            2 
 1470000    1.0165352   -7.4278407    481.22355  0.027280247  0.027616713            3 
 1471000    1.0064096    -7.421828    480.66732   0.02723019   0.02760854            2 
 1472000    1.0293549   -7.4258879    481.58353   0.02726356   0.02760044            1 
 1473000   0.99298515    -7.394905     481.1149  0.027218539  0.027592282            3 
 1474000     1.001008   -7.3936589    482.45611  0.027275899  0.027584297            1 
 1475000      1.01781   -7.4119685    482.09035  0.027236743  0.027576317            1 
 1476000    1.0264632   -7.4534943    480.40948   0.02712339  0.027568173            5 
 1477000    1.0075484   -7.4208206    482.01047  0.027195355  0.027559961            3 
 1478000    1.0107294   -7.4479059    481.88859  0.027170083  0.027551914            1 
 1479000    1.0286009   -7.4428532    482.24568  0.027171832  0.027543731            2 
 1480000    1.0111475   -7.4630898    483.92226  0.027247875  0.027535801            1 
 1481000    1.0055857   -7.4268267    482.98064  0.027176493  0.027527804            1 
 1482000    1.0111014   -7.3951104     483.8777  0.027208597  0.027519833            1 
 1483000   0.99519967   -7.3915574    484.37952  0.027218449  0.027511902            1 
 1484000      1.02128   -7.4514604    483.30781  0.027139926  0.027503981            2 
 1485000      1.01906    -7.396609    484.45729  0.027186155  0.027495997            1 
 1486000    1.0059281   -7.4308101    483.34573  0.027105525  0.027488085            3 
 1487000    1.0178236   -7.3811498    485.95722  0.027233648  0.027480217            1 
 1488000    1.0166519    -7.426999    483.64441   0.02708582  0.027472351            2 
 1489000    1.0165091   -7.4389439    483.81705  0.027077292  0.027464402            2 
 1490000     1.014379   -7.4306847    484.08965  0.027074365  0.027456404            1 
 1491000   0.98700614   -7.3980072    484.97176  0.027105509  0.027448506            2 
 1492000    1.0019413   -7.4335912    483.53502  0.027007095  0.027440486            2 
 1493000    1.0493759   -7.4054283    485.76752  0.027113615  0.027432435            1 
 1494000    1.0178335   -7.4063675    486.29757  0.027125032  0.027424566            2 
 1495000    1.0078926   -7.4045297    485.92314  0.027086017  0.027416628            2 
 1496000   0.99966294   -7.3979968    485.89128  0.027066137  0.027408452            2 
 1497000    1.0020475   -7.4354488    484.66195  0.026979623  0.027400382            3 
 1498000    1.0176767   -7.4168471    484.62444  0.026959526  0.027392321            2 
 1499000    1.0176914   -7.4154727    486.56372   0.02704935  0.027384334            1 
 1500000   0.98859182   -7.4382241    486.40539  0.027022522   0.02737635            3 
 1501000    1.0357747   -7.4241747    486.19016   0.02699257  0.027368455            3 
 1502000    1.0119188    -7.487071      486.024   0.02696538  0.027360427            1 
 1503000    1.0033875   -7.4281254    486.65299  0.026982312  0.027352477            2 
 1504000    1.0046537   -7.4254229    488.56588  0.027070361  0.027344586            2 
 1505000      1.03299   -7.4158761    488.08388  0.027025686  0.027336668            2 
 1506000    1.0123266    -7.445533    487.61529  0.026981811  0.027328682            2 
 1507000    1.0251858   -7.4526578    487.86567  0.026977752   0.02732074            3 
 1508000    1.0136926   -7.4047015      490.636  0.027112953  0.027312843            1 
 1509000    1.0222082   -7.4058249    487.47105  0.026920204  0.027304981            1 
 1510000    1.0099514   -7.4745716    487.00169  0.026876473  0.027297002            2 
 1511000    1.0083686   -7.4305172    488.18295  0.026923833  0.027289085            2 
 1512000    1.0068579   -7.4468253     488.7421  0.026936844  0.027281142            2 
 1513000    1.0177992   -7.4565113    487.92676  0.026874133  0.027273083            2 
 1514000    1.0162936   -7.4668593    489.51248  0.026943663  0.027265083            2 
 1515000    1.0230709   -7.4585349    489.21016   0.02690925   0.02725714            3 
 1516000    1.0227644   -7.4062466    491.45315  0.027014795  0.027249318            2 
 1517000    1.0173791   -7.4099586    490.83321  0.026962932  0.027241488            2 
 1518000   0.99632428   -7.4372204    490.34553  0.026918398  0.027233563            1 
 1519000   0.99699664   -7.4176644    490.10033  0.026887224  0.027225772            2 
 1520000   0.99278746   -7.4608504    489.18858  0.026819549  0.027217895            2 
 1521000    1.0278846   -7.4325667    492.30918  0.026972889  0.027209982            2 
 1522000    1.0109127   -7.4283565    491.41306  0.026906103  0.027202094            3 
 1523000    1.0154186   -7.4452447    492.14884  0.026928696  0.027194301            2 
 1524000   0.98783308   -7.3965124    492.45406  0.026927715  0.027186441            1 
 1525000    1.0109602   -7.4647315    492.29056  0.026901124  0.027178633            2 
 1526000    1.0100653   -7.4684876    491.67093  0.026849658  0.027170782            2 
 1527000    1.0032125   -7.4411929    491.56294  0.026826181  0.027162914            2 
 1528000    1.0057691   -7.3764029    493.07357  0.026891011  0.027155061            2 
 1529000    1.0055891   -7.4400817    492.24444  0.026828234  0.027147361            1 
 1530000    1.0054867   -7.4128522    492.07093  0.026801249  0.027139589            3 
 1531000    1.0102365   -7.4420765    492.21818  0.026791758  0.027131828            4 
 1532000    1.0094151   -7.4537023    492.51116  0.026790207  0.027123945            1 
 1533000   0.97622516   -7.4413222    492.37865  0.026765528  0.027116139            3 
 1534000    1.0070635   -7.4367802     493.7394  0.026822002  0.027108365            2 
 1535000     1.005458   -7.4271818    494.65722  0.026854355  0.027100573            2 
 1536000    1.0203935   -7.4253142    495.18401  0.026865452  0.027092865            2 
 1537000    1.0064263   -7.4999742    493.36875  0.026749553  0.027085118            1 
 1538000    1.0079848   -7.4319683    494.19141  0.026776734  0.027077211            4 
 1539000    1.0378896   -7.4282829    494.02192  0.026750158  0.027069464            1 
 1540000    1.0093618   -7.4855012    495.33605  0.026803899  0.027061729            2 
 1541000   0.98406352   -7.4435706    493.99923  0.026714213  0.027053892            1 
 1542000   0.99776969   -7.4768251    493.93005   0.02669315  0.027046084            2 
 1543000   0.99900023   -7.4438565    494.64881  0.026714669  0.027038217            1 
 1544000    1.0128021   -7.4355152    496.90504  0.026819141  0.027030341            2 
 1545000    1.0074263   -7.4626982    495.63275  0.026733158  0.027022496            1 
 1546000    1.0149997    -7.422399    497.43403   0.02681296  0.027014726            1 
 1547000    1.0324212   -7.4421007    495.81401  0.026708361  0.027006899            1 
 1548000   0.99134531   -7.4259819    496.80133  0.026744258  0.026999052            2 
 1549000   0.99459664   -7.4168976    497.42032  0.026760293  0.026991155            2 
 1550000    1.0125452   -7.4452829    494.56042   0.02658927  0.026983181            2 
 1551000     0.983493   -7.4455041    495.05377  0.026598634  0.026975184            2 
 1552000    1.0024204   -7.4399342    496.61947  0.026665564  0.026967151            2 
 1553000    1.0003998   -7.4210401    496.68248  0.026651775  0.026959116            2 
 1554000   0.98288593   -7.4450484    496.69532  0.026635313   0.02695122            1 
 1555000   0.99188342    -7.471946    497.81716  0.026678305  0.026943249            1 
 1556000   0.99166713   -7.4536582    496.46892  0.026588952  0.026935196            2 
 1557000   0.99832631   -7.4737711    496.94052  0.026597116  0.026927214            3 
 1558000    1.0068497    -7.453421    497.02603  0.026584618  0.026919244            2 
 1559000    1.0019734   -7.4646708    498.91474  0.026668523  0.026911345            3 
 1560000    1.0110304   -7.4182565    499.41366   0.02667808  0.026903525            2 
 1561000    1.0200551    -7.436452    497.88639  0.026579457  0.026895635            2 
 1562000   0.99800353   -7.4328655    499.45781  0.026646277  0.026887788            2 
 1563000    1.0067787   -7.4400209    499.53951  0.026633584  0.026880063            4 
 1564000   0.98319234   -7.4142754    500.43467  0.026664252  0.026872297            1 
 1565000    1.0173799   -7.4365454    499.95486  0.026621664  0.026864549            2 
 1566000   0.98477182   -7.4679842    497.81244  0.026490658  0.026856759            4 
 1567000   0.99419101   -7.4737019     498.2615  0.026497634  0.026848909            1 
 1568000    1.0014282   -7.4837248    500.06798  0.026576742  0.026841097            3 
 1569000   0.99734028   -7.4603339    500.08842  0.026560889  0.026833306            2 
 1570000    1.0345651   -7.4368197    500.52091  0.026566927  0.026825629            2 
 1571000    1.0018245   -7.4149661    501.25977  0.026589209  0.026818036            3 
 1572000    1.0184178   -7.4265147    502.38923  0.026632169  0.026810505            2 
 1573000    1.0022904   -7.4448081    502.44782  0.026618342  0.026803157            2 
 1574000   0.98099665   -7.5032405    501.74635  0.026564292  0.026795629            1 
 1575000   0.99669676   -7.4261767    503.32176  0.026630781  0.026788115            2 
 1576000   0.98470327   -7.4826693    501.40633  0.026512602   0.02678052            1 
 1577000    1.0084302   -7.4585497    502.76107  0.026567379  0.026772938            2 
 1578000   0.99380531   -7.4557507    501.99686  0.026510185  0.026765351            3 
 1579000   0.97586748   -7.4666797    504.43752  0.026622204  0.026757821            1 
 1580000    1.0002308   -7.5029304    501.37048  0.026443591  0.026750282            2 
 1581000     1.000568   -7.4312166    504.64433  0.026599427  0.026742793            2 
 1582000   0.97182411   -7.4458473    503.67176  0.026531382  0.026735309            1 
 1583000    1.0224175    -7.446024    504.30075  0.026547734  0.026727753            1 
 1584000    1.0013926   -7.4597654    502.62132   0.02644262  0.026720227            2 
 1585000     1.009175   -7.5161956     503.7065  0.026482992  0.026712724            1 
 1586000    0.9744313   -7.4771762    503.13842  0.026436445  0.026705271            1 
 1587000    1.0173521   -7.4705134    504.42165  0.026487169   0.02669776            1 
 1588000   0.98940766   -7.4848809    502.63659  0.026376815  0.026690048            2 
 1589000    1.0020386   -7.4538844    504.42082  0.026453787    0.0266824            1 
 1590000   0.99780994   -7.4896972    504.59671  0.026446368  0.026674841            1 
 1591000   0.98421944   -7.4627783    504.35949  0.026417321  0.026667266            2 
 1592000     1.004684   -7.5058516    504.72933  0.026420086  0.026659716            1 
 1593000    1.0030209   -7.5077848    504.68931  0.026401408  0.026652177            1 
 1594000   0.99877104   -7.4759947    505.64547  0.026434832  0.026644578            3 
 1595000   0.97715213    -7.451669    506.33256  0.026454157  0.026636973            2 
 1596000    1.0158746   -7.5045417    505.94265  0.026417223  0.026629357            2 
 1597000    1.0081034   -7.4438876     506.7508  0.026442851  0.026621864            3 
 1598000     1.004582   -7.4623581    506.40947  0.026408504  0.026614237            2 
 1599000   0.98631219   -7.4596911    506.94674  0.026419988  0.026606669            1 
 1600000   0.98711436   -7.4515275    505.20751  0.026312891  0.026598946            2 
 1601000     1.008632   -7.4655473    506.37383  0.026357164  0.026591293            1 
 1602000    0.9980671    -7.452975    505.95984  0.026319176  0.026583644            3 
 1603000    1.0092369    -7.452214    508.29364  0.026424082  0.026575998            2 
 1604000   0.99034037   -7.4591862    506.02888  0.026289946  0.026568334            4 
 1605000   0.99790333   -7.4748431    508.54432   0.02640417  0.026560686            3 
 1606000    0.9995623   -7.4417249    507.01389  0.026308317  0.026553111            2 
 1607000   0.99284309   -7.4532964    507.68626  0.026326813  0.026545492            3 
 1608000   0.98552632   -7.5103993    506.91669  0.026270558  0.026537853            1 
 1609000    1.0051597   -7.4734259     508.2974  0.026325741  0.026530243            1 
 1610000    1.0064268   -7.4576866    507.71599  0.026279296  0.026522552            2 
 1611000   0.98457772   -7.4904976    506.70675  0.026210778  0.026514889            5 
 1612000   0.99120148   -7.4805921    507.40291  0.026230506  0.026507171            1 
 1613000    1.0006568   -7.4696669    508.98862  0.026296168  0.026499432            2 
 1614000   0.97296357   -7.5097252    507.83241  0.026220178  0.026491686            1 
 1615000   0.99263412   -7.4789633    507.60458  0.026192187  0.026483841            4 
 1616000    1.0210848   -7.4551318    507.77494  0.026184764  0.026476119            1 
 1617000   0.99312625   -7.4629921    507.35451  0.026146903  0.026468323            2 
 1618000   0.98497468   -7.4661339     509.1271  0.026222038  0.026460497            2 
 1619000   0.99303323    -7.493568    506.44285  0.026067678  0.026452727            2 
 1620000     1.012666   -7.4326077    508.96375  0.026181263  0.026444952            3 
 1621000   0.99727451   -7.4701337    508.69305  0.026151195  0.026437225            2 
 1622000   0.99607126   -7.4601374    510.26313  0.026215738  0.026429462            1 
 1623000    0.9960893    -7.470223    509.36945  0.026153699  0.026421833            2 
 1624000   0.98234848   -7.4839374    509.28095  0.026133054  0.026414042            3 
 1625000   0.98684911   -7.4668135     510.4528  0.026177067  0.026406247            1 
 1626000   0.98971051   -7.5323849    509.70309  0.026122544  0.026398589            3 
 1627000    1.0027743   -7.5036022    509.42158   0.02609207  0.026390843            2 
 1628000   0.98305346   -7.4476142    510.19134  0.026115445  0.026383126            2 
 1629000   0.98208318   -7.4913439    509.99129   0.02608918  0.026375377            3 
 1630000    1.0008249   -7.4701161    512.11156  0.026181573  0.026367675            2 
 1631000    1.0146365   -7.4672698    511.78484  0.026148827  0.026360062            1 
 1632000    0.9796963   -7.4655341    511.78078  0.026132597  0.026352353            1 
 1633000    1.0112133   -7.4933535    512.68799   0.02616289  0.026344759            2 
 1634000   0.97927015   -7.5047855    511.12714  0.026067276  0.026337153            3 
 1635000   0.98807806   -7.5073562    511.65073  0.026078019  0.026329581            2 
 1636000   0.97377404   -7.4613063    512.44494  0.026102534  0.026322035            2 
 1637000    0.9852691   -7.4756311     513.3598   0.02613316  0.026314604            1 
 1638000   0.97174163   -7.4343293    513.35798  0.026117113  0.026306992            3 
 1639000   0.98721393   -7.4650936    514.05943  0.026136843  0.026299413            3 
 1640000    0.9972115   -7.4844774    511.80492  0.026006347  0.026291756            2 
 1641000   0.99894834   -7.5013931    512.59156  0.026030447  0.026284053            1 
 1642000   0.98294468   -7.4937288    511.65476   0.02596705  0.026276309            1 
 1643000   0.99380983   -7.4655967    513.62193  0.026051021   0.02626854            1 
 1644000   0.99757099   -7.4815821    511.82124  0.025943899  0.026260881            1 
 1645000    1.0037449   -7.4691879    513.13391  0.025994626  0.026253132            3 
 1646000   0.99808132   -7.4733093    513.77536  0.026011308  0.026245409            2 
 1647000   0.99226195   -7.4878664    513.29839  0.025971382  0.026237811            2 
 1648000   0.97437031   -7.4778054    513.97107  0.025989638  0.026230088            2 
 1649000   0.99940791    -7.478173    514.11672  0.025981237  0.026222391            1 
 1650000    1.0008727   -7.4401001    513.86814  0.025952936  0.026214742            5 
 1651000   0.98209334   -7.4996052    514.16406  0.025952153  0.026207069            2 
 1652000   0.97758698   -7.5300908     512.7354  0.025864376  0.026199222            1 
 1653000   0.97872964   -7.4498293     515.6637  0.025996355  0.026191521            2 
 1654000   0.97873921   -7.4956499    514.84688  0.025939484  0.026183909            3 
 1655000   0.98282051   -7.4562379    516.15142  0.025989497  0.026176284            2 
 1656000   0.97228591   -7.5329575    514.54554  0.025892992  0.026168638            2 
 1657000    1.0107986   -7.5212813    516.64301  0.025982851  0.026161081            4 
 1658000   0.99407037   -7.4604472    515.97679  0.025933695  0.026153582            2 
 1659000   0.99691031   -7.4995859    516.39037  0.025938837  0.026145871            1 
 1660000    1.0141309   -7.5049479     515.4317  0.025875086  0.026138307            2 
 1661000   0.98327298   -7.4915973     517.1964  0.025948043  0.026130707            1 
 1662000     0.988986   -7.4786131    517.98123  0.025971783  0.026123149            4 
 1663000   0.97895246   -7.4802063    517.15204  0.025914614  0.026115609            3 
 1664000   0.97912442   -7.5274313    515.91881   0.02583728  0.026107991            4 
 1665000    0.9608505   -7.4918792    517.88457  0.025920149  0.026100412            1 
 1666000   0.97851165   -7.5016454    517.70657  0.025895687  0.026092764            2 
 1667000   0.97985869   -7.4561614    518.96177    0.0259429  0.026085206            1 
 1668000   0.98026914   -7.4991569    518.23912  0.025891243  0.026077757            1 
 1669000    0.9786348   -7.4883723    520.39072   0.02598316  0.026070276            2 
 1670000    1.0014406   -7.4832186    518.27522  0.025862037    0.0260628            2 
 1671000    1.0015241    -7.487925    518.40445  0.025853005  0.026055204            2 
 1672000    0.9688453   -7.4665627    518.57138  0.025845862  0.026047659            2 
 1673000   0.97829776   -7.5012512    519.19485  0.025861469  0.026040107            2 
 1674000    0.9907833   -7.4784839    519.73704  0.025873011  0.026032609            1 
 1675000   0.97108143    -7.464752    519.31423  0.025836529  0.026025183            4 
 1676000   0.99935203   -7.4824667    520.57866  0.025883983  0.026017779            2 
 1677000    0.9712613   -7.4942141    519.45508  0.025812715  0.026010287            3 
 1678000   0.96850669   -7.4974308    518.95378  0.025772436  0.026002662            1 
 1679000   0.97901239   -7.4854021    520.42463  0.025830089  0.025995071            2 
 1680000   0.97040878    -7.500073    518.33889  0.025711254  0.025987402            1 
 1681000   0.97416724   -7.5125894    519.13582  0.025735466  0.025979757            2 
 1682000   0.99064575   -7.5257289    518.68662   0.02569791  0.025972066            5 
 1683000   0.97380804   -7.5084082    519.67665  0.025731662  0.025964393            1 
 1684000   0.98932036   -7.4961223    520.57422  0.025760798  0.025956755            1 
 1685000   0.99533266   -7.5076844    520.67771  0.025750628  0.025949095            2 
 1686000   0.97436902   -7.4751756    521.35825  0.025768992  0.025941548            1 
 1687000   0.98071642   -7.4640691    521.24274  0.025748011  0.025934029            1 
 1688000   0.98766579   -7.4970263    521.61924  0.025751345  0.025926458            3 
 1689000   0.96310433   -7.4687407    523.64483  0.025836039  0.025918976            1 
 1690000   0.97325057   -7.4711578    521.73823  0.025726737  0.025911507            2 
 1691000   0.97411863   -7.4873983    522.21429  0.025734984  0.025904113            1 
 1692000   0.99126658   -7.5121704    522.58458  0.025738011  0.025896747            1 
 1693000    1.0025437   -7.4723273    523.46624  0.025766206  0.025889321            1 
 1694000   0.98737466   -7.5295223    521.53212   0.02565585  0.025881964            2 
 1695000     1.005908   -7.4848658    523.73054  0.025748798  0.025874614            2 
 1696000   0.96799224   -7.4875461    524.23504  0.025758404  0.025867294            1 
 1697000   0.98390609   -7.4987625    524.64563  0.025763388  0.025859946            3 
 1698000   0.97477488   -7.5523355    524.07152  0.025720039  0.025852664            1 
 1699000    0.9692753   -7.5156399    524.53579  0.025727673  0.025845177            2 
 1700000   0.96466715   -7.5270997    522.15106   0.02559564  0.025837672            2 
 1701000   0.98168198   -7.5216271    523.63252  0.025653171  0.025830191            1 
 1702000   0.96920815   -7.5290507    523.88941  0.025650676  0.025822757            3 
 1703000   0.98269471   -7.5262392    523.98799  0.025640438  0.025815408            3 
 1704000   0.99174386   -7.4756591    526.88757  0.025767193  0.025808078            3 
 1705000    1.0057933   -7.4937075    526.53694  0.025734943   0.02580081            2 
 1706000   0.96979778   -7.5116442    525.06042  0.025647734  0.025793598            1 
 1707000   0.98485032   -7.5305281    526.32121   0.02569426   0.02578638            3 
 1708000   0.97157938   -7.4876653    526.10662  0.025668746  0.025779203            2 
 1709000   0.96454247   -7.5202195    525.85539  0.025641476   0.02577201            1 
 1710000   0.97993054   -7.5246889    526.97949  0.025681262  0.025764814            3 
 1711000   0.98562584   -7.5012186    528.28754   0.02572996  0.025757696            2 
 1712000   0.97682212   -7.5379393    526.00303   0.02560373  0.025750526            3 
 1713000   0.95658045   -7.5217946    527.51109  0.025662147  0.025743339            1 
 1714000   0.98132282   -7.4891917    529.38222  0.025738148  0.025736304            4 
 1715000   0.95915927   -7.5136192    528.65607  0.025687856  0.025729209            1 
 1716000   0.95268743   -7.5208772    528.21085  0.025651265  0.025722038            3 
 1717000    0.9536502   -7.4987524    527.90971   0.02562171  0.025714732            3 
 1718000   0.97206484   -7.5458848    526.74691  0.025550394  0.025707468            1 
 1719000    0.9702758   -7.5098335    527.57866  0.025575851  0.025700231            2 
 1720000   0.94749239    -7.549454    527.23204  0.025544188  0.025693033            2 
 1721000   0.94973402   -7.5299056    528.24975  0.025578624  0.025685755            4 
 1722000   0.99334822   -7.5464268    527.24021  0.025514915  0.025678495            3 
 1723000   0.96249272   -7.5224077    529.21689   0.02559571  0.025671212            1 
 1724000   0.96543784   -7.4923775    530.16022  0.025626461  0.025664063            2 
 1725000   0.96946078    -7.521419      529.866  0.025597391  0.025657007            1 
 1726000   0.97219764   -7.5248725    530.73286  0.025624414  0.025650014            1 
 1727000   0.97877767   -7.5556612    527.63644  0.025460164   0.02564291            1 
 1728000    0.9766982   -7.5021166    531.00834  0.025608041  0.025635799            3 
 1729000   0.97515207   -7.5299726    530.41959  0.025564854  0.025628825            3 
 1730000   0.97616503   -7.5145343    529.80845  0.025520638  0.025621806            2 
 1731000   0.97750796    -7.538471    532.11681  0.025617024  0.025614737            1 
 1732000   0.96062891   -7.5459724    530.86276  0.025541896  0.025607674            2 
 1733000   0.99717639    -7.548015    531.26329  0.025546417  0.025600466            1 
 1734000   0.96719612    -7.480937    531.32898  0.025534841  0.025593336            3 
 1735000   0.97249723   -7.4973285    531.56097  0.025531266  0.025586252            3 
 1736000    0.9892521   -7.5854888    530.08314  0.025445619  0.025579097            2 
 1737000   0.96042647   -7.5076559    532.17585  0.025531369  0.025571971            2 
 1738000   0.97459154   -7.5152975    531.44703  0.025481734  0.025564846            3 
 1739000   0.96819746   -7.5404491    530.46352   0.02541995  0.025557685            2 
 1740000   0.97081527   -7.5247419    531.21481  0.025441323  0.025550482            3 
 1741000   0.97826015   -7.4969078    532.05852  0.025467093  0.025543321            3 
 1742000    0.9748782   -7.5519482    531.19098  0.025410973  0.025536228            1 
 1743000   0.97562328   -7.5101979     531.9622  0.025433266  0.025529048            2 
 1744000    0.9900189   -7.5336525    532.19892  0.025429994  0.025521977            1 
 1745000    0.9554687   -7.5130284    532.79053  0.025443674  0.025514838            1 
 1746000   0.95169199   -7.5501685    532.65083  0.025422433  0.025507698            3 
 1747000   0.95877085   -7.5299618    532.56223  0.025403655  0.025500469            2 
 1748000   0.99613956   -7.5337935    533.28546  0.025423601  0.025493379            3 
 1749000   0.98435755   -7.5253385    535.05839  0.025493539  0.025486275            2 
 1750000   0.99923611   -7.5068443    534.13531  0.025435015  0.025479193            2 
 1751000   0.97269515   -7.5273137    533.60836   0.02539541  0.025472161            2 
 1752000   0.95916808   -7.5070252    535.67549  0.025479238  0.025465185            4 
 1753000   0.94498331    -7.529035    533.00768  0.025337882  0.025458111            1 
 1754000   0.96353257   -7.5244667    535.38042  0.025436166  0.025451009            1 
 1755000   0.96691089    -7.511028    534.24763  0.025367884  0.025443989            3 
 1756000   0.98764426   -7.5372375     535.2585  0.025401409  0.025436925            1 
 1757000   0.97350471   -7.5288116    535.86203  0.025415577  0.025429803            1 
 1758000   0.98336689    -7.548051    534.82723  0.025352068  0.025422753            2 
 1759000   0.96836422   -7.4988733    537.06963   0.02544389   0.02541572            3 
 1760000    0.9700825   -7.5123212    536.21005  0.025388734  0.025408707            2 
 1761000   0.96210667   -7.5376499    534.92701  0.025313601  0.025401589            1 
 1762000   0.95655073   -7.5323773    534.61762  0.025284602   0.02539447            2 
 1763000   0.99344562    -7.520733     535.2079  0.025298161  0.025387294            2 
 1764000   0.97101237   -7.5151739    536.17665  0.025329585   0.02538021            3 
 1765000   0.94909263   -7.5514553     534.9854   0.02525899  0.025373057            1 
 1766000   0.96043608   -7.5139614    535.84922  0.025285448  0.025365897            2 
 1767000   0.97609044    -7.498263    537.08038  0.025329201   0.02535877            2 
 1768000   0.98040175   -7.5077807     537.1778  0.025319466  0.025351623            3 
 1769000   0.97062588   -7.5411403    534.98658  0.025201931  0.025344496            2 
 1770000   0.95276808   -7.5442548    536.36656  0.025252663  0.025337266            2 
 1771000   0.96326111   -7.5428431      536.226   0.02523179  0.025329984            1 
 1772000   0.98122275   -7.5577508    534.55702  0.025139062  0.025322644            1 
 1773000     0.975687   -7.5704032    535.65852  0.025176655  0.025315311            3 
 1774000   0.95656153   -7.5563132     535.3788  0.025149323  0.025308059            3 
 1775000    0.9806448   -7.5238406    538.67766  0.025290031  0.025300878            1 
 1776000   0.96548892   -7.5106122    536.97998  0.025196133  0.025293666            3 
 1777000   0.95495595   -7.5121023    538.01915  0.025230686  0.025286446            2 
 1778000   0.97770234   -7.5091972    538.23701  0.025226706  0.025279218            1 
 1779000   0.95012678   -7.5374777    537.63825  0.025184479  0.025272035            3 
 1780000   0.95514696   -7.5349015    538.22717  0.025197901  0.025264899            1 
 1781000    0.9453316   -7.5279856    540.55526  0.025292685  0.025257854            1 
 1782000   0.95230558   -7.5091173     538.5377  0.025184142    0.0252508            1 
 1783000   0.97918805   -7.5592327    538.89824  0.025186869  0.025243729            1 
 1784000   0.95954482   -7.4999484    538.50829  0.025154535  0.025236614            2 
 1785000   0.98063943   -7.4966214    539.75023  0.025198423  0.025229578            2 
 1786000   0.98315968   -7.5222618     538.8783  0.025143631  0.025222509            3 
 1787000   0.97768405   -7.5161921    540.40759  0.025200876  0.025215452            4 
 1788000   0.95882163   -7.5270725    540.55937  0.025193856  0.025208443            2 
 1789000   0.95870809   -7.5676962    540.63372  0.025183236   0.02520142            3 
 1790000   0.96037761   -7.5505416    540.71925   0.02517315  0.025194358            1 
 1791000   0.95354842   -7.5161841    542.23239  0.025229499  0.025187399            1 
 1792000   0.95856517   -7.5420968    541.97286  0.025203351  0.025180433            1 
 1793000   0.96482148    -7.540869    540.83858  0.025136577  0.025173466            1 
 1794000   0.94776129   -7.5356044    541.36346  0.025146946  0.025166501            3 
 1795000   0.95254943   -7.5358529    543.43444  0.025229083  0.025159674            3 
 1796000   0.97934838    -7.533134    540.78767  0.025092227  0.025152799            2 
 1797000   0.94923218    -7.536576    542.03719  0.025136208   0.02514589            3 
 1798000   0.94296445   -7.5939687    540.65672  0.025058246  0.025138923            3 
 1799000   0.96086116   -7.5277292     543.3737  0.025170173  0.025131951            2 
 1800000   0.97470704   -7.5170466    543.37585  0.025156289  0.025125058            4 
 1801000   0.95076658   -7.5515277    544.33421  0.025186665  0.025118136            2 
 1802000   0.96780159   -7.5398638    543.05911  0.025113721  0.025111153            3 
 1803000   0.96055194   -7.5381785    543.86337  0.025136965   0.02510425            2 
 1804000   0.96770516   -7.5522444     542.7434  0.025071295  0.025097313            4 
 1805000   0.96597362   -7.5640993    542.40044  0.025041571  0.025090383            3 
 1806000   0.94848002   -7.5376313    543.59063  0.025082624  0.025083397            4 
 1807000   0.95070256   -7.5318136    544.40718    0.0251064  0.025076488            2 
 1808000   0.94135145   -7.5462076    543.95774  0.025071799  0.025069483            3 
 1809000   0.93566233   -7.5233418    543.23838  0.025024801  0.025062505            2 
 1810000   0.94132714   -7.5326128    544.07155  0.025049335  0.025055511            2 
 1811000   0.97456788   -7.5396108    544.13652  0.025038492   0.02504853            2 
 1812000   0.95890922   -7.5359476    544.20836  0.025027978  0.025041478            5 
 1813000   0.98017689   -7.5356305     544.0711  0.025007864  0.025034574            2 
 1814000   0.95807061   -7.5429285     544.7268  0.025024201  0.025027635            2 
 1815000   0.96134392   -7.5743259     543.6682  0.024961809  0.025020556            1 
 1816000   0.96578304   -7.5625067    544.92697  0.025005827  0.025013531            2 
 1817000   0.97401465   -7.5382822    545.52565  0.025019522  0.025006567            2 
 1818000   0.96941281   -7.5052225    545.77171  0.025017039  0.024999641            1 
 1819000   0.96552552   -7.5130529    545.55197  0.024993219  0.024992679            2 
 1820000   0.95370428   -7.5389928    546.33058  0.025015136  0.024985726            1 
 1821000   0.96761395   -7.5443156    546.82123  0.025023853  0.024978792            4 
 1822000    0.9521563   -7.5865052    544.66961  0.024911709  0.024971775            3 
 1823000   0.96699932   -7.5446846    545.18631  0.024921663  0.024964785            3 
 1824000   0.96323438   -7.5131392    546.79769  0.024981619  0.024957815            1 
 1825000   0.97732865   -7.5304347    546.53708  0.024956031  0.024950861            2 
 1826000   0.97366989   -7.5127661    547.31252  0.024977753  0.024943964            4 
 1827000   0.96731524   -7.5107535    546.84278  0.024942655  0.024936981            2 
 1828000   0.95157465   -7.5585745    546.83222  0.024928529  0.024929995            3 
 1829000   0.96655858   -7.5162001    547.65421  0.024952352  0.024923074            4 
 1830000   0.96027697   -7.5814448    546.10123  0.024867998  0.024916097            3 
 1831000   0.95267918   -7.5701813    546.13058  0.024855752  0.024909085            3 
 1832000   0.94328755   -7.5357467     545.9303  0.024833074  0.024902131            2 
 1833000   0.94910599   -7.5791597    546.50105  0.024845474  0.024895197            1 
 1834000   0.94287944   -7.5356595    547.62402  0.024882952  0.024888198            1 
 1835000   0.94625195   -7.5295972    549.67644  0.024962599  0.024881281            2 
 1836000   0.95028561   -7.5435748    547.70536  0.024859539  0.024874383            2 
 1837000   0.94758089   -7.5751912    549.27396  0.024917164  0.024867515            4 
 1838000   0.96467063   -7.5199151    550.50511  0.024959426  0.024860682            3 
 1839000   0.93164561   -7.5676751    549.82642    0.0249151   0.02485384            2 
 1840000   0.96643281   -7.5848368    547.82801  0.024811051   0.02484698            1 
 1841000   0.96215497   -7.5779755    549.10373   0.02485532  0.024840109            2 
 1842000   0.95353197   -7.5555489    550.23651  0.024893074  0.024833236            2 
 1843000   0.95937003   -7.6105162    548.27888  0.024791051  0.024826328            1 
 1844000   0.98374314   -7.5579694    547.63422  0.024748473   0.02481934            2 
 1845000   0.95965293   -7.5469926    549.74176  0.024830251  0.024812401            1 
 1846000   0.95997403    -7.594081    550.04323  0.024830409  0.024805508            3 
 1847000   0.96918229   -7.5531168    549.33244  0.024784896  0.024798602            1 
 1848000   0.95523353   -7.5696148    550.88181  0.024841352  0.024791644            4 
 1849000   0.96295066   -7.5779696    549.92605  0.024784841  0.024784734            1 
 1850000   0.97342064   -7.5627972    547.88665  0.024679579  0.024777765            2 
 1851000   0.97064452   -7.5892376    551.88472  0.024846242  0.024770888            2 
 1852000   0.95947628   -7.5700588    551.76647  0.024827505  0.024763997            2 
 1853000   0.95281834   -7.5829497      551.004  0.024779817  0.024757127            2 
 1854000   0.95201605   -7.5624334    551.94185  0.024808605  0.024750299            2 
 1855000   0.94926681   -7.5628718    550.67499   0.02473832  0.024743411            1 
 1856000   0.95674336   -7.5642797    550.61263  0.024722191  0.024736497            2 
 1857000   0.95409455    -7.589029     550.1868  0.024689769  0.024729604            1 
 1858000   0.95176256   -7.5482176    550.75969  0.024702175  0.024722718            2 
 1859000    0.9403696   -7.6184593    550.95148  0.024697484  0.024715777            2 
 1860000   0.95557717   -7.5384241    551.03045  0.024687744  0.024708772            2 
 1861000   0.95729104   -7.5525883     551.4844  0.024694806  0.024701838            2 
 1862000   0.96469632   -7.5591966    551.83567  0.024697264  0.024694964            2 
 1863000   0.95659423   -7.5767129    551.67877  0.024676989  0.024688044            2 
 1864000   0.96890327   -7.5654999    551.00547   0.02463365  0.024681178            2 
 1865000   0.96393696   -7.5961144    551.44682  0.024640162  0.024674202            2 
 1866000   0.96469717   -7.5255658    553.29618  0.024709547  0.024667284            1 
 1867000    0.9595558   -7.5394239    552.18719  0.024646813  0.024660379            2 
 1868000   0.94787298   -7.5509261     550.1498  0.024542728  0.024653355            1 
 1869000   0.96292931   -7.5370334    550.96581   0.02456598  0.024646281            3 
 1870000    0.9438127   -7.5780702    552.70312  0.024630264  0.024639108            2 
 1871000   0.95160314    -7.573924    550.81151  0.024532848  0.024631992            5 
 1872000   0.95737602   -7.5801231    551.27381  0.024540323  0.024624977            1 
 1873000   0.95568069   -7.5688075    552.86921  0.024598203  0.024617982            3 
 1874000    0.9501665   -7.5572353    551.70398  0.024533261  0.024610933            2 
 1875000   0.95122574   -7.5891832    553.41161  0.024596072  0.024603914            2 
 1876000   0.94827127   -7.5616026    553.30228  0.024578104  0.024596882            1 
 1877000   0.91936803   -7.5435605    553.23567  0.024562052  0.024589802            1 
 1878000   0.94564262   -7.5248374    553.88797  0.024577918   0.02458281            3 
 1879000   0.94362114   -7.5923218    554.50385  0.024592152  0.024575841            2 
 1880000   0.95379935   -7.5594635    554.55708  0.024581431  0.024568852            3 
 1881000   0.95052522   -7.5668648    553.82665  0.024536002  0.024561888            2 
 1882000   0.94091556   -7.6189464    553.52606  0.024509655  0.024554849            2 
 1883000    0.9532823   -7.5772029    554.00834  0.024517983  0.024547897            2 
 1884000    0.9262852   -7.5449044    556.93376  0.024634366  0.024541016            2 
 1885000    0.9501175   -7.5904663    554.53355  0.024515188  0.024534129            3 
 1886000   0.93716792   -7.6371068    553.93472   0.02447573   0.02452727            1 
 1887000     0.933128   -7.5873651    555.32529  0.024524169  0.024520262            3 
 1888000   0.93787998   -7.5782156    555.46535  0.024517362  0.024513287            4 
 1889000   0.95707421   -7.6142809    556.00119  0.024528021  0.024506305            2 
 1890000   0.96021304   -7.5905939     555.8559  0.024508638  0.024499241            3 
 1891000   0.95417799   -7.6001958    556.54018  0.024525832  0.024492282            2 
 1892000   0.95578522   -7.6226223    554.59283  0.024427098   0.02448529            1 
 1893000   0.95637531   -7.5534229    556.41034  0.024494204  0.024478425            3 
 1894000   0.93996859   -7.5764715    556.09231  0.024467279  0.024471505            2 
 1895000   0.93132295   -7.5551747     556.2826  0.024462735  0.024464624            3 
 1896000   0.96036261   -7.5588645    556.38493  0.024454331  0.024457787            3 
 1897000   0.93132109   -7.5655843     556.2029  0.024433443  0.024450892            1 
 1898000   0.97961249   -7.5733828    557.03229  0.024456985  0.024444001            3 
 1899000   0.93915397   -7.6009887    557.17895  0.024450542  0.024437123            1 
 1900000   0.92954592   -7.6123322    554.92854  0.024338971  0.024430244            2 
 1901000   0.94626428   -7.6066247    557.79323  0.024451746  0.024423251            3 
 1902000   0.97377567   -7.6171977    557.58124  0.024429602   0.02441634            3 
 1903000    0.9402939   -7.5665947    557.38431  0.024408141  0.024409467            2 
 1904000   0.94656299   -7.6176271     556.9218  0.024375079  0.024402563            2 
 1905000   0.96770868   -7.5993209    558.30575  0.024422824  0.024395637            2 
 1906000   0.95816054    -7.606333    557.73816  0.024385194  0.024388769            4 
 1907000   0.96463047   -7.6072585    557.55127   0.02436424   0.02438197            2 
 1908000   0.96063419   -7.5752822    558.49488  0.024392684  0.024375081            2 
 1909000   0.93021566   -7.5902116    557.84065  0.024351347  0.024368225            1 
 1910000   0.94532651   -7.5642505    557.89077  0.024340784  0.024361399            2 
 1911000   0.96485387   -7.6274153    559.85639  0.024413762  0.024354589            2 
 1912000   0.94872505   -7.6134622    557.51288  0.024298853  0.024347698            2 
 1913000    0.9484696   -7.5750438    558.74679  0.024339902   0.02434084            2 
 1914000   0.94140185   -7.5745711     560.5981  0.024407789  0.024333973            1 
 1915000   0.95327154   -7.6065501    558.70591  0.024312703  0.024327116            3 
 1916000   0.94724254   -7.5855001    560.37498  0.024372607  0.024320232            2 
 1917000   0.94072253   -7.5662531    560.00482  0.024343802  0.024313399            2 
 1918000    0.9676482   -7.5791341    561.51609  0.024396772   0.02430662            2 
 1919000   0.94806746   -7.5822746    561.11611  0.024366689  0.024299814            3 
 1920000    0.9531855   -7.5882085    560.14344  0.024311781  0.024293085            2 
 1921000   0.93253478   -7.6011184    560.70116  0.024323319  0.024286305            2 
 1922000   0.93820705   -7.6156219    561.84022  0.024360051  0.024279561            3 
 1923000   0.94794687   -7.5611776    561.80905  0.024346032  0.024272779            1 
 1924000   0.91393369   -7.6240636    560.11039  0.024259805  0.024265986            3 
 1925000    0.9422472    -7.598928    559.70043  0.024229456  0.024259171            3 
 1926000   0.94293302   -7.5992984    559.12856  0.024192132  0.024252277            3 
 1927000   0.91706062   -7.5850848    560.84061  0.024253616  0.024245458            3 
 1928000   0.96096475   -7.5762955    563.35658  0.024349783  0.024238656            2 
 1929000    0.9449502   -7.5687109    563.02642  0.024322897  0.024231988            2 
 1930000   0.94814706   -7.6110727     561.7907  0.024256939  0.024225208            1 
 1931000   0.94726226   -7.6062405    562.75592  0.024286031  0.024218522            2 
 1932000   0.94621044   -7.5819718    563.08298  0.024287568  0.024211748            3 
 1933000   0.92508101   -7.6149254    562.55869  0.024252401  0.024205026            1 
 1934000   0.97587199    -7.597149    564.06435  0.024304738   0.02419832            2 
 1935000   0.93355339   -7.5650553    564.11257  0.024294254  0.024191734            4 
 1936000   0.95650745    -7.584834    564.41984  0.024294931  0.024185166            3 
 1937000   0.93143246   -7.5813603    563.45162  0.024240734  0.024178515            4 
 1938000   0.92370321   -7.5760909    563.55908  0.024232847  0.024171821            2 
 1939000   0.95381433   -7.5910436    563.94473  0.024236923  0.024165123            3 
 1940000   0.93426782   -7.6028596     563.6552  0.024211993  0.024158347            1 
 1941000   0.94611977   -7.5906544    564.24529  0.024224853  0.024151679            3 
 1942000   0.94557366   -7.5641492    565.50429  0.024266404  0.024145063            1 
 1943000   0.93301273   -7.6063082     563.4658  0.024166486  0.024138395            2 
 1944000   0.92276645   -7.6046189    563.60336  0.024159952  0.024131641            2 
 1945000   0.93510443   -7.5889824    565.60131  0.024233133   0.02412491            5 
 1946000   0.92664766    -7.632884    563.84545  0.024145489  0.024118077            2 
 1947000   0.94470525    -7.603955    563.54375  0.024120174  0.024111256            1 
 1948000   0.93660668   -7.5968674    564.62998   0.02415426  0.024104507            2 
 1949000   0.95259894   -7.6235755    565.70355  0.024187769   0.02409772            1 
 1950000   0.91941602   -7.6245609    563.66961  0.024088445  0.024091037            1 
 1951000   0.93384651   -7.6013367    566.61577  0.024201938  0.024084293            7 
 1952000   0.94661762   -7.5827034     567.0974  0.024210101  0.024077624            4 
 1953000   0.93500692   -7.6158149    566.52762  0.024173392  0.024071107            1 
 1954000   0.93639275   -7.6339791    565.77749   0.02412903  0.024064516            3 
 1955000   0.92292325   -7.6332425     565.2544   0.02409439  0.024057771            1 
 1956000   0.93840829   -7.5736911    566.50997  0.024135564  0.024051071            2 
 1957000   0.92543334   -7.6366806    565.38275  0.024075232   0.02404435            2 
 1958000    0.9400353   -7.6007767     568.0352  0.024175826  0.024037627            2 
 1959000   0.90820913   -7.6131538    567.56223  0.024143365  0.024031039            1 
 1960000   0.92537087   -7.6311833    567.56442   0.02413114  0.024024457            4 
 1961000   0.95090749   -7.5918641    568.06057  0.024139919  0.024017826            2 
 1962000   0.92226169   -7.6335014    567.00135  0.024082626  0.024011202            2 
 1963000   0.94659825   -7.6205965    566.12445  0.024033132  0.024004555            1 
 1964000   0.92242868   -7.5870441    570.21862  0.024194612  0.023998011            2 
 1965000   0.94589744   -7.6331004    567.85635  0.024082118  0.023991508            2 
 1966000    0.9379565   -7.6329815    567.99868  0.024075902  0.023984911            1 
 1967000   0.92209626   -7.6051542    567.65801  0.024049229  0.023978303            1 
 1968000   0.94823338   -7.6000725    567.90693  0.024047549   0.02397171            1 
 1969000    0.9529923   -7.6077715     569.9584   0.02412216  0.023965152            5 
 1970000   0.93699201   -7.6221387    567.75358  0.024016649  0.023958596            1 
 1971000   0.94396134   -7.6069207    569.34389  0.024071702  0.023952128            2 
 1972000   0.93001288    -7.629294    567.60684   0.02398609  0.023945616            2 
 1973000    0.9341667   -7.5937019    571.12736  0.024122629  0.023939029            1 
 1974000   0.95448275   -7.6048866    570.98534  0.024104413  0.023932552            1 
 1975000   0.95106516   -7.6353549    569.68621  0.024037393  0.023926068            1 
 1976000    0.9409145   -7.6024063    571.22414  0.024090087  0.023919626            2 
 1977000   0.93665211   -7.6225205    572.11824  0.024115589  0.023913171            2 
 1978000      0.94304   -7.6052893    569.54468  0.023994973  0.023906679            1 
 1979000   0.92629139   -7.6310847     571.2722  0.024055592  0.023900213            1 
 1980000   0.93129623   -7.6318793    571.22324  0.024041382  0.023893802            2 
 1981000   0.92348751   -7.6294764     570.6296  0.024004274  0.023887294            2 
 1982000   0.91201164   -7.6085286    570.77209  0.023998154  0.023880798            3 
 1983000   0.94465683   -7.6202155    571.35612  0.024010595  0.023874287            1 
 1984000   0.93525184   -7.6452386    570.13086  0.023947029  0.023867765            1 
 1985000   0.92475087   -7.6018432    572.06578  0.024016196  0.023861224            2 
 1986000   0.92560694   -7.6492808    570.11621  0.023922298  0.023854723            1 
 1987000   0.91583867   -7.6625511    571.79676   0.02398074  0.023848206            4 
 1988000   0.92234598   -7.6202859    570.65716  0.023920907  0.023841693            2 
 1989000   0.94904849     -7.62187    571.08309  0.023926726  0.023835136            1 
 1990000    0.9293092   -7.6286355     572.5709  0.023977006  0.023828625            1 
 1991000   0.94055731   -7.6401115    571.00706  0.023899509  0.023822102            2 
 1992000   0.94848871   -7.6027454    573.29974  0.023983423  0.023815609            1 
 1993000    0.9070977    -7.600834    573.45538  0.023977897  0.023809128            2 
 1994000   0.91117145    -7.647162    572.45106  0.023923899  0.023802649            1 
 1995000   0.94570462    -7.609858     574.2267  0.023986078  0.023796182            1 
 1996000    0.9246689   -7.6031647    573.79958  0.023956228  0.023789786            2 
 1997000   0.92389216     -7.65797    571.96352  0.023867615  0.023783296            3 
 1998000   0.93331043   -7.6366939    573.23173  0.023908564   0.02377675            2 
 1999000   0.94074411   -7.6198456    573.73425  0.023917552   0.02377023            1 
 2000000   0.91701093   -7.6208589    573.38507  0.023891045   0.02376377            2 
 2001000   0.91692276   -7.6077761    574.44434  0.023923219  0.023757406            2 
 2002000   0.92275753   -7.6203737    575.91167  0.023972347  0.023751021            5 
 2003000   0.94517045   -7.6242133    575.05038  0.023924546  0.023744644            2 
 2004000   0.93174078   -7.6381894    574.44723  0.023887526  0.023738283            1 
 2005000   0.94620365    -7.635955    574.48061     0.023877  0.023731853            2 
 2006000   0.94043522   -7.6155227    574.51195  0.023866399  0.023725361            1 
 2007000   0.92872584   -7.6319043    574.45909  0.023852313  0.023718895            2 
 2008000   0.91059343   -7.6343163    573.82009  0.023813915  0.023712395            3 
 2009000   0.93827395   -7.6052741    575.57383  0.023874806   0.02370585            1 
 2010000   0.92458552   -7.6215086    576.88714  0.023917377  0.023699424            2 
 2011000   0.90852611   -7.5940297    576.89592  0.023905848   0.02369296            2 
 2012000   0.90591976    -7.621651    575.30186  0.023827943  0.023686531            4 
 2013000   0.92985334   -7.6218963     574.7665  0.023793943  0.023680029            1 
 2014000   0.92205475   -7.6192663    577.74669  0.023905441  0.023673605            4 
 2015000   0.93261102   -7.6108808     576.8104  0.023854855  0.023667166            2 
 2016000   0.94822628   -7.5395114    577.88785   0.02388756  0.023660746            2 
 2017000   0.93400282   -7.6239924    576.51469  0.023818984  0.023654367            1 
 2018000    0.9125793   -7.6369262    575.64366  0.023771212  0.023647924            2 
 2019000    0.9500299   -7.6623148    575.24814  0.023743113   0.02364145            2 
 2020000   0.91330035   -7.6450731    575.76569   0.02375271  0.023634938            2 
 2021000   0.92218085    -7.626334    576.07926  0.023753887  0.023628435            3 
 2022000   0.92644826   -7.6187068    577.92346  0.023818144  0.023622004            1 
 2023000    0.9254805   -7.6047933     579.5284  0.023872483  0.023615644            2 
 2024000    0.9303339   -7.5844246    578.54082  0.023820027   0.02360929            2 
 2025000   0.92209593   -7.6107779     578.2924  0.023798041  0.023602964            1 
 2026000   0.92181686   -7.6168527    577.68722  0.023761402  0.023596627            1 
 2027000   0.94277298   -7.5986465    578.34702  0.023776806  0.023590244            2 
 2028000   0.92957805   -7.6572842    578.08454  0.023754296  0.023583816            1 
 2029000   0.93031256    -7.633737    578.60054  0.023763781  0.023577353            1 
 2030000   0.92495694   -7.6344323    579.11728  0.023773287  0.023570899            1 
 2031000   0.92304176   -7.6239994    579.05703   0.02375911  0.023564483            2 
 2032000   0.90916532   -7.6162958    578.87311  0.023739875  0.023558122            3 
 2033000   0.92574975   -7.6355593    579.16612  0.023740208  0.023551765            2 
 2034000   0.94864496   -7.6475766    579.23037  0.023731169  0.023545344            3 
 2035000   0.91236616     -7.63751    579.44874   0.02372845  0.023538907            3 
 2036000   0.94473977   -7.6275125    579.03053  0.023699678  0.023532533            2 
 2037000   0.92555001   -7.6416362    579.26026  0.023697442  0.023526182            3 
 2038000   0.91953295    -7.651247    578.01719  0.023634985  0.023519721            3 
 2039000   0.92160215   -7.6552183    580.85806  0.023739499    0.0235133            6 
 2040000    0.9298202   -7.6242873    580.48526  0.023712633  0.023507025            3 
 2041000   0.92253486   -7.5489426    582.24641  0.023772922  0.023500775            2 
 2042000   0.93413186   -7.6312422    579.39824  0.023645047  0.023494562            1 
 2043000   0.95406375   -7.6169704    580.88552   0.02369414  0.023488232            2 
 2044000   0.92865129   -7.6324688    580.00939  0.023646828   0.02348195            3 
 2045000   0.94381573   -7.6259453    582.06327  0.023718959  0.023475575            3 
 2046000   0.92918143   -7.6146428    580.88885  0.023659533  0.023469212            1 
 2047000   0.92717863   -7.6371335    580.48826  0.023631667  0.023462843            3 
 2048000   0.93131667   -7.6473551    580.54493  0.023622434  0.023456511            2 
 2049000   0.92063461   -7.7037866    580.65413  0.023615346  0.023450129            3 
 2050000   0.90978362   -7.6370737    581.40799  0.023634471   0.02344378            4 
 2051000   0.90927421   -7.6174004    583.62794  0.023713146  0.023437497            2 
 2052000   0.93792982   -7.6170088    583.12801  0.023681287  0.023431278            4 
 2053000   0.92791757   -7.6050082    581.62123   0.02360859  0.023425071            3 
 2054000   0.91823658   -7.6441093    582.25542  0.023622826  0.023418907            2 
 2055000    0.9176388   -7.6395045    584.44513  0.023700127  0.023412722            2 
 2056000   0.93337554   -7.6398342     582.8939  0.023625726  0.023406496            3 
 2057000   0.92083588   -7.6502901    582.81349  0.023610983  0.023400302            2 
 2058000    0.9251361   -7.6180452    584.45715  0.023666065   0.02339409            2 
 2059000   0.91420671   -7.6354913    582.84978  0.023589517  0.023387928            2 
 2060000   0.94011569   -7.6278536     583.7581   0.02361481  0.023381768            3 
 2061000   0.90917555   -7.6507781    584.00498  0.023613334  0.023375647            1 
 2062000   0.92662363   -7.6555661    583.48609  0.023580912  0.023369491            1 
 2063000   0.89546745    -7.667712    582.94032  0.023547436  0.023363267            2 
 2064000   0.90907886   -7.6331544    585.35257  0.023633421  0.023357092            1 
 2065000   0.93418949   -7.6265642     584.6262  0.023592664  0.023350926            2 
 2066000   0.91029934    -7.676424    583.62607  0.023540903  0.023344701            1 
 2067000   0.93365935   -7.6215441    583.59964  0.023528449  0.023338442            2 
 2068000   0.93487873   -7.5997633    585.99533   0.02361361  0.023332276            1 
 2069000   0.93349601   -7.6365135     584.5309  0.023543213  0.023326082            1 
 2070000   0.92433698   -7.6611953    583.79805  0.023502337  0.023319825            2 
 2071000   0.93870051   -7.6476196    584.47368  0.023518175   0.02331355            1 
 2072000   0.92239928   -7.6361554    586.06492  0.023570822  0.023307296            1 
 2073000   0.92399646   -7.6706896    583.53565  0.023457777  0.023301032            2 
 2074000    0.9077442   -7.6384369    585.88277  0.023540774  0.023294769            2 
 2075000   0.93478771   -7.6335855    585.50953  0.023514439  0.023288537            1 
 2076000   0.93042614   -7.6273172    584.79624   0.02347448  0.023282351            3 
 2077000   0.91530048   -7.6251562    586.16092  0.023517931  0.023276114            1 
 2078000   0.92164211   -7.6521767    585.02143  0.023460917  0.023269802            2 
 2079000   0.91168235   -7.6614304    585.62304  0.023473747  0.023263514            1 
 2080000   0.91616607   -7.6701404    584.77367  0.023428432  0.023257201            4 
 2081000   0.91938038   -7.6392347       585.56  0.023448662  0.023250967            3 
 2082000   0.92289528   -7.6183564    586.40757  0.023471325  0.023244813            1 
 2083000   0.92873298   -7.6663646    585.06527  0.023406356  0.023238624            2 
 2084000   0.93160719   -7.6566029    587.28301  0.023483806  0.023232434            3 
 2085000   0.91809406   -7.6516739    586.24354  0.023430997  0.023226274            2 
 2086000   0.91549548   -7.6469877    585.84011  0.023403648  0.023220057            2 
 2087000   0.91344062   -7.6081744    590.49544   0.02357832  0.023213923            3 
 2088000   0.91585822   -7.6483301    587.56124  0.023449922   0.02320775            1 
 2089000   0.91942988   -7.6744284    586.98549  0.023415729  0.023201537            3 
 2090000    0.9262281   -7.6253445    588.00692  0.023445252  0.023195386            3 
 2091000   0.93446239   -7.6396241    588.29914  0.023445685  0.023189281            2 
 2092000   0.89633675   -7.6544891    587.23545  0.023392107  0.023183095            2 
 2093000   0.92088114   -7.6451859    587.78824   0.02340294  0.023176878            2 
 2094000   0.92808797   -7.6407748    588.83134  0.023433275  0.023170665            2 
 2095000    0.9429528   -7.6485788    589.21164  0.023437217   0.02316445            2 
 2096000   0.89428581   -7.6450432     587.8527  0.023372006   0.02315823            1 
 2097000   0.93858187   -7.6395037    587.70795  0.023355109   0.02315199            3 
 2098000   0.90002753   -7.6279545    587.77353  0.023346581  0.023145819            3 
 2099000   0.91922638   -7.6433336    588.76549  0.023374841  0.023139612            5 
 2100000   0.91678784   -7.6541152    590.22874  0.023421775  0.023133463            2 
 2101000   0.91479999   -7.6554534     589.5537  0.023383853  0.023127295            2 
 2102000    0.9261279    -7.638323     589.7943  0.023382267  0.023121153            7 
 2103000   0.89820767   -7.6549971    590.74738  0.023408915  0.023114977            4 
 2104000   0.90609124   -7.6730068    589.76069  0.023358709  0.023108872            1 
 2105000   0.91380032    -7.661207    590.59185  0.023380517  0.023102715            2 
 2106000   0.90753815   -7.6292231    590.48175  0.023365058  0.023096574            2 
 2107000   0.92490557   -7.6506122    591.44259  0.023391971   0.02309045            3 
 2108000     0.921654   -7.6172191    590.37133  0.023338525  0.023084277            2 
 2109000   0.90660333    -7.656262     591.7225  0.023380848  0.023078115            3 
 2110000   0.92107199   -7.6735422    589.54751  0.023283867  0.023071846            1 
 2111000   0.92400209   -7.6621263    591.20343  0.023338206  0.023065667            4 
 2112000   0.90254138   -7.6310247    590.91548  0.023315794  0.023059493            2 
 2113000   0.92065812   -7.6594271    589.14469  0.023234922    0.0230533            3 
 2114000   0.91075868   -7.7016876    589.28471  0.023229451  0.023047047            2 
 2115000   0.93386778   -7.6681558    590.53485  0.023267725  0.023040819            2 
 2116000   0.89201253   -7.6496114    590.14192  0.023241254  0.023034652            3 
 2117000   0.92766123   -7.6669554    590.55986  0.023246727  0.023028435            2 
 2118000   0.90024925   -7.6425807    591.41912  0.023269559  0.023022196            3 
 2119000   0.90345503   -7.6383899    590.95663   0.02324039  0.023016034            1 
 2120000   0.91973569   -7.6515385    591.57992  0.023253928    0.0230099            2 
 2121000   0.88778703   -7.6826056    589.79128  0.023172689  0.023003714            2 
 2122000   0.90991139   -7.6834984    590.22566  0.023178827  0.022997457            3 
 2123000   0.92447033   -7.6382203    592.26548  0.023247978  0.022991269            1 
 2124000    0.9059974   -7.6655107    592.50779  0.023246539  0.022985106            3 
 2125000   0.89546883   -7.6351884    592.87253  0.023249903  0.022978927            1 
 2126000   0.90567643    -7.702349    594.18346  0.023290352  0.022972829            1 
 2127000   0.92248231   -7.6630712    592.02636  0.023194889  0.022966684            3 
 2128000   0.92002999   -7.6482326    593.37436  0.023236778  0.022960509            4 
 2129000   0.89726692    -7.666794    591.38691  0.023148071  0.022954333            4 
 2130000   0.92186079   -7.6490181    593.10112  0.023204269  0.022948112            2 
 2131000    0.9069755   -7.6758026    592.24475  0.023159892  0.022941899            3 
 2132000   0.91232121   -7.6549627    592.43941  0.023156637  0.022935695            1 
 2133000   0.92326874   -7.6560135    594.59206  0.023229882  0.022929511            4 
 2134000   0.92236043   -7.6887517    592.77539  0.023148055  0.022923404            2 
 2135000   0.90135454   -7.6668831    593.23653  0.023155212  0.022917289            1 
 2136000   0.91303732   -7.6844795    593.06946  0.023137853  0.022911179            2 
 2137000   0.90408297   -7.7025205    594.74874  0.023192511  0.022905099            2 
 2138000    0.8963761   -7.6535433    593.73335  0.023142086   0.02289898            1 
 2139000   0.93025748   -7.6898471    594.32615  0.023154361  0.022892973            1 
 2140000   0.91512318   -7.6651848    595.27268    0.0231804  0.022886909            1 
 2141000   0.90632386   -7.6554143    595.71292  0.023186709  0.022880911            3 
 2142000   0.90194612   -7.6730211    595.09901     0.023152  0.022874896            1 
 2143000    0.9158137   -7.7047635    595.46681  0.023155499  0.022868871            4 
 2144000   0.89407048   -7.6709365    595.00738  0.023126842  0.022862868            3 
 2145000   0.91366221   -7.6595299     596.7422  0.023183458  0.022856882            1 
 2146000   0.92450806   -7.6793738    596.68695  0.023170509  0.022850919            1 
 2147000   0.89922303    -7.674525    596.15346   0.02313901  0.022844929            4 
 2148000   0.88058287   -7.7092557    594.62164   0.02306881  0.022838908            4 
 2149000   0.91262953   -7.6630718    595.73186  0.023101127  0.022832866            2 
 2150000   0.88792103   -7.6964686    596.09256  0.023104363  0.022826801            3 
 2151000   0.89912722   -7.6895118    595.50497  0.023070857  0.022820721            3 
 2152000   0.89537835   -7.6607441    596.22877  0.023088165  0.022814732            4 
 2153000     0.902543   -7.7091538    597.59354  0.023130266  0.022808741            1 
 2154000   0.91250612    -7.684378    596.40093  0.023073388  0.022802701            3 
 2155000   0.92110252   -7.6932733    595.78242  0.023038763  0.022796692            2 
 2156000   0.92809768   -7.6533936    597.05742  0.023077359  0.022790672            2 
 2157000   0.91698644   -7.6203064    597.18334  0.023071525  0.022784639            3 
 2158000   0.91381764   -7.6639366     597.2315  0.023062693  0.022778642            3 
 2159000   0.91760603   -7.6417717    597.74986  0.023072019  0.022772607            2 
 2160000   0.88180682   -7.6503448    598.84594  0.023103624   0.02276657            2 
 2161000   0.90680915   -7.6896535      597.003  0.023021865  0.022760515            2 
 2162000   0.88382787   -7.6804063    597.97599   0.02304872  0.022754437            3 
 2163000   0.91103967   -7.6799584    596.76856  0.022991546  0.022748355            2 
 2164000   0.91644115   -7.7162729    596.80297  0.022982246  0.022742263            1 
 2165000   0.92143063   -7.6718113    598.79756  0.023048405  0.022736216            2 
 2166000   0.89631392   -7.7088697    598.44368  0.023024149  0.022730128            3 
 2167000   0.91354767    -7.675142    598.17871  0.023003335  0.022724096            4 
 2168000    0.8960729   -7.6788875    598.84532  0.023018347  0.022718045            1 
 2169000   0.91232279   -7.7004852    599.01679  0.023014323  0.022712054            1 
 2170000   0.90425995   -7.6536967    599.93563  0.023039003  0.022706126            1 
 2171000   0.90294607   -7.6861603    599.85252    0.0230252  0.022700195            3 
 2172000   0.90904516   -7.6829614    598.94551    0.0229798  0.022694291            1 
 2173000   0.90077995   -7.6931486    599.69123  0.022997823  0.022688302            1 
 2174000   0.91519845   -7.6932155    601.21835  0.023045782  0.022682332            3 
 2175000   0.89324869   -7.6969129    600.17612  0.022995254  0.022676353            1 
 2176000   0.93360575   -7.6886517    598.22966  0.022910143   0.02267036            4 
 2177000   0.90165273   -7.6888421    600.40453  0.022982871  0.022664415            2 
 2178000   0.91230858   -7.6780721    601.02012  0.022995872   0.02265847            1 
 2179000   0.88600391   -7.6845363    600.22754  0.022955008   0.02265244            4 
 2180000     0.911256   -7.6933754    600.81811  0.022967053   0.02264643            3 
 2181000   0.89310185   -7.6752676    602.00535  0.023001886  0.022640426            2 
 2182000    0.9249831   -7.6875472     602.0075  0.022991426  0.022634493            2 
 2183000    0.9244633   -7.6934534    599.18123  0.022873005  0.022628568            1 
 2184000   0.90441667    -7.695187    600.76029  0.022922783  0.022622641            1 
 2185000   0.90079992   -7.6900784    599.87249  0.022878432  0.022616712            2 
 2186000    0.8997744   -7.6826124    601.57342  0.022932808  0.022610747            2 
 2187000   0.90237678   -7.7254951    600.49852  0.022881364  0.022604737            2 
 2188000   0.88754238   -7.7173675    600.31301  0.022863841  0.022598738            2 
 2189000   0.90384614   -7.7085001    601.72494  0.022907147  0.022592672            1 
 2190000   0.90007293    -7.709974    600.12185  0.022835687  0.022586603            4 
 2191000   0.89476137   -7.6906912    599.86202  0.022815382  0.022580505            1 
 2192000   0.90099252   -7.7138854    600.61926  0.022833761  0.022574451            1 
 2193000   0.90463411   -7.7365507    601.43211  0.022854237  0.022568361            1 
 2194000   0.89331313   -7.6870135    599.39862  0.022766584  0.022562277            3 
 2195000    0.8904661    -7.718613    600.13885  0.022784315  0.022556186            1 
 2196000   0.90974714   -7.6837066    602.25137  0.022854105   0.02255009            1 
 2197000   0.89808649   -7.6764874    600.57091  0.022779962   0.02254397            3 
 2198000   0.89892766   -7.6695661     601.4228  0.022801896  0.022537888            4 
 2199000   0.90787206   -7.6681219    602.66108  0.022838452  0.022531838            3 
 2200000   0.90862085   -7.6653007    601.38286  0.022779654  0.022525831            2 
 2201000   0.92459138   -7.6814076    602.14691  0.022798232  0.022519813            2 
 2202000   0.89570736   -7.6764733    601.29726  0.022755724  0.022513799            1 
 2203000   0.90346573   -7.6764646    602.82459   0.02280317  0.022507781            3 
 2204000   0.90123735   -7.6682535    604.15049  0.022842956   0.02250176            3 
 2205000   0.90068875   -7.6782587    603.35284   0.02280245  0.022495729            3 
 2206000   0.89483388   -7.6772972    602.33458  0.022753648  0.022489752            2 
 2207000   0.89850663   -7.6963173    601.50436  0.022711991  0.022483733            1 
 2208000   0.89480782   -7.7072809    603.37826  0.022772428  0.022477672            2 
 2209000   0.90217891   -7.7005319    602.89118  0.022743745  0.022471663            3 
 2210000   0.88278761   -7.7104814    601.71855  0.022689236  0.022465557            3 
 2211000   0.91267695   -7.6997548    603.07555   0.02273012  0.022459416            1 
 2212000   0.88445801   -7.6882764    602.95576  0.022715332   0.02245337            1 
 2213000   0.89520877   -7.7276902    601.41862  0.022647184  0.022447236            2 
 2214000   0.88721555   -7.7019247    603.01517  0.022697048  0.022441077            2 
 2215000   0.89959013   -7.6844672    603.75192  0.022714519  0.022434938            4 
 2216000   0.90188128   -7.7014481    603.39085  0.022690691  0.022428864            1 
 2217000   0.89556594   -7.6617847      603.236  0.022674635  0.022422885            3 
 2218000   0.89973485    -7.682169    605.24379  0.022739848  0.022416906            1 
 2219000   0.90160203   -7.6888802    604.66876  0.022708005  0.022410965            2 
 2220000   0.88461769   -7.6978106     604.3017  0.022683998  0.022405007            2 
 2221000    0.9049802   -7.7181847    604.96579  0.022698701  0.022399001            7 
 2222000   0.90186063    -7.729076    603.91501  0.022649078  0.022392965            2 
 2223000   0.89054094   -7.6852823    604.58042  0.022663833  0.022386952            2 
 2224000   0.88709562   -7.7462004    602.70801  0.022583484  0.022380894            2 
 2225000   0.89048197   -7.7213276    605.75318  0.022687385  0.022374819            2 
 2226000   0.90036495    -7.702924    604.47884  0.022629486  0.022368741            1 
 2227000   0.90332817   -7.7385421    604.00048  0.022601425  0.022362638            2 
 2228000   0.86801032   -7.6900876     605.1436  0.022634037  0.022356496            2 
 2229000    0.9001913   -7.6942591    604.41728  0.022596728  0.022350386            4 
 2230000   0.90963652   -7.7309131    603.19694  0.022540992  0.022344264            2 
 2231000   0.87711777   -7.7237149    605.83726  0.022629511  0.022338173            3 
 2232000   0.90274693   -7.7324561    605.91954  0.022622444  0.022332086            2 
 2233000   0.89245735   -7.7254966    603.68911  0.022529076  0.022326016            2 
 2234000   0.87323938   -7.7252674    605.19946  0.022575331  0.022319928            1 
 2235000   0.88588938   -7.7234183    605.55418  0.022578456   0.02231383            1 
 2236000   0.91878527   -7.7294444    605.19274  0.022554887  0.022307796            3 
 2237000    0.9017005    -7.717736    606.47552  0.022592591  0.022301758            1 
 2238000   0.87856323   -7.7279717    608.20094  0.022646743  0.022295728            3 
 2239000   0.91048388   -7.7288118    606.07863  0.022557638  0.022289651            2 
 2240000   0.87537248   -7.7197815    605.54182  0.022527598  0.022283584            3 
 2241000   0.88661615   -7.7611846    603.32418   0.02243508  0.022277484            1 
 2242000   0.87718874   -7.6979828    607.03011   0.02256282  0.022271386            2 
 2243000   0.89701436    -7.689394    607.95468  0.022587111  0.022265324            4 
 2244000   0.90275648   -7.7266473    607.82041  0.022572059   0.02225929            2 
 2245000    0.8791646   -7.7212425    607.86383  0.022563617  0.022253224            1 
 2246000   0.88864751   -7.7347026    606.56124   0.02250524  0.022247175            2 
 2247000   0.89337099   -7.7024846    608.10124  0.022552338  0.022241182            2 
 2248000   0.89335584   -7.7275061    607.28441  0.022512026  0.022235213            2 
 2249000   0.88469624   -7.7131959    607.78723  0.022520647  0.022229246            1 
 2250000   0.88955488   -7.7304043    607.67216  0.022506376  0.022223263            4 
 2251000   0.89876436   -7.7156681    609.42724  0.022561352  0.022217288            1 
 2252000   0.89963069    -7.738276    609.01089  0.022535927  0.022211318            2 
 2253000   0.88639516   -7.7004385    609.10483  0.022529399    0.0222054            2 
 2254000   0.89727868   -7.7341483    609.31404  0.022527138  0.022199517            1 
 2255000   0.90305918   -7.7188877    609.32444  0.022517533  0.022193575            2 
 2256000   0.89628578    -7.726257     609.1591  0.022501444  0.022187661            2 
 2257000   0.90538892   -7.7333439    610.86985  0.022554639  0.022181766            3 
 2258000   0.89745877   -7.7028738    609.54989  0.022495936  0.022175933            1 
 2259000   0.89120816   -7.7148073    611.58516  0.022561058   0.02217008            2 
 2260000   0.87877464   -7.7158924     611.0061  0.022529723  0.022164192            2 
 2261000   0.87642428   -7.7147986    609.51023  0.022464626  0.022158245            2 
 2262000    0.8794407   -7.7061438    609.95115  0.022470938  0.022152324            2 
 2263000   0.89821332   -7.6880242    609.21885  0.022434042  0.022146447            3 
 2264000   0.89468869   -7.7266712    609.47236  0.022433465  0.022140521            1 
 2265000   0.89047168   -7.7284728    610.21221   0.02245078  0.022134673            3 
 2266000    0.8957674   -7.7440133    609.60636  0.022418592  0.022128821            2 
 2267000    0.8801577   -7.7034486    610.32432  0.022435095  0.022122898            1 
 2268000   0.87756325   -7.7227766    610.73603   0.02244033  0.022117064            3 
 2269000   0.90371035   -7.6730335     611.4256  0.022455766  0.022111224            2 
 2270000   0.87376749   -7.7357912    610.25679  0.022402966  0.022105397            2 
 2271000   0.88074377   -7.7674644     611.8263  0.022450693  0.022099531            2 
 2272000   0.88466979   -7.7159468    612.22442  0.022455414  0.022093656            2 
 2273000   0.88489173   -7.7412108    611.81802  0.022430636  0.022087802            5 
 2274000   0.90232336   -7.7370431    610.53493  0.022373751  0.022081892            3 
 2275000   0.88789076   -7.7400071    610.04871  0.022346107  0.022075946            1 
 2276000    0.8774087   -7.7343875    612.33383  0.022419956  0.022070001            3 
 2277000   0.89048896   -7.7434464    611.21447  0.022369143  0.022064096            3 
 2278000   0.88936919   -7.7305841     611.1422   0.02235668  0.022058204            2 
 2279000    0.8759545   -7.7226637    611.53243  0.022361139  0.022052324            2 
 2280000   0.89503899   -7.7033349    612.60434  0.022390509  0.022046462            4 
 2281000    0.8704119   -7.7037946    613.71522  0.022421278  0.022040618            2 
 2282000   0.88951488   -7.6911559    614.40737  0.022436728  0.022034721            3 
 2283000   0.88981845   -7.6920872    613.19807  0.022382759    0.0220289            1 
 2284000   0.89404135   -7.7267145    612.08303  0.022332277  0.022023007            1 
 2285000   0.88146215   -7.7309534    612.92516  0.022353215  0.022017057            1 
 2286000   0.88509194   -7.7136366    613.09041  0.022349461  0.022011126            2 
 2287000   0.89585236   -7.7346395    613.57195  0.022357235  0.022005199            3 
 2288000   0.87851648   -7.7069943    614.48676  0.022380782  0.021999291            2 
 2289000   0.88136404   -7.7287009    612.85167  0.022311478  0.021993366            1 
 2290000   0.89246124   -7.7243442    612.37615  0.022284431   0.02198741            3 
 2291000   0.86669928    -7.736759    612.04353  0.022262605  0.021981475            3 
 2292000    0.8860457   -7.7398548    613.64413  0.022311087   0.02197556            3 
 2293000   0.87959139   -7.7479615    613.81912  0.022307716  0.021969662            1 
 2294000   0.89161399   -7.7295126     614.1308  0.022309314  0.021963727       -1e+20 
 2295000   0.88063197   -7.7260263    614.45097  0.022311219  0.021957832            1 
 2296000   0.88584811   -7.7313264    616.32922  0.022369673  0.021951956            8 
 2297000   0.89914081   -7.7535473    611.85151  0.022197486  0.021945984            5 
 2298000   0.87511912   -7.7647091    612.33801  0.022205469  0.021939985            2 
 2299000   0.88652961   -7.7519454    613.13096  0.022224553  0.021934016            2 
 2300000   0.87738969   -7.7403621    613.03177  0.022211296  0.021928042            4 
 2301000   0.87568165   -7.7894525    612.18201  0.022170868  0.021922081            1 
 2302000   0.87254001   -7.7337828    613.53292  0.022210141   0.02191608            1 
 2303000   0.89905146   -7.7639465    611.68323  0.022133566   0.02191001            3 
 2304000   0.88695089   -7.7329733    613.41469  0.022186584   0.02190398            1 
 2305000   0.87018432   -7.7458731    614.04617  0.022199789  0.021897923            3 
 2306000   0.90708842   -7.7355866    613.64624   0.02217571  0.021891852            3 
 2307000    0.8604248   -7.7518246    613.39041  0.022156856  0.021885825            2 
 2308000   0.87566693   -7.7511732    614.52745  0.022188311  0.021879786            3 
 2309000   0.86641149    -7.738193    614.83984  0.022189975  0.021873792            3 
 2310000   0.89909174   -7.7396467    614.41421  0.022165015  0.021867805            1 
 2311000   0.88544332   -7.7315329    615.20226   0.02218384  0.021861862            2 
 2312000    0.8933727   -7.7555586    614.28796   0.02214129  0.021855883            2 
 2313000   0.88204065   -7.7528118    615.88411  0.022189224  0.021849967            4 
 2314000    0.8974761   -7.7350719    616.91067  0.022216604   0.02184407            2 
 2315000   0.88032271   -7.7581334    615.78605  0.022166525  0.021838177            1 
 2316000   0.85903727   -7.7654865      615.654  0.022152202  0.021832254            3 
 2317000    0.8860987   -7.7687979    615.80336  0.022148013  0.021826332            5 
 2318000   0.87893859   -7.7341341    615.11453  0.022113695   0.02182044            3 
 2319000   0.87461841   -7.7314861    615.10581  0.022103845  0.021814532            2 
 2320000   0.88324579   -7.7767932    614.05334  0.022056514  0.021808674            2 
 2321000   0.87855335   -7.7412578    616.89246  0.022148947  0.021802787            2 
 2322000   0.87431212   -7.7667768    614.14087  0.022040657  0.021796887            2 
 2323000   0.89159184    -7.794025    613.77439  0.022018022  0.021790971            1 
 2324000   0.89411194   -7.7804046    615.51159   0.02207084  0.021784995            3 
 2325000   0.89739978   -7.7497955    617.15228  0.022120153  0.021779032            2 
 2326000     0.866851   -7.7815258     617.2258  0.022113278  0.021773094            1 
 2327000    0.8770632      -7.7353    616.93349  0.022093307  0.021767191            2 
 2328000   0.85995453   -7.7197519     616.9924  0.022085925  0.021761356            3 
 2329000   0.88970968   -7.7310661    618.54997  0.022132173  0.021755515            3 
 2330000   0.89484656   -7.7361746    617.90077  0.022099455  0.021749675            3 
 2331000   0.88559604   -7.7502369    617.96946   0.02209243  0.021743819            2 
 2332000    0.8942218   -7.7896471    616.17864  0.022018962  0.021737915            5 
 2333000   0.87130101   -7.7350915    615.94876  0.022001313  0.021731963            2 
 2334000    0.8691045   -7.7560953    618.11912  0.022069377  0.021726014            2 
 2335000    0.8786577   -7.7499052    617.49739  0.022037737  0.021720036            3 
 2336000   0.85823341   -7.7829956    616.47592  0.021991864  0.021714111            2 
 2337000   0.87169995   -7.7598248    617.01048  0.022001515  0.021708153            3 
 2338000   0.87637678   -7.7706487    616.53482   0.02197515  0.021702198            5 
 2339000   0.87793568   -7.7608818    617.42427  0.021997444  0.021696251            3 
 2340000   0.85144469   -7.7473702    618.43783  0.022024139   0.02169027            3 
 2341000   0.89081257   -7.7266703    617.32574  0.021975144  0.021684321            2 
 2342000   0.88026073   -7.7112496    619.20576  0.022032656  0.021678393            1 
 2343000   0.88073076   -7.7510498    616.79578  0.021937537  0.021672455            1 
 2344000   0.88123491   -7.7466439    618.14924  0.021976296  0.021666494            3 
 2345000   0.86889117   -7.7340835    618.87669  0.021992775  0.021660547            3 
 2346000   0.87011978   -7.7622343    617.71154  0.021942013  0.021654644            3 
 2347000   0.85769053    -7.782723       617.92  0.021940065   0.02164873            2 
 2348000   0.87790251   -7.7601143    617.94185  0.021931497   0.02164279            4 
 2349000   0.87411909    -7.769457    620.38708  0.022008907  0.021636842            2 
 2350000   0.87991193   -7.7627803     617.9525  0.021913209   0.02163091            2 
 2351000   0.88655847   -7.7632175    619.54095  0.021960192   0.02162502            1 
 2352000   0.88457489   -7.7647751    617.92892   0.02189374  0.021619097            1 
 2353000   0.86622949   -7.7505749    620.42527  0.021972846  0.021613184            1 
 2354000   0.90084826   -7.7670664    619.27033  0.021922626  0.021607312            2 
 2355000   0.88635995    -7.754668    620.17412  0.021945298  0.021601436            2 
 2356000   0.88484784   -7.7384405    620.50765  0.021947781  0.021595508            5 
 2357000   0.88169835   -7.7582305    619.98474  0.021919981  0.021589608            2 
 2358000   0.85184803    -7.750161    620.90881  0.021943342  0.021583703            2 
 2359000   0.88148348   -7.7745589    619.25905  0.021875761  0.021577808            2 
 2360000   0.88532793   -7.7704863    621.07086  0.021930468  0.021571952            2 
 2361000   0.88695796   -7.7472786    620.37267  0.021896536  0.021566052            2 
 2362000   0.87743131   -7.7488835    621.61274  0.021931017  0.021560154            1 
 2363000   0.87753089   -7.7630362     619.5464  0.021848864  0.021554269            2 
 2364000   0.85805489    -7.791426    619.95874  0.021854158  0.021548346            3 
 2365000   0.87466447   -7.7407066    620.29838  0.021856885  0.021542451            2 
 2366000   0.88560767   -7.7677793    619.77239  0.021829121   0.02153658            2 
 2367000   0.88664089   -7.7333452    621.26116  0.021872312  0.021530758            1 
 2368000   0.87187254   -7.7476434    621.52464  0.021872348   0.02152497            2 
 2369000   0.86440686   -7.7695223    620.10898  0.021813317  0.021519114            2 
 2370000    0.8766261   -7.7602628    621.88461  0.021866548   0.02151331            2 
 2371000   0.88135533   -7.7542093    622.65621  0.021884444  0.021507513            3 
 2372000   0.88654109   -7.7468483    620.28237   0.02179182  0.021501685            2 
 2373000   0.86070189   -7.7474919    622.71617  0.021868105  0.021495875            2 
 2374000   0.86121675   -7.7635802    621.84246  0.021828224  0.021490087            2 
 2375000   0.87704372   -7.7635838    622.96153  0.021858299  0.021484267            5 
 2376000   0.87609177   -7.7726631    622.83627  0.021844707  0.021478452            2 
 2377000   0.88989724   -7.7222011    622.42313  0.021821032   0.02147268            2 
 2378000   0.85998714   -7.7851032    623.37871  0.021845343    0.0214669            1 
 2379000   0.86392855   -7.7426908    621.52632  0.021771274  0.021461142            2 
 2380000   0.88032931   -7.7494219    623.45691  0.021829724  0.021455407            1 
 2381000   0.84420709   -7.7374028    625.83042  0.021903626  0.021449707            3 
 2382000   0.87881621   -7.7847589    623.56533  0.021815188  0.021443985            2 
 2383000   0.87695751   -7.7550339    623.91263  0.021818178  0.021438304            2 
 2384000   0.86728354   -7.7628993    625.98728  0.021881546  0.021432609            1 
 2385000   0.86083474   -7.7745712    623.94738  0.021801096  0.021426923            3 
 2386000   0.86585344   -7.7822076    624.29039  0.021803939  0.021421243            5 
 2387000   0.85735042   -7.7358676    625.90068  0.021851022  0.021415573            1 
 2388000   0.87065632   -7.7627086    624.07458  0.021778147  0.021409885            2 
 2389000   0.85900426    -7.770539    625.39025  0.021814924  0.021404203            1 
 2390000   0.87262801   -7.7409959    623.03546  0.021723691  0.021398529            2 
 2391000   0.88548113   -7.7579667    624.75907  0.021774678  0.021392862            2 
 2392000   0.88211172   -7.7963718    625.36333  0.021786627  0.021387177            2 
 2393000    0.8751242   -7.7830973    624.87025  0.021760351   0.02138145            2 
 2394000    0.8576515   -7.7368092    625.57531  0.021775804  0.021375805            1 
 2395000    0.8689999   -7.7834117    624.83609  0.021740991  0.021370147            1 
 2396000   0.86558779   -7.8068683    623.47747  0.021684664  0.021364405            4 
 2397000   0.86266712   -7.7887471    624.31569  0.021704759  0.021358648            2 
 2398000   0.86509435   -7.7593806    625.12831  0.021723947  0.021352936            2 
 2399000    0.8722341    -7.766194    625.82515  0.021739098  0.021347208            2 
 2400000   0.88932997   -7.7952282    624.67207  0.021690002  0.021341483            2 
 2401000   0.85825533   -7.7685891     624.8004  0.021685423  0.021335761            3 
 2402000   0.86346641   -7.7790799    624.63288  0.021670583  0.021329988            2 
 2403000   0.88136391   -7.8151914    624.49508  0.021656786  0.021324265            4 
 2404000    0.8661573   -7.7477931      627.574  0.021754506  0.021318567            3 
 2405000   0.86768947   -7.8060264    625.76922  0.021682925  0.021312786            3 
 2406000   0.85433921   -7.7960626    624.68659  0.021636416  0.021306987            2 
 2407000   0.85971446   -7.7933084    626.19606  0.021679686  0.021301208            2 
 2408000   0.87048402   -7.7549598    625.99921  0.021663871  0.021295462            3 
 2409000   0.85671306   -7.7687068    626.22872  0.021662817  0.021289746            2 
 2410000   0.86795387   -7.7813919     626.2962  0.021656162  0.021283971            2 
 2411000   0.86817896   -7.7734536    626.11595  0.021640949  0.021278199            3 
 2412000   0.85307682   -7.7746934    625.41058  0.021607607  0.021272437            3 
 2413000   0.86655062   -7.7324979    628.56603  0.021707626  0.021266704            2 
 2414000   0.86326489   -7.7701457     626.5001  0.021627316   0.02126101            1 
 2415000   0.87495547   -7.7765214    627.94693  0.021668286  0.021255259            2 
 2416000   0.87837099   -7.7859958     626.7032  0.021616418  0.021249537            2 
 2417000   0.87423539   -7.7797629     625.9103  0.021580137  0.021243757            2 
 2418000   0.87636902   -7.7939491    626.80637  0.021602094  0.021237982            1 
 2419000   0.87805634   -7.7752589    625.47673  0.021547359  0.021232145            2 
 2420000   0.87197929   -7.7828065    627.31323  0.021601695  0.021226329            1 
 2421000   0.88185094   -7.7586342    625.75361  0.021539089   0.02122048            3 
 2422000   0.88474045   -7.7841126    625.01112  0.021504649    0.0212146            2 
 2423000   0.87861282   -7.7767289    624.57601  0.021480809  0.021208743            3 
 2424000   0.87456773   -7.7508796    625.90199  0.021517533  0.021202883            2 
 2425000   0.85964361   -7.7761383    626.84929  0.021541213  0.021197079            1 
 2426000   0.87211353   -7.7655596    626.66074  0.021525857   0.02119125            1 
 2427000   0.87798722   -7.7695457     626.8472   0.02152339  0.021185433            3 
 2428000     0.850655   -7.8183191    624.91016  0.021448042  0.021179559            1 
 2429000   0.87346659   -7.7810647    626.42012  0.021491015  0.021173683            3 
 2430000   0.87231497   -7.7653035    628.12138  0.021540514  0.021167808            4 
 2431000   0.85706766   -7.7971993    627.10665  0.021496868  0.021161936            3 
 2432000   0.87017448   -7.7754631    626.07626  0.021452723  0.021156052            2 
 2433000   0.87224916   -7.7712721    627.44457  0.021490772  0.021150205            5 
 2434000   0.86951947   -7.7896801      628.667  0.021523795  0.021144388            1 
 2435000   0.85295695   -7.8145481    627.51068  0.021475383  0.021138543            2 
 2436000   0.88422266   -7.7627023    627.98004  0.021482623  0.021132745            2 
 2437000    0.8728716   -7.8172183    626.40745  0.021420033  0.021126924            1 
 2438000   0.85515448   -7.7829475    629.57663  0.021519573  0.021121064            2 
 2439000   0.84023337   -7.8126546    627.65862  0.021445217  0.021115243            2 
 2440000   0.87706213   -7.7785399    627.94944  0.021446361  0.021109438            1 
 2441000   0.85627619   -7.7972078     627.4593  0.021420842  0.021103615            2 
 2442000   0.84768644   -7.7937981    628.54741  0.021449202  0.021097777            3 
 2443000   0.85961996   -7.7879402    627.19934  0.021394438  0.021091983            2 
 2444000   0.84876577   -7.8273471    627.28282  0.021388531  0.021086136            3 
 2445000   0.87535181    -7.792094     627.5074  0.021387437  0.021080318            1 
 2446000   0.85903968   -7.7612272    629.75254  0.021455183  0.021074518            2 
 2447000   0.85962413   -7.7884599    630.12062   0.02145895  0.021068786            2 
 2448000   0.86163551   -7.7969284    629.02168  0.021412775  0.021063063            3 
 2449000   0.85580897   -7.7917806    629.84404  0.021432014   0.02105733            2 
 2450000   0.84856214   -7.7932582    628.92064  0.021391858  0.021051579            2 
 2451000   0.86929616   -7.7749323    628.59044  0.021371904  0.021045886            5 
 2452000   0.85545606   -7.7874713    629.42182  0.021391443  0.021040138            1 
 2453000   0.86263411   -7.8178789    628.53298  0.021352527  0.021034423            2 
 2454000   0.86408125   -7.7818435    632.08851  0.021464565  0.021028738            1 
 2455000   0.86560366   -7.7908359    630.50487  0.021402066  0.021023068            2 
 2456000   0.86755424   -7.8087392    630.59469    0.0213964  0.021017371            5 
 2457000   0.87105012   -7.8108637     631.3579  0.021413577  0.021011674            1 
 2458000   0.84246923   -7.8247791    632.12343  0.021430819  0.021006023            2 
 2459000   0.86333022   -7.7881263    632.30901  0.021428393  0.021000362            5 
 2460000   0.85562388   -7.8042802    632.23805  0.021417278  0.020994701            2 
 2461000   0.86497228   -7.8088213    631.45798  0.021382161  0.020988989            3 
 2462000   0.85813447   -7.8196486     630.7913   0.02135091  0.020983279            2 
 2463000   0.84194796   -7.8093622    631.91744  0.021380344  0.020977556            3 
 2464000   0.85432286   -7.8062493    631.49344  0.021357327  0.020971901            2 
 2465000   0.85758302    -7.794105     632.0689  0.021368117  0.020966239            3 
 2466000    0.8435577   -7.7828981    630.99367  0.021323117  0.020960518            2 
 2467000   0.84686419   -7.7893996    632.92184  0.021379606  0.020954806            1 
 2468000   0.83983669   -7.8041359    630.60325  0.021292654    0.0209491            1 
 2469000   0.85347785   -7.7849697    632.44527  0.021346202  0.020943415            2 
 2470000   0.86156881   -7.8158192    630.88842  0.021285034  0.020937715            2 
 2471000   0.85659033   -7.8133165    632.37687  0.021326618  0.020932002            2 
 2472000   0.85106945   -7.7982373    633.48826  0.021355456  0.020926344            1 
 2473000   0.84611485   -7.7952027    631.80808  0.021290204  0.020920681            2 
 2474000   0.84803454   -7.7852387    632.71908  0.021312284  0.020914951            2 
 2475000   0.86002514   -7.7928262    632.59036  0.021299339  0.020909245            2 
 2476000   0.86153047   -7.7876079    634.57565  0.021357554  0.020903561            1 
 2477000   0.85274928   -7.8151528    632.66644    0.0212847  0.020897883            5 
 2478000   0.85023038   -7.8352959    632.34996  0.021265468  0.020892169            1 
 2479000   0.84450529   -7.8156796    631.10086  0.021214901   0.02088643            3 
 2480000   0.83111496   -7.8323482    632.03258  0.021237654  0.020880691            1 
 2481000   0.86100884   -7.8395797    630.82232  0.021188443  0.020874959            1 
 2482000   0.85190157   -7.8175144    632.14687  0.021224378  0.020869226            2 
 2483000    0.8449895   -7.8196295    633.42147  0.021258607  0.020863489            2 
 2484000   0.86602404   -7.8068984    632.65859  0.021224456  0.020857794            3 
 2485000   0.84743526   -7.8382888    632.33652  0.021205115  0.020852061            2 
 2486000   0.85034579    -7.842655    632.02964  0.021186298  0.020846299            2 
 2487000   0.84537345   -7.8189136     632.6017  0.021196948  0.020840537            5 
 2488000   0.85577451   -7.8207523    633.06389  0.021203908  0.020834726            2 
 2489000   0.84795077   -7.8232385    634.62965  0.021247812  0.020828942            3 
 2490000   0.86894914   -7.8500737    632.94603  0.021182933   0.02082318            2 
 2491000   0.86003754   -7.8163728    632.22725  0.021150383    0.0208174            3 
 2492000   0.84248031    -7.792019    631.43952  0.021115554  0.020811644            4 
 2493000   0.85433301   -7.8048325    634.03956  0.021193995  0.020805895            2 
 2494000   0.85635533   -7.7924733     633.2572  0.021159356  0.020800169            3 
 2495000     0.858759   -7.8287267    632.17773  0.021114821  0.020794439            4 
 2496000   0.86160603   -7.8200444    633.15922   0.02113913  0.020788672            1 
 2497000   0.84095269   -7.7993362    633.59606  0.021145243  0.020782938            1 
 2498000   0.87710441   -7.7819452    635.17308  0.021189387  0.020777238            2 
 2499000   0.86586001   -7.8318368    633.91952  0.021139106  0.020771593            1 
 2500000   0.84822429   -7.7994521    635.95324  0.021198441  0.020765938            2 
 2501000   0.84288449   -7.8171256    632.99568  0.021091419  0.020760246            1 
 2502000   0.86645422   -7.7788263    633.35931  0.021095101  0.020754596            2 
 2503000   0.83892945   -7.7869637    634.75565  0.021133162  0.020748935            3 
 2504000   0.85602845   -7.8281733    633.81354  0.021093369  0.020743247            2 
 2505000   0.86064813   -7.8051245    635.57576  0.021143572  0.020737543            7 
 2506000   0.83610335   -7.7934048    636.98708  0.021182066  0.020731944            1 
 2507000    0.8385646   -7.8076442    635.74693  0.021132393  0.020726263            1 
 2508000   0.86076949   -7.7822826    635.63868  0.021120371  0.020720588            3 
 2509000   0.84677287   -7.8289685    635.53394  0.021108474  0.020714874            1 
 2510000   0.84812081   -7.8051003     636.7911  0.021141803  0.020709148            4 
 2511000    0.8413051   -7.8304009    634.95962  0.021072601  0.020703475            1 
 2512000   0.83740279   -7.8044395    635.88164    0.0210948  0.020697819            2 
 2513000   0.83935506   -7.8257081    634.05673   0.02102589  0.020692124            3 
 2514000   0.86409625   -7.8029263     633.9799  0.021014979  0.020686417            1 
 2515000   0.85294441   -7.8254609    634.20221   0.02101399  0.020680666            4 
 2516000   0.86151938    -7.836594    635.42871  0.021046261  0.020674912            2 
 2517000   0.86190337   -7.8640522    635.01261  0.021024123  0.020669178            4 
 2518000   0.84643427   -7.8244699    633.91196  0.020979347   0.02066345            2 
 2519000   0.85682784   -7.8318499    635.68898  0.021029806  0.020657717            3 
 2520000   0.83118713   -7.8319472    634.26179  0.020974265  0.020652001            1 
 2521000   0.84525382   -7.8110914     634.8577  0.020985644  0.020646235            4 
 2522000   0.84735122    -7.823723    635.47727  0.020997795  0.020640486            2 
 2523000   0.84236576   -7.8450206    635.85239  0.021001862  0.020634787            3 
 2524000   0.84520513   -7.8342853     636.3134  0.021008763  0.020629049            2 
 2525000   0.84930993   -7.8223021    636.92673  0.021020684  0.020623349            1 
 2526000    0.8400322   -7.8389647    636.04824  0.020983381  0.020617641            2 
 2527000   0.83971825   -7.8219655    635.61218  0.020960697  0.020611972            4 
 2528000   0.84143909   -7.8044793    639.19996  0.021070674    0.0206063            2 
 2529000   0.84236356   -7.8338634    637.85118  0.021017898   0.02060067            3 
 2530000   0.85216485   -7.8035772     636.7106  0.020972022  0.020595053            3 
 2531000   0.83672011   -7.8198251    636.64047  0.020961427  0.020589418            2 
 2532000   0.86345359   -7.8225868    637.38032  0.020977499  0.020583833            2 
 2533000   0.86279676   -7.8301125    638.35477  0.021001276   0.02057823            3 
 2534000   0.81549211   -7.8223564     637.9524  0.020979755  0.020572642            2 
 2535000   0.86012558   -7.8438066    638.48704  0.020989055  0.020567041            2 
 2536000   0.84754605    -7.834503    637.05155  0.020933608  0.020561392            2 
 2537000   0.84269593   -7.8598681    636.67393  0.020912953  0.020555732            3 
 2538000   0.86275348   -7.8186987    637.40979  0.020928874  0.020550123            2 
 2539000   0.86388648   -7.8299347    638.40731  0.020953371  0.020544532            2 
 2540000   0.84119829   -7.8494049    638.83718  0.020959225  0.020538915            1 
 2541000   0.85238747   -7.8206518    638.10151   0.02092685  0.020533276            1 
 2542000   0.83951321    -7.812768    638.61606  0.020935486  0.020527662            3 
 2543000   0.84030907   -7.8403947    637.88279  0.020903224  0.020522049            3 
 2544000   0.85947187   -7.8389732    638.30398  0.020908804  0.020516414            3 
 2545000   0.84219405   -7.8274741    639.23361  0.020931029  0.020510758            3 
 2546000   0.83464751   -7.8117662     640.0535  0.020949643  0.020505159            2 
 2547000   0.83765199   -7.8239204    639.37822  0.020919324  0.020499538            2 
 2548000   0.84755148   -7.8228859    639.37279  0.020910936   0.02049395            2 
 2549000   0.84820402    -7.846906    638.50861   0.02087448   0.02048839            2 
 2550000   0.82532861   -7.8068975    639.73087  0.020906238   0.02048278            6 
 2551000   0.83681862   -7.8505249    640.07187  0.020909182  0.020477214            2 
 2552000   0.84452947   -7.8570454    639.29965  0.020875772  0.020471584            2 
 2553000    0.8598874   -7.8581636    640.21277  0.020897401  0.020465898            1 
 2554000   0.84268438   -7.8554734    638.98151  0.020849044  0.020460257            1 
 2555000   0.85070618    -7.817328    638.54405  0.020826616  0.020454606            2 
 2556000   0.85883344   -7.8467905    638.97233  0.020832431  0.020448973            2 
 2557000   0.84044343   -7.8460608    640.23101  0.020865305  0.020443303            2 
 2558000   0.84802585   -7.8464628    639.33087  0.020827823  0.020437664            1 
 2559000   0.83922917    -7.863691    640.61116  0.020861377  0.020432019            1 
 2560000   0.84525187   -7.8791294    639.98065  0.020832703  0.020426346            2 
 2561000   0.83876357   -7.8461171    640.17447  0.020830876  0.020420701            1 
 2562000   0.84137731   -7.8333502    639.14585  0.020789287  0.020415088            1 
 2563000   0.83576097   -7.8567436     641.5858  0.020860508   0.02040947            2 
 2564000   0.85089494   -7.8700007    639.24623  0.020776333  0.020403862            3 
 2565000   0.82354875   -7.8475398    640.55637  0.020810798  0.020398241            3 
 2566000   0.85012054   -7.8196677    641.13536  0.020821491  0.020392603            2 
 2567000   0.83250838   -7.8328276    640.43111  0.020790518  0.020387004            3 
 2568000   0.84808818   -7.8610897    640.60395  0.020788031  0.020381444            4 
 2569000   0.81752685    -7.834119    640.99755  0.020792706  0.020375887            1 
 2570000   0.83349496    -7.806754    640.50262  0.020768568  0.020370323            2 
 2571000   0.84817005   -7.8128684    640.58812  0.020763261  0.020364757            1 
 2572000   0.84602353    -7.806651    640.97897  0.020767851  0.020359173            1 
 2573000   0.82654918   -7.8234116      641.489  0.020776299  0.020353619            2 
 2574000   0.83363031   -7.8371134    641.80297  0.020778392  0.020348021            5 
 2575000   0.82694736   -7.8461885    641.51505  0.020761005  0.020342362            2 
 2576000   0.85162302   -7.8884641    638.79585  0.020664979  0.020336679            3 
 2577000   0.82668778    -7.865631    641.14034  0.020732775  0.020331012            2 
 2578000   0.83523209   -7.8273954    640.76404  0.020712569  0.020325339            2 
 2579000     0.859742   -7.8441908    641.88753   0.02074084  0.020319692            1 
 2580000   0.83049433   -7.8556594    640.48186  0.020687399  0.020314049            2 
 2581000   0.85096278   -7.8485886    641.17906  0.020701894  0.020308397            2 
 2582000   0.83132174   -7.8234134    641.09647  0.020691211  0.020302774            1 
 2583000   0.83963046   -7.8459243    640.64556  0.020668653   0.02029716            3 
 2584000   0.83360227   -7.8451029    641.81353  0.020698321  0.020291541            3 
 2585000   0.82744725    -7.859859    641.21823  0.020671123  0.020285952            3 
 2586000   0.83080418    -7.838484    642.78621  0.020713657  0.020280322            3 
 2587000   0.83554618   -7.8432439    643.77773  0.020737589  0.020274759            2 
 2588000    0.8391022   -7.8938469    642.54949  0.020690027  0.020269144            1 
 2589000   0.82697978   -7.8332071     642.4018  0.020677282  0.020263557            2 
 2590000   0.84390069   -7.8485101    641.31542  0.020634344  0.020257962            2 
 2591000   0.83257732   -7.8589392    641.97752  0.020647675  0.020252348            1 
 2592000   0.85560772   -7.8244291    643.64237  0.020693235  0.020246782            3 
 2593000    0.8213944   -7.8234744    642.57536  0.020650963  0.020241219            1 
 2594000   0.83302382   -7.8291796    642.26783  0.020633122  0.020235657            2 
 2595000   0.82851612    -7.840788    643.09772  0.020651821  0.020230077            2 
 2596000   0.84870943   -7.8502862    643.12913  0.020644874  0.020224454            3 
 2597000    0.8412593   -7.8515652    642.39017  0.020613213  0.020218857            1 
 2598000   0.82524062   -7.8234665    642.76587   0.02061733  0.020213223            2 
 2599000   0.84076586   -7.8679976    643.55464  0.020634688  0.020207615            2 
 2600000   0.84017402   -7.8413239    642.76728  0.020601515  0.020202006            2 
 2601000   0.85681058   -7.8586961    642.76219  0.020593432   0.02019639            1 
 2602000   0.83330753   -7.8191109    643.46431  0.020608004  0.020190763            1 
 2603000   0.84492525   -7.8755062    643.03813  0.020586443  0.020185155            1 
 2604000   0.83828315   -7.8617832    643.34124  0.020588237  0.020179463            3 
 2605000   0.83324015   -7.8760883    642.47439  0.020552604   0.02017375            2 
 2606000    0.8153734   -7.8921282    640.73267  0.020489021   0.02016802            2 
 2607000   0.83043806   -7.8448926    643.46835  0.020568608  0.020162363            1 
 2608000   0.84880753   -7.8500958    643.28074  0.020554727  0.020156677            1 
 2609000   0.85090224   -7.9015995    641.02707  0.020474865  0.020150996            5 
 2610000   0.82091475   -7.8815704    641.74845  0.020490053  0.020145293            3 
 2611000   0.81014843   -7.8901483    642.16684  0.020495558  0.020139619            2 
 2612000   0.84788663   -7.8720228    642.82947  0.020508852  0.020133936            3 
 2613000   0.84426405   -7.8519308    644.36275  0.020549903  0.020128272            2 
 2614000   0.84018925   -7.8711691    643.88219  0.020526721  0.020122676            2 
 2615000   0.82248406   -7.8616811    644.01396  0.020523071  0.020117037            1 
 2616000   0.82934281   -7.8588093    643.50891  0.020499137  0.020111423            4 
 2617000   0.81662406   -7.8927965     642.2093  0.020449921  0.020105791            4 
 2618000   0.86447266    -7.853547    644.19393  0.020505282  0.020100163            1 
 2619000   0.83472321   -7.8611329      643.797  0.020484822  0.020094525            4 
 2620000   0.81615757   -7.8690638    642.78214  0.020444724  0.020088936            1 
 2621000   0.84440966   -7.8603825    644.38748  0.020487965  0.020083297            2 
 2622000   0.83656319   -7.8485122    645.10659  0.020503006  0.020077667            2 
 2623000   0.83216489    -7.897841     643.1772  0.020433893  0.020072045            2 
 2624000   0.82083744    -7.838418    645.51798  0.020500444  0.020066468            2 
 2625000   0.84564959   -7.8438373    645.37111  0.020487972  0.020060911            5 
 2626000   0.82915464   -7.8647245    644.18401  0.020442499  0.020055328            2 
 2627000   0.83187875   -7.8382603    643.16768  0.020402477  0.020049721            1 
 2628000   0.82055106   -7.8730902    643.76922  0.020413788  0.020044103            2 
 2629000   0.83236577    -7.856737    644.32651  0.020423688  0.020038446            1 
 2630000    0.8414931   -7.8968101    643.13729  0.020378241  0.020032781            3 
 2631000   0.81555934   -7.8641486     643.4445  0.020380226    0.0200271            2 
 2632000   0.82832701    -7.858404    644.68125  0.020411641   0.02002148            2 
 2633000   0.82309983   -7.8708255    646.00411  0.020445756  0.020015849            1 
 2634000   0.82675436   -7.8454753    644.30133  0.020384122  0.020010181            1 
 2635000   0.82562069   -7.8662502    645.47108   0.02041338  0.020004514            4 
 2636000   0.79896142   -7.8417551    646.16397  0.020427541  0.019998873            1 
 2637000    0.8279759   -7.8556309    646.20611  0.020421126  0.019993273            1 
 2638000   0.82349889   -7.8377649    645.41697  0.020388456   0.01998766            3 
 2639000   0.81798027   -7.8520578    646.67313  0.020420397  0.019982004            2 
 2640000   0.82142932   -7.8742015    645.53167  0.020376631  0.019976389            1 
 2641000   0.82304954   -7.8757821    644.42452  0.020333981  0.019970766            2 
 2642000   0.84575729   -7.8725521    645.63123  0.020364346  0.019965134            2 
 2643000   0.82124968   -7.8492878    646.22831  0.020375467  0.019959497            1 
 2644000   0.84570536   -7.8619112    645.89635  0.020357298  0.019953885            2 
 2645000    0.8239787   -7.8842941    644.68116  0.020311316  0.019948224            2 
 2646000   0.81209229   -7.8893459    644.00928  0.020282479  0.019942581            6 
 2647000   0.82107973   -7.8698331    644.96144  0.020304793   0.01993691            3 
 2648000   0.82825687   -7.8406928    646.79315  0.020354769  0.019931269            1 
 2649000   0.84113458   -7.8739963    646.58914  0.020340668  0.019925645            3 
 2650000   0.81897964   -7.8787954    645.35223  0.020294095  0.019919984            4 
 2651000   0.82856812   -7.8483025    645.26043  0.020283554  0.019914334            2 
 2652000   0.80575733   -7.8496239    646.60078  0.020318023  0.019908699            2 
 2653000   0.81773824   -7.8823687    647.09725   0.02032596  0.019903071            2 
 2654000    0.8125505   -7.8933171    645.56421  0.020270165  0.019897416            1 
 2655000   0.82034434   -7.8507541    646.54074  0.020293181  0.019891762            2 
 2656000   0.82341044     -7.87514    645.37335  0.020248913  0.019886101            1 
 2657000   0.81760059   -7.8261334    647.87588   0.02031978  0.019880497            6 
 2658000   0.82894855   -7.8933849    646.07411  0.020255647   0.01987487            2 
 2659000   0.80703493   -7.8666123    647.08083   0.02027958  0.019869243            1 
 2660000   0.81612783   -7.8840675    647.03323  0.020270464  0.019863591            1 
 2661000   0.82797628   -7.8938269    646.94807   0.02026018  0.019857965            3 
 2662000   0.83449048   -7.8493603    647.48408  0.020269349  0.019852318            3 
 2663000   0.82416834   -7.9067564    645.89274   0.02021194  0.019846677            3 
 2664000   0.82526388   -7.8626347    647.35603  0.020250126   0.01984102            3 
 2665000   0.81910176   -7.8941515    645.98075  0.020199523  0.019835355            2 
 2666000   0.83356655   -7.8887584    647.88783  0.020251558  0.019829712            1 
 2667000    0.8203335   -7.8978158    644.89776  0.020150536  0.019824023            1 
 2668000   0.82488356   -7.8793318    647.65935   0.02022924  0.019818368            3 
 2669000    0.8263225   -7.9095374    647.43965  0.020214801  0.019812702            2 
 2670000   0.81055271   -7.8964293    646.61952  0.020181633  0.019807029            1 
 2671000   0.83745264   -7.8698538    646.37082  0.020166318  0.019801357            2 
 2672000   0.83137319    -7.895483    646.56459  0.020164814  0.019795653            1 
 2673000   0.83622544   -7.9047711    645.13252  0.020112624  0.019789931            1 
 2674000    0.8344283   -7.8967263    646.69638  0.020153839  0.019784222            2 
 2675000   0.82871194   -7.8761679    647.07423  0.020158076  0.019778518            2 
 2676000   0.81445518    -7.887691    645.80414  0.020110991  0.019772862            4 
 2677000   0.82368183   -7.8893756    648.23277   0.02017908  0.019767258            6 
 2678000   0.82743327   -7.8946138    647.14671  0.020137749  0.019761638            2 
 2679000   0.81442384   -7.8912548    646.28919  0.020103558  0.019755983            4 
 2680000   0.83602013   -7.9138759    648.75804  0.020172825  0.019750342            2 
 2681000    0.8209302   -7.8948425    646.30713  0.020089119  0.019744694            1 
 2682000   0.82976424   -7.9056123    647.34492  0.020113874  0.019739064            2 
 2683000   0.80277518   -7.8717064     647.2044  0.020102013  0.019733419            1 
 2684000   0.82863105   -7.9153742    648.37762  0.020130949  0.019727755            4 
 2685000   0.83865952   -7.8894055    646.43725  0.020063229  0.019722069            2 
 2686000   0.82012289   -7.8707022      647.807  0.020098256  0.019716394            2 
 2687000   0.81911767   -7.8817869    646.63658  0.020054478  0.019710731            2 
 2688000   0.81889703   -7.8805114    647.88253  0.020085644  0.019705094            3 
 2689000   0.80133463   -7.9054851    647.38168  0.020062653    0.0196994            3 
 2690000   0.83721478   -7.8780299    646.46735   0.02002687  0.019693693            4 
 2691000   0.80230259    -7.916204    644.90698  0.019971107  0.019687968            2 
 2692000   0.83049693   -7.9203143    646.72849  0.020020075  0.019682238            3 
 2693000   0.81409081   -7.9144987    647.97365  0.020051171  0.019676521            1 
 2694000   0.80658148   -7.8904587    647.64879  0.020033679  0.019670798            4 
 2695000   0.81206244   -7.8791423    647.91235  0.020034396  0.019665099            2 
 2696000   0.82467891   -7.9126848     646.7734  0.019991759  0.019659397            2 
 2697000    0.8189266   -7.9132369    647.76919  0.020015115  0.019653711            2 
 2698000   0.83467696   -7.8908423    647.89876  0.020011699   0.01964799            2 
 2699000   0.81408833   -7.9076456    648.40345  0.020019867  0.019642282            1 
 2700000   0.82360776   -7.9033634    645.92659  0.019936006  0.019636529            1 
 2701000    0.8274195   -7.9410281    647.36269  0.019972933  0.019630783            4 
 2702000   0.81921594   -7.9096162     648.4032  0.019997631   0.01962506            2 
 2703000   0.82798484   -7.8953404    647.34128  0.019957494  0.019619348            2 
 2704000   0.81465028   -7.9042934     647.0412  0.019940865  0.019613657            3 
 2705000   0.81509812   -7.8743632    648.17854  0.019968532  0.019607972            1 
 2706000   0.83024557   -7.9051828    648.42861  0.019968853  0.019602286            2 
 2707000   0.84452982    -7.894125    648.51137  0.019964024  0.019596606            1 
 2708000   0.82721622   -7.9089419     648.0487  0.019942414  0.019590935            1 
 2709000   0.82135749   -7.8908764    647.95856   0.01993228  0.019585265            1 
 2710000   0.81566349   -7.9026294    647.30147  0.019904719  0.019579585            2 
 2711000    0.8063327     -7.90038    648.24373  0.019926341   0.01957389            2 
 2712000   0.82281922   -7.9361135    647.14393  0.019885199  0.019568181            1 
 2713000   0.82414314   -7.9178771    648.84736  0.019930193  0.019562467            5 
 2714000   0.80839288   -7.9321956    648.30094  0.019906072  0.019556773            2 
 2715000   0.81918095   -7.9119149    649.36644  0.019931444  0.019551103            2 
 2716000   0.81421962   -7.8801495    648.41931  0.019895045  0.019545437            1 
 2717000   0.81742258   -7.9045801    648.77002  0.019898479  0.019539763            1 
 2718000   0.82070618   -7.9104443    649.58977  0.019916292  0.019534086            3 
 2719000   0.81024677   -7.8975585    649.45421  0.019904812  0.019528421            2 
 2720000   0.82757482   -7.9017377    648.88332  0.019880004  0.019522793            1 
 2721000   0.83112666   -7.8862485    650.41881  0.019919723  0.019517158            1 
 2722000    0.8034929   -7.8881724    649.40692  0.019881427  0.019511521            2 
 2723000   0.80806622   -7.8885491    650.92004  0.019920432   0.01950591            3 
 2724000   0.81995384   -7.8966641    649.81158  0.019879209  0.019500296            1 
 2725000    0.8159817   -7.9375537    649.83786  0.019872718  0.019494674            2 
 2726000   0.81048699   -7.8929274    651.87726  0.019927771  0.019489072            1 
 2727000   0.83157832   -7.8934687    650.17316  0.019868389  0.019483472            1 
 2728000   0.81253932   -7.9170506     649.3403  0.019835664  0.019477865            2 
 2729000   0.80752765   -7.9162943     649.9329  0.019846491  0.019472242            1 
 2730000   0.80130983   -7.9107667    649.66319  0.019830989  0.019466618            4 
 2731000   0.82377575   -7.8651778     650.0189  0.019834581  0.019460963            2 
 2732000   0.83342893   -7.9142179    650.65262  0.019846651  0.019455306            3 
 2733000   0.81365838   -7.8761936    651.81769  0.019874914  0.019449685            2 
 2734000   0.81873849   -7.9056078     651.1137  0.019846187  0.019444039            3 
 2735000   0.82183059   -7.9180987    648.68282  0.019764863  0.019438382            1 
 2736000   0.83042798   -7.9472629    650.70831  0.019819332  0.019432731            1 
 2737000    0.8025005   -7.8948804    650.02753  0.019791363  0.019427062            3 
 2738000   0.81749461   -7.8664997    649.66554  0.019773117  0.019421434            4 
 2739000    0.8392913   -7.9319574    650.47176  0.019790427  0.019415808            4 
 2740000   0.83042439   -7.9277652    649.62525  0.019757459  0.019410128            2 
 2741000   0.80821871   -7.9184176    650.74549  0.019784309  0.019404443            2 
 2742000   0.82716099   -7.8962178    649.59447  0.019742113  0.019398752            2 
 2743000   0.80804689   -7.9017368    650.76757  0.019770555  0.019393054            5 
 2744000   0.79620836   -7.9492209    648.29894  0.019688379  0.019387356            2 
 2745000   0.81489116   -7.9348408     650.1608  0.019737729  0.019381683            2 
 2746000    0.8104214   -7.9235048    650.15765  0.019730446  0.019375995            2 
 2747000   0.81180507   -7.9480031    649.24707   0.01969564  0.019370287            4 
 2748000   0.80124841   -7.9250478    650.80457  0.019735704  0.019364609            3 
 2749000   0.80703556   -7.9139281    650.20808  0.019710443  0.019358965            2 
 2750000   0.81153352    -7.904856    650.68521  0.019717734  0.019353336            1 
 2751000   0.81135151   -7.9240937    650.19964  0.019695857  0.019347695            2 
 2752000   0.80047388   -7.9213621    651.65007  0.019732621  0.019342059            3 
 2753000   0.80297561    -7.915713    650.93442   0.01970379  0.019336435            5 
 2754000   0.81804787   -7.9067013      651.346   0.01970909  0.019330793            2 
 2755000     0.816702   -7.9303105    650.92802  0.019689293  0.019325157            3 
 2756000   0.80186486   -7.9448092    650.58807   0.01967187  0.019319468            1 
 2757000   0.81222691   -7.9474412    650.48213  0.019661532  0.019313793            2 
 2758000   0.81449366   -7.9496975    650.98489  0.019669594  0.019308092            2 
 2759000   0.79507991   -7.9337537    650.20744  0.019638983  0.019302352            1 
 2760000   0.81529292   -7.9396103    649.63758  0.019614661  0.019296589            3 
 2761000   0.81667185   -7.9108443    651.07394   0.01965091  0.019290856            2 
 2762000   0.80912745   -7.9513663    650.93138  0.019639494  0.019285146            1 
 2763000   0.82116067   -7.9370921    650.71888  0.019625976  0.019279426            2 
 2764000    0.8259914   -7.8993826     649.7336   0.01958917  0.019273712            4 
 2765000   0.80562562   -7.9348061    650.53432  0.019606218  0.019268006            3 
 2766000   0.80103684   -7.9221677    650.70451  0.019604257  0.019262304            3 
 2767000   0.82503286   -7.9070118    652.21302  0.019642604  0.019256603            2 
 2768000    0.8095699   -7.9568289    649.09744   0.01954171  0.019250927            2 
 2769000   0.83133339   -7.9688531    650.31697  0.019571354  0.019245202            2 
 2770000    0.7952868    -7.941862    651.84208  0.019610171  0.019239503            2 
 2771000   0.80396516   -7.9138254    650.73501    0.0195698  0.019233841            2 
 2772000   0.81360399   -7.9472682    651.05248  0.019572285  0.019228181            2 
 2773000   0.79970339   -7.9285158    651.93212  0.019591661  0.019222536            1 
 2774000   0.80336085   -7.9056042    651.03177  0.019557551  0.019216904            1 
 2775000   0.81861722   -7.8835488    651.74393   0.01957189  0.019211291            2 
 2776000    0.8057127   -7.9024399    652.47296  0.019586724  0.019205689            1 
 2777000   0.80913662   -7.9016647    653.69429  0.019616321  0.019200112            3 
 2778000   0.82792683   -7.8987924    653.60368  0.019606542  0.019194544            3 
 2779000   0.82409983   -7.9202555     653.4848  0.019595922  0.019188957            2 
 2780000   0.81052256   -7.8788984    653.82449  0.019599055  0.019183417            3 
 2781000   0.79621081   -7.8683538    654.44745  0.019610675  0.019177856            2 
 2782000   0.80852748   -7.9026248    652.37402  0.019541517  0.019172289            2 
 2783000    0.7845235    -7.916254    653.10783  0.019556469  0.019166679            1 
 2784000   0.81002427   -7.8846567    652.57835  0.019533595  0.019161108            3 
 2785000   0.79421106   -7.9237738    651.73701  0.019501407  0.019155478            2 
 2786000   0.83284156   -7.9299519    653.35655   0.01954285  0.019149859            1 
 2787000   0.80203216   -7.9210097    651.96961  0.019494367  0.019144231            3 
 2788000   0.78625273   -7.8847181    653.44388  0.019531441  0.019138624            5 
 2789000   0.80054018   -7.9346669    651.39181  0.019463123  0.019132996            3 
 2790000   0.79029751   -7.9039763    653.00382  0.019504296  0.019127368            2 
 2791000    0.8158292   -7.9292917    654.35761  0.019537729  0.019121752            4 
 2792000   0.79302283    -7.921959    651.92744  0.019458197  0.019116116            2 
 2793000   0.79580053   -7.9365667    652.95091  0.019481767  0.019110473            2 
 2794000   0.80080865   -7.9417352    651.54886  0.019432977  0.019104795            4 
 2795000   0.81375358   -7.9264733    651.74267  0.019431803  0.019099089            3 
 2796000   0.79320341   -7.9563069    652.42333   0.01944514  0.019093429            2 
 2797000    0.7982812   -7.9075435    653.93884  0.019483341  0.019087791            2 
 2798000   0.79046072   -7.9286004    653.67964  0.019468657  0.019082168            2 
 2799000   0.79507882   -7.9401981     652.6589  0.019431312  0.019076536            4 
 2800000   0.80595031   -7.9142927    652.63416  0.019423636  0.019070914            3 
 2801000   0.81297155   -7.9357002    654.23551  0.019464344  0.019065302            4 
 2802000    0.8031481   -7.9482182    653.27628  0.019428869  0.019059669            2 
 2803000   0.80532648    -7.944174    653.30701  0.019422851  0.019054038            2 
 2804000   0.82373972   -7.9736452    652.30546  0.019386159  0.019048363            4 
 2805000   0.79704283   -7.9640206    650.67104   0.01933069  0.019042652            1 
 2806000   0.80446313   -7.9616914     651.6126  0.019351764  0.019036952            2 
 2807000   0.82138742   -7.9710393    651.44486   0.01933989  0.019031281            1 
 2808000   0.82107681   -7.9316238    650.72409  0.019311612  0.019025581            1 
 2809000   0.79128671   -7.9557827    651.10889  0.019316153   0.01901988            2 
 2810000   0.79810708   -7.9384434    653.71121  0.019386453  0.019014173            3 
 2811000   0.79374409   -7.9518161    653.24244   0.01936566  0.019008486            3 
 2812000   0.80684697   -7.9689884    652.27249  0.019330029  0.019002808            2 
 2813000   0.79945502   -7.9545549    652.54149  0.019331126  0.018997124            2 
 2814000   0.80484832     -7.93915    652.85104  0.019333423  0.018991425            3 
 2815000   0.81423669   -7.9588309    652.32892  0.019311099  0.018985722            3 
 2816000    0.8062759   -7.9578106     653.4261   0.01933671  0.018980048            2 
 2817000   0.80057467    -7.937213    653.57265  0.019334181   0.01897439            2 
 2818000   0.80924455   -7.9407977    653.36577  0.019321202  0.018968735            2 
 2819000   0.79990289   -7.9577329    652.81549  0.019298081  0.018963085            2 
 2820000    0.7781917   -7.9239126    654.77339  0.019349095   0.01895744            3 
 2821000   0.80908178   -7.9254789    654.89043  0.019345694  0.018951801            3 
 2822000   0.79227652   -7.9317643    652.92404  0.019280771  0.018946164            1 
 2823000   0.78254895   -7.9413189    655.39147  0.019346778   0.01894048            2 
 2824000   0.81348774   -7.9611897    654.78285  0.019321968  0.018934783            1 
 2825000   0.79563516   -7.9715485    652.92876  0.019260436  0.018929107            2 
 2826000   0.80156125   -7.9650149    652.28848  0.019234739   0.01892344            1 
 2827000   0.79829838   -7.9829231    653.06635  0.019250865  0.018917745            1 
 2828000   0.80490812   -7.9520502    653.40371  0.019253999  0.018912053            4 
 2829000   0.80020211   -7.9436322    653.81077  0.019259184  0.018906353            3 
 2830000   0.81717679   -7.9809427    652.90477    0.0192257  0.018900653            2 
 2831000     0.809555   -7.9432089    654.28649  0.019259581  0.018894975            1 
 2832000   0.79226653   -7.9531438    652.82486  0.019209771  0.018889287            1 
 2833000   0.78233656   -7.9325405    652.79018   0.01920197  0.018883617            1 
 2834000   0.80346905   -7.9550522    654.41059  0.019242843  0.018877939            1 
 2835000    0.8072478   -7.9551477    654.13922  0.019228078  0.018872274            2 
 2836000   0.79166647   -7.9045046    653.34927  0.019198086  0.018866592            1 
 2837000   0.81136829   -7.9568086    656.14412  0.019273414  0.018860935            1 
 2838000   0.78937875   -7.9219811    654.99938   0.01923301  0.018855284            4 
 2839000   0.80114084   -7.9371854     654.0648  0.019198802  0.018849618            2 
 2840000   0.80085607   -7.9497653    654.22572  0.019196764  0.018843952            2 
 2841000   0.80187464    -7.920214    653.84967  0.019178977   0.01883826            3 
 2842000   0.78812067   -7.9558209    652.58283  0.019135082  0.018832575            3 
 2843000   0.78154117   -7.9232854    655.13936  0.019203288   0.01882692            1 
 2844000   0.79518564   -7.9361348    654.39578  0.019174747  0.018821246            4 
 2845000   0.80491247   -7.9653043    653.95168  0.019154999  0.018815549            3 
 2846000   0.78691939   -7.9611617    652.95342  0.019119039   0.01880983            4 
 2847000    0.7976117   -7.9571693    654.16258  0.019147716  0.018804142            2 
 2848000   0.78214903   -7.9771463    652.58498  0.019094832  0.018798435            2 
 2849000   0.79794604   -7.9573827    652.97811  0.019099629  0.018792715            2 
 2850000   0.77524307   -7.9640987     652.4347  0.019077038  0.018786986            2 
 2851000    0.7996758   -7.9694976    653.57118  0.019103565  0.018781277            2 
 2852000   0.78924442   -7.9406542    652.43763  0.019063746  0.018775554            2 
 2853000   0.81720451   -7.9694048    654.37584  0.019113677  0.018769838            3 
 2854000    0.7963365   -7.9668935    655.71437  0.019146063  0.018764141            2 
 2855000   0.79672471   -7.9527542    655.30048  0.019127276   0.01875844            2 
 2856000   0.80791704   -7.9596732    655.10638  0.019114915  0.018752722            2 
 2857000   0.77504527   -7.9756819    654.36415  0.019086575  0.018747025            2 
 2858000   0.78295325   -7.9607131    654.45908  0.019082665  0.018741292            1 
 2859000   0.79906337   -7.9742242    655.29625  0.019100392  0.018735584            3 
 2860000   0.80184052   -7.9731622    653.99204  0.019055712  0.018729851            1 
 2861000   0.79937436   -7.9671386     656.3025  0.019116349  0.018724163            3 
 2862000   0.77895857   -7.9431876    654.19481    0.0190483  0.018718472            2 
 2863000   0.79424729   -7.9680488     655.8468  0.019089731  0.018712801            2 
 2864000    0.7975189   -7.9774806    654.90144  0.019055559   0.01870711            2 
 2865000   0.79151666   -8.0055093    655.17943  0.019056993  0.018701383            2 
 2866000   0.79256781   -7.9947556    653.25249  0.018994315  0.018695642            2 
 2867000   0.79938216    -7.958971    655.34038  0.019048377  0.018689917            5 
 2868000   0.80345107   -7.9656107    655.64697  0.019050644  0.018684222            3 
 2869000   0.78140456   -7.9853327    654.58052  0.019013028  0.018678553            5 
 2870000   0.79647106   -7.9675208    655.27727  0.019026634   0.01867286            1 
 2871000   0.80818414   -7.9872507     653.6454   0.01897264  0.018667192            1 
 2872000   0.79827374   -7.9539028    654.56931  0.018992842  0.018661506            2 
 2873000   0.78654566   -7.9704615    653.51834  0.018955747  0.018655811            1 
 2874000    0.7897461   -7.9542797    655.38914  0.019003396  0.018650133            3 
 2875000   0.79355033   -8.0135272    655.58172  0.019002369  0.018644469            1 
 2876000   0.79749858   -7.9725079    654.06015  0.018951673  0.018638787            3 
 2877000   0.78464238   -7.9847129    656.03437   0.01900227  0.018633078            2 
 2878000   0.80305036   -7.9788498    654.95831   0.01896451  0.018627373            3 
 2879000   0.77441793   -8.0178748    654.18307  0.018935483  0.018621702            2 
 2880000   0.77689692    -7.952948    656.93426  0.019008514   0.01861606            1 
 2881000   0.80563851   -7.9583588    657.29581  0.019012375  0.018610415            2 
 2882000   0.79013792    -7.979533    654.98058  0.018938832  0.018604759            3 
 2883000   0.77707289   -7.9796782    656.77457  0.018984119  0.018599118            4 
 2884000   0.79254167   -7.9853249     655.2499  0.018933481  0.018593484            2 
 2885000    0.7885394   -7.9607718    656.49722  0.018962947  0.018587831            4 
 2886000   0.80214432   -7.9901826    656.11251  0.018945268  0.018582188            3 
 2887000   0.79998842   -7.9613686    655.63943   0.01892505  0.018576549            2 
 2888000   0.77060974   -7.9428574    657.93186  0.018984645  0.018570925            2 
 2889000   0.79468643   -7.9748033    656.09021  0.018924951  0.018565298            2 
 2890000   0.78711499   -7.9933072    655.12706   0.01889063  0.018559665            3 
 2891000   0.78386761   -8.0219789    655.15927  0.018885025   0.01855403            3 
 2892000   0.78801436   -7.9754543    657.17848  0.018936678  0.018548378            3 
 2893000   0.78539398   -7.9931886    655.74493  0.018888839  0.018542745            2 
 2894000   0.78367682   -7.9961246    656.52812  0.018904864  0.018537096            4 
 2895000   0.78523732   -7.9857802    655.56229  0.018870532  0.018531467            3 
 2896000   0.79396855   -7.9616852    656.80169   0.01889968  0.018525835            3 
 2897000   0.78405141   -7.9569566    657.20879  0.018904867  0.018520244            2 
 2898000   0.78334215   -7.9565063     656.1152  0.018866897  0.018514661            2 
 2899000   0.79460912   -7.9609362    657.05932  0.018887528  0.018509081            2 
 2900000   0.78576101   -7.9683932    657.34125  0.018889116  0.018503477            2 
 2901000   0.79211401   -7.9792764    657.26054  0.018880287  0.018497891            2 
 2902000   0.79144259   -7.9924429     656.9828  0.018865805  0.018492283            1 
 2903000   0.78140365   -7.9899098    657.57188  0.018876217  0.018486672            2 
 2904000   0.77056651   -7.9965336    656.92879  0.018851262  0.018481073            2 
 2905000   0.79382086   -7.9884744    657.94081  0.018873804  0.018475445            3 
 2906000   0.78339987   -7.9984854    656.12588  0.018815264  0.018469826            1 
 2907000   0.78405753   -7.9770279    658.24706  0.018869598  0.018464215            1 
 2908000   0.79205895   -7.9535218    658.71252  0.018876448  0.018458615            4 
 2909000   0.78718217   -7.9975666    656.38474  0.018803275   0.01845303            6 
 2910000   0.79108635   -7.9770366    657.93704  0.018841267  0.018447452            2 
 2911000   0.78761539   -7.9725296    658.57799  0.018853143  0.018441909            2 
 2912000   0.79456643   -7.9730214    658.78847  0.018852692  0.018436352            1 
 2913000   0.79331343   -7.9881795    658.28513  0.018831821  0.018430773            2 
 2914000   0.79927622   -7.9982661    657.61385  0.018806161  0.018425206            2 
 2915000   0.77415698   -7.9712086    657.02277  0.018782812  0.018419632            3 
 2916000   0.76779093   -7.9950137    659.35706   0.01884308  0.018414088            5 
 2917000   0.79134357   -7.9892676    658.99785  0.018826358  0.018408579            1 
 2918000   0.78390001   -7.9824031    659.34223  0.018829742  0.018403045            2 
 2919000   0.78692068   -8.0336724    658.80396  0.018807924  0.018397484            2 
 2920000   0.79784103   -8.0040114    658.39777  0.018789891  0.018391927            3 
 2921000   0.78532322   -7.9675721    659.12867   0.01880431  0.018386379            2 
 2922000   0.77692324   -7.9939525    657.67052  0.018756289  0.018380809            2 
 2923000    0.7911682   -8.0348596    658.33541  0.018768828  0.018375232            1 
 2924000   0.79102316   -8.0204855    657.70295  0.018744384  0.018369603            3 
 2925000   0.79165908   -8.0045273     656.7343  0.018710379  0.018363997            2 
 2926000   0.79227366   -8.0238026    656.79333  0.018705666  0.018358403            4 
 2927000   0.77456748   -8.0329259    658.39465  0.018744865  0.018352807            2 
 2928000   0.77493535   -7.9980908    658.73699  0.018748207  0.018347257            1 
 2929000   0.77053518   -8.0244907    658.69226  0.018740533  0.018341719            2 
 2930000   0.78647689    -8.029365    658.14898  0.018718686  0.018336139            2 
 2931000   0.77916157   -7.9824038    659.02492  0.018737204  0.018330577            2 
 2932000    0.7763801   -8.0061402    657.77857  0.018695389  0.018325023            2 
 2933000   0.78127379   -7.9665584    657.82445  0.018690319  0.018319447            2 
 2934000   0.78301764   -7.9847367    659.26896  0.018724976  0.018313901            1 
 2935000   0.79699895   -7.9833352    658.86089   0.01870701  0.018308343            2 
 2936000    0.7820073   -7.9693706    659.65482  0.018723173  0.018302794            1 
 2937000   0.79578499   -7.9704925     660.2989  0.018735073  0.018297278            3 
 2938000   0.79344621   -7.9866224     659.3492  0.018701759  0.018291785            1 
 2939000   0.79781327   -7.9892401    658.67612  0.018676311  0.018286247            3 
 2940000   0.77795643    -7.993788    659.97653  0.018706818  0.018280712            1 
 2941000   0.78236803   -7.9640316    660.01578  0.018701569  0.018275238            3 
 2942000   0.79666933   -7.9904641    660.32503  0.018703972  0.018269741            2 
 2943000   0.77077527   -7.9640046    660.31171   0.01869724  0.018264253            1 
 2944000   0.79528604   -7.9897436    660.57227  0.018698264  0.018258781            2 
 2945000   0.76357947   -7.9884044    661.19171  0.018709443  0.018253292            1 
 2946000   0.79743076   -8.0212986    658.27481  0.018620582   0.01824782            2 
 2947000    0.7810431   -7.9887126    660.16361  0.018667674  0.018242313            3 
 2948000   0.78780489   -7.9920835    660.19913  0.018662345  0.018236814            3 
 2949000   0.77795397   -8.0037733    660.75962  0.018671855  0.018231319            2 
 2950000   0.79278992   -8.0153544    658.25493  0.018594772  0.018225801            1 
 2951000   0.77013004    -8.005461    659.78805  0.018631765  0.018220289            3 
 2952000   0.78847256   -8.0289911    659.10449  0.018606157  0.018214759            1 
 2953000   0.77174982   -8.0358975    659.13011  0.018600579  0.018209259            2 
 2954000   0.78492181   -8.0285315    659.25223  0.018597727  0.018203759            1 
 2955000   0.78609807   -8.0130856    659.10968  0.018587413  0.018198256            2 
 2956000   0.78053275    -7.972266    660.16412  0.018610851  0.018192747            2 
 2957000   0.77629047   -8.0149422    661.40922  0.018639647  0.018187253            1 
 2958000   0.77438004   -7.9909032    661.80505  0.018644497  0.018181776            1 
 2959000   0.77438193   -8.0061903    660.20951  0.018593261  0.018176263            1 
 2960000   0.77348924   -7.9951713     660.0227   0.01858172  0.018170737            1 
 2961000   0.77871637   -7.9852775    659.15932  0.018551146  0.018165227            2 
 2962000   0.77773561   -8.0104995    660.76944  0.018590182  0.018159705            2 
 2963000   0.78574355   -7.9630643    659.48875  0.018547889  0.018154193            4 
 2964000   0.77106293   -7.9686554    660.05271  0.018557487  0.018148701            3 
 2965000   0.79431889   -7.9973305    660.01576   0.01855019  0.018143198            2 
 2966000   0.76292222   -7.9960259    661.77124  0.018593258  0.018137688            3 
 2967000   0.78896111   -7.9929868    661.75605  0.018586565  0.018132175            2 
 2968000   0.78701156   -7.9999718    659.42133   0.01851475  0.018126655            3 
 2969000   0.78598956   -8.0173587     658.1101   0.01847171  0.018121107            2 
 2970000   0.79422613   -7.9968714    660.16538  0.018523159   0.01811555            3 
 2971000    0.7608161   -7.9873446    660.95361  0.018539033  0.018109992            1 
 2972000   0.78753175   -8.0291051     659.7685  0.018499565  0.018104433            3 
 2973000    0.7828972   -8.0033057    659.69396  0.018491253  0.018098886            5 
 2974000   0.78397175   -8.0022374    661.35314  0.018531527  0.018093336            2 
 2975000   0.78621324   -8.0188127    658.61661  0.018448645  0.018087796            1 
 2976000   0.78070781   -8.0356781    659.45476  0.018465915  0.018082254            2 
 2977000   0.76980379   -8.0029242    658.50455  0.018433114   0.01807672            3 
 2978000   0.77041417   -7.9985992    660.76512  0.018490181  0.018071186            3 
 2979000   0.77814784    -8.030276    659.94599   0.01846106  0.018065668            4 
 2980000   0.78887407   -7.9826458    659.93075  0.018454439  0.018060171            4 
 2981000   0.76764145   -7.9622457    660.89909  0.018475318  0.018054685            2 
 2982000   0.78247684   -8.0223697    661.02086  0.018472526  0.018049203            2 
 2983000   0.78663142   -8.0183531      661.408  0.018477148    0.0180437            2 
 2984000   0.76822072   -8.0140613     660.5172  0.018446079  0.018038199            2 
 2985000   0.77280191    -7.978412    660.60396  0.018442322  0.018032668            1 
 2986000   0.77698712   -8.0018989    661.01728   0.01844768  0.018027157            2 
 2987000   0.76934776   -8.0013303    661.44049  0.018453311  0.018021639            2 
 2988000    0.7815266   -7.9986179    661.67691  0.018453729  0.018016114            2 
 2989000    0.7805136   -8.0145905    659.53014  0.018387703  0.018010565            2 
 2990000   0.76755903   -8.0026326     659.7319  0.018387177   0.01800503            2 
 2991000   0.78909463   -7.9924424    660.83407  0.018411737  0.017999502            3 
 2992000   0.75590423   -8.0134363    660.48798  0.018395944  0.017993955            4 
 2993000   0.76614332   -8.0473208    658.96753  0.018347464  0.017988386            3 
 2994000   0.76726342   -8.0095812    661.67593   0.01841672  0.017982824            1 
 2995000   0.75842015   -8.0460588    658.80777  0.018330767  0.017977242            2 
 2996000   0.77532481   -8.0360425    659.24324  0.018336761  0.017971642            2 
 2997000   0.77265482   -8.0440189    659.51596  0.018338226  0.017966052            1 
 2998000   0.77389323   -8.0245835    659.60152  0.018334488  0.017960474            2 
 2999000   0.78344682    -8.052518    658.36717  0.018294075  0.017954898            3 
 3000000    0.7565975   -8.0336821     658.9285   0.01830357  0.017949305            2 
 3001000   0.77933572    -8.055351    660.07553  0.018329322  0.017943714            2 
 3002000   0.78345684   -8.0335813    659.05531  0.018294895    0.0179381            2 
 3003000   0.75612404   -8.0379436    657.89546  0.018256617  0.017932484            2 
 3004000   0.75285973   -8.0336325    659.46312  0.018294028   0.01792687            2 
 3005000   0.76629503    -7.998864    659.21141   0.01828096   0.01792126            3 
 3006000   0.76670608   -8.0370546    657.97023   0.01824047  0.017915649            2 
 3007000   0.77707716   -8.0617307    657.45734   0.01822019  0.017910042            1 
 3008000    0.7615453   -8.0193793    659.49456  0.018270572  0.017904458            2 
 3009000   0.76204004     -8.05925    657.92911  0.018221145  0.017898859            2 
 3010000   0.77370593   -8.0246546    661.17346  0.018304913  0.017893269            3 
 3011000   0.76791102   -8.0331775    661.18609  0.018299183  0.017887691            2 
 3012000   0.77644157   -7.9915941    659.55285  0.018247921  0.017882112            2 
 3013000   0.75825081   -8.0270994    659.77276  0.018247947  0.017876524            1 
 3014000   0.78444004   -8.0128249    659.66884  0.018239019  0.017870941            1 
 3015000   0.78033633   -8.0530049    659.33091  0.018223629  0.017865364            3 
 3016000   0.76052655   -8.0201068    662.35457  0.018301132  0.017859795            2 
 3017000   0.76551964   -8.0284505    659.50619   0.01821639  0.017854219            2 
 3018000   0.76662448   -8.0373778     661.1249   0.01825505  0.017848639            4 
 3019000   0.78174652    -8.023927    658.89387   0.01818742  0.017843049            1 
 3020000   0.78035312   -8.0507057    658.26334  0.018163999   0.01783747            4 
 3021000   0.75255617   -8.0265791     661.1913  0.018238754  0.017831912            5 
 3022000   0.75474431   -8.0195376    660.76941  0.018221085  0.017826329            3 
 3023000   0.76975668    -8.084447     658.3326  0.018147883  0.017820759            5 
 3024000   0.76871577   -8.0362089    658.65306  0.018150713   0.01781516            3 
 3025000   0.76590281   -8.0407449    658.08899  0.018129173  0.017809551            1 
 3026000   0.76693133   -8.0588255    658.74086  0.018141134  0.017803936            1 
 3027000   0.76077365   -8.0182287    659.53072  0.018156886  0.017798342            2 
 3028000   0.76773244   -8.0390439    660.56649  0.018179395  0.017792747            3 
 3029000   0.74766026   -8.0347749    660.13145  0.018161424  0.017787167            2 
 3030000   0.78878399   -8.0327082    659.84914  0.018147666  0.017781598            2 
 3031000   0.76869194   -8.0739176    660.59145  0.018162088  0.017776025            1 
 3032000      0.76105   -8.0373103    660.98099  0.018166804  0.017770448            1 
 3033000   0.73821906   -8.0482272    661.38308  0.018171862  0.017764866            5 
 3034000   0.77696413   -8.0168662    659.89389   0.01812497  0.017759302            8 
 3035000   0.77926465   -8.0399341    659.91695  0.018119631  0.017753736            2 
 3036000     0.757521   -8.0242644    660.42487  0.018127604  0.017748179            2 
 3037000   0.76584797   -8.0372795    661.51675  0.018151596  0.017742608            4 
 3038000   0.77794294   -8.0187341    661.12366  0.018134838  0.017737036            2 
 3039000   0.77665477   -8.0636938    659.20566  0.018076277  0.017731459            7 
 3040000    0.7766408   -8.0423997    659.61711  0.018081609  0.017725866            3 
 3041000   0.76324019   -8.0533675     659.3509  0.018068368  0.017720252            3 
 3042000    0.7632627   -8.0701584    660.18398   0.01808525  0.017714663            3 
 3043000    0.7604218   -8.0588076    660.55574  0.018089488  0.017709055            2 
 3044000   0.76476456    -8.058106    660.70862   0.01808773  0.017703462            2 
 3045000   0.76691107   -8.0710083    660.36243  0.018072316  0.017697881            6 
 3046000   0.74731748   -8.0203595    660.28038  0.018064138  0.017692334            3 
 3047000   0.77954302   -8.0189845    659.95817  0.018049397  0.017686805            1 
 3048000   0.76135245   -8.0126638    659.97689  0.018043987  0.017681282            2 
 3049000   0.78418336    -8.011404     662.6073  0.018109962  0.017675762            2 
 3050000   0.78321341   -8.0331305    660.86365  0.018056384  0.017670211            2 
 3051000    0.7563009   -8.0593098    659.88762  0.018023807  0.017664635            5 
 3052000    0.7716117   -8.0235395    661.79624  0.018070015  0.017659068            1 
 3053000   0.76278153   -8.0093271    661.32327  0.018051186  0.017653529            2 
 3054000   0.76678122   -8.0393476    660.17361  0.018013905  0.017647981            2 
 3055000   0.75033443   -8.0508116    659.99365    0.0180031  0.017642415            1 
 3056000   0.77889502   -8.0560251    661.35475  0.018034325  0.017636832            9 
 3057000   0.76523457   -8.0690517    660.44364  0.018003588  0.017631263            1 
 3058000   0.76335257   -8.0640329    661.01326  0.018013224  0.017625684            2 
 3059000   0.75200071   -8.0388039    662.26132  0.018041335  0.017620099            3 
 3060000   0.75296844   -8.0663754    659.31268  0.017955138  0.017614503            4 
 3061000   0.75069226   -8.0579878    661.32107  0.018003949  0.017608942            2 
 3062000   0.76799115   -8.0742242    660.69607   0.01798106  0.017603342            2 
 3063000   0.75784994   -8.0425219    660.24075  0.017962802  0.017597746            4 
 3064000   0.77356696   -8.0312803    660.25478  0.017957321   0.01759218            2 
 3065000   0.78542966   -8.0381705    660.78684  0.017965928  0.017586628            2 
 3066000   0.77313955   -8.0442723    661.99746  0.017992973  0.017581064            2 
 3067000   0.76704229   -8.0377921     660.3422  0.017942131  0.017575506            2 
 3068000   0.76182994   -8.0688622    660.79311  0.017948531  0.017569934            3 
 3069000   0.75931014   -8.0445414    661.11209  0.017951344  0.017564376            2 
 3070000   0.76536683   -8.0688827    660.58057  0.017931069  0.017558802            2 
 3071000   0.76481262   -8.0358948    661.28307  0.017944293  0.017553252            2 
 3072000   0.77401012   -8.0955695    659.54103  0.017891196  0.017547678            2 
 3073000   0.74535335   -8.0374664    660.64754   0.01791538  0.017542085            2 
 3074000   0.76076154    -8.070989    660.69497  0.017910837  0.017536519            3 
 3075000   0.76838886   -8.0559822    661.33272  0.017922296  0.017530955            2 
 3076000   0.76234012   -8.0574908    661.85059  0.017930499  0.017525386            2 
 3077000   0.77133745   -8.0390913    660.98059   0.01790111  0.017519843            2 
 3078000     0.764637   -8.0458285    660.83625  0.017891386  0.017514319            4 
 3079000   0.74827331    -8.047232    661.38743  0.017900493  0.017508783            3 
 3080000   0.74797272   -8.0685579    660.87732   0.01788088  0.017503261            4 
 3081000   0.75572672   -8.0431376    662.19667  0.017910762  0.017497735            2 
 3082000   0.76142822   -8.0722712    661.72178  0.017892109  0.017492216            3 
 3083000   0.74500471   -8.0820265    661.71876  0.017886224  0.017486697            1 
 3084000   0.76339581   -8.0731627    661.46684  0.017873618  0.017481169            2 
 3085000   0.75292685   -8.0693702    661.45749  0.017867571  0.017475659            2 
 3086000   0.76524358   -8.0631675     660.6655  0.017840395  0.017470152            3 
 3087000   0.76211765   -8.0260677    662.85256  0.017893655  0.017464667            2 
 3088000   0.75928699   -8.0250475    661.60249  0.017854126  0.017459176            5 
 3089000   0.77481404   -8.0598485    662.87738  0.017882739  0.017453661            2 
 3090000   0.76571135   -8.0610183    662.36883  0.017863237  0.017448145            2 
 3091000   0.77461774   -8.0562365    662.85298  0.017870511  0.017442636            1 
 3092000   0.74882706   -8.0288769    662.64836  0.017859216  0.017437141            2 
 3093000   0.76402873   -8.0174286    662.62216  0.017852736   0.01743168            3 
 3094000   0.74562126   -8.0445836    663.86486  0.017880437  0.017426208            3 
 3095000   0.75203825   -8.0433754    662.53775  0.017838927  0.017420727            1 
 3096000   0.74456341   -8.0804942    662.72763  0.017838276  0.017415234            2 
 3097000   0.77227776   -8.0555937    662.59832  0.017829037  0.017409739            2 
 3098000   0.76277126    -8.085214    661.53968  0.017794805  0.017404265            2 
 3099000   0.77660114   -8.0658585    660.45503  0.017759896  0.017398761            3 
 3100000   0.74288319   -8.0665329    661.62822  0.017785705  0.017393251            2 
 3101000   0.76768499   -8.0569609    661.46861   0.01777568  0.017387743            3 
 3102000   0.73919339    -8.050347    663.70454  0.017830017  0.017382233            3 
 3103000   0.73948926   -8.0521937    662.26352  0.017785571  0.017376724            3 
 3104000   0.74394634   -8.0586341    662.90758  0.017797132  0.017371211            4 
 3105000    0.7471351   -8.0435355     663.5684  0.017809136  0.017365679            5 
 3106000   0.75204475   -8.0619692    662.27536   0.01776871   0.01736018            6 
 3107000   0.77767702   -8.0651346    662.32219  0.017764247  0.017354681            3 
 3108000   0.75989548   -8.0512237    662.57314   0.01776526  0.017349195            3 
 3109000   0.76101852   -8.0543951    663.09068  0.017773418  0.017343724            3 
 3110000     0.740482   -8.0558162    662.87295  0.017761869  0.017338236            2 
 3111000   0.74021188   -8.0656508    662.32505  0.017741483  0.017332729            1 
 3112000   0.74141519   -8.0513307    663.03632  0.017754829  0.017327233            4 
 3113000   0.75555853   -8.0779781    662.22449  0.017727393  0.017321716            3 
 3114000    0.7475183   -8.0561429    661.46259  0.017701311  0.017316205            3 
 3115000   0.76496025    -8.079916    662.43631  0.017721678  0.017310665            1 
 3116000   0.75475715   -8.1063032    661.52157  0.017691527   0.01730511            3 
 3117000   0.73698644   -8.0790898    661.96664   0.01769775  0.017299575            1 
 3118000    0.7476165   -8.0731511    661.54347  0.017680764  0.017294053            8 
 3119000   0.75385028   -8.0752574    660.59856  0.017649849  0.017288534            1 
 3120000   0.76777974   -8.0695706    662.01646  0.017682064  0.017282998            3 
 3121000   0.75992411   -8.0748214    662.33107  0.017684798  0.017277479            1 
 3122000   0.73905053   -8.0618383     660.5188   0.01763076  0.017271938            2 
 3123000   0.74808844   -8.0591104     661.7904  0.017659046  0.017266409            3 
 3124000   0.74969129   -8.0798686    662.78325  0.017679878  0.017260892            2 
 3125000   0.74518198   -8.0631602    661.73879  0.017646368  0.017255369            2 
 3126000    0.7696764   -8.0843334    661.52925  0.017635137  0.017249857            3 
 3127000   0.77352505   -8.0858147    662.09606  0.017644602  0.017244344            2 
 3128000   0.75100112   -8.0705723    662.18899  0.017641437  0.017238821            1 
 3129000   0.73102958   -8.0511459    663.28917    0.0176651  0.017233288            2 
 3130000   0.74520373   -8.0599625    661.16131  0.017602804  0.017227773            3 
 3131000   0.74714366    -8.086884    661.55326  0.017607614  0.017222248            6 
 3132000   0.75933891   -8.1010656    660.94529  0.017585816   0.01721671            2 
 3133000   0.75748241   -8.0690008     662.5356  0.017622502  0.017211209            2 
 3134000   0.74884913   -8.0487999    662.94676  0.017627812  0.017205705            3 
 3135000   0.75942044   -8.0780115    661.30648  0.017578588  0.017200215            3 
 3136000   0.74973996   -8.0707609    661.49831   0.01757808  0.017194722            2 
 3137000   0.73777475   -8.0575303    663.22514  0.017618349  0.017189232            1 
 3138000   0.75541915   -8.0438084    662.12146  0.017583425  0.017183733            3 
 3139000   0.76503594   -8.0791445    660.80605  0.017542902  0.017178226            2 
 3140000   0.74330667   -8.0787292    663.10295  0.017598274    0.0171727            3 
 3141000   0.74830306    -8.111378    662.75884  0.017583541  0.017167187            2 
 3142000   0.74911146   -8.0966018    662.52758  0.017571811  0.017161684            1 
 3143000   0.75611381   -8.0874358    662.67001  0.017569997  0.017156177            3 
 3144000    0.7559129    -8.100398    661.39961  0.017530736  0.017150646            3 
 3145000   0.75917989   -8.0919464    662.32422  0.017549661  0.017145134            1 
 3146000   0.74062419   -8.0831194    663.24076  0.017568361  0.017139626            1 
 3147000   0.72560225   -8.0891896    663.01661  0.017556843  0.017134109            3 
 3148000   0.74034204   -8.0745242    664.06257  0.017578954  0.017128609            3 
 3149000   0.75729999   -8.0641941    661.91191  0.017516458  0.017123131            2 
 3150000   0.73379991   -8.0657744    661.74073  0.017506369  0.017117675            2 
 3151000   0.75148075   -8.0891216    663.64101  0.017551069  0.017112221            5 
 3152000   0.75588864    -8.079628    663.24986  0.017535159  0.017106757            1 
 3153000   0.73592373   -8.0785778     663.2216  0.017528851  0.017101297            1 
 3154000   0.75449018   -8.0712272    662.40569  0.017501736  0.017095825            1 
 3155000   0.74928671   -8.0460585    663.62318  0.017528346  0.017090349            3 
 3156000   0.74487331    -8.066718    663.46457  0.017518604  0.017084882            5 
 3157000   0.74430141   -8.0740259    662.11302  0.017477379  0.017079407            2 
 3158000   0.74462881   -8.0673744    661.81714  0.017464037  0.017073943            2 
 3159000   0.74519563   -8.0823185    662.33714  0.017472226  0.017068481            2 
 3160000   0.74964893   -8.1074988    661.47216  0.017443886  0.017063012            1 
 3161000   0.75195726   -8.0911888    662.60492  0.017468231  0.017057532            2 
 3162000   0.75694673   -8.0650101    662.95459  0.017471922  0.017052064            2 
 3163000   0.73687428   -8.0856665    661.66115   0.01743232  0.017046589            3 
 3164000   0.73510581   -8.0546234    664.31657  0.017496749  0.017041125            1 
 3165000   0.74403362   -8.1020359    662.94082  0.017454998  0.017035679            3 
 3166000   0.74102087     -8.07295     662.7679  0.017444933  0.017030222            1 
 3167000   0.73228838   -8.0637684    663.54183  0.017459789  0.017024777            1 
 3168000   0.74332565   -8.0888612    663.68189  0.017457962  0.017019364            3 
 3169000   0.73739369   -8.0684069    663.80791  0.017455767  0.017013953            2 
 3170000   0.74640923   -8.1123456    665.14055  0.017485293  0.017008542            4 
 3171000   0.74785839   -8.0675448    664.91802  0.017473931  0.017003142            1 
 3172000   0.74957372    -8.098821    663.38738   0.01742821  0.016997719            5 
 3173000   0.73765895   -8.1040754    664.68368  0.017456762  0.016992301            2 
 3174000   0.74429539   -8.0832132     664.7698  0.017453524  0.016986907            3 
 3175000   0.75143042   -8.0934318    664.35551  0.017437153   0.01698153            2 
 3176000   0.75343768    -8.106347    665.42626  0.017459757  0.016976119            2 
 3177000   0.75801582   -8.0875723    664.15601  0.017420943  0.016970685            1 
 3178000   0.74876987   -8.0918231    664.42126  0.017422416  0.016965263            3 
 3179000   0.73556012   -8.0912428    663.45256  0.017391543  0.016959821            5 
 3180000   0.73110439   -8.0943898    662.60084  0.017363754  0.016954407            1 
 3181000   0.74047498   -8.0738574    664.30043   0.01740282  0.016948995            1 
 3182000   0.73771157   -8.0784208    665.32002  0.017424052  0.016943605            2 
 3183000   0.73359344     -8.08829    663.04224  0.017358944  0.016938203            4 
 3184000   0.74815819   -8.1203146    662.90764   0.01734997  0.016932782            2 
 3185000    0.7382198   -8.0934973    664.44183  0.017384663  0.016927377            4 
 3186000   0.73031197   -8.0954695    663.29708  0.017349264  0.016921976            2 
 3187000    0.7334974   -8.0965671    663.30646  0.017344066   0.01691657            4 
 3188000   0.74058788   -8.0825512    663.67282  0.017348202  0.016911153            5 
 3189000   0.71793367   -8.1082324    664.12021  0.017354453  0.016905728            2 
 3190000   0.75189988   -8.0687088    664.39253  0.017356127  0.016900334            2 
 3191000   0.74205524   -8.0917059    665.36905   0.01737619   0.01689494            1 
 3192000    0.7295157   -8.1263561    663.95935  0.017333943  0.016889537            2 
 3193000    0.7493701   -8.1110099    664.45376  0.017341418  0.016884118            4 
 3194000   0.75501738   -8.1364963    663.96479  0.017323231   0.01687872            2 
 3195000    0.7421644    -8.104117    663.58805  0.017307982  0.016873304            2 
 3196000   0.73994116    -8.088649    665.29398  0.017347048  0.016867917            5 
 3197000   0.73236398   -8.0968636    664.28895  0.017315425  0.016862497            1 
 3198000   0.72445131   -8.1087115    663.60901  0.017292292  0.016857097            2 
 3199000   0.74045607   -8.1018218    663.97342   0.01729638  0.016851683            1 
 3200000   0.73106419   -8.1137724    663.39343  0.017275871  0.016846264            2 
 3201000   0.74096331   -8.0944021     663.9521  0.017285018  0.016840854            1 
 3202000   0.75058146   -8.1064235    664.92106  0.017304837  0.016835442            3 
 3203000   0.73148225    -8.118181    663.75391  0.017269068  0.016830022            5 
 3204000   0.73292755    -8.081837    664.25808  0.017276792   0.01682459            1 
 3205000   0.74286006   -8.1078569    663.31339  0.017246838  0.016819141            3 
 3206000   0.75378077   -8.1039601    664.41906  0.017270198  0.016813712            2 
 3207000   0.74825459   -8.1112323    663.66699  0.017245271  0.016808292            2 
 3208000   0.74934579   -8.1107034    664.05038  0.017249854  0.016802884            2 
 3209000   0.74768369   -8.1131571    664.01191  0.017243479  0.016797471            2 
 3210000   0.74668728   -8.1296054    665.13102  0.017267161  0.016792045            2 
 3211000   0.74572602    -8.086183    665.75713  0.017278032  0.016786652            2 
 3212000   0.74055116   -8.0978922    664.09147  0.017229438  0.016781244            2 
 3213000   0.72902631   -8.1069139    663.87726   0.01721852  0.016775845            2 
 3214000   0.73240408   -8.0921417    664.04762   0.01721758  0.016770448            1 
 3215000   0.74370556    -8.131287    663.23493  0.017191159  0.016765041            2 
 3216000   0.73826237   -8.1138484     664.5153  0.017218991  0.016759619            3 
 3217000   0.72734214   -8.1166606    663.44079  0.017185804  0.016754194            1 
 3218000   0.72984241   -8.1133085    663.74596  0.017188366  0.016748775            2 
 3219000   0.71922029   -8.1043644    663.05203  0.017165062  0.016743361            3 
 3220000   0.72601984   -8.1295333      663.893  0.017181496  0.016737951            3 
 3221000   0.73759999   -8.1135506    663.29657  0.017160731  0.016732516            2 
 3222000   0.74576085   -8.1248882    662.78095  0.017142069  0.016727094            2 
 3223000    0.7431615   -8.1036247    662.83374  0.017138115  0.016721656            2 
 3224000    0.7391028   -8.1402058     662.2249  0.017117062  0.016716224            3 
 3225000   0.75874559    -8.096735    665.40219  0.017193855  0.016710797            3 
 3226000   0.74723924   -8.0990584    662.19848  0.017105768  0.016705395            2 
 3227000   0.75243318   -8.0987276    664.03999  0.017148022   0.01670002            2 
 3228000   0.75406031   -8.1186867    663.76394  0.017135583  0.016694637            2 
 3229000    0.7459368   -8.1250776    663.36771   0.01712005  0.016689244            3 
 3230000   0.74469566   -8.1069287    663.59683  0.017120661   0.01668383            2 
 3231000   0.74052593   -8.0947179    663.74536  0.017119193  0.016678426           11 
 3232000   0.75717615   -8.1081011    663.64518  0.017111314  0.016673028            4 
 3233000   0.74567478   -8.1210907    663.73801  0.017108414  0.016667622            2 
 3234000   0.72205673   -8.1208982    664.17019   0.01711426  0.016662229            1 
 3235000   0.73569673   -8.1304594    662.83885  0.017074674  0.016656843            3 
 3236000   0.73966167   -8.1223112    662.83171  0.017069214  0.016651463            4 
 3237000   0.72181002   -8.1420104    663.14888  0.017072106  0.016646055            3 
 3238000   0.75788289   -8.1411251    663.35192  0.017072059   0.01664064            2 
 3239000   0.71633661   -8.1337044     662.9017  0.017055205  0.016635207            1 
 3240000   0.72051765   -8.1367009    662.68206  0.017044292  0.016629794            1 
 3241000   0.72860265   -8.1402992    664.22843  0.017078793  0.016624399            1 
 3242000   0.73532362    -8.124963    664.39797  0.017077883  0.016619014            3 
 3243000   0.72449831   -8.0860137    664.12709  0.017065657  0.016613652            4 
 3244000   0.72651955   -8.1062417    664.07692  0.017059107  0.016608264            1 
 3245000   0.73175103   -8.1207796    664.22273  0.017057594    0.0166029            3 
 3246000   0.72538521   -8.1090188    663.94529  0.017045217  0.016597531            4 
 3247000   0.73966128   -8.1137509    664.63043  0.017057551  0.016592177            3 
 3248000   0.74036049   -8.1056561    666.83416   0.01710884   0.01658681            3 
 3249000   0.72694399   -8.1245138    663.81091  0.017026031  0.016581451            2 
 3250000   0.74399464   -8.1052561    663.72773   0.01701866  0.016576082            2 
 3251000   0.72493931   -8.1112263    664.66431  0.017037432  0.016570699            1 
 3252000   0.73598934   -8.1107015    664.06054  0.017016721  0.016565313            2 
 3253000   0.72354207   -8.1250498    663.06942  0.016986101  0.016559916            2 
 3254000   0.71272788   -8.1289783     664.2713   0.01701166   0.01655455            1 
 3255000   0.74416997   -8.1017319    665.56718   0.01703961  0.016549181            2 
 3256000   0.72407591   -8.1485318    663.40018  0.016978915   0.01654381            2 
 3257000   0.73918801   -8.1399818    663.57995  0.016978302  0.016538437            2 
 3258000    0.7334401   -8.1205458    662.35463  0.016941749  0.016533058            2 
 3259000   0.72529624   -8.1260321    663.58596  0.016968036   0.01652769            2 
 3260000   0.74065119   -8.1504678    663.95679   0.01697231  0.016522323            2 
 3261000   0.72226421   -8.1435054    663.01975   0.01694316  0.016516952            2 
 3262000   0.71597792   -8.1600169    663.74161  0.016956407  0.016511582            1 
 3263000     0.742943   -8.1255128    665.10207  0.016985955   0.01650621            2 
 3264000   0.73031329   -8.1142155    665.44813  0.016989587  0.016500847            4 
 3265000   0.73042779   -8.1373108    664.18967  0.016952263  0.016495478            3 
 3266000   0.72050194   -8.1418661    664.88569  0.016964832  0.016490124            1 
 3267000   0.71294324   -8.1282947    665.54368  0.016976423  0.016484767            3 
 3268000   0.72813427   -8.1359037    663.68413   0.01692381  0.016479417            2 
 3269000   0.73130146   -8.1386021    663.29959   0.01690883   0.01647404            3 
 3270000   0.73991308   -8.1448485    663.74116  0.016914912   0.01646867            1 
 3271000   0.70516473   -8.1532838    664.42513  0.016927166  0.016463285            5 
 3272000   0.72784466   -8.1295475    663.65759  0.016902445  0.016457911            1 
 3273000    0.7321191   -8.1207345    663.35416  0.016889555   0.01645255            1 
 3274000   0.73006885   -8.1445454    663.76862  0.016894946  0.016447168            3 
 3275000   0.71672807   -8.1508494    664.21984  0.016901268  0.016441789            4 
 3276000   0.72440193   -8.1498551    663.48723  0.016877473  0.016436409            2 
 3277000   0.73621419   -8.1807436    664.05552  0.016886774  0.016431031            3 
 3278000   0.71848477   -8.1731686    663.90384  0.016877767  0.016425651            1 
 3279000   0.73479888    -8.154188    664.74563  0.016894013  0.016420277            2 
 3280000   0.72796105   -8.1578482    663.75781  0.016863765  0.016414932            1 
 3281000   0.73027582   -8.1499846    664.27962  0.016871879  0.016409579            1 
 3282000   0.73875868   -8.1398103    662.95103  0.016833004  0.016404244            3 
 3283000   0.71491272   -8.1611694    664.11631  0.016857455  0.016398902            5 
 3284000   0.73065456   -8.1567642    664.64798  0.016865814  0.016393572            1 
 3285000   0.72447756   -8.1550002    664.92065  0.016867596  0.016388245            1 
 3286000   0.71292505    -8.171263    666.50792  0.016902717  0.016382902            2 
 3287000   0.73005089   -8.1464931     664.4912  0.016846445  0.016377556            2 
 3288000   0.72962498   -8.1821566    665.01895  0.016854698  0.016372235            1 
 3289000   0.73594872   -8.1599162    664.98707  0.016848765  0.016366906            2 
 3290000   0.72725112   -8.1869321    663.73709  0.016811983  0.016361577            2 
 3291000   0.73917046   -8.1692024    664.28325  0.016820704  0.016356264            5 
 3292000   0.72340111   -8.1440557    665.89713  0.016856448  0.016350941            1 
 3293000   0.74489891   -8.1497735    665.65821  0.016845283  0.016345626            3 
 3294000   0.73009206   -8.1434408    665.57108  0.016837965  0.016340296            1 
 3295000   0.70937713   -8.1607093    665.14536  0.016822088  0.016334981            2 
 3296000    0.7146159   -8.1585996    663.75444  0.016781817   0.01632964            2 
 3297000   0.74713149    -8.129204    665.00468  0.016808328   0.01632432            4 
 3298000   0.72412192   -8.1447114     663.7457  0.016771419  0.016318999            3 
 3299000   0.70152388   -8.1384052    664.83811   0.01679393  0.016313668            5 
 3300000    0.7315767   -8.1417325    664.62732  0.016783518   0.01630834            2 
 3301000    0.7193944   -8.1516354    663.72281    0.0167556  0.016303007            4 
 3302000   0.71530933   -8.1362391    664.93641  0.016781153  0.016297675            2 
 3303000   0.71576801   -8.1700705    665.85916  0.016799353  0.016292343            3 
 3304000   0.71076605   -8.1398828    663.81178   0.01674263   0.01628701            1 
 3305000   0.73642611   -8.1615154    664.91886  0.016765478  0.016281669            2 
 3306000   0.71637197    -8.157889    665.20515  0.016767623  0.016276338            4 
 3307000   0.73204903   -8.1447336    664.84183  0.016753398  0.016271011            1 
 3308000   0.71983155    -8.154228    665.36264  0.016761453  0.016265714            1 
 3309000   0.72617344   -8.1330276    665.86685  0.016769086  0.016260427            2 
 3310000   0.73209319   -8.1556832    665.36773  0.016751453  0.016255129            5 
 3311000   0.71429928   -8.1471718    666.07519    0.0167642  0.016249834            1 
 3312000   0.71924172   -8.1433304    666.82664  0.016778045  0.016244543            2 
 3313000   0.70225315   -8.1345835    665.28292  0.016734151  0.016239244            1 
 3314000   0.72423656   -8.1410817    664.94542  0.016720615  0.016233949            3 
 3315000   0.72904865   -8.1423811    665.24542  0.016723113  0.016228652            2 
 3316000   0.72455361   -8.1493639    665.39052  0.016721716  0.016223358            2 
 3317000   0.72968831   -8.1431465    666.88769  0.016754288  0.016218075            3 
 3318000   0.71551112    -8.143092    666.17231  0.016731272  0.016212796            2 
 3319000   0.72344758   -8.1467317    665.89418  0.016719247   0.01620752            3 
 3320000   0.72265257   -8.1564555    665.04858  0.016692986  0.016202251            2 
 3321000   0.73411313    -8.153646    664.24516    0.0166678  0.016196968            3 
 3322000   0.72138666   -8.1557647    664.98567  0.016681358  0.016191686            3 
 3323000   0.71874932    -8.154182    664.80761  0.016671873  0.016186401            3 
 3324000   0.70391933   -8.1671916    666.18681  0.016701434   0.01618114            4 
 3325000   0.73771113   -8.1774605    664.86474  0.016663277  0.016175878            2 
 3326000   0.70941118   -8.1756899    664.63586  0.016652532  0.016170599            3 
 3327000   0.71814071   -8.1706379    664.72277  0.016649704  0.016165287            4 
 3328000   0.71868914   -8.1542746    664.90099  0.016649163  0.016160001            2 
 3329000    0.7366651   -8.1663771    665.82664  0.016667334  0.016154724            2 
 3330000    0.7374858   -8.1575332    664.38552  0.016626264  0.016149457            1 
 3331000   0.73366249   -8.1574671    666.20167  0.016666709  0.016144193            3 
 3332000   0.72525549   -8.1655766    664.22167  0.016612187  0.016138922            5 
 3333000   0.71251059   -8.1437256    665.35942  0.016635649  0.016133655            2 
 3334000   0.73609168   -8.1729332    664.56979  0.016610923  0.016128401            3 
 3335000   0.71716126   -8.1486895    665.24419  0.016622793   0.01612315            2 
 3336000   0.70314902   -8.1562617    666.81676  0.016657093  0.016117907            2 
 3337000   0.71624789   -8.1859506    665.00705  0.016606909  0.016112641            1 
 3338000   0.73899661   -8.1604742    665.50352  0.016614328  0.016107391            1 
 3339000   0.71162179   -8.1726462    666.05442  0.016623101  0.016102128            2 
 3340000   0.72818057    -8.153924    664.80781  0.016587021  0.016096859            3 
 3341000   0.72816267   -8.1494879    666.23978  0.016617774  0.016091604            1 
 3342000   0.71640329   -8.1857808    662.97748  0.016531455  0.016086343            1 
 3343000   0.72880272    -8.177189    666.36918  0.016611057  0.016081084            4 
 3344000     0.709593   -8.1691864    664.61291  0.016562323  0.016075807            1 
 3345000   0.72273671   -8.1693471     664.3461  0.016550725  0.016070521            2 
 3346000   0.72533964   -8.1848691    664.98305  0.016561642  0.016065252            2 
 3347000   0.72656841   -8.1907861    663.98638  0.016531879  0.016059974            2 
 3348000   0.72736438   -8.1981678    664.91008  0.016549932  0.016054684            2 
 3349000   0.70206832   -8.2063746    664.18555  0.016526962  0.016049393            4 
 3350000   0.70639697   -8.2116223    663.60553    0.0165076  0.016044099            4 
 3351000    0.7019292   -8.1818995    664.76136  0.016531418  0.016038825            3 
 3352000   0.71729623   -8.1539366    664.25858  0.016513986  0.016033548            1 
 3353000   0.72915816   -8.1790381    665.04912  0.016528709  0.016028297            2 
 3354000   0.71894081   -8.1685893    665.47062  0.016534253  0.016023038            2 
 3355000    0.7224724   -8.2083799    666.05383  0.016543811   0.01601778            3 
 3356000   0.71024124   -8.1857225    665.99708  0.016537472  0.016012516            3 
 3357000   0.70974834   -8.1708463    665.84794  0.016528844  0.016007266            3 
 3358000   0.71600349   -8.2222246    664.52554  0.016491104  0.016002016            1 
 3359000   0.70697452   -8.1788402    665.58764  0.016512544  0.015996769            2 
 3360000   0.70730234    -8.190738    665.14233  0.016496586  0.015991528            3 
 3361000   0.72245114   -8.1772706    665.86298  0.016509545  0.015986267            3 
 3362000   0.71531155   -8.1815365    666.10335  0.016510593  0.015981017            3 
 3363000   0.72710816      -8.2195    664.67117  0.016470195  0.015975749            1 
 3364000   0.72015153   -8.1875148    664.60672  0.016463702  0.015970495            2 
 3365000   0.72535864   -8.1774694     665.6949  0.016485758  0.015965239            2 
 3366000   0.70564791   -8.1952649    662.07407  0.016391218  0.015959977            2 
 3367000   0.72487988   -8.2047077     664.6561  0.016450255  0.015954716            2 
 3368000    0.7066915     -8.17795    665.64446  0.016469825  0.015949468            3 
 3369000   0.72308342   -8.1814285    665.32376  0.016457004  0.015944227            2 
 3370000   0.72493341   -8.2051966    665.01941  0.016444595  0.015938973            4 
 3371000   0.70928904   -8.2049544    664.89934  0.016436748  0.015933725            2 
 3372000   0.73251477    -8.185044    665.50077  0.016446737  0.015928484            3 
 3373000   0.72710199     -8.19074    665.50183  0.016441887  0.015923244            2 
 3374000   0.71529181   -8.1993463    664.22118  0.016405384  0.015917999            3 
 3375000   0.71440429   -8.2043656    664.58532  0.016409514  0.015912745            2 
 3376000   0.69713316   -8.1957232     665.7992  0.016434617  0.015907484            2 
 3377000   0.71105845   -8.2028652    664.62166  0.016400692  0.015902216            1 
 3378000   0.71339322   -8.2054491    664.16634  0.016384605  0.015896971            2 
 3379000   0.70213852   -8.1752231    665.55089  0.016413902  0.015891731            2 
 3380000   0.71965156   -8.2041607    665.01264  0.016395775  0.015886499            2 
 3381000   0.70874591   -8.2035801    664.72125  0.016383744  0.015881268            3 
 3382000   0.71413416    -8.155342    665.68052  0.016402536  0.015876056            3 
 3383000   0.69406506   -8.1808092    666.55462  0.016419219  0.015870824            3 
 3384000   0.69927467   -8.1989452    666.17189  0.016404942  0.015865604            4 
 3385000   0.70739407   -8.1883203    665.23607  0.016377057  0.015860391            3 
 3386000   0.70670351   -8.1691028    667.35535  0.016424379  0.015855172            4 
 3387000    0.7054795   -8.1947112    665.63139  0.016377113  0.015849952            5 
 3388000   0.70712622   -8.2101883     664.5057  0.016344591   0.01584473            7 
 3389000   0.71455007   -8.1972855    665.01518  0.016352296  0.015839515            3 
 3390000   0.70951652   -8.2101295    666.56734  0.016385628  0.015834304            2 
 3391000   0.72071022   -8.1907338    664.83945  0.016338333  0.015829091            3 
 3392000   0.70523243   -8.2011109    666.13981  0.016365463  0.015823873            4 
 3393000   0.70879464   -8.2298258    665.98954  0.016356949  0.015818647            3 
 3394000    0.7114667   -8.2232997    663.53773   0.01629193  0.015813412            3 
 3395000   0.70502377   -8.2220778    664.86673  0.016319753  0.015808185            1 
 3396000   0.71760632   -8.1896303    664.08785  0.016295835  0.015802954            2 
 3397000   0.70224411   -8.1983458     665.0678  0.016315077  0.015797729            2 
 3398000   0.70814848   -8.2043427       664.83  0.016304444  0.015792506            4 
 3399000   0.71941814   -8.2315871    665.35232  0.016312453  0.015787277            2 
 3400000    0.7035157   -8.2069504    664.56139  0.016288269  0.015782036            4 
 3401000   0.71303542   -8.2084864    665.11373  0.016297014  0.015776805            2 
 3402000   0.71881404   -8.2097835    664.96458   0.01628857   0.01577158            2 
 3403000   0.71228433   -8.2041541    664.76229   0.01627883  0.015766365            2 
 3404000   0.70177659   -8.1965292    665.19273  0.016284585  0.015761149            2 
 3405000   0.70412347    -8.216449    664.08989  0.016252812  0.015755941            2 
 3406000   0.70662622   -8.2098783    664.54625  0.016259206  0.015750731            3 
 3407000   0.70723317   -8.2152268    664.77147  0.016259942  0.015745517            3 
 3408000   0.69149481   -8.1981489    665.17412  0.016265017  0.015740313            1 
 3409000   0.70510795    -8.190981    664.74098  0.016249657  0.015735121            1 
 3410000   0.72611449   -8.1655275    666.04607  0.016276786  0.015729931            4 
 3411000   0.70887671   -8.1746355    665.78753  0.016265698   0.01572475            3 
 3412000   0.70032389   -8.1934838    665.27492   0.01624841  0.015719574            1 
 3413000   0.71441269   -8.2108152    665.50472  0.016249261  0.015714389            1 
 3414000   0.70466842   -8.2075657    665.43716  0.016242852  0.015709215            2 
 3415000   0.69471079   -8.1924872    665.72204  0.016245047  0.015704031            3 
 3416000   0.70511461   -8.2163744    665.84336  0.016243251  0.015698857            1 
 3417000   0.69288195   -8.2051961    665.91974   0.01624036  0.015693685            1 
 3418000   0.70311255   -8.2088806    664.92013  0.016211238  0.015688505            2 
 3419000   0.70571154    -8.199461    666.20552  0.016237826  0.015683326            1 
 3420000   0.70991107   -8.2225105    665.68713  0.016220447  0.015678128            2 
 3421000   0.70663014   -8.2088637    665.51991  0.016211632  0.015672938            2 
 3422000   0.68407435   -8.2014431    665.23742  0.016200015  0.015667738            3 
 3423000   0.71067631   -8.1887569    665.85168  0.016210237  0.015662547            3 
 3424000   0.70201687   -8.2192632     666.1288  0.016212247  0.015657359            3 
 3425000   0.70238449    -8.207361    666.06869  0.016206051  0.015652174            2 
 3426000   0.71911713     -8.19557    666.24028  0.016205494     0.015647            1 
 3427000    0.6995693   -8.2128088    665.06681   0.01617223  0.015641813            2 
 3428000   0.69340509    -8.214813    663.86224   0.01613823  0.015636618            3 
 3429000   0.68950617   -8.2244385    666.00431  0.016185581  0.015631419            2 
 3430000   0.69487494    -8.222615    664.49851  0.016144279  0.015626226            1 
 3431000   0.68057759    -8.244506    664.18901  0.016132056  0.015621044            4 
 3432000   0.70541611   -8.2083327     664.8665  0.016143806  0.015615859            2 
 3433000   0.69826943   -8.2186757    665.17661  0.016146631  0.015610676            1 
 3434000   0.70156658   -8.2161739    664.73442  0.016131198  0.015605484            4 
 3435000   0.71360696    -8.240853    664.09284  0.016110937  0.015600302            2 
 3436000   0.71114251   -8.2478947    664.58057  0.016118077  0.015595113            1 
 3437000   0.69528868   -8.2267097    665.93196  0.016146154  0.015589918            2 
 3438000   0.72200483   -8.2210082    664.88629  0.016116111  0.015584722            2 
 3439000   0.70154994   -8.2317174    665.90598  0.016136134  0.015579537            3 
 3440000   0.70404191   -8.2459634    664.68052  0.016101757  0.015574337            2 
 3441000   0.69374304   -8.2455072    663.55786  0.016069889  0.015569141            2 
 3442000   0.69733352   -8.2492387    664.26372   0.01608231   0.01556394            3 
 3443000   0.69289352   -8.2293784    663.69289  0.016063822   0.01555874            2 
 3444000   0.70674784   -8.2457657    663.78832  0.016061467  0.015553557            4 
 3445000   0.69795308   -8.2203613    664.77067  0.016080568  0.015548383            3 
 3446000   0.70868395   -8.2191018    664.81332  0.016076933  0.015543195            3 
 3447000   0.70191389   -8.2225942    663.76921  0.016047027  0.015538017            2 
 3448000   0.70040884   -8.2382442    665.46266  0.016083301  0.015532849            2 
 3449000   0.69586537   -8.2328315    665.39451  0.016076991  0.015527682            4 
 3450000   0.69813626   -8.2453482    664.46326  0.016049837  0.015522501            2 
 3451000    0.6991105   -8.2365251    664.28673  0.016040924  0.015517319            2 
 3452000   0.72000144   -8.2559782    664.49235  0.016041241  0.015512163            1 
 3453000   0.69546912   -8.2252296    664.96195  0.016047928  0.015506984            3 
 3454000   0.68271428    -8.239181    665.90358     0.016066  0.015501819            2 
 3455000   0.70074324   -8.2277562      665.313  0.016047106  0.015496646            2 
 3456000   0.69436545   -8.2310019    664.67531  0.016027086  0.015491475            2 
 3457000   0.71102788   -8.2421143    665.82333  0.016050124  0.015486307            3 
 3458000    0.6869367   -8.2405072    664.40556  0.016011316   0.01548115            1 
 3459000   0.69182138   -8.2199452    666.15476  0.016048828  0.015476004            1 
 3460000   0.70164641   -8.2477019     665.3632  0.016025125  0.015470858            1 
 3461000   0.70651475   -8.2473163    665.37139  0.016020692  0.015465707            4 
 3462000   0.70130937   -8.2434613    665.68765  0.016023677  0.015460541            1 
 3463000   0.69824816   -8.2484745     665.0305  0.016003237  0.015455372            1 
 3464000   0.69278743   -8.2467236    665.76683  0.016016331  0.015450215            2 
 3465000   0.69122713   -8.2337802    665.60395  0.016007791   0.01544506            3 
 3466000   0.69435801   -8.2503327    665.36761   0.01599749  0.015439896            1 
 3467000   0.67319532   -8.2492475    664.86494  0.015980794  0.015434738            1 
 3468000    0.6901039   -8.2422712    664.92128  0.015977539  0.015429592            1 
 3469000   0.69207331   -8.2478031    665.60695  0.015989405  0.015424437            3 
 3470000   0.69742084   -8.2484578    664.51176  0.015958496  0.015419291            5 
 3471000   0.69236554   -8.2512742    664.55997  0.015955055   0.01541414            2 
 3472000   0.69247263   -8.2392442    664.00016  0.015937024  0.015408979            2 
 3473000   0.69011074   -8.2283415    664.56534  0.015945996  0.015403823            5 
 3474000     0.701801   -8.2233029    665.75018  0.015969828  0.015398678            3 
 3475000   0.70541318   -8.2149885    664.85506  0.015943766  0.015393537            2 
 3476000   0.70138403   -8.2248977    664.56236  0.015932162  0.015388408            2 
 3477000   0.70360814   -8.2563058    664.43119  0.015924437  0.015383267            3 
 3478000   0.69818741   -8.2543428    665.05721  0.015934857  0.015378117            9 
 3479000   0.69364298   -8.2349665    666.60025  0.015967238  0.015372987            3 
 3480000   0.71079347   -8.2406194    665.87183  0.015945207  0.015367863            3 
 3481000   0.69550939   -8.2340872    664.66001  0.015911616  0.015362736            3 
 3482000   0.70427463   -8.2302945    665.35748  0.015923738  0.015357612            2 
 3483000   0.68639538   -8.2481656     664.5668  0.015900249  0.015352477            3 
 3484000   0.68455783   -8.2169592    666.32746  0.015937798  0.015347336            4 
 3485000   0.67990387   -8.2281006     665.4782  0.015912917  0.015342209            2 
 3486000    0.6930609   -8.2222526    665.95944  0.015919857  0.015337086            1 
 3487000   0.70047915   -8.2029929    665.54614  0.015905414  0.015331972            2 
 3488000   0.68442926   -8.2238162    666.24467  0.015917543   0.01532686            1 
 3489000   0.68137187   -8.2049929    666.32581  0.015914919  0.015321754            2 
 3490000   0.68485821    -8.227917     665.2441   0.01588453  0.015316649            1 
 3491000   0.68594251   -8.2420495    665.56055  0.015887534  0.015311551            3 
 3492000    0.6845115   -8.2153543     666.3554  0.015901952  0.015306464            4 
 3493000   0.67753315    -8.231419    665.23019  0.015870555  0.015301365            2 
 3494000   0.71691475   -8.2619151    666.17004  0.015888429  0.015296264            1 
 3495000   0.69690271   -8.2061529    665.30883  0.015863348  0.015291175            4 
 3496000   0.68924997   -8.2245368    667.44296  0.015909682  0.015286074            3 
 3497000   0.68687122    -8.251629    665.00618  0.015847064   0.01528097            3 
 3498000   0.69245496   -8.2461897    664.84508  0.015838696  0.015275857            4 
 3499000   0.68584083    -8.230712    664.60471  0.015828444   0.01527075            4 
 3500000   0.69096823   -8.2570405     664.5491  0.015822598  0.015265641            1 
 3501000   0.68737185   -8.2423005    664.66362  0.015820804  0.015260532            3 
 3502000   0.68189335   -8.2513305    666.08024  0.015849996  0.015255436            1 
 3503000   0.70005777   -8.2411056    666.80597  0.015862736  0.015250351            4 
 3504000   0.69091231   -8.2395493     665.6035  0.015829611  0.015245276            2 
 3505000   0.69552574   -8.2257562    665.66442  0.015826544  0.015240204            2 
 3506000   0.67921882   -8.2004301    666.52031  0.015842373  0.015235132            2 
 3507000   0.69611102   -8.2180322    666.75083  0.015843333  0.015230081            3 
 3508000     0.691373   -8.2309144    666.71762  0.015838028  0.015225024            1 
 3509000   0.69567405   -8.2175251    667.39074    0.0158495  0.015219968            1 
 3510000   0.69410612   -8.2151544    667.14058  0.015839045   0.01521491            1 
 3511000   0.69674741   -8.2013279    666.07731  0.015809297  0.015209847            1 
 3512000   0.69211037   -8.2343547    665.70029   0.01579585  0.015204793            1 
 3513000   0.68795672   -8.2473605    665.64502  0.015790042  0.015199731            3 
 3514000   0.69331384   -8.2443359    666.22798  0.015799374  0.015194674            3 
 3515000   0.67338523   -8.2465114    664.26798  0.015748411  0.015189616            2 
 3516000   0.69890976   -8.2590977    666.55546  0.015798148  0.015184562            4 
 3517000   0.68614268   -8.2466183    666.30229  0.015787657  0.015179508            3 
 3518000   0.68411594   -8.2408869    663.94815  0.015727405  0.015174452            2 
 3519000   0.68829902   -8.2385368    666.00366  0.015771613  0.015169406            3 
 3520000    0.6959428   -8.2555693    665.66508  0.015759116  0.015164349            4 
 3521000   0.67731983   -8.2527847    665.08278  0.015740859  0.015159289            3 
 3522000   0.68000399   -8.2418844    665.02346  0.015734986  0.015154227            3 
 3523000   0.68450206    -8.226094    665.27255  0.015736412  0.015149187            4 
 3524000   0.70042463   -8.2282964    665.78787  0.015744132  0.015144142            2 
 3525000   0.68151339   -8.2345677    666.35857  0.015753158  0.015139095            1 
 3526000   0.67745318   -8.2401705    665.79023  0.015735258  0.015134057            3 
 3527000   0.69566464   -8.2456207    665.81951  0.015731488   0.01512902            3 
 3528000   0.68056064   -8.2304851    665.60873  0.015722051  0.015123984            2 
 3529000   0.67436527   -8.2160985     665.3528  0.015711552  0.015118978            5 
 3530000   0.68644967   -8.2326322    665.90595  0.015720159   0.01511395            6 
 3531000     0.682091   -8.2189889    666.48932  0.015729475  0.015108929            2 
 3532000    0.6759719   -8.2186602    666.63616  0.015728486  0.015103903            1 
 3533000    0.6855779   -8.2309487    666.52409  0.015721391  0.015098884            1 
 3534000   0.67963168   -8.2233679    667.12413  0.015731092  0.015093857            3 
 3535000   0.68576313   -8.2196161    666.61681  0.015714682  0.015088825            5 
 3536000   0.69855699   -8.2500624    665.27588  0.015678636  0.015083796            2 
 3537000   0.67452864   -8.2364286    665.73732  0.015685075  0.015078762            1 
 3538000   0.68671239   -8.2268306     665.2916  0.015670143  0.015073738            2 
 3539000   0.66803208   -8.2260642    665.05276  0.015660091  0.015068706            1 
 3540000   0.69171009   -8.2468608    664.50743   0.01564283  0.015063673            3 
 3541000    0.6858732   -8.2461864    665.90136  0.015671217  0.015058644            1 
 3542000   0.67229708   -8.2513005    664.59244  0.015635998  0.015053613            2 
 3543000   0.69100882   -8.2763902    667.13237  0.015691325  0.015048581            1 
 3544000   0.68631527   -8.2663976    665.99671  0.015660193   0.01504356            1 
 3545000   0.67833963   -8.2300838    664.86796  0.015629242  0.015038544            5 
 3546000    0.6918452   -8.2194599    666.85379  0.015671503   0.01503352            3 
 3547000   0.68764999    -8.289159    666.45494  0.015657714  0.015028498            3 
 3548000   0.69004654   -8.2559364    664.87304  0.015616146   0.01502346            3 
 3549000   0.69018308   -8.2467504    665.46019  0.015625533  0.015018431            2 
 3550000   0.66462621   -8.2784396    665.28342  0.015616982  0.015013398            6 
 3551000     0.677544   -8.2850322    665.23569  0.015611464  0.015008356            4 
 3552000    0.6910619   -8.2618722    664.69834  0.015594462  0.015003325            3 
 3553000   0.66803396   -8.2720941    666.85405  0.015640633  0.014998307            5 
 3554000   0.67460591   -8.2577638    666.02808  0.015616865  0.014993296            1 
 3555000   0.68245801   -8.2539182    665.17058  0.015592372  0.014988284            1 
 3556000   0.68684319   -8.2357657    666.63651   0.01562234  0.014983264            4 
 3557000   0.67850223   -8.2670251    663.97018  0.015555482  0.014978237            3 
 3558000   0.68370845    -8.283636     664.8021  0.015570594  0.014973207            2 
 3559000   0.67308736   -8.2471223    665.17611  0.015574977  0.014968188            2 
 3560000   0.67037089   -8.2568746    666.35532  0.015598205  0.014963178            4 
 3561000   0.67642699   -8.2527603    665.95237  0.015584395   0.01495816            3 
 3562000   0.68718057   -8.2472227    663.97359  0.015533726  0.014953154            1 
 3563000   0.68748137   -8.2460714    666.54936   0.01558961  0.014948156            4 
 3564000    0.6774843   -8.2531981    665.35275  0.015557257  0.014943133            2 
 3565000   0.67656144   -8.2559623    665.99902     0.015568  0.014938111            2 
 3566000   0.70643901   -8.2470277    665.36259  0.015548761  0.014933086            2 
 3567000   0.66799747   -8.2641269      665.269  0.015542216  0.014928063            4 
 3568000   0.68546436   -8.2770179    664.26964  0.015514519  0.014923038            4 
 3569000    0.6765389   -8.2530066    664.48999  0.015515317  0.014918012            2 
 3570000   0.68582791   -8.2519178    666.92811  0.015567883  0.014913008            4 
 3571000   0.67711476   -8.2534542    666.15643  0.015545515  0.014907999            2 
 3572000   0.66986434   -8.2248893    664.28694  0.015497549  0.014903007            4 
 3573000   0.68821598   -8.2634731    665.62623  0.015524448  0.014898023            2 
 3574000   0.67226443   -8.2400191    666.13914  0.015532063  0.014893023            1 
 3575000   0.69126058   -8.2473621    665.74921   0.01551863  0.014888027            1 
 3576000   0.68687867   -8.2618186    665.79789  0.015515424  0.014883031            3 
 3577000   0.69700767   -8.2657097    665.48165  0.015503719  0.014878054            2 
 3578000   0.69830374   -8.2622503    666.06493  0.015512971  0.014873081            2 
 3579000   0.68037128   -8.2696206     665.1636   0.01548765   0.01486811            3 
 3580000   0.67935355   -8.2619147    665.65907  0.015494857  0.014863138            5 
 3581000   0.67170471   -8.2499272    666.00991  0.015498695  0.014858168            4 
 3582000   0.66529907   -8.2538521    665.59327  0.015484675  0.014853196            2 
 3583000   0.69070726   -8.2648552    666.12244  0.015492661  0.014848227            2 
 3584000   0.68110773   -8.2586977     665.5193  0.015474314  0.014843252            2 
 3585000   0.67676697   -8.2498068    665.58752  0.015471583  0.014838288            3 
 3586000   0.68032248   -8.2787115     665.3779  0.015462398  0.014833311            2 
 3587000   0.69468318   -8.2798833     665.0676  0.015450878  0.014828322            2 
 3588000   0.68636227    -8.279066    665.35729    0.0154533   0.01482333            2 
 3589000   0.67561281   -8.2562484    664.99691  0.015440627  0.014818352            2 
 3590000   0.68299674    -8.283437    664.64147  0.015428075  0.014813367            1 
 3591000    0.6874403     -8.27021    665.29804  0.015439015  0.014808389            2 
 3592000   0.68605471   -8.2859666    665.63338  0.015442497  0.014803408            3 
 3593000   0.66577893   -8.2727174    664.23435  0.015405751   0.01479844            4 
 3594000   0.67755554   -8.2715893    665.32321  0.015426711   0.01479345            3 
 3595000   0.67514764   -8.2652343    665.92599  0.015436393  0.014788475            1 
 3596000   0.66886877   -8.2748794    665.97568  0.015433252  0.014783496            3 
 3597000   0.66946595   -8.2568077    665.74805  0.015423688  0.014778511            3 
 3598000   0.66852027   -8.2895461    663.52116  0.015367824   0.01477354            2 
 3599000    0.6790241   -8.2728249    665.25959  0.015403806  0.014768571            2 
 3600000     0.667679   -8.2679318    664.66047  0.015385659  0.014763599            2 
 3601000   0.66744451   -8.2855612     665.9812   0.01541195  0.014758629            4 
 3602000   0.67942365    -8.281164    665.25534  0.015390879  0.014753686            5 
 3603000   0.67827128   -8.2836886    665.41725  0.015390352  0.014748729            2 
 3604000   0.67415596   -8.2785019    666.69351  0.015415592  0.014743768            1 
 3605000    0.6648924   -8.2830184    666.07576  0.015397036  0.014738826            1 
 3606000   0.67112875   -8.3045937    665.45678  0.015378461  0.014733868            1 
 3607000   0.66738738   -8.2956575    665.65056  0.015378675  0.014728908            2 
 3608000   0.66397243   -8.2977356    665.21196  0.015364282  0.014723953            1 
 3609000   0.67269543   -8.2659914    665.91987  0.015376371  0.014718994            2 
 3610000   0.66613896   -8.2886543    666.44008   0.01538412  0.014714044            2 
 3611000   0.67845796   -8.2962575    665.75781  0.015364115  0.014709096            2 
 3612000   0.66722312    -8.285698    665.99799  0.015365402  0.014704143            1 
 3613000   0.65858163   -8.2984324    665.55386  0.015350905  0.014699201            1 
 3614000   0.67454518   -8.2825617    664.38526  0.015319712  0.014694249            2 
 3615000   0.65834662   -8.2868998    664.57721  0.015319899   0.01468931            3 
 3616000   0.67447392   -8.3019461    665.47359   0.01533632  0.014684356            1 
 3617000   0.67148278   -8.3169218    665.07146  0.015322815  0.014679401            2 
 3618000   0.67885518   -8.3029498    664.94681  0.015315709  0.014674448            1 
 3619000   0.68758133   -8.2859129    665.05346  0.015313933  0.014669503            4 
 3620000   0.66888484   -8.3115845    665.85783  0.015328219  0.014664558            1 
 3621000   0.69726816   -8.2844355    664.69742   0.01529728  0.014659606            2 
 3622000   0.67756571   -8.2704451     665.5445  0.015312546  0.014654662            4 
 3623000   0.67556868   -8.2772871    666.21651  0.015323777  0.014649725            2 
 3624000   0.67694479   -8.3213507     664.3554  0.015276752  0.014644787            2 
 3625000   0.65919561    -8.298565    665.53582  0.015299674  0.014639837            3 
 3626000   0.67122112   -8.3266667    665.81455   0.01530186  0.014634886            2 
 3627000   0.66568895   -8.3036602    664.24006  0.015261466  0.014629944            2 
 3628000   0.66708105   -8.3124065    665.30056  0.015281619  0.014625004            4 
 3629000   0.68508185   -8.2804274    664.42559  0.015257316  0.014620074            3 
 3630000    0.6632731   -8.3064191    664.83174  0.015262437  0.014615145            2 
 3631000   0.68565982   -8.3124872    666.23085  0.015290343  0.014610228            3 
 3632000   0.67040914   -8.3120086    665.14139  0.015261137  0.014605314            3 
 3633000   0.68067257   -8.2762713    666.48247  0.015287698  0.014600397            2 
 3634000   0.66240302   -8.3182769     664.5846   0.01523997  0.014595477            2 
 3635000   0.65397266   -8.2913623    664.88606  0.015242688  0.014590564            3 
 3636000     0.664773   -8.2820483    665.73234  0.015257892  0.014585645            2 
 3637000   0.67418834   -8.2997059    666.19289  0.015264249  0.014580735            3 
 3638000   0.67753769    -8.264832    664.94233  0.015231408  0.014575835            2 
 3639000    0.6841796   -8.2923474    665.21252  0.015233409  0.014570928            2 
 3640000   0.67374198   -8.2732946    665.61438  0.015238425  0.014566027            4 
 3641000   0.66541708    -8.288052    664.82158  0.015216094   0.01456113            1 
 3642000   0.65886097   -8.3082657    664.68521  0.015208796  0.014556228            2 
 3643000   0.66305709   -8.3042421    665.72687  0.015228449  0.014551331            4 
 3644000     0.662696   -8.2597721    665.43407  0.015217574  0.014546438            9 
 3645000   0.66830133   -8.2839853    665.78748  0.015221479  0.014541548            8 
 3646000   0.67089707   -8.2600174    667.10375  0.015247389  0.014536668            3 
 3647000   0.66335248   -8.2879594    665.32234  0.015202503  0.014531794            2 
 3648000    0.6677948   -8.2851523    665.82678  0.015209859  0.014526912            1 
 3649000   0.66521512   -8.2788522    664.44207  0.015174068  0.014522021            2 
 3650000   0.66524418   -8.2719979    665.93676  0.015204036  0.014517136            1 
 3651000    0.6681142   -8.2949998    666.26236  0.015207303  0.014512251            1 
 3652000    0.6632201   -8.2721546    665.41631  0.015183833  0.014507372            2 
 3653000   0.67438255   -8.2733769    664.96302  0.015169336    0.0145025            2 
 3654000   0.66218464    -8.300946    664.50864  0.015154822  0.014497612            3 
 3655000   0.67036977   -8.2804071    665.55112  0.015174444  0.014492723            3 
 3656000   0.66767794   -8.3015358    664.09152  0.015137024  0.014487829            2 
 3657000   0.66610081   -8.3076264    663.54464  0.015120423  0.014482936            1 
 3658000   0.68121136   -8.3102689    664.72773  0.015143242  0.014478033            1 
 3659000   0.67048844   -8.2978604    664.64375   0.01513719  0.014473133            2 
 3660000   0.66182199   -8.2909688    665.52545   0.01515313  0.014468245            4 
 3661000   0.66590752   -8.2890084    665.56419  0.015149872   0.01446335            3 
 3662000   0.67317856   -8.3420779    665.24133  0.015138388  0.014458462            1 
 3663000    0.6653412   -8.3140469    664.59112  0.015119463   0.01445357            2 
 3664000   0.65365312   -8.3219855    664.94676  0.015123425  0.014448683            3 
 3665000    0.6707175   -8.2998074    665.03378  0.015121277  0.014443797            3 
 3666000   0.68662139   -8.3017208    663.75603  0.015088108  0.014438912            7 
 3667000    0.6598342   -8.2893894     665.3162  0.015119448  0.014434026            2 
 3668000   0.67276632   -8.3195354    665.19966  0.015112679  0.014429142            2 
 3669000    0.6581228   -8.2996904     664.9808  0.015103589  0.014424252            2 
 3670000   0.67179276      -8.3127    664.92738   0.01509826  0.014419375            3 
 3671000   0.65935951   -8.2830635    664.83788  0.015092116  0.014414498            1 
 3672000   0.67549724    -8.290406    665.15313   0.01509516  0.014409631            2 
 3673000   0.67740631   -8.3192213    664.40604    0.0150741  0.014404755            3 
 3674000   0.66677399   -8.3156807    665.60056  0.015097091  0.014399873            1 
 3675000   0.65709299   -8.3128001    665.02528  0.015079938  0.014395004            4 
 3676000   0.66092591   -8.3412917    664.22862  0.015057776  0.014390131            3 
 3677000   0.65793894   -8.3100669       664.33  0.015055979  0.014385262            2 
 3678000   0.66197616   -8.2805051    664.92022  0.015065258  0.014380402            1 
 3679000   0.65163755   -8.3101458    664.31618  0.015047481  0.014375554            5 
 3680000   0.66233746   -8.2930975    665.08794  0.015060868  0.014370705            2 
 3681000   0.65653894    -8.306402    666.36171  0.015085613   0.01436586            1 
 3682000    0.6618925   -8.3147688    665.20481  0.015055332  0.014361019            2 
 3683000   0.64672878   -8.3305221    664.26653  0.015030015  0.014356155            1 
 3684000   0.66022287   -8.3319306    664.62508  0.015034045  0.014351295            2 
 3685000   0.65129929   -8.3109583    665.88371  0.015058429  0.014346441            4 
 3686000   0.65854692   -8.2987467    665.79457  0.015052328  0.014341586            1 
 3687000   0.66688577   -8.3086325    663.98254   0.01500729  0.014336736            4 
 3688000   0.67731643    -8.281498    666.07936    0.0150506  0.014331887            2 
 3689000   0.66127264   -8.3267788    665.11233  0.015024675  0.014327044            2 
 3690000   0.65943789   -8.3175778     665.4815  0.015028941  0.014322196            3 
 3691000   0.64702864   -8.3358536    664.02706  0.014992031  0.014317332            3 
 3692000   0.64529409   -8.3169922    664.95098  0.015008825   0.01431246            2 
 3693000   0.67891619   -8.3245777    664.27571  0.014989523  0.014307595            2 
 3694000   0.65334048   -8.3259778    664.62046  0.014993243  0.014302732            3 
 3695000   0.67860965   -8.3565173    663.79881  0.014970654  0.014297867            2 
 3696000   0.64565938   -8.3157828    664.21669  0.014976026  0.014293011            4 
 3697000    0.6473684   -8.3398679    664.23935  0.014972486  0.014288147            2 
 3698000   0.65259228   -8.3471517    665.00404  0.014985669  0.014283283            1 
 3699000   0.65774614   -8.3002676    665.45547  0.014991788  0.014278422            2 
 3700000   0.65412029   -8.3250477    664.31347  0.014962015   0.01427356            2 
 3701000   0.67215917   -8.3162048    663.29331  0.014935002  0.014268698            2 
 3702000   0.66560379   -8.3300059    664.48484   0.01495779  0.014263839            3 
 3703000   0.64499294   -8.3146766      665.353  0.014973287     0.014259            3 
 3704000   0.64641267   -8.3224813    664.24142  0.014944236  0.014254155            2 
 3705000   0.65538528   -8.3310754    663.82375  0.014930809  0.014249309            2 
 3706000   0.65840599   -8.3546033    664.51766  0.014942383  0.014244457            2 
 3707000   0.64010725    -8.349152    664.24306  0.014932179  0.014239603            7 
 3708000   0.66133619   -8.3493099    664.72937  0.014939082  0.014234763            3 
 3709000   0.65525257   -8.3363939    665.49723  0.014952306  0.014229915            2 
 3710000    0.6668031   -8.3253128    665.83577   0.01495588  0.014225076            3 
 3711000   0.67208275    -8.324261    665.68689  0.014948506  0.014220244            3 
 3712000   0.66406582   -8.3484472    663.95078  0.014905504  0.014215409            2 
 3713000   0.65530599   -8.3295001    664.49472  0.014913698  0.014210568            2 
 3714000   0.64792358   -8.3419682    663.49031  0.014887146  0.014205722            2 
 3715000   0.67464589    -8.326098    664.68639  0.014909968  0.014200888            3 
 3716000   0.64690232   -8.3322401    663.21191   0.01487289  0.014196053            7 
 3717000   0.65651639   -8.3093729    665.22397  0.014913998  0.014191235            2 
 3718000   0.66738123   -8.3074312     664.7347  0.014899021  0.014186417            2 
 3719000   0.66286429   -8.3308162    664.45016  0.014888638  0.014181605            2 
 3720000   0.66144586   -8.3449103    663.79106  0.014869871  0.014176776            5 
 3721000   0.65551396   -8.3251698    663.89753   0.01486826  0.014171956            2 
 3722000   0.63871029   -8.3309757    665.18017  0.014892983  0.014167142            1 
 3723000    0.6457705   -8.3239949    665.57592   0.01489784  0.014162328            2 
 3724000   0.65864588   -8.3112205    664.39432  0.014867399  0.014157526            1 
 3725000   0.65760499   -8.3241049    663.98549  0.014854261  0.014152714            1 
 3726000   0.65100951   -8.3241292    664.12989  0.014853504  0.014147903            1 
 3727000   0.64699173   -8.3447843    665.01522  0.014869314  0.014143097            2 
 3728000   0.64316311   -8.3182075    663.68646  0.014835624  0.014138285            2 
 3729000   0.66357503   -8.3483724    663.43067  0.014825929  0.014133479            1 
 3730000   0.65871398    -8.325763    664.91026   0.01485501  0.014128677            3 
 3731000   0.64667891   -8.3242803     664.7068  0.014846484  0.014123873            4 
 3732000   0.66683617   -8.3496474    664.87533  0.014846269  0.014119077            3 
 3733000   0.66731612    -8.337127    664.81443  0.014840933   0.01411428            6 
 3734000   0.65372357   -8.3303367    664.69925  0.014834388  0.014109495            2 
 3735000   0.65430054   -8.3190447    664.17456   0.01481871  0.014104713            4 
 3736000   0.65981436   -8.3273163    664.05656  0.014812111  0.014099921            2 
 3737000   0.64528743   -8.3134727    664.72529   0.01482306  0.014095124            4 
 3738000   0.65793603   -8.3191982    663.64013  0.014794902  0.014090334            4 
 3739000   0.64385556     -8.34218     664.6256  0.014812909  0.014085541            4 
 3740000   0.66527098   -8.3327366    664.66146  0.014809747  0.014080758            1 
 3741000   0.65153442   -8.3272707     664.8291  0.014809523  0.014075978            2 
 3742000    0.6595965   -8.3153171    665.48605  0.014820195  0.014071202            1 
 3743000   0.64732687    -8.336625    664.51563  0.014794631  0.014066435            2 
 3744000   0.65329657   -8.3068515    664.67342  0.014794191  0.014061662            1 
 3745000   0.65574488   -8.3202024    663.52006  0.014764576  0.014056885            5 
 3746000   0.65723135   -8.3162544    663.39287  0.014757805  0.014052113            1 
 3747000   0.64198805    -8.338538    663.43773  0.014754865  0.014047341            5 
 3748000   0.65301811   -8.3247757    664.83562  0.014782009  0.014042564            2 
 3749000   0.63594833   -8.3325657      664.554  0.014771806  0.014037787            2 
 3750000   0.65502305    -8.320324    663.46164  0.014743592  0.014033019            2 
 3751000   0.66024095   -8.3364416    663.28549  0.014735748   0.01402825            1 
 3752000   0.65613735   -8.3378074    664.70664  0.014763385  0.014023475            3 
 3753000   0.66044775   -8.3434773    664.73214  0.014760017  0.014018715            2 
 3754000    0.6585614    -8.353956    664.48876  0.014750683  0.014013961            3 
 3755000   0.65543497   -8.3676324    664.87445  0.014755314  0.014009205            1 
 3756000   0.64645693   -8.3367536    665.00468  0.014754275  0.014004445            1 
 3757000   0.65333627   -8.3620526     664.7768  0.014745293  0.013999684            5 
 3758000   0.66888001   -8.3427851    663.53276  0.014713783  0.013994924            4 
 3759000   0.64644355   -8.3354906    663.92394  0.014718541  0.013990167            3 
 3760000   0.63868873   -8.3322849    664.30184  0.014723002  0.013985422            4 
 3761000   0.65123712   -8.3399207    664.34946  0.014720142  0.013980671            7 
 3762000   0.65062479   -8.3479319    663.72073  0.014702302  0.013975921            2 
 3763000   0.64818686   -8.3333865    663.62249   0.01469622  0.013971168            3 
 3764000   0.64558388   -8.3238586    664.26182   0.01470647  0.013966422            1 
 3765000   0.64947968   -8.3511598    664.82166  0.014714955  0.013961675            2 
 3766000   0.65342455   -8.3284189    664.62424  0.014706679  0.013956931            3 
 3767000   0.63741256   -8.3537618    664.95238  0.014710034  0.013952183            3 
 3768000   0.65649506   -8.3395839    665.44692  0.014717067  0.013947439            2 
 3769000   0.65479206    -8.341491    664.59366  0.014694297  0.013942695            3 
 3770000   0.65056669   -8.3557455    662.80847  0.014650939  0.013937944            7 
 3771000   0.66301442   -8.3541597    663.88371  0.014670815  0.013933195            2 
 3772000     0.648988   -8.3479991     664.0483  0.014670562  0.013928449            2 
 3773000   0.64974109   -8.3588654    663.90981  0.014663614  0.013923696            2 
 3774000   0.66045819   -8.3581019    663.09415  0.014641719  0.013918941            2 
 3775000   0.64250211   -8.3506699    664.60289  0.014671146  0.013914192            2 
 3776000   0.64742967   -8.3385364    663.96428  0.014653166   0.01390945            2 
 3777000   0.63444192   -8.3524805     664.3262  0.014657272  0.013904713            6 
 3778000    0.6373524    -8.350333    663.61084  0.014637613  0.013899986            5 
 3779000   0.65418722   -8.3443632    663.90036  0.014640124  0.013895252            5 
 3780000    0.6516819   -8.3441308    664.89605  0.014658202  0.013890528            1 
 3781000   0.66441625   -8.3661202    664.49941  0.014645583  0.013885804            8 
 3782000    0.6498401   -8.3522697    663.29461  0.014615164  0.013881079            7 
 3783000   0.64443043   -8.3633082    663.16824  0.014608517  0.013876357            3 
 3784000   0.63484507    -8.345058    662.87322  0.014598159  0.013871635            7 
 3785000   0.64679167   -8.3548221    663.23019  0.014602162  0.013866909            1 
 3786000   0.65408043   -8.3675728    662.39671  0.014579959  0.013862172            3 
 3787000   0.64302354   -8.3397312    664.06089   0.01461273  0.013857448            5 
 3788000   0.65094173   -8.3515888    664.42064  0.014616786  0.013852728            5 
 3789000   0.64378654   -8.3596883    663.85272  0.014600438  0.013848018            1 
 3790000    0.6501773    -8.353946    663.23784  0.014583066  0.013843305            3 
 3791000   0.64532218    -8.343263    663.82539  0.014592135   0.01383859            1 
 3792000   0.65169953   -8.3595334    663.90361  0.014590006  0.013833871            5 
 3793000   0.64706487   -8.3636788    664.73125  0.014604342  0.013829159            2 
 3794000   0.64505108   -8.3595561     663.4086  0.014571442  0.013824442            5 
 3795000   0.63474523   -8.3679024    663.48456   0.01456927   0.01381973            3 
 3796000   0.65387435   -8.3620594    663.75132  0.014571288  0.013815015            3 
 3797000   0.65144168   -8.3715399    664.16103  0.014576443  0.013810305            3 
 3798000   0.63173675   -8.3496791    665.04656  0.014592034  0.013805596            3 
 3799000   0.65320958    -8.374376    664.08266   0.01456705  0.013800896            2 
 3800000   0.65179155   -8.3495301    664.67718  0.014576254  0.013796186            3 
 3801000   0.64573576   -8.3590838     662.7162  0.014529426  0.013791467            4 
 3802000   0.64162804   -8.3549232    663.60633  0.014545115   0.01378676            2 
 3803000   0.63482643   -8.3657078    664.51825  0.014561273  0.013782053            2 
 3804000   0.64762959   -8.3600833    663.59451  0.014537209  0.013777348            2 
 3805000   0.63247891   -8.3391949    664.14836  0.014545518  0.013772637            3 
 3806000   0.64380739   -8.3525994    664.01397  0.014538754  0.013767934            1 
 3807000    0.6443781   -8.3662549    664.23503  0.014539774   0.01376323            2 
 3808000   0.65094253   -8.3639167    663.85102  0.014527552  0.013758527            1 
 3809000   0.64471716   -8.3640535     664.0241  0.014527525  0.013753833            2 
 3810000   0.63749562   -8.3917835    663.22331  0.014506197   0.01374914            2 
 3811000   0.65970496   -8.3914423    663.67309  0.014512225  0.013744443            2 
 3812000   0.63758755   -8.3780611    664.15287  0.014518907   0.01373975            9 
 3813000   0.64196084   -8.3725222    663.74862  0.014506264  0.013735059            2 
 3814000   0.63412862    -8.364785     665.2384  0.014535011  0.013730365            2 
 3815000   0.63703712   -8.3827239    664.60648  0.014517398  0.013725672            3 
 3816000   0.64944143   -8.3743443    664.17034  0.014504069  0.013720978            1 
 3817000   0.63372963   -8.3808001    664.13097   0.01449941  0.013716296            3 
 3818000    0.6310482   -8.3630902    663.07652  0.014472597  0.013711606            2 
 3819000   0.65056758     -8.38557    663.21521  0.014471834  0.013706933            2 
 3820000   0.65637275   -8.3921366    663.90849   0.01448317  0.013702256            2 
 3821000   0.63823892   -8.3685303    663.71572  0.014475175  0.013697581            2 
 3822000   0.64804446   -8.3929416    664.49425  0.014488362  0.013692899            3 
 3823000    0.6278677   -8.3915446    664.59747  0.014486823   0.01368822            1 
 3824000   0.62686669   -8.3737835    663.86258  0.014467019  0.013683547            3 
 3825000   0.64063057   -8.3770706    664.11894  0.014468822  0.013678876            2 
 3826000   0.64241551   -8.3839734    662.92616  0.014439061  0.013674206            2 
 3827000   0.63046208    -8.375387    664.83984  0.014476959  0.013669534            4 
 3828000   0.62491187   -8.3617917    663.32131  0.014440119   0.01366486            2 
 3829000   0.64824959   -8.3753615    664.06745  0.014452587  0.013660198            3 
 3830000   0.64133452   -8.3878643    665.17593  0.014472931  0.013655539            3 
 3831000   0.64315779   -8.3817651    663.15659  0.014425228  0.013650888            2 
 3832000   0.64856424   -8.3750985    663.89401    0.0144375  0.013646232            1 
 3833000   0.64680381   -8.3820996    664.41436  0.014445046  0.013641579            4 
 3834000   0.63645882   -8.3734181    663.10183  0.014412751  0.013636924            4 
 3835000   0.64019226    -8.350996    663.73781  0.014422812  0.013632269            2 
 3836000   0.63867238   -8.3785183     663.4636  0.014413095  0.013627624            1 
 3837000    0.6398907    -8.364082    664.10166  0.014423196  0.013622983            2 
 3838000   0.63601142   -8.3838006    664.64602  0.014431258  0.013618341            3 
 3839000   0.63148751   -8.3957891    664.58468  0.014426167  0.013613695            3 
 3840000    0.6312903   -8.3877061    664.00301  0.014409788  0.013609051            3 
 3841000    0.6394714   -8.3859356    664.48132  0.014416413  0.013604416            3 
 3842000   0.64200727   -8.3949291    663.56941  0.014392881  0.013599777            3 
 3843000   0.63686076   -8.3735575    663.89768  0.014396255  0.013595135            2 
 3844000   0.63633797   -8.3912751    663.70154  0.014388257  0.013590495            2 
 3845000   0.63708655   -8.3637446    663.71395  0.014384784  0.013585859            2 
 3846000   0.63037334   -8.3806879    663.99136  0.014387055  0.013581223            2 
 3847000   0.63919722   -8.3850886     663.7728  0.014378581  0.013576591            3 
 3848000   0.64225599    -8.400044    662.87349  0.014355368  0.013571961            2 
 3849000   0.64332713   -8.3788108    664.90485  0.014395619  0.013567329            1 
 3850000   0.63021259   -8.4126989    663.48147  0.014361071    0.0135627            4 
 3851000   0.64276003    -8.380326     662.9638  0.014346139  0.013558073            2 
 3852000   0.63597785   -8.3907183    664.11224   0.01436726  0.013553443            3 
 3853000   0.64160857   -8.3650375    663.56943  0.014351791   0.01354882            1 
 3854000   0.62879833   -8.3706607    663.86835  0.014354531  0.013544196            4 
 3855000   0.63324438    -8.400065    662.98444    0.0143317  0.013539572            4 
 3856000   0.61695144    -8.394892    663.52003  0.014339558  0.013534939            2 
 3857000   0.63346117   -8.3934589    663.26307  0.014330288  0.013530312            2 
 3858000   0.64609299   -8.3855439    663.34154  0.014328269   0.01352569            3 
 3859000   0.63443495   -8.3834428     662.6487  0.014309594  0.013521067            4 
 3860000   0.63489404   -8.3865576    663.27041  0.014319309  0.013516452            2 
 3861000   0.62646368   -8.3878736    664.78561  0.014348304  0.013511836            3 
 3862000   0.62956545   -8.3774368    663.14648   0.01430922  0.013507237            3 
 3863000   0.63305303   -8.3542128    664.15823  0.014327341  0.013502647            1 
 3864000   0.62816059   -8.3970596    663.67337  0.014313176   0.01349806            2 
 3865000   0.62538202   -8.3799712    664.28706  0.014322705  0.013493473            2 
 3866000   0.62448759   -8.3882379    663.86933  0.014309996  0.013488891            3 
 3867000   0.63776483     -8.36962    664.34886  0.014316629  0.013484302            3 
 3868000    0.6154886   -8.3938387     663.3956   0.01429239  0.013479704            3 
 3869000   0.62637263   -8.3619827      665.444  0.014332816   0.01347511            2 
 3870000   0.64063015   -8.3889841    664.64696   0.01431195  0.013470515            1 
 3871000   0.63820025   -8.3957464    664.57438   0.01430669   0.01346592            2 
 3872000   0.62870162   -8.3705194    664.35883  0.014298356  0.013461332            2 
 3873000   0.63929625   -8.3664492    664.15248  0.014290225  0.013456746            3 
 3874000   0.62634298   -8.3757856     664.2277  0.014288154  0.013452155            2 
 3875000   0.63785045   -8.3939784     664.1607  0.014283026  0.013447559            3 
 3876000   0.63622151   -8.3703688    662.41231  0.014241751  0.013442966            2 
 3877000   0.63392342   -8.3949128    662.82275  0.014246899  0.013438373            3 
 3878000   0.62536534   -8.3764566    662.69439  0.014240467  0.013433791            2 
 3879000   0.64258124   -8.4122184    662.95571   0.01424241  0.013429199            2 
 3880000    0.6405563   -8.4183049    663.72854  0.014255338  0.013424612            3 
 3881000   0.63506844   -8.4019066    663.93013  0.014255993  0.013420026            3 
 3882000    0.6458107   -8.4233471    662.83895  0.014228897  0.013415435            3 
 3883000   0.63298498   -8.3749275     662.7614  0.014223568  0.013410852            2 
 3884000   0.62876715   -8.3898278    663.95879  0.014245597  0.013406277            3 
 3885000   0.62471399   -8.4037375    663.80102  0.014238546  0.013401705            2 
 3886000   0.63749999   -8.4053796    663.46947  0.014227772  0.013397129            1 
 3887000   0.62288136   -8.3809534    663.28376   0.01422013  0.013392553            3 
 3888000   0.62575742   -8.4076084    662.98115  0.014209987  0.013387966            3 
 3889000   0.62810552   -8.3969688    664.48567  0.014238572  0.013383381            2 
 3890000   0.63463424    -8.400584    662.40988  0.014190443  0.013378801            1 
 3891000   0.62273563   -8.3862779     662.2202  0.014182734  0.013374224            3 
 3892000   0.63141429   -8.4199402     663.3959  0.014204263  0.013369647            4 
 3893000   0.61306977   -8.4022898    663.40525  0.014200815  0.013365082            2 
 3894000   0.61436153   -8.3918263     662.4433  0.014176582  0.013360514            2 
 3895000   0.63129124   -8.4041475    662.80479  0.014180676  0.013355956            5 
 3896000   0.62722818   -8.3780346    663.62622  0.014194606  0.013351392            2 
 3897000   0.63664841   -8.3981119    663.71783  0.014192923  0.013346838            2 
 3898000   0.63945015   -8.3762012    663.26587  0.014179619  0.013342287            2 
 3899000   0.62621772   -8.4202665    663.21347  0.014174862  0.013337736            2 
 3900000   0.62155116   -8.4134273    662.05284  0.014146428  0.013333178            7 
 3901000   0.63432026   -8.4080646    662.87218  0.014160305   0.01332862            2 
 3902000   0.62756454    -8.401671    663.55749  0.014171311   0.01332407            3 
 3903000   0.62270485   -8.3915806    663.95807  0.014176233  0.013319523            4 
 3904000     0.626108   -8.3747488    663.64402  0.014165899  0.013314974            3 
 3905000   0.63205864   -8.4228432    662.86917  0.014145736  0.013310421            3 
 3906000   0.62548295   -8.4066617    663.26148  0.014150484  0.013305871            2 
 3907000   0.62482802   -8.4111418    663.07294  0.014142841  0.013301322            5 
 3908000   0.63974701   -8.3896986    662.25612  0.014121804  0.013296774            3 
 3909000   0.62846955   -8.4116345    663.70871  0.014149158   0.01329223            5 
 3910000   0.62792178   -8.4006903    662.83637  0.014126947  0.013287679            1 
 3911000   0.63995327   -8.3987643    664.08451   0.01414993  0.013283132            1 
 3912000   0.62191253   -8.4095305      662.094  0.014103911  0.013278576            1 
 3913000    0.6200823   -8.4156017    662.47345  0.014108388  0.013274028            2 
 3914000   0.64143214   -8.4085516     662.9493  0.014114914  0.013269487            2 
 3915000   0.63256524   -8.4137702    663.56267  0.014124365  0.013264949            3 
 3916000   0.61832833   -8.4130633     662.3953  0.014095916  0.013260403            1 
 3917000   0.62784977    -8.410627     661.8971  0.014081719  0.013255852            2 
 3918000   0.62782056   -8.4020905    662.62774  0.014093665  0.013251307            4 
 3919000   0.61561218   -8.4096563    663.13154  0.014100781   0.01324677            2 
 3920000    0.6127815   -8.4132103    662.89605  0.014092178  0.013242236            2 
 3921000   0.62129595   -8.4197834    662.56426  0.014081532  0.013237696            1 
 3922000   0.61804037   -8.4068632    661.89746  0.014063774  0.013233155            3 
 3923000   0.63151529    -8.425742     662.9179  0.014081865  0.013228621            1 
 3924000   0.63646288   -8.4139785    662.60696  0.014071673  0.013224097            2 
 3925000   0.62344188    -8.434964      663.271  0.014082187  0.013219566            2 
 3926000   0.63158799   -8.4153392    662.66667  0.014065772  0.013215037            2 
 3927000    0.6179268   -8.4041121    662.21682  0.014052644  0.013210508            1 
 3928000   0.62665037   -8.4455848    662.19515  0.014048607  0.013205983            1 
 3929000   0.62231241   -8.3980275    662.49056  0.014051297  0.013201456            2 
 3930000   0.63272344   -8.3963179    663.65203   0.01407235  0.013196935            2 
 3931000   0.63286967   -8.4113021    662.84026  0.014051562   0.01319242            2 
 3932000   0.61464359   -8.4224753    661.45455   0.01401862  0.013187904            1 
 3933000   0.62955538   -8.4093844    662.85492  0.014044727  0.013183387            2 
 3934000   0.62076492   -8.4166943    663.94946  0.014064342  0.013178869            2 
 3935000    0.6197061   -8.4375057    661.53208  0.014009574  0.013174352            2 
 3936000   0.61046127   -8.4087173    663.96463  0.014057517   0.01316984            3 
 3937000   0.62237416    -8.425234    662.26706  0.014018014  0.013165327            5 
 3938000    0.6091096   -8.4035988    661.37853  0.013995652  0.013160811            2 
 3939000   0.62342538   -8.4199285    662.33006  0.014012229  0.013156309            3 
 3940000   0.61992491   -8.4003065      662.959  0.014021975  0.013151806            4 
 3941000   0.61622126   -8.4223563    662.82205  0.014015522  0.013147309            4 
 3942000   0.62795331   -8.4274223    663.52262  0.014026776  0.013142813            2 
 3943000   0.63494992   -8.4276586    663.29296  0.014018365  0.013138316            3 
 3944000   0.62925565   -8.4355893    663.67246  0.014022829  0.013133819            1 
 3945000   0.61492562   -8.4037055    661.76758  0.013979036  0.013129323            3 
 3946000   0.60615539   -8.4163338    662.79606  0.013997214  0.013124827            2 
 3947000    0.6324976   -8.4173041    662.70346  0.013991712   0.01312033            3 
 3948000   0.61374103   -8.4251166    662.49708  0.013983812   0.01311584            2 
 3949000   0.61751256   -8.4136367    663.70271  0.014005713  0.013111353            1 
 3950000   0.61018467    -8.422512    663.70418  0.014002198  0.013106864            1 
 3951000   0.62685141   -8.4249419    663.69365  0.013998432  0.013102372            2 
 3952000   0.61864165    -8.411465    662.16193  0.013962591  0.013097881            1 
 3953000    0.6191595   -8.4339648    661.79343  0.013951291  0.013093388            2 
 3954000   0.61039637   -8.4140115    663.19015  0.013977199  0.013088898            2 
 3955000   0.62233024    -8.408376    663.11368  0.013972054  0.013084411            1 
 3956000   0.60597512   -8.4367442    662.11151  0.013947411  0.013079921            2 
 3957000   0.63065922    -8.432302    662.88573  0.013960191  0.013075436            3 
 3958000    0.6291936   -8.4407523     663.1562  0.013962359  0.013070948            1 
 3959000    0.6249606   -8.4545717    663.27424  0.013961317  0.013066467            1 
 3960000   0.62109155   -8.4234317    661.86696  0.013928177  0.013061992            4 
 3961000   0.61406401   -8.4203438    664.10892  0.013971828   0.01305751            2 
 3962000   0.61308666   -8.4226381    662.83218  0.013941447  0.013053031            2 
 3963000   0.60543298   -8.4099198    663.42883  0.013950476  0.013048552            1 
 3964000   0.61659254   -8.4195679    663.11063  0.013940267  0.013044079            3 
 3965000    0.6218478   -8.4422817    663.38287  0.013942473   0.01303961            2 
 3966000   0.61661848   -8.4448812    662.23883  0.013914919  0.013035133            2 
 3967000   0.61849925   -8.4349292    663.11777  0.013929875  0.013030663            1 
 3968000   0.60836362   -8.4278316    661.75089  0.013897658  0.013026191            2 
 3969000   0.61184296   -8.4475548     661.7439   0.01389401  0.013021717            4 
 3970000   0.63090874    -8.450499     662.5473  0.013907374  0.013017252            4 
 3971000   0.61424891   -8.4165342    660.92007  0.013869724   0.01301279            6 
 3972000   0.60188011   -8.4029856    662.89164  0.013907596  0.013008329            2 
 3973000   0.60247678   -8.4451702    661.15319  0.013867631  0.013003873            2 
 3974000   0.63061702   -8.4512063    661.96563  0.013881178  0.012999413            1 
 3975000   0.61488144   -8.4251829    662.45041  0.013887849  0.012994956            2 
 3976000   0.59936352   -8.4188183     661.7106  0.013868851  0.012990508            2 
 3977000   0.61273345   -8.4175038     662.1203  0.013873948  0.012986064            1 
 3978000   0.61834739   -8.4312529    661.58972  0.013859346  0.012981624            1 
 3979000   0.60014061   -8.4225802    661.97146  0.013863857   0.01297718            1 
 3980000    0.6066723   -8.4254543    662.05269  0.013862075  0.012972729            3 
 3981000    0.6184904   -8.4425321    662.58839  0.013869806   0.01296828            2 
 3982000   0.60692731    -8.430941    662.25991  0.013859449  0.012963835            1 
 3983000   0.61563517   -8.4136459    662.02092  0.013850969  0.012959393            2 
 3984000   0.61671021   -8.4322934    662.97207  0.013867388  0.012954957            2 
 3985000   0.60823892   -8.4286704    662.00057  0.013843592  0.012950517            3 
 3986000   0.62039039   -8.4206009    662.37957  0.013848042  0.012946093            7 
 3987000   0.61282595   -8.4306763     661.9975  0.013836584  0.012941669            1 
 3988000   0.60319989   -8.4272395    662.68569  0.013847494  0.012937244            2 
 3989000   0.60911536   -8.4395105    662.36465  0.013837316  0.012932818            1 
 3990000   0.62471643   -8.4430543    662.22819  0.013830998   0.01292839            2 
 3991000   0.61187635   -8.4383321    660.76059  0.013796889  0.012923961            2 
 3992000   0.60975566   -8.4515408    660.98713  0.013798161  0.012919533            1 
 3993000   0.59965614   -8.4166373    663.47232  0.013846572  0.012915113            2 
 3994000   0.62120048   -8.4392789     662.5712  0.013824303  0.012910695            1 
 3995000   0.60265954   -8.4348609    661.27134  0.013793728  0.012906278            2 
 3996000   0.61951563   -8.4529833    662.08007  0.013807142   0.01290186            1 
 3997000   0.61677203   -8.4535509    662.05021  0.013803065  0.012897441            2 
 3998000   0.61430379   -8.4475118    662.45404   0.01380803  0.012893025            3 
 3999000   0.61610244   -8.4403433    661.35032  0.013781577  0.012888613            2 
 4000000   0.62684149   -8.4366239    661.26821  0.013776421  0.012884199            2 
 4001000   0.60202644   -8.4468553    663.05992  0.013810296  0.012879793            4 
 4002000   0.61762677   -8.4356647    662.08372  0.013786518  0.012875372            3 
 4003000   0.60549479    -8.423342    663.18999  0.013806104  0.012870958            2 
 4004000   0.62348117   -8.4391679    662.39174  0.013786042  0.012866546            2 
 4005000    0.6011309   -8.4164217    661.76592  0.013769578  0.012862143            2 
 4006000   0.60835373   -8.4370665     661.7491  0.013765791  0.012857738            2 
 4007000   0.61953786   -8.4330975    662.76186  0.013783418  0.012853327            3 
 4008000    0.6078009   -8.4423991    662.50939   0.01377473  0.012848924            2 
 4009000   0.60699962   -8.4309512    662.46153  0.013770299  0.012844514            1 
 4010000   0.62452222   -8.4622144    662.28888  0.013763277  0.012840104            4 
 4011000   0.61116642   -8.4380185    662.18595  0.013757707    0.0128357            1 
 4012000   0.60426762    -8.462048    660.75681  0.013724593  0.012831296            2 
 4013000   0.61181821   -8.4536717    661.91895  0.013745306  0.012826894            2 
 4014000   0.60954375   -8.4524533    661.82774  0.013739988  0.012822489            1 
 4015000   0.61170505   -8.4579779    661.46906  0.013729121  0.012818085            1 
 4016000    0.6033151   -8.4471578    661.56554  0.013727705  0.012813689            1 
 4017000   0.61052776   -8.4505945    661.38782    0.0137206  0.012809294            1 
 4018000   0.61940792   -8.4337416    660.59767  0.013700798  0.012804902            2 
 4019000   0.59551595   -8.4547844    660.76355  0.013700828  0.012800506            4 
 4020000   0.60850486   -8.4534524    661.91867  0.013721366  0.012796112            2 
 4021000   0.62103831   -8.4442068    661.62037  0.013711771  0.012791727            1 
 4022000   0.60760916   -8.4556048     661.9494  0.013715179  0.012787342            3 
 4023000   0.60547539    -8.461992    662.49256  0.013723021  0.012782953            1 
 4024000   0.61381619    -8.453701    661.81301  0.013705538  0.012778567            2 
 4025000   0.60754456   -8.4705511    661.49694  0.013695589  0.012774184            2 
 4026000   0.60715107   -8.4527763    661.16824  0.013685383  0.012769804            3 
 4027000   0.62411796   -8.4728787    661.64636  0.013691879  0.012765428            2 
 4028000   0.62111834   -8.4377387    661.24512  0.013680179  0.012761062            1 
 4029000   0.60489279   -8.4410055    661.67093   0.01368559  0.012756689            3 
 4030000    0.5991212   -8.4324676    663.10933  0.013711938  0.012752325            3 
 4031000   0.61560063   -8.4716527    662.38783  0.013693621  0.012747954            2 
 4032000   0.60346104   -8.4596222    660.87128  0.013658881  0.012743585            3 
 4033000   0.61020481     -8.42823    662.46266  0.013688376  0.012739222            3 
 4034000   0.59723567   -8.4432233    661.32507  0.013661483  0.012734851            5 
 4035000   0.61124922    -8.465721    662.57409  0.013683893  0.012730485            2 
 4036000   0.60337595   -8.4544424    661.84418  0.013665432  0.012726123            3 
 4037000   0.62369419   -8.4349673    661.22998  0.013649368  0.012721758            1 
 4038000   0.60172202    -8.457017    661.17203  0.013644792  0.012717394            2 
 4039000   0.60462045   -8.4709289    661.68688  0.013652036   0.01271303            3 
 4040000   0.60391752   -8.4625141    661.90073  0.013653068  0.012708666            2 
 4041000   0.61276891   -8.4668849    661.81352  0.013647891  0.012704304            2 
 4042000   0.61506344    -8.460255     662.0639  0.013649676  0.012699942            3 
 4043000    0.6092445   -8.4530998    661.97287  0.013644424  0.012695583            4 
 4044000   0.60125971   -8.4549975     662.4888  0.013651682  0.012691233            1 
 4045000   0.61444502   -8.4803352    661.51287  0.013628201  0.012686879            1 
 4046000    0.6010237   -8.4487547    662.51362  0.013645445  0.012682534            1 
 4047000   0.60554758    -8.437404    662.08904   0.01363333  0.012678192            1 
 4048000   0.61150429   -8.4601741    660.45158  0.013596253  0.012673846            2 
 4049000   0.60139005   -8.4510021    660.75999  0.013599242  0.012669497            1 
 4050000   0.59112551   -8.4730749    661.75844  0.013616429  0.012665149            4 
 4051000   0.60342083   -8.4562043    661.22307  0.013602054  0.012660803            2 
 4052000    0.5879433   -8.4488768    661.71664  0.013608848  0.012656462            1 
 4053000   0.58908859   -8.4460224    661.27416  0.013596393  0.012652119            3 
 4054000   0.59512495   -8.4742102    661.05102  0.013588452  0.012647776            1 
 4055000   0.59974397   -8.4978352    660.92662  0.013582545  0.012643438            1 
 4056000   0.60016067   -8.4542063    661.41456  0.013589221  0.012639098            2 
 4057000   0.60478587   -8.4596881    662.47641  0.013607682  0.012634769            4 
 4058000   0.60060279    -8.466396    661.30009  0.013580173  0.012630439            1 
 4059000   0.59163079   -8.4599037    661.66754  0.013584371  0.012626107            2 
 4060000   0.59739775   -8.4731251    661.28622  0.013573198   0.01262178            3 
 4061000   0.58068268   -8.4707292    661.39793  0.013572148  0.012617453            5 
 4062000   0.61381583   -8.4827629    661.41221    0.0135691  0.012613131            1 
 4063000    0.5995668   -8.4549543    662.15302  0.013580955  0.012608808            3 
 4064000   0.61731631   -8.4661641    661.12405  0.013556514  0.012604486            2 
 4065000    0.6037223   -8.4882778    662.23736  0.013576002   0.01260017            2 
 4066000   0.60599164   -8.4631712     661.3727  0.013554941  0.012595857            2 
 4067000   0.59998938   -8.4432705    661.82229  0.013560821  0.012591536            3 
 4068000   0.59749846   -8.4606093    661.86173  0.013558295   0.01258722            2 
 4069000   0.59362002   -8.4577744    661.31327   0.01354373  0.012582913            1 
 4070000   0.60437635   -8.4874254    661.14985  0.013537057  0.012578603            4 
 4071000   0.59513356   -8.4833867    660.71289  0.013524787  0.012574293            4 
 4072000   0.60942142   -8.4788398    660.78995  0.013523042  0.012569988            2 
 4073000   0.59402065   -8.4730487    660.89862  0.013521946  0.012565679            3 
 4074000   0.59324211   -8.4774368    660.57035  0.013511912  0.012561369            2 
 4075000   0.60611451   -8.4607324    661.47724  0.013527142   0.01255706            2 
 4076000   0.60856097   -8.4535709    660.95085  0.013513061  0.012552753            3 
 4077000   0.59795023   -8.4695805    661.39301  0.013518784  0.012548449            2 
 4078000   0.61398462   -8.4782599    661.77422  0.013523259  0.012544146            3 
 4079000   0.59859493   -8.4596782    661.37218   0.01351173  0.012539854            2 
 4080000   0.59982848   -8.4787208    662.03481  0.013521953  0.012535565            5 
 4081000   0.58839369   -8.4583581    661.76032  0.013513034  0.012531274            3 
 4082000   0.59218655   -8.4651318    660.98745  0.013493946  0.012526983            1 
 4083000    0.5966765   -8.4623014    660.87626  0.013488372  0.012522696            2 
 4084000   0.59889463   -8.4735127    661.90452   0.01350605  0.012518414            2 
 4085000   0.59402445   -8.4801747    662.71227  0.013519222  0.012514131            2 
 4086000   0.59129856   -8.4700965    661.70494  0.013495369  0.012509849            1 
 4087000   0.59264623   -8.4421218    661.13363  0.013480418  0.012505568            1 
 4088000    0.5980126   -8.4811676    661.67073  0.013488069  0.012501292            4 
 4089000   0.59360343   -8.4645875    661.36523  0.013478545  0.012497012            1 
 4090000   0.61167464   -8.4786419    662.23315  0.013492933  0.012492737            4 
 4091000     0.601502   -8.4677067     661.9186  0.013483227  0.012488459            3 
 4092000    0.5975656   -8.4898818    660.82367  0.013457634  0.012484184            3 
 4093000   0.60200588    -8.461277    661.40094  0.013466099  0.012479908            2 
 4094000   0.60360484   -8.4697288    660.38463  0.013442123   0.01247564            3 
 4095000   0.60336939   -8.4638964    659.38702  0.013418539  0.012471362            2 
 4096000   0.59432391   -8.4893505    661.03013  0.013448692  0.012467091            2 
 4097000   0.59271055   -8.4729036    661.02214  0.013445247  0.012462822            2 
 4098000   0.59491303   -8.4786773    661.30078  0.013447632  0.012458553            2 
 4099000   0.59700976   -8.4672842    661.01258  0.013438493  0.012454285            2 
 4100000   0.58779721   -8.4494817    661.41032  0.013443299  0.012450026            5 
 4101000   0.59377407   -8.4902397    661.48172  0.013441472   0.01244576            3 
 4102000   0.59155497   -8.4864074    660.52261  0.013418711  0.012441499            1 
 4103000   0.59172633    -8.473038    661.15472  0.013428278  0.012437235            2 
 4104000    0.5893154   -8.4787415     660.5578  0.013412886  0.012432975            1 
 4105000   0.58726212   -8.4688806    661.28069  0.013424293  0.012428712            1 
 4106000   0.60107896   -8.4832858    661.85599    0.0134327   0.01242445            1 
 4107000   0.61338013   -8.4952851    661.79345   0.01342816  0.012420198            3 
 4108000   0.60071129   -8.4898589    660.65701  0.013401838  0.012415939            3 
 4109000   0.58581567   -8.4671542    661.97247  0.013425255  0.012411682            2 
 4110000   0.60269163   -8.4869133    661.59328    0.0134143  0.012407429            2 
 4111000   0.58182057   -8.4747725    661.91058  0.013417469  0.012403179            1 
 4112000   0.58935731    -8.473367    660.09078  0.013377326  0.012398931            2 
 4113000   0.59470556   -8.4798138    661.28195  0.013398208  0.012394683            4 
 4114000   0.57817695    -8.493992    661.93537  0.013408187  0.012390438            4 
 4115000   0.60048243   -8.4607434    661.21651  0.013390371   0.01238619            2 
 4116000   0.60153924   -8.4796119    661.93532  0.013401671  0.012381939            5 
 4117000   0.59710715   -8.4802565    662.19057  0.013403582  0.012377695            2 
 4118000   0.59066365   -8.5027335    662.01804  0.013396836  0.012373455            2 
 4119000   0.58806679   -8.4815929    660.74933  0.013367915  0.012369213            2 
 4120000   0.58055705   -8.4890211    661.74973  0.013384906  0.012364972            3 
 4121000   0.58459725   -8.4933866    661.31534  0.013372873  0.012360735            3 
 4122000   0.59613191   -8.4649971    661.55205  0.013374415  0.012356503            3 
 4123000   0.59643449   -8.4921216    660.03894  0.013340588  0.012352265            4 
 4124000     0.594963   -8.4862526    660.50369  0.013346745  0.012348028            3 
 4125000   0.58730711   -8.4925293    660.90934  0.013351704    0.0123438            2 
 4126000   0.58231257   -8.4796639    660.38352  0.013337848   0.01233957            2 
 4127000   0.59993843   -8.4769283    659.60607  0.013318917  0.012335342            2 
 4128000   0.60539211   -8.4680332    660.50523  0.013333843  0.012331122            2 
 4129000   0.60088164   -8.4728553    661.37421  0.013348151  0.012326902            2 
 4130000   0.60566863    -8.474457    661.87869  0.013355099  0.012322686            2 
 4131000   0.59701436   -8.4745541    660.91623   0.01333245  0.012318474            2 
 4132000   0.59311036   -8.4968396    661.20919  0.013335132  0.012314251            3 
 4133000   0.58230163   -8.4972637     660.5458   0.01331853  0.012310037            2 
 4134000   0.60349668   -8.4913137    659.97641   0.01330383  0.012305823            2 
 4135000   0.59734599   -8.4966401    661.19597  0.013325191  0.012301604            4 
 4136000   0.58609127    -8.489489    660.29271   0.01330377  0.012297391            3 
 4137000   0.58930382   -8.5125414    661.52489  0.013325374  0.012293183            3 
 4138000   0.59861512   -8.4690757    660.53462  0.013302212  0.012288976            5 
 4139000   0.59281482   -8.5028698    662.21566  0.013332843  0.012284775            3 
 4140000   0.58564447   -8.4827225    661.13417  0.013307854  0.012280574            2 
 4141000   0.59026084   -8.4846539    660.04948  0.013282812  0.012276369            2 
 4142000   0.59065732   -8.4766601    660.43476  0.013287356  0.012272167            2 
 4143000   0.58486641   -8.4810615    661.13346  0.013298203  0.012267964            2 
 4144000   0.59439878   -8.4921873    660.81652   0.01328862  0.012263759            2 
 4145000   0.59197503   -8.4881699    660.63005  0.013281666  0.012259561            4 
 4146000   0.58520413   -8.5072123    660.89071  0.013283701  0.012255363            2 
 4147000   0.59794828   -8.4960801    661.10561  0.013284817  0.012251164            2 
 4148000    0.5777711   -8.4803928    660.52845  0.013270019  0.012246973            3 
 4149000   0.58578028   -8.5119554    660.91878   0.01327466  0.012242785            3 
 4150000   0.59734353   -8.4980582    660.12838   0.01325559  0.012238593            3 
 4151000   0.57990895   -8.5021682     662.3076  0.013296145  0.012234405            2 
 4152000   0.59185501   -8.4782825    661.57696  0.013278279   0.01223022            1 
 4153000   0.58875802   -8.4814914    661.54709  0.013274482  0.012226036            3 
 4154000   0.59258916   -8.5068607    662.21792  0.013284744  0.012221858            2 
 4155000   0.58619448   -8.5071495    660.96742  0.013256466  0.012217677            3 
 4156000    0.6030697   -8.4950922    661.10716  0.013256079  0.012213504            3 
 4157000   0.59569424   -8.4890896    660.12284  0.013233158  0.012209328            3 
 4158000   0.57775185    -8.487934    659.75252  0.013222553  0.012205154            2 
 4159000   0.60000575   -8.4815356    661.36128  0.013251608  0.012200987            3 
 4160000   0.58321634   -8.4902871    660.71436  0.013235464  0.012196824            2 
 4161000   0.59981077   -8.5058757    660.45017  0.013226992  0.012192659            1 
 4162000   0.57438407   -8.4915157    660.49415  0.013224695  0.012188496            1 
 4163000   0.57990698   -8.4823228    660.98603  0.013231364  0.012184336            2 
 4164000   0.59787812   -8.4742579    662.27269  0.013253936  0.012180181            2 
 4165000   0.59637881   -8.4971067    659.93863  0.013204054  0.012176029            3 
 4166000   0.58909349   -8.4861052     661.0733  0.013223582  0.012171872            3 
 4167000   0.58127102   -8.5027091    661.19855  0.013222913  0.012167713            1 
 4168000   0.59278063   -8.4939341    660.37737  0.013203322  0.012163556            1 
 4169000    0.5869756   -8.4948669     661.7229  0.013227051  0.012159397            2 
 4170000   0.59007467   -8.4755076    661.52565  0.013219937  0.012155238            2 
 4171000   0.58161443   -8.5024756    659.64539  0.013179201   0.01215108            3 
 4172000   0.59328252   -8.4834995    660.79463  0.013198998  0.012146921            8 
 4173000   0.58889976   -8.5003488    660.43371  0.013188628  0.012142767            3 
 4174000   0.58824557   -8.5101749    660.16967  0.013180196  0.012138614            4 
 4175000   0.57980438   -8.4948955    660.51352  0.013183903  0.012134461            2 
 4176000   0.57545903   -8.5016875    659.70085  0.013164528   0.01213031            1 
 4177000   0.58739016   -8.5174395    660.45296  0.013176382  0.012126157            4 
 4178000   0.58588368   -8.5096244    659.43664  0.013152957  0.012122006            2 
 4179000   0.58494036   -8.5184744    660.23522  0.013165734  0.012117859            4 
 4180000   0.58434133   -8.5062359    659.51368  0.013148199  0.012113703            1 
 4181000    0.5940091   -8.4970241    659.77684    0.0131503  0.012109558            2 
 4182000   0.58450444   -8.4982674    660.00748  0.013151751   0.01210541            2 
 4183000   0.59963956   -8.4891795    659.99257   0.01314831  0.012101269            1 
 4184000   0.58946305   -8.5036722    661.38743  0.013172949  0.012097132            3 
 4185000   0.58359223   -8.5049918     661.4075  0.013170201  0.012093002            4 
 4186000   0.58884827   -8.4965547    660.31499  0.013145306  0.012088869            4 
 4187000   0.58977138   -8.5006174    661.66078  0.013168951  0.012084741            2 
 4188000   0.58305168   -8.4939665    660.46455  0.013142004  0.012080608            3 
 4189000   0.57470912   -8.5163612    659.37465  0.013117185  0.012076481            1 
 4190000   0.57807605   -8.4813165    660.58225  0.013138072  0.012072354            2 
 4191000   0.57914416   -8.4962033    659.63216  0.013116045  0.012068231            2 
 4192000   0.59136306   -8.5147429    659.88614  0.013117966  0.012064106            6 
 4193000   0.58991057    -8.512577    660.03055  0.013117707  0.012059983            2 
 4194000   0.58190604   -8.5130408    660.18949  0.013117738  0.012055857            2 
 4195000   0.58393369     -8.50274    661.22925  0.013135265  0.012051737            2 
 4196000   0.57990795   -8.5142641    660.39367   0.01311554  0.012047619            3 
 4197000   0.58357293   -8.5046277    660.93148  0.013123093  0.012043502            4 
 4198000    0.5973191   -8.5027482    659.78545  0.013097218  0.012039382            3 
 4199000   0.58045422   -8.4968834    659.92842  0.013096936  0.012035262            4 
 4200000   0.56719746   -8.5096285    660.47824  0.013104727  0.012031145            2 
 4201000   0.59348147   -8.5040132     660.9939  0.013111837  0.012027029            3 
 4202000   0.57463073   -8.4942567    659.41542  0.013077412  0.012022915            2 
 4203000   0.56932828   -8.5056698    659.54198   0.01307681  0.012018807            4 
 4204000   0.58581642   -8.5081788    659.68876  0.013076609  0.012014691            2 
 4205000   0.57180757   -8.5238309    660.45544  0.013088693  0.012010583            2 
 4206000   0.57710575   -8.5124257    659.66623  0.013069944  0.012006479            3 
 4207000   0.58492107   -8.5075863    659.61717  0.013065866  0.012002366            2 
 4208000   0.57864637   -8.5093803     660.1363  0.013073041  0.011998259            5 
 4209000   0.58034588   -8.5331041    659.31951  0.013053764  0.011994152            2 
 4210000   0.56871799   -8.5160869     660.1307   0.01306672  0.011990048            2 
 4211000   0.57263414   -8.5153297    660.82995  0.013077455  0.011985951            2 
 4212000   0.58435524   -8.5168944    658.51001  0.013028451  0.011981848            3 
 4213000   0.57082052   -8.5356677    660.30204  0.013060805  0.011977746            8 
 4214000   0.58190949   -8.5152964    659.14512  0.013034827  0.011973644            3 
 4215000   0.57026492   -8.5228912      660.311  0.013054784  0.011969546            4 
 4216000   0.58182621   -8.5095022    659.22256  0.013030174  0.011965452            4 
 4217000   0.57875388    -8.512795    660.19516  0.013046304  0.011961357            2 
 4218000   0.57921028   -8.4986765     660.0025  0.013039405  0.011957266            3 
 4219000   0.57251422   -8.5262472      660.022  0.013036699  0.011953175            2 
 4220000   0.58056096   -8.5197926    660.41173  0.013041306  0.011949087            2 
 4221000   0.57217805   -8.5084342       660.12  0.013032457  0.011944998            3 
 4222000   0.58198684   -8.5250035    660.23967  0.013031732  0.011940907            2 
 4223000   0.58051922    -8.520473    659.62112   0.01301644  0.011936817            2 
 4224000   0.57163854   -8.5312835    660.55857  0.013031853  0.011932731            2 
 4225000   0.57291267   -8.5054896     658.8832  0.012995724  0.011928651            2 
 4226000   0.57474167    -8.522382    659.55094  0.013005816  0.011924568            2 
 4227000   0.56144607   -8.5262569     659.5728   0.01300317  0.011920484            4 
 4228000   0.56593541   -8.5091804    660.77557  0.013023801  0.011916405            2 
 4229000   0.58227077   -8.5186191    660.03334  0.013006096  0.011912329            3 
 4230000   0.56444761   -8.5282248    659.30299  0.012988633  0.011908256            5 
 4231000   0.59784686   -8.5076352    660.52991  0.013009728  0.011904186            2 
 4232000   0.56637162   -8.5122354    659.57618  0.012987874  0.011900116            3 
 4233000   0.58714472   -8.5226429    661.43495  0.013021398  0.011896048            1 
 4234000   0.58974913   -8.5069553    660.22156  0.012994441  0.011891985            4 
 4235000   0.57904106   -8.5173557    660.90052  0.013004733  0.011887922            2 
 4236000    0.5628503   -8.4988194     659.7626  0.012979277  0.011883861            3 
 4237000   0.57280799   -8.5354248    659.47994  0.012970654  0.011879797            2 
 4238000   0.57249139   -8.5025532    659.37479  0.012965526  0.011875741            1 
 4239000   0.58118895   -8.5175384    659.53229  0.012965564  0.011871677            2 
 4240000   0.57298605   -8.5243783    658.91137  0.012950302  0.011867615            2 
 4241000   0.56428619   -8.5274698    659.70254  0.012962795  0.011863556            4 
 4242000   0.58006482   -8.5108321    659.83421  0.012962325  0.011859493            3 
 4243000   0.57726791   -8.5351825     660.2363  0.012967168  0.011855434            2 
 4244000    0.5748589   -8.5279842    659.31101  0.012945944  0.011851382            4 
 4245000   0.56483528    -8.520416    660.13771  0.012959123  0.011847333            4 
 4246000   0.56752959   -8.5139594    660.30076  0.012959271  0.011843277            2 
 4247000   0.57442506   -8.5390207    658.97243  0.012930155  0.011839227            2 
 4248000   0.58187566   -8.5223742    660.16045  0.012950417  0.011835178            4 
 4249000   0.57604705   -8.5417413    660.01394  0.012944495  0.011831128            4 
 4250000   0.57214483   -8.5085793    659.81558   0.01293756  0.011827082            6 
 4251000   0.57798184   -8.5253244    659.74884  0.012933209  0.011823036            3 
 4252000   0.57044646   -8.5504695    659.35571  0.012922462  0.011818982            3 
 4253000   0.57309648   -8.5263658    659.32071  0.012918738  0.011814936            3 
 4254000   0.57388563   -8.5110152    658.48921  0.012899413  0.011810892            5 
 4255000   0.56849202   -8.5565158    659.63732  0.012918866  0.011806845            4 
 4256000   0.56434421   -8.5290163    658.99129  0.012903182  0.011802803            3 
 4257000   0.57008778    -8.549989    659.01983  0.012900709  0.011798762            4 
 4258000   0.55944898   -8.5184158     659.4383  0.012905869  0.011794722            2 
 4259000   0.56898001   -8.5327726    659.21642  0.012898498  0.011790681            3 
 4260000    0.5742364   -8.5125726    658.82401  0.012887794  0.011786637            3 
 4261000   0.56262901   -8.5324937      659.049  0.012889169    0.0117826            2 
 4262000   0.57090439   -8.5313084    658.84425  0.012882142  0.011778563            5 
 4263000   0.56488788   -8.5438971    658.55293  0.012873425  0.011774528            2 
 4264000   0.57441683   -8.5360857    659.91249  0.012896976  0.011770497            6 
 4265000   0.58382533   -8.5246815    658.91679  0.012874498   0.01176647            3 
 4266000    0.5594072   -8.5289806    659.32927  0.012879537  0.011762441            2 
 4267000    0.5856277   -8.5429713    658.10529  0.012852615  0.011758415            3 
 4268000   0.58507987   -8.5424894    659.52233  0.012877271  0.011754383            4 
 4269000   0.56682006   -8.5569583    659.48533  0.012873533  0.011750356            2 
 4270000   0.57431411    -8.539413    659.18516   0.01286466  0.011746336            5 
 4271000   0.56583189   -8.5382209    659.24111  0.012862739  0.011742313            5 
 4272000   0.56649402   -8.5457813    659.50701  0.012864915  0.011738296            3 
 4273000   0.56069895   -8.5419785     658.9456  0.012850956  0.011734281            5 
 4274000   0.56705134   -8.5408115    658.30951  0.012835547  0.011730266            2 
 4275000    0.5602511   -8.5394259    659.28774  0.012851613   0.01172625            2 
 4276000   0.57589321   -8.5445748    659.51989  0.012853132  0.011722242            3 
 4277000   0.55498141   -8.5535269     659.6578  0.012852814  0.011718231            2 
 4278000   0.56454513   -8.5275804    659.60539  0.012848788  0.011714224            3 
 4279000   0.56580869   -8.5420717     659.9979  0.012853429  0.011710221            3 
 4280000    0.5640286   -8.5373613    659.09671   0.01283288  0.011706219            2 
 4281000   0.57556785   -8.5454902    658.97398  0.012827493   0.01170221            5 
 4282000   0.57073792   -8.5514247    658.85334   0.01282215  0.011698209            2 
 4283000   0.56965522   -8.5385376    659.45214  0.012830807  0.011694206            6 
 4284000   0.57235017   -8.5363665    658.96815  0.012818397  0.011690206            3 
 4285000   0.57123443   -8.5379898    660.04848  0.012836415  0.011686213            3 
 4286000   0.56372783    -8.517597    658.30281  0.012799479   0.01168222            4 
 4287000   0.56193201   -8.5294526     659.6097  0.012821898   0.01167823            3 
 4288000   0.56322691    -8.545186    659.33417  0.012813553  0.011674245            4 
 4289000   0.56518824   -8.5313304     659.1385  0.012806763  0.011670261            5 
 4290000   0.57860061   -8.5350071    658.85209  0.012798215  0.011666275            2 
 4291000   0.56852063   -8.5350334     658.8739  0.012795656  0.011662286            4 
 4292000   0.56120515   -8.5552324     658.1793  0.012779188  0.011658296            3 
 4293000   0.55716031   -8.5452595    658.14448  0.012775535  0.011654313            3 
 4294000   0.55776237   -8.5381273    660.19841  0.012812421  0.011650335            3 
 4295000   0.56450252   -8.5323273    658.91365   0.01278451  0.011646355            4 
 4296000    0.5779487   -8.5347455    659.47475  0.012792418  0.011642374            5 
 4297000   0.56740157   -8.5478529    658.75562  0.012775495  0.011638401            5 
 4298000   0.57123368   -8.5312411    658.94437  0.012776182  0.011634425            2 
 4299000   0.56374582   -8.5436178    659.20867  0.012778334  0.011630451            3 
 4300000   0.55002091   -8.5431363    659.60775  0.012783096  0.011626478            2 
 4301000   0.55829108   -8.5325392    659.05326   0.01276938  0.011622508            4 
 4302000   0.56829961   -8.5455738    658.94072  0.012764232  0.011618542            4 
 4303000   0.56211497    -8.525243    659.11253  0.012764593  0.011614579            3 
 4304000   0.56387852   -8.5574251    658.64384  0.012752553  0.011610609            6 
 4305000   0.55429029   -8.5604637    658.39029  0.012744682  0.011606643            3 
 4306000   0.56680387   -8.5380677    659.15319  0.012756487  0.011602682            2 
 4307000   0.56190181   -8.5407792    659.50489   0.01276033  0.011598716            3 
 4308000   0.56151053   -8.5528589    658.66215  0.012741066  0.011594754            3 
 4309000   0.56121408    -8.522916    659.08483  0.012746284  0.011590794            4 
 4310000   0.56943592   -8.5584536    658.76093  0.012737064  0.011586832            3 
 4311000   0.56390035   -8.5355937    659.32367  0.012744987  0.011582878            3 
 4312000     0.542613    -8.546765    658.19888  0.012720294   0.01157892            4 
 4313000    0.5705151   -8.5504772    658.97196  0.012732281  0.011574959            3 
 4314000   0.56771391   -8.5695166    658.83183  0.012726623  0.011571002            3 
 4315000   0.55659502   -8.5477846    659.00677  0.012727052  0.011567044            2 
 4316000   0.56952398   -8.5418452    659.00819  0.012724131   0.01156309            3 
 4317000   0.56119611   -8.5187487    657.97533  0.012701246  0.011559136            2 
 4318000   0.55230099   -8.5594519     657.8884  0.012696627  0.011555183            3 
 4319000   0.55494876   -8.5663431    658.53596  0.012706181  0.011551231            2 
 4320000   0.57359274   -8.5489267    660.14554  0.012734289  0.011547279            4 
 4321000   0.55674315   -8.5621926    658.40619  0.012697797  0.011543333            3 
 4322000   0.57475239   -8.5272275      658.511   0.01269688  0.011539389            6 
 4323000   0.57305333   -8.5475307    659.38206  0.012710734  0.011535448            3 
 4324000   0.55254457   -8.5684627    658.04445  0.012682016  0.011531501            3 
 4325000   0.56786385   -8.5515367     659.4826  0.012706794  0.011527562            5 
 4326000   0.55890172   -8.5451065    660.94854  0.012732095  0.011523625            3 
 4327000   0.56189002   -8.5340319    658.48319  0.012681673  0.011519686            4 
 4328000   0.56888197   -8.5588386    658.15831  0.012672487  0.011515749            6 
 4329000   0.54464104   -8.5595146    660.35522  0.012711851  0.011511812            5 
 4330000   0.55593961   -8.5619138     659.4471  0.012691438  0.011507879            2 
 4331000   0.56074773   -8.5475341    657.18473  0.012644977   0.01150395            2 
 4332000   0.55082961   -8.5500589    658.99991  0.012676976  0.011500021            2 
 4333000   0.55435911   -8.5729763    657.21999  0.012639818  0.011496091            2 
 4334000   0.56687755   -8.5590676    658.46731  0.012660885  0.011492162            3 
 4335000   0.56025653   -8.5546234    658.03315  0.012649618  0.011488235            3 
 4336000   0.55695229    -8.553934    657.65978  0.012639525  0.011484307            4 
 4337000   0.56196706   -8.5655736    658.38412  0.012650529  0.011480384            3 
 4338000   0.56020682   -8.5604633    659.55226  0.012670053  0.011476462            2 
 4339000   0.55398833   -8.5701147    658.28478   0.01264279   0.01147254            3 
 4340000   0.55927754   -8.5688182     657.7167  0.012628969  0.011468621            3 
 4341000   0.55224774   -8.5579027    658.63603  0.012643708  0.011464698            4 
 4342000    0.5534109     -8.57247    659.16673  0.012650981  0.011460782            3 
 4343000   0.55952127   -8.5518811    659.24829  0.012649633  0.011456864            4 
 4344000    0.5554082    -8.580774    658.11265  0.012624936  0.011452948            3 
 4345000   0.55968628   -8.5513579    658.48854  0.012629239  0.011449033            4 
 4346000   0.54618882   -8.5641042     658.4615  0.012625815   0.01144512            3 
 4347000    0.5675797   -8.5683339     657.4887  0.012604262  0.011441214            3 
 4348000   0.55818772   -8.5549708    657.90238  0.012609291  0.011437306            3 
 4349000   0.56516432   -8.5707774    658.43591  0.012616615  0.011433399            3 
 4350000   0.55157509   -8.5557705    658.51431  0.012615217  0.011429494            4 
 4351000   0.56188918    -8.583649    658.45421  0.012611166  0.011425586            2 
 4352000   0.55930798    -8.581421    658.39518  0.012607138  0.011421681            3 
 4353000   0.57004706    -8.569054    657.97936  0.012596281  0.011417777            6 
 4354000   0.56473952   -8.5491222    657.07073  0.012575998  0.011413873            5 
 4355000   0.56017689   -8.5614161    657.81449  0.012587342  0.011409971            2 
 4356000   0.55612991   -8.5653055    658.17646  0.012591377  0.011406071            3 
 4357000   0.56691015   -8.5781306    658.09213  0.012586874  0.011402175            2 
 4358000   0.55267159   -8.5631472    658.13754  0.012584854  0.011398279            4 
 4359000   0.55482908    -8.566434    657.97105  0.012578784  0.011394381            3 
 4360000   0.55243793   -8.5671311    658.88997  0.012593463   0.01139049            3 
 4361000   0.55317096   -8.5645208     658.7932  0.012588726  0.011386605            3 
 4362000   0.55059294   -8.5714813    656.80388  0.012547835  0.011382717            2 
 4363000   0.55062098   -8.5671194     658.2874  0.012573294   0.01137883            4 
 4364000   0.54430242   -8.5478361    657.68311  0.012558874  0.011374947            4 
 4365000   0.55770665   -8.5716184    659.32722  0.012587385  0.011371063            4 
 4366000   0.56337682   -8.5649084     657.4783  0.012549212  0.011367181            2 
 4367000   0.54729862   -8.5824507    657.77421  0.012551985  0.011363304            1 
 4368000    0.5584072   -8.5856572    657.32451  0.012540532  0.011359426            2 
 4369000   0.55003929   -8.5564883    658.54218  0.012560887  0.011355548            5 
 4370000   0.55313331   -8.5666663    657.04543   0.01252947   0.01135167            3 
 4371000   0.56503399   -8.5613656    657.99748  0.012544755  0.011347799            4 
 4372000   0.55593891   -8.5677599    658.32343  0.012548098   0.01134393            4 
 4373000   0.54948356     -8.56759    657.81245  0.012535492  0.011340061            4 
 4374000   0.56501828   -8.5609413    657.83755  0.012533104  0.011336192            1 
 4375000   0.55016337   -8.5685083    656.75304  0.012509582  0.011332322            2 
 4376000   0.54002206   -8.5772716    656.72314  0.012506154  0.011328452            3 
 4377000    0.5520894   -8.5600852    656.40337  0.012497208  0.011324588            3 
 4378000   0.55127312   -8.5838861    657.67482  0.012518555   0.01132072            3 
 4379000   0.55051682    -8.579464    657.21306  0.012506909  0.011316855            5 
 4380000   0.54379512   -8.5534987    657.72707  0.012513833  0.011312996            2 
 4381000   0.54033928   -8.5844172    658.40829  0.012523935   0.01130914            4 
 4382000   0.54624955   -8.5695958    657.85089  0.012510476  0.011305279            4 
 4383000   0.55897238   -8.5522661    657.60799  0.012503004  0.011301423            3 
 4384000   0.55282857   -8.5702212    657.23859   0.01249313  0.011297568            3 
 4385000   0.54313009   -8.5626959    657.52022  0.012495633  0.011293714            4 
 4386000   0.55657313   -8.5959653    656.92903  0.012481552  0.011289857            4 
 4387000   0.55057301   -8.5874019     657.4566  0.012488728  0.011286006            3 
 4388000   0.54146464   -8.5589572    658.38864  0.012503583  0.011282154            3 
 4389000   0.55951876    -8.559111    657.77313  0.012489047  0.011278309            4 
 4390000   0.55575987   -8.5808299    656.61638  0.012464244  0.011274462            2 
 4391000   0.55844968     -8.58191    657.25869  0.012473595  0.011270619            2 
 4392000   0.55236975    -8.567548    658.19415  0.012488505  0.011266773            2 
 4393000   0.56304317   -8.5766548    657.85877    0.0124793   0.01126293            4 
 4394000   0.54351725   -8.5746979     657.5202  0.012470039  0.011259086            5 
 4395000    0.5422324   -8.5811659    656.63128  0.012450347  0.011255242            4 
 4396000   0.55370954   -8.5975809    657.40942  0.012462265  0.011251402            3 
 4397000   0.55546276   -8.5721111    657.65684   0.01246412   0.01124757            4 
 4398000   0.55257182   -8.5643897    657.63261  0.012460827  0.011243736            2 
 4399000   0.54973292   -8.5888717    657.85665  0.012462239  0.011239904            3 
 4400000   0.54989571   -8.5751752    657.75857  0.012457549  0.011236078            2 
 4401000   0.54362744   -8.5471219    658.24858  0.012463996  0.011232248            2 
 4402000   0.54940493   -8.5813462    657.40006  0.012445102  0.011228421            3 
 4403000   0.53261306   -8.5709938    657.72361  0.012448399  0.011224596            2 
 4404000   0.54370411   -8.5745782    657.58601  0.012442969  0.011220773            3 
 4405000   0.54685571   -8.5856629    658.08805  0.012449641   0.01121695            3 
 4406000   0.54902603   -8.5603501    657.59939  0.012437574  0.011213128            3 
 4407000   0.53598341   -8.5839602    658.39143  0.012449728  0.011209306            2 
 4408000   0.54875345   -8.5842287    658.00786  0.012439652  0.011205483            4 
 4409000   0.55256191   -8.5879396    657.21063  0.012421763  0.011201666            2 
 4410000   0.53909523   -8.5882228    658.17624  0.012437193  0.011197849            4 
 4411000   0.54474569   -8.5669517    658.11822  0.012433277  0.011194038            3 
 4412000   0.54148843    -8.593994    657.49744  0.012418734  0.011190224            3 
 4413000    0.5394257   -8.5918884    656.93526  0.012405304  0.011186411            3 
 4414000   0.54901876   -8.5611453    657.32333   0.01240982  0.011182605            3 
 4415000   0.54448579    -8.578324     657.2479  0.012405585  0.011178794            3 
 4416000   0.55369385   -8.5764017    658.44515  0.012425369  0.011174985            3 
 4417000   0.52950031   -8.5864754    657.31756  0.012401282  0.011171175            4 
 4418000   0.55108218   -8.5818669      657.069  0.012393787  0.011167367            2 
 4419000   0.55332518   -8.5727701    656.36196  0.012377649  0.011163561            4 
 4420000   0.54185944   -8.5829892    657.61399  0.012398454  0.011159755            2 
 4421000   0.55644955    -8.590479     658.6867  0.012415869  0.011155953            3 
 4422000   0.54674759   -8.5837649    657.10685  0.012383289  0.011152152            4 
 4423000   0.53592142   -8.5831089    658.01589  0.012397616  0.011148354            6 
 4424000   0.54697111   -8.5807754    657.66938  0.012388287  0.011144555            5 
 4425000   0.53693098   -8.5988615     656.8647  0.012370333   0.01114076            4 
 4426000   0.54981483   -8.5613377    657.64227  0.012382179  0.011136965            2 
 4427000   0.54653617   -8.5858798    658.35121  0.012392727  0.011133174            2 
 4428000   0.53169457   -8.5886228    657.66902  0.012377089  0.011129379            5 
 4429000   0.54520964   -8.6035816    657.94525  0.012379492  0.011125589            3 
 4430000   0.54189398   -8.5832618    656.89491   0.01235694  0.011121805            3 
 4431000   0.54080769   -8.5736842    657.04758  0.012357022   0.01111802            2 
 4432000   0.54953562   -8.5943332    656.78809  0.012349355  0.011114233            3 
 4433000   0.54198224   -8.5814825    657.69964  0.012363705  0.011110452            4 
 4434000   0.53531765   -8.5844714    657.49144  0.012357003  0.011106674            3 
 4435000   0.54131344   -8.5791885    656.74073  0.012340111  0.011102894            3 
 4436000   0.54423661   -8.5676112    658.02849  0.012361521  0.011099118            3 
 4437000   0.53624444   -8.5830875     657.3621  0.012346219  0.011095346            2 
 4438000   0.54644967   -8.5779633    657.39971  0.012344144  0.011091572            2 
 4439000    0.5349689   -8.5958687    657.70884  0.012347166  0.011087798            2 
 4440000   0.53570726   -8.5889598    657.94013  0.012348726  0.011084028            2 
 4441000   0.54643971   -8.5964749    657.35817  0.012335025  0.011080258            3 
 4442000   0.53977613   -8.6081383    657.77493  0.012340067  0.011076487            3 
 4443000   0.54828465   -8.5746235    657.75014  0.012336825  0.011072722            5 
 4444000   0.54104661   -8.6053201    657.50351  0.012329424  0.011068955            2 
 4445000    0.5476376   -8.5811612    657.08305  0.012318767  0.011065194            2 
 4446000   0.53123686   -8.5614967    657.12817  0.012316842   0.01106143            2 
 4447000   0.54946852      -8.5856    657.63391   0.01232355  0.011057672            3 
 4448000   0.54175835   -8.5685879    658.29165  0.012333102  0.011053916            7 
 4449000   0.54898731   -8.5819208    657.30517  0.012311852  0.011050164            2 
 4450000    0.5413112   -8.5997584    656.44582  0.012292993  0.011046402            6 
 4451000    0.5280643   -8.5939037    656.84245  0.012297657  0.011042646            3 
 4452000   0.54203103   -8.5922568    656.11977  0.012281367  0.011038895            3 
 4453000   0.53266346   -8.5912611    657.75817   0.01230927  0.011035144            3 
 4454000   0.53905525   -8.5825177    657.82099  0.012307682  0.011031395            3 
 4455000   0.54198406   -8.5988783    657.62318  0.012301219  0.011027646            3 
 4456000   0.54329539   -8.5772253    657.32517  0.012292886  0.011023901            4 
 4457000   0.53793479   -8.6034508    658.09495   0.01230452  0.011020161            2 
 4458000   0.54880281   -8.5924912    657.85919  0.012297353  0.011016418            4 
 4459000   0.54013758   -8.5881728    656.90349  0.012276734  0.011012671            2 
 4460000   0.54451551   -8.6018703    656.16194  0.012260126  0.011008934            3 
 4461000   0.54348852   -8.5893231    657.65776   0.01228532  0.011005193            7 
 4462000   0.52600272   -8.5730213     656.7554  0.012265714  0.011001455            2 
 4463000   0.53681079    -8.608363    657.95379  0.012285342  0.010997717            3 
 4464000   0.54441285   -8.5828697    657.60901  0.012276154  0.010993982            3 
 4465000   0.54490933   -8.5866018    657.63352  0.012273862  0.010990245            6 
 4466000   0.53882983   -8.5990715    657.05332  0.012260287  0.010986509            4 
 4467000   0.53731448   -8.5753932    657.00901  0.012256716  0.010982777            2 
 4468000   0.54222143     -8.61302    656.83486  0.012250725  0.010979045            3 
 4469000   0.52991217   -8.5944355    656.79618  0.012247262  0.010975316            4 
 4470000   0.53396755   -8.5954643    658.38355  0.012274115  0.010971586            2 
 4471000   0.53056643   -8.5924679    658.24459   0.01226878  0.010967861            2 
 4472000   0.52690364   -8.6135245    656.05513  0.012225237  0.010964136            4 
 4473000   0.53879842   -8.6030588    656.55195   0.01223176  0.010960411            4 
 4474000   0.52496749   -8.6060933    657.24774  0.012241986  0.010956686            4 
 4475000   0.54179885   -8.5883563    657.12893  0.012237038  0.010952967            4 
 4476000   0.53116013   -8.6014007    657.58131  0.012242726   0.01094925            3 
 4477000   0.52826577     -8.58472    656.81333  0.012225697  0.010945534            5 
 4478000   0.53660657   -8.5805468    656.97174  0.012225915  0.010941824            3 
 4479000   0.53862001   -8.5964287     656.9443  0.012222674  0.010938113            7 
 4480000   0.53823046   -8.5792757    657.01262  0.012221217  0.010934404            6 
 4481000    0.5409753   -8.6078716    656.17068  0.012202832  0.010930694            2 
 4482000   0.53929917   -8.5985852    656.95355  0.012214665  0.010926988            7 
 4483000   0.54022684    -8.606745    656.34021  0.012200539  0.010923278            3 
 4484000   0.53830181   -8.5716617     657.7089  0.012223255  0.010919572            4 
 4485000   0.52949607   -8.5850825    657.79619  0.012222152  0.010915867            3 
 4486000   0.52915239   -8.5888352    656.76513  0.012200274  0.010912163            2 
 4487000   0.54222759   -8.6014194    657.09483  0.012203678  0.010908459            3 
 4488000   0.51740743   -8.6089024    657.40702  0.012206755  0.010904755            4 
 4489000    0.5262369   -8.6091203    657.19703  0.012200138  0.010901053            3 
 4490000   0.52988606   -8.5952794    656.29504   0.01218068  0.010897355            3 
 4491000   0.52944325   -8.6143054    656.50011  0.012181773  0.010893658            2 
 4492000   0.53196188   -8.6019568    656.38759  0.012176974  0.010889962            4 
 4493000   0.53178739   -8.6193573    656.63208  0.012178798  0.010886265            4 
 4494000   0.53392871    -8.609784    657.16849  0.012186035  0.010882571            3 
 4495000   0.52850998   -8.5854098    655.53547  0.012153049   0.01087888            4 
 4496000   0.52476178   -8.5980971    657.13051   0.01217991  0.010875191            6 
 4497000   0.53184337   -8.6140152    657.03897  0.012175505  0.010871503            2 
 4498000   0.53165692   -8.6117344    656.90386  0.012170295  0.010867817            4 
 4499000   0.53643584   -8.6187759    656.84593  0.012166517  0.010864133            3 
 4500000   0.53430197   -8.6200107     656.9167  0.012165124  0.010860452            2 
 4501000   0.53762627    -8.594768    656.49286  0.012154574  0.010856777            5 
 4502000    0.5397501   -8.6156236    657.51246  0.012170747  0.010853098            3 
 4503000   0.52707159   -8.6096251    657.09686  0.012160354  0.010849423            3 
 4504000   0.54124592   -8.6062606    655.81065  0.012133856  0.010845741            2 
 4505000   0.53263355   -8.5965406    657.75575  0.012167143  0.010842065            3 
 4506000   0.52549961   -8.5967542    657.22295  0.012154589  0.010838386            5 
 4507000   0.53193036   -8.6093969    656.98075  0.012147414  0.010834712            5 
 4508000   0.52791596   -8.6180113    657.01533  0.012145359  0.010831037            4 
 4509000   0.52067485   -8.6003955    657.01606  0.012142679   0.01082736            3 
 4510000   0.52014328   -8.6177541    656.88837  0.012137627   0.01082369            2 
 4511000   0.52839898   -8.6137744    656.00066  0.012118537   0.01082002            3 
 4512000   0.54551169   -8.6131787     656.4384  0.012123936  0.010816348            5 
 4513000   0.52637751   -8.5945236    656.01821  0.012113491  0.010812679            4 
 4514000   0.53258565   -8.5943681    656.90143  0.012127113  0.010809016            3 
 4515000   0.54148376   -8.6131606    657.48706  0.012135236  0.010805358            3 
 4516000     0.524007   -8.6243632    655.89477  0.012103166  0.010801699            3 
 4517000    0.5203285   -8.6167023     656.7349  0.012115986  0.010798037            3 
 4518000   0.52868646   -8.6122772    656.21874  0.012103784  0.010794377            3 
 4519000   0.53222408   -8.5943816    656.70643  0.012110099  0.010790724            6 
 4520000   0.53683369   -8.6110587    656.58273  0.012105139   0.01078707            2 
 4521000   0.52511913   -8.6050136    656.59527  0.012102692  0.010783418            4 
 4522000   0.51821798   -8.6153321    657.50649  0.012116808  0.010779764            2 
 4523000   0.52335704   -8.6001454    655.91694  0.012084843  0.010776114            3 
 4524000    0.5178195   -8.6070408    656.63758  0.012095446  0.010772468            4 
 4525000   0.52540524   -8.6013354    656.52792  0.012090754  0.010768818            2 
 4526000   0.52142296   -8.5954278    657.48062  0.012105623   0.01076517            3 
 4527000    0.5317792   -8.6118499    656.90281  0.012092313  0.010761524            3 
 4528000   0.52973649   -8.6111711      657.272  0.012096437  0.010757884            4 
 4529000   0.52076231   -8.6018948    656.64371  0.012082206  0.010754242            4 
 4530000   0.52102478   -8.6216484    656.55437  0.012077895  0.010750603            4 
 4531000   0.52585766   -8.6074605    656.17509  0.012068254  0.010746963            3 
 4532000   0.52833981   -8.6018662    657.98888  0.012098942  0.010743325            3 
 4533000   0.53155307    -8.605151    656.53674  0.012069578   0.01073969            4 
 4534000   0.53128374   -8.5910833    654.98559  0.012038406  0.010736055            2 
 4535000   0.52654259    -8.609994    656.84063  0.012069839  0.010732423            4 
 4536000   0.51721562   -8.6196201    657.11417  0.012072203  0.010728791            4 
 4537000   0.52515874   -8.6173834    656.72602  0.012062413  0.010725163            5 
 4538000   0.53526046   -8.6206003    657.23134  0.012069034  0.010721534            2 
 4539000   0.53420764   -8.6117225    656.12374  0.012046041  0.010717909            6 
 4540000   0.52268994   -8.6156366    656.18657  0.012044541  0.010714286            4 
 4541000   0.51834627   -8.6133405    656.89094  0.012054814  0.010710667            3 
 4542000   0.53448533   -8.6125472    657.78903  0.012068638  0.010707047            4 
 4543000   0.51874685   -8.6219908    656.79891  0.012047819  0.010703427            3 
 4544000   0.53730625   -8.6117495    657.29972  0.012054352  0.010699812            3 
 4545000   0.52605961   -8.6152399    655.97403  0.012027393  0.010696197            4 
 4546000   0.52219432    -8.610888     657.3394  0.012049776  0.010692581            2 
 4547000   0.53272494   -8.6266254    657.02255  0.012041319  0.010688966            4 
 4548000   0.53480924   -8.6056345    656.57452  0.012030462   0.01068535            2 
 4549000   0.52058195   -8.6106548    656.74854  0.012031006  0.010681734            2 
 4550000   0.52463352   -8.6050866    656.54348  0.012024606  0.010678124            3 
 4551000   0.53469623   -8.6345155    655.66422  0.012005864  0.010674514            6 
 4552000   0.52183338   -8.6189977    655.62415  0.012002493  0.010670906            2 
 4553000   0.52605957   -8.6120954    655.81925  0.012003427  0.010667304            4 
 4554000   0.53203371   -8.6242091     656.7395  0.012017631  0.010663701            4 
 4555000   0.53197939   -8.6168687    656.54726  0.012011476  0.010660101            2 
 4556000   0.53307425    -8.606071      656.249  0.012003384  0.010656502            3 
 4557000   0.52406371   -8.6219328    655.97887   0.01199581  0.010652903            6 
 4558000   0.52937234   -8.6148573    656.78837  0.012007978  0.010649308            4 
 4559000   0.51424914   -8.6195165    656.53958  0.012000797  0.010645711            3 
 4560000   0.52275461   -8.6177985    655.82747  0.011985151  0.010642113            2 
 4561000   0.51530487   -8.6258686    656.65823  0.011997702  0.010638521            3 
 4562000   0.50873421   -8.6100007    656.77672  0.011997237   0.01063493            2 
 4563000   0.51371614   -8.6065442     656.8968    0.0119968  0.010631339            2 
 4564000   0.51956298   -8.6279488    657.31532  0.012001813  0.010627751            2 
 4565000   0.52115622   -8.6174435    656.37387  0.011981998  0.010624165            4 
 4566000   0.52639744   -8.6213134    656.43471  0.011980485  0.010620579            2 
 4567000   0.52606131   -8.6132785    656.96295    0.0119875     0.010617            3 
 4568000   0.51908784   -8.6266656    656.39533  0.011974521  0.010613417            2 
 4569000    0.5328695   -8.6215041    656.91769  0.011981427  0.010609841            2 
 4570000   0.51143075   -8.6157142     655.7988  0.011958403  0.010606264            2 
 4571000   0.52090152   -8.6209186    655.90059  0.011957642   0.01060269            4 
 4572000    0.5268442   -8.6172499    656.34921  0.011963204  0.010599116            5 
 4573000   0.52878008   -8.6248517    656.26202  0.011958999  0.010595539            6 
 4574000   0.51897043   -8.6274891    656.43929  0.011959614  0.010591965            3 
 4575000   0.53158019   -8.6266897    656.36684   0.01195568  0.010588396            3 
 4576000   0.52729877   -8.6424755    656.17642    0.0119496  0.010584826            3 
 4577000   0.52080861   -8.6334932    656.32434  0.011949682  0.010581258            4 
 4578000   0.51694466   -8.6264404    657.52859  0.011968993  0.010577694            3 
 4579000   0.51956158   -8.6049055    656.05831  0.011939621   0.01057413            2 
 4580000   0.52640987   -8.6301177    656.33081  0.011941973  0.010570565            3 
 4581000   0.51045731   -8.6319353    656.45659  0.011941654  0.010567003            3 
 4582000   0.50665996    -8.614294    655.27265  0.011917515  0.010563442            3 
 4583000   0.52568473    -8.639337    655.67301  0.011922195  0.010559886            4 
 4584000   0.52653209    -8.634009    655.83321  0.011922506   0.01055633            7 
 4585000   0.51096534   -8.6215682    656.45758  0.011931254  0.010552772            2 
 4586000   0.51145017   -8.6185597     655.1893  0.011905606  0.010549219            4 
 4587000   0.51695362   -8.6231463    656.28209  0.011922863  0.010545668            4 
 4588000   0.52321695    -8.611421    656.76335  0.011929006  0.010542117            3 
 4589000   0.51266551   -8.6132306    656.42019  0.011920175   0.01053857            3 
 4590000   0.51160225   -8.6223552    656.66253  0.011921978  0.010535023            2 
 4591000   0.53485896   -8.6170166    655.67879  0.011901525  0.010531474            2 
 4592000   0.51821859   -8.6237075    655.16978  0.011889695  0.010527929            2 
 4593000   0.51225155   -8.6343177     657.0334  0.011920919  0.010524385            2 
 4594000   0.50958439    -8.634436    656.38963  0.011906647  0.010520839            4 
 4595000   0.52871907   -8.5997973    655.83155  0.011893935  0.010517297            3 
 4596000   0.51026798   -8.6285623    656.05199  0.011895344  0.010513759            4 
 4597000   0.52794618   -8.6189016    656.96711  0.011909345  0.010510224            2 
 4598000   0.51641974   -8.6359441    655.78463  0.011885324  0.010506687            5 
 4599000   0.50816505   -8.6368069    655.38434  0.011875486  0.010503152            4 
 4600000   0.51760615   -8.6317584    656.33276  0.011890086  0.010499618            2 
 4601000   0.51247519   -8.6368434     656.8619  0.011897086  0.010496085            4 
 4602000   0.51628002   -8.6439918    656.44831  0.011887011  0.010492555            4 
 4603000   0.52430146    -8.647612    655.57474  0.011868614  0.010489025            3 
 4604000   0.51594231   -8.6353015    657.12983  0.011894183  0.010485497            2 
 4605000   0.52088748   -8.6387731    655.77477  0.011867079   0.01048197            3 
 4606000   0.51482939    -8.615517    656.05841  0.011869634  0.010478444            5 
 4607000   0.51128864   -8.6210219    656.43869  0.011873936  0.010474921            3 
 4608000   0.50773158   -8.6290146    656.07528  0.011864787    0.0104714            3 
 4609000   0.51814892    -8.623542    656.78073  0.011874968  0.010467879            4 
 4610000   0.52009339   -8.6254955    654.41094  0.011829554  0.010464362            3 
 4611000   0.51230473   -8.6214426    656.39182  0.011862789  0.010460848            5 
 4612000   0.51151849   -8.6363844    656.53307  0.011862769   0.01045733            5 
 4613000   0.51424692   -8.6290379    656.27087   0.01185546  0.010453813            6 
 4614000   0.50902611   -8.6351889    656.27293  0.011852928  0.010450297            3 
 4615000   0.51544963   -8.6617395    656.05239  0.011846378  0.010446785            5 
 4616000    0.5109266   -8.6502094    656.32288  0.011848694  0.010443272            4 
 4617000   0.51117479   -8.6262753     654.9019   0.01182048  0.010439758            3 
 4618000   0.51466059   -8.6418223    655.83335  0.011834729   0.01043625            3 
 4619000   0.51817676   -8.6407936    655.68234  0.011829443  0.010432741            5 
 4620000   0.51543512   -8.6344302    656.07538  0.011833971  0.010429232            2 
 4621000   0.52036404    -8.639849    655.91084  0.011828443  0.010425728            4 
 4622000   0.50350198   -8.6374246    655.06488  0.011810632  0.010422226            4 
 4623000   0.51238614   -8.6466959     655.7002  0.011819529  0.010418722            3 
 4624000   0.51906928   -8.6358793    655.99356   0.01182226  0.010415225            3 
 4625000   0.50636726   -8.6514304    654.79049  0.011798027  0.010411727            6 
 4626000   0.51852179   -8.6494439    656.69915  0.011829859  0.010408228            5 
 4627000   0.50186434   -8.6490437    655.50538  0.011805802  0.010404731            4 
 4628000   0.51586438   -8.6495541    654.93381   0.01179296  0.010401236            2 
 4629000   0.51773555   -8.6491989    655.13996  0.011794123  0.010397745            7 
 4630000   0.50907926   -8.6360023    655.19899  0.011792638  0.010394257            7 
 4631000   0.49954299   -8.6358408    655.52923  0.011796034  0.010390771            3 
 4632000   0.51853211   -8.6358554    656.88026  0.011817794  0.010387282            6 
 4633000   0.51033726   -8.6430151    655.12701  0.011783708  0.010383797            4 
 4634000   0.52308772    -8.639903     656.3197  0.011802613  0.010380314            3 
 4635000   0.50731345    -8.637296    656.45044  0.011802417  0.010376831            3 
 4636000   0.51355396   -8.6416791    655.59164  0.011784434  0.010373354            3 
 4637000   0.51253709   -8.6258981     655.7979  0.011785599  0.010369875            2 
 4638000   0.51129535   -8.6121021    657.00426  0.011804734    0.0103664            3 
 4639000   0.51292531   -8.6408614    655.16659  0.011769178  0.010362927            6 
 4640000   0.49396053   -8.6493875    656.51516  0.011790861   0.01035945            2 
 4641000   0.51149845   -8.6245593    656.84841  0.011794304  0.010355977            3 
 4642000   0.50523463   -8.6313707     655.5365  0.011768212  0.010352504            2 
 4643000   0.50959015   -8.6256882    656.19194  0.011777442  0.010349034            3 
 4644000   0.49100106   -8.6424877     654.5988  0.011746318  0.010345565            2 
 4645000    0.5153914   -8.6412371    656.37216  0.011775604    0.0103421            2 
 4646000   0.51091935   -8.6192276    656.13842  0.011768877  0.010338631            3 
 4647000   0.52250824   -8.6161797    656.67057  0.011775887  0.010335168            2 
 4648000   0.51136254    -8.646619    656.28491  0.011766439  0.010331704            3 
 4649000   0.51564692   -8.6474867    655.85728  0.011756243  0.010328242            3 
 4650000   0.50227383   -8.6306522    654.95747  0.011737589  0.010324778            3 
 4651000   0.51280851   -8.6371842    654.58682  0.011728424  0.010321319            3 
 4652000   0.51692658   -8.6495425    655.69932  0.011745832  0.010317858            2 
 4653000   0.50429339   -8.6412483    655.11977  0.011732928  0.010314397            4 
 4654000   0.50862154   -8.6424858    655.33653  0.011734288  0.010310941            4 
 4655000   0.50493103   -8.6355588    657.07801  0.011762943  0.010307488            2 
 4656000   0.51026524   -8.6488776    656.04475  0.011741924  0.010304036            4 
 4657000   0.50547551    -8.651683    656.63678  0.011749996  0.010300589            3 
 4658000   0.50543884   -8.6350935    656.18415  0.011739376   0.01029714            3 
 4659000   0.50741928   -8.6428044    655.68284  0.011727889  0.010293689            4 
 4660000   0.51286396   -8.6234476    655.58555  0.011723633  0.010290241            3 
 4661000   0.50773987   -8.6454527    655.75346   0.01172412  0.010286793            2 
 4662000   0.50474552   -8.6320694    654.97833  0.011707749  0.010283352            4 
 4663000   0.50897922    -8.652902    654.93403  0.011704447  0.010279909            4 
 4664000   0.50860041   -8.6416991     655.5761  0.011713409  0.010276467            4 
 4665000   0.51547896   -8.6378676    655.59452  0.011711228  0.010273026            3 
 4666000   0.51016099   -8.6520213    656.28339  0.011721021  0.010269587            3 
 4667000   0.49693532   -8.6376166    655.12531  0.011697831  0.010266151            3 
 4668000   0.50418707   -8.6510078    656.25658   0.01171552  0.010262712            2 
 4669000   0.50012933    -8.658889     655.2276  0.011694646  0.010259279            2 
 4670000   0.50378902   -8.6515911    655.28648  0.011693192  0.010255843            3 
 4671000   0.50956817   -8.6435025    655.85524  0.011700836  0.010252411            2 
 4672000   0.49985406   -8.6550076    655.36058  0.011689508  0.010248981            5 
 4673000   0.50733809   -8.6493911    654.99029  0.011680403  0.010245552            3 
 4674000   0.50011557   -8.6299786    656.35726  0.011702276  0.010242125            7 
 4675000   0.50467131   -8.6441789    655.91123  0.011691822  0.010238698            3 
 4676000   0.51704997   -8.6347358    655.49416  0.011681889  0.010235275            5 
 4677000     0.493974   -8.6717765    655.60494  0.011681365  0.010231852            3 
 4678000   0.50318249   -8.6375724    655.70306  0.011680616  0.010228429            7 
 4679000   0.50405537    -8.635249      654.722  0.011660647  0.010225007            3 
 4680000   0.50516851   -8.6492235    656.14465  0.011683487  0.010221587            3 
 4681000   0.49682049   -8.6415012    655.04299  0.011661379  0.010218169            3 
 4682000   0.50676005   -8.6274419    655.49933  0.011667011  0.010214754            4 
 4683000   0.50534361   -8.6474031    655.09026   0.01165724  0.010211339            2 
 4684000    0.5005085   -8.6622986    655.47622  0.011661618  0.010207926            6 
 4685000   0.51163053    -8.661734    655.68828  0.011662901   0.01020451            2 
 4686000   0.49991489   -8.6514675    654.69337  0.011642719  0.010201099            2 
 4687000   0.49036669   -8.6266453    655.57902  0.011655982  0.010197689            4 
 4688000   0.49405224   -8.6669327    654.07348  0.011626733   0.01019428            4 
 4689000   0.50607509   -8.6530172    654.75263  0.011636323   0.01019087            3 
 4690000   0.49711263   -8.6427501    655.28239  0.011643255  0.010187463            2 
 4691000   0.50587456   -8.6493849    655.69467  0.011648097   0.01018406            4 
 4692000   0.48900866   -8.6434323    655.48175  0.011641833  0.010180656            3 
 4693000    0.5115208   -8.6515394    655.21843  0.011634676  0.010177251            4 
 4694000   0.49827532   -8.6388348    654.09581  0.011612268  0.010173849            2 
 4695000     0.505849   -8.6548747     654.9991  0.011625827   0.01017045            4 
 4696000   0.50872034   -8.6529824     655.8223   0.01163796  0.010167051            5 
 4697000    0.5030244   -8.6664637    654.99116  0.011620736  0.010163653            2 
 4698000   0.50927162   -8.6311529    655.41789  0.011625832  0.010160259            3 
 4699000    0.4967257   -8.6483187    655.41444  0.011623296  0.010156866            5 
 4700000   0.50625459   -8.6648457    654.61105  0.011606579  0.010153473            3 
 4701000   0.49802657   -8.6609274    654.39439  0.011600269   0.01015008            2 
 4702000   0.49796761   -8.6368239    653.99085   0.01159065  0.010146689            4 
 4703000   0.49433092     -8.65356    655.48724  0.011614701  0.010143299            3 
 4704000   0.48973128   -8.6526978    654.67287  0.011597805   0.01013991            2 
 4705000   0.50221091   -8.6532472    656.30458   0.01162424  0.010136524            4 
 4706000   0.50140164   -8.6596533    656.41636  0.011623749  0.010133139            3 
 4707000   0.50693094    -8.661428    654.97197  0.011595708  0.010129755            3 
 4708000   0.49049151   -8.6600426    655.46227  0.011601923  0.010126368            4 
 4709000   0.49641076    -8.670468    655.20403   0.01159489  0.010122985            2 
 4710000   0.49107701   -8.6637993    655.87507  0.011604301  0.010119606            2 
 4711000   0.50002718   -8.6608856     655.6049  0.011597058  0.010116224            3 
 4712000   0.50289951   -8.6564251    656.19377  0.011605011  0.010112844            3 
 4713000   0.49871774   -8.6538288    655.29353  0.011586632  0.010109469            3 
 4714000   0.48545073   -8.6598635    654.54897  0.011571011  0.010106089            4 
 4715000   0.49069021   -8.6564669    654.58005  0.011569107  0.010102713            3 
 4716000   0.49216861   -8.6493585    655.56785  0.011584108  0.010099338            4 
 4717000   0.49144116   -8.6554152    655.47409  0.011579996  0.010095968            2 
 4718000   0.49825807   -8.6476698    654.77753  0.011565238  0.010092598            4 
 4719000   0.50067877   -8.6370466    654.25604  0.011553578  0.010089231            4 
 4720000   0.50281175   -8.6612955    655.87303  0.011579679  0.010085867            3 
 4721000   0.49632588   -8.6596485    655.05205  0.011562735  0.010082501            2 
 4722000   0.49657895   -8.6449789    654.40577  0.011548881  0.010079139            2 
 4723000   0.49697448    -8.667404    655.36861  0.011563424  0.010075774            4 
 4724000   0.49074329   -8.6501715    654.69951  0.011549173  0.010072412            3 
 4725000   0.50009113   -8.6641603    654.90298  0.011550317  0.010069051            6 
 4726000   0.49824721   -8.6338816    654.33803  0.011537911  0.010065694            3 
 4727000   0.49844054   -8.6542007    655.69932  0.011559469  0.010062337            3 
 4728000   0.49798206   -8.6586155    655.88171  0.011560239  0.010058981            4 
 4729000   0.50401846   -8.6661135     655.0796   0.01154366  0.010055627            5 
 4730000   0.49424586   -8.6790059    654.28788  0.011527271  0.010052271            2 
 4731000   0.50625298   -8.6641445    654.82442  0.011534285  0.010048917            3 
 4732000   0.49448853   -8.6511603    655.64228   0.01154625  0.010045566            5 
 4733000   0.49373492   -8.6688389    655.25684  0.011537024  0.010042218            5 
 4734000   0.49532741   -8.6807386    655.30223  0.011535386  0.010038869            2 
 4735000   0.49688805     -8.67129    654.64319  0.011521351   0.01003552            5 
 4736000   0.48330456   -8.6638858    654.86158  0.011522762  0.010032174            3 
 4737000   0.49470455   -8.6580554    654.83327  0.011519831  0.010028831            8 
 4738000   0.49996425   -8.6554747    654.74144  0.011515784  0.010025487            5 
 4739000   0.48166542   -8.6585934    655.24534  0.011522215  0.010022143            3 
 4740000   0.48485796   -8.6588279    654.40442     0.011505  0.010018801            3 
 4741000   0.50617207   -8.6524197    655.33895     0.011519  0.010015461            3 
 4742000   0.50238239   -8.6666671    654.61129  0.011503783  0.010012126            4 
 4743000   0.48899226   -8.6738442    655.64868  0.011519585  0.010008789            3 
 4744000   0.49438681   -8.6605006    655.90209  0.011521608  0.010005455            2 
 4745000   0.49719586   -8.6701336    655.24951  0.011507719   0.01000212            2 
 4746000   0.49596307    -8.686902    655.40303   0.01150799 0.0099987869            2 
 4747000     0.498953   -8.6627601    654.68154    0.0114929  0.009995457            3 
 4748000   0.50151811   -8.6723878    654.47218  0.011486805 0.0099921257            3 
 4749000   0.48905768   -8.6904978    655.28861  0.011498712 0.0099887976            4 
 4750000   0.49361945   -8.6691892    653.34628  0.011462215 0.0099854688            3 
 4751000    0.4980082   -8.6689826    654.40865  0.011478437 0.0099821419            2 
 4752000   0.48347403   -8.6766989    655.61616  0.011497197 0.0099788172            3 
 4753000   0.50228381   -8.6787541    654.45018  0.011474335 0.0099754947            4 
 4754000   0.49158637   -8.6731711    654.79203  0.011477914  0.009972172            3 
 4755000    0.4894175   -8.6632148    654.49404  0.011470278 0.0099688512            4 
 4756000   0.49828862   -8.6722255    655.37217  0.011483252 0.0099655314            2 
 4757000   0.49190104   -8.6840294    655.25969  0.011478868  0.009962213            3 
 4758000    0.4890889    -8.676445    655.06639   0.01147307 0.0099588935            4 
 4759000   0.49236585   -8.6620543    654.40622  0.011459099 0.0099555802            4 
 4760000   0.49961864   -8.6637362    654.95834  0.011466358 0.0099522661            3 
 4761000    0.4813083   -8.6736101    655.49562  0.011473353 0.0099489556            4 
 4762000   0.47658029   -8.6604234    654.44099  0.011452488 0.0099456471            3 
 4763000   0.49714042   -8.6669914    654.55115  0.011452011 0.0099423384            3 
 4764000   0.49329323   -8.6910043    654.51618  0.011448996  0.009939032            4 
 4765000   0.48937793   -8.6767507    655.14867  0.011457654 0.0099357251            3 
 4766000   0.49479711    -8.663438     654.2064  0.011438775 0.0099324223            6 
 4767000   0.49005153     -8.65734    655.02381  0.011450664  0.009929119            3 
 4768000   0.48343869   -8.6776227    654.11528  0.011432384 0.0099258169            3 
 4769000    0.4854114   -8.6690995    654.87415  0.011443247 0.0099225142            1 
 4770000   0.49023703   -8.6678339    654.75226  0.011438719  0.009919219            3 
 4771000    0.4892793   -8.6697277    655.18277  0.011443841 0.0099159223            3 
 4772000   0.48582729   -8.6648998    654.89404    0.0114364 0.0099126265            2 
 4773000   0.47713655   -8.6963102     654.3479  0.011424469  0.009909332            2 
 4774000   0.49417884   -8.6785728    653.71348  0.011411002 0.0099060353            2 
 4775000   0.49678886   -8.6598118     656.0649  0.011449649 0.0099027449            4 
 4776000   0.48683539   -8.6949954    655.14312  0.011431168 0.0098994539            3 
 4777000   0.48240221   -8.6849589     654.2823  0.011413759  0.009896162            4 
 4778000   0.48296948   -8.6742466    653.87296   0.01140423 0.0098928722            3 
 4779000    0.4897716   -8.6913179    654.55105  0.011413668 0.0098895821            2 
 4780000   0.49288302   -8.6695575    654.67335  0.011413413 0.0098862941            3 
 4781000   0.48802685   -8.6618936     655.1148   0.01141872 0.0098830099            7 
 4782000   0.48554161    -8.663328    654.84934  0.011411706 0.0098797261            2 
 4783000   0.49562838   -8.6693366    655.32716  0.011417645 0.0098764431            3 
 4784000   0.48877001   -8.6823848     654.6404  0.011403296 0.0098731591            3 
 4785000   0.48265038   -8.6567778    653.93048  0.011388549 0.0098698784            3 
 4786000   0.48840142   -8.6913555     654.5093  0.011396248  0.009866599            5 
 4787000   0.49729518   -8.6795935    654.74602  0.011397988 0.0098633213            4 
 4788000    0.4894379   -8.6685423    654.50078  0.011391339 0.0098600473            6 
 4789000   0.48177255   -8.7007176    654.22701  0.011384197 0.0098567736            5 
 4790000   0.49434281   -8.6619619    654.72801  0.011390536 0.0098535009            6 
 4791000    0.4937183   -8.6763359    654.39333  0.011382337 0.0098502307            4 
 4792000   0.48661753   -8.6783541    654.70041  0.011385302 0.0098469629            4 
 4793000   0.48486626   -8.6821452    654.77807  0.011384277  0.009843695            4 
 4794000   0.48529624   -8.6712424    653.35361  0.011357141 0.0098404304            4 
 4795000   0.48638341   -8.6808834    654.07241  0.011367265 0.0098371682            3 
 4796000    0.4907664   -8.6752865     655.7616  0.011394245 0.0098339041            4 
 4797000   0.48663621   -8.6868073    655.18103  0.011381784 0.0098306442            3 
 4798000    0.4799119   -8.6746722    654.29861  0.011364086 0.0098273826            2 
 4799000    0.4781936   -8.6611745    654.27726  0.011361347 0.0098241245            4 
 4800000   0.49310718   -8.6800488    654.79833  0.011368026  0.009820869            4 
 4801000   0.49090664   -8.6815285    654.83002  0.011366209 0.0098176118            2 
 4802000   0.47852301   -8.6792551    654.44994  0.011357246 0.0098143553            2 
 4803000   0.49269903   -8.6698198    653.93277  0.011345908 0.0098111013            2 
 4804000   0.48916133   -8.6973851    654.31509  0.011350179 0.0098078486            3 
 4805000   0.47852279   -8.6622045    654.17334  0.011345358 0.0098045971            3 
 4806000     0.473053   -8.6796753    654.06016  0.011341035 0.0098013473            1 
 4807000   0.48341698   -8.6880283    655.50177  0.011363667 0.0097980967            3 
 4808000   0.47582327    -8.672354    653.48658  0.011326376 0.0097948485            3 
 4809000   0.48203056   -8.6808807    654.31393  0.011338357 0.0097915986            2 
 4810000   0.48502205   -8.7086218    654.85383  0.011345354  0.009788353            2 
 4811000   0.47331293   -8.6893364    654.55433  0.011337808 0.0097851092            2 
 4812000    0.4814013   -8.6776742    654.86375   0.01134081 0.0097818647            2 
 4813000   0.49010648   -8.6908211    653.96609  0.011322912 0.0097786243            6 
 4814000    0.4880197   -8.6830904    653.91198  0.011319623 0.0097753845            3 
 4815000   0.48429469   -8.6712844    653.57589  0.011311455 0.0097721431            3 
 4816000   0.47976541   -8.6788703    654.05789  0.011317447 0.0097689048            3 
 4817000   0.48113043   -8.6921653    653.32268  0.011302378  0.009765668            3 
 4818000   0.48457426   -8.7010801    653.19828  0.011297881 0.0097624299            3 
 4819000   0.47102022   -8.6796299     653.6337  0.011303066  0.009759195            2 
 4820000   0.49174671   -8.6792567    654.25472  0.011311458 0.0097559599            3 
 4821000   0.47020476   -8.6830425     653.9242  0.011303398 0.0097527291            5 
 4822000   0.48439997   -8.7013192    654.14198  0.011304818 0.0097494959            2 
 4823000    0.4845905   -8.6854605    653.60331  0.011293167 0.0097462658            2 
 4824000   0.48835456   -8.6805069    654.30945  0.011303024 0.0097430387            3 
 4825000   0.48323372   -8.6999952    654.46022  0.011303285 0.0097398125            4 
 4826000   0.47807388   -8.7036339    653.35935  0.011281934 0.0097365877            2 
 4827000   0.47757016   -8.6804072    655.03075  0.011308452 0.0097333614            3 
 4828000   0.48697097   -8.6830815    653.72825  0.011283628 0.0097301371            4 
 4829000   0.47189523   -8.6907326      654.075  0.011287275 0.0097269166            4 
 4830000   0.48083394   -8.6814376    654.87901   0.01129881 0.0097236978            2 
 4831000   0.48092677   -8.7006483    654.84808  0.011295937  0.009720478            4 
 4832000   0.47317358   -8.6830307    654.70042  0.011291053 0.0097172609            3 
 4833000   0.46981225   -8.6915167    654.38983  0.011283361 0.0097140453            2 
 4834000   0.46977004   -8.6837338    654.55696  0.011283908 0.0097108301            2 
 4835000   0.47387025   -8.6908984    654.54454  0.011281361 0.0097076153            4 
 4836000    0.4800863   -8.7002192    654.70088  0.011281722 0.0097044026            3 
 4837000   0.49210652    -8.691915    652.97922  0.011249728 0.0097011933            4 
 4838000   0.47945989   -8.6918686    653.85118  0.011262422 0.0096979856            3 
 4839000   0.46220063   -8.6949925    653.28657  0.011250371 0.0096947807            4 
 4840000   0.46468454   -8.6911692    654.16778  0.011263219 0.0096915754            4 
 4841000   0.48413669   -8.6877435    654.30358   0.01126323 0.0096883721            2 
 4842000   0.48824775   -8.6918826    653.79592  0.011252167  0.009685168            3 
 4843000   0.48926631   -8.6895028    655.08404  0.011272008  0.009681969            4 
 4844000   0.48026239   -8.7007788      654.135  0.011253355 0.0096787691            2 
 4845000   0.48494824   -8.6888217    653.40419  0.011238462 0.0096755706            7 
 4846000   0.47671771   -8.6856824    653.80639  0.011243059 0.0096723717            4 
 4847000   0.47829542   -8.6788755    654.57719  0.011253992 0.0096691746            3 
 4848000   0.48213139   -8.6906205    654.68005  0.011253439 0.0096659806            3 
 4849000   0.47640492   -8.6690682    653.72186  0.011234651 0.0096627858            7 
 4850000   0.46834564   -8.6871673     654.3612   0.01124332 0.0096595957            2 
 4851000   0.47610687   -8.6892508    653.65802  0.011228922 0.0096564039            3 
 4852000   0.48347972   -8.6913833    654.60566  0.011242884 0.0096532147            3 
 4853000   0.47978696   -8.6718621    654.01472   0.01123042 0.0096500274            6 
 4854000   0.48479157    -8.707572    654.63843  0.011238814  0.009646839            2 
 4855000   0.47069946   -8.6913541    652.57401  0.011201064 0.0096436487            3 
 4856000   0.46690302   -8.7070694    653.16425  0.011208887 0.0096404627            2 
 4857000    0.4793154   -8.6833771     653.5721  0.011213577 0.0096372788            3 
 4858000   0.48451805   -8.7028888    653.41456  0.011208566 0.0096340959            3 
 4859000   0.48114112   -8.6782628    653.55858  0.011208729 0.0096309113            4 
 4860000   0.46588693    -8.702208     653.3453  0.011202766 0.0096277289            3 
 4861000    0.4796363   -8.6807317    653.98768  0.011211474 0.0096245479            2 
 4862000   0.47944643   -8.6955677    653.94585  0.011208451 0.0096213685            2 
 4863000   0.48111858   -8.7002435    654.08067  0.011208456  0.009618192            4 
 4864000   0.47729372   -8.6988208    654.09169  0.011206341 0.0096150202            3 
 4865000   0.47956067   -8.7024449     653.6087  0.011195764 0.0096118479            4 
 4866000   0.47429569   -8.7158623    654.09651  0.011201817 0.0096086748            3 
 4867000   0.46774501   -8.6975691    654.11414  0.011199818 0.0096055027            3 
 4868000   0.46734765   -8.7007234    653.32162   0.01118395  0.009602332            3 
 4869000   0.47630697   -8.6964241    653.69682  0.011188075 0.0095991625            3 
 4870000   0.47824866   -8.6884733    653.12264  0.011175952 0.0095959955            4 
 4871000   0.47112736   -8.6973062    653.33894  0.011177358  0.009592829            4 
 4872000   0.48299066   -8.7048758    653.42988   0.01117662  0.009589662            3 
 4873000   0.47151953   -8.6998196    653.66674  0.011178376 0.0095864968            3 
 4874000   0.46407632   -8.6996791    654.34916  0.011187751 0.0095833354            3 
 4875000   0.46762731   -8.6890809    653.63314  0.011173216 0.0095801727            3 
 4876000   0.47200938    -8.689211    653.71465  0.011172318 0.0095770135            3 
 4877000   0.47762616   -8.7072564    654.31493  0.011180284 0.0095738545            2 
 4878000     0.474847   -8.6979461    653.55769  0.011165055 0.0095706997            2 
 4879000   0.46317199   -8.6950993    654.37539  0.011176734 0.0095675441            3 
 4880000   0.47739209   -8.6828885    653.67549  0.011162491 0.0095643874            2 
 4881000   0.46934951   -8.6892835    654.73499  0.011178293 0.0095612344            4 
 4882000   0.47276886   -8.7001887    654.44034  0.011170974 0.0095580828            4 
 4883000   0.46761449   -8.7026025    654.16658  0.011164014 0.0095549309            2 
 4884000   0.47038218   -8.7025111    654.38674  0.011165485 0.0095517804            4 
 4885000   0.47443697   -8.7081754    653.67786  0.011151106  0.009548631            4 
 4886000    0.4777411   -8.7033865    653.67905  0.011148845 0.0095454847            3 
 4887000   0.47439311   -8.7074741    654.50046   0.01116057 0.0095423393            3 
 4888000   0.46308765   -8.7073389    653.89361  0.011147941 0.0095391956            4 
 4889000   0.46605407   -8.7105151    654.41753  0.011154591 0.0095360526            4 
 4890000   0.48086174   -8.7040898    654.31945  0.011150638 0.0095329105            2 
 4891000   0.47958603   -8.7010603    652.86826  0.011123633 0.0095297688            3 
 4892000    0.4789451    -8.709876     653.4569  0.011131386 0.0095266272            3 
 4893000   0.47010413    -8.693667    652.60499  0.011114602 0.0095234911            5 
 4894000   0.47247608   -8.6980143    653.08888  0.011120571 0.0095203567            3 
 4895000   0.47280874   -8.6987962    652.46859  0.011107739 0.0095172223            3 
 4896000   0.46595078   -8.6994767    652.49714  0.011105956 0.0095140856            3 
 4897000   0.47370693    -8.715457    653.92104  0.011127919 0.0095109521            2 
 4898000   0.46809015   -8.7039895    652.61766  0.011103472 0.0095078189            4 
 4899000   0.46775845   -8.7060961    654.39514  0.011131441 0.0095046886            4 
 4900000   0.47860598   -8.7126461    652.79151  0.011101896 0.0095015571            3 
 4901000   0.47258403   -8.7004728    653.68842  0.011114882 0.0094984293            3 
 4902000   0.46250839   -8.7154322    654.26242  0.011122372 0.0094953013            2 
 4903000   0.47478772   -8.7008403    654.22727  0.011119506 0.0094921758            1 
 4904000   0.46110402   -8.6870773    652.48563  0.011087643 0.0094890493            3 
 4905000   0.46495328   -8.7168775    653.51358  0.011102847 0.0094859269            5 
 4906000   0.45592018   -8.6932908    653.04888  0.011092691 0.0094828065            4 
 4907000   0.47308524   -8.7195801    654.08793  0.011108076 0.0094796856            4 
 4908000   0.46188241    -8.710722    653.81377  0.011101157 0.0094765678            3 
 4909000    0.4634194   -8.7228225    653.63725    0.0110959 0.0094734497            2 
 4910000   0.47601529   -8.7188733    653.64877  0.011093835 0.0094703347            2 
 4911000   0.47546606   -8.7009508    652.57974  0.011073436 0.0094672202            4 
 4912000   0.46261491   -8.7201509    653.55512  0.011087729 0.0094641059            3 
 4913000   0.45758202   -8.6999885    653.83826  0.011090275 0.0094609954            1 
 4914000   0.46458595   -8.7045028    652.47104  0.011064832 0.0094578831            5 
 4915000   0.45974522   -8.7014544    653.80165  0.011085142 0.0094547722            3 
 4916000   0.47269236   -8.7018585    653.53755   0.01107841 0.0094516616            3 
 4917000   0.46316695   -8.6901169    653.25541  0.011071375 0.0094485537            3 
 4918000   0.45982347    -8.700051    653.11939  0.011066819  0.009445447            3 
 4919000   0.46816533   -8.6966826    653.18275  0.011065643 0.0094423405            5 
 4920000   0.46508829    -8.709534    654.25728  0.011081593 0.0094392365            4 
 4921000   0.46252655   -8.7027226     652.0796  0.011042464 0.0094361329            3 
 4922000   0.46830207   -8.7072575    653.16453  0.011058589 0.0094330296            2 
 4923000   0.47164601   -8.6931745    654.02848  0.011070968 0.0094299335            5 
 4924000   0.46813226   -8.7111051     652.4285  0.011041641 0.0094268359            2 
 4925000   0.46766806   -8.6982448    653.99248  0.011065863 0.0094237408            4 
 4926000   0.45865695   -8.7079912    652.93023  0.011045646 0.0094206431            5 
 4927000   0.45557805   -8.7257449    653.33285  0.011050214 0.0094175486            3 
 4928000   0.46329611   -8.7251253    652.71618  0.011037544 0.0094144532            3 
 4929000   0.46451453   -8.7126917    653.63639  0.011050862 0.0094113602            3 
 4930000   0.46346917   -8.7190326    653.74268  0.011050417 0.0094082655            4 
 4931000    0.4674927   -8.7168572    653.95852  0.011051824  0.009405173            4 
 4932000   0.46190282   -8.7065638     653.2988  0.011038436 0.0094020831            3 
 4933000   0.45625375   -8.6980805    652.22925   0.01101813 0.0093989965            3 
 4934000   0.46658101    -8.712262    653.92688   0.01104457 0.0093959103            2 
 4935000   0.45374476   -8.7143516    652.35952  0.011015865 0.0093928244            3 
 4936000   0.46139988   -8.7146434    653.13188  0.011026673 0.0093897389            3 
 4937000   0.47232066   -8.7046276    653.03898  0.011022871 0.0093866603            3 
 4938000   0.46852776   -8.7159801    652.19087  0.011006326 0.0093835766            2 
 4939000   0.45444466   -8.7206926    652.31438  0.011006182 0.0093804957            2 
 4940000   0.45543582   -8.7112396    653.66478  0.011026734 0.0093774181            5 
 4941000   0.46735444   -8.7174556    654.06028  0.011031173 0.0093743412            4 
 4942000   0.47537605   -8.7132831    652.22178  0.010997939 0.0093712654            1 
 4943000   0.46051154   -8.7252181    652.86755  0.011006601 0.0093681916            4 
 4944000   0.45270035   -8.7192747    652.38682  0.010996272 0.0093651159            3 
 4945000   0.46877035   -8.7359855    653.65835  0.011015476 0.0093620435            3 
 4946000   0.45746442   -8.7274142    653.63295  0.011012821 0.0093589721            3 
 4947000   0.46112331   -8.7143156    652.06069   0.01098411 0.0093559001            2 
 4948000   0.46591919    -8.721702    652.88773  0.010995819 0.0093528305            4 
 4949000      0.45888   -8.7218985    652.74069  0.010991121 0.0093497598            4 
 4950000   0.46081432   -8.7147631    652.53595  0.010985454 0.0093466916            3 
 4951000   0.46576024   -8.7244274    653.29665  0.010996039 0.0093436272            5 
 4952000   0.45660475   -8.7044082    653.21222  0.010992397 0.0093405621            2 
 4953000   0.46079182   -8.7176657    652.22112  0.010973503 0.0093375025            3 
 4954000   0.46336402    -8.719517    652.37517  0.010973879 0.0093344415            3 
 4955000   0.46529569   -8.7182614     653.7825  0.010995333 0.0093313816            4 
 4956000   0.46427303   -8.7188515     652.0119  0.010963342 0.0093283234            4 
 4957000   0.45369552   -8.7118827    653.73749   0.01099014 0.0093252664            3 
 4958000    0.4585438   -8.7320523    652.89778   0.01097381 0.0093222106            2 
 4959000   0.45276496   -8.7031626    653.14322  0.010975721 0.0093191546            3 
 4960000   0.46155861   -8.7204646    652.75504  0.010966987 0.0093161008            3 
 4961000   0.45675327   -8.7202781    653.52943  0.010977784 0.0093130498            2 
 4962000    0.4498414   -8.7131058    652.77033  0.010962823  0.009309997            3 
 4963000   0.45811764   -8.7040808    653.42684  0.010971637 0.0093069478            4 
 4964000   0.45731016   -8.7209128    653.81949  0.010976019 0.0093038992            3 
 4965000   0.44983475   -8.7207933    653.32969  0.010965587 0.0093008489            3 
 4966000   0.45472931   -8.7357765    653.08086  0.010959204 0.0092978026            2 
 4967000   0.45703427   -8.7318617    652.27384  0.010943458 0.0092947583            2 
 4968000   0.44919839   -8.7465507    652.29216  0.010941562 0.0092917139            2 
 4969000   0.46904254   -8.6956485     651.8508  0.010931958 0.0092886705            3 
 4970000   0.45505708   -8.7245659    652.86524  0.010946768  0.009285629            3 
 4971000   0.46384493   -8.7261553    653.49664  0.010955151 0.0092825888            3 
 4972000   0.44928505   -8.7175221    652.53068  0.010936757 0.0092795483            4 
 4973000   0.45281448   -8.7344589    653.64148  0.010953172 0.0092765116            3 
 4974000   0.46192843   -8.6999145    653.12565  0.010942328  0.009273472            4 
 4975000   0.45393234   -8.7219455    653.29151  0.010942906 0.0092704381            3 
 4976000   0.45601367   -8.7328985    652.22836  0.010922903 0.0092674046            5 
 4977000   0.45368031   -8.7155354    652.95398  0.010932857 0.0092643698            5 
 4978000   0.45859685   -8.7156324    653.27287     0.010936  0.009261338            2 
 4979000   0.46049567   -8.7295352    653.24347  0.010933311 0.0092583055            2 
 4980000   0.45376414   -8.7168701    652.71762  0.010922316 0.0092552743            4 
 4981000   0.45541309    -8.717495    652.61443  0.010918397 0.0092522447            5 
 4982000   0.44829061   -8.7301732    652.95209  0.010921854 0.0092492209            4 
 4983000   0.45205454   -8.7426955    652.77077  0.010916629 0.0092461947            3 
 4984000    0.4629897   -8.7322316    652.70964  0.010913417 0.0092431681            2 
 4985000   0.45681662   -8.7332125    652.55295  0.010908608 0.0092401456            3 
 4986000    0.4619734   -8.7270594    653.28972  0.010918734 0.0092371231            3 
 4987000   0.45834477   -8.7307377     651.8024  0.010891692 0.0092341025            2 
 4988000   0.46915014   -8.7356316    652.52378   0.01090156 0.0092310844            3 
 4989000   0.45580235    -8.708575    653.31837  0.010912647 0.0092280687            4 
 4990000   0.45369035   -8.7298686    652.40838  0.010895264 0.0092250551            4 
 4991000   0.44912615   -8.7325709    653.22328  0.010906687 0.0092220371            4 
 4992000   0.44937572   -8.7332726    652.77366  0.010896996 0.0092190214            4 
 4993000   0.44213228   -8.7337973    651.91962   0.01088056 0.0092160054            2 
 4994000   0.45469328   -8.7242648    653.09546  0.010898002 0.0092129939            3 
 4995000   0.46065856   -8.7273467    652.97182  0.010893757 0.0092099833            7 
 4996000   0.43929142   -8.7340206    653.17973  0.010895045 0.0092069736            3 
 4997000    0.4531674   -8.7365397    652.98474  0.010889613 0.0092039657            3 
 4998000   0.44833052   -8.7240958    652.93619  0.010886624 0.0092009612            3 
 4999000   0.44858026    -8.731961    652.46218  0.010876545 0.0091979543            4 
 5000000   0.45392192   -8.7054738    651.78129  0.010863022 0.0091949478            3 
 5001000   0.45416193   -8.7527515    652.15595  0.010867092 0.0091919437            2 
 5002000   0.45545104   -8.7309864    652.36117  0.010868339  0.009188939            5 
 5003000   0.45737379   -8.7454787    653.70653  0.010888576 0.0091859373            1 
 5004000   0.44719378   -8.7250959     653.2457  0.010878725 0.0091829363            2 
 5005000   0.44882911   -8.7326508    653.27657  0.010877066 0.0091799361            3 
 5006000    0.4564183   -8.7331263    652.25299  0.010857854 0.0091769384            6 
 5007000   0.45619497   -8.7262683    652.80628  0.010864894 0.0091739427            4 
 5008000   0.44686622   -8.7209343    652.72061  0.010861299 0.0091709486            3 
 5009000   0.45485544   -8.7281544    652.46176  0.010854824 0.0091679544            2 
 5010000   0.45034539   -8.7235803    653.13649   0.01086388 0.0091649616            3 
 5011000   0.45341355   -8.7270638    653.30919  0.010864584 0.0091619677            4 
 5012000   0.43952191   -8.7411989    653.47582  0.010865187 0.0091589762            4 
Loop time of 11969.1 on 48 procs for 5000000 steps with 4000 atoms

Performance: 72186.097 tau/day, 417.744 timesteps/s
99.4% CPU use with 48 MPI tasks x no OpenMP threads

MPI task timing breakdown:
Section |  min time  |  avg time  |  max time  |%varavg| %total
---------------------------------------------------------------
Pair    | 774.48     | 839.63     | 899.6      | 108.9 |  7.02
Neigh   | 77.571     | 81.675     | 84.837     |  18.9 |  0.68
Comm    | 757.8      | 822.7      | 906.3      | 121.8 |  6.87
Output  | 13.666     | 13.671     | 13.766     |   0.4 |  0.11
Modify  | 10085      | 10106      | 10122      |   9.0 | 84.43
Other   |            | 105.5      |            |       |  0.88

Nlocal:        83.3333 ave          90 max          78 min
Histogram: 6 6 5 4 4 8 5 5 2 3
Nghost:        2073.46 ave        2090 max        2058 min
Histogram: 1 5 4 5 10 10 4 3 3 3
Neighs:        13523.7 ave       14781 max       12144 min
Histogram: 2 3 4 8 7 6 5 5 3 5
FullNghs:      27047.9 ave       29606 max       25180 min
Histogram: 4 8 6 4 8 3 7 5 2 1

Total # of neighbors = 1298297
Ave neighs/atom = 324.57425
Neighbor list builds = 267622
Dangerous builds = 1

#clear
#
#next RN
#
#jump SELF
Total wall time: 3:19:32
