
units lj                  # Use reduced LJ style units
atom_style atomic         # Uncharged point particles
atom_modify map hash      # Needed for indexing of clusters etc
                          # Used to be able to find where atoms are in relation to each other.

lattice fcc 1.0 spacing 1 1 1
Lattice spacing in x,y,z = 1.5874011 1.5874011 1.5874011
region box block 0 10 0 10 0 10 units lattice
create_box 2 box
Created orthogonal box = (0.0000000 0.0000000 0.0000000) to (15.874011 15.874011 15.874011)
  3 by 4 by 4 MPI processor grid
create_atoms 1 box
Created 4000 atoms
  using lattice units in orthogonal box = (0.0000000 0.0000000 0.0000000) to (15.874011 15.874011 15.874011)
  create_atoms CPU = 0.015 seconds
set type 1 type/fraction 2 0.3 78393
Setting atom values ...
  1229 settings made for type/fraction
mass 1 1.0
mass 2 1.0
pair_style lj/cut  3.5
pair_modify tail  yes
pair_coeff 1  1  1.0  1.0   # Intearaction between 1 and 1 set with epsilon = 1 and sigma = 1
pair_coeff 1  2  1.5  0.8
pair_coeff 2  2  0.5  0.88

write_data data.0
System init for write_data ...
Neighbor list info ...
  update every 1 steps, delay 10 steps, check yes
  max neighbors/atom: 2000, page size: 100000
  master list distance cutoff = 3.8
  ghost atom cutoff = 3.8
  binsize = 1.9, bins = 9 9 9
  1 neighbor lists, perpetual/occasional/extra = 1 0 0
  (1) pair lj/cut, perpetual
      attributes: half, newton on
      pair build: half/bin/atomonly/newton
      stencil: half/bin/3d
      bin: standard
WARNING: Not all mixed pair coeffs generated from mixing. Use write_data with 'pair ij' option to store all pair coeffs. (../write_data.cpp:312)


#############################
#   M E L T   S Y S T E M   #
#############################

velocity all create 2.4 9580093 mom yes dist gaussian # Assign velocities
                                                    # Temperature 2.4, random number seed, zero linear momentum
                                                                                # Gaussian distribution

timestep 0.002   # simulation timestep
thermo 1000       # output thermodynamic data every 1000 steps bf 100

# Define a fix  in this case with index 1 applied to all
# particles in the simulation. This fix is for simulations
# in the anisotropic NPT ensemble. Note that we use the MTK
# correction.
fix 1 all npt temp 2.4 2.4 0.1 iso 5.68 5.68 0.5 mtk yes tchain 5 pchain 5 # Use NPT ensemble
                                                                         # Set temperature and pressure and damping
                                                                         # Numbers of thermostats in chain and in barostat
run 10000          # run for 10000 steps
Per MPI rank memory allocation (min/avg/max) = 3.642 | 3.644 | 3.648 Mbytes
Step Temp E_pair E_mol TotEng Press Volume 
       0          2.4   -6.4318281            0   -2.8327281   -3.9834666         4000 
    1000    2.3783113   -4.9799892            0   -1.4134142    5.7370026    4148.7695 
    2000    2.3864434   -4.9863487            0   -1.4075786    5.5563344    4165.3313 
    3000    2.4499794   -4.9757921            0   -1.3017417    5.7882334    4151.1841 
    4000    2.4053782   -5.0126885            0   -1.4055232    5.5402941    4155.6308 
    5000    2.3638095   -4.9830857            0   -1.4382579     5.853416     4134.722 
    6000    2.4430362   -5.0105774            0   -1.3469391    5.7127301    4138.7907 
    7000     2.360904   -5.0360121            0   -1.4955414    5.5963149    4133.8414 
    8000    2.3697523   -4.9610158            0    -1.407276    5.5646591    4168.4615 
    9000    2.3980189   -5.0450259            0   -1.4488968    5.6564091    4129.4723 
   10000    2.3957749   -5.0643572            0   -1.4715932    5.5880175    4120.4919 
Loop time of 2.48153 on 48 procs for 10000 steps with 4000 atoms

Performance: 696344.933 tau/day, 4029.774 timesteps/s
99.5% CPU use with 48 MPI tasks x no OpenMP threads

MPI task timing breakdown:
Section |  min time  |  avg time  |  max time  |%varavg| %total
---------------------------------------------------------------
Pair    | 1.0478     | 1.121      | 1.2318     |   3.1 | 45.17
Neigh   | 0.20522    | 0.21232    | 0.22037    |   0.8 |  8.56
Comm    | 0.69377    | 0.8254     | 0.95536    |   5.7 | 33.26
Output  | 0.00024745 | 0.00025254 | 0.0003159  |   0.0 |  0.01
Modify  | 0.21746    | 0.30731    | 0.34978    |   6.0 | 12.38
Other   |            | 0.01527    |            |       |  0.62

Nlocal:        83.3333 ave          91 max          75 min
Histogram: 3 1 3 9 4 9 8 6 4 1
Nghost:        1611.08 ave        1646 max        1586 min
Histogram: 2 4 8 10 10 6 2 3 1 2
Neighs:        9252.31 ave       10343 max        7929 min
Histogram: 1 1 4 6 9 7 5 10 3 2

Total # of neighbors = 444111
Ave neighs/atom = 111.02775
Neighbor list builds = 906
Dangerous builds = 202

# Equilibrate just above the melting temperature to avoid step fn in T

fix 1 all npt temp 1.25 1.25 0.1 iso 5.68 5.68 0.5 mtk yes tchain 5 pchain 5
run 2000
Per MPI rank memory allocation (min/avg/max) = 3.643 | 3.645 | 3.649 Mbytes
Step Temp E_pair E_mol TotEng Press Volume 
   10000    2.3957749   -5.0643572            0   -1.4715932    5.5880175    4120.4919 
   11000     1.246091   -6.8634373            0   -4.9947682    5.5505076    3343.2936 
   12000    1.2484702   -6.8722638            0   -5.0000267    5.6855697    3334.1824 
Loop time of 0.57275 on 48 procs for 2000 steps with 4000 atoms

Performance: 603404.657 tau/day, 3491.925 timesteps/s
99.6% CPU use with 48 MPI tasks x no OpenMP threads

MPI task timing breakdown:
Section |  min time  |  avg time  |  max time  |%varavg| %total
---------------------------------------------------------------
Pair    | 0.24111    | 0.27583    | 0.29687    |   2.0 | 48.16
Neigh   | 0.035731   | 0.039689   | 0.042729   |   0.6 |  6.93
Comm    | 0.18668    | 0.20603    | 0.24693    |   2.5 | 35.97
Output  | 5.1827e-05 | 5.5796e-05 | 0.00017024 |   0.0 |  0.01
Modify  | 0.043157   | 0.04627    | 0.050849   |   1.0 |  8.08
Other   |            | 0.004871   |            |       |  0.85

Nlocal:        83.3333 ave          90 max          74 min
Histogram: 2 1 0 6 7 8 9 5 4 6
Nghost:        1857.54 ave        1881 max        1830 min
Histogram: 1 5 2 5 6 8 8 7 5 1
Neighs:        11463.8 ave       12756 max        9693 min
Histogram: 1 0 2 7 7 9 8 5 6 3

Total # of neighbors = 550264
Ave neighs/atom = 137.56600
Neighbor list builds = 141
Dangerous builds = 12

#############################
# L I N E A R  Q U E N C H  #
#############################

# Define solid atoms. This closely follows ten Wolde  Ruiz-Montero and Frenkel  Faraday Discuss  1996  104  93-110
# Compute components of the per-atom q6 vector
compute q6 all orientorder/atom degrees 1 6 components 6 nnn NULL cutoff 1.3 # compute the Q6 parameter.
                                                                             # Use all neighbours within 1.3 unit cell.

# get number of connections
compute coord_number all coord/atom orientorder q6 0.5

# An atom is solid if it has 8 or more connections (of a possible 14)
variable is_solid atom c_coord_number>=8
group solid dynamic all var is_solid    # Must be dynamic to update
dynamic group solid defined

# do clustering
compute cluster solid cluster/atom 1.3 # Create a cluster where all atoms within are solid and max 1.3 units from another member

# define chunks one chunk per cluster
compute clus_chunks solid chunk/atom c_cluster nchunk every compress yes  # Says which atoms are in which chunk

# count the size of each chunk
compute size_chunks solid property/chunk clus_chunks count


# Find the maximum entry in the vector of chunk sizes
variable max_n equal max(c_size_chunks)


# Thermo style which includes this variable
# thermo_style custom step temp pe vol v_max_n

thermo ${N}  # Print the thermo information every 100 steps
thermo 1000  

# Reset the npt fix at a lower temperature (below freezing)
fix 1  all npt temp  ${temp} ${temp}  0.1  iso  5.68  5.68  0.5  mtk yes tchain  5  pchain  5
fix 1  all npt temp  0.45 ${temp}  0.1  iso  5.68  5.68  0.5  mtk yes tchain  5  pchain  5
fix 1  all npt temp  0.45 0.45  0.1  iso  5.68  5.68  0.5  mtk yes tchain  5  pchain  5

dump dmp2 all dcd ${N} traj.dcd
dump dmp2 all dcd 1000 traj.dcd


compute msd all msd com yes
variable twopoint equal c_msd[4]/6/(step*dt+1.0e-6)
fix 9 all vector 10 c_msd[4]
variable fit equal slope(f_9)/6/(10*dt)
thermo_style custom step temp pe c_msd[4] v_twopoint v_fit v_max_n

fix 1 all npt temp 1.25 ${temp} 0.1 iso 5.68 5.68 0.5 mtk yes tchain 5 pchain 5
fix 1 all npt temp 1.25 0.45 0.1 iso 5.68 5.68 0.5 mtk yes tchain 5 pchain 5
run 5000000 # 5000000  # Run for this many steps
Neighbor list info ...
  update every 1 steps, delay 10 steps, check yes
  max neighbors/atom: 2000, page size: 100000
  master list distance cutoff = 3.8
  ghost atom cutoff = 3.8
  binsize = 1.9, bins = 8 8 8
  4 neighbor lists, perpetual/occasional/extra = 1 3 0
  (1) pair lj/cut, perpetual
      attributes: half, newton on
      pair build: half/bin/atomonly/newton
      stencil: half/bin/3d
      bin: standard
  (2) compute orientorder/atom, occasional
      attributes: full, newton on
      pair build: full/bin/atomonly
      stencil: full/bin/3d
      bin: standard
  (3) compute coord/atom, occasional
      attributes: full, newton on
      pair build: full/bin/atomonly
      stencil: full/bin/3d
      bin: standard
  (4) compute cluster/atom, occasional
      attributes: full, newton on
      pair build: full/bin/atomonly
      stencil: full/bin/3d
      bin: standard
Per MPI rank memory allocation (min/avg/max) = 9.810 | 9.816 | 9.820 Mbytes
Step Temp PotEng c_msd[4] v_twopoint v_fit v_max_n 
   12000    1.2484702   -6.8722638 3.914525e-30  2.71842e-32 8.3333333e+20            1 
   13000    1.2492818   -6.8671324   0.51420191  0.003296166  0.042381722            1 
   14000     1.240152   -6.9514422   0.98002381 0.0058334749  0.039712203            1 
   15000    1.2582043   -6.8651792    1.4478253 0.0080434738  0.039772649            1 
   16000    1.2796048   -6.8358743    1.9036733 0.0099149648  0.038999921            1 
   17000    1.2689534   -6.8283708    2.4207758  0.011866548  0.039408962            1 
   18000    1.2417615   -6.8601407    2.9057266  0.013452437  0.039706274            2 
   19000     1.248431   -6.8753532    3.3359508  0.014631363  0.039758629            1 
   20000    1.2497021   -6.8762166    3.8209497  0.015920623  0.039580291            2 
   21000    1.2406622   -6.8772273    4.3136119  0.017117507  0.039493105            1 
   22000    1.2708722   -6.9032847    4.7822024  0.018114403  0.039565161            1 
   23000    1.2538888   -6.9106946    5.2147505  0.018894023  0.039477005            2 
   24000    1.2415178   -6.8655366    5.6463363  0.019605334  0.039360942            2 
   25000    1.2285499   -6.8514711    6.0786243   0.02026208  0.039115127            2 
   26000     1.233425   -6.8833928    6.5379682  0.020955026  0.038971119            1 
   27000    1.2714486   -6.8653769    7.0953733    0.0218993   0.03891086            1 
   28000    1.2557314   -6.9061402     7.566307   0.02251877  0.038993098            1 
   29000    1.2502738   -6.8680438    8.0239088  0.023057209  0.039014909            2 
   30000    1.2118951   -6.9329555    8.4881986  0.023578329  0.039042941            2 
   31000    1.2307045   -6.9011123    8.8916232  0.023902212   0.03897416            3 
   32000    1.2392788   -6.8740275    9.3568007  0.024366668  0.038858956       -1e+20 
   33000    1.2477219   -6.8493416    9.8343107  0.024834117   0.03879843            1 
   34000    1.2588467   -6.8649368    10.340355  0.025344007  0.038819451            2 
   35000    1.2540633   -6.8913975    10.786279  0.025681616  0.038831495            1 
   36000    1.2511409   -6.8852896    11.250476  0.026042767  0.038830212            1 
   37000     1.253952   -6.8772581    11.669136  0.026281838  0.038806873            2 
   38000    1.2609583   -6.8986559    12.114064  0.026565929  0.038749437            2 
   39000    1.2208102   -6.8767242    12.537869  0.026790318  0.038691475            1 
   40000     1.246625   -6.8718252    12.995746  0.027074471  0.038636103            1 
   41000     1.241316   -6.9081697    13.429951  0.027296648  0.038572864            1 
   42000    1.2496085   -6.9250024    13.835443  0.027451275  0.038530589            1 
   43000    1.2589871   -6.8960981    14.319371   0.02775072  0.038467458            1 
   44000    1.2423484   -6.8918628    14.790838  0.028012951  0.038405714            1 
   45000    1.2816032   -6.8575324    15.182561  0.028115853  0.038336908            1 
   46000    1.2455667   -6.9147736    15.489855  0.028061332  0.038252786            3 
   47000    1.2362589   -6.8848049    15.965484  0.028307595  0.038151721            3 
   48000    1.2103405   -6.9043598    16.504609  0.028653835  0.038080746            2 
   49000    1.2598176   -6.8897556     16.90828  0.028755578  0.038033166            1 
   50000    1.2369849    -6.863599    17.433712  0.029056186    0.0379896            1 
   51000    1.2324585   -6.9052372    17.879794  0.029215349  0.037954544            1 
   52000    1.2426329   -6.9253288    18.321437  0.029361277  0.037919939            1 
   53000     1.248669   -6.9224799    18.855725  0.029647365  0.037913172            2 
   54000    1.2383754   -6.9620546     19.45742  0.030026883  0.037933686            1 
   55000    1.2386776   -6.8977758    19.951087   0.03022892  0.037980722            2 
   56000    1.2604973   -6.8926924    20.436942  0.030412115  0.038026387            1 
   57000    1.2139749   -6.9390697    20.929246  0.030598313   0.03807462            1 
   58000    1.2520738   -6.9095862    21.464225  0.030839404  0.038139904            2 
   59000    1.2244978   -6.8925553    21.707815  0.030660756  0.038175684            2 
   60000    1.2230496   -6.8611703    22.221556  0.030863273  0.038192278            1 
   61000    1.2498758   -6.8905349    22.634365  0.030921264  0.038208447            2 
   62000    1.2364381   -6.9243147    22.907619  0.030789811  0.038200155            2 
   63000    1.2389314   -6.9384465     23.39862  0.030950555  0.038174575            1 
   64000    1.2065349   -6.8619949    23.990798  0.031238018  0.038169141            2 
   65000     1.217896   -6.8697926     24.44285  0.031336988  0.038182003            3 
   66000    1.2340604   -6.9151736    25.141311  0.031744079  0.038196591            2 
   67000    1.2069892    -6.897954    25.726865  0.031998588  0.038245032            1 
   68000     1.239393   -6.8987329    26.337366  0.032276184  0.038315407            1 
   69000    1.2432491   -6.9043514    26.890297  0.032476204  0.038386181            1 
   70000    1.2398517   -6.8888865    27.428209  0.032652629  0.038468044            1 
   71000    1.2462709   -6.9272413    27.920658  0.032770725  0.038549808            1 
   72000    1.2564469   -6.9261816    28.256296  0.032704046  0.038621352            1 
   73000    1.2416751   -6.8996661    28.671244  0.032729731  0.038675445            1 
   74000    1.2446996   -6.9657562    28.924345   0.03257246  0.038715513            2 
   75000    1.2402178   -6.8788984    29.441852  0.032713169  0.038724123            2 
   76000    1.2225391   -6.9217822    29.818454  0.032695673   0.03873111            1 
   77000    1.2407101   -6.8768264    30.305324   0.03279797  0.038735343            2 
   78000    1.2350668   -6.8706268    30.774825  0.032879086  0.038728186            3 
   79000    1.2392044   -6.9008735    30.945801  0.032643249  0.038716925            1 
   80000    1.2426246   -6.8617643    31.520758  0.032834123  0.038695148            1 
   81000    1.2371067   -6.8562944    32.016033  0.032938306  0.038675262            2 
   82000    1.2424419   -6.9118875    32.464005  0.032991875  0.038667522            2 
   83000    1.2473932   -6.8803023    32.889801  0.033021889  0.038658456            1 
   84000    1.2512256   -6.8848358    33.309928  0.033045563  0.038648507            1 
   85000    1.2373628   -6.9151899    33.656807  0.032996869  0.038636165            1 
   86000    1.2447537   -6.8796049    34.221857  0.033160714  0.038621879            2 
   87000    1.2269779   -6.8973171    34.597737  0.033139595  0.038607107            2 
   88000    1.2026179   -6.9329408    35.001652  0.033145504  0.038584852            1 
   89000    1.2365004   -6.9424763    35.411446  0.033156784  0.038564103            1 
   90000    1.2175734   -6.9271863    35.818101  0.033164908  0.038547776            1 
   91000    1.2360843   -6.9259929    36.275277  0.033219118  0.038522768            2 
   92000    1.2469175   -6.8834055    36.901772  0.033425518  0.038505344            1 
   93000      1.25184   -6.9662709    37.469937  0.033575213  0.038498232            1 
   94000    1.2430928   -6.9104971    37.840211  0.033546286  0.038491766            3 
   95000    1.2101868   -6.8854941    38.481497  0.033755699  0.038491979       -1e+20 
   96000    1.2130249   -6.9263743    38.903666  0.033770543  0.038497394            1 
   97000    1.2438607    -6.906454    39.479794  0.033917349  0.038508976            1 
   98000    1.2350236   -6.9265855    39.876416  0.033908517  0.038517601            1 
   99000    1.2107537   -6.8727753    40.405093  0.034011021  0.038519678            1 
  100000    1.2291717   -6.8522449    40.897371  0.034081143  0.038518614            1 
  101000    1.2308339   -6.8927154    41.071269  0.033887186  0.038519813            1 
  102000    1.2538454   -6.9138278    41.432339   0.03384995  0.038505611            1 
  103000    1.2434948   -6.8705618    41.687252   0.03372755  0.038483152            2 
  104000    1.2285631   -6.9286617    42.018132  0.033668375  0.038456906            1 
  105000    1.2075624   -6.8687654    42.651342  0.033850271  0.038431109            2 
  106000    1.2484553   -6.8947538    43.224769  0.033981736  0.038415465            2 
  107000    1.2179457   -6.8660469    43.627688   0.03397795  0.038396173            1 
  108000    1.2415931   -6.9371339    43.894204  0.033868984   0.03837734            1 
  109000    1.2267113   -6.9007307    44.526101  0.034041361  0.038361817            1 
  110000     1.213353   -6.8699474     44.96154  0.034061772  0.038350791            3 
  111000    1.2516947   -6.9173969    45.716453  0.034321661  0.038340139            2 
  112000     1.251168   -6.8694982    45.933886  0.034176998  0.038328675            3 
  113000    1.2411842   -6.8985725    46.336086  0.034171155  0.038316505            1 
  114000    1.2289707   -6.9322127    46.570312  0.034042626  0.038300378            1 
  115000    1.2263331   -6.9314982    47.368508  0.034325006  0.038287636            6 
  116000     1.235312   -6.9322081    47.563612  0.034169261  0.038279242            2 
  117000    1.2187038    -6.914392    48.246528  0.034363624  0.038269855            1 
  118000    1.2332424   -6.9379638    48.793814  0.034458908  0.038265678            2 
  119000    1.2566699   -6.9013302    48.938282  0.034270505  0.038259864            1 
  120000    1.2371701   -6.9149181    49.404246  0.034308504  0.038246494            2 
  121000    1.2370922   -6.9388289    50.162729  0.034547334  0.038235186            2 
  122000    1.2205422   -6.9442099    50.419006  0.034439211  0.038227473            2 
  123000    1.2333829   -6.9022783    50.906537  0.034489524  0.038217012            2 
  124000    1.2290221   -6.9092836    51.336006  0.034500004  0.038208361            1 
  125000    1.2391446   -6.8809447    51.622915  0.034415276  0.038193034            2 
  126000    1.2043207    -6.907458    51.914559  0.034335026  0.038176178            2 
  127000    1.2456599   -6.8998619    52.510913   0.03445598  0.038162166            2 
  128000    1.2204207   -6.9138462    53.093842  0.034566303  0.038152114            1 
  129000    1.2168554   -6.8907258    53.469716   0.03454116  0.038138187            2 
  130000    1.2382031   -6.9318964    54.266217  0.034786036  0.038132935            1 
  131000    1.2424745   -6.9124283    54.530929  0.034688886  0.038130024            1 
  132000    1.2464238   -6.9351964    55.038268  0.034746381  0.038128547            1 
  133000    1.1989064   -6.9206468    55.492295  0.034769608  0.038128654            1 
  134000    1.1954991    -6.886224    55.978801  0.034812687  0.038128868            1 
  135000    1.2475861    -6.869442    56.647409  0.034967536  0.038128633            2 
  136000    1.2621114   -6.9365863    57.053092  0.034959002  0.038130031            2 
  137000    1.2198026   -6.8733306    57.732081  0.035116837  0.038133914            2 
  138000    1.2451053   -6.9370348    58.138728  0.035107927  0.038137639            1 
  139000    1.2400934   -6.9122943    58.470389   0.03505419  0.038142022            2 
  140000    1.2195426   -6.9714095    58.789632  0.034993829  0.038144046            2 
  141000    1.2298879   -6.8955878    59.428372  0.035123151  0.038145099            3 
  142000    1.1987995   -6.8874045    59.735677  0.035056148  0.038144594            1 
  143000    1.2406425   -6.9195781    60.219768  0.035093105  0.038145994            2 
  144000     1.224531   -6.9225146     60.60524  0.035072477  0.038146422            1 
  145000    1.2293212   -6.8919262    61.257905  0.035205692  0.038149364            1 
  146000    1.2316535   -6.9330073    61.575407   0.03514578  0.038147263            1 
  147000    1.2343164   -6.9157661    62.172101  0.035244955  0.038148928            4 
  148000    1.2361553   -6.9709544    62.872463  0.035401161  0.038153856            2 
  149000    1.1845335   -6.8959902    63.231226   0.03536422  0.038159648            2 
  150000    1.2331249   -6.9142294    63.758807  0.035421559   0.03816875            1 
  151000    1.2345529   -6.9322238    64.192492   0.03542632  0.038177586            2 
  152000    1.2077065    -6.944182    64.596578   0.03541479  0.038185777            1 
  153000    1.2123421   -6.9150768    64.901526  0.035349415   0.03818847            1 
  154000    1.1919636   -6.9153322    65.125531  0.035241088  0.038186543            4 
  155000    1.2180164     -6.95379     65.46748   0.03519757  0.038182264            2 
  156000    1.2407568   -6.9619388    65.770724  0.035133933  0.038177074            2 
  157000    1.2167722   -6.9437888    66.370417  0.035228459  0.038170317            1 
  158000    1.2222305   -6.8921533    66.975282  0.035324516  0.038163827            1 
  159000    1.2239196   -6.9151213    67.297528  0.035271241  0.038160831            2 
  160000    1.2209465   -6.9364705    67.975073  0.035403684  0.038156702            1 
  161000    1.2111587   -6.9198455    68.191464  0.035295789  0.038153019            2 
  162000    1.2037985   -6.9309677    68.874562  0.035429301  0.038150237            1 
  163000    1.2284506   -6.9325011    69.208392  0.035382613  0.038148481            1 
  164000    1.2206494   -6.9757674    69.837827  0.035486701  0.038147309            1 
  165000    1.2172166   -6.9742593    69.934231  0.035320318  0.038145198            1 
  166000    1.2220405   -6.9405703     70.86064  0.035572611  0.038141784            1 
  167000    1.2439743   -6.9152357    71.209331  0.035533598  0.038138099            4 
  168000    1.2102732    -6.931885    71.266161  0.035350278  0.038135057            1 
  169000    1.2380315   -6.9243541    71.889122  0.035448285  0.038130642            1 
  170000    1.2513274   -6.9344681    72.268315  0.035425645  0.038127052            3 
  171000    1.2213939   -6.9427193    72.838666  0.035496426  0.038120715            3 
  172000    1.2315626   -6.9065751    73.162259  0.035446831   0.03811464            1 
  173000    1.2338618   -6.9118202    73.348411  0.035331604  0.038106266            2 
  174000    1.2289614   -6.9510582    73.720497  0.035306751  0.038094735            2 
  175000    1.2047845    -6.957888    74.317854  0.035389454  0.038085628            2 
  176000    1.2175974   -6.9525219    74.761579  0.035398475  0.038078234            1 
  177000    1.2217151   -6.8888848    75.579156  0.035583407  0.038072043            1 
  178000    1.2398973   -6.9357309    75.919158  0.035542677  0.038065704            2 
  179000    1.2088052   -6.9349757    76.302448  0.035522555  0.038060768            1 
  180000    1.2428658   -6.8986518    76.962521  0.035630797  0.038056479            1 
  181000     1.221474   -6.9378454    77.408346  0.035639202  0.038052961            1 
  182000    1.2081014   -6.9160732     77.69528  0.035574762  0.038046586            2 
  183000    1.2394018   -6.9294091    77.773548  0.035416005  0.038039615            3 
  184000    1.2056941   -6.9213526    77.986719  0.035320072  0.038029801            1 
  185000    1.2251938   -6.9831055    78.224001  0.035236036  0.038017997            1 
  186000    1.2187356   -6.8653463    79.141351  0.035457595  0.038008246            1 
  187000     1.203293   -6.9082559    79.758987   0.03554322  0.037999164            1 
  188000    1.2345667   -6.9511915     80.15155  0.035528169  0.037991214            1 
  189000    1.2295266   -6.9170305    80.175112  0.035350578  0.037982171            1 
  190000    1.2408878   -6.9842862     80.75915   0.03542068  0.037971951            4 
  191000      1.22426   -6.9367408    81.139929  0.035401365  0.037961639            2 
  192000    1.2124175   -6.9420409    81.674384  0.035448951  0.037951341            1 
  193000    1.2312712   -6.9444616    81.902372  0.035363718  0.037940443            1 
  194000    1.2256058    -6.955981    82.284914  0.035345753  0.037927922            3 
  195000    1.2319673   -6.9331461    82.719943  0.035350403  0.037914359            1 
  196000    1.2174294   -6.8803899    83.846665  0.035649092  0.037903953            2 
  197000    1.2370994   -6.8869927    83.943855  0.035509245  0.037893358            1 
  198000    1.2148648    -6.986246    84.139481  0.035412239  0.037882056            2 
  199000    1.2248167    -6.966025    84.357964   0.03532578  0.037868498            2 
  200000    1.2397914   -6.9408887    84.854872  0.035356196     0.037855            2 
  201000    1.1981617   -6.9427455    85.449288  0.035426736  0.037843304            2 
  202000    1.2413852   -6.9697564    85.898155  0.035436532  0.037831535            2 
  203000    1.2150501   -6.9269628    86.592656  0.035547067  0.037822628            1 
  204000    1.1888345   -6.9602985    86.935027  0.035512674  0.037813745            1 
  205000    1.2411277   -6.9144375    87.241313  0.035463948  0.037805695            3 
  206000    1.2269674   -6.9457834    87.922278  0.035567265  0.037795979            2 
  207000    1.2170196   -6.9618661    87.797851  0.035345351  0.037786667            3 
  208000    1.2317035   -6.9598519    88.772283  0.035565819  0.037777982            2 
  209000    1.2330315   -6.9542019    89.330821  0.035618349   0.03777001            1 
  210000    1.2322413   -6.9425428    89.672843  0.035584461  0.037763503            1 
  211000    1.2043353   -6.9121535    90.643862  0.035799313  0.037757279            1 
  212000    1.2229337    -6.946011    90.731385  0.035664853  0.037754689            2 
  213000    1.1980994   -6.9050103    90.976484  0.035593303   0.03774896            1 
  214000    1.2204383   -6.9354212      91.7771  0.035738746  0.037742521            1 
  215000    1.1952253   -6.9294533     92.01059  0.035663019  0.037736169            1 
  216000    1.2212341   -6.9846788    92.135301  0.035546027  0.037730191            1 
  217000    1.2102794   -6.9282612    93.026781   0.03572457  0.037724238            2 
  218000    1.1926602   -6.9479432    93.149537  0.035607621    0.0377185            1 
  219000    1.2098286    -6.978247    93.558861  0.035600784  0.037712463            1 
  220000    1.2158458   -7.0120775    93.941319  0.035583833   0.03770704            1 
  221000    1.2111694   -6.8930167      94.7201  0.035716478  0.037699861            2 
  222000    1.2391354   -6.9281907    94.828135  0.035596147  0.037692484            1 
  223000    1.2139374   -6.9244314    95.683097  0.035756015  0.037685907            1 
  224000    1.1921056   -6.9697592    95.732954  0.035614938  0.037678505            1 
  225000    1.2279063   -6.9855415    96.416641  0.035709867  0.037671797            3 
  226000    1.1896276   -6.9789531    96.439696   0.03556036  0.037664713            1 
  227000    1.2163392   -6.9905187    96.863928  0.035559445  0.037657655            2 
  228000    1.2025869   -6.9651582    97.353446    0.0355824  0.037651064            2 
  229000    1.2040428   -6.9610198    98.216864  0.035741217  0.037643847            1 
  230000    1.1844061   -6.9643604    98.573132  0.035714903  0.037638495            2 
  231000    1.1912831   -6.9755677    98.462729  0.035520465  0.037630951            1 
  232000    1.2102659   -6.9294261    99.083591   0.03559037  0.037621902            1 
  233000    1.2040802   -6.9382001    99.745906  0.035674501  0.037612998            1 
  234000    1.2133957   -6.9448409    100.31317  0.035724065  0.037605921            1 
  235000    1.2048098   -6.9247148    100.73822  0.035722773  0.037598352            2 
  236000    1.2172301   -6.9467584    101.05919  0.035684741  0.037590982            1 
  237000    1.2061512   -6.9844404    101.34045  0.035633068  0.037583426            2 
  238000     1.211524   -6.9426106    101.87901  0.035671924  0.037575431            2 
  239000    1.2119224   -6.9450739    102.24921  0.035651748  0.037569074            1 
  240000    1.1936924   -6.9697862    102.52039  0.035597358  0.037563509            1 
  241000    1.2378232   -6.9814263    103.12187  0.035657631   0.03755633            1 
  242000    1.2204107   -6.9471604    102.63529  0.035342731  0.037546167            1 
  243000    1.2049612   -6.9240208    103.61946  0.035534794  0.037535051            1 
  244000    1.1871726   -6.9666986    103.75024  0.035433825  0.037522483            2 
  245000    1.2265504   -7.0040019    103.91414  0.035344945  0.037509937            2 
  246000    1.2189572   -6.9807393    104.76229  0.035488581  0.037496837            1 
  247000    1.2176942   -6.9778367    105.23512  0.035504425  0.037486107            1 
  248000    1.2308739   -6.9209781    106.02618  0.035627075  0.037476329            1 
  249000    1.2230764   -6.9751224    105.74866  0.035391117  0.037465922            2 
  250000    1.2118357   -6.9752024    106.62355  0.035541184  0.037454429            4 
  251000    1.1709367   -6.9355852    107.08139   0.03555159  0.037444014            1 
  252000    1.2131016   -6.9788187    107.35883  0.035502257  0.037433151            1 
  253000    1.2394922   -6.9386637    107.91828  0.035546205  0.037421348            1 
  254000    1.2254644   -6.9735418    107.99777   0.03543234  0.037410827            2 
  255000    1.2043646   -6.9414067    109.01049  0.035624343  0.037400625            1 
  256000    1.2013688   -6.9474737    109.36482  0.035600526  0.037390996            1 
  257000    1.1898445   -6.9636196    109.63127  0.035548401  0.037381397            2 
  258000    1.2279376   -6.9276302    110.26959  0.035616792  0.037372844            2 
  259000    1.2054669   -6.9408786    110.64485  0.035600016    0.0373661            2 
  260000    1.2118672   -6.9155835    111.43356  0.035715885   0.03735809            2 
  261000    1.2287551   -6.9816474    111.52165  0.035607166  0.037350965            1 
  262000    1.2081474    -6.962448    111.93668   0.03560327  0.037343734            3 
  263000    1.1870291   -6.9446575    113.05386  0.035821883  0.037337102            2 
  264000    1.2309878   -6.9926134    113.08947  0.035697433  0.037332499            2 
  265000    1.2002786   -6.9821404    113.27128  0.035619899    0.0373262            1 
  266000    1.2082225   -6.9623949    114.20112  0.035777294  0.037322006            1 
  267000    1.2340775   -6.9802984    114.73551  0.035810086  0.037317823            1 
  268000    1.2406982   -6.9753338     114.4623   0.03559151  0.037312315            1 
  269000    1.2129002   -6.9601873    115.62553  0.035819556  0.037307332            1 
  270000    1.2215383   -6.9842827    115.95396  0.035788258  0.037304118            2 
  271000    1.2083599   -6.9797822    116.07888  0.035694611  0.037300049            2 
  272000    1.2241736   -6.9420715    116.85645  0.035801609  0.037295664            2 
  273000    1.2022798   -6.9774855    117.14938  0.035759885  0.037291564            2 
  274000    1.1970194   -6.9628497    117.63695  0.035777661  0.037286518            2 
  275000    1.2131388   -6.9659367     118.0776   0.03578109  0.037281614            2 
  276000    1.1985109   -6.9869662    118.45832  0.035766402  0.037277452            1 
  277000    1.2238359   -7.0013945    118.68413  0.035705215  0.037271139            2 
  278000    1.2105047   -6.9754537    119.36445  0.035780709  0.037265956            1 
  279000    1.1967789   -6.9788121    119.95676  0.035829379   0.03726195            1 
  280000    1.2066984   -6.9746303    120.07706  0.035737221  0.037257481            1 
  281000    1.1913527   -6.9467683    120.50345  0.035736492   0.03725334            2 
  282000    1.2102248   -6.9225443    121.32449   0.03585239  0.037249546            3 
  283000    1.2106224   -6.9640741    120.90342  0.035601714   0.03724443            4 
  284000    1.1916585   -6.9468459     121.7938  0.035737617  0.037239442            1 
  285000    1.1974133   -6.9750652    122.10867  0.035704289  0.037233481            1 
  286000    1.2019454   -6.9521797    122.98766  0.035835564  0.037226957            2 
  287000    1.1993175   -6.9246457    122.85848  0.035673195  0.037221412            1 
  288000     1.202276   -6.9861566    123.41942  0.035711637  0.037214818            1 
  289000    1.2338789   -6.9571384    124.00966  0.035758263  0.037208746            1 
  290000    1.2140346   -6.9592027    124.30534  0.035719926  0.037201628            2 
  291000    1.1957861   -6.9552908    124.44514  0.035637209  0.037195697            1 
  292000    1.2052656   -6.9629171    124.64509   0.03557223  0.037188344            1 
  293000    1.1963989   -6.9597743     125.0399  0.035563112  0.037179433            1 
  294000    1.1989339   -6.9834763    125.32396  0.035522663  0.037170767            1 
  295000    1.2009511   -6.9494074    126.01132  0.035596419  0.037162022            1 
  296000    1.1968841   -6.9738816    126.14796  0.035514629  0.037152405            2 
  297000    1.1889821   -6.9622165    126.92245   0.03561236  0.037143983            3 
  298000    1.2110076   -6.9714647    126.87413  0.035479342  0.037135212            1 
  299000    1.2240331   -6.9741014    127.47378  0.035527809  0.037127427            2 
  300000    1.2017682   -6.9187719    128.41769  0.035671579  0.037119392            1 
  301000    1.2232357   -6.9762458    128.22786  0.035500514   0.03711076            1 
  302000    1.2045406    -6.966042    128.71137  0.035516382  0.037102182            1 
  303000    1.1966514   -6.9857485    129.19236  0.035531452  0.037092252            1 
  304000    1.1883242   -6.9537364     128.8439  0.035319052   0.03708291            4 
  305000    1.1974614    -7.026202    129.19857  0.035300157  0.037071321            1 
  306000    1.1925704   -6.9504911    130.15882  0.035446303  0.037059865            2 
  307000    1.2155293   -6.9941003    130.28853  0.035366051  0.037047797            1 
  308000    1.2120676   -6.9664063    130.34763  0.035267215   0.03703636            1 
  309000     1.221095   -6.9853335    131.17635  0.035376578  0.037024362            2 
  310000    1.1846997   -6.9961277    131.85088  0.035443784  0.037012476            1 
  311000    1.2105504    -7.025409    131.69933  0.035289208  0.036999697            1 
  312000    1.2065867   -6.9678285    132.48207  0.035385169  0.036985786            2 
  313000     1.195317   -6.9736819    132.72478  0.035336736  0.036971861            1 
  314000    1.1874015   -6.9693465    132.90124   0.03527103  0.036958393            2 
  315000     1.187913   -7.0314966    133.35713  0.035279663  0.036945046            8 
  316000    1.1871325   -6.9755061    133.44451  0.035191064  0.036931621            1 
  317000    1.1930815   -6.9684976    134.15266  0.035266208   0.03691966            1 
  318000    1.1886039   -6.9363039    134.57463  0.035265888  0.036907122            2 
  319000     1.206442   -7.0060802    134.73696  0.035197744  0.036894185            1 
  320000    1.1780545    -6.960231    135.22922  0.035215943  0.036881407            1 
  321000     1.192149   -6.9285148    135.83201  0.035262723  0.036868843            2 
  322000    1.2156424   -7.0088446    136.42972  0.035307898  0.036858009            1 
  323000    1.2354299   -6.9428604    136.77705  0.035288197   0.03684709            1 
  324000    1.1982075   -6.9763444    136.85772   0.03520003  0.036835527            4 
  325000    1.2007108   -6.9927762    137.45891  0.035245875  0.036822436            1 
  326000    1.2034967   -6.9963349    137.94431  0.035261838  0.036810365            1 
  327000    1.2088406   -6.9636675     138.6884   0.03534363  0.036799193            1 
  328000    1.1936397   -6.9951007     138.4256  0.035169105  0.036787735            2 
  329000    1.2189935   -6.9609013    139.46123  0.035324525  0.036775376            3 
  330000    1.2152594   -7.0049649    138.79487  0.035049209  0.036761965            2 
  331000    1.2071848   -6.9165564     139.5413  0.035131244  0.036748507            3 
  332000    1.1785461   -6.9861524    139.84576  0.035101848  0.036734315            2 
  333000    1.1931838   -7.0040802    140.22428  0.035091162  0.036720394            2 
  334000    1.2136938   -6.9542762    141.19898  0.035229286  0.036708286            3 
  335000    1.1784455   -7.0214505    141.20879  0.035126565  0.036696131            1 
  336000    1.1784635   -6.9629289    141.98455  0.035214423  0.036683639            1 
  337000    1.1858357   -6.9699881    142.20864  0.035165342  0.036672527            3 
  338000     1.215388   -6.9916409    142.33743  0.035093054   0.03666029            2 
  339000    1.2373509   -6.9749304    143.24794  0.035213358  0.036649399            3 
  340000    1.2157327   -7.0138696    143.51438  0.035175094   0.03663978            1 
  341000    1.2005531   -7.0025934    143.97442  0.035184364  0.036631204            2 
  342000    1.1881888   -6.9412433    144.88211  0.035302659  0.036621755            1 
  343000    1.1871916   -6.9983996    144.41596  0.035086482  0.036610976            1 
  344000    1.2048309   -6.9953735    145.49292  0.035245377  0.036600051            2 
  345000       1.1755   -6.9974024    145.89552  0.035240463  0.036589814            1 
  346000    1.1813686   -7.0275538    145.64193  0.035077536  0.036579275            2 
  347000    1.2055964   -7.0360952    146.42316  0.035164065  0.036568783            1 
  348000    1.2061902   -6.9521151    147.21232  0.035251992    0.0365583            3 
  349000    1.1846896   -7.0159742    146.98777  0.035097365   0.03654692            1 
  350000    1.2089679   -6.9749774    147.77606  0.035184776  0.036535353            1 
  351000    1.2043754   -6.9829166    148.09321  0.035159831   0.03652469            3 
  352000    1.2091058   -6.9845028    148.81426  0.035230649  0.036514973            1 
  353000    1.1912546   -6.9782332    149.42922   0.03527602   0.03650626            2 
  354000    1.1966893   -6.9893744    149.91204  0.035290029  0.036497466            2 
  355000    1.2144678   -6.9786539    150.45696  0.035318535  0.036490453            2 
  356000     1.189916   -6.9961936    150.63886  0.035261905  0.036481808            1 
  357000     1.196566   -6.9406006    151.41982  0.035345429  0.036474006            3 
  358000    1.2081796   -7.0299086    151.55132  0.035277308  0.036466186            2 
  359000    1.1829489    -7.005941    151.73495  0.035221668  0.036458884            1 
  360000    1.2041274   -6.9859937      152.516   0.03530463  0.036451479            2 
  361000    1.1757113   -6.9582952    153.02448   0.03532421  0.036443789            1 
  362000    1.2000473   -7.0472543    152.01444  0.034994116  0.036435764            2 
  363000    1.1928006    -6.974081    153.12741  0.035153215  0.036426555            1 
  364000    1.1927843   -6.9901243    153.26492  0.035088124  0.036416138            2 
  365000    1.1949532   -7.0076859    153.22827  0.034983623    0.0364062            1 
  366000    1.2120301    -6.990292    153.93662  0.035049322  0.036395061            2 
  367000    1.1977806   -7.0305836    154.30684  0.035037884  0.036384245            2 
  368000    1.1860228   -6.9937656     154.7226  0.035036821  0.036373792            2 
  369000    1.1720608   -7.0229632    154.52681  0.034897654  0.036363148            1 
  370000    1.1740909   -6.9720846    156.00356  0.035135937   0.03635309            1 
  371000    1.1791543   -7.0092678     155.3412  0.034892454  0.036343147            1 
  372000    1.2027799   -6.9946671    156.67204  0.035096783  0.036331811            2 
  373000     1.203069    -7.001869    156.71983  0.035013367  0.036320882            1 
  374000    1.1936213   -7.0061816    156.58399  0.034889481  0.036309279            2 
  375000    1.1841412   -6.9940623    157.37741  0.034972758   0.03629777            1 
  376000    1.2102555   -6.9818076    157.96122  0.035009135  0.036286142            1 
  377000    1.1854561   -6.9690357    157.67711  0.034853472  0.036274012            1 
  378000    1.1935849    -7.051688    158.63345  0.034972101  0.036262519            2 
  379000    1.1939649   -7.0425712    158.89838  0.034938079  0.036251668            3 
  380000    1.1890275   -6.9835562    159.64002  0.035008776  0.036241552            2 
  381000    1.1880215   -7.0029612    160.02015  0.035000034  0.036232052            1 
  382000    1.1864418    -7.038002    160.35731  0.034981962  0.036223136            2 
  383000    1.1970042   -6.9883277    161.41558  0.035120884  0.036214008            2 
  384000    1.1977299   -7.0307779    161.22387  0.034987819  0.036204721            1 
  385000    1.2040243   -7.0054633    162.12089  0.035091103  0.036195692            2 
  386000    1.1870292   -7.0291948    162.62509  0.035109045  0.036186984            4 
  387000     1.150905   -6.9943285    162.94619  0.035087466  0.036178518            2 
  388000      1.19665   -7.0009606    163.92704  0.035207698  0.036170756            1 
  389000    1.1862893   -7.0017798    163.51197  0.035028272  0.036163556            2 
  390000    1.1920733   -6.9991986    164.32269  0.035111685  0.036156986            1 
  391000    1.1788273   -6.9928246    165.42924  0.035257724  0.036151095            1 
  392000    1.1969599   -6.9726865    165.91198  0.035270404  0.036144564            1 
  393000     1.186019   -7.0301315    165.81569   0.03516024  0.036138335            2 
  394000    1.1764183    -6.973729    165.94443  0.035098229  0.036131008            2 
  395000    1.2167552   -7.0263598    165.98861  0.035018693  0.036123615            2 
  396000    1.1912794   -7.0426227    166.96683  0.035136118  0.036116679            2 
  397000    1.1572117   -7.0404114    166.92237  0.035038281   0.03610891            1 
  398000    1.1700171   -7.0117979    167.28717  0.035026627  0.036101084            1 
  399000    1.1760237   -7.0174645    167.73145  0.035031631  0.036093237            1 
  400000    1.1763644   -7.0303358    167.25606  0.034845012  0.036084595            1 
  401000    1.1723322   -6.9729343    168.23529  0.034961615  0.036076472            1 
  402000    1.2014118   -7.0272165    168.65399  0.034961441  0.036067338            1 
  403000    1.1923882   -7.0131738    169.04348  0.034955227  0.036058591            1 
  404000    1.2031197   -6.9703648    169.83895  0.035032786  0.036050314            3 
  405000    1.1630471   -6.9863219    169.39103  0.034854121  0.036041624            2 
  406000    1.2006584   -7.0341857    170.11446   0.03491676  0.036032922            1 
  407000    1.1763512   -7.0202003    170.46232  0.034902195  0.036023531            2 
  408000    1.1617791   -6.9994387    170.39781  0.034803475  0.036013858            1 
  409000    1.1688788   -7.0336381    171.36394  0.034915228  0.036004026            1 
  410000     1.219069   -7.0434374    171.54276  0.034866415  0.035994452            2 
  411000    1.1638466   -7.0230529    171.67274  0.034807936  0.035985659            1 
  412000     1.182067   -6.9484053    172.62494  0.034916047   0.03597633            3 
  413000    1.1864127   -7.0041961    173.04884  0.034917039  0.035966667            3 
  414000    1.1992072   -7.0022502    173.56013  0.034935614  0.035956595            1 
  415000    1.1931354   -7.0350577    173.11795   0.03476264  0.035945862            1 
  416000    1.1615183   -7.0466737    173.01373    0.0346582  0.035935573            1 
  417000     1.187799    -7.038578    173.70131  0.034712491  0.035924686            2 
  418000    1.1756935    -6.993779    174.73561  0.034835647  0.035914305            2 
  419000    1.1900093   -6.9934111     175.0461   0.03481426  0.035904608            1 
  420000    1.1664226    -6.985219     175.7719  0.034875377   0.03589528            1 
  421000    1.1929512   -7.0821608    175.56802  0.034752181  0.035886056            2 
  422000     1.182522   -7.0018957    176.12185  0.034779197  0.035876798            1 
  423000     1.174823   -6.9692119    176.53206   0.03477779  0.035867938            2 
  424000    1.1795095    -7.006702    177.18432  0.034823962  0.035858247            1 
  425000     1.222434   -7.0073479    176.76304  0.034659419  0.035848536            1 
  426000    1.1872305   -6.9784704     177.8679  0.034794191  0.035838471            2 
  427000    1.1817768   -6.9892854    177.85502   0.03471019  0.035828022            1 
  428000     1.187943   -7.0352545    177.82854  0.034623938  0.035817835            2 
  429000    1.1675636   -7.0481572     177.8503  0.034547456  0.035806521            2 
  430000    1.1961791    -7.009902    179.14343  0.034717719  0.035795529            1 
  431000    1.1693449   -7.0138986    178.72603  0.034556464  0.035784341            3 
  432000    1.1982012   -7.0162497    179.55666  0.034636701  0.035773247            1 
  433000    1.1545098   -7.0126811    179.60972  0.034566922  0.035762681            1 
  434000    1.1568847   -7.0251561     179.9208  0.034547004  0.035750926            1 
  435000    1.1941212   -7.0724161    179.92263  0.034467938  0.035739134            2 
  436000    1.1600406   -7.0477033    180.53665  0.034506241  0.035727781            3 
  437000    1.2016991    -7.054966    180.89916  0.034496407  0.035715722            1 
  438000    1.1947603    -7.050564    180.97119  0.034431353   0.03570308            1 
  439000    1.2141962   -6.9769675    181.60416  0.034473076  0.035690532            2 
  440000    1.1547891   -7.0034198     180.9983  0.034279981   0.03567818            1 
  441000    1.1972905   -7.0495365    181.64274  0.034324025   0.03566571            1 
  442000    1.1847815   -7.0007676    182.42839  0.034394493   0.03565273            1 
  443000     1.182127   -7.0537802    181.72488  0.034184516  0.035640139            1 
  444000    1.1718616   -6.9711747    183.78295  0.034493798  0.035626961            1 
  445000     1.174873   -6.9940536    184.01178  0.034459136   0.03561543            1 
  446000     1.191194   -7.0370421    184.26826  0.034429794  0.035603895            1 
  447000    1.1709078   -7.0410787    184.88786   0.03446828  0.035591769            1 
  448000    1.2054064   -7.0352214    184.87698   0.03438932   0.03557995            2 
  449000    1.1576386   -6.9932208    185.35473  0.034401398   0.03556805            1 
  450000    1.1966525   -7.0337902    185.34566  0.034323269  0.035555388            3 
  451000    1.1715269   -7.0602923    185.89088  0.034347907  0.035542638            1 
  452000      1.19556   -7.0478929    185.58243   0.03421505  0.035529545            2 
  453000      1.19765   -7.0007478    187.18891  0.034435046  0.035516909            1 
  454000    1.1652315   -7.0635669    187.17813  0.034357219  0.035504776            2 
  455000    1.1844392   -7.0518837    187.19546  0.034284884  0.035492025            3 
  456000    1.1455903   -6.9993647    188.11992  0.034378641  0.035480013            1 
  457000    1.1567864   -7.0162785    188.00887  0.034283164  0.035468621            2 
  458000     1.161181   -7.0291089    188.50481  0.034298547  0.035456579            2 
  459000    1.1688742    -7.009165    189.46094  0.034397411  0.035444925            1 
  460000    1.1682046   -7.0523941    189.33623  0.034300042   0.03543214            2 
  461000    1.1750732    -7.036643    189.56268  0.034266572  0.035419869            2 
  462000    1.1867371   -7.0069863    190.63515   0.03438585    0.0354084            1 
  463000    1.1765988   -6.9867578    191.50582   0.03446829  0.035397717            1 
  464000     1.180808    -7.035716    190.73165  0.034254967  0.035387187            1 
  465000    1.1726766   -7.0268803    191.40148  0.034301341   0.03537665            2 
  466000    1.1803674   -7.0349389      192.274  0.034383763  0.035365537            4 
  467000    1.1777252   -7.0364906    192.70301   0.03438669  0.035354854            1 
  468000    1.1894726   -7.0141255    193.07046  0.034378643  0.035344213            2 
  469000    1.1655931   -7.0265777    193.31646  0.034349052   0.03533318            2 
  470000    1.1755795   -7.0458769    192.90095  0.034202296  0.035321723            1 
  471000     1.179299   -7.0629458    193.25727  0.034192723  0.035309792            1 
  472000     1.178552   -7.0024425    194.23035  0.034292082  0.035298104            1 
  473000    1.1770981    -6.984143    194.04023  0.034186087  0.035286703            1 
  474000    1.1719245   -7.0458026     194.1911  0.034140488  0.035275169            1 
  475000    1.1887169   -7.0689442    194.92873  0.034198024  0.035263089            1 
  476000    1.1588737   -7.0298609    195.34459  0.034198983  0.035250912            2 
  477000    1.1603402   -7.0123994    195.04666  0.034075238  0.035238967            2 
  478000    1.1967486   -7.0500391    195.68539  0.034115305  0.035227912            1 
  479000    1.1999445   -7.0111479    195.82456  0.034068295  0.035216548            1 
  480000    1.1828627   -7.0238646    196.98435  0.034198671  0.035205778            2 
  481000    1.1873927   -7.0311103    197.46106  0.034210162  0.035194842            2 
  482000    1.1675788   -7.0479753    197.30012  0.034111362  0.035184011            2 
  483000    1.1655162   -7.0380016    198.29713  0.034212755  0.035172564            1 
  484000    1.1724679   -7.0685044    198.29295  0.034141348  0.035161775            3 
  485000    1.1542591   -7.0616168    198.71282  0.034143095  0.035151148            3 
  486000    1.1834898   -7.0204857    199.89501   0.03427555  0.035140408            1 
  487000    1.1785169   -7.0357941    199.67854  0.034168128  0.035130316            2 
  488000    1.1664512   -7.0141506    200.52056    0.0342419  0.035120621            1 
  489000    1.1508953    -6.974873    200.99822  0.034253276   0.03511151            3 
  490000    1.1995685   -7.0051588    201.45059  0.034260304  0.035102037            2 
  491000    1.1801088   -7.0274653    202.35147  0.034343426  0.035092768            4 
  492000    1.1612166    -7.056105    201.80769  0.034181519  0.035083986            2 
  493000    1.1669516   -7.0515163    201.93648  0.034133956  0.035074663            2 
  494000    1.1843421   -7.0522634    202.47955  0.034156469  0.035064346            2 
  495000     1.185248   -7.0376419    202.86367  0.034152133   0.03505457            1 
  496000    1.1708422   -6.9845043    203.48967  0.034188453  0.035044798            1 
  497000    1.1865266   -7.0142486    203.69583   0.03415423   0.03503569            2 
  498000    1.1685256   -7.0018535    204.84756  0.034278373   0.03502621            1 
  499000    1.1704319    -7.017975     204.5605   0.03416174  0.035016546            3 
  500000    1.1701711   -7.0449597    205.42817  0.034238029  0.035007313            2 
  501000    1.1901711   -7.0591992    205.28768  0.034146321  0.034998959            1 
  502000    1.1542482   -7.0126927    206.75809  0.034322393  0.034990478            2 
  503000    1.1506082   -7.0526255    206.32833  0.034182958  0.034981765            1 
  504000     1.170943    -7.048202    206.44303  0.034134099  0.034972602            1 
  505000    1.1653396    -7.050617    207.15686    0.0341843  0.034963941            2 
  506000    1.1766826   -6.9994589    207.45489  0.034165824  0.034954917            1 
  507000    1.1529728   -7.0054192     208.0517  0.034196532  0.034946978            2 
  508000    1.2051548   -7.0413519    208.17174  0.034148908  0.034938757            2 
  509000    1.1788305   -7.0123023    209.10527  0.034234655   0.03493004            2 
  510000    1.1816856   -7.0188619    209.20293  0.034183485  0.034921572            1 
  511000      1.15483   -7.0542095     210.0219  0.034250146  0.034913529            1 
  512000    1.1777418   -7.0988503    210.14208  0.034202812  0.034906121            2 
  513000     1.177368   -7.0290356    210.73101  0.034231808  0.034898633            1 
  514000    1.1771007   -7.0249427    210.80282  0.034176851  0.034891519            2 
  515000    1.1816065   -7.0913237    210.77792   0.03410646  0.034882918            1 
  516000    1.1737364   -7.0629736    210.99985  0.034076203  0.034875038            1 
  517000    1.1712869   -6.9880891    212.68767  0.034282345   0.03486687            1 
  518000    1.1725673   -7.0680387    211.86202  0.034083337  0.034858744            1 
  519000    1.1589258   -7.0559654    212.16482  0.034066284  0.034850594            1 
  520000    1.1743382   -7.0347816    212.92397  0.034122431  0.034842713            2 
  521000    1.1707762   -7.0511724    213.13394  0.034090521  0.034835022            1 
  522000    1.1662504   -7.0866194    213.39138  0.034066312  0.034826737            1 
  523000    1.1676449   -7.0808014    213.13499  0.033960324  0.034817675            2 
  524000     1.190073   -7.1099151    213.27678  0.033918063  0.034808925            1 
  525000    1.1773276   -7.0718054    213.28077   0.03385409  0.034799923            1 
  526000    1.1912941   -7.0338868    214.50097  0.033983043  0.034790803            1 
  527000    1.1602096   -7.0255148    214.87006  0.033976923  0.034781288            2 
  528000    1.1790933   -7.0288367     215.6014  0.034027999  0.034772524            2 
  529000    1.1945651    -7.017725    215.98401  0.034023947  0.034763509            2 
  530000    1.1666248    -7.051221     215.3411  0.033858663  0.034753984            1 
  531000    1.1483085   -7.0367205    216.45597  0.033969864  0.034744834            1 
  532000    1.1383244   -7.0183773    216.83472  0.033965339  0.034736575            2 
  533000     1.162889   -7.0308283    218.14636  0.034106686  0.034727939            1 
  534000    1.1457717   -7.0688638    217.34762  0.033918168   0.03471956            2 
  535000    1.1784872   -7.0265037    217.86806  0.033935835  0.034710718            2 
  536000    1.1739008   -7.0539025    218.77513  0.034013546  0.034702177            1 
  537000    1.1399059   -7.0812348    219.13149  0.034005508  0.034693989            2 
  538000    1.1583944   -7.0798542    218.82716  0.033895161  0.034685888            2 
  539000    1.1534011   -7.0781152     220.2535  0.034052798    0.0346767            1 
  540000    1.1387384   -7.0019938    220.16003  0.033975313  0.034668079            1 
  541000    1.1542296   -7.0451416    219.74814  0.033849067  0.034658822            1 
  542000     1.162626   -7.1014111    220.30573  0.033872345  0.034649153            2 
  543000    1.1766239    -7.094609    220.05891  0.033772086  0.034639623            1 
  544000    1.1655344   -7.0991462    220.05758    0.0337098  0.034629796            1 
  545000    1.1694629    -7.043818    221.92901  0.033934099  0.034620691            2 
  546000    1.1579604   -7.0246626    223.07337  0.034046607   0.03461215            1 
  547000    1.1848563   -7.0580411    221.68928  0.033773504  0.034602894            2 
  548000    1.1903748   -7.0742968    222.31697  0.033807324  0.034593914            1 
  549000    1.1646854   -7.0570068    223.38715  0.033908189  0.034584684            1 
  550000    1.1575181   -7.0444282    223.66289  0.033888316  0.034575718            3 
  551000    1.1492182   -7.0351733    223.70297  0.033832874  0.034566957            3 
  552000    1.1701668   -7.0775555    224.21062  0.033848222   0.03455836            1 
  553000    1.1922625   -7.0518023    224.44428  0.033822224  0.034550617            1 
  554000     1.141439   -7.0196992    225.49555  0.033919307  0.034542849            1 
  555000    1.1654953   -7.0685046    225.50947  0.033860281  0.034535084            1 
  556000    1.1465681   -7.0769679    225.73925  0.033833821  0.034527052            3 
  557000    1.1796363   -7.0626543     226.7947  0.033930985  0.034519767            1 
  558000    1.1496545     -7.05219    226.72968  0.033860466  0.034511768            1 
  559000    1.1704637   -7.0735608    227.27932  0.033881831  0.034503971            1 
  560000    1.1630164   -7.0471844    227.58081  0.033866192  0.034495944            2 
  561000      1.17195   -7.0518197     228.3486  0.033919875  0.034487892            1 
  562000     1.165763   -7.0508372    229.03301  0.033961004  0.034480242            1 
  563000    1.1574548   -7.1102011    228.31368   0.03379421    0.0344725            1 
  564000    1.1647749   -7.1115885    229.52521  0.033913299  0.034465183            1 
  565000    1.1775274   -7.0716821    229.95723  0.033916996  0.034458359            2 
  566000    1.1760377   -7.0834461     231.0586  0.034019229  0.034451921            2 
  567000    1.1690628   -7.0758169    231.03353  0.033955546  0.034445865            2 
  568000    1.1423698   -7.0518221     231.0291  0.033895114  0.034439948            2 
  569000    1.1779321   -7.0900653    230.94633  0.033823423  0.034433499            1 
  570000    1.1522518   -7.0166984    232.21663    0.0339498  0.034426998            1 
  571000    1.1525184    -7.057991    232.28047   0.03389966   0.03442007            1 
  572000    1.1334512   -7.0930284    232.10468  0.033814785  0.034412576            2 
  573000     1.139337   -7.1071196    232.22851   0.03377378  0.034404903            1 
  574000    1.1603001   -7.0526938    233.59151  0.033912821   0.03439803            2 
  575000    1.1463547   -7.0870089    232.51231  0.033697436  0.034390423            1 
  576000     1.156242   -7.0525634    233.66114  0.033805142  0.034382628            1 
  577000    1.1601205    -7.079533    234.25852   0.03383283   0.03437432            1 
  578000    1.1579795   -7.0789827    233.99368  0.033736113  0.034366378            1 
  579000    1.1637406   -7.0678997     234.0939  0.033692271  0.034358275            2 
  580000     1.145992   -7.0847802    233.34099  0.033526004  0.034349909            1 
  581000    1.1683225   -7.0553171    235.31695  0.033751715  0.034341855            1 
  582000    1.1528376   -7.0995525    235.63074  0.033738652   0.03433419            1 
  583000    1.1570498   -7.0576947      236.582  0.033816752  0.034327316            2 
  584000    1.1896425   -7.0824133    236.87631  0.033800843  0.034320291            2 
  585000    1.1734448   -7.0753278    237.03712  0.033765972  0.034313232            2 
  586000    1.1520144   -7.0433288    237.06252  0.033711962  0.034306513            2 
  587000    1.1568386   -7.0673821    238.17647  0.033812673  0.034299377            3 
  588000    1.1762045   -7.0859537    238.11893  0.033747013  0.034292053            3 
  589000    1.1636483   -7.0471689    238.87553  0.033796765  0.034284797            1 
  590000    1.1483421   -7.0557154    239.23257  0.033789911   0.03427807            1 
  591000    1.1469484   -7.0667434    240.26174  0.033877854  0.034271525            3 
  592000    1.1594904   -7.0767951    239.64046  0.033733173  0.034264832            1 
  593000    1.1487515   -7.0639994    240.55685  0.033805066  0.034258781            2 
  594000    1.1994171   -7.0673325    240.55399  0.033747754  0.034252351            1 
  595000    1.1544107   -7.0714279    241.21706  0.033783902  0.034246073            1 
  596000    1.1668535    -7.089855    241.87791  0.033819618  0.034239559            2 
  597000    1.1667778   -7.0754594    241.87622  0.033762733  0.034232847            1 
  598000      1.16543   -7.0787611    242.88872  0.033847369  0.034226466            2 
  599000     1.108663   -7.1011327    242.41377  0.033724787   0.03422013            2 
  600000    1.1269986   -7.0962768    242.52374  0.033683852  0.034213131            1 
  601000    1.1541327   -7.0786719    243.57521  0.033773601   0.03420676            4 
  602000    1.1648519   -7.0516901    244.05792   0.03378432   0.03420038            1 
  603000    1.1673973   -7.0429172    244.76459  0.033825952  0.034194255            3 
  604000    1.1503699   -7.0860535    244.91589  0.033790823  0.034188028            3 
  605000    1.1699968   -7.0310312    245.22742  0.033777881  0.034181757            2 
  606000     1.154295   -7.0813352    244.98796  0.033689214  0.034175463            3 
  607000    1.1680905    -7.084498    245.59482  0.033717027  0.034169108            1 
  608000    1.1471925   -7.0827953    245.71122  0.033677525   0.03416284            3 
  609000    1.1474727   -7.0693332    246.54837  0.033736777  0.034156993            3 
  610000    1.1695335    -7.084801    246.56409  0.033683618  0.034151169            3 
  611000    1.1628182   -7.1032081    247.23684  0.033720245  0.034144912            2 
  612000    1.1428459   -7.1031644    247.56434  0.033709741  0.034138556            4 
  613000    1.1593174   -7.0929332    248.35914  0.033762798  0.034132044            5 
  614000    1.1297387   -7.0750758    248.15485  0.033680083  0.034125409            2 
  615000    1.1465712   -7.0872073    248.66293  0.033694164  0.034119163            3 
  616000     1.157942   -7.0443069    249.91527  0.033808883  0.034112857            1 
  617000    1.1460923    -7.082608    249.21454  0.033659446  0.034106452            2 
  618000    1.1197723   -7.0888594    249.62213  0.033659942  0.034100352            2 
  619000    1.1761408   -7.0506649     250.4288  0.033714163  0.034094355            1 
  620000    1.1467366   -7.0543528    251.08862  0.033748471  0.034088122            1 
  621000    1.1441148   -7.0981626    249.97996  0.033545351  0.034081449            2 
  622000    1.1273259   -7.0796246    250.50832  0.033562208  0.034074462            3 
  623000    1.1454522   -7.0589011    252.38909   0.03375991  0.034067969            3 
  624000    1.1496599   -7.0716533    251.90707  0.033641435  0.034061936            1 
  625000    1.1613901    -7.043564    252.60295  0.033680394  0.034055496            4 
  626000    1.1527156   -7.1363894    252.19737    0.0335726   0.03404904            1 
  627000    1.1489456     -7.09399    252.20411  0.033519951   0.03404234            2 
  628000     1.178157   -7.0919682    252.83522   0.03355032  0.034035401            1 
  629000    1.1639738   -7.1046516     252.8353  0.033496992  0.034028252            2 
  630000    1.1398835   -7.1141015    253.38337  0.033516318  0.034021505            3 
  631000    1.1839822   -7.0989381    254.59896   0.03362374  0.034015118            2 
  632000     1.152808   -7.1132506    255.07093   0.03363277  0.034008775            1 
  633000    1.1432376   -7.0643467     255.2569  0.033604121  0.034002404            2 
  634000    1.1514793   -7.0741391    256.44252  0.033706956   0.03399672            2 
  635000    1.1484971   -7.0656649    256.09056  0.033607685  0.033990595            2 
  636000    1.1717439   -7.0996334    255.63382  0.033494997  0.033983744            1 
  637000    1.1477407   -7.1073293    256.73352  0.033586279  0.033977214            4 
  638000    1.1618431   -7.0734806    256.66311  0.033524439  0.033971058            3 
  639000    1.1695643   -7.0959958    257.56063  0.033589024  0.033964898            1 
  640000    1.1371411   -7.1063523    257.90115  0.033580879  0.033958689            2 
  641000    1.1307536   -7.0749234    257.98353  0.033539201  0.033952195            1 
  642000     1.146586   -7.1132093    258.44654  0.033547058  0.033945444            1 
  643000    1.1279462   -7.0426307    259.35973  0.033613236  0.033939306            1 
  644000    1.1286039   -7.1113553    258.76791   0.03348446  0.033932817            1 
  645000    1.1528878   -7.0620332    259.86404  0.033574165   0.03392609            1 
  646000    1.1459884   -7.0952613    260.58742  0.033615508  0.033919624            2 
  647000    1.1530135   -7.0944175    259.49599  0.033422976  0.033912554            2 
  648000    1.1714527   -7.1317539    259.60717  0.033385696  0.033905204            2 
  649000    1.1272333   -7.0988611    259.23124  0.033285983  0.033897725            2 
  650000    1.1588473   -7.1254317    260.24315  0.033364507  0.033890144            3 
  651000    1.1644596   -7.0744253    260.95977  0.033404989  0.033883093            1 
  652000    1.1369835   -7.1028028    261.87364  0.033470557  0.033875894            3 
  653000    1.1387796   -7.0582449    262.22257   0.03346383  0.033869337            3 
  654000    1.1699248   -7.0613802    262.58042   0.03345826  0.033862965            1 
  655000    1.1460354   -7.0944884     262.9005    0.0334479  0.033856077            1 
  656000    1.1696176   -7.1043867    263.03528  0.033414035   0.03384953            5 
  657000    1.1574575   -7.1101341    263.45839  0.033416842  0.033843033            1 
  658000    1.1450383   -7.1098254    263.01427  0.033309811  0.033836141            1 
  659000     1.163365   -7.0857511    264.61416  0.033461578   0.03382955            2 
  660000    1.1527784   -7.1149953     264.5489  0.033402638  0.033822821            1 
  661000    1.1860773   -7.1019817    264.55389  0.033352734   0.03381629            1 
  662000      1.16108   -7.1251425    264.25498  0.033264725   0.03380893            2 
  663000    1.1363352   -7.1275421    264.53378  0.033249595   0.03380186            1 
  664000    1.1497981    -7.125897    265.32078  0.033298291  0.033794529            1 
  665000    1.1454787   -7.1128273    265.21429  0.033234873  0.033787181            1 
  666000     1.134663   -7.0930702    266.16371  0.033303767  0.033779998            3 
  667000    1.1341777   -7.1464866    265.53286   0.03317502   0.03377274            1 
  668000    1.1391425   -7.1291003    266.59639  0.033258032   0.03376553            2 
  669000    1.1375811    -7.100057    267.39826  0.033308203   0.03375854            4 
  670000    1.1020522   -7.0575857    268.17098  0.033354599  0.033751625            1 
  671000    1.1313521   -7.1281029    267.71657  0.033248456  0.033745085            1 
  672000    1.1345255   -7.1348506    268.99212  0.033357158  0.033738251            2 
  673000    1.1238141   -7.0973759    269.34257  0.033350987  0.033732082            3 
  674000    1.1090505    -7.086289    270.86288  0.033489476  0.033726253            2 
  675000    1.1302898   -7.0988746    270.82035  0.033434611  0.033720744            2 
  676000    1.1582787   -7.0901524    271.17863  0.033429318  0.033714937            2 
  677000    1.1629144   -7.0380304     271.8534  0.033462998  0.033709961            1 
  678000     1.146414   -7.0665528    273.56039   0.03362345  0.033704877            1 
  679000    1.1437336   -7.0381185    272.15838  0.033401863  0.033699776            2 
  680000    1.1346164   -7.1077333    273.36876  0.033501073  0.033694339            2 
  681000    1.1684808   -7.1122944    272.64619  0.033363459   0.03368884            1 
  682000    1.1523951   -7.1117474    271.95814  0.033230467  0.033682765            1 
  683000    1.1485416   -7.0983617    274.14987  0.033449228  0.033677312            3 
  684000    1.1304741   -7.1381807    274.28638  0.033416957  0.033672149            1 
  685000    1.1447027   -7.1343062     273.8411  0.033314002  0.033666812            1 
  686000    1.1448483   -7.0525957    275.66524  0.033487031  0.033662033            1 
  687000    1.1205539   -7.0759484    275.17123  0.033378363  0.033656821            1 
  688000    1.1184409   -7.1541849    274.35174  0.033230588   0.03365105            1 
  689000    1.1472253     -7.07529    276.32656   0.03342121  0.033645513            1 
  690000    1.1466711    -7.074016     277.0215  0.033456703  0.033640004            1 
  691000     1.166404    -7.121387    276.88293  0.033391574  0.033634344            1 
  692000    1.1170778   -7.1163773    275.98659   0.03323538  0.033628272            1 
  693000    1.1348609   -7.1160343     276.6537  0.033267641  0.033622117            1 
  694000    1.1207457   -7.1578991    277.69615  0.033344879  0.033616433            1 
  695000    1.1453063   -7.1308818    277.06152  0.033220806  0.033610652            1 
  696000    1.1378388   -7.0630175    279.49717  0.033464699   0.03360499            1 
  697000    1.1419593   -7.1371692    279.55281  0.033423339  0.033599631            1 
  698000    1.1156213   -7.0829297    279.99979  0.033428819  0.033594831            1 
  699000    1.1212293   -7.1185661     280.6883  0.033463079  0.033590407            3 
  700000    1.1416892   -7.1071926    281.08684  0.033462719  0.033585633            2 
  701000    1.1315947   -7.1433277    280.41584  0.033335217  0.033580514            2 
  702000    1.1514638   -7.1190406    280.90259  0.033345511  0.033575732            6 
  703000    1.1463263   -7.0958281     281.8348  0.033408583  0.033570871            1 
  704000    1.1528617   -7.1086236    282.95925   0.03349423  0.033566456            2 
  705000    1.1299046   -7.0801554    283.34232     0.033492  0.033562237            1 
  706000    1.1597939   -7.0889688    282.71464  0.033370472  0.033557741            1 
  707000     1.116973   -7.0260706    283.88479  0.033461196  0.033553408            1 
  708000    1.1343388   -7.1061437    284.27661  0.033460053  0.033549408            2 
  709000    1.1744479   -7.1193789    285.23054  0.033524981  0.033545641            1 
  710000    1.1401423   -7.1097031    284.67109    0.0334121  0.033542044            1 
  711000    1.1377415   -7.0856119    285.45081  0.033456494  0.033537907            1 
  712000    1.1489503   -7.0742501    286.01841  0.033475938  0.033533636            1 
  713000    1.1509183   -7.1085564    285.44312  0.033361749  0.033529685            2 
  714000    1.1469271   -7.1391873     286.5244  0.033441223   0.03352562            2 
  715000    1.1352272   -7.1635693    286.15859  0.033351818  0.033521385            1 
  716000    1.1378771   -7.1145434    287.74221  0.033489549   0.03351716            1 
  717000    1.1454453   -7.1475036    287.44896  0.033408758  0.033513226            1 
  718000    1.1271917   -7.1297991    288.80097  0.033519147  0.033508855            1 
  719000    1.1467492   -7.1052798    288.15309  0.033397437  0.033504867            1 
  720000    1.1422155    -7.148551    287.75426  0.033304891  0.033500785            2 
  721000    1.1363878   -7.1343644    287.73707  0.033256712  0.033496236            1 
  722000    1.1332858   -7.1147206    286.84906  0.033108156  0.033491369            1 
  723000    1.1034761   -7.1179149    287.66637  0.033156566  0.033486033            2 
  724000    1.1265428   -7.1227157    287.53898  0.033096107  0.033480614            3 
  725000    1.1605427   -7.0911533    289.03674  0.033222614  0.033475145            1 
  726000    1.1234467   -7.1559245    289.23056    0.0331991  0.033469877            1 
  727000    1.1661871   -7.0553252    290.12223  0.033255644  0.033464746            1 
  728000    1.1305753   -7.1299752    289.87178  0.033181293  0.033459713            1 
  729000    1.1463188   -7.1383044    289.93886  0.033143446  0.033454777            1 
  730000    1.1433681   -7.1313085    291.39428  0.033264187  0.033449571            5 
  731000    1.1277098    -7.158033    290.90965  0.033163435  0.033444322            2 
  732000    1.1174176   -7.1416059    291.30783  0.033163459  0.033438885            1 
  733000      1.13149   -7.1452793    291.57157    0.0331482  0.033433145            2 
  734000    1.1113644   -7.1040986    292.59696  0.033219455  0.033427686            1 
  735000    1.1491345   -7.1105662    292.33117  0.033144123   0.03342242            3 
  736000    1.1557014   -7.1149319    293.07432  0.033183233  0.033417019            1 
  737000    1.1397507   -7.0807406    293.01049  0.033130992  0.033412059            1 
  738000    1.1068822   -7.1121794    294.46787  0.033250662  0.033407108            2 
  739000     1.146974   -7.1618526    293.41459  0.033086896  0.033401544            2 
  740000    1.1344716   -7.1251808    294.05462  0.033114259  0.033396406            2 
  741000    1.1213475   -7.1451278    293.61504  0.033020135  0.033390767            1 
  742000    1.1427764   -7.1427135    294.76954  0.033105294  0.033384884            1 
  743000    1.1355219   -7.1155169    295.82971  0.033179644  0.033379586            1 
  744000    1.1333436   -7.1246626    296.97024  0.033262796  0.033374475            2 
  745000    1.1666161   -7.0720708    297.61502  0.033290271  0.033369792            1 
  746000    1.1320838   -7.1923348     295.7815  0.033040829  0.033364725            1 
  747000    1.1359365   -7.1310494    296.51086  0.033077963  0.033359149            4 
  748000    1.1237525   -7.1467754    296.84407  0.033070864  0.033353484            1 
  749000    1.1076945   -7.1177431    297.45171  0.033094316  0.033347807            1 
  750000    1.1378405   -7.1332249    297.62458  0.033069398  0.033342039            1 
  751000    1.1133375   -7.1555349    297.52056  0.033013821  0.033336558            2 
  752000    1.1456417   -7.0956657    299.06962   0.03314158  0.033331315            2 
  753000     1.129531   -7.1083084    298.83342  0.033071428  0.033325999            2 
  754000    1.1531779   -7.2019636    298.38732  0.032978263  0.033320314            4 
  755000    1.1254039   -7.1504566     299.5698  0.033065099  0.033314844            3 
  756000    1.1195751   -7.1978885    298.60194  0.032914676  0.033309056            2 
  757000     1.137562   -7.1913362    299.50443  0.032970545  0.033302933            2 
  758000    1.1121993   -7.1605341    299.29468  0.032903988  0.033297011            2 
  759000    1.1464812   -7.1432088    299.78961  0.032914977  0.033290952            1 
  760000    1.1196043   -7.1148856    301.10964  0.033016408  0.033284672            2 
  761000    1.1235503   -7.1280222    300.94715  0.032955229  0.033278384            2 
  762000    1.1380114   -7.1106415    301.27655  0.032948004  0.033272058            1 
  763000    1.1267094   -7.1316189    302.13065  0.032998105  0.033265965            2 
  764000    1.1375886   -7.1643555    302.02047  0.032942896  0.033259725            1 
  765000     1.133999   -7.1282238    301.82391  0.032878422  0.033253165            1 
  766000    1.1246041   -7.0972007    302.18244  0.032874504  0.033246207            1 
  767000     1.134927   -7.1592783    301.39533  0.032746125  0.033239419            1 
  768000    1.1399583   -7.1427227    302.45838  0.032818835  0.033232772            1 
  769000    1.1272834   -7.1566518    301.19748  0.032639518   0.03322566            1 
  770000    1.1218025   -7.1126133    304.28373  0.032931139  0.033218633            3 
  771000    1.1243144   -7.1331751    303.50345  0.032804091  0.033211847            3 
  772000    1.1339521   -7.1239899      304.263  0.032843588  0.033205246            2 
  773000    1.1391149   -7.0948469    303.89923  0.032761883  0.033198384            2 
  774000     1.132472   -7.0983296    305.03556  0.032841899  0.033191556            2 
  775000    1.1265112   -7.1330901    304.21594  0.032711392  0.033184993            2 
  776000    1.1175078   -7.1291969    305.56357  0.032813957   0.03317849            2 
  777000    1.1318926   -7.1518115    305.17773  0.032730344  0.033172072            2 
  778000    1.1436703   -7.1141011    305.77988  0.032752772  0.033165421            1 
  779000    1.1015025   -7.1398621    306.37126  0.032773991  0.033158482            2 
  780000    1.1339648   -7.1369136    306.96695  0.032795614  0.033151931            1 
  781000    1.1199412   -7.1287895    307.04602  0.032762059  0.033145491            1 
  782000    1.1244853   -7.1436504    307.98473  0.032820198  0.033139066            1 
  783000     1.123621   -7.1245374    307.99052  0.032778898  0.033132552            4 
  784000     1.116892   -7.1714941    308.81935  0.032825186  0.033126285            1 
  785000    1.1079523   -7.1377463    308.39719  0.032738555  0.033119618            3 
  786000    1.1321245   -7.1220756    309.52063  0.032816013  0.033112842            1 
  787000    1.1258182   -7.1283722    309.81608  0.032805599  0.033106157            4 
  788000    1.1483533   -7.1035512    309.27693  0.032706951  0.033099493            1 
  789000     1.129805   -7.1471747    309.99494  0.032741333  0.033092467            2 
  790000    1.1018406   -7.1597873    309.72029  0.032670917  0.033085547            1 
  791000    1.1366131   -7.1492463    309.91233  0.032649845  0.033078617            1 
  792000    1.1291619    -7.148089    309.86287  0.032603417  0.033071846            2 
  793000    1.1052649   -7.1155125    311.27264   0.03271045  0.033064869            2 
  794000    1.1428827    -7.127732    311.36402  0.032678844  0.033058037            1 
  795000    1.1146663   -7.1543758    310.86032  0.032584939  0.033050741            2 
  796000    1.1070906   -7.1870206    310.32577  0.032488041  0.033043211            3 
  797000     1.160158   -7.1805873    310.92602   0.03251004  0.033035566            1 
  798000    1.1150824   -7.1483596    312.88621  0.032673999  0.033027942            3 
  799000    1.1384916   -7.0830364    313.22437  0.032668374  0.033020293            2 
  800000    1.1315633   -7.1258412    313.54346  0.032660777  0.033013064            2 
  801000    1.1136864   -7.1417071    313.40277  0.032605365  0.033005765            1 
  802000    1.1164197   -7.1840699    312.56746  0.032477915  0.032998602            2 
  803000    1.1382742   -7.1594766    313.88311  0.032574004  0.032991334            3 
  804000    1.1720314   -7.1681119     314.0207  0.032547751  0.032984548            2 
  805000    1.1116914   -7.1411873    314.75773  0.032583616  0.032977171            2 
  806000    1.1314957   -7.1477564    314.12748  0.032478027  0.032969951            2 
  807000    1.1234663   -7.1175674    315.22154  0.032550758   0.03296253            2 
  808000    1.1251775   -7.1557015    314.77432  0.032464349  0.032955134            1 
  809000    1.1219245   -7.1635279    315.83414  0.032533389  0.032947697            1 
  810000    1.1235097   -7.1792429     315.7977  0.032489475  0.032940335            1 
  811000    1.1266206   -7.1556256    316.57281   0.03252906  0.032933016            1 
  812000    1.1186807   -7.1327069    316.57801  0.032489533  0.032925597            1 
  813000    1.1134673   -7.1149024    317.34832  0.032528528  0.032918628            1 
  814000    1.1075512   -7.1728405    316.53866  0.032405678  0.032911392            1 
  815000    1.1127237   -7.1485487    317.65924  0.032480494  0.032904141            2 
  816000    1.1087976   -7.1436067    318.28102  0.032504189  0.032896446            1 
  817000    1.1313973   -7.1393568    317.74992  0.032410233  0.032889027            1 
  818000    1.1092734   -7.1441924    317.84486  0.032380283   0.03288148            2 
  819000    1.1181018     -7.14765    318.05604  0.032362234  0.032874026            1 
  820000    1.1219967    -7.138874    319.49908  0.032469418  0.032866825            1 
  821000    1.1185053    -7.158288     320.1813  0.032499116  0.032859847            2 
  822000    1.1215884   -7.1680657    319.44827  0.032385267  0.032852858            1 
  823000    1.1438318    -7.129501    320.63828  0.032466412  0.032845783            2 
  824000    1.1350088   -7.1879103    320.16418  0.032379064  0.032838755            5 
  825000    1.1258234    -7.144367    321.16099  0.032440504  0.032831933            2 
  826000    1.1547569   -7.1354112    322.23577  0.032509662  0.032825288            2 
  827000    1.1077498   -7.1243474    321.48353  0.032394552  0.032818613            2 
  828000    1.1291703   -7.1820527    321.60194  0.032367345  0.032811504            1 
  829000    1.0926915    -7.137661    322.32256   0.03240074  0.032804467            3 
  830000    1.0957913      -7.1753    323.08257  0.032438009  0.032797299            1 
  831000    1.1154508   -7.1494853    323.18209  0.032408954  0.032790304            1 
  832000     1.133117   -7.1669625    323.30497  0.032382309   0.03278307            2 
  833000    1.1170859   -7.1723692    323.19632  0.032332565   0.03277595            2 
  834000    1.1204507   -7.1128032     325.2872  0.032502718  0.032769048            2 
  835000     1.128344   -7.1302399    324.49533  0.032384764  0.032762367            1 
  836000    1.1347145   -7.1752735    324.13346  0.032309954  0.032754979            1 
  837000    1.1132713   -7.1614337    325.21493  0.032379025  0.032748034            1 
  838000    1.1133593   -7.1966368    325.16427  0.032335349  0.032741052            2 
  839000    1.1117733   -7.1574862    325.50163  0.032330317  0.032734202            2 
  840000    1.1106617   -7.1606964    325.81574   0.03232299  0.032727391            2 
  841000    1.1115494   -7.1633659    326.42303  0.032344731  0.032720644            1 
  842000    1.1133191   -7.1616894    326.02968  0.032267387  0.032713901            3 
  843000    1.1215501   -7.1700021    326.16389  0.032242378  0.032707027            1 
  844000      1.12381   -7.1888534    327.46933   0.03233307  0.032700115            3 
  845000    1.1226925   -7.1379308     327.6326  0.032310907  0.032693205            1 
  846000    1.0844151   -7.1746457    327.39639  0.032249448  0.032686344            2 
  847000    1.0704649   -7.1388833    326.83736  0.032156372  0.032679278            1 
  848000    1.1463155   -7.1854631    327.90412  0.032223282  0.032672117            4 
  849000     1.121777   -7.2292568     328.6039  0.032254015  0.032665014            1 
  850000    1.1259893   -7.0959575    331.06084  0.032456945   0.03265815            3 
  851000    1.1158043   -7.1502717    329.65664  0.032281301  0.032651165            1 
  852000    1.1075742   -7.1754865    329.97945  0.032274985  0.032643981            2 
  853000    1.1104649   -7.1416741    328.64384  0.032106667  0.032636648            1 
  854000     1.094325    -7.176337    329.29838  0.032132941  0.032629053            1 
  855000     1.110515   -7.1404062    330.86068   0.03224763  0.032621539            2 
  856000    1.1429534   -7.1602744    329.26176  0.032054299   0.03261397            2 
  857000    1.1192467    -7.152709    330.08076  0.032096535  0.032606238            4 
  858000     1.131282   -7.1694303    330.67704   0.03211704  0.032598922            2 
  859000    1.1216606   -7.1555535    331.69497  0.032178402  0.032591852            3 
  860000    1.1201159     -7.15024    331.34338  0.032106917  0.032584271            2 
  861000    1.1050279   -7.1727063    331.94521  0.032127875  0.032576697            1 
  862000    1.1134788   -7.1755783    330.55936  0.031956628  0.032568756            1 
  863000    1.1126813   -7.2000229    331.40662  0.032001412  0.032560737            2 
  864000    1.1312663   -7.1674877     331.9478   0.03201657   0.03255285            2 
  865000    1.1155162   -7.1540629    331.60916  0.031946933  0.032544694            2 
  866000    1.1121845    -7.173447    332.87135    0.0320315  0.032536785            3 
  867000    1.1190367   -7.1631453    333.14098  0.032020471  0.032528568            3 
  868000    1.1048163   -7.1900337    332.98905  0.031968995  0.032520686            2 
  869000    1.1167757   -7.1693362    332.39298  0.031875046  0.032512193            1 
  870000    1.1094528    -7.158456    333.25673  0.031921143   0.03250379            2 
  871000    1.1140583   -7.1516873    333.73279  0.031930041  0.032495182            1 
  872000    1.1152181   -7.1462344    333.02376  0.031825665  0.032486242            3 
  873000    1.1182754   -7.1854499    333.28801  0.031814434  0.032477592            1 
  874000    1.0981089    -7.174185    334.10338  0.031855776  0.032468865            1 
  875000    1.1308833   -7.1372011     335.2147   0.03192521  0.032460138            2 
  876000    1.1152143   -7.2081021     333.5927  0.031734465  0.032451452            2 
  877000    1.1288555   -7.1431406    335.16501  0.031847683  0.032442373            1 
  878000    1.1179299   -7.1879251    335.14518  0.031809528   0.03243357            2 
  879000    1.0960337   -7.1765632    334.62522  0.031724044  0.032424748            4 
  880000     1.116857   -7.1839511    336.48881   0.03186447  0.032416089            2 
  881000    1.1089377   -7.1066599    337.73541  0.031946217  0.032407736            1 
  882000    1.1444838   -7.1464281    336.98886  0.031839461  0.032399196            3 
  883000    1.1201563   -7.2006745    336.03009  0.031712919  0.032390192            2 
  884000    1.1108027   -7.2415679    335.04765  0.031584431   0.03238095            2 
  885000    1.1158804   -7.1226385    336.79364  0.031713149   0.03237164            2 
  886000    1.1238792   -7.1470833    338.40897  0.031829286  0.032362771            1 
  887000    1.0974938    -7.237896    337.08074  0.031668615  0.032353687            1 
  888000    1.1176398   -7.1610485    337.80404   0.03170083  0.032344469            3 
  889000    1.1110719   -7.2151514    337.24918  0.031613159  0.032335069            1 
  890000    1.1054188    -7.165853    338.03929  0.031651619  0.032325874            2 
  891000    1.1340933   -7.1437311    339.17597  0.031722407  0.032316538            3 
  892000    1.1016058   -7.1916043    338.77041  0.031648955   0.03230706            3 
  893000    1.1332697    -7.174465    339.28236  0.031661288  0.032297734            2 
  894000    1.1136621    -7.156438    338.78483  0.031579496  0.032288524            4 
  895000    1.0952482   -7.1835574    338.81275  0.031546811  0.032279334            2 
  896000    1.1234964   -7.2064373    339.43447  0.031569426  0.032269896            2 
  897000    1.1242007   -7.1931134    338.52291  0.031449545  0.032260412            1 
  898000    1.0970581   -7.1666999    340.48118  0.031596249   0.03225117            2 
  899000    1.0839592   -7.1777612    340.36157  0.031550015   0.03224186            2 
  900000    1.1141321   -7.1915602    340.93173  0.031567753   0.03223291            2 
  901000    1.1094185   -7.1968506     341.9854   0.03163017  0.032224072            1 
  902000    1.1350865   -7.2044109    341.87332  0.031584749  0.032215253            3 
  903000    1.1274441   -7.2157546    342.14429  0.031574778  0.032206057            4 
  904000    1.1018342   -7.1016384    343.40623  0.031656179  0.032197244            2 
  905000     1.100919   -7.1881907     342.3511  0.031524042  0.032188396            1 
  906000    1.1165671   -7.1653046    343.87497  0.031629412  0.032179557            2 
  907000    1.0805032   -7.2279128    342.80032  0.031495803  0.032170351            2 
  908000    1.1268786   -7.1260578    344.56126   0.03162273  0.032161424            1 
  909000    1.1101485   -7.1719694    344.21086  0.031555817  0.032152388            1 
  910000    1.0913682   -7.1577828    344.12775   0.03151353  0.032143429            2 
  911000      1.12517   -7.2043629    344.29322  0.031494074  0.032134235            2 
  912000    1.1176888   -7.2039065    344.92957  0.031517687  0.032125361            2 
  913000    1.1087732   -7.1816753    344.81102  0.031472346  0.032116423            1 
  914000    1.1285095   -7.1763618     346.5174   0.03159349  0.032107497            1 
  915000    1.1233971   -7.1549165     347.0576   0.03160816  0.032098863            2 
  916000    1.0946229   -7.1738983    347.11854  0.031579197  0.032090205            2 
  917000    1.1202766    -7.211486    345.73128  0.031418691  0.032081368            2 
  918000    1.1096441   -7.1789295    346.99362  0.031499057  0.032072484            1 
  919000    1.1070681   -7.1931704    346.30549  0.031402384  0.032063453            2 
  920000    1.0926224   -7.1725423    347.47307   0.03147401  0.032054717            1 
  921000    1.1065821   -7.1572375    348.08966  0.031495626  0.032045814            2 
  922000    1.1250112   -7.2146556    347.65856  0.031422502  0.032037048            1 
  923000    1.1143894   -7.2114874    348.97821  0.031507603  0.032028434            5 
  924000    1.1132296   -7.1901131    349.19314  0.031492888  0.032020133            2 
  925000    1.1130684    -7.193461    349.95228  0.031527232  0.032011767            2 
  926000    1.0907655    -7.143029    351.37596  0.031621306  0.032003844            2 
  927000    1.0893269   -7.2063798    349.99108  0.031462701  0.031995829            2 
  928000    1.0865613   -7.1728138    351.45151  0.031559941  0.031987744            1 
  929000    1.0666228   -7.1582614    352.10066  0.031584199  0.031979709            1 
  930000    1.0908633   -7.1661526    352.02516  0.031543473  0.031972157            1 
  931000    1.0816276   -7.2348888     351.1428  0.031430612   0.03196436            3 
  932000     1.076033    -7.185793    351.90889  0.031465387  0.031956139            1 
  933000    1.1306774   -7.1781814     351.7591  0.031418283  0.031947887            1 
  934000    1.1017327   -7.1782799    353.11247  0.031505396  0.031939789            1 
  935000    1.0928423   -7.1808706    353.29111  0.031487621  0.031931924            3 
  936000    1.1014497   -7.2270969     353.1209  0.031438827  0.031923901            2 
  937000    1.0870431   -7.1890343    352.95977  0.031390944  0.031915502            2 
  938000    1.1188056   -7.1267351    354.03196  0.031452733  0.031907347            3 
  939000    1.1029515   -7.2015494    353.13522  0.031339654   0.03189911            1 
  940000     1.083752    -7.186457    354.86081  0.031459292  0.031890811            2 
  941000    1.0949804   -7.1982684    353.87444  0.031338508  0.031882711            1 
  942000    1.0939588   -7.1819477    355.02707  0.031407207  0.031874781            1 
  943000    1.0954615    -7.152341    356.35552  0.031491297  0.031866596            2 
  944000    1.1155589    -7.194716     356.2183  0.031445824  0.031858692            2 
  945000    1.0728326   -7.1924004    355.83478  0.031378729  0.031850798            3 
  946000    1.1089138   -7.1995853    356.71726  0.031423296  0.031842804            1 
  947000    1.1136854   -7.1913659    357.41887  0.031451854  0.031834805            2 
  948000    1.1032509   -7.1813776    356.25827  0.031316655  0.031826512            1 
  949000    1.1038931   -7.1916193    355.98382  0.031259556  0.031818319            1 
  950000    1.0935844   -7.1747909    357.25107  0.031337813  0.031810184            1 
  951000    1.1122031   -7.1972539    358.09653  0.031378946  0.031801874            3 
  952000    1.0906122    -7.195221    357.76288  0.031316779  0.031793586            2 
  953000    1.1133218    -7.185498    358.21873  0.031323778  0.031785301            2 
  954000    1.1321481   -7.2494274    359.26047  0.031381942  0.031777274            2 
  955000    1.0703478   -7.1819657    359.95028  0.031409274    0.0317694            2 
  956000    1.1146906   -7.1645594    358.51871  0.031251631   0.03176155            2 
  957000    1.1116899   -7.1906329    358.93649  0.031255354  0.031753503            2 
  958000    1.0920203   -7.2129834    359.15324  0.031241584  0.031745178            1 
  959000    1.0989729   -7.2338088    359.29652  0.031221457  0.031736948            2 
  960000     1.113983   -7.2076787    361.13259  0.031348315  0.031729063            1 
  961000    1.0910948   -7.1903046    361.43949  0.031342308  0.031721408            1 
  962000    1.0787683   -7.2093514    360.53947  0.031231763  0.031713359            2 
  963000    1.0911146   -7.2115339    361.11635  0.031249251  0.031705168            2 
  964000    1.1046311   -7.1887894    360.71365  0.031182023  0.031697136            4 
  965000    1.0776397   -7.1559991    361.13039  0.031185699  0.031688901            3 
  966000    1.1177962   -7.1778731    361.66862  0.031199846  0.031680885            1 
  967000     1.089941   -7.2378195    361.33128  0.031138511  0.031672839            3 
  968000    1.0530271   -7.2358041    362.96061  0.031246609  0.031664723            3 
  969000    1.0823182   -7.2085233     362.9604  0.031214345  0.031656665            2 
  970000    1.0982788   -7.2212007    362.77729  0.031166434   0.03164862            2 
  971000    1.1062038   -7.2341789    362.19655  0.031084496  0.031640268            3 
  972000    1.0861556   -7.1859594    363.14369  0.031133718  0.031631789            3 
  973000    1.1020816   -7.1870707    363.14286  0.031101649  0.031623365            2 
  974000    1.0878201    -7.215002    362.34218  0.031001213  0.031614714            1 
  975000     1.083433   -7.2506644    362.07757  0.030946801  0.031606002            2 
  976000    1.0844137   -7.1933715    363.81831  0.031063722  0.031597402            3 
  977000    1.1010742    -7.228701    364.15114  0.031060315  0.031588915            2 
  978000    1.1146425   -7.2240867    364.06183  0.031020947  0.031580312            2 
  979000    1.0965595   -7.2192095    364.45002  0.031022303  0.031571884            2 
  980000    1.1071019   -7.2157446    364.99622  0.031037094  0.031563401            3 
  981000    1.0834339   -7.2024508    366.21807  0.031109248  0.031554958            1 
  982000    1.0810722   -7.2013558    365.64704  0.031029111  0.031546266            2 
  983000    1.1141675   -7.1903754    365.62653  0.030995806  0.031537776            2 
  984000    1.0943376   -7.2561574    364.76765  0.030891569  0.031529238            2 
  985000    1.1009572   -7.2120176    366.54005  0.031010157  0.031520642            1 
  986000     1.094226   -7.2178697    366.38313  0.030965443  0.031511726            1 
  987000     1.097502   -7.1860671    367.02285  0.030988083  0.031503243            3 
  988000    1.0931379   -7.2636028    367.79288  0.031021667  0.031494633            2 
  989000    1.0880781   -7.1800194    368.31987  0.031034705  0.031486091            2 
  990000    1.0940383   -7.1923014    369.16348  0.031074367  0.031477455            2 
  991000    1.0819172   -7.1978343    367.12114   0.03087127  0.031468894            1 
  992000    1.1080934    -7.207105    368.60305  0.030964638   0.03146021            1 
  993000    1.1027504   -7.2558717    368.73464  0.030944498  0.031451662            2 
  994000    1.0997735    -7.236365    368.03445  0.030854665  0.031443101            1 
  995000    1.0752865   -7.1948768    369.65416   0.03095931  0.031434498            2 
  996000     1.097406   -7.1848662    369.85525  0.030945051  0.031426203            1 
  997000    1.0887476   -7.2023284    370.93445  0.031004217  0.031418038            2 
  998000    1.0936279   -7.2237332    369.61017  0.030862573  0.031409624            3 
  999000    1.1033039    -7.191029    371.62141   0.03099945  0.031401157            1 
 1000000    1.1110367   -7.2173798    370.40834  0.030867362  0.031392882            3 
 1001000     1.103237   -7.2065634    371.35146   0.03091504  0.031384357            2 
 1002000    1.0738599   -7.2337693    371.28485  0.030878647  0.031376086            1 
 1003000    1.1012888    -7.173035    373.84907  0.031060906  0.031367934            2 
 1004000    1.1219002   -7.2347745    372.70868  0.030935315  0.031359739            2 
 1005000    1.0832905   -7.2339914    372.78362  0.030910748    0.0313516            4 
 1006000    1.0975528   -7.2465907     372.7355  0.030876035  0.031343426            2 
 1007000    1.0907215   -7.2506285    373.45236  0.030904697  0.031335454            1 
 1008000     1.062564   -7.1890929    374.10988  0.030928396  0.031327547            3 
 1009000    1.0947104   -7.2409028    375.21246  0.030988806  0.031319703            2 
 1010000    1.0892504   -7.2291441    375.16853  0.030954499  0.031311737            1 
 1011000    1.0828178   -7.2444519    375.42425  0.030944959  0.031303611            1 
 1012000    1.1000138   -7.2128437    375.08042  0.030886068  0.031295651            2 
 1013000    1.0859212   -7.2104365     375.1802  0.030863787  0.031287605            3 
 1014000    1.0711955    -7.203966    376.83448  0.030969303  0.031279632            1 
 1015000    1.0736181   -7.1920678    376.86511  0.030941307  0.031271636            2 
 1016000    1.0801426   -7.1853159    376.58261  0.030887681  0.031263644            1 
 1017000    1.0971676    -7.214861     377.2163  0.030909235  0.031255869            3 
 1018000    1.0883435   -7.2103445    377.69249  0.030917853  0.031247879            3 
 1019000    1.0959454   -7.2383952    375.48841  0.030707263  0.031240009            1 
 1020000    1.0769862    -7.250149    377.18895   0.03081609  0.031232136            2 
 1021000    1.1024575   -7.2256044    378.26954  0.030874105  0.031224133            1 
 1022000    1.0830434   -7.2177875    377.96164   0.03081879  0.031216491            1 
 1023000    1.0973251   -7.2529888    377.38197  0.030741444  0.031208624            3 
 1024000    1.0732223   -7.2494183    378.87159  0.030832649  0.031200779            2 
 1025000    1.1110102   -7.2669457    378.73955  0.030791834  0.031192941            3 
 1026000    1.0994487   -7.2425907    379.58037  0.030830114  0.031185202            3 
 1027000    1.1105523   -7.2324803    380.03128  0.030836683   0.03117751            1 
 1028000    1.0748689   -7.2060706     380.7527  0.030865167  0.031169684            3 
 1029000     1.105145   -7.1745581    381.48624  0.030894577  0.031161917            2 
 1030000    1.1059609   -7.2237678     380.6462  0.030796618  0.031154048            3 
 1031000    1.0701921   -7.2132425    381.83625  0.030862936  0.031146053            1 
 1032000     1.103617   -7.1789099    381.81876  0.030831618  0.031138128            2 
 1033000    1.1066697   -7.2168157    381.61726  0.030785516  0.031129998            4 
 1034000    1.0611599   -7.2461488    380.13203  0.030636044  0.031121952            1 
 1035000    1.0942381    -7.195652    380.89782  0.030668102  0.031113771            3 
 1036000    1.0841365   -7.2477337    380.95554  0.030643142  0.031105529            1 
 1037000    1.0940602   -7.2413264    380.77776  0.030599306  0.031097223            2 
 1038000    1.0859438   -7.2292476    381.95748  0.030664538  0.031089019            3 
 1039000    1.0979075   -7.1558137    383.05291  0.030722883  0.031080814            1 
 1040000    1.0617482     -7.25748    382.31945  0.030634571  0.031072499            2 
 1041000     1.094832   -7.2710826      381.828  0.030565802  0.031064199            1 
 1042000    1.0850691   -7.1645048    383.81338  0.030695248  0.031055829            2 
 1043000    1.0905026   -7.2285766    381.17887  0.030455327  0.031047274            3 
 1044000    1.0862134   -7.2059304     383.8015  0.030635497  0.031038867            1 
 1045000    1.0999279   -7.2168953    383.07627  0.030548347  0.031030487            1 
 1046000    1.0753342   -7.2234502    383.43963   0.03054809  0.031021746            2 
 1047000    1.1062778   -7.2138399    383.31183  0.030508742  0.031013154            1 
 1048000    1.0969356   -7.2239208    383.82824  0.030520694  0.031004629            2 
 1049000    1.0835621    -7.209621    383.57604  0.030471563  0.030995877            3 
 1050000    1.0481953   -7.2068398     384.9195  0.030549167  0.030987471            2 
 1051000     1.070792   -7.2483744    384.12057  0.030456753  0.030978914            1 
 1052000    1.0682346   -7.2331938    385.86373  0.030565885  0.030970352            4 
 1053000    1.0777802   -7.1990726    385.67622  0.030522018  0.030961653            2 
 1054000    1.0679696   -7.2241212    385.00696  0.030440145   0.03095282            1 
 1055000    1.0882909   -7.1802277    385.87543  0.030479892  0.030944066            2 
 1056000    1.0753932   -7.2180952    386.39837  0.030492295  0.030935471            1 
 1057000    1.0682345   -7.2651119    385.23381  0.030371635  0.030926933            3 
 1058000    1.0975229   -7.2113522    386.19034  0.030418269  0.030918278            3 
 1059000    1.0925368   -7.2522163    385.88124  0.030365222  0.030909716            4 
 1060000    1.0726806   -7.2452589    386.36654  0.030374728  0.030901134            2 
 1061000    1.0692914   -7.2506249    387.79591  0.030458366  0.030892548            2 
 1062000    1.0926052   -7.2311494    387.56576  0.030411626  0.030883863            2 
 1063000    1.0956343   -7.2595548    387.66165  0.030390534  0.030875273            2 
 1064000    1.0828703   -7.2309755    389.07604  0.030472747  0.030866666            3 
 1065000     1.074659   -7.2493966    388.56757  0.030404348   0.03085823            1 
 1066000    1.0826102   -7.2299516    388.86112  0.030398774  0.030849638            2 
 1067000    1.0743491   -7.2676939    388.63314  0.030352479  0.030841091            2 
 1068000    1.0661833   -7.2604772    388.95016  0.030348795  0.030832461            1 
 1069000    1.1008608   -7.2161401    390.07295  0.030407931    0.0308238            2 
 1070000     1.085035   -7.2384432    390.78918  0.030435295  0.030815147            1 
 1071000    1.0738592   -7.2381757    390.34296  0.030372157  0.030806462            1 
 1072000    1.1006794    -7.243724    390.55878  0.030360602  0.030797689            1 
 1073000    1.0881298    -7.199771    390.73603  0.030346072  0.030789053            1 
 1074000    1.0796114   -7.2428453    390.61012  0.030308048  0.030780555            3 
 1075000    1.0879973   -7.2470278    391.42415  0.030342958  0.030771966            7 
 1076000    1.0785198   -7.2729945    391.81986  0.030345404  0.030763461            1 
 1077000    1.0865188   -7.2196708    393.04752  0.030412219   0.03075497            1 
 1078000    1.0916604   -7.2553313    391.48588  0.030263287  0.030746574            2 
 1079000    1.0818373   -7.2760361     391.7263  0.030253807  0.030738251            4 
 1080000    1.0700718   -7.2179104    393.48729  0.030361674  0.030729966            1 
 1081000     1.094928   -7.2518664    393.40668  0.030327373  0.030721661            1 
 1082000    1.0670774   -7.2569125    391.99618   0.03019071  0.030713179            1 
 1083000    1.0852308    -7.236931    393.12202  0.030249463  0.030704797            3 
 1084000    1.0835966   -7.2436515    392.68133  0.030187679  0.030696262            1 
 1085000    1.0743631   -7.2605716    394.51926  0.030301019  0.030687637            1 
 1086000    1.0706407   -7.2442195    393.42653  0.030189267  0.030679276            2 
 1087000    1.0745043   -7.2131762    394.79819  0.030266651  0.030670902            1 
 1088000    1.0778162   -7.2554871    392.72303  0.030079889   0.03066221            3 
 1089000    1.0744291   -7.2514577     393.8976  0.030142149  0.030653547            2 
 1090000    1.0617776   -7.2683552    393.79914  0.030106968   0.03064482            2 
 1091000    1.0974605   -7.2586735    395.32124  0.030195634  0.030636038            4 
 1092000    1.0455642   -7.2326849    395.92779   0.03021427  0.030627443            3 
 1093000    1.0751849   -7.2563194    394.04306  0.030042929  0.030618714            3 
 1094000     1.064392   -7.2844113    396.31606  0.030188609  0.030610168            2 
 1095000    1.0784998   -7.2246828    395.64034  0.030109615  0.030601721            3 
 1096000    1.0846082   -7.2663835    396.13007  0.030119379  0.030593261            1 
 1097000    1.0785823   -7.2173748    396.99789  0.030157846  0.030584826            2 
 1098000    1.0703733   -7.2506987    396.36966    0.0300827  0.030576255            2 
 1099000    1.0743295   -7.2641567    397.47856  0.030139412  0.030567866            1 
 1100000    1.0504275   -7.2732212    397.64093  0.030124313  0.030559425            1 
 1101000     1.078052    -7.254932    398.61553  0.030170718  0.030550893            1 
 1102000     1.090617   -7.2539775    398.41368  0.030128076   0.03054221            2 
 1103000    1.0940526   -7.2404319    398.12288  0.030078792  0.030533485            4 
 1104000    1.0695097   -7.2475311    398.61025  0.030088334   0.03052471            1 
 1105000    1.0580973   -7.2883282    398.38139  0.030043845  0.030516107            2 
 1106000    1.0808002   -7.2424876    398.74393  0.030043997  0.030507612            4 
 1107000    1.0858388    -7.274876    399.26272  0.030055911   0.03049911            3 
 1108000    1.0775541   -7.2433085    398.55377  0.029975464   0.03049036            2 
 1109000    1.0549989   -7.2057466    400.50038  0.030094708  0.030481941            3 
 1110000    1.0784482   -7.1876537    401.44518  0.030138527  0.030473701            2 
 1111000    1.0716178   -7.2397684    401.25854    0.0300974  0.030465444            3 
 1112000    1.0637573   -7.2829909    398.86176  0.029890719   0.03045681            1 
 1113000    1.0661403   -7.2625599    400.49401  0.029986075  0.030447821            1 
 1114000    1.0659542   -7.2550739    400.88355  0.029988297  0.030439009            2 
 1115000    1.0952415    -7.258325    400.92842  0.029964755  0.030430205            1 
 1116000    1.0821008   -7.2664072    401.34388  0.029968928  0.030421529            1 
 1117000     1.072823   -7.2718405    400.80754  0.029902084  0.030412805            2 
 1118000    1.0472428   -7.2707063     401.8032  0.029949553  0.030404118            2 
 1119000    1.0981737   -7.2564491    401.86044  0.029927051  0.030395584            1 
 1120000    1.0629581    -7.275738     401.9979  0.029910558  0.030387136            3 
 1121000    1.0500555     -7.24584    402.50612  0.029921656  0.030378592            3 
 1122000    1.0642483   -7.2427755    403.06916  0.029936806  0.030370118            9 
 1123000    1.0768397   -7.2487711    404.41741  0.030010197  0.030361614            1 
 1124000     1.072749   -7.2872578     402.7227  0.029857852  0.030353014            2 
 1125000    1.0827127   -7.2628658     403.9501   0.02992223  0.030344384            2 
 1126000    1.0715959   -7.2687804    403.26917  0.029845261  0.030335848            1 
 1127000    1.0656248   -7.2533788    403.90566  0.029865843  0.030327329            1 
 1128000    1.0929923   -7.2261772    404.55388  0.029887255  0.030318881            1 
 1129000    1.0678522   -7.3167656    403.48064  0.029781565  0.030310263            1 
 1130000    1.0445258   -7.2521986    404.44325  0.029826198  0.030301558            4 
 1131000    1.0676786   -7.2520641    406.25821  0.029933555  0.030293206            3 
 1132000    1.0650073   -7.2657541    406.06454  0.029892855   0.03028481            3 
 1133000    1.0899588    -7.249504    407.51826  0.029973394  0.030276611            1 
 1134000    1.0895056   -7.2484659    406.78173  0.029892837  0.030268221            1 
 1135000    1.0672353   -7.2478558    406.72949  0.029862664   0.03025977            2 
 1136000    1.0626934   -7.2503252    407.59325  0.029899739  0.030251626            1 
 1137000    1.0752032   -7.2577302    406.71377  0.029808983  0.030243254            1 
 1138000    1.0727495   -7.2442461    407.20354  0.029818654  0.030234943            1 
 1139000    1.0830159    -7.245161    408.58393  0.029893469  0.030226651            2 
 1140000     1.063756    -7.267226    408.76707  0.029880634  0.030218657            1 
 1141000    1.0848768   -7.2650589    408.15421  0.029809685   0.03021055            2 
 1142000    1.0541811    -7.207549    409.60899   0.02988974  0.030202231            1 
 1143000     1.061761   -7.2772385    409.17031  0.029831606  0.030194139            1 
 1144000    1.0582695   -7.2403057    408.70168  0.029771393  0.030185928            2 
 1145000    1.0599625   -7.2420711    409.91024  0.029833351  0.030177608            2 
 1146000    1.0662914   -7.3203242    408.41474   0.02969857  0.030169208            1 
 1147000    1.0271187    -7.264058    409.48942  0.029750757  0.030160832            1 
 1148000    1.0838888   -7.2422896    410.36998  0.029788762  0.030152629            1 
 1149000    1.0458224   -7.2973991    409.74259  0.029717333  0.030144414            1 
 1150000    1.0754106   -7.2781154    411.12652  0.029791777   0.03013644            2 
 1151000    1.0834398   -7.2910924    412.50199  0.029865478  0.030128588            3 
 1152000     1.083506   -7.2879585    411.21289  0.029746303  0.030120348            1 
 1153000    1.0577977    -7.238675    412.27285  0.029797112  0.030112522            2 
 1154000    1.0428666   -7.2713236     412.7041  0.029802434  0.030104659            4 
 1155000    1.0848111   -7.2629013    412.37567  0.029752934  0.030096726            1 
 1156000    1.0669971   -7.2542737    413.18591  0.029785605  0.030088726            1 
 1157000    1.0653521   -7.2781714    412.50461   0.02971079  0.030080656            2 
 1158000    1.0720689   -7.2779402    413.03689  0.029723438  0.030072465            2 
 1159000    1.0644743   -7.2864579    413.44252  0.029726957  0.030064373            1 
 1160000    1.0405002   -7.2652469    414.44382  0.029773263  0.030056402            4 
 1161000    1.0628087    -7.276013    413.35623  0.029669554  0.030048332            2 
 1162000    1.0580805    -7.255792    414.83193  0.029749852  0.030040347            1 
 1163000    1.0663982   -7.2726353    413.90593   0.02965792  0.030032247            2 
 1164000    1.0684003   -7.2881358    414.39472  0.029667434  0.030024326            4 
 1165000    1.0605701   -7.2679175    414.98048  0.029683869   0.03001648            1 
 1166000    1.0713931   -7.2849688    415.28919  0.029680474  0.030008663            1 
 1167000    1.0738043   -7.2825689    415.49513  0.029669746  0.030000751            2 
 1168000    1.0511971   -7.2349354    416.74773  0.029733714  0.029992958            2 
 1169000    1.0654712   -7.2888506     416.7846  0.029710907  0.029985048            1 
 1170000    1.0894274   -7.2980876    416.07254  0.029634796     0.029977            1 
 1171000    1.0695346   -7.2595578    416.63259  0.029649344  0.029968912            2 
 1172000    1.0626195   -7.2832057    417.63986  0.029695667  0.029961058            2 
 1173000    1.0584646   -7.2673212    417.37047  0.029651213  0.029953054            2 
 1174000    1.0705913   -7.2866472    416.45693  0.029561111  0.029945153            2 
 1175000    1.0645102   -7.2727566    418.21712  0.029660788  0.029937442            1 
 1176000    1.0707574   -7.2797083    419.10891  0.029698761  0.029929726            2 
 1177000    1.0681082    -7.290917    418.44208  0.029626316  0.029921881            1 
 1178000    1.0758081   -7.3003505    418.22208  0.029585602  0.029914149            1 
 1179000    1.0705467   -7.2711549    418.27418  0.029564191  0.029906127            1 
 1180000     1.072556   -7.2748754     420.7933  0.029717041  0.029898204            1 
 1181000    1.0463869   -7.2940281    419.66105  0.029611985  0.029890229            1 
 1182000     1.032972   -7.3150941    419.35385  0.029565275  0.029882371            1 
 1183000    1.0656054   -7.2707603    421.11866    0.0296646  0.029874647            2 
 1184000     1.071881   -7.2998138    420.33341  0.029584277  0.029866891            1 
 1185000    1.0733913   -7.2833532    421.29194  0.029626718  0.029859138            1 
 1186000    1.0668046   -7.2756861    420.98058  0.029579861  0.029851465            2 
 1187000    1.0653841   -7.2655039    422.12589  0.029635347  0.029843803            4 
 1188000    1.0767058   -7.2657526    422.90681   0.02966518  0.029836245            1 
 1189000    1.0822989   -7.2616056    422.01299  0.029577585  0.029828655            1 
 1190000    1.0616229   -7.2542273    424.20975  0.029706565  0.029821152            4 
 1191000     1.064134   -7.2799123    422.73866  0.029578691  0.029813603            2 
 1192000    1.0681872   -7.2488537    424.53233  0.029679274  0.029806178            1 
 1193000    1.0630768   -7.2957045    423.95508  0.029614074  0.029798833            2 
 1194000    1.0396668   -7.2496093    424.91442  0.029656227  0.029791322            1 
 1195000    1.0435157   -7.2823849    423.40384   0.02952607  0.029783664            1 
 1196000    1.0361799   -7.2729792    423.54686  0.029511348  0.029775989            5 
 1197000    1.0706367   -7.2909209    423.98171  0.029516967  0.029768265            2 
 1198000    1.0390546   -7.2988837    423.17147  0.029435968  0.029760493            2 
 1199000    1.0543245   -7.2725827    424.56559  0.029508312  0.029752753            2 
 1200000     1.064079   -7.2983301    424.55567  0.029483032  0.029744996            5 
 1201000    1.0454364   -7.2561576    424.58147  0.029460274  0.029737386            1 
 1202000      1.05267    -7.308379    424.37542  0.029421479  0.029729677            2 
 1203000    1.0936971   -7.2628266    426.46629   0.02954186  0.029722166            2 
 1204000    1.0603798   -7.2610709    427.25829  0.029572141  0.029714519            3 
 1205000      1.04102   -7.2922758    426.32574  0.029483108  0.029706691            1 
 1206000    1.0553563   -7.2739578    426.11761  0.029444279  0.029698804            2 
 1207000    1.0607559   -7.2980386      424.233  0.029289768  0.029690842            2 
 1208000    1.0429508   -7.2688548    426.55734  0.029425865  0.029682855            1 
 1209000    1.0692399   -7.2957362     426.7411  0.029414192  0.029674985            1 
 1210000    1.0518963   -7.2586458    426.80358  0.029394186  0.029667246            2 
 1211000    1.0709598   -7.2889507    427.12004   0.02939169  0.029659614            1 
 1212000    1.0444723   -7.2920687    427.88162  0.029419803  0.029651938            1 
 1213000    1.0626072   -7.2829142    427.86267  0.029394248  0.029644367            1 
 1214000    1.0643821   -7.2380771    428.73033  0.029429594  0.029636853            1 
 1215000    1.0625392   -7.2753882    429.38388  0.029450198  0.029629491            3 
 1216000    1.0521737   -7.3024038    428.35599  0.029355536  0.029621983            1 
 1217000    1.0452341   -7.3162644    428.04376  0.029310036  0.029614133            2 
 1218000    1.0668215   -7.3243481    429.51576  0.029386683  0.029606569            3 
 1219000    1.0672339   -7.2807267    430.66582  0.029441196  0.029599053            2 
 1220000    1.0665679   -7.2770618    430.96012  0.029437166  0.029591771            2 
 1221000    1.0387078   -7.3366073    429.98616  0.029346585  0.029584298            1 
 1222000    1.0697632   -7.3422762     429.2308  0.029271058  0.029576805            1 
 1223000    1.0617524   -7.3074813    430.40131  0.029326881  0.029569238            1 
 1224000    1.0624101   -7.3008484    432.22083  0.029426799  0.029561645            1 
 1225000    1.0468788   -7.2793585    431.72101  0.029368776  0.029554226            1 
 1226000    1.0536226   -7.2748283    433.28903  0.029451402  0.029546833            3 
 1227000    1.0752222    -7.297153    431.93423  0.029335386  0.029539184            2 
 1228000    1.0427641   -7.2624355     431.7395  0.029298283  0.029531627            2 
 1229000    1.0783372   -7.2725785    431.71426  0.029272732   0.02952416            3 
 1230000    1.0720591    -7.265735    433.10423  0.029343105  0.029516632            1 
 1231000    1.0694795   -7.2891559    432.51636  0.029279472  0.029508991            2 
 1232000    1.0454625   -7.2953797    432.39664  0.029247608  0.029501307            5 
 1233000    1.0333075   -7.3132653    432.62583  0.029239378  0.029493673            1 
 1234000     1.060933   -7.2796823    433.83557  0.029297378  0.029485852            1 
 1235000    1.0566412   -7.2980952    432.05661  0.029153617  0.029478085            2 
 1236000    1.0824048   -7.2975776    433.31144  0.029214633   0.02947024            1 
 1237000    1.0643772   -7.3115996    433.77654  0.029222348  0.029462499            1 
 1238000    1.0274466   -7.2701801    434.15535  0.029224243  0.029454705            1 
 1239000     1.053372   -7.2961836    433.57908  0.029161896   0.02944697            4 
 1240000    1.0661131   -7.3089173    434.78602  0.029219491  0.029439368            2 
 1241000    1.0568547   -7.2847663    435.82261  0.029265553  0.029431796            1 
 1242000    1.0393421   -7.3158986    435.50975  0.029220998  0.029424207            3 
 1243000    1.0485877   -7.2714686    435.78865  0.029216187  0.029416512            6 
 1244000    1.0324074   -7.3202726     435.8147  0.029194446  0.029408907            4 
 1245000    1.0596719   -7.3084314    435.94163  0.029179493   0.02940135            2 
 1246000    1.0446048   -7.2991367    436.61802  0.029201312  0.029393661            3 
 1247000    1.0453384   -7.2974334    437.05032  0.029206784  0.029386145            2 
 1248000    1.0485869   -7.3099253    436.96985  0.029178008  0.029378691            2 
 1249000    1.0382723   -7.2980607    437.38596   0.02918241  0.029371058            2 
 1250000     1.071346   -7.3071185    435.56437  0.029037625   0.02936361            2 
 1251000     1.033796   -7.3546691    435.64918  0.029020063  0.029355851            2 
 1252000    1.0624464   -7.3426218    436.07721  0.029025373  0.029347884            1 
 1253000    1.0311075   -7.3118446    438.62943  0.029171949  0.029340163            3 
 1254000    1.0347602   -7.3207737    437.09009  0.029046391  0.029332539            1 
 1255000    1.0720134   -7.3049504    438.79058   0.02913616  0.029324801            2 
 1256000    1.0374414   -7.3018718    438.06473  0.029064804  0.029317093            1 
 1257000    1.0409073   -7.2785903     438.5044   0.02907083  0.029309395            1 
 1258000    1.0261775   -7.2945865    439.92765  0.029142001  0.029301793            1 
 1259000    1.0742783   -7.3188931    439.14678  0.029067168   0.02929413            1 
 1260000     1.063429    -7.326009    438.96835  0.029032298  0.029286447            2 
 1261000    1.0628493   -7.3091413    439.71045  0.029058317  0.029278861            3 
 1262000    1.0435428   -7.3012447    440.33328  0.029076418  0.029271336            2 
 1263000    1.0730085   -7.3494861    439.26257  0.028982751  0.029263752            1 
 1264000    1.0419618   -7.3308539    439.75247   0.02899212  0.029256134            1 
 1265000    1.0447578   -7.3133859    441.16623  0.029062334  0.029248609            1 
 1266000    1.0445187   -7.2767415    442.94726  0.029156613  0.029241184            2 
 1267000    1.0416762   -7.3000384    442.64788  0.029113909  0.029233976            2 
 1268000     1.026296   -7.2831136    442.38525  0.029073689  0.029226704            2 
 1269000    1.0537939   -7.3397475    442.29808  0.029045054  0.029219347            1 
 1270000    1.0284201   -7.3211966    442.02633  0.029004352  0.029211825            2 
 1271000    1.0533179   -7.3299925    442.41619  0.029007093  0.029204476            1 
 1272000    1.0510656   -7.2869062    444.10803  0.029095127  0.029197101            1 
 1273000    1.0347806   -7.2983559    444.14398  0.029074625  0.029189686            2 
 1274000    1.0424052   -7.3065847     443.3386  0.028999124   0.02918215            1 
 1275000     1.068481   -7.3139967    443.90539  0.029013424  0.029174588            2 
 1276000    1.0740397   -7.3036929    443.07617  0.028936532  0.029166958            2 
 1277000    1.0429385   -7.2756305    444.09677  0.028980473  0.029159509            1 
 1278000    1.0506119    -7.331664    444.19941  0.028964489  0.029151964            2 
 1279000    1.0567565       -7.309     443.4354  0.028892064  0.029144316            2 
 1280000    1.0330659   -7.3350922    443.39904  0.028867125  0.029136428            5 
 1281000    1.0624581   -7.2635464    444.74635  0.028932237  0.029128509            3 
 1282000    1.0281311   -7.2986193    442.57918  0.028768797  0.029120645            2 
 1283000    1.0441884   -7.2958855    443.17326  0.028784961   0.02911266            1 
 1284000    1.0474957   -7.2973754    443.80337  0.028803438  0.029104611            1 
 1285000       1.0432   -7.2936635     444.7843  0.028844637   0.02909655            3 
 1286000    1.0626184   -7.3136205    444.68465   0.02881575  0.029088543            3 
 1287000    1.0458738   -7.3339565    445.38965  0.028839009  0.029080559            1 
 1288000    1.0556329   -7.3340847    444.80653  0.028778891  0.029072626            3 
 1289000    1.0251923   -7.3264143    444.69345  0.028749253  0.029064742            1 
 1290000     1.052283   -7.3269961    446.26527  0.028828506  0.029056838            4 
 1291000       1.0432   -7.3275071    446.06793  0.028793437  0.029049035            2 
 1292000    1.0614329   -7.3070508    447.69874  0.028876338   0.02904127            1 
 1293000    1.0555936   -7.3474352    445.65782  0.028722468  0.029033417            3 
 1294000    0.9973083   -7.3387646    446.94941   0.02878345  0.029025453            1 
 1295000    1.0395459   -7.3573236    446.70601   0.02874556   0.02901757            3 
 1296000    1.0493268   -7.3466195    447.56867   0.02877885  0.029009684            5 
 1297000    1.0535036   -7.3225989    446.67147  0.028699015  0.029001784            1 
 1298000    1.0547667   -7.3533903    447.45155  0.028726987   0.02899399            2 
 1299000    1.0451875   -7.3268284    448.25633    0.0287565  0.028986138            1 
 1300000    1.0590645   -7.3288393    447.92581  0.028713193  0.028978389            2 
 1301000    1.0377738   -7.3441786    448.00424  0.028696146  0.028970512            2 
 1302000    1.0382344   -7.3341488    449.26935  0.028755079  0.028962736            1 
 1303000    1.0504123   -7.3390225    448.44565   0.02868033  0.028955056            1 
 1304000    1.0496903   -7.2829985    450.36869   0.02878123  0.028947378            2 
 1305000    1.0338934   -7.3167018    449.75025  0.028719684  0.028939671            1 
 1306000    1.0585692   -7.3519092    450.50006  0.028745537  0.028931887            2 
 1307000    1.0394934   -7.3125227    448.90326  0.028621733   0.02892421            2 
 1308000    1.0732643   -7.3250642    449.38407  0.028630483  0.028916492            1 
 1309000    1.0548015   -7.3233027    451.71884  0.028757247  0.028908708            1 
 1310000     1.033255   -7.3025674    451.51322  0.028722215  0.028901031            1 
 1311000     1.037595   -7.3585447    451.37856  0.028691746  0.028893235            2 
 1312000    1.0478332   -7.3174597    451.58447  0.028682957  0.028885597            1 
 1313000    1.0477625   -7.3307357    451.06161  0.028627927  0.028877817            1 
 1314000    1.0207891   -7.3349049    450.98379  0.028601204  0.028870017            1 
 1315000    1.0451255   -7.3460212    452.33356  0.028664991  0.028862288            1 
 1316000    1.0358207   -7.3463301    451.17428    0.0285698  0.028854556            3 
 1317000    1.0429838   -7.3069442    452.07066  0.028604825  0.028846819            2 
 1318000    1.0238897   -7.3357063    450.76348  0.028500473  0.028839115            1 
 1319000      1.05988    -7.340694    452.36079  0.028579782  0.028831135            2 
 1320000    1.0099096   -7.3330438    452.75565  0.028583059  0.028823218            5 
 1321000    1.0055765   -7.3512838    453.53626  0.028610665  0.028815427            1 
 1322000    1.0587622    -7.339039    452.19642  0.028504565  0.028807635            2 
 1323000     1.012808   -7.3159828    453.68241  0.028576619  0.028799692            3 
 1324000    1.0328119   -7.3613588    452.38495  0.028473373  0.028791852            2 
 1325000     1.043125   -7.3324402    453.40174  0.028515833  0.028783879            2 
 1326000    1.0432799   -7.3256891    455.54785  0.028629201  0.028776243            4 
 1327000    1.0240173   -7.3574676    455.31552  0.028593037  0.028768574            1 
 1328000    1.0426579   -7.3646912    454.04164  0.028491569  0.028760686            2 
 1329000     1.021769   -7.3656864    453.55276  0.028439476  0.028752774            1 
 1330000    1.0213895   -7.3481538     455.9776  0.028570025  0.028744801            1 
 1331000     1.023939   -7.3311141    455.19686  0.028499678  0.028736915            1 
 1332000    1.0360631   -7.3107116    455.87566   0.02852075  0.028729012            2 
 1333000    1.0229475   -7.3359441    455.36117   0.02846719  0.028721191            2 
 1334000    1.0241791   -7.3332718     455.8038    0.0284735  0.028713318            1 
 1335000    1.0310405   -7.3393851    456.89356  0.028520197  0.028705594            2 
 1336000      1.06178   -7.3287263    457.08897  0.028511038  0.028697827            1 
 1337000    1.0334832   -7.3553754    456.14813  0.028431072  0.028690206            1 
 1338000    1.0560608   -7.3264969    457.04515  0.028465692  0.028682564            3 
 1339000    1.0428415   -7.3083248    458.40598  0.028529125   0.02867499            2 
 1340000    1.0302299   -7.3721639    456.48824  0.028388572  0.028667273            1 
 1341000    1.0239411   -7.3495772    458.67385  0.028503222  0.028659679            2 
 1342000    1.0559139   -7.3354107    457.99067   0.02843956  0.028652011            3 
 1343000    1.0381539   -7.3310158    459.15994  0.028490937  0.028644399            2 
 1344000    1.0403196   -7.3227198    458.61628  0.028436029  0.028636866            2 
 1345000    1.0624214    -7.335652     460.0033  0.028500824  0.028629356            1 
 1346000    1.0482007   -7.3440276    459.51984  0.028449718  0.028621847            1 
 1347000    1.0318773   -7.3550298     459.8419  0.028448522  0.028614209            1 
 1348000    1.0373692   -7.3206664    459.62959  0.028414292  0.028606589            2 
 1349000     1.040498    -7.321255    459.96193  0.028413759  0.028599079            3 
 1350000    1.0319449    -7.354936    461.61443  0.028494718  0.028591537            4 
 1351000    1.0444007   -7.3330368    462.12575  0.028505166  0.028584082            2 
 1352000    1.0234914    -7.341623    461.88984  0.028469541  0.028576801            1 
 1353000    1.0184987   -7.3519131    460.52465  0.028364415  0.028569344            3 
 1354000     1.054133   -7.3195068    461.72598  0.028417404  0.028561856            1 
 1355000    1.0494074   -7.3454808    461.26034  0.028367794  0.028554365            2 
 1356000    1.0419623   -7.3222758    462.65814  0.028432776  0.028546879            1 
 1357000    1.0281678   -7.3237991    462.35564  0.028393247  0.028539586            2 
 1358000    1.0483631   -7.3640485    463.19321  0.028423736  0.028532272            1 
 1359000    1.0700268   -7.2967879    464.45917  0.028480449  0.028525064            1 
 1360000    1.0298289   -7.3127541    463.68079  0.028411813  0.028517883            3 
 1361000    1.0378942   -7.2967281    463.56311  0.028383732  0.028510669            2 
 1362000    1.0470279   -7.3118076    464.78729  0.028437793  0.028503341            1 
 1363000    1.0357623   -7.2977431    465.52666  0.028462134   0.02849611            1 
 1364000    1.0259407   -7.3835194    462.17952  0.028236774  0.028488717            3 
 1365000    1.0517685    -7.359271    463.83397  0.028317092    0.0284813            1 
 1366000    1.0461959   -7.3328609    464.77329  0.028353666  0.028473809            1 
 1367000    1.0054205   -7.3457111    464.97727  0.028345359  0.028466353            2 
 1368000    1.0357239   -7.3630355    465.20841  0.028338719   0.02845894            2 
 1369000    1.0247638   -7.3349355    463.46273  0.028211756  0.028451536            4 
 1370000    1.0319617   -7.3611626    467.05047  0.028409396  0.028444035            2 
 1371000    1.0263742   -7.3758514    464.29511  0.028221195  0.028436508            2 
 1372000    1.0218789   -7.3511487    465.90005  0.028298108  0.028429132            1 
 1373000    1.0373771   -7.3287506    466.99515  0.028343964  0.028421706            3 
 1374000    1.0569726   -7.3588272    465.52799  0.028234352  0.028414206            2 
 1375000    1.0602631   -7.3273423    467.48259  0.028332278  0.028406822            1 
 1376000    1.0276226   -7.3478975     466.3356  0.028242224  0.028399454            2 
 1377000    1.0434699   -7.3604376    465.84883  0.028192256  0.028392163            5 
 1378000     1.041943   -7.3507464    468.49647  0.028331911   0.02838463            1 
 1379000    1.0434345   -7.3241217    467.40396  0.028245344  0.028377319            1 
 1380000    1.0204906   -7.3543409    467.08108  0.028205379  0.028370057            2 
 1381000    1.0246032   -7.3546596    467.63077  0.028218125  0.028362592            3 
 1382000    1.0437314   -7.3384147    466.45661  0.028126906  0.028355016            1 
 1383000    1.0246765   -7.3638877    467.67079  0.028179729  0.028347462            3 
 1384000    1.0387966   -7.3755242    467.11741  0.028126049  0.028339832            1 
 1385000    1.0248201   -7.3297213    469.40888  0.028243615  0.028332297            2 
 1386000    1.0254318   -7.3932052     468.0473  0.028141372  0.028324648            3 
 1387000    1.0385015   -7.3831105    468.37276  0.028140637  0.028317009            2 
 1388000    1.0238889   -7.3674451    467.84058  0.028088411  0.028309541            2 
 1389000    1.0336044   -7.3368713    469.17636   0.02814833  0.028302014            3 
 1390000    1.0298903   -7.3478492    470.65227  0.028216563  0.028294662            1 
 1391000    1.0323684   -7.3478058    470.44984  0.028184151  0.028287305            4 
 1392000    1.0239403   -7.3911992    469.32481  0.028096552  0.028279946            2 
 1393000    1.0326985   -7.3227629    470.27502  0.028133227  0.028272541            2 
 1394000     1.017975     -7.35701    471.12503  0.028163859  0.028265185            7 
 1395000    1.0369509   -7.3308916    472.11624  0.028202882  0.028258069            5 
 1396000    1.0220501   -7.3527098    470.74017  0.028100535  0.028250864            2 
 1397000    1.0047979   -7.3317911    472.47391  0.028183841  0.028243618            2 
 1398000    1.0583165   -7.3721524    471.61553  0.028112514  0.028236298            2 
 1399000    1.0289636    -7.335008    473.54892  0.028207584  0.028228986            1 
 1400000     1.041434   -7.3506408    471.62335  0.028072818  0.028221913            2 
 1401000    1.0362004   -7.3958951     471.7789  0.028062033  0.028214624            1 
 1402000    1.0407665   -7.3497253    473.05686  0.028117978  0.028207374            2 
 1403000    1.0419189   -7.3138174    471.85142  0.028026338  0.028200154            4 
 1404000     1.048142   -7.3383633    474.00142  0.028133987  0.028193093            1 
 1405000     1.008732   -7.3736652    474.96608  0.028171179  0.028186056            4 
 1406000    1.0422241   -7.3628123    473.80178  0.028082135  0.028178902            2 
 1407000    1.0194181   -7.3332539    474.74541  0.028118065  0.028171694            2 
 1408000    1.0213891   -7.4006667    475.21841  0.028126089  0.028164545            3 
 1409000    1.0308531   -7.3726781    474.44385  0.028060318  0.028157409            3 
 1410000    1.0266449   -7.3434273    475.13014  0.028080978   0.02815045            2 
 1411000    1.0509312   -7.3295167    476.14963  0.028121287  0.028143458            1 
 1412000     1.008135   -7.3539452    476.09415  0.028098096  0.028136494            4 
 1413000     1.019446   -7.3586399    476.71777   0.02811499  0.028129531            1 
 1414000    1.0250919   -7.3923739    475.48737  0.028022594  0.028122605            1 
 1415000    1.0124078   -7.3596879    476.71707   0.02807521  0.028115643            1 
 1416000    1.0215523   -7.3544248    477.48959  0.028100847   0.02810877            1 
 1417000    1.0206354   -7.3960302    475.85245  0.027984736   0.02810176            1 
 1418000    1.0237075   -7.3679286    477.16511  0.028042143   0.02809472            1 
 1419000    1.0066547   -7.3496327    478.02089  0.028072639  0.028087718            3 
 1420000    1.0289164   -7.4028748    476.73035  0.027977133  0.028080786            4 
 1421000    1.0220473   -7.3411376    478.00648  0.028032282  0.028073828            1 
 1422000    1.0228753   -7.3456356     477.9725  0.028010578  0.028066871            3 
 1423000    1.0025005   -7.3591874    479.14674  0.028059659  0.028059958            1 
 1424000   0.99964749   -7.3809334    478.16595  0.027982558  0.028053099            1 
 1425000    1.0337359   -7.3708445    479.82722  0.028060072  0.028046104            3 
 1426000    1.0289912    -7.403383    478.35764  0.027954514  0.028039189            2 
 1427000    1.0130433   -7.3544247    480.37844  0.028052934  0.028032306            2 
 1428000    1.0551316   -7.3675042     481.2245  0.028082662  0.028025474            2 
 1429000    1.0180296    -7.354614    480.18575  0.028002434  0.028018749            2 
 1430000     1.025864   -7.3895988    480.12761  0.027979464  0.028011802            1 
 1431000    1.0302221   -7.3442443    480.97374  0.028009186  0.028004946            1 
 1432000    1.0413379    -7.344177    480.56221  0.027965678  0.027998187            1 
 1433000    1.0136514   -7.3771538    480.19363  0.027924728  0.027991306            1 
 1434000    1.0286076   -7.3577418    482.15097  0.028019001  0.027984452            2 
 1435000    1.0167516   -7.3464855    482.50453  0.028020007  0.027977542            1 
 1436000    1.0074337   -7.3697197    481.89571  0.027965164  0.027970739            1 
 1437000    1.0126901   -7.3873336     482.2336  0.027965298  0.027963782            1 
 1438000     1.026387   -7.3507224    483.02571  0.027991754  0.027956908            2 
 1439000    1.0343163   -7.3925403    482.37697  0.027934733  0.027950008            2 
 1440000    1.0268447   -7.3939218    482.45409  0.027919797  0.027943179            1 
 1441000    1.0298621   -7.3772876    483.64732  0.027969427  0.027936256            3 
 1442000    1.0206839   -7.3689438    483.57119   0.02794563  0.027929509            1 
 1443000    1.0271823   -7.3427182    485.09401  0.028014207  0.027922747            3 
 1444000      1.00312   -7.3768851    484.77855  0.027976602   0.02791595            2 
 1445000    1.0265728   -7.3649634    483.81251  0.027901529  0.027909233            2 
 1446000    1.0235779   -7.3938584     484.5949  0.027927322  0.027902537            4 
 1447000   0.99133777   -7.3816831    485.18636  0.027942084  0.027895819            2 
 1448000    1.0028647   -7.3679024    484.41655  0.027878485  0.027889075            3 
 1449000    1.0093282   -7.3444187     484.1945  0.027846475  0.027882427            3 
 1450000     1.028335   -7.3944805    484.21093  0.027828214  0.027875821            1 
 1451000    1.0126406   -7.3697348    487.78253  0.028014159  0.027869289            2 
 1452000    1.0115582   -7.3715785    485.48268  0.027862872  0.027862865            1 
 1453000    1.0254238   -7.3765016    487.16395  0.027940121  0.027856315            2 
 1454000    1.0469649   -7.4036106    487.37022  0.027932727  0.027849711            3 
 1455000    1.0311356   -7.3885578     487.6246  0.027928099  0.027843192            1 
 1456000    1.0259925   -7.3840591    487.83223    0.0279208  0.027836669            2 
 1457000    1.0133893   -7.3737176    488.70417  0.027951508  0.027830188            2 
 1458000     1.017785    -7.374762    488.05573  0.027895275   0.02782365            3 
 1459000   0.99795423   -7.3582062    488.19966  0.027884376  0.027817099            1 
 1460000     1.025296   -7.3976082    489.22826  0.027923987  0.027810535            1 
 1461000    1.0275732     -7.37469    489.72369  0.027933133  0.027803965            2 
 1462000   0.99881369   -7.3943369    487.69118  0.027798175  0.027797452            2 
 1463000    1.0362028   -7.3730153     488.9748   0.02785229  0.027790847            1 
 1464000     1.014457   -7.3765819    489.82614  0.027881725  0.027784244            3 
 1465000    1.0145455   -7.3869686    487.90758   0.02775356  0.027777643            3 
 1466000    1.0260521   -7.4048858     488.6741    0.0277782  0.027770887            2 
 1467000    1.0406413   -7.4161484    490.00968  0.027835133  0.027764207            4 
 1468000    1.0362117   -7.4076225    490.01033  0.027816209  0.027757518            3 
 1469000    1.0207762   -7.3876622    489.34827  0.027759716  0.027750752            4 
 1470000    1.0127327   -7.4036173    490.08572  0.027782637  0.027744015            3 
 1471000    1.0209935   -7.3668216    490.71602  0.027799457  0.027737302            1 
 1472000    1.0006238   -7.3898397    489.56577  0.027715453  0.027730695            2 
 1473000     1.029798   -7.4026272    489.90246  0.027715686  0.027724036            1 
 1474000    1.0053194   -7.3479843    491.43705  0.027783642    0.0277174            3 
 1475000     1.026335   -7.3566098    491.35116  0.027759952  0.027710855            4 
 1476000    1.0218846   -7.3947311     490.8764  0.027714341   0.02770408            2 
 1477000    1.0065383   -7.3800189    490.45038   0.02767154   0.02769738            1 
 1478000    1.0211994   -7.4185942    491.01565  0.027684689  0.027690732            2 
 1479000    1.0280701   -7.3610874    493.29231  0.027794248  0.027684005            1 
 1480000   0.99849334   -7.4155257    492.16439  0.027711959  0.027677449            1 
 1481000   0.98754088   -7.3910028    492.14532  0.027692174  0.027670714            4 
 1482000    1.0195412   -7.4415097    491.30034  0.027625975  0.027664008            1 
 1483000     1.020341   -7.3766637    493.90228  0.027753556  0.027657354            3 
 1484000    1.0053224   -7.3569907    493.67616  0.027722156   0.02765085            2 
 1485000    1.0136476   -7.3488493    493.82527  0.027711856  0.027644304            1 
 1486000    1.0239237   -7.4077986    493.25718  0.027661349  0.027637874            2 
 1487000    1.0268528   -7.3847073    495.22531  0.027753043  0.027631439            4 
 1488000    1.0180761   -7.3607323    495.73163  0.027762748  0.027625038            2 
 1489000    1.0115304   -7.3898306    494.70029  0.027686383  0.027618664            1 
 1490000    1.0214658    -7.396108    495.57566  0.027716759  0.027612324            1 
 1491000     1.004154   -7.3884614    496.17729  0.027731796  0.027605802            1 
 1492000    1.0220604   -7.3932475    495.48717  0.027674663  0.027599367            1 
 1493000    1.0149131   -7.4286336    495.81385  0.027674361  0.027592831            2 
 1494000    1.0119136   -7.3622915    497.68721  0.027760331   0.02758651            2 
 1495000    1.0180747   -7.3708711    497.65702  0.027740079  0.027580108            1 
 1496000    1.0257009   -7.3632512     497.6234  0.027719663  0.027573821            1 
 1497000    1.0158649   -7.3870117    496.88208   0.02765988  0.027567554            1 
 1498000   0.99916748   -7.4053322    496.18234  0.027602489  0.027561171            1 
 1499000   0.99860926   -7.4038373    496.63924  0.027609475  0.027554652            1 
 1500000    1.0243194    -7.376439    498.69537  0.027705298  0.027548039            3 
 1501000    1.0355277   -7.3693304     498.0092  0.027648746  0.027541657            2 
 1502000   0.99280007   -7.3606447    499.56314  0.027716552  0.027535416            2 
 1503000    1.0261002   -7.4258985    498.19718  0.027622377  0.027529064            1 
 1504000    1.0117655   -7.3908476    498.74191  0.027634193    0.0275227            1 
 1505000   0.99304966   -7.3884572    499.56772  0.027661557   0.02751645            4 
 1506000    1.0080023   -7.3586538    500.51912  0.027695835  0.027510301            1 
 1507000   0.99239105   -7.3795899    499.82345  0.027638987  0.027504355            1 
 1508000    1.0042108   -7.3759613    500.79683  0.027674449  0.027498419            2 
 1509000    1.0261639   -7.3963317    501.57048  0.027698834  0.027492428            2 
 1510000   0.99707682   -7.4086542    500.23989  0.027607058  0.027486344            4 
 1511000    1.0062396   -7.4388263    500.07262  0.027579562  0.027480115            1 
 1512000   0.99315697   -7.4095098    499.68767  0.027540105  0.027474035            4 
 1513000   0.99471762   -7.4093234    500.96274  0.027592132  0.027467893            3 
 1514000   0.99973346    -7.406793    501.64237  0.027611315  0.027461665            2 
 1515000   0.99319228   -7.4072939    500.71709  0.027542194  0.027455405            3 
 1516000    1.0253269   -7.4015867    500.75447  0.027526081  0.027448979            2 
 1517000    1.0112619   -7.4091193    500.91353  0.027516674  0.027442707            2 
 1518000   0.99207878   -7.4223611    503.69763  0.027651385  0.027436462            1 
 1519000     1.004928   -7.4414785    500.98542  0.027484388  0.027430222            3 
 1520000   0.99788682   -7.4072806    504.31093  0.027648625  0.027424071            2 
 1521000    1.0142824   -7.3768989    503.62366  0.027592793  0.027417955            1 
 1522000    1.0214736   -7.4091704    503.47214  0.027566368  0.027411884            2 
 1523000    1.0289359   -7.4395532    504.27571  0.027592236  0.027405718            1 
 1524000   0.99393576   -7.3877772     505.0033  0.027613916  0.027399622            1 
 1525000    1.0031027   -7.3879267    505.20563  0.027606865  0.027393478            2 
 1526000    1.0124696   -7.4003331    504.12302  0.027529654  0.027387347            2 
 1527000   0.99657236   -7.4143679    504.57197  0.027536126  0.027381166            1 
 1528000    1.0061155   -7.3993042    503.14703  0.027440392  0.027374909            2 
 1529000   0.99754826    -7.419262    503.12886  0.027421455   0.02736851            1 
 1530000    1.0080539   -7.3775469     504.6175  0.027484613  0.027362174            2 
 1531000    1.0008112   -7.4135029    504.58615  0.027464955  0.027355822            2 
 1532000    0.9929869   -7.3909844    507.23378  0.027591045  0.027349682            1 
 1533000   0.99613837   -7.3901431    505.48873  0.027478187  0.027343552            2 
 1534000   0.98706965   -7.4016555    505.97098  0.027486472  0.027337421            1 
 1535000   0.99564527   -7.3351342    508.01434  0.027579497  0.027331373            4 
 1536000    1.0163539   -7.3973273    506.06066  0.027455548   0.02732536            2 
 1537000   0.98243802   -7.4136074    506.67667  0.027471084  0.027319176            2 
 1538000    1.0165688   -7.4023168    507.51714  0.027498762  0.027313004            3 
 1539000    1.0017173   -7.3968382    508.04894  0.027509689  0.027306843            1 
 1540000    1.0269752   -7.3857793    507.43107  0.027458391  0.027300724            2 
 1541000   0.99586862    -7.382373    507.76166   0.02745845  0.027294479            1 
 1542000    1.0328958   -7.4290082    506.97926  0.027398361  0.027288281            1 
 1543000    1.0003047   -7.4133162    506.88675  0.027375608  0.027282118            2 
 1544000   0.99678691   -7.3839983    508.79367  0.027460798  0.027276151            8 
 1545000   0.99087626   -7.4242135    508.47015  0.027425574  0.027270009            3 
 1546000   0.99787995   -7.4149733     509.7016  0.027474213  0.027263837            2 
 1547000     1.027802   -7.4017513    508.75918  0.027405687  0.027257645            1 
 1548000    0.9948654   -7.4739268    507.82389  0.027337634  0.027251445            3 
 1549000    1.0103371   -7.3947921    510.01808  0.027438029   0.02724519            2 
 1550000    1.0231438   -7.4076685    508.97858   0.02736444  0.027239064            3 
 1551000    1.0138268   -7.4031015    511.60051   0.02748767  0.027232947            1 
 1552000   0.98871213   -7.4299934    509.80408  0.027373501  0.027226753            1 
 1553000    1.0034322   -7.4306568    510.84828  0.027411906   0.02722049            2 
 1554000    1.0033544   -7.4536269    510.12363  0.027355407   0.02721428            2 
 1555000    1.0069229   -7.4032051    510.01328  0.027331902  0.027208117            3 
 1556000    1.0223993   -7.3750907    510.55385  0.027343287  0.027201962            2 
 1557000   0.99465174   -7.4266175    509.11992  0.027248979  0.027195699            4 
 1558000   0.99870692   -7.4428882     510.4072  0.027300343  0.027189348            1 
 1559000   0.99840619    -7.418354    510.90323  0.027309345  0.027183176            2 
 1560000    1.0134591   -7.4217899    510.63287  0.027277397   0.02717699            2 
 1561000    1.0117254   -7.4374754    510.96219  0.027277503   0.02717066            2 
 1562000    0.9880598   -7.4517374    512.14148  0.027322955  0.027164339            1 
 1563000    1.0166648   -7.4738498    510.62308  0.027224519   0.02715819            2 
 1564000    1.0103537   -7.4296742    512.41002  0.027302324  0.027151875            3 
 1565000   0.97597303   -7.3903199    511.88336  0.027256835  0.027145608            1 
 1566000     1.003831   -7.4613102    511.58098  0.027223339  0.027139313            6 
 1567000   0.99785884   -7.3993496    511.25471  0.027188615  0.027132905            2 
 1568000    0.9957142   -7.4232855    511.65214  0.027192397  0.027126532            1 
 1569000   0.98901291   -7.4227004    514.54671  0.027328804  0.027120318            1 
 1570000    1.0011137   -7.4303117    512.78065  0.027217657  0.027113996            2 
 1571000    1.0041017   -7.3849393    515.20911  0.027329149  0.027107732            1 
 1572000    1.0278851   -7.4005312    512.51148   0.02716876  0.027101474            2 
 1573000    1.0074537   -7.4610767    512.75955   0.02716463   0.02709519            2 
 1574000   0.98098004   -7.4039548    513.72508   0.02719849    0.0270889            1 
 1575000    0.9828286   -7.4268101    513.28512  0.027157943  0.027082569            3 
 1576000   0.99296907   -7.4339029    516.07888  0.027288435  0.027076317            1 
 1577000    1.0093679    -7.424563    515.11935  0.027220426  0.027070101            5 
 1578000    1.0228249   -7.4051552    516.08035  0.027253926  0.027063977            4 
 1579000    1.0284902   -7.4087632    515.76078  0.027219801  0.027057827            5 
 1580000    1.0106862   -7.4572851    515.24494  0.027175366  0.027051629            2 
 1581000    1.0185169   -7.4465791    515.33341   0.02716284  0.027045507            3 
 1582000    1.0014474   -7.3865025    518.05209   0.02728888  0.027039444            1 
 1583000    1.0071255   -7.4462716    516.20688  0.027174504  0.027033283            2 
 1584000   0.99212272     -7.35827    518.17567  0.027260925  0.027027228            2 
 1585000   0.99217199   -7.4116219    518.26268  0.027248301  0.027021186            3 
 1586000   0.99691005   -7.4155465    516.27149  0.027126497  0.027015039            2 
 1587000   0.98079613   -7.4321542    516.27484   0.02710958  0.027008816            1 
 1588000    1.0016136   -7.4630395     516.3587  0.027096909  0.027002586            3 
 1589000   0.98064604   -7.4160043     516.6625  0.027095789  0.026996286            2 
 1590000   0.98598412   -7.4443206    516.72634  0.027082093  0.026989978            2 
 1591000    1.0290914   -7.4240018    518.59611  0.027163006   0.02698368            1 
 1592000   0.98769592   -7.3861029    518.04737   0.02711722  0.026977408            1 
 1593000    1.0337249   -7.4408226    517.83235  0.027088949  0.026971078            4 
 1594000   0.99182039   -7.4062686    519.02154  0.027134125  0.026964815            1 
 1595000    1.0155947   -7.4567311    517.67018  0.027046509  0.026958568            4 
 1596000   0.98994631   -7.3907307    518.84754  0.027091037  0.026952497            1 
 1597000     1.003057   -7.4365982    518.25261  0.027043029  0.026946227            1 
 1598000   0.99506228    -7.469124    518.07856   0.02701703  0.026939782            2 
 1599000    1.0115409    -7.433927    519.03203  0.027049825  0.026933392            3 
 1600000   0.97448794   -7.4388359    519.44625  0.027054492  0.026927016            2 
 1601000   0.98426679   -7.4094303    520.14082  0.027073746  0.026920793            4 
 1602000   0.99653606   -7.4076657    520.57801  0.027079588  0.026914627            2 
 1603000    1.0054454   -7.4220963    521.23021  0.027096601  0.026908299            1 
 1604000    1.0099394     -7.41944    519.60071  0.026995049  0.026902067            2 
 1605000    1.0057742   -7.3621861    521.90752  0.027098002  0.026895832            1 
 1606000    1.0101826   -7.4507784    520.82996  0.027025216   0.02688956            1 
 1607000   0.98313729    -7.423392    521.37555  0.027036691  0.026883353            1 
 1608000   0.99535302   -7.4398269    520.32342  0.026965351  0.026877006            2 
 1609000     1.011609   -7.4291362     521.3951  0.027004097  0.026870655            4 
 1610000    1.0125472   -7.4607423    520.89345  0.026961359  0.026864265            2 
 1611000    1.0103352   -7.4229659    519.80893  0.026888523  0.026857842            2 
 1612000    1.0095918   -7.4351211     521.6174  0.026965333    0.0268515            1 
 1613000   0.97243891   -7.4442899    520.14969  0.026872788  0.026845116            2 
 1614000    1.0111536   -7.4429377    520.69283  0.026884181  0.026838746            2 
 1615000    1.0167559   -7.4590877    521.02473  0.026884661  0.026832335            3 
 1616000    1.0169463   -7.4385628    521.60876  0.026898142  0.026825846            4 
 1617000   0.98981893   -7.4342912     521.9562  0.026899413  0.026819457       -1e+20 
 1618000   0.98190325   -7.4049976     521.8474  0.026877184  0.026813029            2 
 1619000    1.0065748   -7.4090028     522.2859  0.026883153  0.026806718            1 
 1620000    1.0028561   -7.4354509    522.60757  0.026883106  0.026800228            2 
 1621000     1.005248   -7.4683184    522.40048  0.026855875  0.026793657            2 
 1622000   0.98094922    -7.474742    521.86202  0.026811653  0.026787112            3 
 1623000   0.98286802   -7.4777598    522.40687  0.026823109  0.026780546            1 
 1624000   0.97147092   -7.4361703     522.8987   0.02683183  0.026773989            2 
 1625000   0.97902113   -7.4404551    521.95159  0.026766748  0.026767487            3 
 1626000    1.0202516   -7.4251275    523.38698  0.026823851  0.026760794            1 
 1627000   0.98326207   -7.3932211    524.59924  0.026869455  0.026754149            1 
 1628000   0.99724137   -7.4550633    523.65169  0.026804448  0.026747601            4 
 1629000    0.9778469   -7.4348879    524.15747  0.026813867  0.026741059            1 
 1630000    1.0069338   -7.4293634    524.23087  0.026801169  0.026734576            5 
 1631000   0.99769788   -7.3966846    525.22089   0.02683532   0.02672815            1 
 1632000   0.99489064   -7.4252262    524.39503  0.026776707  0.026721748            1 
 1633000    1.0059269   -7.4436025    524.75629  0.026778745  0.026715354            4 
 1634000   0.98917356   -7.4675064     525.6958  0.026810271  0.026708862            4 
 1635000   0.99780992    -7.436421    524.71988  0.026744132  0.026702447            1 
 1636000   0.98879747   -7.4389662     526.0421  0.026795135  0.026696012            2 
 1637000   0.99064338   -7.3981312    524.16151  0.026683034  0.026689603            2 
 1638000   0.98302597    -7.436712    525.47823  0.026733732  0.026683146            3 
 1639000   0.97862195   -7.4508797    527.05079  0.026797376  0.026676704            2 
 1640000   0.98913301   -7.4558281    525.42745  0.026698549  0.026670336            3 
 1641000   0.98946253   -7.4240785    525.86926  0.026704715  0.026663927            2 
 1642000   0.98129894   -7.4530101    525.44351  0.026666845  0.026657462            2 
 1643000   0.99270973   -7.4427965    528.29102   0.02679504  0.026650948            2 
 1644000   0.98063531   -7.4520636    527.09096  0.026717912  0.026644575            2 
 1645000    0.9794877    -7.468316    527.75605  0.026735362  0.026638043            2 
 1646000   0.99850013     -7.42111    529.16721  0.026790564  0.026631509            3 
 1647000    1.0029642   -7.4469242    526.95616  0.026662425  0.026625099            1 
 1648000    1.0218626   -7.4465241     525.9973   0.02659776  0.026618583            2 
 1649000   0.97881702   -7.4700432      526.774  0.026620881   0.02661208            3 
 1650000    1.0054716   -7.4490537    528.49612  0.026691723  0.026605578            4 
 1651000   0.98067451   -7.4805324    527.48215  0.026624376  0.026599132            3 
 1652000   0.97464182   -7.4497226    528.08854  0.026638849  0.026592513            1 
 1653000    1.0237447   -7.4742764    528.43238  0.026640068  0.026585952            2 
 1654000   0.98105575   -7.4843851    527.20666  0.026562206  0.026579405            2 
 1655000    1.0139767   -7.5102188    528.27934  0.026600168  0.026572892            2 
 1656000    0.9871708   -7.4590286    528.76112  0.026608349  0.026566313            1 
 1657000   0.99151537     -7.47254    528.92724  0.026600646  0.026559605            1 
 1658000    1.0043039   -7.4601872    528.76242  0.026576318  0.026553002            1 
 1659000    1.0125318   -7.4366939    529.75494  0.026610154  0.026546494            1 
 1660000   0.97554595   -7.4774623    528.76339  0.026544347  0.026539997            3 
 1661000   0.98145441   -7.4403805     531.5571  0.026668528  0.026533386            3 
 1662000     1.009571    -7.479102    529.16011  0.026532296  0.026526961            3 
 1663000    0.9881953    -7.453723    529.94499  0.026555672  0.026520526            4 
 1664000   0.97169356   -7.4529366    531.98867  0.026642061  0.026514062            1 
 1665000   0.98776692   -7.4579998    531.88545  0.026620893  0.026507599            3 
 1666000   0.99070622   -7.4359917    531.46556  0.026583912  0.026501206            2 
 1667000   0.95154507   -7.4523418    531.22752  0.026556065  0.026494695            3 
 1668000   0.99383304   -7.5197491    531.43833  0.026550676  0.026488188            2 
 1669000   0.96612766   -7.4591495    531.54077  0.026539883  0.026481669            2 
 1670000   0.98545418   -7.4695385    531.67389  0.026530633  0.026475232            2 
 1671000   0.98480694   -7.4361943     533.1615  0.026588944  0.026468808            1 
 1672000   0.97400943   -7.4291906    532.57853  0.026543986  0.026462347            1 
 1673000   0.99978591   -7.4538853    532.36086  0.026517277  0.026455836            1 
 1674000     0.978064   -7.4039352    533.93866  0.026579981  0.026449407            1 
 1675000   0.99407336   -7.4277291    533.25205  0.026529952  0.026442984            2 
 1676000   0.99149226   -7.4926484     532.5091  0.026477183  0.026436481            1 
 1677000   0.97459242   -7.4869835    532.31728  0.026451863  0.026429932            4 
 1678000   0.99134514   -7.4871534    532.78731  0.026459441  0.026423351            2 
 1679000   0.99468595   -7.4499643     533.3072  0.026469486  0.026416838            1 
 1680000   0.97440917   -7.5057377    532.70485  0.026423852  0.026410343            3 
 1681000   0.97509797   -7.4697569    532.63136  0.026404489  0.026403867            3 
 1682000   0.96828241   -7.4369971    536.25296   0.02656822  0.026397342            2 
 1683000   0.98803421    -7.479559    532.98389  0.026390567  0.026390911            1 
 1684000   0.98596826   -7.4750483     533.5694   0.02640387   0.02638436            2 
 1685000   0.99618565   -7.4853612    534.30707  0.026424682  0.026377704            3 
 1686000   0.98963715   -7.4933734     534.6661  0.026426755   0.02637118            2 
 1687000    0.9723079   -7.4632087    535.46923  0.026450762  0.026364611            1 
 1688000   0.99500394   -7.4786252    534.30807  0.026377768   0.02635806            1 
 1689000    0.9738433   -7.4800871    535.24408  0.026408332  0.026351486            4 
 1690000    1.0011601   -7.4823387    533.93757  0.026328283  0.026344938            1 
 1691000   0.99910626   -7.4343001    537.15691  0.026471364  0.026338334            1 
 1692000   0.98089572   -7.4612453     535.1063  0.026354723  0.026331849            2 
 1693000   0.99116724   -7.4411147    535.81409  0.026373995  0.026325399            2 
 1694000   0.98423044   -7.5159578    535.43593  0.026339823  0.026318922            2 
 1695000   0.98009419    -7.480128    535.32512  0.026318836  0.026312352            2 
 1696000   0.96552877   -7.4446317     535.8047  0.026326882  0.026305839            5 
 1697000   0.97833344   -7.5100134     536.8998  0.026365145  0.026299353            2 
 1698000   0.98536914    -7.478862    537.41888  0.026375092   0.02629286            2 
 1699000     0.955895   -7.4505098    537.50672  0.026363877   0.02628627            2 
 1700000   0.98715216   -7.4638416    537.50741  0.026348402  0.026279775            1 
 1701000   0.96487149   -7.4546694     536.1971  0.026268719  0.026273341            2 
 1702000   0.96490796   -7.4899868    537.36072  0.026310259  0.026266754            3 
 1703000   0.98356012   -7.4541083    537.93766  0.026323041  0.026260192            3 
 1704000   0.98851444   -7.4769256    537.75143  0.026298486  0.026253702            3 
 1705000   0.97477205   -7.4860196    537.15461  0.026253891  0.026247143            1 
 1706000   0.98326548   -7.4831781    538.26183  0.026292587  0.026240564            1 
 1707000   0.97160151    -7.493437    538.56156  0.026291816  0.026234015            3 
 1708000     0.977916   -7.4631068    537.63257  0.026231097  0.026227433            2 
 1709000   0.97118067    -7.476197    541.08831  0.026384256  0.026220875            2 
 1710000   0.95647587   -7.4832103    538.97174  0.026265679  0.026214475            2 
 1711000   0.96940404   -7.4648774     539.2457  0.026263672   0.02620797            4 
 1712000    0.9731557   -7.4709056    538.82988   0.02622809  0.026201498            2 
 1713000   0.97962831   -7.4563344    540.75275  0.026306322   0.02619499            1 
 1714000   0.98468323   -7.4710042    540.52648  0.026279973  0.026188559            1 
 1715000   0.96428099   -7.4422642    540.89462  0.026282537  0.026182147            2 
 1716000   0.98959533   -7.5026893    539.68875  0.026208661  0.026175684            1 
 1717000   0.97819335   -7.4403355    541.75157  0.026293515  0.026169306            3 
 1718000   0.97849783   -7.4318254    542.18301  0.026299137  0.026162978            3 
 1719000   0.98917301   -7.5083041    541.91137   0.02627067  0.026156612            2 
 1720000   0.98641608   -7.4804329    543.00506  0.026308385   0.02615024            2 
 1721000   0.99386823   -7.4574026    541.51127  0.026220766  0.026143944            1 
 1722000   0.97816858   -7.4639476    544.10808  0.026331208  0.026137602            2 
 1723000   0.97151586   -7.4811487     541.8957  0.026208923  0.026131246            3 
 1724000   0.96625037   -7.4400145    543.17375  0.026255498  0.026124927       -1e+20 
 1725000   0.97268381   -7.4819777    543.14091  0.026238691  0.026118691            1 
 1726000   0.99442299   -7.4676281    543.71233  0.026251078   0.02611245            1 
 1727000   0.96690576   -7.4594051    543.44694  0.026223072  0.026106158            2 
 1728000   0.97538723   -7.4585781    543.48184  0.026209579  0.026099766            4 
 1729000    0.9731795   -7.4877281    542.62702  0.026153221  0.026093524            2 
 1730000   0.94361274   -7.4432878    543.01794  0.026156934  0.026087258            2 
 1731000   0.95944592   -7.4827756    543.17968  0.026149609  0.026080992            3 
 1732000   0.97925887   -7.4779998    542.85637  0.026118956  0.026074616            1 
 1733000   0.95606536    -7.491397    543.29884  0.026125161  0.026068233            1 
 1734000    1.0020687   -7.5169727    544.05178  0.026146279  0.026061814            3 
 1735000   0.99475911   -7.4910001    543.21536  0.026091035   0.02605548            2 
 1736000   0.97012267   -7.4572679    544.78567  0.026151386  0.026049141            3 
 1737000   0.97880658   -7.5279186    544.55447  0.026125239  0.026042661            3 
 1738000   0.99001432   -7.4933115    544.33119  0.026099501  0.026036105            1 
 1739000   0.99466093    -7.467276    545.36773  0.026134164  0.026029622            3 
 1740000   0.99950672   -7.5052466     545.3353  0.026117591  0.026023157            3 
 1741000   0.94941635   -7.4737988     545.7678  0.026123291  0.026016578            1 
 1742000   0.98738358   -7.4714433    544.38525  0.026042157  0.026010184            2 
 1743000   0.97038501   -7.4901325    545.27202  0.026069613  0.026003693            2 
 1744000   0.95598261   -7.4716921    546.20351  0.026099174  0.025997245            5 
 1745000   0.97094223   -7.4875772    545.72236   0.02606124  0.025990765            3 
 1746000   0.97062607   -7.4930973    546.49005  0.026082954   0.02598427            3 
 1747000   0.95883245   -7.4459447    547.26998  0.026105227  0.025977862            2 
 1748000   0.97482669   -7.5299618    546.12043   0.02603549  0.025971432            2 
 1749000   0.96564234   -7.4759969    546.27661  0.026028045  0.025965011            3 
 1750000   0.96338482   -7.4890072    546.22347  0.026010641  0.025958426            3 
 1751000   0.98401569   -7.4586034    545.75794  0.025973631  0.025951907            4 
 1752000   0.97951284    -7.489231    545.30786  0.025937398  0.025945332            2 
 1753000   0.99008562   -7.4650994    547.26805  0.026015785  0.025938728            2 
 1754000   0.98522978   -7.4540621    547.23002  0.025999146  0.025932188            1 
 1755000   0.95505944   -7.5082691    546.45875  0.025947709  0.025925523            2 
 1756000   0.94975885   -7.4936716    545.37501  0.025881502  0.025918758            5 
 1757000   0.98168353   -7.4866986    546.04049  0.025898335  0.025911959            6 
 1758000   0.97196825   -7.4997975    546.92162  0.025925371  0.025905187            1 
 1759000   0.99419068   -7.5147119    545.10808  0.025824715  0.025898404            5 
 1760000   0.97093686   -7.4937158    547.52973  0.025924703  0.025891569            4 
 1761000   0.96239045   -7.4823827    546.39664  0.025856362  0.025884735            3 
 1762000   0.96859253   -7.4954152    547.56879  0.025897124  0.025878009            3 
 1763000   0.97014108   -7.5005848    546.95215  0.025853288  0.025871298            1 
 1764000   0.96007241   -7.5010241    549.36919  0.025952815  0.025864618            1 
 1765000   0.97805064   -7.4806119     548.0031  0.025873612  0.025857891            3 
 1766000   0.96866262   -7.5003528     547.2056  0.025821329  0.025851188            3 
 1767000   0.96152268   -7.5025562    547.75204  0.025832486  0.025844423            3 
 1768000   0.97226745   -7.5157577    547.41314  0.025801902  0.025837705            4 
 1769000   0.99207551   -7.4885517    548.82867  0.025853998  0.025831043            1 
 1770000   0.96713306   -7.5309575    547.79401  0.025790679  0.025824315            1 
 1771000   0.95127141   -7.5016552    549.42803  0.025853004  0.025817622            2 
 1772000   0.95547132    -7.500812    548.01128  0.025771787  0.025810904            2 
 1773000   0.97758714   -7.5187711      547.866  0.025750423  0.025804215            2 
 1774000    0.9618598   -7.4650468    549.80145  0.025826825  0.025797547            2 
 1775000   0.96112011     -7.50064    550.04967  0.025823928    0.0257909            2 
 1776000   0.97049608   -7.4881952    550.88414  0.025848542  0.025784159            2 
 1777000   0.96337428   -7.5134369    550.02073  0.025793506  0.025777468            2 
 1778000   0.96297604   -7.4945145    550.32921  0.025793458  0.025770762            3 
 1779000   0.96913209   -7.5109122    550.39832  0.025782196  0.025764096            3 
 1780000   0.96722705    -7.519535    551.11651  0.025801335  0.025757416            1 
 1781000   0.96943462   -7.4774511    551.75533  0.025816738  0.025750795            1 
 1782000   0.96961302   -7.5226295    552.46314   0.02583535  0.025744223            1 
 1783000   0.97245354   -7.4896802     551.9857  0.025798547  0.025737621            1 
 1784000   0.98926762   -7.5116032    551.35586  0.025754665  0.025731084            3 
 1785000   0.95756227   -7.4881001     552.6342  0.025799916  0.025724697            2 
 1786000   0.95810539   -7.4855686    553.56655  0.025828973  0.025718246            4 
 1787000   0.97723188   -7.4816276    552.70759  0.025774463  0.025711757            2 
 1788000   0.97009897   -7.4963662    552.44446  0.025747784  0.025705301            2 
 1789000   0.97214368   -7.4985419    553.25492  0.025771144  0.025698847            1 
 1790000   0.96858294   -7.4851249    553.45687  0.025766149  0.025692398            1 
 1791000   0.95898842   -7.4985809    552.81551   0.02572192  0.025685884            1 
 1792000   0.99648916    -7.495371    553.98573  0.025761985  0.025679297            2 
 1793000   0.96988996   -7.4646142     554.4408  0.025768767  0.025672803            3 
 1794000   0.94543457   -7.4974504    552.90154  0.025682903   0.02566627            2 
 1795000    0.9796853   -7.5151191    553.10644  0.025678108  0.025659621            1 
 1796000    0.9731598   -7.4843886    553.59401  0.025686433  0.025653058            1 
 1797000   0.95396861   -7.5156766     553.6285  0.025673739  0.025646453            3 
 1798000   0.97606475   -7.5043953    552.96587  0.025628748  0.025639759            1 
 1799000    0.9606687   -7.4999488    554.83211   0.02570095  0.025633038            3 
 1800000   0.95373841   -7.5025059    553.75457  0.025636785  0.025626314            3 
 1801000   0.97033246   -7.5122316    553.10806  0.025592636  0.025619568            1 
 1802000   0.94495234   -7.5279481    554.28026  0.025632642  0.025612926            2 
 1803000   0.96592446    -7.493215    553.70498  0.025591837   0.02560622            2 
 1804000   0.97393569   -7.5124101    554.07328  0.025594664  0.025599485            2 
 1805000   0.97875407   -7.5323563     554.0821  0.025580891  0.025592722            1 
 1806000   0.96768142   -7.5217938    553.94387  0.025560348  0.025585911            2 
 1807000   0.96092536   -7.5369665    554.64854    0.0255787  0.025579236            1 
 1808000   0.96127918   -7.4657384    556.55622   0.02565248  0.025572516            1 
 1809000   0.98501615   -7.5219368     556.1247  0.025618422  0.025565828            2 
 1810000   0.97750122   -7.4823606    554.03888  0.025508236  0.025559058            2 
 1811000   0.95847938   -7.4380811    555.20962  0.025548022   0.02555235            2 
 1812000   0.94488074   -7.5359859    554.23481  0.025489092  0.025545498            1 
 1813000   0.97207925   -7.5280583    554.84446  0.025503055  0.025538604            2 
 1814000   0.95094311   -7.4841694    556.39409  0.025560184  0.025531709            7 
 1815000   0.97068172   -7.5196716    553.49896  0.025413175  0.025524843            2 
 1816000   0.95554586   -7.5166721    554.53898  0.025446906  0.025517954            1 
 1817000   0.95617231   -7.5083429    554.17017  0.025415987  0.025511043            1 
 1818000   0.95445834   -7.5278229     555.2621  0.025452058  0.025504069            2 
 1819000   0.95878728   -7.5453464    555.19882  0.025435167  0.025497152            4 
 1820000   0.93202794   -7.5113854    556.49686  0.025480626  0.025490233            1 
 1821000   0.96503352   -7.5163188    555.73448  0.025431745   0.02548331            4 
 1822000   0.93953727   -7.5311598     555.7299  0.025417577  0.025476406            3 
 1823000   0.95715972   -7.5255149    555.81334  0.025407448   0.02546952            2 
 1824000   0.95828845   -7.5378932    556.60322  0.025429606  0.025462718            2 
 1825000   0.94191599   -7.5073291    556.56689  0.025414013  0.025455925            1 
 1826000   0.95846075    -7.546641    556.05075   0.02537654  0.025449057            4 
 1827000   0.94169832   -7.5309865    556.55859  0.025385814  0.025442162            3 
 1828000   0.95356696     -7.53856    554.69939  0.025287171  0.025435182            2 
 1829000   0.97849036   -7.5273801    556.32804  0.025347551  0.025428192            1 
 1830000   0.97520108    -7.535191    555.87786    0.0253132  0.025421277            2 
 1831000   0.95776559   -7.5034191    557.95583  0.025393948  0.025414366            1 
 1832000   0.96558068   -7.5330449    556.53561  0.025315485  0.025407443            5 
 1833000   0.97972819    -7.504805    558.63365  0.025397056  0.025400557            2 
 1834000   0.96563396    -7.521776     558.5625  0.025379976   0.02539384            2 
 1835000    0.9785674   -7.5168858    557.67071  0.025325645  0.025387025            3 
 1836000   0.97647033   -7.5345283    557.04238  0.025283332  0.025380192            3 
 1837000   0.96779657   -7.4626778    558.43337  0.025332669  0.025373321            2 
 1838000   0.95292136   -7.5294444    558.10047  0.025303793  0.025366408            2 
 1839000   0.96426385   -7.4955775    557.69986  0.025271881  0.025359574            3 
 1840000   0.93732371   -7.5237244    558.32967   0.02528667  0.025352731            4 
 1841000    0.9468092   -7.4985332    561.93097  0.025435948  0.025345922            4 
 1842000   0.96322599   -7.4931963    560.31858  0.025349194   0.02533917            2 
 1843000   0.96019291   -7.5349721    559.41258  0.025294474  0.025332209            2 
 1844000   0.95626129    -7.538812    558.64097  0.025245886  0.025325357            2 
 1845000   0.99007078   -7.5371295    560.29116  0.025306737  0.025318489            2 
 1846000   0.94822533   -7.5171488    559.90406  0.025275554  0.025311664            2 
 1847000   0.98335152   -7.5162057    559.59076  0.025247733  0.025304882            1 
 1848000   0.94406228   -7.5253704    559.91379  0.025248638  0.025298171            2 
 1849000   0.96187196   -7.4910817    560.50426  0.025261595  0.025291371            1 
 1850000   0.94910328   -7.5670425    560.14623  0.025231812  0.025284413            2 
 1851000   0.94842241   -7.4807509    561.17317  0.025264414  0.025277564            3 
 1852000   0.94137353    -7.529521    561.19742  0.025251864  0.025270667            2 
 1853000   0.95758578   -7.5554045    559.58715  0.025165819  0.025263728            1 
 1854000   0.96558438   -7.5355241    560.97469  0.025214612  0.025256789            3 
 1855000   0.97892862    -7.543119    561.01764  0.025202949  0.025249851            2 
 1856000   0.95865019   -7.5400274    559.18592  0.025107127   0.02524297            2 
 1857000   0.96193636   -7.5461461    560.30048  0.025143622  0.025236008            2 
 1858000   0.96364091   -7.5480546    561.63836  0.025190095  0.025229099            2 
 1859000   0.94611833   -7.5281012    561.16261  0.025155218  0.025222264            1 
 1860000   0.96231451   -7.5340473    561.12382  0.025139956  0.025215312            2 
 1861000    0.9593436    -7.557475    562.22591  0.025175797   0.02520832            1 
 1862000   0.92976517   -7.5451289    561.11054  0.025112359  0.025201327            2 
 1863000   0.95005494     -7.52802    559.99249  0.025048868  0.025194304            1 
 1864000   0.94641871   -7.5857657    561.77072  0.025114928  0.025187269            1 
 1865000   0.96855465   -7.5413953    563.40729  0.025174589   0.02518022            1 
 1866000   0.95347286   -7.5445515    561.38455  0.025070764  0.025173258            2 
 1867000   0.94139602   -7.5313097    563.85125  0.025167437  0.025166285            2 
 1868000   0.93766629   -7.5359842    562.34614  0.025086819  0.025159323            4 
 1869000   0.97067256   -7.5104147    563.21036   0.02511193  0.025152284            2 
 1870000    0.9771623   -7.5451404    560.71014  0.024987083  0.025145292            2 
 1871000   0.96439367   -7.5093989    561.96966  0.025029826  0.025138307            4 
 1872000    0.9375308   -7.5624573    562.44205  0.025037484  0.025131266            1 
 1873000   0.94226731   -7.5343395    564.00008  0.025093437  0.025124384            4 
 1874000   0.96119064   -7.5321333    563.23813  0.025046164  0.025117473            2 
 1875000   0.97297246   -7.5376442    562.94362  0.025019716  0.025110421            3 
 1876000   0.97142016    -7.530456    563.41683    0.0250274  0.025103408            2 
 1877000   0.95542058   -7.5316854    564.35667  0.025055793  0.025096432            1 
 1878000    0.9615478   -7.5181942    566.36874  0.025131733  0.025089558            1 
 1879000   0.95458098   -7.5191172    564.77936  0.025047869   0.02508261            1 
 1880000   0.94496642   -7.5341407    564.65985  0.025029249  0.025075568            3 
 1881000   0.95608704   -7.5172258    563.42215  0.024961109  0.025068547            2 
 1882000   0.93982777   -7.5478179    564.19247  0.024981955  0.025061525            3 
 1883000   0.93788265    -7.545151    565.13344  0.025010331  0.025054556            2 
 1884000   0.96782231   -7.5117564     565.6786   0.02502117  0.025047642            2 
 1885000   0.96176945   -7.5629678    564.41941  0.024952228  0.025040668            3 
 1886000    0.9700424   -7.5117257    566.51624  0.025031647  0.025033675            3 
 1887000   0.95336291   -7.5438055    566.94061  0.025037123  0.025026682            3 
 1888000   0.93412151   -7.5670766    564.70229  0.024925066  0.025019709            3 
 1889000   0.93518397   -7.5802765    565.32249  0.024939231  0.025012625            3 
 1890000   0.96145478   -7.5481844    565.62383  0.024939322  0.025005626            1 
 1891000   0.96093765   -7.5630667    564.83628  0.024891428  0.024998701            2 
 1892000   0.94117606   -7.5307797    565.25271  0.024896613   0.02499165            2 
 1893000   0.94968071   -7.5484231     566.2948  0.024929336  0.024984613            2 
 1894000   0.93591131    -7.509926    566.36445  0.024919238  0.024977594            2 
 1895000   0.94778961   -7.5351542    566.25326  0.024901199  0.024970615            3 
 1896000   0.93145945   -7.5434571    566.52198  0.024899876  0.024963667            2 
 1897000   0.95152402   -7.5235068    567.42651  0.024926485  0.024956782            5 
 1898000   0.95247722   -7.5166978    565.73281  0.024838989  0.024949829            2 
 1899000   0.93117475   -7.5220976    567.76255  0.024914979  0.024942891            5 
 1900000   0.94078624   -7.5464055    565.94957  0.024822349  0.024935896            2 
 1901000   0.95574833   -7.5659269    566.15409  0.024818257  0.024928888            4 
 1902000   0.96780392   -7.5628294    565.04906  0.024756794  0.024921757            1 
 1903000   0.96154256   -7.5435346    567.79019   0.02486382  0.024914666            3 
 1904000   0.94431856   -7.5507056    565.49747  0.024750414  0.024907615            2 
 1905000   0.95100687   -7.5499534    567.43304  0.024822093  0.024900512            2 
 1906000   0.92942019   -7.5072104     567.2208   0.02479979  0.024893444            1 
 1907000   0.94535764   -7.5382767    567.56214  0.024801702  0.024886374            2 
 1908000   0.94134435   -7.5693352    566.02251  0.024721458  0.024879206            3 
 1909000   0.93490953   -7.5443271     565.9865  0.024706936  0.024872022            3 
 1910000   0.95126193   -7.5481982    568.21554  0.024791254  0.024864919            1 
 1911000   0.95388048   -7.5513306    567.01184  0.024725791  0.024857771            3 
 1912000   0.94152841   -7.5422751    566.16801  0.024676081  0.024850626            1 
 1913000   0.96382984   -7.5812981    567.90394  0.024738802  0.024843479            6 
 1914000     0.950213   -7.5700426    566.26193  0.024654386  0.024836309            1 
 1915000   0.92497213   -7.5331384    570.04859  0.024806292  0.024829205            1 
 1916000   0.96218232   -7.5710412    566.57256  0.024642161  0.024822055            2 
 1917000   0.97482574   -7.5433282    568.41207  0.024709271   0.02481484            1 
 1918000   0.95125687   -7.5742792    568.15334  0.024685147  0.024807629            2 
 1919000   0.96398909   -7.5322944    567.46541   0.02464241  0.024800453            2 
 1920000   0.95102779   -7.5752908    568.68288  0.024682417  0.024793212            2 
 1921000   0.95607847   -7.5909487    567.35133  0.024611805  0.024785915            3 
 1922000   0.94264645   -7.6003575    567.80739  0.024618773  0.024778635            3 
 1923000   0.94721351   -7.5407092    568.49205  0.024635641   0.02477139            1 
 1924000   0.92132146   -7.5447203    567.98292  0.024600785  0.024764178            2 
 1925000   0.95753269   -7.5600562    569.92784  0.024672201   0.02475697            6 
 1926000   0.93534946   -7.5466184    568.58379  0.024601237  0.024749849            5 
 1927000    0.9644865   -7.5369536    570.47115  0.024670089  0.024742713            2 
 1928000   0.95872258   -7.5698051    570.91775  0.024676597  0.024735649            3 
 1929000   0.94540023   -7.5628144    571.38558  0.024684015  0.024728509            3 
 1930000   0.94696712   -7.5642633    570.90194  0.024650343  0.024721504            2 
 1931000   0.92200993   -7.5337336    570.07102  0.024601719  0.024714458            3 
 1932000   0.92647811   -7.5526756    570.19398  0.024594288  0.024707279            4 
 1933000     0.956009   -7.5405219    570.33903  0.024587818   0.02470017            1 
 1934000   0.94451376   -7.5480699    571.53841  0.024626784  0.024693106            1 
 1935000   0.95293234    -7.561691    571.88159  0.024628837  0.024686073            2 
 1936000   0.94748406     -7.53215    571.64714  0.024606023   0.02467901            3 
 1937000   0.94433141   -7.5445867    571.47158  0.024585767  0.024671981            3 
 1938000   0.93792051   -7.5216994    571.52821  0.024575516  0.024664957            3 
 1939000   0.92254475   -7.5693884    573.18057  0.024633856  0.024657945            2 
 1940000   0.92751887   -7.5320642    571.44421  0.024546573  0.024650841            3 
 1941000   0.92967417   -7.5341621    571.17232  0.024522253  0.024643859            1 
 1942000   0.93883911   -7.5730754    571.92915  0.024542102   0.02463686            2 
 1943000   0.92603587   -7.5711794    572.82626  0.024567947  0.024629751            2 
 1944000   0.94555956    -7.570136    572.58165  0.024544824  0.024622726            5 
 1945000   0.94474112   -7.5554034    571.65566   0.02449253  0.024615642            1 
 1946000   0.96168556    -7.544732    572.57978  0.024519518  0.024608508            4 
 1947000    0.9300034   -7.5857045    571.07138  0.024442364  0.024601404            2 
 1948000   0.94308105   -7.5663819    570.23331  0.024393964  0.024594224            2 
 1949000   0.93843459   -7.5889817    570.52054  0.024393729  0.024586985            2 
 1950000    0.9262342   -7.5450949     573.3132  0.024500564  0.024579735            3 
 1951000   0.93568661   -7.5231032    572.59347  0.024457264  0.024572587            3 
 1952000   0.93493008   -7.5836063    572.42392  0.024437497  0.024565434            3 
 1953000   0.93936482    -7.522435    572.64629  0.024434472  0.024558241            3 
 1954000   0.93756374   -7.6077565    571.35471  0.024366884     0.024551            2 
 1955000   0.96843482   -7.5625808    571.52346  0.024361614  0.024543737            2 
 1956000   0.93843762   -7.5632869    572.25516  0.024380332  0.024536434            4 
 1957000   0.93197041   -7.5530416    574.24762  0.024452718  0.024529178            1 
 1958000    0.9377958   -7.5830927    572.38489   0.02436095  0.024522029            1 
 1959000   0.93466364   -7.5770967    573.68629  0.024403875  0.024514774            2 
 1960000   0.92642416   -7.5813859    572.01879  0.024320527  0.024507459            2 
 1961000    0.9154597   -7.5556187    573.13649  0.024355622  0.024500219            6 
 1962000   0.94473524   -7.5583122    574.21613  0.024389064  0.024492972            2 
 1963000   0.95076183   -7.5723773    575.18959  0.024417965   0.02448574            2 
 1964000   0.95073041   -7.5495967    574.25098  0.024365707  0.024478599            4 
 1965000   0.93694684   -7.5595996    572.99881  0.024300204  0.024471447            2 
 1966000   0.93986552   -7.5212104    575.57511  0.024397046  0.024464296            4 
 1967000   0.93165925   -7.5602022    575.74427  0.024391809  0.024457185            3 
 1968000   0.94981178   -7.5492061    575.34191  0.024362378  0.024450065            2 
 1969000   0.93526795   -7.5343016    575.06117  0.024338123    0.0244429            1 
 1970000   0.92831684   -7.5508393    574.96589  0.024321738  0.024435743            2 
 1971000   0.93788263   -7.5692584    575.23351  0.024320713  0.024428584            1 
 1972000   0.92723629    -7.541632    575.77367  0.024331207  0.024421315            1 
 1973000    0.9479262   -7.5926726    574.06906  0.024246877  0.024414069            2 
 1974000   0.92011031   -7.5763773    575.94288  0.024313698  0.024406828            2 
 1975000   0.92318173   -7.5476904    576.59866  0.024329057  0.024399714            3 
 1976000   0.93548328    -7.578403    573.73853  0.024196126   0.02439254            2 
 1977000   0.95027691   -7.5785235    576.46839  0.024298954  0.024385422            2 
 1978000   0.95251817   -7.5552599    577.25282  0.024319718  0.024378298            2 
 1979000   0.95112384   -7.5583283    576.29833  0.024267237  0.024371164            1 
 1980000   0.94688178   -7.5783997    576.27466  0.024253984  0.024364033            2 
 1981000   0.92798955    -7.559652    576.43264  0.024248386  0.024356964            2 
 1982000   0.94045041   -7.5595852     577.1238  0.024265212  0.024349876            1 
 1983000   0.93549072   -7.5593602    577.75139  0.024279349  0.024342746            3 
 1984000   0.92950434   -7.5884701     576.5186  0.024215331  0.024335578            1 
 1985000   0.93720731   -7.5844659    577.67258  0.024251578  0.024328382            1 
 1986000   0.90822769   -7.5666687    576.54131  0.024191898  0.024321317            2 
 1987000   0.93968317   -7.6110946    576.34104  0.024171324  0.024314186            2 
 1988000   0.93820619   -7.5791871    578.65033  0.024255966  0.024307165            2 
 1989000   0.92788003   -7.5998434    576.65238  0.024160063  0.024300127            1 
 1990000   0.94570535   -7.5824701    577.02191  0.024163397  0.024293071            1 
 1991000   0.93644304    -7.576531    576.84867  0.024144009  0.024286001            2 
 1992000   0.92392337   -7.5926352    577.01654  0.024138911  0.024278894            1 
 1993000   0.91857277   -7.5668576    577.94194  0.024165493  0.024271728            1 
 1994000   0.93594946   -7.5591148    578.12574  0.024161056   0.02426469            2 
 1995000   0.95856689   -7.5683667    579.04922   0.02418752  0.024257622            1 
 1996000   0.93926768   -7.5618017    579.96525  0.024213646  0.024250563            3 
 1997000   0.97024929   -7.5755443     577.8072  0.024111467  0.024243481            4 
 1998000    0.9393455   -7.5815063    580.57281  0.024214749  0.024236451            2 
 1999000   0.93737495   -7.5817417    578.49176  0.024115881  0.024229369            4 
 2000000   0.94572631   -7.5443592     579.7924  0.024158017  0.024222281            2 
 2001000   0.91451535    -7.586026    578.63013   0.02409754  0.024215198            1 
 2002000   0.94690214   -7.6055246    579.52553  0.024122774  0.024208056            1 
 2003000   0.94108644   -7.6209341    578.31508  0.024060371  0.024200932            1 
 2004000   0.91189261   -7.6026593    579.10466  0.024081198  0.024193848            3 
 2005000   0.93086365    -7.593637    578.80735  0.024056831  0.024186692            1 
 2006000   0.91919671   -7.5998475    581.29457  0.024148163  0.024179554            2 
 2007000   0.94471078   -7.5780062    580.55582  0.024105457  0.024172473            1 
 2008000    0.9506317   -7.5768792     578.1338  0.023992936  0.024165329            2 
 2009000   0.92314297   -7.6144714    579.18262  0.024024499  0.024158145            1 
 2010000   0.90400851   -7.5757454    580.10883  0.024050947     0.024151            1 
 2011000   0.91418506   -7.6483214    578.97683  0.023992078  0.024143836            3 
 2012000   0.91964952   -7.5615724    581.14123  0.024069799  0.024136693            5 
 2013000   0.92033215    -7.561243    581.24657  0.024062203  0.024129522            1 
 2014000   0.94227882   -7.5599849    581.75022  0.024071095   0.02412237            2 
 2015000   0.92239346   -7.5902729    579.63895  0.023971834    0.0241152            2 
 2016000   0.92519315   -7.5694564    580.67303  0.024002688  0.024108019            6 
 2017000    0.9478392   -7.5808044    581.89526  0.024041285   0.02410082            2 
 2018000   0.92118885   -7.5679409    581.79626  0.024025283  0.024093626            5 
 2019000   0.92855484   -7.5525971    581.36264  0.023995486  0.024086538            2 
 2020000   0.91479876   -7.5805688    582.04794  0.024011879  0.024079411            3 
 2021000   0.94316492   -7.5298365    582.60797  0.024023089  0.024072307            4 
 2022000   0.92027282   -7.5848053    580.74002  0.023934224  0.024065205            2 
 2023000   0.93856704   -7.5820331     581.6714   0.02396076  0.024058125            2 
 2024000   0.90573633   -7.5990132    580.61231  0.023905316  0.024050989            1 
 2025000   0.91120143    -7.623085    581.38525  0.023925319  0.024043815            2 
 2026000   0.93309064   -7.6205426    583.40938  0.023996766  0.024036738            1 
 2027000   0.92008937    -7.602756    580.72975  0.023874763  0.024029571            3 
 2028000   0.94990493   -7.6112566    581.84088  0.023908649  0.024022394            1 
 2029000   0.91737577   -7.5951463    581.90946  0.023899682  0.024015228            2 
 2030000    0.9237819   -7.6109611    581.30594  0.023863134  0.024007971            2 
 2031000   0.91654977   -7.5716282    582.92071  0.023917639  0.024000771            1 
 2032000   0.92282937   -7.5873044    581.14972   0.02383324  0.023993547            1 
 2033000   0.94251253   -7.5739644     580.8583  0.023809571  0.023986333            1 
 2034000   0.94073219   -7.5805654    580.60506   0.02378749   0.02397907            3 
 2035000   0.92152815   -7.5851423    582.27051  0.023844001  0.023971793            2 
 2036000   0.91121495   -7.5791199    581.60919  0.023805222  0.023964503            3 
 2037000   0.93555216   -7.5929542    580.47463  0.023747121  0.023957187            2 
 2038000   0.92031972   -7.6177031    579.81872  0.023708649  0.023949776            3 
 2039000   0.92438174   -7.6007587    581.05415  0.023747513  0.023942335            3 
 2040000   0.91601772   -7.6219038    582.25787  0.023785044  0.023934862            2 
 2041000   0.92954836   -7.6103453     581.0749   0.02372509  0.023927446            3 
 2042000   0.91424596   -7.6011869    581.92583  0.023748198  0.023919965            2 
 2043000   0.92513936   -7.6040222    581.85926  0.023733858  0.023912511            2 
 2044000   0.92761441   -7.5979475    580.97682   0.02368627  0.023905037            2 
 2045000    0.9381512   -7.5716266    582.51955  0.023737553  0.023897647            3 
 2046000   0.92189628   -7.5947977    582.71895  0.023734073  0.023890258            2 
 2047000   0.93127517   -7.5879641    581.33486  0.023666132  0.023882917            1 
 2048000   0.91750263   -7.5936527    581.77759  0.023672591  0.023875505            3 
 2049000   0.91480346    -7.619842    581.56035  0.023652202  0.023868095            1 
 2050000    0.9179944   -7.5920643    583.91667   0.02373645  0.023860676            3 
 2051000    0.9107415    -7.636316     580.6471  0.023592032  0.023853275            1 
 2052000   0.92885305   -7.6172082    581.15996  0.023601363  0.023845789            3 
 2053000   0.91446948   -7.5871496    581.50313  0.023603796  0.023838275            2 
 2054000   0.91176679   -7.6376009    582.26673  0.023623285  0.023830814            2 
 2055000   0.89296249    -7.599319    582.66911  0.023628107  0.023823403            2 
 2056000   0.94487958   -7.6275589    582.68131  0.023617109  0.023815929            1 
 2057000   0.92438732   -7.5936191    583.70817  0.023647228  0.023808563            2 
 2058000   0.92786997   -7.5890593    583.59104  0.023630994  0.023801197            2 
 2059000   0.91667543   -7.6071734    583.68938  0.023623498  0.023793831            1 
 2060000   0.93899687   -7.5807054    584.12854  0.023629795  0.023786459            4 
 2061000   0.91985967   -7.6132214     581.8352  0.023525602  0.023779125            2 
 2062000   0.92248881   -7.5970124    583.07714  0.023564385  0.023771683            3 
 2063000   0.91209208   -7.6065565    582.69658   0.02353759  0.023764278            2 
 2064000   0.90921294   -7.6141482      584.803  0.023611232  0.023756931            2 
 2065000   0.93659697   -7.6012245    582.97398  0.023525988  0.023749489            3 
 2066000   0.90734255   -7.6129141    583.96519  0.023554582  0.023742021            1 
 2067000   0.92413325   -7.5859734    583.48017  0.023523632  0.023734632            2 
 2068000   0.92205149   -7.6147434    582.65058  0.023478827  0.023727168            2 
 2069000   0.91920867   -7.6146979    585.08114  0.023565375   0.02371969            1 
 2070000   0.94039182   -7.6089965    584.92712   0.02354779  0.023712336            2 
 2071000   0.92137455   -7.6026126    584.33453  0.023512576  0.023704919            2 
 2072000   0.90954402   -7.5958811    586.96469   0.02360701  0.023697544            2 
 2073000   0.90454857    -7.642799    584.59292  0.023500278  0.023690171            2 
 2074000   0.92531362   -7.5925978     584.7802  0.023496472  0.023682744            2 
 2075000   0.92751831   -7.6089272    584.52873  0.023475049  0.023675321            2 
 2076000   0.90464089   -7.6102339    585.87865  0.023517929  0.023667927            1 
 2077000   0.89875994   -7.6275759    585.18214  0.023478661  0.023660512            2 
 2078000   0.93446939   -7.6165447    584.45973  0.023438391  0.023653154            3 
 2079000   0.91123598   -7.6254465    584.48894  0.023428288  0.023645785            2 
 2080000   0.92590723   -7.6352783    584.31036   0.02340987  0.023638418            2 
 2081000   0.93239687   -7.6302728    586.59028   0.02348992   0.02363109            2 
 2082000   0.92134882   -7.6108707    585.91002   0.02345141  0.023623685            2 
 2083000   0.93446918   -7.6601479    585.76563  0.023434375  0.023616353            4 
 2084000   0.93699226   -7.6210734    587.42309  0.023489407  0.023609055            3 
 2085000    0.9120877    -7.637825    587.22771  0.023470332  0.023601721            3 
 2086000   0.91693227   -7.6476513    585.35883  0.023384421  0.023594374            2 
 2087000   0.91793137   -7.6455284     585.2405  0.023368491  0.023587055            1 
 2088000   0.91268355   -7.6386883    586.46462  0.023406155  0.023579671            2 
 2089000   0.89620361   -7.6258798    587.18682   0.02342376  0.023572346            1 
 2090000   0.90272805    -7.633926    585.74346  0.023355003  0.023564991            3 
 2091000    0.9231013   -7.6213445    586.05227   0.02335614  0.023557674            2 
 2092000   0.90159738   -7.6000109     587.5765  0.023405692  0.023550414            2 
 2093000   0.90384768   -7.6066755    588.02753  0.023412467  0.023543186            5 
 2094000   0.92529858     -7.62127    587.27107  0.023371182  0.023535927            4 
 2095000   0.91199358   -7.6379671    588.68428   0.02341624  0.023528663            2 
 2096000   0.91223059   -7.6154199    588.47986  0.023396941  0.023521455            4 
 2097000   0.91035361   -7.6062529    589.53612  0.023427759  0.023514335            2 
 2098000   0.92174623   -7.5947229    589.53989  0.023416742  0.023507203            2 
 2099000   0.92506071   -7.6098109     588.5085  0.023364638  0.023500044            3 
 2100000    0.9035233   -7.6323354    589.32186  0.023385788  0.023492868            1 
 2101000   0.92243835   -7.6381651     589.5646  0.023384285  0.023485704            3 
 2102000   0.88804529   -7.6433662    589.04777  0.023352671  0.023478552            4 
 2103000   0.89998689    -7.641872    588.77581   0.02333079  0.023471319            1 
 2104000   0.89710894   -7.6169319    590.56895  0.023390722  0.023464213            2 
 2105000   0.91113125   -7.5679805    592.49245  0.023455758  0.023457157            2 
 2106000   0.92078148   -7.5901172    591.26387  0.023396006  0.023450151            5 
 2107000   0.92073547   -7.5984456    591.27747   0.02338544  0.023443159            2 
 2108000   0.90740732   -7.6450294    589.98351  0.023323194  0.023436118            2 
 2109000   0.91451638   -7.6119962    591.53617  0.023373485  0.023429045            4 
 2110000   0.91014364   -7.6377448    592.23119  0.023389858  0.023422028            1 
 2111000   0.91339949   -7.6408368    591.90355  0.023365843  0.023415009            2 
 2112000   0.91721586   -7.6325079     592.5326  0.023379601  0.023407999            2 
 2113000   0.92248225   -7.6249866    592.24321  0.023357123     0.023401            2 
 2114000   0.89460354   -7.6214617    592.20703  0.023344648  0.023394035            3 
 2115000   0.90665389   -7.6189901     592.3694  0.023340008  0.023387033            1 
 2116000   0.91081532   -7.6389319    591.93609  0.023311913  0.023380071            1 
 2117000   0.91439402    -7.625369    592.30391   0.02331538  0.023373078            4 
 2118000   0.90169236   -7.6216724     592.0587  0.023294724  0.023366041            3 
 2119000   0.91075301   -7.6592904     592.3736  0.023296115  0.023359024            2 
 2120000   0.91665678   -7.6762795    591.80805  0.023262895  0.023351967            1 
 2121000    0.9249778   -7.6372819    592.31097  0.023271687  0.023345007            2 
 2122000   0.90129566   -7.6632618    592.71827  0.023276715  0.023338004            3 
 2123000   0.90831463   -7.6390505    592.89826  0.023272816  0.023330923            2 
 2124000   0.93200391   -7.6063891    594.60912  0.023328983  0.023323962            2 
 2125000   0.90212131    -7.667635    593.41587  0.023271211   0.02331695            2 
 2126000   0.90919758   -7.6325071      593.941  0.023280848  0.023309917            1 
 2127000   0.91139189   -7.6660799     591.7247  0.023183071  0.023302863            2 
 2128000   0.91354969    -7.656832    593.57402  0.023244597  0.023295785            2 
 2129000   0.90981009   -7.6330126     594.8906  0.023285212   0.02328876            2 
 2130000   0.90727175   -7.6235669    594.52394  0.023259935  0.023281742            3 
 2131000    0.9033697   -7.6647635    595.01521  0.023268231  0.023274745            2 
 2132000   0.88721501   -7.6567472    594.36712  0.023231986  0.023267803            2 
 2133000   0.89113708   -7.6612442    595.47959  0.023264557  0.023260784            2 
 2134000   0.92290278   -7.6510341      595.056  0.023237114  0.023253859            2 
 2135000   0.89742451    -7.635154    594.44964  0.023202562  0.023246938            3 
 2136000   0.92455539   -7.6282244    594.87385  0.023208249   0.02324005            1 
 2137000   0.89360013   -7.6131901    594.46282  0.023181361  0.023233138            1 
 2138000   0.90528714   -7.6292605    594.18056  0.023159517  0.023226235            1 
 2139000   0.90360064   -7.6390057    595.18276  0.023187734   0.02321937            1 
 2140000   0.91658901   -7.6904145    595.01455  0.023170349  0.023212469            1 
 2141000   0.91885498   -7.6251875    596.21437  0.023206226   0.02320561            4 
 2142000   0.89305008    -7.649723    596.56927    0.0232092  0.023198701            1 
 2143000   0.90141786   -7.6425013    596.30455  0.023188075  0.023191802            2 
 2144000   0.92390428   -7.6538512    595.78713  0.023157149  0.023184904            1 
 2145000   0.89024415   -7.6267948    596.50629  0.023174293  0.023178036            3 
 2146000   0.91231745   -7.6448855     595.7704  0.023134918  0.023171171            1 
 2147000   0.91403033   -7.6786974    596.29863  0.023144645  0.023164274            1 
 2148000   0.93445715   -7.5924821    598.67909  0.023226222  0.023157502            2 
 2149000   0.90438911   -7.6264216    598.48524  0.023207897  0.023150713            2 
 2150000   0.88433842   -7.6394248    597.32846  0.023152266   0.02314387            1 
 2151000   0.89224965   -7.6454997    597.25943  0.023138828  0.023137015            1 
 2152000   0.92078727   -7.6430107    599.19168    0.0232029  0.023130208            7 
 2153000   0.90410889   -7.6103045    599.72392  0.023212723  0.023123438            3 
 2154000   0.90054861   -7.6355361    599.90665  0.023209016  0.023116739            1 
 2155000   0.91636862    -7.608755    598.38164  0.023139275  0.023110099            2 
 2156000   0.90436998   -7.6136152    600.06158  0.023193475  0.023103458            3 
 2157000   0.90250969   -7.6492157    599.18571  0.023148884   0.02309678            2 
 2158000   0.89914916   -7.6843451    599.47574  0.023149357   0.02309005            4 
 2159000   0.91376746   -7.6329657    600.50303  0.023178286  0.023083362            3 
 2160000   0.90596939   -7.6591526    598.50259  0.023090378  0.023076767            3 
 2161000   0.89348593   -7.6525357    600.63401  0.023161885  0.023070105            2 
 2162000   0.90113802    -7.617113    602.21425  0.023212082  0.023063494            4 
 2163000   0.90585995   -7.6847056    599.78603  0.023107799  0.023056867            3 
 2164000   0.92733302   -7.6587739    600.67565  0.023131379  0.023050243            2 
 2165000   0.89341376   -7.6804438    602.78274  0.023201799  0.023043657            1 
 2166000   0.88008659   -7.6645616    600.59769  0.023107021  0.023037076            2 
 2167000   0.89549555   -7.6562494    601.06814  0.023114449  0.023030525            1 
 2168000   0.90360368   -7.6519558      602.909  0.023174546  0.023023988            2 
 2169000    0.8939961   -7.6397436    601.56491  0.023112222  0.023017405            2 
 2170000   0.89187189   -7.6612867    603.04905  0.023158566  0.023010918            3 
 2171000   0.88517941    -7.663054    601.11166  0.023073532  0.023004369            2 
 2172000   0.89432207   -7.6389302    604.08243  0.023176889  0.022997796            3 
 2173000   0.90756221   -7.6461417    603.09054  0.023128184  0.022991261            2 
 2174000    0.9038276   -7.6802104    600.91422  0.023034124  0.022984672            2 
 2175000   0.89952901     -7.68716     602.8152  0.023096368   0.02297809            2 
 2176000   0.91059601   -7.6290757    603.95047  0.023129231  0.022971565            3 
 2177000     0.912635   -7.6260349    602.34933  0.023057316  0.022965015            1 
 2178000   0.90165892   -7.6475851     603.8262  0.023103237  0.022958468            2 
 2179000    0.9218389   -7.6546144     603.1407  0.023066418  0.022951943            2 
 2180000   0.90571246   -7.6669409    602.10945  0.023016416   0.02294536            4 
 2181000   0.90748882   -7.6744136    602.16242  0.023007887  0.022938776            1 
 2182000   0.89164713   -7.6710881    601.96246  0.022989706  0.022932175            3 
 2183000   0.88790433   -7.6623394    602.68105  0.023006606  0.022925573            2 
 2184000   0.90622544    -7.647894    605.34087  0.023097561  0.022919043            1 
 2185000   0.91293348   -7.6380729    603.59777   0.02302051  0.022912501            2 
 2186000   0.89689216   -7.6289309    605.76324   0.02309253  0.022906024            1 
 2187000   0.89462029   -7.6558076     606.2112   0.02309904  0.022899502            2 
 2188000   0.90235485   -7.6905969    603.23195  0.022975013  0.022892966            2 
 2189000   0.92758903   -7.7136334    603.20659  0.022963552  0.022886415            5 
 2190000   0.89098305   -7.5971064    607.11246  0.023101692  0.022879955            4 
 2191000   0.90846291   -7.6190197    604.73008  0.023000535  0.022873566            1 
 2192000   0.89745696   -7.6614396    604.17666  0.022969003  0.022867114            2 
 2193000    0.9356572   -7.6781722     605.3039  0.023001364  0.022860573            2 
 2194000   0.89579155   -7.6530689    605.06021  0.022981624   0.02285406            4 
 2195000   0.92131205   -7.6222178     606.0974  0.023010531  0.022847587            2 
 2196000   0.90510535    -7.654098    605.19732  0.022965897  0.022841147            2 
 2197000   0.89872864   -7.6635136    605.12876  0.022952843  0.022834687            2 
 2198000   0.90729018   -7.6444744    606.26277  0.022985395   0.02282819            3 
 2199000   0.89227076   -7.6724734    606.20228   0.02297265  0.022821778            4 
 2200000   0.90506619     -7.65835    603.83322   0.02287247   0.02281533            2 
 2201000    0.9068019   -7.6236521     605.5981    0.0229289  0.022808847            4 
 2202000   0.90124196   -7.6534376    606.66031  0.022958685  0.022802409            1 
 2203000   0.88726844   -7.6912924     605.3833  0.022899958  0.022795923            1 
 2204000   0.90703507   -7.6846673    604.46069  0.022854684  0.022789405            1 
 2205000   0.91749137   -7.6503239    605.93267   0.02289995  0.022782909            2 
 2206000   0.90172951   -7.6497255    607.11714  0.022934313  0.022776388            2 
 2207000   0.89398404   -7.6255657    608.55159  0.022978085  0.022769941            1 
 2208000   0.88937019   -7.6585868    606.76701  0.022900325  0.022763489            3 
 2209000   0.90030327   -7.6479075    606.81401  0.022891731  0.022756985            3 
 2210000   0.90420602   -7.6671244    606.26508  0.022860674  0.022750531            4 
 2211000   0.90767126   -7.6506521    606.27759  0.022850806  0.022744097            2 
 2212000   0.90920348   -7.6578031    607.31182  0.022879439  0.022737637            2 
 2213000   0.90549626   -7.6543964    607.78729  0.022887005  0.022731139            2 
 2214000   0.87384693   -7.6889312    605.79417  0.022801648  0.022724625            2 
 2215000   0.89005336   -7.6406829    607.08715  0.022839998  0.022718144            1 
 2216000   0.88471468   -7.6423772      607.358  0.022839877  0.022711653            3 
 2217000   0.89054207   -7.6217492    607.33004  0.022828524  0.022705214            2 
 2218000   0.92072393   -7.6728763     607.4587  0.022823065   0.02269873            2 
 2219000   0.87131226    -7.601984    610.51304  0.022927484  0.022692295            1 
 2220000   0.89453306   -7.6250234    610.91516  0.022932251   0.02268588            3 
 2221000   0.88963579   -7.6798807    608.85934   0.02284479  0.022679405            3 
 2222000   0.89617713   -7.6695272    608.22965  0.022810893   0.02267289            3 
 2223000   0.89182402   -7.6635341    608.93004  0.022826887  0.022666432            4 
 2224000   0.89671222   -7.6741225    607.97196  0.022780724  0.022659987            3 
 2225000   0.92509755   -7.6863214    606.40989  0.022711981  0.022653464            1 
 2226000   0.89975084   -7.6889005     607.8852  0.022757008  0.022646873            1 
 2227000   0.90239023   -7.6843434    608.65262  0.022775506  0.022640302            2 
 2228000   0.88824074   -7.6829102    609.28076  0.022788778  0.022633725            2 
 2229000   0.90676802   -7.6752205    609.08081  0.022771079  0.022627185            5 
 2230000   0.89761824   -7.6588168    607.98747   0.02272001  0.022620675            3 
 2231000   0.89780271     -7.66212    607.59229  0.022695065  0.022614171            1 
 2232000   0.89252027   -7.6894771    609.91181  0.022771498  0.022607674            3 
 2233000   0.90140685   -7.6660261    608.85103  0.022721713  0.022601148            2 
 2234000   0.87588117   -7.6672668    608.14562  0.022685229  0.022594657            1 
 2235000   0.90907155    -7.659785    610.22618  0.022752654  0.022588142            2 
 2236000   0.88980347   -7.6873049    609.35939  0.022710174  0.022581582            2 
 2237000   0.89843225   -7.6623226    607.87138   0.02264459  0.022574993            4 
 2238000   0.88751346   -7.6837843    609.34952  0.022689512  0.022568383            3 
 2239000   0.89373333   -7.7185081    607.74985   0.02261984  0.022561832            1 
 2240000   0.89639227   -7.6844515    608.89314  0.022652274  0.022555295            2 
 2241000   0.89159414   -7.7127114    610.71802  0.022710026  0.022548834            2 
 2242000   0.89041276   -7.6750297     609.6813  0.022661363   0.02254229            2 
 2243000    0.9027468   -7.6814565    610.21785  0.022671194  0.022535817            4 
 2244000   0.89139089   -7.6590992    608.57623  0.022600127  0.022529319            1 
 2245000   0.87623016   -7.6912039    610.64456  0.022666836   0.02252281            1 
 2246000   0.92396278    -7.676388    611.59739  0.022692097  0.022516329            3 
 2247000   0.89347895   -7.6632951    611.82701  0.022690514  0.022509789            2 
 2248000   0.89990915   -7.6924006    611.12831  0.022654519  0.022503321            3 
 2249000   0.90133935   -7.6700842    611.04098   0.02264121  0.022496847            1 
 2250000   0.89755358   -7.6919155    610.20791  0.022600293  0.022490315            5 
 2251000   0.88903986   -7.6783289    610.67919    0.0226077  0.022483832            4 
 2252000   0.89140489   -7.6796465    611.61132  0.022632154   0.02247741            2 
 2253000   0.86412238   -7.6773254    611.98472   0.02263592  0.022470944            4 
 2254000   0.87602136   -7.7137853    610.11026  0.022556576  0.022464409            2 
 2255000   0.88673066    -7.694154     611.8536  0.022610998  0.022457904            3 
 2256000   0.90275699   -7.7277881     610.5481  0.022552752  0.022451367            3 
 2257000   0.89764188   -7.6524272    613.80407  0.022662977  0.022444944            3 
 2258000   0.90961949   -7.7225708    611.82942  0.022580064  0.022438551            2 
 2259000   0.90728955   -7.6714349     612.4977  0.022594721  0.022432123            2 
 2260000   0.87773469   -7.6834943    613.03761  0.022604631  0.022425719            4 
 2261000   0.89843648    -7.693832    613.97007  0.022629001  0.022419342            2 
 2262000   0.88265989   -7.6742925    612.26988  0.022556362  0.022412936            3 
 2263000   0.90179076   -7.6858065    612.87704  0.022568752   0.02240654            2 
 2264000   0.88526817   -7.6749788    615.07541  0.022639701  0.022400136            2 
 2265000   0.88329442   -7.6651124    614.15999  0.022596026  0.022393764            2 
 2266000   0.88888203   -7.7040783    612.57435  0.022527742  0.022387354            3 
 2267000   0.89905723   -7.7099149     611.7589  0.022487829  0.022380898            2 
 2268000   0.87367244   -7.6974153    612.81173  0.022516598  0.022374439            1 
 2269000   0.88973923   -7.6781697    613.72872  0.022540353  0.022367987            4 
 2270000   0.89909642   -7.6935441    613.61145  0.022526118  0.022361546            2 
 2271000   0.87453936   -7.6860877    613.84389  0.022524728  0.022355074            1 
 2272000   0.88485655   -7.6957345     613.8975   0.02251678  0.022348649            2 
 2273000   0.89952033   -7.7328674    612.61478  0.022459847   0.02234222            2 
 2274000   0.88967208   -7.7228128    614.05861  0.022502881  0.022335777            3 
 2275000   0.88191506   -7.6877748    614.16979  0.022497062  0.022329341            1 
 2276000   0.89282283    -7.648562    614.99569  0.022517417  0.022322949            1 
 2277000   0.87987815   -7.6926998    614.08515  0.022474204  0.022316563            2 
 2278000   0.88959748    -7.694993    614.96548  0.022496542  0.022310189            3 
 2279000   0.88932107   -7.6628311    615.69585  0.022513378  0.022303893            2 
 2280000   0.87289831   -7.6948055    615.01611  0.022478659  0.022297562            2 
 2281000   0.89679948   -7.7197696    615.23199  0.022476691  0.022291235            2 
 2282000   0.87613734   -7.7056028    614.90507  0.022454903  0.022284882            3 
 2283000   0.88864439   -7.7144032     614.4958  0.022430128  0.022278481            1 
 2284000   0.89147178   -7.6991705    614.60716  0.022424371  0.022272074            3 
 2285000   0.89952886   -7.7210541    615.84175  0.022459582  0.022265646            3 
 2286000   0.87466698   -7.7302281    614.67638  0.022407276  0.022259178            2 
 2287000   0.88555244   -7.7051571    614.73376  0.022399569  0.022252751            3 
 2288000   0.88517215   -7.6835147    615.44644  0.022415736  0.022246341            4 
 2289000   0.89563207   -7.7028785    614.78125  0.022381726  0.022239972            2 
 2290000   0.87465063   -7.6938497    616.73461  0.022443035  0.022233589            2 
 2291000   0.87417576   -7.6771664      616.733  0.022433181  0.022227209            2 
 2292000   0.89026054   -7.6765337    616.10047  0.022400395   0.02222084            2 
 2293000   0.87098711   -7.7054509     615.5541   0.02237077  0.022214472            3 
 2294000   0.89888344   -7.6605949    615.62678  0.022363658   0.02220813            1 
 2295000   0.87540822   -7.6834433    615.99276  0.022367202  0.022201788            1 
 2296000   0.90890976   -7.6484732    617.22906  0.022402332  0.022195413            2 
 2297000   0.89726444   -7.6918255    615.67031  0.022336029  0.022189026            3 
 2298000   0.88356577   -7.7072347    615.08518  0.022305091    0.0221826            2 
 2299000   0.87555628    -7.721338    616.02065  0.022329297  0.022176198            2 
 2300000    0.8623989   -7.6539704    616.82767  0.022348829  0.022169768            1 
 2301000   0.89492844   -7.7026308    614.86174  0.022267918  0.022163323            4 
 2302000   0.88085574   -7.7054515    616.02917  0.022300506  0.022156894            2 
 2303000   0.89109444   -7.7193671    615.60215  0.022275371  0.022150506            5 
 2304000   0.89201638   -7.7019745    616.41368  0.022295055   0.02214406            2 
 2305000   0.88182461   -7.7069111     616.7528  0.022297643  0.022137588            6 
 2306000   0.88953835   -7.6841766    617.56642  0.022317376  0.022131237            2 
 2307000   0.86541151   -7.7307147    616.54924   0.02227096  0.022124839            2 
 2308000   0.89611598   -7.6805366    618.37123  0.022327095  0.022118463            1 
 2309000   0.87025716   -7.7207849    618.73743  0.022330642  0.022112056            3 
 2310000   0.88028968   -7.7097467    616.22102  0.022230196  0.022105635            2 
 2311000   0.88194817   -7.7046389    617.12986  0.022253348  0.022099203            3 
 2312000   0.87012317    -7.720504     617.9724  0.022274092  0.022092762            2 
 2313000    0.8781963   -7.7148408    618.19117  0.022272344  0.022086397            1 
 2314000   0.87391352   -7.7204758    617.15494  0.022225401  0.022080011            2 
 2315000   0.88116452   -7.7034698    618.63432  0.022269054  0.022073577            2 
 2316000   0.88675934   -7.7152076    618.11768  0.022240849  0.022067182            1 
 2317000   0.87150394   -7.7231928    618.47611  0.022244141  0.022060791            4 
 2318000   0.89300167   -7.7333236    617.78298  0.022209627  0.022054385            3 
 2319000   0.87910039   -7.7370483    619.21221  0.022251409  0.022048031            1 
 2320000   0.89025989   -7.7026305    619.17554  0.022240501   0.02204174            1 
 2321000   0.87002852   -7.6858407    618.33502   0.02220074  0.022035442            4 
 2322000   0.87803468   -7.7152002    617.57586  0.022163934  0.022029112            2 
 2323000   0.85991188   -7.7183477    619.94329   0.02223932  0.022022851            1 
 2324000   0.88026712   -7.7004624    619.49246  0.022213585  0.022016574            4 
 2325000   0.89409579   -7.7156466    619.26185  0.022195765  0.022010247            2 
 2326000    0.8836327   -7.7207851    619.61047  0.022198713  0.022003946            2 
 2327000   0.86754235   -7.7144749    620.27369  0.022212924  0.021997653            2 
 2328000   0.90439657   -7.7041405     620.5353  0.022212747  0.021991368            1 
 2329000   0.88500859   -7.7082229    618.92181  0.022145478  0.021985094            3 
 2330000   0.88732044   -7.7059463    619.55724    0.0221587  0.021978782            1 
 2331000     0.871786   -7.7392622    621.54021  0.022220085  0.021972478            2 
 2332000   0.88151349   -7.7279372    622.26596  0.022236491  0.021966192            2 
 2333000   0.90258357   -7.6961179    621.57476   0.02220227  0.021959938            4 
 2334000   0.86723984   -7.7292858    621.04127   0.02217371  0.021953691            2 
 2335000   0.88981944   -7.7259192    620.64494  0.022150069  0.021947442            2 
 2336000   0.88457512   -7.7035648    621.76386  0.022180503  0.021941251            4 
 2337000   0.90298653    -7.719525    620.75874  0.022135171   0.02193501            1 
 2338000   0.88127714   -7.6909751    621.87937  0.022165646  0.021928762            1 
 2339000   0.87624921   -7.6824753    622.63188   0.02218298   0.02192254            2 
 2340000   0.86230237   -7.7101054     621.9582  0.022149509  0.021916335            1 
 2341000   0.87889142   -7.7115093    622.27039   0.02215116  0.021910147            5 
 2342000   0.85511185   -7.7017131    621.47676  0.022113463  0.021903877            1 
 2343000   0.87474541   -7.7095817    621.80713  0.022115775  0.021897633            2 
 2344000   0.88215068   -7.7348259    621.60344  0.022099099   0.02189138            2 
 2345000   0.86575067   -7.7061164    622.57346  0.022124146  0.021885077            1 
 2346000   0.86910025   -7.6971131    621.51717  0.022077194  0.021878799            1 
 2347000   0.86752582    -7.747986    622.07818  0.022087707   0.02187253            3 
 2348000   0.87358392   -7.7171711    621.78822  0.022068009  0.021866223            1 
 2349000    0.8615177   -7.7134518    622.01026  0.022066492  0.021859961            1 
 2350000   0.87362863   -7.6983855    622.70678  0.022081801  0.021853694            2 
 2351000   0.88005494   -7.7266481    622.66669  0.022070987  0.021847456            3 
 2352000    0.8910973   -7.7467978    622.59772   0.02205916  0.021841211            2 
 2353000   0.86891509    -7.730809    621.97733  0.022027813  0.021834978            2 
 2354000   0.86349467   -7.6983002    624.22209  0.022097922    0.0218288            3 
 2355000   0.86604127   -7.7311149    623.79855  0.022073551  0.021822599            6 
 2356000   0.87843146   -7.7457188    622.94916  0.022034138  0.021816403            2 
 2357000   0.89508166   -7.7246072    624.32283  0.022073357  0.021810228            4 
 2358000     0.849623   -7.7029676    622.21558  0.021989524  0.021803982            2 
 2359000   0.87689439   -7.7039222    622.80506  0.022001027  0.021797748            3 
 2360000   0.87228115   -7.7354099    624.81293  0.022062604  0.021791558            2 
 2361000   0.87169371   -7.6994493    623.90062  0.022021058  0.021785409            2 
 2362000   0.86333822   -7.7292898    623.85506  0.022010128  0.021779236            3 
 2363000   0.88440208   -7.6955717    624.11048  0.022009821  0.021773056            3 
 2364000   0.88662165   -7.7194882    624.47164  0.022013242  0.021766838            4 
 2365000   0.87083083   -7.7328333    623.60161  0.021973277  0.021760642            4 
 2366000   0.87378557   -7.7149486    624.04574  0.021979633  0.021754418            2 
 2367000    0.8764724   -7.6863764    624.08141  0.021971603  0.021748191            2 
 2368000   0.85591923   -7.7336251    624.56603  0.021979379  0.021741951            1 
 2369000   0.86462666   -7.7173839    622.64766  0.021902619   0.02173569            1 
 2370000   0.88927912   -7.7368304    623.67483  0.021929495  0.021729392            2 
 2371000   0.85782532   -7.7242114    624.76006  0.021958388  0.021723124            1 
 2372000    0.8736105   -7.7395622      624.034  0.021923623  0.021716857            1 
 2373000   0.86348487   -7.6991698    623.80329  0.021906282  0.021710629            1 
 2374000   0.88914657   -7.6966171    624.84139  0.021933495  0.021704403            4 
 2375000    0.8813316   -7.7276535     625.6237  0.021951709    0.0216982            4 
 2376000   0.88684002    -7.727025    624.10077  0.021889056  0.021691944            2 
 2377000   0.86814837   -7.7597207    622.88511  0.021837229  0.021685636            3 
 2378000      0.87281   -7.7084192     624.8303  0.021896212  0.021679344            3 
 2379000   0.87825161   -7.7413611    623.20907  0.021830218  0.021673075            3 
 2380000   0.87840053   -7.7225598    624.67773  0.021872469  0.021666816            2 
 2381000   0.87081891   -7.7516666    623.61605  0.021826125  0.021660522            4 
 2382000   0.86691295   -7.7024708    625.49701  0.021882767  0.021654234            2 
 2383000   0.86670466   -7.7484244    624.25451  0.021830134  0.021647959            2 
 2384000   0.86327983   -7.6984151    623.89909  0.021808553  0.021641661            4 
 2385000   0.87134378   -7.7436228    623.63874  0.021790313  0.021635309            3 
 2386000    0.8705715   -7.7410402    624.65253  0.021816587   0.02162899            1 
 2387000    0.8967427   -7.7461543    624.16071  0.021790278   0.02162266            3 
 2388000   0.87410739   -7.7411808    625.40861    0.0218247  0.021616329            3 
 2389000   0.87022472   -7.7367942    624.66088  0.021789482  0.021610023            1 
 2390000   0.86711936   -7.7385632    625.69904  0.021816563  0.021603724            2 
 2391000   0.85537885   -7.7398377    624.51725   0.02176625  0.021597431            1 
 2392000   0.84932896   -7.7055359    625.40383  0.021788038  0.021591138            2 
 2393000   0.86749891    -7.732303    624.80966  0.021758242  0.021584854            1 
 2394000   0.88007797   -7.7460387    626.21392  0.021798034  0.021578601            4 
 2395000   0.87945297   -7.7131757    624.65985  0.021734859  0.021572376            2 
 2396000   0.86435149   -7.7185784    625.53334  0.021756168  0.021566156            3 
 2397000    0.8612698   -7.7468294    626.20715  0.021770517  0.021559908            2 
 2398000   0.86573432   -7.7285412    625.82296  0.021748087  0.021553645            1 
 2399000   0.85786515   -7.7627971    625.96707  0.021744028  0.021547369            1 
 2400000   0.87463939   -7.7586183    625.61624  0.021722786  0.021541098            2 
 2401000   0.87242083   -7.7154478    627.18834  0.021768303  0.021534827            1 
 2402000   0.88491115   -7.7086139    629.44359  0.021837482  0.021528589            2 
 2403000   0.85510359   -7.7499193    626.37153  0.021721859  0.021522389            3 
 2404000   0.83387423   -7.7593053    626.04167  0.021701389  0.021516133            3 
 2405000   0.86302727   -7.7571136    627.71708  0.021750418  0.021509847            1 
 2406000   0.85523893   -7.7668474    628.59536  0.021771798  0.021503586            4 
 2407000   0.86503673   -7.7870422    627.26738  0.021716777  0.021497339            6 
 2408000   0.85102449   -7.7688358    626.98005  0.021697815  0.021491055            4 
 2409000   0.85100391   -7.7513859    626.64293  0.021677146  0.021484755            2 
 2410000   0.88721244   -7.7555097    628.40125  0.021728951  0.021478508            2 
 2411000   0.87585518   -7.7862285    626.69781  0.021661061  0.021472288            2 
 2412000   0.85710127   -7.7400342    628.00572  0.021697268  0.021466085            5 
 2413000   0.84319569   -7.7343947    630.00158  0.021757203  0.021459928            1 
 2414000   0.83964199    -7.734304    626.94195  0.021642569  0.021453757            2 
 2415000   0.84528463   -7.7319894    627.91362  0.021667137  0.021447562            1 
 2416000   0.86103863   -7.7318026    629.12462  0.021699939   0.02144139            1 
 2417000   0.86307426   -7.7301354    627.92108  0.021649465  0.021435224            1 
 2418000   0.86787966   -7.7049287    629.35555  0.021689949  0.021429068            2 
 2419000    0.8600719   -7.7314595    628.91125  0.021665676  0.021422943            1 
 2420000   0.85178227   -7.7241237    629.42586  0.021674444   0.02141678            3 
 2421000   0.86853266   -7.7337805    628.71958  0.021641181  0.021410645            2 
 2422000    0.8775398   -7.7102674    629.90662  0.021673088  0.021404504            3 
 2423000   0.85434732   -7.7119502    629.86252  0.021662626  0.021398377            3 
 2424000    0.8653115   -7.7341068    629.93342  0.021656127  0.021392212            3 
 2425000   0.87418118    -7.759068    627.57922  0.021566296  0.021386006            3 
 2426000   0.85391682   -7.7579199    629.30759  0.021616776  0.021379806            3 
 2427000   0.85270112   -7.7439643    628.34841  0.021574935  0.021373616            2 
 2428000   0.86069307   -7.7347235     630.8415  0.021651616  0.021367431            1 
 2429000   0.87283588   -7.7408643    629.56095   0.02159877  0.021361233            2 
 2430000   0.84554116   -7.7521189    630.34204  0.021616668  0.021355043            3 
 2431000   0.86913054   -7.7540984     630.1697  0.021601868   0.02134883            2 
 2432000   0.86629733    -7.744753    629.42267  0.021567389  0.021342617            1 
 2433000   0.85919323   -7.7620005    629.92923  0.021575875    0.0213364            2 
 2434000   0.84054088   -7.7454917     630.4408  0.021584525  0.021330191            2 
 2435000   0.87186984   -7.7392684    629.95677  0.021559095  0.021323951            4 
 2436000   0.85196219   -7.7183655    631.64362  0.021607951  0.021317793            6 
 2437000   0.83838639   -7.7355807    627.12511  0.021444574  0.021311609            3 
 2438000   0.86873208   -7.7456389    630.53568  0.021552354  0.021305445            3 
 2439000   0.87649691   -7.7630038    629.75963  0.021517003  0.021299205            3 
 2440000   0.85699481   -7.7737848    629.84566  0.021511122  0.021292943            1 
 2441000   0.86923414   -7.7656167    631.03985  0.021543078  0.021286726            3 
 2442000   0.86404362    -7.746765    631.90452  0.021563763  0.021280508            3 
 2443000   0.87244705   -7.7578665    631.95961  0.021556816  0.021274246            4 
 2444000   0.84539352   -7.7392656    631.35081  0.021527237  0.021267989            2 
 2445000   0.85731203   -7.7646054    629.02439  0.021439141  0.021261703            2 
 2446000       0.8488   -7.7562358    630.95184  0.021496042  0.021255438            3 
 2447000   0.85466838   -7.7649921      629.573  0.021440301  0.021249198            2 
 2448000   0.84980047   -7.7452114    628.45133   0.02139336  0.021242898            1 
 2449000   0.85092529   -7.7782497     630.2967  0.021447417  0.021236603            2 
 2450000   0.85596841   -7.7342152    629.77853  0.021421039  0.021230354            2 
 2451000   0.86501819   -7.7583711    630.53546  0.021438034  0.021224094            2 
 2452000   0.88084791   -7.7534519    631.86915  0.021474618  0.021217856            5 
 2453000   0.88001768   -7.7429527    631.96259  0.021469038  0.021211609            1 
 2454000   0.84427136   -7.7585288    631.24029  0.021435761  0.021205383            3 
 2455000   0.86901548   -7.7766035    631.25306  0.021427463  0.021199149            3 
 2456000   0.86674288   -7.7526205    631.78796  0.021436888  0.021192912            2 
 2457000    0.8613635   -7.7617663    630.69348  0.021391042  0.021186604            1 
 2458000   0.87773903   -7.7559124    631.60365  0.021413197  0.021180344            2 
 2459000   0.87298914   -7.7724672    630.60099  0.021370509  0.021174084            2 
 2460000   0.85178259   -7.7294899    630.47423  0.021357528  0.021167828            1 
 2461000   0.86327221   -7.7376976    632.61327  0.021421281  0.021161586            1 
 2462000   0.86241572   -7.7705594    631.07654  0.021360565  0.021155357            2 
 2463000   0.87425101    -7.777352    631.12036  0.021353375  0.021149127            5 
 2464000   0.86792313   -7.7583692    632.10322   0.02137795  0.021142904            3 
 2465000   0.84778972   -7.7753044    632.53819  0.021383982  0.021136709            3 
 2466000   0.86635365   -7.7498696    633.16574  0.021396517  0.021130504            3 
 2467000   0.84953326   -7.7746498    632.37614  0.021361172  0.021124329            2 
 2468000   0.84711058    -7.788019    631.40638  0.021319772  0.021118125            2 
 2469000   0.85681164   -7.7666042    633.59744   0.02138509  0.021111949            4 
 2470000    0.8622783    -7.795458     632.3555  0.021334531  0.021105741            2 
 2471000   0.83712764   -7.7498747    634.06022  0.021383388  0.021099555            2 
 2472000   0.84311675   -7.7461936    632.67941  0.021328189  0.021093381            2 
 2473000   0.88248448   -7.7906416    631.67462  0.021285706  0.021087223            2 
 2474000   0.86699124   -7.7455319    634.39951  0.021368887  0.021081038            2 
 2475000   0.85789749   -7.7399801    634.15109  0.021351888  0.021074835            1 
 2476000    0.8621045   -7.7880416    631.32319  0.021248088  0.021068586            2 
 2477000   0.85659363   -7.7722567    633.67482  0.021318625  0.021062368            3 
 2478000   0.87114333   -7.7544276    632.23864  0.021261725  0.021056184            2 
 2479000   0.85042628   -7.7598083    632.96557  0.021277584  0.021050011            2 
 2480000   0.85368278   -7.7525314    633.75952  0.021295683  0.021043875            4 
 2481000   0.86889613   -7.7574327    632.98071   0.02126094  0.021037691            2 
 2482000   0.85257624   -7.7601795    633.09197   0.02125611  0.021031494            3 
 2483000   0.83846494   -7.7641007    632.79025  0.021237423  0.021025267            1 
 2484000   0.83838244   -7.7653132    632.59629  0.021222366  0.021019071            1 
 2485000   0.83812304   -7.7596783    633.55596  0.021246008  0.021012836            2 
 2486000    0.8404922   -7.7673105    634.34392  0.021263875  0.021006613            3 
 2487000   0.85629332   -7.7508234    635.03422  0.021278455  0.021000404            3 
 2488000   0.86779039   -7.7507883    634.88595  0.021264937  0.020994216            2 
 2489000   0.85725943   -7.7719259    634.25734  0.021235347   0.02098802            3 
 2490000   0.86355944   -7.7809117    633.03291  0.021185841  0.020981834            2 
 2491000   0.85609439   -7.7873408    632.53876  0.021160804  0.020975624            2 
 2492000    0.8589597   -7.7906397    632.94049  0.021165747  0.020969361            4 
 2493000   0.85490227   -7.7929385    632.23859  0.021133794  0.020963096            3 
 2494000   0.84186982   -7.8000997    633.78681  0.021177052  0.020956818            5 
 2495000    0.8616468   -7.7899891    633.74458  0.021167154  0.020950519            2 
 2496000   0.86102828   -7.7722568    634.42932  0.021181534  0.020944288            2 
 2497000   0.86376101   -7.7608282    633.56406  0.021144175  0.020938019            2 
 2498000   0.84767938   -7.7473023    634.15239  0.021155337  0.020931798            1 
 2499000   0.88104747   -7.7989393    633.72514  0.021132624  0.020925627            5 
 2500000   0.86577534   -7.7658893    634.06758  0.021135586  0.020919435            2 
 2501000   0.85560927   -7.7672821    634.18747   0.02113113  0.020913229            3 
 2502000   0.84601535   -7.7821325    633.37003  0.021095458  0.020907039            3 
 2503000   0.84495414   -7.7928589     634.8038  0.021134765  0.020900819            3 
 2504000   0.85000907    -7.793819     633.7672  0.021091826  0.020894576            1 
 2505000   0.85052847   -7.7889157    633.88835  0.021087437  0.020888354            2 
 2506000   0.82961849   -7.7632319    634.58921  0.021102328  0.020882141            3 
 2507000   0.85267162   -7.7849535     635.6948  0.021130661  0.020875982            2 
 2508000    0.8540365   -7.7849996    634.06225  0.021067991   0.02086974            2 
 2509000   0.83893427   -7.8120404    632.92657  0.021021874  0.020863458            2 
 2510000   0.85670406   -7.7917111    634.85591  0.021077553  0.020857182            6 
 2511000   0.86095378   -7.7750099    633.19828  0.021014147  0.020850926            2 
 2512000   0.83334095   -7.7990217    634.65319  0.021054047  0.020844651            3 
 2513000   0.83686463   -7.7954158    636.49092   0.02110661  0.020838419            2 
 2514000   0.84131414   -7.8083182    634.03808  0.021016908  0.020832174            1 
 2515000   0.85407494   -7.7992389    634.20344   0.02101403  0.020825917            4 
 2516000   0.85515805   -7.8010852    634.58577  0.021018342  0.020819649            2 
 2517000    0.8556976   -7.7926695    633.40305  0.020970833  0.020813376            2 
 2518000   0.86346531   -7.8056785    633.88684  0.020978516  0.020807089            3 
 2519000   0.84585644   -7.7802579    635.51928  0.021024192  0.020800829            1 
 2520000   0.85665116   -7.7615435    635.14513  0.021003477  0.020794564            2 
 2521000   0.83960519   -7.7946763    633.31505   0.02093465  0.020788298            2 
 2522000   0.84629168   -7.8053703    633.22678  0.020923433  0.020782026            2 
 2523000   0.85719909   -7.8265911    633.89079  0.020937072  0.020775735            3 
 2524000   0.84833402   -7.7755794    635.66722  0.020987428  0.020769428            2 
 2525000   0.85597969    -7.784709    635.14732  0.020961958  0.020763126            5 
 2526000   0.85210368   -7.7926178    635.71501  0.020972388  0.020756823            2 
 2527000   0.84789131   -7.7847666    634.26647  0.020916319  0.020750514            2 
 2528000   0.83346224   -7.7597511    635.07265   0.02093462  0.020744243            2 
 2529000   0.84600758   -7.7930411    635.27344  0.020932959  0.020738017            2 
 2530000   0.84704173   -7.7765932    636.10679  0.020952134  0.020731757            1 
 2531000   0.84842093   -7.7879166    635.81944  0.020934395  0.020725509            3 
 2532000    0.8327289   -7.7652843    635.07052  0.020901478  0.020719288            4 
 2533000   0.83128115   -7.7682868    636.55004  0.020941902  0.020713059            1 
 2534000   0.83578223   -7.8019916    636.40816  0.020928971  0.020706789            4 
 2535000    0.8401039   -7.7465448    636.73971  0.020931615  0.020700568            1 
 2536000   0.86508112   -7.7737612    637.78797  0.020957806  0.020694369            3 
 2537000   0.85482395   -7.7857053    637.76644  0.020948839  0.020688168            2 
 2538000   0.84823244   -7.7985836    637.41009  0.020928884  0.020681977            1 
 2539000   0.84366511   -7.7482507    638.93455  0.020970676  0.020675781            1 
 2540000   0.85099244   -7.7814044    637.38415  0.020911554  0.020669636            1 
 2541000   0.85282177   -7.7915324    637.48671  0.020906687  0.020663458            1 
 2542000   0.84053515   -7.8013841    635.79601  0.020843037  0.020657243            3 
 2543000   0.85679091   -7.7950021     637.1549  0.020879371  0.020651057            2 
 2544000   0.83903738   -7.7741508    639.37317  0.020943828  0.020644926            3 
 2545000   0.85462515   -7.7885498    637.18101  0.020863818  0.020638801            3 
 2546000   0.86282495   -7.7731496     639.5851  0.020934312  0.020632687            1 
 2547000   0.85649619   -7.7692348    637.49723  0.020857781  0.020626595            2 
 2548000   0.83614959   -7.7681561    638.20389  0.020872707  0.020620454            2 
 2549000   0.84347136   -7.7984877    638.00156  0.020857904  0.020614339            2 
 2550000   0.83605104   -7.7869975    638.99276  0.020882116  0.020608168            2 
 2551000   0.85800259   -7.8102541    638.66497  0.020863223  0.020602015            3 
 2552000   0.85071628   -7.7718986    636.10523  0.020771461  0.020595837            4 
 2553000   0.83805464   -7.7614675    638.89661   0.02085444  0.020589665            2 
 2554000   0.85200198   -7.7929494    638.35232  0.020828515  0.020583508            3 
 2555000   0.84483958   -7.7947245    638.76463   0.02083381  0.020577402            4 
 2556000   0.86511276   -7.7999163    639.32066  0.020843788  0.020571286            1 
 2557000   0.84514739   -7.7578985    640.09309   0.02086081  0.020565163            1 
 2558000   0.84561714   -7.8154667    640.49605  0.020865782  0.020559091            1 
 2559000   0.83239909   -7.7866177    639.60634  0.020828655  0.020552983            2 
 2560000   0.85255689   -7.7950012    640.22685  0.020840718  0.020546914            3 
 2561000   0.84015866   -7.8129146    639.46665  0.020807844  0.020540829            3 
 2562000   0.84622561   -7.7760118    640.57503  0.020835774  0.020534729            2 
 2563000   0.84644397   -7.8194258    640.86604  0.020837106  0.020528659            3 
 2564000   0.85489062   -7.7919242    640.28255  0.020810015  0.020522613            2 
 2565000   0.84404209   -7.8150447    640.97735  0.020824475   0.02051655            2 
 2566000   0.83362757   -7.8100029     638.9795  0.020751478  0.020510462            5 
 2567000   0.83150026   -7.7898843    640.46781  0.020791709  0.020504384            3 
 2568000   0.82854782   -7.8173359    640.27982  0.020777512  0.020498314            3 
 2569000   0.84529587   -7.8163805     641.0958  0.020795893  0.020492267            3 
 2570000   0.83933895   -7.8045439    639.89981  0.020749021  0.020486211            6 
 2571000   0.84390592   -7.7702328    642.00542  0.020809199  0.020480233            2 
 2572000   0.84619857   -7.7785195    641.43088  0.020782494  0.020474262            2 
 2573000   0.84278177   -7.7790676    640.63611  0.020748676  0.020468279            4 
 2574000   0.84398754   -7.8020972    640.80654  0.020746132  0.020462248            3 
 2575000   0.85551935   -7.8359657    641.55819  0.020762401  0.020456208            3 
 2576000   0.81858006   -7.8097208     641.9558  0.020767204  0.020450149            4 
 2577000   0.84786863   -7.8242969    640.54839  0.020713633  0.020444075            2 
 2578000   0.82338508   -7.8022538    642.25974  0.020760917  0.020438016            1 
 2579000   0.83979537   -7.8171387    642.04449  0.020745912  0.020431952            2 
 2580000   0.85724945   -7.8019952    643.36165  0.020780415   0.02042592            2 
 2581000   0.85424888   -7.7762795    642.83883  0.020755483  0.020419907            3 
 2582000   0.84423678   -7.8027875     642.2366  0.020728008  0.020413929            1 
 2583000   0.84970823   -7.8157381    641.46176  0.020694985  0.020407871            1 
 2584000   0.81920607    -7.803312    641.94698  0.020702624  0.020401813            3 
 2585000   0.84311736   -7.7947825    643.12346  0.020732542  0.020395774            2 
 2586000   0.84777964   -7.8114077    641.39547  0.020668841  0.020389715            1 
 2587000   0.83150318   -7.8276775    641.71473  0.020671136  0.020383682            2 
 2588000   0.85752252   -7.8197161    643.42308  0.020718157  0.020377646            3 
 2589000   0.83874589   -7.8231423    643.30088  0.020706221  0.020371614            3 
 2590000   0.83555783   -7.8137227    641.88203  0.020652575  0.020365563            2 
 2591000   0.84062463   -7.8198406    642.25838  0.020656708  0.020359493            2 
 2592000   0.84685072   -7.7953659     643.2113  0.020679376  0.020353443            2 
 2593000   0.83731321   -7.8267416     640.7291  0.020591628  0.020347348            1 
 2594000   0.85464475   -7.8383505    642.23606  0.020632102  0.020341248            2 
 2595000   0.83818232   -7.8548063    640.66938   0.02057384  0.020335135            4 
 2596000   0.83460985   -7.8401162    641.64148   0.02059712  0.020328994            3 
 2597000   0.82765038   -7.8366757    641.61503   0.02058834  0.020322837            2 
 2598000   0.83074588   -7.8348134    640.99994  0.020560686  0.020316678            1 
 2599000   0.81935678   -7.8522781    642.59237  0.020603834  0.020310595            1 
 2600000   0.82000918   -7.8132321    642.75958  0.020601269  0.020304511            2 
 2601000   0.82852442   -7.8006116    643.00485  0.020601206  0.020298415            2 
 2602000   0.83707426    -7.848275    641.40426  0.020542027  0.020292348            1 
 2603000   0.84450392   -7.8125084    643.30767  0.020595072  0.020286241            4 
 2604000   0.82159612   -7.8150214    643.37597  0.020589349  0.020280212            3 
 2605000   0.82663517   -7.8038606    643.75408  0.020593541  0.020274167            1 
 2606000   0.82032652   -7.7897749    643.53636  0.020578676  0.020268129            2 
 2607000   0.83957983   -7.8081203    642.67163  0.020543141   0.02026207            2 
 2608000   0.85408291   -7.8242978    642.04676  0.020515298  0.020256041            3 
 2609000    0.8390764   -7.8319037    643.32031  0.020548113  0.020249972            3 
 2610000   0.85881436   -7.8138227    641.63067  0.020486292    0.0202439            1 
 2611000   0.83991276   -7.8611185    641.77832  0.020483158  0.020237809            1 
 2612000   0.83775544   -7.8285857    641.07646  0.020452924  0.020231679            1 
 2613000   0.84651365   -7.8169189     642.8642  0.020502111  0.020225576            2 
 2614000   0.85658562   -7.7965527    644.95984  0.020561076  0.020219521            2 
 2615000   0.84071252   -7.8584918    644.01779  0.020523193  0.020213472            2 
 2616000   0.83114609   -7.8222634    642.54629  0.020468473  0.020207396            3 
 2617000    0.8388187    -7.808371    643.92694  0.020504615  0.020201316            3 
 2618000   0.83104332   -7.8152511    642.74042  0.020459015  0.020195235            4 
 2619000   0.82905088   -7.8033215    642.99947  0.020459446  0.020189166            2 
 2620000   0.84113057   -7.7900206    644.03714  0.020484642  0.020183085            2 
 2621000   0.83276457   -7.8225017    643.77414  0.020468464  0.020177017            1 
 2622000   0.84223757   -7.8015954    644.21653  0.020474718  0.020170955            2 
 2623000   0.82383059   -7.8214379    642.53714  0.020413558   0.02016484            2 
 2624000   0.84989067   -7.8533141    642.61323  0.020408194  0.020158712            2 
 2625000   0.83692027   -7.8179961    642.37742  0.020392934  0.020152546            2 
 2626000     0.849801    -7.849134    643.60691  0.020424185  0.020146431            3 
 2627000   0.84237743   -7.8644069    642.37266  0.020377257  0.020140319            2 
 2628000   0.83141226   -7.8222609    643.07206  0.020391681  0.020134195            1 
 2629000   0.81299333   -7.8326929     643.0518  0.020383283  0.020128094            2 
 2630000   0.83483097   -7.8088154    642.56471  0.020360099  0.020122015            1 
 2631000   0.83253372   -7.8170299    645.02894  0.020430411  0.020115902            4 
 2632000    0.8244464   -7.8087715    644.86541  0.020417471  0.020109767            3 
 2633000   0.84245624   -7.8704227    643.36414  0.020362202  0.020103585            2 
 2634000   0.82034661   -7.8429548    642.34405  0.020322198  0.020097432            2 
 2635000    0.8148681   -7.8600563    642.11376  0.020307203  0.020091273            2 
 2636000   0.82955981   -7.8288277     644.3852  0.020371307  0.020085148            1 
 2637000   0.84295901   -7.8122972    643.60774  0.020339013  0.020079019            3 
 2638000   0.84655966   -7.8217947    644.27498  0.020352381   0.02007294            2 
 2639000   0.84160886   -7.8179585    642.46706  0.020287579  0.020066876            4 
 2640000   0.84056103   -7.8581112    643.46201  0.020311301  0.020060791            1 
 2641000   0.81332468   -7.8451282    644.59796  0.020339453  0.020054694            3 
 2642000   0.82157698   -7.8357746    645.03826  0.020345643  0.020048602            2 
 2643000   0.83850132    -7.841348    642.99826  0.020273624  0.020042491            1 
 2644000   0.83895481   -7.8374517    642.44518  0.020248524  0.020036392            3 
 2645000   0.83129219   -7.8507567    644.71382  0.020312345  0.020030273            1 
 2646000   0.83841155   -7.8343951     644.2682  0.020290634  0.020024158            2 
 2647000   0.81871542   -7.8266237    643.28352  0.020251968  0.020018058            3 
 2648000   0.83651191   -7.8255931     644.2472  0.020274648  0.020011968            4 
 2649000   0.81955288   -7.8438341    644.73608  0.020282373  0.020005859            3 
 2650000   0.84522179   -7.8095552    643.83397  0.020246351  0.019999757            2 
 2651000   0.83310343   -7.8419554    644.28548  0.020252907  0.019993651            2 
 2652000   0.82906186   -7.8193885    644.26164  0.020244521  0.019987576            2 
 2653000   0.83820487    -7.823114    645.77271  0.020284354  0.019981512            3 
 2654000   0.81790708   -7.8544908      645.205  0.020258886  0.019975461            2 
 2655000   0.82301441   -7.8598778    644.44488  0.020227397  0.019969388            2 
 2656000   0.82613638   -7.8261719    645.17971  0.020242837  0.019963342            2 
 2657000   0.84225259   -7.8164658    644.63349  0.020218087   0.01995728            4 
 2658000   0.82650568   -7.8290719    643.88878  0.020187132  0.019951191            2 
 2659000   0.83038986   -7.8227464    645.84862  0.020240962  0.019945091            3 
 2660000   0.82486019   -7.8278946    645.03311  0.020207804  0.019939034            2 
 2661000   0.84135193   -7.8593986    645.17082  0.020204523  0.019932968            2 
 2662000   0.83845609   -7.8423907     644.2162  0.020167049  0.019926892            1 
 2663000   0.82375098   -7.7959745    646.38853  0.020227454  0.019920867            4 
 2664000   0.82934444   -7.8577492     645.6683  0.020197332  0.019914798            1 
 2665000   0.82251208   -7.8654107    645.38436  0.020180874  0.019908713            1 
 2666000   0.82752419   -7.8399791    647.02448  0.020224571  0.019902622            1 
 2667000   0.82694724   -7.8649716    645.54225  0.020170674  0.019896561            2 
 2668000   0.82330559   -7.8788098    646.14082   0.02018181  0.019890497            4 
 2669000   0.82296775   -7.8393199    644.71456  0.020129716  0.019884447            2 
 2670000   0.83065054   -7.8252715    647.63972  0.020213474  0.019878434            2 
 2671000   0.82315269   -7.8552019     646.0411  0.020156031  0.019872383            4 
 2672000   0.82562313   -7.8502325    644.77647  0.020109046  0.019866353            2 
 2673000   0.81675573   -7.8445037    646.89518  0.020167576  0.019860314            1 
 2674000   0.82197962   -7.8433498    646.23791  0.020139551  0.019854296            2 
 2675000   0.81454801   -7.8403412     646.9157  0.020153137  0.019848263            2 
 2676000    0.8144797   -7.8415145    648.31857  0.020189293  0.019842238            2 
 2677000   0.81963588   -7.8237547    646.08642  0.020112266  0.019836207            2 
 2678000   0.83156952   -7.8456556    647.90531  0.020161355  0.019830155            2 
 2679000    0.8166104   -7.8229754    647.57333  0.020143503  0.019824169            2 
 2680000   0.83424044   -7.8519344    645.86012  0.020082715  0.019818149            2 
 2681000   0.82418407   -7.8667032    646.72637   0.02010215  0.019812123            2 
 2682000   0.81845258   -7.8745934     645.4292   0.02005435  0.019806068            2 
 2683000   0.84118649   -7.8404632    646.41673  0.020077548  0.019800019            1 
 2684000   0.82375433   -7.8411574    647.42754  0.020101451  0.019793989            4 
 2685000   0.82910497   -7.8860472    645.81441  0.020043898  0.019787934            4 
 2686000   0.82099802   -7.8570122     647.6344  0.020092901  0.019781842            2 
 2687000   0.81319563   -7.8955527    646.08248  0.020037293  0.019775791            4 
 2688000   0.82166785   -7.8512286    648.00319  0.020089385  0.019769751            2 
 2689000   0.82675114   -7.8637197    647.09855  0.020053878    0.0197637            2 
 2690000   0.84034534   -7.8603374    647.36317  0.020054621  0.019757662            1 
 2691000    0.8442575   -7.8452111    645.98898  0.020004614  0.019751654            2 
 2692000   0.82947306   -7.8555114    645.88706  0.019994027  0.019745641            2 
 2693000   0.81548849   -7.8261233    648.26828  0.020060288  0.019739618            2 
 2694000   0.82662128   -7.8659041    648.93714  0.020073532  0.019733605            6 
 2695000   0.82715671   -7.8432674     646.3154  0.019985016  0.019727555            2 
 2696000   0.83914879   -7.8647786    647.24076  0.020006205  0.019721519            1 
 2697000   0.82048318    -7.878435    646.40639  0.019973007  0.019715498            1 
 2698000   0.82310631   -7.8807534    647.25694  0.019991875  0.019709474            2 
 2699000    0.8220729   -7.8470396    648.02016  0.020008033  0.019703453            3 
 2700000   0.81174861   -7.8491651    648.47844  0.020014767   0.01969747            1 
 2701000   0.82894181   -7.8374296    648.81596   0.02001777  0.019691468            1 
 2702000   0.82294451   -7.8494135    647.91458  0.019982562  0.019685451            2 
 2703000   0.82408792   -7.8416516     647.5181  0.019962945  0.019679423            1 
 2704000   0.82980353   -7.8616829    645.34673  0.019888644  0.019673388            2 
 2705000   0.81813606    -7.867468    648.63895  0.019982716  0.019667378            2 
 2706000     0.820777   -7.8712815    647.51918  0.019940847  0.019661388            3 
 2707000   0.81821921   -7.8653519    649.06493  0.019981066  0.019655425            2 
 2708000   0.81731566   -7.8272841    648.19228  0.019946833   0.01964941            2 
 2709000   0.81273729    -7.863318    646.95191  0.019901314   0.01964341            2 
 2710000   0.83010951   -7.8721715    647.51698  0.019911346  0.019637368            2 
 2711000   0.81459968   -7.8575761    649.37804  0.019961209  0.019631342            2 
 2712000   0.83409847   -7.8348477    649.59889  0.019960634  0.019625317            1 
 2713000   0.83475549   -7.8553942    648.95416  0.019933473  0.019619326            4 
 2714000    0.8252765    -7.865481    647.04399  0.019867477  0.019613318            3 
 2715000   0.81248917   -7.8750574    648.30123  0.019898749  0.019607291            2 
 2716000   0.82511376   -7.8437866    648.86806  0.019908814  0.019601289            3 
 2717000   0.81002121   -7.8438072     648.9321   0.01990345  0.019595274            1 
 2718000   0.79827018   -7.8418613     648.9398  0.019896364  0.019589257            2 
 2719000   0.80836802   -7.8459552    648.92068   0.01988846   0.01958325            2 
 2720000   0.80810722   -7.8424622    648.47694  0.019867553   0.01957723            2 
 2721000   0.81883271   -7.8450773     647.9637  0.019844533  0.019571218            3 
 2722000   0.82729818   -7.8793209    648.19944   0.01984446  0.019565188            3 
 2723000   0.82904734   -7.8594028    647.55586  0.019817477  0.019559146            3 
 2724000    0.7921598   -7.8566377    648.58247  0.019841608  0.019553134            4 
 2725000   0.80830928   -7.8818933    646.25281  0.019763083  0.019547083            2 
 2726000   0.81023844   -7.8866975    649.80339  0.019864374  0.019541053            1 
 2727000   0.82540972   -7.8647633    649.86294  0.019858909  0.019535008            2 
 2728000   0.79850925   -7.8551822     649.6177  0.019844138     0.019529            2 
 2729000   0.79694439   -7.8729541    649.16871  0.019823156  0.019522978            1 
 2730000   0.82540273   -7.8737475    647.33547  0.019759935  0.019516957            6 
 2731000     0.828707   -7.8701777    650.38433  0.019845732  0.019510921            1 
 2732000   0.82406645   -7.9142541    647.21745  0.019741869  0.019504875            2 
 2733000   0.81810749   -7.8890773    648.72926  0.019780743  0.019498805            1 
 2734000   0.81675645   -7.8854237    648.05969    0.0197531  0.019492735            3 
 2735000   0.82237433   -7.8643091    649.29741   0.01978359  0.019486684            2 
 2736000   0.82842927   -7.8907286    649.14782  0.019771802  0.019480672            2 
 2737000   0.82634559   -7.8698645    648.43372  0.019742837  0.019474643            1 
 2738000   0.79096973   -7.8884083    647.28156  0.019700559  0.019468606            2 
 2739000   0.80701026   -7.8845742    648.98648  0.019745238  0.019462568            3 
 2740000    0.8207002   -7.8858326    649.39373  0.019750418  0.019456525            3 
 2741000   0.81511949   -7.8896677    649.04513  0.019732614  0.019450493            2 
 2742000   0.81225503   -7.8686165      650.801  0.019778781  0.019444485            1 
 2743000   0.80791668   -7.8477481    651.41858  0.019790332  0.019438497            2 
 2744000   0.81819362   -7.8529591    650.82442  0.019765076  0.019432503            2 
 2745000   0.79902102   -7.8550748    650.89036  0.019759877  0.019426532            4 
 2746000   0.81706091   -7.8746314    650.02474  0.019726412  0.019420564            2 
 2747000   0.81588038   -7.9010424    649.69456  0.019709215  0.019414579            3 
 2748000   0.81340547   -7.8845461    650.83724  0.019736695  0.019408619            2 
 2749000   0.82811025   -7.8728746    649.71859  0.019695604   0.01940264            2 
 2750000   0.81532641   -7.8831989    650.31385   0.01970648  0.019396696            3 
 2751000   0.81930666   -7.8886893     650.0563  0.019691515  0.019390719            2 
 2752000   0.81157784   -7.8655486     651.0486  0.019714408   0.01938476            1 
 2753000   0.81049591   -7.8588651    651.28717  0.019714468  0.019378807            1 
 2754000    0.8088314   -7.8902688    651.71119   0.01972014  0.019372878            2 
 2755000   0.82445828    -7.887505    650.58666  0.019678967  0.019366922            2 
 2756000   0.79513091   -7.8724825    651.53093  0.019700379  0.019360961            1 
 2757000   0.81768499   -7.8902787    650.88896  0.019673829  0.019354976            2 
 2758000   0.81827963   -7.8659746    650.91661  0.019667531   0.01934897            2 
 2759000   0.80691713   -7.8675902     651.3541  0.019673617  0.019342993            4 
 2760000   0.81344586   -7.8979124    650.23002  0.019632549  0.019337033            2 
 2761000   0.81524595   -7.8725283    650.09606  0.019621395  0.019331069            6 
 2762000   0.82063794   -7.8640638    651.86067  0.019667532  0.019325156            2 
 2763000   0.79524826   -7.8852717    650.73256  0.019626389  0.019319225            5 
 2764000    0.8288598   -7.9002733    650.46886  0.019611338   0.01931326            1 
 2765000   0.80093273   -7.8973095    652.53836  0.019666617  0.019307308            2 
 2766000   0.79998389   -7.8785254    651.41104  0.019625543   0.01930137            2 
 2767000   0.80360541   -7.8804208    652.13543  0.019640267   0.01929542            1 
 2768000   0.79912624   -7.8748042    651.91466  0.019626525  0.019289459            1 
 2769000   0.80559666   -7.8573002    651.97742  0.019621326  0.019283492            3 
 2770000   0.83114489   -7.8639831    651.65216  0.019604457  0.019277533            2 
 2771000   0.81955761   -7.8561104    652.79608  0.019631784  0.019271622            2 
 2772000   0.80256717   -7.8812434    652.63268  0.019619789  0.019265727            2 
 2773000   0.80399018    -7.877962    653.44915  0.019637251  0.019259854            4 
 2774000   0.81606289   -7.8790036    652.10499  0.019589792  0.019253933            1 
 2775000   0.78448708   -7.8573386    651.84449   0.01957491  0.019248004            3 
 2776000   0.79452953   -7.8780544    654.07314   0.01963476  0.019242119            1 
 2777000   0.78684967   -7.9129498    650.66735  0.019525488  0.019236212            1 
 2778000   0.80816686   -7.8987009    652.09464  0.019561274  0.019230262            1 
 2779000   0.79817261   -7.8636147    652.49122  0.019566128  0.019224345            2 
 2780000   0.80807113   -7.8739282    654.13501  0.019608363  0.019218447            3 
 2781000   0.79487083   -7.8742262    653.50511  0.019582438  0.019212559            4 
 2782000   0.81585344   -7.8913649    654.04854  0.019591677  0.019206708            2 
 2783000   0.81767244   -7.8882402    653.07823  0.019555582  0.019200841            3 
 2784000   0.82533768   -7.8922577    654.12796   0.01957998  0.019194967            1 
 2785000   0.81452777   -7.8783674    654.17978    0.0195745  0.019189089            3 
 2786000   0.81468399   -7.8702992     652.7488  0.019524671  0.019183196            2 
 2787000   0.80080983   -7.9269085    651.91162  0.019492633  0.019177306            2 
 2788000   0.81118003   -7.8882245    653.00458   0.01951831   0.01917141            5 
 2789000   0.80578048    -7.903872    652.69198  0.019501971  0.019165492            2 
 2790000   0.81250819   -7.9211132    651.55603  0.019461052  0.019159619            7 
 2791000   0.80376008   -7.9193923    653.03318  0.019498184  0.019153706            2 
 2792000   0.80934436   -7.8729477    653.47379  0.019504352  0.019147818            2 
 2793000   0.79281691   -7.8809022    653.40676  0.019495368  0.019141973            2 
 2794000   0.81949723   -7.8918782    654.03246  0.019507052  0.019136143            3 
 2795000   0.82199153   -7.8902154    653.55409  0.019485811  0.019130287            1 
 2796000   0.79347866   -7.8915951    652.55274  0.019448997  0.019124431            5 
 2797000   0.80551338   -7.8798094    655.67359  0.019535025  0.019118598            1 
 2798000   0.79890137   -7.8950305     653.2625  0.019456234  0.019112755            2 
 2799000   0.78856363   -7.9110136     654.3156  0.019480636  0.019106872            2 
 2800000   0.80044516   -7.8645249    653.42669  0.019447223  0.019101012            2 
 2801000    0.8140659   -7.8845803    654.89591  0.019483991  0.019095169            9 
 2802000   0.78126812   -7.8988152    654.21089  0.019456665  0.019089357            2 
 2803000   0.78495405   -7.8476106    656.25061  0.019510364  0.019083542            4 
 2804000   0.80990922   -7.9163442    653.19694  0.019412653  0.019077738            2 
 2805000   0.81574929   -7.8806591    655.23796  0.019466368  0.019071913            4 
 2806000   0.82087406   -7.9091551     654.4362   0.01943562  0.019066119            3 
 2807000   0.78192274   -7.8944003    655.34451  0.019455662  0.019060337            2 
 2808000   0.79589712   -7.8794115    655.96668  0.019467197  0.019054557            1 
 2809000    0.7951729   -7.8871454    654.34116  0.019412044  0.019048786            1 
 2810000   0.81041857   -7.8716641    655.83798  0.019449525  0.019043022            1 
 2811000    0.8135557   -7.9180335    654.80089  0.019411861  0.019037242            1 
 2812000   0.79771238   -7.8776677    654.56555  0.019397983  0.019031442            1 
 2813000   0.79077795   -7.8806309    654.71427  0.019395493   0.01902565            3 
 2814000   0.80640592   -7.9024022     654.9578  0.019395813  0.019019858            3 
 2815000   0.80107487   -7.8657789    655.70496  0.019411041  0.019014083            2 
 2816000   0.80460839    -7.906478    655.54575  0.019399436  0.019008288            2 
 2817000   0.81280652   -7.9038498    655.14632  0.019380734  0.019002472            1 
 2818000   0.79941194   -7.8777266    654.22003  0.019346464  0.018996653            2 
 2819000    0.7882183   -7.8858233    654.67967  0.019353189  0.018990859            2 
 2820000   0.80019269   -7.9052985    653.89762  0.019323216  0.018985063            1 
 2821000   0.78592691   -7.8913631    655.61776  0.019367179  0.018979208            1 
 2822000    0.8008059   -7.8867072    655.35152  0.019352455  0.018973372            3 
 2823000   0.78984077   -7.9187274    654.69247  0.019326145  0.018967515            1 
 2824000   0.78344567   -7.9185681    654.89598  0.019325306  0.018961669            2 
 2825000   0.80251921   -7.8986002    654.95547   0.01932022  0.018955806            2 
 2826000   0.78967982   -7.9577646    653.11039  0.019258976  0.018949933            1 
 2827000   0.79931575   -7.9058362    655.86402  0.019333334  0.018944047            2 
 2828000   0.80115891   -7.9084784    654.40681  0.019283557  0.018938166            3 
 2829000   0.78951925   -7.9161378    653.71928  0.019256489  0.018932269            2 
 2830000   0.79473696   -7.9194889    655.34157  0.019297455  0.018926401            3 
 2831000   0.79364853   -7.9052054    656.49983  0.019324733  0.018920538            2 
 2832000   0.81141628   -7.9086872    655.21361  0.019280061  0.018914663            2 
 2833000    0.7891596   -7.9257296    653.44145  0.019221127  0.018908789            3 
 2834000   0.77922259   -7.9241541    655.41255  0.019272305  0.018902948            4 
 2835000   0.79492134   -7.9010301    654.76414  0.019246447  0.018897101            2 
 2836000   0.78769373   -7.9080405    654.04389  0.019218497  0.018891257            1 
 2837000   0.79868813   -7.9308832    654.35482  0.019220856  0.018885405            2 
 2838000   0.80904514   -7.9315522     654.3517  0.019213992   0.01887953            3 
 2839000   0.79666303   -7.9312938    654.56696  0.019213542  0.018873628            2 
 2840000   0.80511402   -7.9113468    655.81642  0.019243439  0.018867721            2 
 2841000   0.78130678   -7.9077542    655.91195  0.019239468  0.018861821            2 
 2842000   0.78046895   -7.9381182    654.06122  0.019178431   0.01885591            3 
 2843000   0.80892337   -7.9362282    653.99148  0.019169641  0.018849995            3 
 2844000   0.78470515   -7.9370254      654.907  0.019189727  0.018844102            2 
 2845000   0.78940748   -7.9397898    654.91477  0.019183209  0.018838217            3 
 2846000   0.80990148   -7.9231139     654.1425  0.019153856  0.018832323            2 
 2847000   0.80080509   -7.9441915    653.93046  0.019140922   0.01882641            2 
 2848000   0.79923407   -7.9324778    654.98912  0.019165178   0.01882052            4 
 2849000    0.7841625   -7.9158531     654.4222  0.019141868   0.01881465            3 
 2850000    0.7978636   -7.9470163    654.94239  0.019150362  0.018808772            3 
 2851000   0.79404297   -7.9532115     654.4146  0.019128218  0.018802891            2 
 2852000     0.811514   -7.9326595    653.60108  0.019097741  0.018797018            2 
 2853000   0.79280405   -7.9543864    654.11669  0.019106107  0.018791139            1 
 2854000   0.77370977   -7.9436938    656.29643  0.019163059  0.018785268            4 
 2855000   0.79996576   -7.9217476    656.82744  0.019171846  0.018779442            3 
 2856000   0.80559761   -7.9483467    655.82056  0.019135754  0.018773627            1 
 2857000   0.79719873   -7.9132993    656.20681  0.019140322  0.018767793            3 
 2858000    0.8037332    -7.911963     656.7063  0.019148189  0.018761984            3 
 2859000   0.79764233    -7.928334    655.79106  0.019114815  0.018756181            2 
 2860000   0.78452974   -7.9146593    656.13688  0.019118208  0.018750351            1 
 2861000   0.79161599   -7.9229453    658.48192   0.01917983  0.018744548            2 
 2862000   0.79789234   -7.9205235    655.93458  0.019098957   0.01873875            2 
 2863000   0.79241913   -7.9097804    655.89041  0.019091001  0.018732948            2 
 2864000   0.78799947   -7.9231367     656.3848   0.01909872  0.018727126            3 
 2865000   0.77940948   -7.9257796    656.14012  0.019084937   0.01872131            1 
 2866000   0.79725921   -7.9226136    657.43386  0.019115895  0.018715475            4 
 2867000    0.7842311   -7.9169941    655.74225  0.019060058  0.018709661            4 
 2868000   0.81389529   -7.9173923    656.44136  0.019073726  0.018703838            2 
 2869000    0.8077772   -7.9545395    655.23957  0.019032171  0.018697998            1 
 2870000   0.77099201   -7.8952587    657.09787  0.019079497  0.018692173            4 
 2871000   0.77275077   -7.9408792    656.39152  0.019052349  0.018686384            3 
 2872000   0.77635353   -7.9155425     656.0113  0.019034683  0.018680568            2 
 2873000    0.7914063   -7.9140173    656.34095  0.019037619  0.018674744            6 
 2874000   0.79652121     -7.91519    656.55959  0.019037334  0.018668955            1 
 2875000   0.79233553   -7.9431873    655.99518  0.019014353  0.018663169            5 
 2876000   0.78383341   -7.9168208    655.69768  0.018999121  0.018657351            2 
 2877000   0.79375165    -7.897675    656.96292  0.019029166  0.018651524            1 
 2878000    0.7974961   -7.9167566    658.75309  0.019074389  0.018645728            2 
 2879000   0.80555793   -7.9111138    658.17922  0.019051153   0.01863992            1 
 2880000   0.79154632   -7.9457981    656.40579  0.018993223  0.018634119            2 
 2881000   0.79265001   -7.9544596     656.3587  0.018985268  0.018628279            1 
 2882000   0.77880011   -7.9645153    655.76856  0.018961617  0.018622412            4 
 2883000   0.78015509   -7.9483857    656.00326  0.018961824   0.01861654            3 
 2884000   0.79682226   -7.9630005    655.57973  0.018943011  0.018610683            2 
 2885000   0.79674961   -7.9504682    656.39757  0.018960069  0.018604853            2 
 2886000   0.80096689   -7.9455214    655.97549  0.018941311  0.018599026            2 
 2887000    0.8001981   -7.9437503    657.53044  0.018979634  0.018593211            3 
 2888000   0.79790002   -7.9207611    657.60368  0.018975175  0.018587399            2 
 2889000   0.78465064   -7.9298666    657.57259  0.018967711  0.018581592            3 
 2890000   0.80675491   -7.9115699     659.3651  0.019012835  0.018575816            2 
 2891000   0.78277109   -7.9388868     659.3718  0.019006451  0.018570047            1 
 2892000   0.78798359   -7.9485647    657.06748   0.01893348  0.018564263            4 
 2893000   0.80041451   -7.9133202    658.44307  0.018966559   0.01855848            2 
 2894000   0.77547281   -7.9454263     658.1755  0.018952301  0.018552695            2 
 2895000   0.80329953   -7.9553416    657.90363  0.018937928   0.01854691            3 
 2896000    0.7603162   -7.9397253    658.89004  0.018959773  0.018541122            2 
 2897000   0.79014682   -7.9471046    656.91455  0.018896403  0.018535328            2 
 2898000    0.7729653   -7.9660997    656.68708  0.018883341  0.018529511            2 
 2899000   0.79109331   -7.9463966    656.88887  0.018882628  0.018523689            1 
 2900000   0.80727727   -7.9406022    657.57323  0.018895782  0.018517878            1 
 2901000   0.80039441   -7.9483342    655.60281  0.018832667   0.01851205            1 
 2902000   0.80109636   -7.9308948    658.30593    0.0189038   0.01850626            2 
 2903000   0.77802402   -7.9229068    658.39569  0.018899865  0.018500496            4 
 2904000   0.77622543   -7.9511244    659.15608  0.018915177   0.01849476            2 
 2905000   0.78923231   -7.9434398    657.90947  0.018872905   0.01848901            1 
 2906000   0.79384166    -7.937779     659.2581  0.018905084  0.018483279            3 
 2907000   0.79177722   -7.9387992    658.17534  0.018867542  0.018477527            3 
 2908000   0.78975461   -7.9671784    659.08502  0.018887122  0.018471794            3 
 2909000   0.78432138   -7.9152945    660.05524  0.018908423  0.018466051            2 
 2910000   0.79626653   -7.9418341    657.33464  0.018824016  0.018460309            2 
 2911000   0.78544487   -7.9376308    658.04225  0.018837806  0.018454575            3 
 2912000   0.78293132   -7.9542121    658.93443  0.018856869  0.018448806            1 
 2913000   0.78286816   -7.9254992    659.20876  0.018858244  0.018443075            2 
 2914000   0.78539251   -7.9365224    659.42566  0.018857975  0.018437324            1 
 2915000   0.78213503   -7.9105793    659.28012  0.018847345  0.018431588            3 
 2916000   0.79415957   -7.9817048    657.51943  0.018790564  0.018425851            2 
 2917000   0.78464939   -7.9320256    659.29873  0.018834954   0.01842013            2 
 2918000   0.79516081   -7.9393625    659.95565   0.01884726  0.018414403            6 
 2919000   0.79396471    -7.939218    658.11283  0.018788193  0.018408679            2 
 2920000   0.77551402    -7.941468    660.40964  0.018847307  0.018402912            2 
 2921000   0.77907358   -7.9344671    659.32527  0.018809919  0.018397147            2 
 2922000    0.7891841   -7.9645708    657.55827  0.018753088  0.018391388            2 
 2923000   0.79780917   -7.9492512    657.63132  0.018748755  0.018385643            2 
 2924000   0.77642521   -7.9398463     658.8533  0.018777169  0.018379902            4 
 2925000   0.77692043   -7.9917073    657.48581   0.01873179  0.018374152            1 
 2926000   0.77998878   -7.9469557    659.21394  0.018774605  0.018368401            1 
 2927000    0.7838878   -7.9467331    660.08363  0.018792951  0.018362682            3 
 2928000   0.79012787   -7.9287201    660.89498  0.018809625  0.018356978            2 
 2929000   0.76261587   -7.9563514    658.06952  0.018722816  0.018351247            1 
 2930000   0.77295434   -7.9644311    659.34496  0.018752701  0.018345513            5 
 2931000   0.77324608   -7.9650879    659.63887  0.018754659  0.018339776            2 
 2932000   0.79745481   -7.9313209    659.23582  0.018736807  0.018334069            2 
 2933000   0.80379442   -7.9415638    659.27532  0.018731541  0.018328364            1 
 2934000    0.7877962   -7.9449436    659.36711  0.018727764   0.01832264            2 
 2935000   0.80101881   -7.9680156    660.37018  0.018749863  0.018316904            1 
 2936000   0.77138428   -7.9955337    658.03908  0.018677313  0.018311154            2 
 2937000   0.78305346   -7.9610437    659.28924  0.018706425  0.018305415            3 
 2938000   0.76935636   -7.9419421    659.65442  0.018710416  0.018299663            6 
 2939000   0.79492882   -7.9610244    657.97855  0.018656532    0.0182939            2 
 2940000   0.78960606   -7.9921111    659.86356  0.018703616  0.018288119            3 
 2941000   0.77516731   -7.9721164    659.42045    0.0186847  0.018282328            3 
 2942000   0.78041508   -7.9501144    659.78302  0.018688619  0.018276558            2 
 2943000   0.77828213   -7.9617945    659.95185   0.01868705  0.018270809            3 
 2944000   0.79263083   -7.9596104    659.43871  0.018666177  0.018265032            4 
 2945000   0.80838225   -7.9442533    660.09897  0.018678522  0.018259298            3 
 2946000   0.78666363   -7.9733724    658.38308  0.018623645  0.018253569            1 
 2947000   0.77318417   -7.9385256    660.33904  0.018672634  0.018247816            4 
 2948000   0.81402138   -7.9648029       658.88  0.018625057  0.018242085            1 
 2949000   0.77996555   -7.9615431    659.27433  0.018629884  0.018236381            2 
 2950000   0.76755197   -7.9582652    659.44125  0.018628284  0.018230634            3 
 2951000   0.77714167   -7.9464624     660.8837  0.018662705  0.018224908            2 
 2952000   0.78070646   -7.9706137    657.72278  0.018567152  0.018219155            3 
 2953000   0.78655106   -7.9418742    660.14475  0.018629212  0.018213424            4 
 2954000   0.78897932   -7.9516848    659.08618  0.018593043  0.018207713            3 
 2955000   0.78198866    -7.960906     659.8363  0.018607905  0.018202008            1 
 2956000   0.77250509    -7.977812    659.38073  0.018588767  0.018196279            2 
 2957000   0.76707078   -7.9732352    659.68981  0.018591191  0.018190538            4 
 2958000   0.77068651   -7.9507416    659.11604  0.018568741  0.018184809            3 
 2959000   0.77789496   -7.9691556    658.40064  0.018542318  0.018179082            3 
 2960000   0.78074627   -7.9471869      660.616  0.018598423  0.018173331            4 
 2961000   0.76023982   -7.9643954    658.79378  0.018540858  0.018167585            2 
 2962000   0.76793296   -7.9390731    658.52856  0.018527137  0.018161867            4 
 2963000    0.7678251   -7.9525839    659.93567  0.018560459  0.018156168            3 
 2964000   0.77601939   -7.9526587    661.11609  0.018587384  0.018150447            1 
 2965000   0.77451883   -7.9334167    658.92193  0.018519447  0.018144726            3 
 2966000    0.7730632   -7.9655028     658.6789  0.018506375  0.018138971            2 
 2967000    0.7742152   -7.9557143    661.06177  0.018567065  0.018133227            2 
 2968000   0.80587549   -7.9368717    659.18817  0.018508203  0.018127488            3 
 2969000   0.77242392   -7.9908743    658.68912  0.018487962  0.018121787            1 
 2970000   0.78223685    -7.975976     661.5051  0.018560749  0.018116089            4 
 2971000   0.78836503   -7.9779204    659.81292  0.018507038  0.018110387            1 
 2972000   0.77856353   -7.9903298    660.12992  0.018509699  0.018104635            1 
 2973000   0.78319994   -7.9937713    660.68093  0.018518918  0.018098865            2 
 2974000   0.77487813   -7.9898326    659.47347  0.018478858   0.01809309            2 
 2975000   0.77778549    -7.969317    659.44986  0.018471985  0.018087326            3 
 2976000   0.78327345   -7.9758907    659.42308  0.018465028  0.018081565            2 
 2977000   0.76768167   -7.9759557    658.49694  0.018432901  0.018075828            3 
 2978000   0.76489505   -7.9498761    660.37283  0.018479204  0.018070095            2 
 2979000   0.74812463   -7.9637566    660.84656  0.018486253  0.018064381            3 
 2980000    0.7667705   -7.9796317    660.79784  0.018478687  0.018058667            2 
 2981000   0.78469784   -7.9535987    661.66799  0.018496813  0.018052982            2 
 2982000   0.76609247   -7.9734238    659.73766  0.018436666  0.018047289            1 
 2983000   0.76974863   -7.9309083    661.11963  0.018469092    0.0180416            3 
 2984000   0.77266243    -7.958445     661.3984  0.018470688  0.018035926            4 
 2985000   0.78239173   -7.9532499    661.74146  0.018474078  0.018030287            2 
 2986000   0.77149514   -7.9429891    660.59418  0.018435872  0.018024618            2 
 2987000   0.75577946   -7.9491618    661.88651  0.018465755  0.018018947            2 
 2988000   0.78646279   -7.9885928     659.4249  0.018390922  0.018013259            1 
 2989000   0.77670379   -7.9789687    661.03414  0.018429635   0.01800756            1 
 2990000   0.77853009   -7.9748492    662.66305   0.01846887  0.018001861            2 
 2991000   0.76841803   -7.9843502    661.89273  0.018441233  0.017996191            1 
 2992000   0.77465522   -7.9724885    661.50106  0.018424161  0.017990541            3 
 2993000   0.79459219   -7.9702566    660.76603  0.018397539  0.017984853            2 
 2994000   0.77122965   -7.9645512    660.94004  0.018396238  0.017979192            1 
 2995000   0.76833981   -7.9916214    660.61504  0.018381053  0.017973522            2 
 2996000   0.77702755   -7.9697477    662.00329  0.018413532  0.017967821            1 
 2997000    0.7616839   -7.9583383    662.04984  0.018408682  0.017962175            2 
 2998000   0.77171794   -7.9666096    660.40043  0.018356694  0.017956503            1 
 2999000   0.76730201   -7.9560288    662.71371  0.018414852  0.017950829            2 
 3000000   0.77721703   -7.9566877    660.92359  0.018358989  0.017945173            3 
 3001000   0.76869421   -7.9754153     663.1539  0.018414803  0.017939506            4 
 3002000   0.77254344   -7.9776482    661.92212  0.018374476  0.017933847            2 
 3003000   0.77175631   -7.9454522    662.36896  0.018380757  0.017928204            3 
 3004000   0.75736524   -7.9660137      662.157  0.018368758  0.017922572            3 
 3005000   0.77003318   -7.9657272      661.291   0.01833863  0.017916924            3 
 3006000   0.76644959   -7.9607452    663.74974  0.018400691  0.017911268            1 
 3007000   0.78899707   -7.9701064    660.95783    0.0183172  0.017905617            1 
 3008000   0.76075005     -8.00512    661.89907  0.018337186   0.01789999            3 
 3009000   0.78278561   -7.9823177     661.4985  0.018319998  0.017894351            3 
 3010000   0.76283082   -7.9966464    660.56867  0.018288169  0.017888698            2 
 3011000   0.77623472   -8.0128784    662.67347  0.018340348  0.017883012            2 
 3012000   0.76043462   -8.0097552    661.57251  0.018303799   0.01787735            2 
 3013000    0.7759837   -7.9676867    663.11532  0.018340395  0.017871707            3 
 3014000   0.77268166    -7.983424    662.39148  0.018314297  0.017866074            1 
 3015000   0.79213855   -7.9881107    661.79775  0.018291812  0.017860441            2 
 3016000   0.76022597   -7.9792423    661.98056  0.018290798  0.017854825            1 
 3017000   0.77488459   -7.9609025    663.95753  0.018339342  0.017849219            1 
 3018000   0.75590237    -7.961567     662.3943  0.018290101  0.017843603            2 
 3019000   0.79163794    -7.981017    662.76754  0.018294345  0.017837996            2 
 3020000    0.7503573   -7.9570864    664.50557  0.018336246   0.01783238            2 
 3021000   0.75351408   -7.9597229    660.73667  0.018226213  0.017826746            5 
 3022000   0.75805071   -7.9745439    663.02853  0.018283381  0.017821139            2 
 3023000   0.77823797   -7.9682773    663.25159  0.018283482  0.017815504            3 
 3024000   0.78355036   -7.9861123    661.49504   0.01822903  0.017809885            2 
 3025000   0.77762742   -7.9419084    663.51423  0.018278629  0.017804281            2 
 3026000   0.77757336   -7.9661751    662.78114    0.0182524  0.017798718            1 
 3027000   0.78180282   -7.9649883    663.05609  0.018253939  0.017793126            1 
 3028000     0.762197   -7.9814131    663.02091  0.018246943  0.017787517            2 
 3029000   0.76030795   -8.0112947    661.54863  0.018200414  0.017781876            2 
 3030000   0.76502553    -8.004891    661.99557  0.018206699  0.017776235            2 
 3031000   0.76774254   -7.9921685    663.50222  0.018242115  0.017770599            1 
 3032000    0.7488818   -7.9714164    662.65177  0.018212725  0.017764986            3 
 3033000    0.7687974   -8.0087391    662.45932  0.018201432   0.01775935            3 
 3034000   0.75147894   -7.9948751    663.59289  0.018226568  0.017753741            1 
 3035000   0.75827265   -7.9808194    662.66406  0.018195059  0.017748126            6 
 3036000   0.75466675   -7.9853844    664.65361  0.018243676  0.017742524            4 
 3037000   0.76512664   -8.0088758    662.36942  0.018174992  0.017736934            2 
 3038000   0.77796857   -7.9705934    662.02781  0.018159639  0.017731338            2 
 3039000   0.79330267   -7.9801168    662.09936  0.018155626  0.017725744            2 
 3040000   0.74724454   -7.9816461    664.05215  0.018203184  0.017720151            2 
 3041000   0.77873847   -8.0072508    663.91459  0.018193428  0.017714542            2 
 3042000   0.78039226   -7.9933824    662.58026  0.018150895   0.01770896            1 
 3043000   0.75541374   -8.0070916    662.44657  0.018141269   0.01770338            4 
 3044000   0.74689333   -8.0100623    662.85705  0.018146547  0.017697756            3 
 3045000   0.75066008   -8.0174827    663.43681  0.018156454  0.017692136            4 
 3046000   0.76964012   -8.0107839    663.78509  0.018160021  0.017686525            2 
 3047000   0.75829253   -8.0029492    662.73044  0.018125217  0.017680883            3 
 3048000   0.76673303   -7.9903493    664.94307  0.018179765  0.017675255            3 
 3049000   0.78116961   -7.9933186    663.39551  0.018131505  0.017669663            2 
 3050000   0.76808568   -8.0008227    662.08419  0.018089732  0.017664051            2 
 3051000   0.76785281   -7.9989473    662.83795  0.018104391  0.017658437            1 
 3052000   0.76723743   -8.0052633     662.8638  0.018099164  0.017652841            3 
 3053000   0.77172453   -7.9694979    662.41177  0.018080898  0.017647264            2 
 3054000   0.77084241   -8.0122778    663.03836  0.018092075  0.017641683            2 
 3055000   0.75179201    -7.992082     663.7522  0.018105625  0.017636112            5 
 3056000   0.75498596   -7.9935648    665.53454  0.018148302  0.017630536            1 
 3057000   0.75023432   -7.9996955    663.48236  0.018086424  0.017624942            4 
 3058000   0.75591451   -8.0017786    662.54569  0.018054984  0.017619352            5 
 3059000   0.76434889   -8.0371545    663.85934  0.018084868  0.017613766            1 
 3060000    0.7523511   -8.0351187    661.56965  0.018016603  0.017608144            1 
 3061000   0.74431257   -8.0466125    662.28924  0.018030307  0.017602519            3 
 3062000   0.74848961   -8.0290386     663.1718  0.018048438  0.017596906            2 
 3063000    0.7696816    -8.016512    663.79321  0.018059452  0.017591322            3 
 3064000   0.76652052   -7.9951518     663.8074  0.018053944  0.017585735            3 
 3065000   0.76829902   -8.0179219    662.37587  0.018009132  0.017580192            2 
 3066000   0.75670872   -8.0004221    663.91883  0.018045196  0.017574644            1 
 3067000   0.77271044   -8.0028021    664.85868  0.018064849  0.017569094            3 
 3068000   0.77738099   -7.9844093    663.38371  0.018018897  0.017563541            2 
 3069000   0.77025971   -8.0058514    664.28089  0.018037387   0.01755798            2 
 3070000   0.77292559   -8.0243877    663.26804  0.018004019  0.017552413            2 
 3071000   0.76685453   -8.0040153     663.7985   0.01801255  0.017546834            2 
 3072000   0.75326222   -8.0152539    663.75954   0.01800563  0.017541253            4 
 3073000    0.7487652   -8.0226782    665.14023  0.018037212  0.017535682            2 
 3074000   0.74903016   -8.0134323    664.62435  0.018017359  0.017530119            3 
 3075000   0.74167373   -7.9715816    663.78077  0.017988639   0.01752457            2 
 3076000   0.75923193    -8.016874    664.81547  0.018010822  0.017519012            3 
 3077000     0.766603   -7.9883295    666.18074  0.018041944  0.017513444            3 
 3078000   0.75900822   -8.0092489    662.27151  0.017930244   0.01750789            1 
 3079000   0.75967351    -7.983752    663.87515  0.017967824  0.017502332            3 
 3080000   0.76046078   -8.0219439    664.21649  0.017971225  0.017496769            3 
 3081000   0.73771078   -8.0334805    663.97373  0.017958826  0.017491206            3 
 3082000   0.75826691   -7.9911586    664.99043   0.01798049  0.017485643            2 
 3083000   0.75484213   -8.0452579    663.74597   0.01794102   0.01748007            3 
 3084000   0.75508114   -8.0417165    664.60888  0.017958519  0.017474474            3 
 3085000   0.74457641   -8.0160912    664.01321  0.017936607  0.017468883            2 
 3086000   0.76172573   -8.0315202    662.63098   0.01789347  0.017463295            3 
 3087000   0.76148589   -8.0068106    664.05937  0.017926233  0.017457739            2 
 3088000   0.74401154   -8.0515271    662.74745  0.017885024  0.017452172            2 
 3089000   0.76283583    -8.039146     664.5113  0.017926818  0.017446583            2 
 3090000   0.75875642   -8.0389753     664.4084  0.017918242  0.017440998            2 
 3091000   0.74816868   -8.0259183    663.34279  0.017883716   0.01743541            3 
 3092000   0.74000071   -8.0389773    664.30066  0.017903748  0.017429805            3 
 3093000   0.76186469     -8.03691    664.14727  0.017893827  0.017424185            2 
 3094000   0.74595934   -8.0500548    663.88547  0.017880992  0.017418605            3 
 3095000   0.76129331   -8.0261364    665.13839   0.01790895  0.017413023            1 
 3096000   0.75539694   -8.0305692    663.75203  0.017865849  0.017407468            1 
 3097000   0.75901422   -8.0317333    663.95803  0.017865624  0.017401906            2 
 3098000    0.7862037   -8.0189613    664.74632  0.017881061  0.017396338            2 
 3099000   0.74303935   -8.0284205    664.26074  0.017862234  0.017390775            1 
 3100000   0.75905585   -8.0232903    663.55581  0.017837522  0.017385241            3 
 3101000   0.75828443   -8.0486899    664.16103  0.017848034   0.01737968            6 
 3102000   0.75564773   -8.0550949    662.64043   0.01780143  0.017374086            2 
 3103000   0.75607631   -8.0460272    663.06432  0.017807077   0.01736851            2 
 3104000   0.76135709   -8.0527157    663.99908  0.017826436  0.017362923            1 
 3105000   0.74454398    -8.051415    663.99811  0.017820668  0.017357341            2 
 3106000   0.74885954    -8.053421    663.55504  0.017803044  0.017351769            2 
 3107000    0.7563494   -8.0687615    664.03551    0.0178102  0.017346184            3 
 3108000   0.73626643   -8.0318137    664.47525   0.01781626  0.017340609            1 
 3109000   0.74656297   -8.0416976    664.20707  0.017803342  0.017335055            1 
 3110000   0.73023281   -8.0248088    666.16346  0.017850039  0.017329488            2 
 3111000   0.78078743   -8.0276063    665.65201  0.017830601  0.017323941            2 
 3112000    0.7620202   -8.0330289     663.0669  0.017755648  0.017318389            3 
 3113000   0.74806333   -8.0220858    664.96654  0.017800796  0.017312844            1 
 3114000   0.76083836   -8.0498783    663.37146  0.017752394  0.017307276            1 
 3115000   0.76888208   -8.0406625    662.54944  0.017724704  0.017301689            5 
 3116000   0.77280505   -8.0493161    664.09851  0.017760444  0.017296103            4 
 3117000   0.75110961   -8.0404877    662.50074  0.017712029   0.01729052            1 
 3118000   0.75146466   -8.0409538    663.65406  0.017737173  0.017284933            2 
 3119000    0.7620359   -8.0603117    664.72156  0.017760008  0.017279331            3 
 3120000   0.76899413   -8.0648463     665.3804  0.017771912  0.017273737            2 
 3121000   0.74587978   -8.0435164    664.80403  0.017750828   0.01726817            5 
 3122000   0.73478341   -8.0406008    664.50714  0.017737218  0.017262616            1 
 3123000   0.72190527   -8.0192311     665.6718  0.017762616  0.017257078            2 
 3124000   0.76366038   -8.0484549    665.47711  0.017751737  0.017251571            3 
 3125000    0.7542022   -8.0148375    666.05649  0.017761506  0.017246055            3 
 3126000   0.75549244   -7.9992595    665.69652  0.017746228  0.017240551            2 
 3127000   0.75215956   -8.0385527    665.55676  0.017736829  0.017235044            1 
 3128000   0.75470851   -8.0194651    665.56082  0.017731266  0.017229547            2 
 3129000   0.73860012   -8.0307353    667.11561  0.017767008  0.017224066            2 
 3130000   0.75276967   -8.0226837    666.58593  0.017747229  0.017218587            2 
 3131000   0.75398306   -8.0380065    665.80892  0.017720881   0.01721311            3 
 3132000   0.74403526   -8.0175243    665.07271  0.017695634  0.017207629            3 
 3133000    0.7399801   -8.0378777    665.84555  0.017710542  0.017202162            2 
 3134000   0.74229772   -8.0368373    665.23959  0.017688779    0.0171967            4 
 3135000   0.75023723   -8.0163549    664.44403  0.017661989  0.017191257            7 
 3136000   0.75580316   -8.0161961      665.748  0.017691008  0.017185816            2 
 3137000   0.75130451   -8.0060828    666.04388  0.017693228   0.01718037            2 
 3138000   0.76360261   -8.0624298    666.41855   0.01769754  0.017174924            3 
 3139000   0.74565202   -8.0475573    667.41655  0.017718396  0.017169471            3 
 3140000   0.75059911   -8.0276323    666.30617  0.017683285  0.017163983            1 
 3141000   0.74834687   -8.0253275    666.09306  0.017672001  0.017158511            1 
 3142000    0.7565183   -8.0407232    666.35706  0.017673379   0.01715306            3 
 3143000   0.73847481   -8.0167833    666.86721  0.017681281  0.017147618            3 
 3144000    0.7490618   -8.0440211    664.84405  0.017622033  0.017142175            4 
 3145000   0.75136641   -8.0230045    667.91215  0.017697725  0.017136721            3 
 3146000   0.74121715   -8.0402858    667.13623  0.017671547  0.017131276            2 
 3147000   0.75045733   -8.0516766    665.21628  0.017615091  0.017125807            2 
 3148000   0.75505122   -8.0480776    667.02652  0.017657415   0.01712034            3 
 3149000   0.76046412    -8.066677    665.62116  0.017614617  0.017114874            1 
 3150000   0.73412524   -8.0630841    666.33132  0.017627813   0.01710941            3 
 3151000   0.74843628   -8.0553456    665.91774   0.01761128  0.017103961            1 
 3152000   0.74767163   -8.0508495    666.70102  0.017626402  0.017098528            2 
 3153000   0.72810232   -8.0651608    664.75714  0.017569435   0.01709308            2 
 3154000   0.75344814   -8.0672306    666.21591  0.017602407  0.017087627            1 
 3155000   0.73015252   -8.0477842    666.39148  0.017601465  0.017082169            2 
 3156000    0.7419783   -8.0671474    666.90881  0.017609548  0.017076687            1 
 3157000    0.7473297   -8.0267356     666.5064  0.017593348  0.017071246            1 
 3158000   0.73922643   -8.0774837     665.3805  0.017558067  0.017065782            2 
 3159000   0.72847179   -8.0612143    666.45713   0.01758091  0.017060309            1 
 3160000   0.74029011   -8.0680573    667.26951   0.01759677   0.01705485            1 
 3161000   0.76706309   -8.0791651    666.82912  0.017579593  0.017049386            2 
 3162000   0.75187888   -8.0717577    664.24098  0.017505824   0.01704392            1 
 3163000   0.74496278   -8.0618574    666.71213  0.017565395  0.017038452            3 
 3164000   0.74758713   -8.0545781    666.48486  0.017553858  0.017032978            3 
 3165000   0.75197257    -8.059521    665.90771  0.017533115  0.017027525            1 
 3166000   0.73859954   -8.0719854    665.64734  0.017520724   0.01702206            2 
 3167000   0.74705809   -8.0323763    665.36846  0.017507853  0.017016597            3 
 3168000   0.73202093   -8.0271874    666.49462   0.01753195  0.017011157            2 
 3169000   0.74314012   -8.0430098     666.4223  0.017524516  0.017005709            2 
 3170000   0.75441747   -8.0446089    665.84987   0.01750394  0.017000266            1 
 3171000   0.75460629   -8.0535642    665.89747  0.017499671  0.016994799            3 
 3172000   0.74362464    -8.034887    665.42086  0.017481632  0.016989356            5 
 3173000   0.74874454   -8.0403221     666.4834  0.017504029  0.016983911            2 
 3174000   0.74846988   -8.0691595    666.78367  0.017506398  0.016978461            1 
 3175000   0.74803779   -8.0653281    666.25734  0.017487069   0.01697302            3 
 3176000   0.74854581   -8.0411405    666.66796  0.017492337  0.016967591            2 
 3177000   0.75107824   -8.0598495    666.45356  0.017481208  0.016962137            2 
 3178000   0.74554938   -8.0521844    666.58881  0.017479253  0.016956691            5 
 3179000    0.7345393   -8.0775361    666.45538  0.017470257  0.016951246            3 
 3180000    0.7518931   -8.0702522    667.47351  0.017491444  0.016945808            3 
 3181000   0.76547857    -8.064912    665.81904  0.017442603  0.016940374            3 
 3182000   0.73596258   -8.0829798    667.54179  0.017482238  0.016934935            3 
 3183000   0.72233324   -8.0575338    667.32504  0.017471071  0.016929497            2 
 3184000   0.73458078   -8.0675184    666.97093  0.017456316  0.016924084            2 
 3185000    0.7541389   -8.0370856    666.59982  0.017441126  0.016918692            3 
 3186000   0.74996036   -8.0493779    668.00301  0.017472353  0.016913305            2 
 3187000   0.72827231   -8.0584253    668.74788  0.017486348  0.016907914            2 
 3188000   0.74839128   -8.0891496    666.81872  0.017430435    0.0169025            4 
 3189000   0.73652875   -8.0632469    666.66631  0.017420986   0.01689707            2 
 3190000   0.75186048   -8.0543138    668.17695  0.017454988  0.016891683            4 
 3191000   0.73695107   -8.0635892    668.17066  0.017449354  0.016886283            5 
 3192000   0.74428087   -8.0633713    668.04689  0.017440656  0.016880889            1 
 3193000   0.75291397   -8.0800235    667.46073  0.017419896  0.016875495            5 
 3194000    0.7450472   -8.0655145    667.08648  0.017404678  0.016870081            3 
 3195000   0.74595517   -8.0654657    668.63671  0.017439664  0.016864692            2 
 3196000   0.74066421   -8.0514346     666.8066  0.017386488  0.016859282            2 
 3197000   0.74168604   -8.0391248    667.33861  0.017394917  0.016853873            3 
 3198000   0.73761774   -8.0703645     668.2588  0.017413456  0.016848487            3 
 3199000   0.74664743   -8.0751918    667.86857  0.017397848  0.016843095            1 
 3200000   0.73168989   -8.0612589    667.95948  0.017394778  0.016837699            1 
 3201000   0.76126004   -8.0790373    667.59757  0.017379922  0.016832357            6 
 3202000   0.73047727    -8.035454    668.88063  0.017407886  0.016827029            2 
 3203000   0.75478733   -8.0836447    668.67098  0.017396997  0.016821677            2 
 3204000    0.7473469   -8.0745894    667.20325  0.017353393  0.016816344            3 
 3205000   0.73672196   -8.0376462    668.84256  0.017390602  0.016810997            1 
 3206000   0.73498348   -8.0807049     668.9851  0.017388883  0.016805678            1 
 3207000   0.73152192   -8.0725063    667.98552  0.017357487  0.016800331            1 
 3208000   0.74274759   -8.0776895    668.31535  0.017360644  0.016794976            5 
 3209000   0.74326042   -8.0690451    668.65581  0.017364075   0.01678963            3 
 3210000    0.7390095   -8.0619608    667.24947  0.017322157  0.016784275            3 
 3211000   0.72581289   -8.0568627    666.90503  0.017307823  0.016778927            3 
 3212000   0.74768718    -8.098784    667.52556  0.017318534  0.016773556            2 
 3213000   0.72724233   -8.0546726    667.11153  0.017302405  0.016768182            1 
 3214000   0.70875993   -8.0839935    666.66066  0.017285331  0.016762816            3 
 3215000   0.72730093   -8.0750802    669.82687  0.017362024  0.016757456            5 
 3216000   0.74444487   -8.1081288    667.67802  0.017300944  0.016752094            3 
 3217000   0.75121743   -8.0488061    669.10444  0.017332516  0.016746758            4 
 3218000   0.74282423   -8.0675563    668.91759  0.017322291  0.016741414            4 
 3219000   0.74804158   -8.0607384    666.72282  0.017260092   0.01673605            2 
 3220000   0.73769806   -8.0667913    667.44213  0.017273347  0.016730671            2 
 3221000   0.71464751   -8.0709482    669.13648   0.01731182  0.016725328            3 
 3222000    0.7486343   -8.0822274    668.32871  0.017285555  0.016719979            2 
 3223000   0.74919395   -8.0526043    669.39103  0.017307659  0.016714643            1 
 3224000   0.75082875   -8.0564996    669.30285  0.017300012  0.016709327            3 
 3225000   0.72981968    -8.053158    669.13285  0.017290255  0.016704019            2 
 3226000   0.74223258   -8.0402188     669.8669  0.017303857  0.016698709            2 
 3227000   0.75333341   -8.0567957    668.13715  0.017253826  0.016693367            2 
 3228000   0.71973989   -8.0879293    667.71693  0.017237632  0.016688034            4 
 3229000   0.73894576   -8.0576793     667.8629  0.017236061  0.016682687            2 
 3230000   0.72823061    -8.063596    668.49401  0.017247008  0.016677344            2 
 3231000   0.73565773    -8.075042    667.69129  0.017220966   0.01667199            3 
 3232000   0.72566264   -8.0717969    667.47403  0.017210036  0.016666643            2 
 3233000   0.73762339   -8.0862819    667.92332  0.017216293  0.016661293            2 
 3234000   0.74223419   -8.0890755    668.41866  0.017223734  0.016655931            4 
 3235000   0.73036875   -8.0863093     667.2348  0.017187914  0.016650591            2 
 3236000   0.74736849   -8.0938641    668.32846  0.017210766   0.01664527            2 
 3237000   0.73718828   -8.0996137    669.04243   0.01722383  0.016639929            2 
 3238000   0.73099756   -8.0972905    669.19251  0.017222373  0.016634562            2 
 3239000   0.73668515   -8.0953242    668.26747  0.017193256  0.016629218            3 
 3240000    0.7191284   -8.0814181    668.06328  0.017182698   0.01662387            3 
 3241000   0.72875707   -8.0909525    668.15379  0.017179723  0.016618522            4 
 3242000   0.73278131   -8.0936476    667.35031  0.017153771  0.016613183            3 
 3243000   0.73132572   -8.0711253    669.31453  0.017198955  0.016607833            6 
 3244000   0.71370406   -8.0749387    667.33088  0.017142696  0.016602489            2 
 3245000   0.73837406   -8.0906871     669.1398  0.017183868  0.016597162            3 
 3246000    0.7332785   -8.0757494    668.98039  0.017174481  0.016591846            6 
 3247000   0.72829009   -8.0472243    668.57291  0.017158734  0.016586518            1 
 3248000   0.72581325   -8.0480141     670.0489   0.01719132  0.016581207            4 
 3249000   0.72213436   -8.0672439    669.58719  0.017174187  0.016575884            2 
 3250000   0.73743516   -8.0784321    668.31119  0.017136184  0.016570565            2 
 3251000   0.73081912   -8.0734139    668.78323  0.017143013  0.016565262            3 
 3252000   0.73034925   -8.0746314    668.04085  0.017118718  0.016559951            3 
 3253000    0.7358687   -8.0671825    668.37831    0.0171221  0.016554639            3 
 3254000    0.7444099   -8.0659384    668.68495  0.017124692  0.016549323            4 
 3255000    0.7198495   -8.0920894    669.48674  0.017139957  0.016544008            2 
 3256000   0.73393751   -8.0789531    668.86128  0.017118686  0.016538693            1 
 3257000    0.7301216   -8.0836161    669.01984  0.017117486  0.016533364            4 
 3258000   0.75236299   -8.1043902    667.28395  0.017067832  0.016528042            2 
 3259000   0.73826852   -8.0678669    668.92905   0.01710466  0.016522729            5 
 3260000    0.7188507   -8.0656156    668.81382  0.017096468  0.016517428            2 
 3261000   0.72667868   -8.0867783    669.44948  0.017107469  0.016512125            2 
 3262000   0.74559043   -8.1175878    667.54651   0.01705361  0.016506796            3 
 3263000   0.72000976   -8.0974579    668.38147  0.017069707  0.016501466            5 
 3264000   0.71550443   -8.0735443    669.11521  0.017083211  0.016496162            3 
 3265000   0.74849563   -8.0810322    667.85623  0.017045846  0.016490847            4 
 3266000   0.73110836   -8.0743616    670.10551  0.017098018  0.016485543            2 
 3267000   0.73324864   -8.0976868    669.53688   0.01707828  0.016480235            2 
 3268000   0.72050533   -8.0509069    669.58747  0.017074344  0.016474926            3 
 3269000   0.72750491   -8.0974905    669.47127  0.017066159  0.016469626            5 
 3270000   0.74747746   -8.0609898    670.72981  0.017093012  0.016464333            1 
 3271000   0.74638035    -8.109893    668.26586  0.017025014  0.016459037            3 
 3272000   0.73843933   -8.0787499    668.97335   0.01703783  0.016453743            8 
 3273000   0.72796593   -8.0831219    669.04931  0.017034558  0.016448448            2 
 3274000   0.71550657    -8.086296    669.46582  0.017039957  0.016443164            4 
 3275000   0.74049993   -8.0957717    668.09531  0.016999881  0.016437877            3 
 3276000   0.72041096   -8.0993451     668.7303  0.017010844  0.016432592            2 
 3277000   0.72357414   -8.1080061    668.19106   0.01699194  0.016427291            3 
 3278000    0.7236858   -8.0877589    669.22732    0.0170131  0.016421971            4 
 3279000   0.72453189   -8.1003949    668.08365  0.016978847  0.016416658            2 
 3280000   0.72614759   -8.1280593    668.73402  0.016990194  0.016411345            3 
 3281000   0.72857148   -8.0776327    668.15608  0.016970336  0.016406043            4 
 3282000   0.73300415   -8.0977687    668.00679  0.016961375  0.016400751            4 
 3283000   0.72042291   -8.0923196    668.13989  0.016959587   0.01639547            2 
 3284000   0.73131355   -8.0946108    666.99493  0.016925369  0.016390178            3 
 3285000   0.72466616   -8.1522347    668.49526  0.016958276  0.016384884            3 
 3286000   0.73129976   -8.1367707    668.45373  0.016952063  0.016379599            3 
 3287000   0.73848642   -8.1224944     669.3832   0.01697047  0.016374291            2 
 3288000   0.71610074   -8.1026132    667.54793  0.016918794  0.016368987            3 
 3289000    0.7339564   -8.1108589    668.66199  0.016941877  0.016363698            2 
 3290000   0.72100056    -8.044644    670.55629  0.016984709  0.016358431            1 
 3291000    0.7400228   -8.1025169    669.36033  0.016949264  0.016353174            2 
 3292000   0.72193666   -8.1105735     668.5236  0.016922934  0.016347896            2 
 3293000   0.73830022   -8.1196007    667.42326   0.01688995  0.016342616            3 
 3294000   0.73273966   -8.1055593    669.79538  0.016944833  0.016337338            1 
 3295000   0.73762662   -8.1033342    670.46967  0.016956744   0.01633208            2 
 3296000   0.72664305   -8.0978599    670.03746  0.016940672   0.01632682            1 
 3297000   0.73117727   -8.1017016    669.53179  0.016922753  0.016321546            1 
 3298000   0.74398281    -8.100671    668.46387  0.016890637   0.01631628            2 
 3299000   0.73654522   -8.1312044    667.08765  0.016850754     0.016311            4 
 3300000   0.71559198   -8.1203267    668.83405  0.016889749  0.016305707            4 
 3301000   0.71828929   -8.1093756    668.32513  0.016871785  0.016300425            1 
 3302000   0.73145643   -8.1147114    670.25905  0.016915482  0.016295151            2 
 3303000     0.716958   -8.1083889    669.30832  0.016886374  0.016289869            4 
 3304000    0.7214599   -8.1132905    669.83627  0.016894579  0.016284591            4 
 3305000   0.73450362   -8.1404959    670.12492  0.016896745  0.016279308            2 
 3306000   0.72792448   -8.1246128    668.69537    0.0168556  0.016274038            1 
 3307000   0.72151258    -8.110839     670.3896  0.016893196  0.016268767            2 
 3308000   0.72302815    -8.119599    668.12896  0.016831141  0.016263503            1 
 3309000   0.72110204   -8.1227472    668.83221  0.016843765  0.016258212            3 
 3310000   0.71029297   -8.1234312    669.30344   0.01685054  0.016252923            1 
 3311000    0.7150188   -8.1209174    668.37089   0.01682198  0.016247637            2 
 3312000   0.70655515   -8.1137637    669.88088  0.016854893  0.016242359            1 
 3313000   0.71301287   -8.1329933    668.65612  0.016818999  0.016237078            2 
 3314000    0.7329558   -8.1014388     668.4094   0.01680772  0.016231819            2 
 3315000   0.71899856   -8.1346357    669.30408   0.01682514  0.016226543            1 
 3316000   0.71400048   -8.1386596    670.13952  0.016841061  0.016221268            2 
 3317000   0.71594846   -8.1361762    668.42893  0.016793009  0.016215982            2 
 3318000   0.72061998   -8.1254121    668.26628  0.016783863  0.016210695            1 
 3319000   0.72048782   -8.0980497    668.23289  0.016777967  0.016205432            1 
 3320000   0.72628368   -8.1165947     667.8629  0.016763627  0.016200153            2 
 3321000   0.73114069   -8.0898741    669.68763  0.016804367  0.016194887            2 
 3322000   0.71727099   -8.1117043    669.43627  0.016793003  0.016189628            1 
 3323000   0.71631838   -8.1020692    669.55454  0.016790915  0.016184398            4 
 3324000   0.71928744   -8.1079672    670.07723  0.016798968  0.016179146            1 
 3325000   0.71244161    -8.087903    668.61949  0.016757381  0.016173893            2 
 3326000    0.7121169   -8.1149672    670.32967  0.016795191  0.016168663            3 
 3327000   0.72665191   -8.1084875    669.06751  0.016758529  0.016163399            2 
 3328000   0.71499012   -8.0984919    669.07495   0.01675368  0.016158159            2 
 3329000   0.73832848   -8.1615849    668.43963  0.016732743  0.016152908            1 
 3330000   0.72934913   -8.1150091    669.95606  0.016765667   0.01614766            2 
 3331000   0.71213642   -8.1387915    668.92262   0.01673478  0.016142397            5 
 3332000   0.73465915   -8.1387764    668.46896  0.016718411  0.016137136            1 
 3333000   0.72431868   -8.1460105    668.18694  0.016706344  0.016131881            2 
 3334000   0.72221098   -8.1393026    669.61979  0.016737147  0.016126628            2 
 3335000   0.71443869   -8.1639297    669.18616  0.016721293  0.016121377            3 
 3336000   0.72773755   -8.1473064    667.93281  0.016684972  0.016116116            2 
 3337000   0.71241766   -8.1315678     670.5676   0.01674577  0.016110859            5 
 3338000   0.73648551   -8.1034463    668.44867  0.016687854  0.016105624            3 
 3339000   0.69853494   -8.0815025    669.61469  0.016711957  0.016100391            5 
 3340000    0.7278127   -8.1292031    670.90047  0.016739034  0.016095157            6 
 3341000   0.72385651   -8.1452083    669.19081   0.01669138  0.016089925            4 
 3342000    0.7118554    -8.116054    668.49148  0.016668948  0.016084693            2 
 3343000    0.6991505   -8.1685237    668.84009  0.016672651  0.016079443            4 
 3344000   0.70611945   -8.1438849    669.69491  0.016688968  0.016074202            2 
 3345000   0.72294682   -8.1145828    669.83362  0.016687435  0.016068976            2 
 3346000   0.71313736   -8.1247939    670.09952  0.016689069  0.016063736            2 
 3347000   0.72400518   -8.1413075    668.28419  0.016638885  0.016058502            3 
 3348000   0.71330358   -8.1581288    668.15359  0.016630665  0.016053265            3 
 3349000   0.71395199   -8.1580981    667.66062  0.016613432  0.016048011            2 
 3350000   0.71795418   -8.1401718     669.2039  0.016646863  0.016042769            1 
 3351000   0.71527863   -8.1037776    669.83089  0.016657487  0.016037532            2 
 3352000   0.69854687   -8.1292206    667.79792  0.016601977  0.016032294            3 
 3353000   0.72172646   -8.1162585    669.36805  0.016636049  0.016027056            1 
 3354000   0.72180788   -8.1507306    669.47768  0.016633812  0.016021808            2 
 3355000   0.72546045   -8.1660464    668.84356  0.016613104  0.016016558            2 
 3356000   0.71065532   -8.1240662    667.98894  0.016586932  0.016011294            1 
 3357000   0.71498908   -8.1563993    669.50619  0.016619655  0.016006044            1 
 3358000   0.71002276   -8.1698296    669.84119  0.016623019   0.01600079            2 
 3359000   0.72610216    -8.180141    668.10644  0.016575033  0.015995531            3 
 3360000   0.72123517   -8.1562938    668.35577  0.016576284  0.015990267            2 
 3361000    0.7156889    -8.169363    669.09229  0.016589614  0.015985012            1 
 3362000   0.70513496   -8.1385707    669.30001  0.016589828   0.01597977            1 
 3363000   0.71896509   -8.1600338    668.25801  0.016559075  0.015974524            3 
 3364000   0.70314838   -8.1680643    668.24337  0.016553789  0.015969282            5 
 3365000   0.71691365   -8.1405393    669.44395  0.016578602  0.015964048            2 
 3366000   0.71341499   -8.1618364    669.53642  0.016575966  0.015958798            1 
 3367000   0.71948049   -8.1733433    667.76986   0.01652732  0.015953561            3 
 3368000   0.70651076   -8.1440572    669.37666   0.01656217  0.015948326            3 
 3369000   0.70759745   -8.1511181    671.06725  0.016599071  0.015943109            3 
 3370000   0.70508487   -8.1621694     668.7287  0.016536318  0.015937881            3 
 3371000   0.72517091   -8.1595474    668.13582  0.016516756  0.015932663            1 
 3372000   0.71867509   -8.1673238    667.83726   0.01650448  0.015927437            4 
 3373000   0.70608318    -8.145878    669.84209  0.016549118  0.015922222            3 
 3374000   0.71155528   -8.1448434    668.66891  0.016515237  0.015917021            2 
 3375000   0.70273694   -8.1429999    668.78711  0.016513262  0.015911825            2 
 3376000   0.70524036   -8.1372201    670.49949  0.016550639  0.015906624            3 
 3377000   0.72506366   -8.1425178    669.72448  0.016526613  0.015901431            2 
 3378000   0.70769422   -8.1573933    669.82915  0.016524303  0.015896242            1 
 3379000   0.71480047     -8.16085    668.45643  0.016485559  0.015891044            1 
 3380000   0.71723602   -8.1553896    668.95275  0.016492918  0.015885855            1 
 3381000   0.72262414   -8.1311884    670.06915  0.016515556  0.015880654            2 
 3382000     0.722436   -8.1197542    669.63814  0.016500053  0.015875456            2 
 3383000   0.71630156   -8.1434608    671.91009   0.01655114  0.015870267            2 
 3384000   0.70273773   -8.1476804    669.84919  0.016495498    0.0158651            2 
 3385000   0.71091073   -8.1247559    668.71853   0.01646279  0.015859935            2 
 3386000   0.70870247   -8.1475138    670.28437  0.016496465  0.015854764            3 
 3387000   0.71147008   -8.1171197     670.7787  0.016503757  0.015849606            5 
 3388000   0.71142715   -8.1434981    669.92211  0.016477816   0.01584443            4 
 3389000   0.71721701   -8.1536366    668.64142  0.016441463  0.015839244            3 
 3390000   0.72324433   -8.1360857    670.16864  0.016474155  0.015834096            5 
 3391000   0.70552203   -8.1497683    669.64206  0.016456357  0.015828925            3 
 3392000   0.71180284   -8.1561629     670.2025  0.016465274  0.015823763            1 
 3393000   0.69789582   -8.1307429    669.39437  0.016440573  0.015818598            2 
 3394000   0.72699283   -8.1782885    669.44795  0.016437045  0.015813446            2 
 3395000   0.71902337    -8.161788    670.27373  0.016452473  0.015808297            2 
 3396000   0.71334588   -8.1500834    669.87712  0.016437896  0.015803128            2 
 3397000   0.71770175   -8.1443494    670.40552  0.016446019   0.01579796            2 
 3398000   0.70917562   -8.1586206    669.09584   0.01640906  0.015792783            3 
 3399000   0.70370114   -8.1878907    667.85391  0.016373784  0.015787606            1 
 3400000   0.68176364   -8.1632469    670.00381  0.016421662  0.015782427            2 
 3401000   0.71063056   -8.1559387    669.96806  0.016415958  0.015777251            2 
 3402000   0.69527749   -8.1618004    669.98134  0.016411457  0.015772086            1 
 3403000   0.70091085    -8.162022    668.98475   0.01638223  0.015766908            4 
 3404000   0.70321347   -8.1547343    670.41997  0.016412553  0.015761736            1 
 3405000   0.70848288   -8.1503279    670.03683  0.016398356  0.015756574            1 
 3406000   0.69819406   -8.1498753    669.81437  0.016388099  0.015751424            1 
 3407000   0.71245068    -8.144957    669.74234  0.016381527  0.015746267            2 
 3408000   0.72336433   -8.1713595    669.90902  0.016380796  0.015741114            3 
 3409000   0.71865943   -8.1645775    668.96206  0.016352842  0.015735944            2 
 3410000   0.70764049   -8.1680562    669.68435  0.016365698  0.015730784            4 
 3411000   0.70996616   -8.1726748    669.17087  0.016348355  0.015725641            2 
 3412000   0.70949192   -8.2031828    669.29568  0.016346612  0.015720473            3 
 3413000   0.70520358   -8.1787853    670.23733  0.016364814  0.015715326            1 
 3414000   0.70929228   -8.1835108    670.89565   0.01637609  0.015710174            4 
 3415000   0.71075919   -8.1513947    669.28821   0.01633207   0.01570503            5 
 3416000   0.70574238    -8.186477    669.65928  0.016336341  0.015699886            3 
 3417000   0.69250642   -8.1832751    669.68642  0.016332222  0.015694744            1 
 3418000   0.71165476   -8.1895501    669.67588  0.016327186   0.01568959            1 
 3419000   0.69796237   -8.2108027    671.36635  0.016363614  0.015684446            1 
 3420000   0.70527938   -8.1640552    669.39091  0.016310695  0.015679294            2 
 3421000   0.70073444   -8.1798098    669.58443  0.016310641  0.015674147            3 
 3422000   0.70529159   -8.1606219    670.38723  0.016325425  0.015669019            2 
 3423000   0.70679015   -8.1907914    670.25373  0.016317405  0.015663898            2 
 3424000   0.70482805   -8.1695877    671.28513  0.016337742   0.01565878            1 
 3425000   0.70663425   -8.1652914    670.25359  0.016307873  0.015653651            2 
 3426000   0.71326424   -8.1327545    670.10439  0.016299484  0.015648535            3 
 3427000   0.70171195   -8.1668065    671.11342  0.016319264  0.015643428            2 
 3428000   0.71002829   -8.1382171    669.91026  0.016285255  0.015638313            2 
 3429000   0.69036765   -8.1577388    670.89924  0.016304541  0.015633183            2 
 3430000   0.72629336   -8.1637831    671.28527  0.016309166  0.015628065            3 
 3431000   0.69856275   -8.1907018    668.31609  0.016232296  0.015622942            4 
 3432000   0.70216921   -8.1601445    669.87445  0.016265405  0.015617804            2 
 3433000   0.70095218   -8.1763728    670.21325  0.016268891  0.015612676            1 
 3434000   0.70828174   -8.1811216    668.57701  0.016224447  0.015607558            1 
 3435000   0.70137307   -8.1736776    670.19667  0.016259017  0.015602458            1 
 3436000   0.71220522   -8.1630261    672.67679  0.016314435  0.015597361            2 
 3437000   0.69766186   -8.1504498    671.14052   0.01627244  0.015592279            1 
 3438000   0.69743728   -8.1692389    670.35806  0.016248741  0.015587187            5 
 3439000   0.70142815   -8.1699032    670.85696  0.016256105  0.015582112            3 
 3440000   0.70049219   -8.1848928    671.68402  0.016271415  0.015577028            2 
 3441000   0.70817477   -8.1777594    671.72406  0.016267656  0.015571952            2 
 3442000   0.70108901    -8.166408    671.73736  0.016263252  0.015566881            3 
 3443000    0.7043128   -8.1687875    670.31026  0.016223987  0.015561816            3 
 3444000   0.70667366   -8.1673896    671.20846   0.01624101   0.01555676            6 
 3445000   0.70296825   -8.1570656    671.24297   0.01623713  0.015551708            1 
 3446000   0.70219442   -8.1527425     671.2978  0.016233744  0.015546648            2 
 3447000   0.70444527   -8.1721284     670.9635  0.016220953  0.015541593            2 
 3448000   0.68842779   -8.1458103    671.32086  0.016224885  0.015536542            2 
 3449000   0.69948143   -8.1592012    671.18579  0.016216918  0.015531484            3 
 3450000   0.69399717   -8.1601698    672.06312  0.016233409  0.015526432            3 
 3451000   0.69749838   -8.1632052    671.95112     0.016226  0.015521382            2 
 3452000   0.70634132   -8.1678305    671.74945  0.016216431  0.015516327            2 
 3453000    0.6941155   -8.1600776     671.3513  0.016202126  0.015511282            3 
 3454000   0.68904963   -8.1393082    672.30754  0.016220506  0.015506245            1 
 3455000    0.6907826   -8.1374144    672.63026  0.016223595  0.015501225            1 
 3456000   0.68820659   -8.1515431     672.0295  0.016204415  0.015496208            3 
 3457000   0.69240426   -8.1637837    671.35655  0.016183506  0.015491184            2 
 3458000   0.70092645   -8.1310672    673.21035    0.0162235  0.015486173            3 
 3459000   0.67523021   -8.1116405     671.4119  0.016175482  0.015481152            2 
 3460000   0.69478685   -8.1681929    671.25166  0.016166947  0.015476122            7 
 3461000   0.69505073    -8.151122    671.31249  0.016163741  0.015471114            4 
 3462000   0.70251001   -8.1591881    671.87923  0.016172714  0.015466097            2 
 3463000   0.69622101   -8.1672229     673.3355  0.016203087   0.01546106            5 
 3464000   0.67628075   -8.1568916    671.72532  0.016159674  0.015456054            2 
 3465000   0.68501837   -8.1200605    673.84551  0.016206001  0.015451038            2 
 3466000   0.69582686   -8.1638215    671.34898  0.016141301  0.015446024            2 
 3467000   0.70725919   -8.1538944    673.18767   0.01618084  0.015441009            2 
 3468000   0.70713164   -8.1631016    671.82547  0.016143442  0.015435984            2 
 3469000   0.71177987   -8.1923506    671.22098  0.016124267  0.015430951            3 
 3470000   0.68808562    -8.186867    671.42006  0.016124401   0.01542591            2 
 3471000   0.68808733   -8.1834887    671.02643  0.016110305  0.015420886            1 
 3472000   0.69181807   -8.1970199    672.66011  0.016144876  0.015415869            1 
 3473000   0.69484651   -8.1736815    671.31237  0.016107889  0.015410849            2 
 3474000   0.70562281   -8.1457196    671.74492  0.016113628  0.015405835            2 
 3475000   0.69986767   -8.1894541    671.91602  0.016113094  0.015400819            1 
 3476000    0.7117873   -8.1920159    672.12761  0.016113531  0.015395802            2 
 3477000   0.68830933   -8.1711937    669.50233  0.016045977  0.015390779            2 
 3478000   0.71112413   -8.1592859    671.45727  0.016088204  0.015385761            2 
 3479000   0.70600532   -8.1424779     672.2076  0.016101552   0.01538074            1 
 3480000   0.70189244   -8.1700422    671.47312  0.016079337  0.015375718            1 
 3481000   0.69861697   -8.1732387    671.60432  0.016077859  0.015370709            2 
 3482000   0.70115516   -8.2000927    672.54381  0.016095726  0.015365684            2 
 3483000   0.70154385    -8.183285    671.72218  0.016071447  0.015360662            3 
 3484000   0.69080234   -8.1969431    672.28435   0.01608028   0.01535566            2 
 3485000   0.70108884   -8.2122634    671.24286  0.016050762  0.015350642            2 
 3486000   0.70421549   -8.1875783    671.95159    0.0160631  0.015345618            2 
 3487000    0.6845717   -8.2096312    671.43985  0.016046264  0.015340603            5 
 3488000   0.70493306   -8.1892803    672.62588  0.016069999   0.01533559            3 
 3489000   0.69690869   -8.1933218    672.22533  0.016055826  0.015330557            2 
 3490000   0.69347631   -8.2000321     671.7643  0.016040217  0.015325538            4 
 3491000   0.70407928     -8.19721    672.72813   0.01605863  0.015320527            3 
 3492000   0.68759043   -8.1827973    670.68672  0.016005315  0.015315512            3 
 3493000   0.68468938   -8.1851725    671.75861  0.016026305  0.015310494            5 
 3494000   0.67302192    -8.198213    671.13582  0.016006865  0.015305488            5 
 3495000   0.69717711   -8.2277879    669.39304  0.015960731  0.015300458            1 
 3496000   0.70621848    -8.215967    669.33918  0.015954881   0.01529541            2 
 3497000   0.69584264   -8.2249083    670.47038  0.015977275  0.015290368            4 
 3498000   0.68882501   -8.2198947    670.17266  0.015965615  0.015285334            1 
 3499000   0.69054638   -8.1845933    671.47936  0.015992173  0.015280296            2 
 3500000   0.68274524   -8.2117038    670.08459  0.015954395  0.015275278            3 
 3501000   0.68303901   -8.2174161    671.24611  0.015977485  0.015270241            4 
 3502000   0.69684631   -8.2171663    671.51688  0.015979366  0.015265223            3 
 3503000    0.6812803    -8.225753    670.75098  0.015956584  0.015260197            2 
 3504000   0.69111423   -8.2096447    670.26328  0.015940432  0.015255168            2 
 3505000    0.6973495   -8.2206727    670.65459  0.015945188  0.015250131            2 
 3506000   0.69945018   -8.2220189    670.31846   0.01593265  0.015245104            3 
 3507000   0.69402016   -8.2116265    669.84015  0.015916742  0.015240086            2 
 3508000   0.69216797   -8.2080225    670.69103  0.015932417  0.015235068            4 
 3509000   0.69901803   -8.2103416     670.5829  0.015925309  0.015230063            2 
 3510000   0.70025898   -8.2150243    670.84921  0.015927094  0.015225063            3 
 3511000   0.69337222   -8.2015875    670.88391  0.015923382  0.015220067            2 
 3512000   0.70614949   -8.1977256    671.82103  0.015941084  0.015215082            7 
 3513000   0.70140207   -8.1980036     670.9149  0.015915051  0.015210087            2 
 3514000   0.67158394   -8.2029711    671.36599   0.01592122  0.015205097            3 
 3515000   0.68825436   -8.1968904    670.86939  0.015904917  0.015200112            3 
 3516000   0.67984388   -8.2136185    671.08879  0.015905593  0.015195124            1 
 3517000   0.68211742   -8.2024696    671.37946  0.015907958   0.01519015            2 
 3518000     0.662538   -8.2002626    670.76362  0.015888848   0.01518518            2 
 3519000   0.67969445   -8.1948393    672.11265   0.01591628  0.015180208            2 
 3520000   0.68212175   -8.1904858    672.84893  0.015929189  0.015175229            2 
 3521000   0.69144144   -8.2081307    670.98154  0.015880468  0.015170262            5 
 3522000   0.69090188   -8.1916276    670.26451  0.015858994  0.015165292            2 
 3523000   0.67139389   -8.2101372    670.50842  0.015860262  0.015160309            2 
 3524000   0.68291532   -8.2139606    669.93373  0.015842171  0.015155328            1 
 3525000   0.69054735   -8.1997717    673.31611  0.015917638  0.015150363            3 
 3526000    0.6988079   -8.2120154    671.66089  0.015874005  0.015145396            3 
 3527000   0.68557096   -8.2117603     670.8361  0.015850016  0.015140432            2 
 3528000   0.69346377   -8.1983547    669.70348  0.015818771  0.015135455            3 
 3529000   0.69273956   -8.2318708     671.9108  0.015866412  0.015130484            3 
 3530000   0.70152383   -8.2340096    671.13835  0.015843682  0.015125505            5 
 3531000    0.7029408   -8.1981113    670.73242  0.015829614  0.015120529            2 
 3532000   0.68529661   -8.2058882    671.60284  0.015845669   0.01511556            4 
 3533000   0.69214813   -8.2078626    670.72232  0.015820415  0.015110594            5 
 3534000   0.68627573   -8.1949948    671.87428  0.015843102  0.015105637            3 
 3535000   0.67722864   -8.2006243    669.83942  0.015790651  0.015100675            1 
 3536000    0.6945444    -8.206334    672.33814  0.015845073  0.015095717            2 
 3537000    0.6716165   -8.1834259    672.20351  0.015837421  0.015090751            2 
 3538000   0.68837307   -8.1906675    672.10795  0.015830694    0.0150858            1 
 3539000   0.68471987   -8.2021039    672.32732  0.015831386  0.015080847            2 
 3540000   0.67731018   -8.2208454    670.80661  0.015791116  0.015075906            6 
 3541000   0.68146906   -8.2086328      672.043  0.015815754  0.015070962            3 
 3542000   0.69016413   -8.2111966     672.7894  0.015828849  0.015066018            1 
 3543000   0.66765678   -8.2326593      669.954  0.015757691  0.015061063            1 
 3544000   0.68896578   -8.2128924    671.33275  0.015785665  0.015056097            2 
 3545000   0.68182138   -8.2205256    670.11486  0.015752582  0.015051144            1 
 3546000   0.67235551   -8.2222641    670.60662  0.015759697  0.015046182            2 
 3547000   0.68260673   -8.2186287    671.91091  0.015785897  0.015041236            5 
 3548000   0.67156283   -8.2259412    671.33388  0.015767895  0.015036263            2 
 3549000   0.68814375   -8.2209909    670.72068  0.015749053  0.015031295            2 
 3550000   0.69169125   -8.2156468    670.26298  0.015733873  0.015026329            1 
 3551000   0.67619702   -8.2144607    670.95684  0.015745725  0.015021364            4 
 3552000   0.67768183   -8.2365663     670.8242   0.01573818  0.015016394            2 
 3553000     0.674577    -8.212243    671.80524   0.01575676  0.015011417            3 
 3554000   0.70129428   -8.2379267    670.09874  0.015712313  0.015006441            3 
 3555000   0.68073207   -8.2430238    670.44245  0.015715951  0.015001463            3 
 3556000   0.68441681   -8.2306375    670.62379  0.015715781  0.014996482            5 
 3557000   0.67019131   -8.2407337     670.1514  0.015700295  0.014991512            5 
 3558000   0.68599048   -8.2160997    671.22478  0.015721023  0.014986546            3 
 3559000   0.68655433   -8.2401546    670.31686  0.015695347  0.014981575            2 
 3560000   0.68809392   -8.2309697    669.51387  0.015672141  0.014976601            2 
 3561000   0.68282871   -8.2050092    671.23466  0.015708009  0.014971638            3 
 3562000   0.67178264   -8.2335896    670.75118  0.015692288  0.014966683            4 
 3563000    0.6853043   -8.2480998    669.23003  0.015652307  0.014961727            3 
 3564000   0.67916239   -8.2113004     671.4448  0.015699701  0.014956752            3 
 3565000   0.68684794   -8.2626521    670.24634  0.015667282  0.014951787            5 
 3566000   0.67947575   -8.2090521    671.42331  0.015690393  0.014946824            1 
 3567000   0.69102164   -8.2388687    670.65411  0.015668024  0.014941857            2 
 3568000    0.6842709   -8.2485297    670.06962  0.015649982  0.014936893            5 
 3569000   0.67610948   -8.2381832     671.7542   0.01568493  0.014931935            1 
 3570000   0.67493203    -8.249393    669.62925  0.015630935  0.014926962            3 
 3571000   0.67125557   -8.2394452    669.19379  0.015616396  0.014921981            2 
 3572000   0.67894243   -8.2532322    669.65994  0.015622899  0.014917017            3 
 3573000   0.67748773   -8.2368162    670.76525  0.015644306  0.014912054            3 
 3574000   0.66857734   -8.2344753    669.53813  0.015611316  0.014907089            2 
 3575000   0.68046373   -8.2397931    671.99103  0.015664127  0.014902134            1 
 3576000   0.66470583   -8.2191684    671.55635  0.015649617  0.014897185            2 
 3577000   0.66038096   -8.2286821    670.98961  0.015632038  0.014892236            2 
 3578000   0.68862939    -8.229694    671.04362  0.015628927  0.014887279            3 
 3579000   0.68592295   -8.2245549    669.87579  0.015597369  0.014882325            5 
 3580000   0.67719719    -8.218017    671.13052  0.015622219  0.014877367            3 
 3581000   0.67454136   -8.2370579    670.15551  0.015595167  0.014872412            1 
 3582000   0.67054666   -8.2458748    671.22879  0.015615782   0.01486746            1 
 3583000   0.69043795   -8.2465628    670.06775  0.015584421  0.014862515            2 
 3584000   0.67541444   -8.2200143     670.8626  0.015598554   0.01485757            1 
 3585000   0.68029918   -8.2520536    671.31562  0.015604733  0.014852634            5 
 3586000    0.6903472    -8.219356    670.63413  0.015584545  0.014847701            1 
 3587000   0.66599851   -8.2247439    671.02603  0.015589305   0.01484277            4 
 3588000   0.68745357   -8.2370205    669.85495  0.015557761  0.014837837            2 
 3589000   0.67692955   -8.2504161    670.40536  0.015566206   0.01483291            2 
 3590000   0.67227539   -8.2241435    671.32388  0.015583191  0.014827981            2 
 3591000   0.70015285    -8.233052    670.02928  0.015548809   0.01482305            2 
 3592000   0.66621351   -8.2315304    670.11067  0.015546369  0.014818129            2 
 3593000     0.671866   -8.2473691    670.89291  0.015560184  0.014813207            4 
 3594000   0.67978526   -8.2332216    671.42663   0.01556823  0.014808284            2 
 3595000   0.68176589   -8.2313555    669.44231  0.015517902  0.014803366            2 
 3596000   0.67823471   -8.2130564      670.579  0.015539929  0.014798453            2 
 3597000   0.69620378   -8.2706132    671.02516  0.015545945  0.014793531            4 
 3598000    0.6908123   -8.2263102    670.04555  0.015518935  0.014788607            2 
 3599000   0.68279935    -8.244098    671.89984  0.015557559  0.014783689            2 
 3600000   0.67946709   -8.2519681    671.08737   0.01553443  0.014778765            4 
 3601000   0.68635649   -8.2516476    670.75125  0.015522338  0.014773853            3 
 3602000   0.69188009   -8.2672747     669.5682  0.015490658  0.014768935            2 
 3603000   0.67950235   -8.2681567    670.37711  0.015505068  0.014764028            2 
 3604000   0.67236112   -8.2415639    671.94757  0.015537078  0.014759109            3 
 3605000   0.66958242   -8.2420181    670.80957  0.015506463  0.014754198            2 
 3606000   0.67746423   -8.2474347    670.62118  0.015497809  0.014749286            1 
 3607000   0.66627966   -8.2453375    669.62054  0.015470394  0.014744381            2 
 3608000   0.67398612    -8.249389    670.75997  0.015492424  0.014739472            3 
 3609000   0.67522592   -8.2559754     670.3603  0.015478902  0.014734568            1 
 3610000   0.67677683   -8.2521942    670.14354  0.015469611  0.014729666            2 
 3611000   0.67142593   -8.2725505    669.76081  0.015456494  0.014724746            2 
 3612000    0.6783042   -8.2718399    669.80057  0.015453132  0.014719832            3 
 3613000   0.66819342   -8.2566618    670.20465  0.015458175  0.014714925            3 
 3614000   0.65588619   -8.2529822    669.17298  0.015430109  0.014710025            1 
 3615000   0.65587979   -8.2516051    670.83792  0.015464221  0.014705114            4 
 3616000   0.68932387   -8.2610851    671.06845  0.015465257  0.014700205            2 
 3617000   0.67490492   -8.2422619    670.39847  0.015445546  0.014695313            2 
 3618000   0.68615524   -8.2527542    670.87018  0.015452142  0.014690422            2 
 3619000   0.67095508   -8.2503284    670.94848  0.015449675  0.014685533            5 
 3620000   0.67615863   -8.2595075    671.65828  0.015461747  0.014680637            2 
 3621000   0.67865327   -8.2868894    669.12701  0.015399222  0.014675737            8 
 3622000   0.66566804   -8.2521506    670.31446  0.015422291  0.014670845            4 
 3623000   0.66317636   -8.2411829    669.94171  0.015409461  0.014665967            2 
 3624000   0.67287029   -8.2339436    671.21159  0.015434409  0.014661083            5 
 3625000   0.69479561   -8.2701518     670.8175  0.015421092  0.014656196            2 
 3626000   0.67301475   -8.2492294    670.52528  0.015410123  0.014651317            4 
 3627000   0.66192389   -8.2643389    670.42924  0.015403668  0.014646441            3 
 3628000   0.67236411   -8.2360952    669.96627  0.015388788  0.014641569            2 
 3629000   0.68444834   -8.2578565    671.23926  0.015413779  0.014636701            2 
 3630000   0.67527497   -8.2575059    670.18231  0.015385269  0.014631837            6 
 3631000   0.66439241   -8.2679389    669.75586  0.015371244   0.01462698            5 
 3632000   0.66851718   -8.2423646    671.64078   0.01541026  0.014622121            2 
 3633000   0.68250218   -8.2497169      670.958  0.015390357  0.014617261            3 
 3634000   0.66830753   -8.2748764     670.2075  0.015368912  0.014612391            4 
 3635000   0.68472622   -8.2542817    671.22525  0.015388016  0.014607517            2 
 3636000   0.66810667   -8.2485657    672.27628  0.015407872  0.014602647            2 
 3637000   0.67067801   -8.2702885    671.15836  0.015378021  0.014597781            3 
 3638000   0.67976171   -8.2364351    670.24882   0.01535296  0.014592917            4 
 3639000   0.68881995   -8.2432391    670.47699  0.015353966  0.014588051            3 
 3640000   0.65863181    -8.262564    670.42938  0.015348658  0.014583187            4 
 3641000   0.66220158   -8.2747807    670.34997  0.015342625  0.014578332            4 
 3642000   0.65952823   -8.2379025    671.24464  0.015358883  0.014573487            5 
 3643000   0.67189524   -8.2653121    670.36287  0.015334497  0.014568632            4 
 3644000   0.68367195   -8.2538926     671.3368  0.015352561  0.014563767            4 
 3645000   0.67476389   -8.2458215    670.59682  0.015331432  0.014558917            2 
 3646000    0.6541779   -8.2561317    669.99383  0.015313445  0.014554071            3 
 3647000   0.69097943   -8.2700538    670.13926  0.015312569  0.014549213            6 
 3648000   0.67770407   -8.2704565    670.94064  0.015326678  0.014544367            2 
 3649000   0.67183468   -8.2738365    671.07215  0.015325481  0.014539528            7 
 3650000   0.66407089   -8.2834253    669.62961  0.015288347  0.014534671            5 
 3651000   0.66971704   -8.2669208    671.90285  0.015336046  0.014529813           15 
 3652000   0.66198657   -8.2594724    669.96193  0.015287558  0.014524974            7 
 3653000   0.66214321   -8.2505146    670.92712  0.015305391  0.014520133           13 
 3654000   0.68081486   -8.2926808    670.06223  0.015281478  0.014515288           12 
 3655000   0.66153813   -8.2754374    670.42193  0.015285498  0.014510442           16 
 3656000   0.66094209   -8.2808985    670.14194  0.015274935  0.014505601           12 
 3657000   0.66507043   -8.2758635    670.38659  0.015276333   0.01450076            7 
 3658000   0.66417269   -8.2688721    672.78413  0.015326775  0.014495922            8 
 3659000   0.65512728   -8.2444327    670.86674  0.015278918  0.014491088            4 
 3660000   0.67065788   -8.2506656    669.90849  0.015252926  0.014486254            7 
 3661000   0.67271435   -8.2572687    669.68249  0.015243615  0.014481434            8 
 3662000    0.6742424   -8.2424222    672.14057  0.015295389  0.014476608            7 
 3663000   0.65076769   -8.2742592    669.43029  0.015229554  0.014471781            5 
 3664000   0.64923436   -8.2792966    669.73186  0.015232257  0.014466956            5 
 3665000   0.65987433   -8.2698363    670.72137  0.015250599  0.014462127            2 
 3666000    0.6685501   -8.2590684    670.09561  0.015232215  0.014457302            1 
 3667000   0.65698959   -8.2673327    669.51123  0.015214781  0.014452484            3 
 3668000   0.68112246   -8.2711562    671.45173  0.015254719  0.014447657            2 
 3669000   0.66579728     -8.27275    671.04796  0.015241391  0.014442844            2 
 3670000    0.6519838   -8.2588334    671.02764  0.015236777  0.014438035            5 
 3671000   0.65549647   -8.2493362    671.28729   0.01523852  0.014433232            2 
 3672000   0.66438841   -8.2641679    670.75811  0.015222361  0.014428425            2 
 3673000   0.66516808   -8.2496612    671.74467    0.0152406  0.014423617            3 
 3674000   0.67461602   -8.2646432    669.84758  0.015193422  0.014418813            3 
 3675000   0.65835328   -8.2614921    669.23971  0.015175504  0.014414014            4 
 3676000   0.66254025   -8.2722085    670.57081  0.015201551  0.014409197            2 
 3677000   0.65526446   -8.2523484    669.36245  0.015170031   0.01440439            5 
 3678000   0.66268523   -8.2689166    669.22888   0.01516288  0.014399584            2 
 3679000   0.64846903   -8.2593261    671.00613  0.015199015  0.014394783            3 
 3680000   0.65743184   -8.2310427    671.57361  0.015207736  0.014389992            3 
 3681000   0.66244156   -8.2471397    672.39099  0.015222109  0.014385211            4 
 3682000   0.64910337   -8.2527293     673.2425  0.015237247  0.014380432            4 
 3683000   0.66043805   -8.2465784    669.66089   0.01515207   0.01437563            3 
 3684000   0.66417528   -8.2477559    670.21624  0.015160519  0.014370846            4 
 3685000    0.6581803   -8.2459703    671.29196  0.015180732  0.014366056            4 
 3686000   0.65534381   -8.2519365    670.07768  0.015149161  0.014361269            2 
 3687000   0.65831337   -8.2439361    670.12542  0.015146131  0.014356488            2 
 3688000   0.66936359   -8.2484033    669.12591  0.015119439  0.014351715            4 
 3689000   0.65590781   -8.2257079    670.64693    0.0151497  0.014346935            2 
 3690000   0.65508256   -8.2491595    669.28245   0.01511478  0.014342153            2 
 3691000   0.65535378   -8.2416116    671.60426  0.015163105  0.014337375            4 
 3692000    0.6667448   -8.2649631    670.31804  0.015129967  0.014332584            6 
 3693000   0.65996869    -8.264093    670.70987  0.015134711  0.014327805            4 
 3694000   0.68343007    -8.260582    669.59703   0.01510551  0.014323028            3 
 3695000   0.64974702   -8.2434415    670.14663  0.015113817  0.014318244            2 
 3696000   0.64599323   -8.2539664    671.55734  0.015141535  0.014313475            3 
 3697000   0.65916007   -8.2687482    669.86597  0.015099314  0.014308701            4 
 3698000   0.65034533   -8.2540791    669.52378   0.01508752  0.014303925            2 
 3699000   0.66608638   -8.2468983    670.88856  0.015114188  0.014299154            2 
 3700000   0.64075648   -8.2461164    669.19092  0.015071867  0.014294374            2 
 3701000   0.63954033   -8.2759939     670.3805   0.01509458  0.014289598            2 
 3702000   0.65358121   -8.2449179    672.12845   0.01512985  0.014284838            2 
 3703000   0.65201497   -8.2543128    670.14579  0.015081146  0.014280075            4 
 3704000    0.6609688   -8.2536696    669.96499  0.015073006  0.014275307            3 
 3705000   0.65696327   -8.2672017    671.40517  0.015101331  0.014270544            4 
 3706000   0.66075069   -8.2610052    670.22179  0.015070647  0.014265774            3 
 3707000   0.65794918   -8.2859877    670.32804   0.01506897  0.014261008            2 
 3708000   0.66519798   -8.2700235    670.94166  0.015078696  0.014256249            1 
 3709000   0.65113569   -8.2588442    671.14567  0.015079214   0.01425149            1 
 3710000   0.66067665   -8.2700049    668.52416  0.015016266  0.014246725            3 
 3711000   0.65134961   -8.2741706    670.61938  0.015059269  0.014241971            1 
 3712000   0.64745096   -8.2477333    671.53021   0.01507566   0.01423721            2 
 3713000   0.66218259   -8.2551725    671.36447   0.01506788  0.014232463            2 
 3714000   0.66334382   -8.2637076    672.00784  0.015078259  0.014227713            4 
 3715000   0.66190149   -8.2658913      671.163  0.015055249  0.014222964            4 
 3716000   0.65095295   -8.2996395    669.31065  0.015009658  0.014218208            2 
 3717000   0.66718559   -8.2717797    670.49266  0.015032119  0.014213453            2 
 3718000   0.64453404   -8.2639901    670.95678  0.015038479  0.014208703            2 
 3719000   0.66146823    -8.277936    670.74714  0.015029738  0.014203936            4 
 3720000   0.66170692   -8.2817959    670.05272  0.015010142  0.014199164            2 
 3721000   0.65938009   -8.2807485     669.7686  0.014999745  0.014194394            1 
 3722000   0.66339092   -8.2794892    669.56571  0.014991172  0.014189632            2 
 3723000   0.65317394   -8.2662363    670.76131  0.015013907  0.014184871            2 
 3724000   0.66457122   -8.2903834    670.42342  0.015002314  0.014180096            2 
 3725000   0.65518206    -8.287728    670.35606   0.01499678  0.014175329            1 
 3726000   0.65109214   -8.2809118     670.0317    0.0149855  0.014170569            2 
 3727000   0.65943438   -8.2641151    670.14591  0.014984033  0.014165799            2 
 3728000    0.6463855   -8.2863892    670.00011  0.014976755  0.014161035            2 
 3729000   0.65054136   -8.2823367    670.14065  0.014975879  0.014156262            1 
 3730000    0.6420802   -8.2940927    669.78633  0.014963948  0.014151487            1 
 3731000   0.65421251    -8.284092    669.77148  0.014959606   0.01414672            4 
 3732000   0.65714215   -8.2856945    669.74926  0.014955101  0.014141958            1 
 3733000   0.65987775   -8.3053015    668.95538  0.014933373  0.014137196            1 
 3734000   0.65590755   -8.2871746    669.04209  0.014931309  0.014132433            1 
 3735000   0.65449114   -8.2896854    669.74531  0.014943001  0.014127668            2 
 3736000   0.63774632   -8.2942616    668.02782  0.014900692  0.014122889            2 
 3737000   0.64835305   -8.2963352    670.14254  0.014943862  0.014118125            4 
 3738000   0.66883026   -8.3089811    669.65894  0.014929083   0.01411336            1 
 3739000   0.65959192    -8.304638     668.1866  0.014892275  0.014108587            2 
 3740000   0.65498013   -8.2939199     668.9149  0.014904521   0.01410382            1 
 3741000   0.63896933   -8.3197969     670.4584  0.014934919  0.014099055            7 
 3742000    0.6379161     -8.29319    669.24518   0.01490391  0.014094282            2 
 3743000   0.64694895   -8.3131046    669.67101  0.014909409  0.014089512            1 
 3744000   0.65555807   -8.2954699    668.03863  0.014869093  0.014084753            2 
 3745000   0.64502945   -8.3279686    668.13531  0.014867274  0.014079992            2 
 3746000   0.65408837   -8.2890773    668.32175  0.014867453  0.014075234           11 
 3747000   0.65270129    -8.301462    668.72005  0.014872343  0.014070474            6 
 3748000   0.64340124   -8.2872698    668.56585  0.014864947  0.014065711            4 
 3749000   0.64753383   -8.3036401    668.68594  0.014863651  0.014060938            2 
 3750000   0.66359204   -8.3131355    668.78167  0.014861815  0.014056176            2 
 3751000   0.65657214   -8.3197999    668.04202  0.014841421  0.014051409            3 
 3752000   0.63571257   -8.3091513    668.94113  0.014857434  0.014046657            3 
 3753000   0.64187276   -8.2792453     669.0965  0.014856926  0.014041904            2 
 3754000   0.65815608   -8.3187691    667.72095  0.014822433   0.01403716            7 
 3755000   0.63849559   -8.3069742    668.40567  0.014833681  0.014032413            2 
 3756000   0.64094309   -8.3214123    668.20649  0.014825313  0.014027663            2 
 3757000   0.64913614   -8.2963319    668.87951  0.014836295   0.01402292            2 
 3758000   0.64051159   -8.2982915    669.20271  0.014839514  0.014018193            2 
 3759000   0.65070492   -8.3004741    669.36566  0.014839178  0.014013459            5 
 3760000   0.67050937    -8.291224    669.48436  0.014837863  0.014008726            1 
 3761000   0.64032533   -8.3016498    668.78572  0.014818437  0.014003989            4 
 3762000   0.65521102   -8.2949471    669.00164  0.014819282  0.013999257            4 
 3763000   0.66433475   -8.3188715     669.0014  0.014815338   0.01399452            3 
 3764000   0.67333127   -8.3266173    668.47292  0.014799702  0.013989773            2 
 3765000   0.65916775   -8.3141532    669.85102  0.014826273  0.013985014            3 
 3766000   0.65380233   -8.2991166    669.40763  0.014812525  0.013980268            2 
 3767000   0.64708725    -8.303125    668.27029  0.014783433  0.013975529            2 
 3768000   0.64872806   -8.3178497    667.83691  0.014769925  0.013970782            2 
 3769000   0.64178716   -8.3109368    667.76309  0.014764374  0.013966045            3 
 3770000    0.6494524   -8.3050058     669.8619   0.01480685  0.013961316            4 
 3771000    0.6498426   -8.3243116    668.76688  0.014778725  0.013956585            1 
 3772000   0.65599758   -8.3292053    668.80971  0.014775754  0.013951863            2 
 3773000   0.64976516   -8.3022808    668.55866  0.014766293  0.013947141            2 
 3774000   0.65619265   -8.2999229    670.14902  0.014797496  0.013942419            2 
 3775000   0.64535726   -8.3092645    669.81316  0.014786163  0.013937695            3 
 3776000   0.64773907   -8.3214079    669.04917  0.014765386  0.013932972            1 
 3777000   0.63294235   -8.3095999    669.01942   0.01476082  0.013928244            2 
 3778000   0.65815263   -8.3086922    667.76468  0.014729237  0.013923525            4 
 3779000   0.64228764   -8.3186764    668.05782  0.014731803  0.013918806            2 
 3780000   0.64468165   -8.2925444    668.82239  0.014744762  0.013914097            1 
 3781000   0.65567591   -8.3027739    669.53447  0.014756556  0.013909395            2 
 3782000   0.65561812   -8.3179044     670.9157  0.014783089  0.013904694            3 
 3783000   0.65661099    -8.305834     669.3365  0.014744394  0.013899988            3 
 3784000   0.63359248   -8.2917673    669.07655  0.014734773  0.013895292            6 
 3785000   0.64265387   -8.2849324    669.37332  0.014737413  0.013890594            3 
 3786000   0.64428546   -8.3095312    668.93371  0.014723845  0.013885901            2 
 3787000   0.64600381   -8.3150513    667.46223  0.014687577  0.013881207            2 
 3788000   0.63387184   -8.3165862    669.08766  0.014719458  0.013876524            3 
 3789000   0.63529606   -8.3215192    669.60942  0.014727048  0.013871832            1 
 3790000   0.64402367   -8.3193476    669.74344  0.014726109  0.013867147            2 
 3791000    0.6491589   -8.2932873    668.17065  0.014687652  0.013862469            2 
 3792000   0.64172109   -8.3099677    669.14356  0.014705159  0.013857792            6 
 3793000   0.64910646   -8.3320935    669.89167  0.014717718  0.013853111            3 
 3794000   0.64612768   -8.3226484    668.02226  0.014672778  0.013848428            7 
 3795000   0.65013479   -8.3311555    669.13545  0.014693356   0.01384375            4 
 3796000   0.64182554   -8.2933288    669.37347  0.014694711  0.013839068            5 
 3797000   0.66750743   -8.3299824    668.89464  0.014680332  0.013834396            2 
 3798000   0.63594486   -8.3075998    670.10774  0.014703084  0.013829734            2 
 3799000    0.6441877   -8.3180741    668.29268  0.014659399  0.013825065            5 
 3800000   0.64734167   -8.3128964    668.89441  0.014668737  0.013820391            6 
 3801000   0.64121139   -8.3328525    667.98521  0.014644945  0.013815714            3 
 3802000   0.65253902   -8.3207962    668.52288  0.014652877  0.013811043            4 
 3803000   0.65335196   -8.2972688    668.86137  0.014656442  0.013806375            3 
 3804000    0.6491495   -8.3043818    669.76548  0.014672395  0.013801713            3 
 3805000   0.61865391   -8.3362452    668.97861  0.014651306  0.013797043            4 
 3806000   0.63812779   -8.3194239    670.70655   0.01468529  0.013792383            2 
 3807000   0.63736948   -8.3060213    669.56222  0.014656383  0.013787722            2 
 3808000   0.64505468   -8.3229509    667.38854  0.014604966  0.013783056            7 
 3809000   0.64557603   -8.3257102    668.63217   0.01462834  0.013778393            1 
 3810000   0.65411348   -8.3284791    668.06356  0.014612064  0.013773731            4 
 3811000   0.65391437   -8.3294427    668.61025  0.014620184   0.01376907            5 
 3812000   0.64541936    -8.323232    667.66069   0.01459559  0.013764405            7 
 3813000   0.63639732   -8.3297769    667.86908  0.014596317  0.013759745            1 
 3814000   0.64369635   -8.3261813     668.7632  0.014612026  0.013755088            5 
 3815000   0.64143142   -8.3265985    669.50214  0.014624337  0.013750427            4 
 3816000   0.65619897   -8.3202945    669.37822  0.014617798  0.013745772            6 
 3817000    0.6379322   -8.3131401    669.73452  0.014621747  0.013741116            8 
 3818000   0.63442846    -8.347463    668.53325  0.014591698   0.01373646            1 
 3819000   0.64550661   -8.3305074    669.96309  0.014619078  0.013731806            5 
 3820000    0.6437341   -8.3348704    668.68985  0.014587475  0.013727162            2 
 3821000   0.64247558   -8.3417078    668.65343  0.014582863  0.013722504            3 
 3822000   0.64698528   -8.3539204    668.86903  0.014583748  0.013717848            4 
 3823000   0.63179894   -8.3145916    668.36562   0.01456896  0.013713196            2 
 3824000   0.63425827   -8.3333264    667.71672  0.014551009  0.013708552            5 
 3825000   0.65045029   -8.3406326    666.88748  0.014529139  0.013703912            3 
 3826000   0.64431041   -8.3340898    668.39506  0.014558178  0.013699263            3 
 3827000   0.64666914   -8.3398002    669.43978  0.014577123  0.013694626            3 
 3828000   0.64170955   -8.3360441    668.59832  0.014554996  0.013689984            2 
 3829000   0.63779957   -8.3084065    669.10261  0.014562171  0.013685338            6 
 3830000   0.63057846   -8.3128622    668.34118  0.014541801  0.013680703            1 
 3831000   0.64203254   -8.3263365    668.45106  0.014540395  0.013676067            2 
 3832000   0.63725369   -8.3210591    668.20608  0.014531273  0.013671434            2 
 3833000   0.65044844   -8.3186823    668.86596  0.014541829  0.013666804            2 
 3834000   0.63124692   -8.3243874    669.53691  0.014552619  0.013662181            4 
 3835000   0.63470523   -8.3530663    669.18936  0.014541272  0.013657562            4 
 3836000   0.65543627   -8.3285035    668.44528  0.014521317  0.013652944            2 
 3837000    0.6404943    -8.354514    669.09568  0.014531658  0.013648322            4 
 3838000   0.64522661    -8.320008    669.46739  0.014535943  0.013643696            2 
 3839000   0.63966966   -8.3010099    668.18513  0.014504322   0.01363908            3 
 3840000   0.64982663   -8.3251292    669.86749  0.014537055  0.013634465            1 
 3841000   0.62384768   -8.3450315    668.01766  0.014493137  0.013629853            2 
 3842000   0.64409336   -8.3433174    667.68138   0.01448207  0.013625245            3 
 3843000   0.63398639   -8.3345796    668.82245  0.014503045  0.013620635            4 
 3844000   0.63969916   -8.3504561    669.17998  0.014507023  0.013616016            3 
 3845000    0.6203891   -8.3213145    668.92272  0.014497675  0.013611402            3 
 3846000   0.64465558   -8.3321336    669.63716  0.014509386  0.013606789            2 
 3847000   0.62423103   -8.3142732    667.65508  0.014462678  0.013602179            2 
 3848000   0.64150824   -8.3178648     668.8659  0.014485142  0.013597572            2 
 3849000   0.65184682   -8.3372191    667.80716  0.014458456  0.013592955            4 
 3850000   0.63133238   -8.3626176    667.64053  0.014451094  0.013588347            3 
 3851000   0.63276142   -8.3457502    668.46603  0.014465204   0.01358373            3 
 3852000    0.6373132   -8.3597819    669.14823  0.014476208  0.013579112            2 
 3853000   0.63858389   -8.3381627    668.32529  0.014454652  0.013574495            3 
 3854000   0.65182728   -8.3525623    668.80076  0.014461182  0.013569881            2 
 3855000   0.62763204   -8.3652325    667.92211  0.014438437  0.013565262            3 
 3856000   0.63565195   -8.3486795    667.16019  0.014418227   0.01356065            2 
 3857000   0.62504286   -8.3397343    668.86582   0.01445134  0.013556041            2 
 3858000   0.62481978   -8.3623682    669.22666  0.014455388  0.013551431            2 
 3859000    0.6402565    -8.340543    668.48551  0.014435638   0.01354683            1 
 3860000   0.63733292   -8.3772554    667.48334  0.014410262  0.013542221            2 
 3861000    0.6232116   -8.3466477    666.97337  0.014395523  0.013537617            2 
 3862000   0.63616774   -8.3431131    667.88544  0.014411476  0.013533009            3 
 3863000   0.64006946   -8.3713112    667.49765   0.01439938  0.013528409            2 
 3864000   0.62295736   -8.3488595    667.17385   0.01438867  0.013523811            2 
 3865000   0.63383997   -8.3636625     668.5879  0.014415436  0.013519215            3 
 3866000   0.64044831   -8.3372261    668.67549  0.014413595  0.013514628            3 
 3867000   0.64069053   -8.3328384    668.88852  0.014414458  0.013510038            3 
 3868000   0.64006926   -8.3422013    666.69374  0.014363447  0.013505461            3 
 3869000   0.63504643   -8.3739122    668.33817  0.014395153  0.013500876            3 
 3870000   0.63797395   -8.3551815     668.4936   0.01439478  0.013496292            4 
 3871000   0.61143784   -8.3348184    667.86214  0.014377468  0.013491704            3 
 3872000   0.64135822   -8.3535902    668.22946   0.01438166  0.013487122            2 
 3873000   0.62409428   -8.3490745    668.83123  0.014390895  0.013482545            2 
 3874000   0.65141185   -8.3545467    668.59843  0.014382172  0.013477965            2 
 3875000   0.63586544   -8.3559522    668.92598  0.014385505  0.013473391            2 
 3876000   0.62233075   -8.3361673     667.9145  0.014360047  0.013468824            1 
 3877000   0.61933411   -8.3476852    668.40552  0.014366897  0.013464261            3 
 3878000   0.61738846    -8.351691     668.9875  0.014375698  0.013459703            3 
 3879000   0.63421681   -8.3664868    667.84523  0.014347453  0.013455139            3 
 3880000   0.64220711   -8.3471942     669.5563  0.014380505  0.013450574            2 
 3881000   0.63205541   -8.3302383    668.45448  0.014353141   0.01344601            3 
 3882000   0.62292351   -8.3269348    668.84711  0.014357872  0.013441456            3 
 3883000    0.6316981   -8.3580489    669.15434  0.014360768  0.013436907            2 
 3884000   0.62841999   -8.3352637     668.1664  0.014335874  0.013432362            2 
 3885000   0.63421334   -8.3575324    668.91033  0.014348141  0.013427814            1 
 3886000   0.64045975   -8.3409925    668.97959  0.014345934  0.013423261            3 
 3887000   0.63526577   -8.3828957    667.51904   0.01431093  0.013418704            5 
 3888000   0.62917987   -8.3589932    667.04543  0.014297099  0.013414156            3 
 3889000   0.64058907   -8.3654079     668.7711    0.0143304  0.013409609            3 
 3890000   0.63726581   -8.3464813    668.63494  0.014323799  0.013405068            4 
 3891000   0.63639626   -8.3371534    670.28732  0.014355507  0.013400529            4 
 3892000   0.62976445   -8.3393227    667.75582  0.014297615  0.013395988            3 
 3893000   0.62908309   -8.3316042    667.89835  0.014296994  0.013391449            3 
 3894000   0.62476417   -8.3350185    667.79417  0.014291092  0.013386908            1 
 3895000   0.62105508   -8.3485546    669.27058  0.014319011  0.013382379            2 
 3896000    0.6167454   -8.3511795    668.69812  0.014303091  0.013377849           11 
 3897000   0.62799783   -8.3507293    667.35791  0.014270762  0.013373319            3 
 3898000   0.63907294   -8.3520831    669.42607  0.014311315  0.013368789            2 
 3899000    0.6264679   -8.3620798    668.83516  0.014295015   0.01336426            2 
 3900000   0.62691306   -8.3585168    668.18963  0.014277556  0.013359732            3 
 3901000   0.61717883   -8.3587061    668.66634   0.01428408  0.013355203            2 
 3902000   0.62127398   -8.3774292    668.08848  0.014268078  0.013350673            1 
 3903000   0.61406745   -8.3608398    669.12768   0.01428661  0.013346147            4 
 3904000   0.62123601    -8.379272    667.30805   0.01424411  0.013341623            4 
 3905000   0.63072377   -8.3785669    667.54258  0.014245467  0.013337093            3 
 3906000   0.62979448   -8.3833825    668.13178   0.01425439  0.013332562            2 
 3907000   0.63347144   -8.3712322    668.51167  0.014258844  0.013328034            4 
 3908000   0.62123297   -8.3587894    667.96279  0.014243492  0.013323502            5 
 3909000   0.63547139   -8.3685133    667.78486  0.014236055  0.013318973            2 
 3910000     0.622785   -8.3653685     667.3552  0.014223257  0.013314441            2 
 3911000   0.63490095   -8.3534692    668.55416  0.014245167  0.013309917            2 
 3912000   0.63723293    -8.353911    668.05112  0.014230809  0.013305398            3 
 3913000   0.62664144   -8.3473302    668.18777  0.014230083  0.013300876            2 
 3914000   0.62765281   -8.3757297    668.33537   0.01422959  0.013296361            2 
 3915000   0.62345554   -8.3652777    668.37626  0.014226825  0.013291843            2 
 3916000   0.63557227   -8.3749337    668.53553  0.014226582  0.013287326            4 
 3917000   0.62778187   -8.3733348     667.4804  0.014200502  0.013282806            2 
 3918000   0.63688186   -8.3602949    667.95563  0.014206986  0.013278304            2 
 3919000   0.61912928   -8.3693605    667.64212  0.014196694  0.013273799            1 
 3920000   0.63211553   -8.3683828    666.96142  0.014178602  0.013269292            2 
 3921000   0.61692873   -8.3786071    669.07172  0.014219836  0.013264792            2 
 3922000   0.62481465   -8.3629443    669.05065  0.014215762  0.013260286            3 
 3923000   0.61480381   -8.3672784    667.49866  0.014179171  0.013255784            1 
 3924000   0.61619096   -8.3850615    667.64217  0.014178605  0.013251277            4 
 3925000   0.61528117    -8.358067     667.5929  0.014173947  0.013246774            2 
 3926000   0.60920414   -8.3743325    668.72443  0.014194355  0.013242271            2 
 3927000    0.6136043   -8.3503381    667.40646  0.014162772  0.013237765            1 
 3928000    0.6249194   -8.3685759    668.90606   0.01419098  0.013233271            2 
 3929000   0.63176859   -8.3670007    667.12472  0.014149587  0.013228776            2 
 3930000    0.6241674     -8.36856    667.69184  0.014158012  0.013224279            2 
 3931000   0.64010772     -8.37079    668.44906  0.014170462  0.013219787            1 
 3932000   0.62225297   -8.3760768    668.94915  0.014177457  0.013215296            2 
 3933000   0.63451932   -8.3949552    667.51549  0.014143476    0.0132108            2 
 3934000   0.62269664    -8.383076    668.71507  0.014165291  0.013206306            6 
 3935000   0.62586141   -8.3681532    667.63474  0.014138813  0.013201817            3 
 3936000   0.62533185    -8.369553    667.32994  0.014128767  0.013197332            2 
 3937000   0.62170959   -8.3880064    666.96058   0.01411736  0.013192848            2 
 3938000     0.630996   -8.3728739    668.48218  0.014145975  0.013188362            2 
 3939000   0.61989428    -8.380619    668.21433  0.014136717  0.013183877            4 
 3940000   0.61520446   -8.3869282    666.91098  0.014105562  0.013179394            1 
 3941000   0.62016114    -8.393186    667.47969  0.014114009  0.013174908            1 
 3942000   0.61892597   -8.3609474    668.55331  0.014133124  0.013170432            1 
 3943000   0.62093316   -8.3509192    667.12259  0.014099302  0.013165961            1 
 3944000   0.60181927   -8.3765294    667.55046  0.014104768  0.013161491            3 
 3945000    0.6313027   -8.4013162    668.13253  0.014113488  0.013157025            2 
 3946000   0.62130101   -8.3848847    667.23187  0.014090891   0.01315255            2 
 3947000   0.62589649   -8.3733994    667.61303  0.014095368  0.013148081            2 
 3948000   0.60772394   -8.3799491    668.06337  0.014101304  0.013143619            3 
 3949000   0.63187306   -8.3832928    668.28351  0.014102378  0.013139161            1 
 3950000   0.60733559   -8.3709038      667.064   0.01407308  0.013134698            5 
 3951000   0.61807073   -8.3760529    667.38842  0.014076361  0.013130231            3 
 3952000   0.61659013   -8.3884968    667.84502  0.014082427  0.013125768            5 
 3953000   0.62254498   -8.3860387    667.75983  0.014077069  0.013121315            3 
 3954000   0.62204116   -8.3810061    668.50124  0.014089134  0.013116857            3 
 3955000   0.60753509   -8.3844175    667.34787   0.01406127  0.013112399            3 
 3956000    0.6298826   -8.3844411    667.97848  0.014070999  0.013107941            1 
 3957000   0.63370245   -8.3804222    666.88975  0.014044515  0.013103488            1 
 3958000   0.62245496   -8.3739687    668.64117  0.014077842  0.013099033            3 
 3959000   0.60744106    -8.377553    666.66688  0.014032729  0.013094581            1 
 3960000   0.61806807   -8.3658789    668.42439   0.01406617  0.013090133            4 
 3961000   0.61035666   -8.4074223    667.78041   0.01404907  0.013085678            3 
 3962000   0.61971485   -8.3896577     666.1874  0.014012018  0.013081228            1 
 3963000   0.59905148   -8.3923372    666.29859  0.014010821  0.013076774            2 
 3964000   0.62492726   -8.3890401    667.75193  0.014037839  0.013072326            2 
 3965000   0.63737115   -8.3684955    667.08808  0.014020346   0.01306788            2 
 3966000   0.61192372   -8.3703398    667.20925  0.014019357  0.013063443            1 
 3967000   0.61874788   -8.3694637    668.34017   0.01403958  0.013059001            1 
 3968000   0.61321084   -8.3927097    667.56123  0.014019683  0.013054561            2 
 3969000   0.61146444   -8.3911824    665.94056  0.013982123  0.013050118            2 
 3970000   0.59904894    -8.382297    666.58718  0.013992174  0.013045672            1 
 3971000   0.61161322   -8.3797348      667.463   0.01400703  0.013041231            1 
 3972000   0.63184665   -8.3971871    667.86601  0.014011959  0.013036786            1 
 3973000   0.61181304   -8.3911968    666.57923  0.013981442  0.013032348            1 
 3974000   0.62512886   -8.4019335    666.87101  0.013984042  0.013027902            2 
 3975000   0.62613042   -8.3830115    667.98753  0.014003931   0.01302346            3 
 3976000   0.61755904   -8.3973612    667.53059  0.013990832  0.013019017            1 
 3977000    0.6257435   -8.4130824    667.09405  0.013978167  0.013014579            2 
 3978000   0.60748749   -8.4160956    667.50536   0.01398327  0.013010135            2 
 3979000   0.60728611   -8.3787846    667.74957   0.01398487    0.0130057            3 
 3980000   0.62485553   -8.3964186    668.00853  0.013986778  0.013001264            1 
 3981000   0.62291162   -8.3885082    667.09546  0.013964152  0.012996829            2 
 3982000   0.60665742   -8.4263432    667.29561  0.013964834  0.012992395            1 
 3983000    0.5967818   -8.4041305    666.74071  0.013949718  0.012987958            1 
 3984000   0.61487738   -8.4067434    666.83956  0.013948284  0.012983527            1 
 3985000   0.61787588    -8.420609     665.9257  0.013925673  0.012979099            2 
 3986000   0.62603156    -8.410006    667.20723  0.013948972  0.012974676            2 
 3987000   0.59850241   -8.3834086    667.32003  0.013947831  0.012970262            1 
 3988000   0.60649799   -8.3965496    666.14396  0.013919758  0.012965849            2 
 3989000   0.61320211   -8.3959681    666.39063  0.013921422  0.012961432            1 
 3990000   0.62509333   -8.4005139    667.34864  0.013937942  0.012957017            2 
 3991000   0.60086217   -8.4100809    665.83394  0.013902822  0.012952602            2 
 3992000   0.61874936   -8.3984156    666.78238  0.013919138  0.012948187            4 
 3993000    0.6119047   -8.3939548    666.13256   0.01390209  0.012943773            2 
 3994000   0.62144355   -8.4102969    667.17604  0.013920381  0.012939368            6 
 3995000   0.60314658   -8.4147017    666.59344  0.013904744  0.012934961            3 
 3996000   0.62218546   -8.4034928    666.74639  0.013904454   0.01293056            2 
 3997000   0.60477843   -8.4033063    666.07941   0.01388707   0.01292615            2 
 3998000   0.61066044   -8.4018036    666.71402  0.013896824  0.012921737            2 
 3999000   0.60757423   -8.4134874    667.07473  0.013900865  0.012917327            3 
 4000000   0.61495123   -8.4138086    666.94745  0.013894738  0.012912916            2 
 4001000   0.60684288   -8.3865599    666.33864  0.013878585  0.012908505            4 
 4002000    0.5965247   -8.4024318    667.36735  0.013896538  0.012904094            2 
 4003000   0.61738166   -8.4137384    667.52292  0.013896305  0.012899686            3 
 4004000   0.60304463   -8.4251827    665.67534  0.013854382   0.01289528            2 
 4005000   0.60037461   -8.4134491    666.15019  0.013860803  0.012890876            2 
 4006000   0.60928247    -8.401992    666.53637  0.013865376  0.012886467            1 
 4007000    0.6164666   -8.4150256    666.31955  0.013857407  0.012882064            5 
 4008000   0.61192165   -8.4048949    666.47518  0.013857185  0.012877666            2 
 4009000   0.61288375   -8.4125226    666.78713  0.013860213  0.012873274            3 
 4010000    0.6061603   -8.4078063    665.19448  0.013823659  0.012868878            2 
 4011000   0.59485114   -8.3826787    667.74359  0.013873174  0.012864489            2 
 4012000   0.61243104   -8.4067923    666.65366  0.013847077  0.012860102            1 
 4013000   0.61040034   -8.4121111    665.87059  0.013827365  0.012855717            2 
 4014000   0.61296417   -8.3653513    668.04697  0.013869103  0.012851344            2 
 4015000   0.62178589   -8.4102588    667.22911  0.013848674  0.012846972            3 
 4016000   0.61525836   -8.4005682    666.25501  0.013825013  0.012842596            3 
 4017000   0.62295297   -8.3902352    665.76633  0.013811433   0.01283822            4 
 4018000   0.60521069   -8.4150713    666.42528  0.013821662   0.01283384            2 
 4019000   0.59636679   -8.4059327    667.74643  0.013845617  0.012829462            3 
 4020000   0.61662334   -8.3988589    667.72696  0.013841769  0.012825088            3 
 4021000   0.60160015   -8.3899341    666.84099  0.013819966  0.012820725            6 
 4022000    0.6149547   -8.3803135    666.68901  0.013813381   0.01281636            5 
 4023000   0.60666387   -8.4025969    668.47602  0.013846964  0.012812002            3 
 4024000   0.61007523   -8.4129419    666.44737  0.013801511  0.012807633            1 
 4025000   0.60140728   -8.4156723    665.78028  0.013784271  0.012803267            2 
 4026000   0.61955219   -8.4185024    666.19165  0.013789362  0.012798909            3 
 4027000   0.59726066   -8.4258157    665.19415  0.013765296  0.012794543            1 
 4028000   0.61541866   -8.4070152    666.47575  0.013788393  0.012790172            2 
 4029000   0.62284702   -8.4243082     666.3042  0.013781422  0.012785813            3 
 4030000    0.6080489   -8.4187467    666.85487  0.013789389  0.012781449            2 
 4031000   0.60141557   -8.4224517    666.43886  0.013777368  0.012777083            3 
 4032000   0.61207917   -8.4227858    667.37035  0.013793203  0.012772716            3 
 4033000   0.60463512   -8.3983015    667.04401   0.01378304  0.012768352            2 
 4034000   0.59866414    -8.420774    666.38899  0.013766092  0.012763987            3 
 4035000   0.59544548   -8.4123635     666.7204  0.013769525  0.012759626            3 
 4036000   0.62428103   -8.4165625    666.95019  0.013770858  0.012755273            4 
 4037000   0.60438566   -8.4027137    667.29057  0.013774473  0.012750922            4 
 4038000    0.6014686   -8.4246788      665.426  0.013732582  0.012746568            5 
 4039000   0.59541934   -8.4165135    665.72524  0.013735356  0.012742213            2 
 4040000   0.60713939   -8.4162664    665.21302  0.013721391  0.012737859            1 
 4041000   0.61261076   -8.3986165    666.68654  0.013748382  0.012733517            2 
 4042000   0.59326408   -8.4036625    666.33659  0.013737766  0.012729165            7 
 4043000   0.60519931   -8.4289149    667.02616  0.013748581  0.012724821            4 
 4044000   0.59917324   -8.4332887    665.88205  0.013721605  0.012720471            8 
 4045000   0.61826615   -8.4112688    666.59536  0.013732908  0.012716124            2 
 4046000   0.61845313   -8.4243008    665.28781  0.013702583  0.012711787            3 
 4047000    0.5999588    -8.414429    665.60973  0.013705826  0.012707448            2 
 4048000   0.59214878   -8.4349935    665.66773  0.013703634  0.012703107            3 
 4049000   0.60460977   -8.4032893     666.5065  0.013717512  0.012698766            2 
 4050000      0.60198   -8.4007343    667.78115  0.013740353   0.01269443            5 
 4051000    0.5947984   -8.4249599    666.17379  0.013703896  0.012690099            1 
 4052000   0.60287914   -8.4065707    666.47775  0.013706765  0.012685766            2 
 4053000    0.6017797   -8.4329688    664.91398  0.013671231  0.012681431            3 
 4054000   0.59128041    -8.407376    666.11374  0.013692521  0.012677104            4 
 4055000   0.59553794   -8.4409883    666.94646  0.013706257  0.012672783            4 
 4056000   0.60812651     -8.42395    667.00301  0.013704039  0.012668458            3 
 4057000   0.59700447   -8.4254671    665.62916  0.013672442  0.012664137            1 
 4058000   0.61448031    -8.419126    665.71398  0.013670814  0.012659818            5 
 4059000   0.60652409   -8.4312043    666.16607  0.013676728  0.012655496            3 
 4060000    0.6013936   -8.4557143    665.43032  0.013658258  0.012651174            4 
 4061000   0.59249693    -8.449185    666.46705  0.013676169  0.012646849            2 
 4062000   0.59660703   -8.4358859    667.12628  0.013686326  0.012642524            4 
 4063000   0.59470655   -8.4247613     665.9378  0.013658582  0.012638205            1 
 4064000   0.59036306   -8.4410846    666.53003  0.013667365  0.012633882            2 
 4065000   0.59610266    -8.433047    664.40748   0.01362049  0.012629569            3 
 4066000   0.60474721   -8.4379692    665.88898  0.013647503  0.012625251            5 
 4067000   0.58947871   -8.4479856    666.52764  0.013657234  0.012620938            4 
 4068000   0.60237072    -8.441651    665.12526  0.013625149   0.01261662            3 
 4069000   0.59505662   -8.4326012    666.30621  0.013645986  0.012612303            3 
 4070000   0.60610177   -8.4336921     664.8025  0.013611845  0.012607994            3 
 4071000   0.59905363   -8.4226513    667.06144  0.013654742  0.012603685            3 
 4072000   0.60538879   -8.4224484    666.54938  0.013640909  0.012599378            2 
 4073000    0.6079681   -8.4408447    666.00588   0.01362644  0.012595081            2 
 4074000   0.60722134    -8.441431    664.97446  0.013601998  0.012590775            2 
 4075000   0.61540808    -8.399445    665.25564   0.01360441  0.012586473            3 
 4076000   0.61112038   -8.4329656    666.80735  0.013632797  0.012582171            2 
 4077000   0.59538288   -8.4273129    666.89107  0.013631164  0.012577873            5 
 4078000   0.60631202   -8.4406476    665.49576  0.013599308  0.012573578            4 
 4079000   0.59653439   -8.4493849    665.53223   0.01359672  0.012569282            6 
 4080000    0.5901036   -8.4301051    666.70163  0.013617272  0.012564986            3 
 4081000   0.59584422   -8.4332606    665.62964  0.013592045  0.012560692            2 
 4082000   0.60719294   -8.4042031    665.53796  0.013586844    0.0125564            4 
 4083000   0.61653665   -8.4439042     665.4551  0.013581825  0.012552109            3 
 4084000   0.60445527   -8.4045933    666.62234  0.013602317  0.012547826            2 
 4085000   0.59143901    -8.427252    665.68811  0.013579929  0.012543547            2 
 4086000   0.59588543   -8.4225155    665.93266  0.013581593  0.012539259            1 
 4087000   0.59746584   -8.4265378    666.35394   0.01358686   0.01253498           10 
 4088000   0.59273644   -8.4430239    666.50871  0.013586691  0.012530702            3 
 4089000   0.59516484   -8.4459342     666.2101  0.013577283  0.012526428            5 
 4090000   0.60688499   -8.4282319    666.25379  0.013574853  0.012522155            1 
 4091000   0.58848934   -8.4260205    665.80167  0.013562325  0.012517883            7 
 4092000   0.58747774   -8.4189658    666.48779  0.013572984  0.012513618            2 
 4093000   0.59625903    -8.432152    665.97206  0.013559167   0.01250935            2 
 4094000   0.60065961   -8.4345305    666.34462  0.013563439   0.01250508            4 
 4095000   0.60002166   -8.4395056     666.2858   0.01355893   0.01250081            3 
 4096000   0.59108037   -8.4154588    666.25667  0.013555027  0.012496543            4 
 4097000   0.58624899   -8.4344378    666.49434  0.013556552  0.012492276            2 
 4098000   0.59239771   -8.4688189    665.02467  0.013523358  0.012488009            2 
 4099000   0.60003235   -8.4316144    666.04776  0.013540859  0.012483742            2 
 4100000   0.59537593   -8.4361532    666.21352  0.013540925  0.012479482            2 
 4101000   0.60483555   -8.4279152    665.00508  0.013513067  0.012475223            2 
 4102000   0.58599586   -8.4451138    665.45595  0.013518933  0.012470966            5 
 4103000   0.59924245   -8.4238066    666.34028  0.013533599  0.012466705            4 
 4104000   0.60404444     -8.42892    665.83043  0.013519949  0.012462449            4 
 4105000   0.59503236   -8.4585362    665.14594   0.01350276  0.012458193            1 
 4106000   0.59506973   -8.4350872    665.55932  0.013507861  0.012453934            2 
 4107000   0.60990749   -8.4453888    666.15524  0.013516664  0.012449682            4 
 4108000   0.58449786   -8.4170374     666.3348  0.013517016   0.01244543            3 
 4109000   0.60204621   -8.4437286    665.61543  0.013499137  0.012441185            3 
 4110000    0.5792602   -8.4239536    664.86033  0.013480542  0.012436942            2 
 4111000   0.59420774   -8.4506948    665.20664  0.013484283  0.012432697            5 
 4112000   0.57775641   -8.4334495    666.46441  0.013506493  0.012428457            2 
 4113000   0.58169263   -8.4502376    664.71776  0.013467821   0.01242421            2 
 4114000   0.58761142   -8.4403461    664.92074  0.013468659  0.012419967            2 
 4115000   0.60484854   -8.4176887    665.66787  0.013480516  0.012415732            2 
 4116000   0.59019223   -8.4226708    668.10351  0.013526553  0.012411498            5 
 4117000   0.59682804   -8.4370419    665.54804  0.013471542  0.012407269            5 
 4118000   0.58728756   -8.4276952    665.83924  0.013474163  0.012403038            3 
 4119000   0.59409036   -8.4391208    666.50965  0.013484455  0.012398807            4 
 4120000   0.60063758   -8.4227389    665.83129  0.013467461  0.012394575            3 
 4121000   0.59048983     -8.44376     665.6035  0.013459587  0.012390348            4 
 4122000   0.58057049   -8.4105385    666.34122  0.013471236  0.012386128            3 
 4123000   0.58827872   -8.4440297    665.87029   0.01345845  0.012381907            7 
 4124000   0.58046679   -8.4357895    666.08336  0.013459492  0.012377688            2 
 4125000   0.58770793   -8.4353128    665.44806  0.013443395  0.012373471            4 
 4126000   0.59089265   -8.4429027    665.12552  0.013433622  0.012369253            2 
 4127000   0.59249469   -8.4417692    666.23147  0.013452699  0.012365041            2 
 4128000   0.58784911   -8.4124922    666.82791  0.013461481  0.012360837            9 
 4129000   0.59916379   -8.4158616    664.99535  0.013421235  0.012356628            4 
 4130000   0.59595246   -8.4408021    665.93239  0.013436893  0.012352419            5 
 4131000   0.59294299   -8.4467013    664.53522  0.013405455  0.012348204            2 
 4132000   0.59045533   -8.4401483    666.60832  0.013444021  0.012343995            3 
 4133000   0.59978903   -8.4360197    666.35483  0.013435657  0.012339789            2 
 4134000   0.60956727   -8.4380852    666.69975   0.01343936  0.012335586            3 
 4135000   0.60272346   -8.4441304    665.52792  0.013412493  0.012331389            3 
 4136000   0.60183259   -8.4426452    664.78319  0.013394245  0.012327186            2 
 4137000   0.58712423   -8.4419724     666.0947  0.013417426  0.012322987            3 
 4138000   0.58489728   -8.4415054    665.32703  0.013398724  0.012318791            2 
 4139000   0.60340311   -8.4370154    664.92414  0.013387375  0.012314593            5 
 4140000   0.59103238   -8.4413284      666.502  0.013415902  0.012310399            3 
 4141000    0.5860035    -8.454721    665.70059  0.013396534  0.012306202            2 
 4142000   0.58613173   -8.4437557    665.40604  0.013387374  0.012302007            3 
 4143000   0.59436822   -8.4348321    665.89162   0.01339391  0.012297815            6 
 4144000   0.56848313   -8.4460851    664.91895  0.013371118  0.012293621            3 
 4145000   0.58788338   -8.4447398    665.26039  0.013374757  0.012289421            4 
 4146000   0.56752367   -8.4514557    665.91271  0.013384642   0.01228523            4 
 4147000   0.59653523   -8.4491345    665.21225  0.013367339  0.012281036            2 
 4148000   0.58650781   -8.4568248    664.86304  0.013357101  0.012276842            3 
 4149000   0.57858802   -8.4593337    665.46057  0.013365883  0.012272647            1 
 4150000   0.59119338   -8.4405117     665.3717  0.013360878  0.012268454            1 
 4151000   0.57870016    -8.469041     665.2325  0.013354864  0.012264262            3 
 4152000    0.5869233   -8.4490776    665.23679  0.013351734  0.012260077            3 
 4153000   0.57339728   -8.4269164    666.34625  0.013370781  0.012255894            4 
 4154000      0.59484   -8.4157507    666.50298  0.013370707  0.012251718            2 
 4155000   0.58121597   -8.4567421    665.69842  0.013351352  0.012247541            2 
 4156000    0.5756797   -8.4443738    665.55269  0.013345218  0.012243358            4 
 4157000   0.58286411     -8.45003    665.73083  0.013345578  0.012239184            2 
 4158000   0.59363919   -8.4628087    664.09482   0.01330958  0.012235006            6 
 4159000   0.57141885   -8.4565364    664.81017  0.013320714  0.012230831            5 
 4160000   0.58358909   -8.4642129    664.71101  0.013315525  0.012226654            5 
 4161000   0.57436566   -8.4473071    665.37184   0.01332556  0.012222477            3 
 4162000   0.59745138   -8.4618038    665.37137  0.013322348    0.0122183            3 
 4163000   0.57790079    -8.454239    665.44235  0.013320569  0.012214133            3 
 4164000    0.5815742   -8.4637659    665.49482   0.01331842  0.012209964            2 
 4165000   0.58445418   -8.4482062    665.34945  0.013312314  0.012205797            5 
 4166000   0.57541285   -8.4489972    665.48316  0.013311793  0.012201632            4 
 4167000   0.59360768   -8.4647746    665.73634  0.013313662  0.012197473            2 
 4168000   0.58478318   -8.4725471    664.75741  0.013290895  0.012193312            5 
 4169000   0.58338317   -8.4432383    665.00373  0.013292631  0.012189146            3 
 4170000    0.5855883   -8.4479223    665.50721  0.013299505  0.012184984            3 
 4171000   0.57596374   -8.4616003    665.82815  0.013302728  0.012180828            3 
 4172000    0.5817401   -8.4384415    665.57691  0.013294521  0.012176673            4 
 4173000   0.57345904   -8.4327023     665.0405  0.013280623  0.012172517            4 
 4174000   0.58580099   -8.4578912    664.79067  0.013272454   0.01216837            2 
 4175000   0.58348175   -8.4494309    665.49866  0.013283406  0.012164216            4 
 4176000   0.57547465   -8.4569512    664.96054  0.013269487  0.012160065            5 
 4177000   0.57681572   -8.4554782    665.66233  0.013280311  0.012155915            4 
 4178000   0.58216798    -8.477119    666.08733   0.01328561  0.012151767            2 
 4179000   0.57977305   -8.4817528    665.66067  0.013273923   0.01214762            4 
 4180000   0.57004148    -8.459361    664.83552  0.013254297  0.012143466            4 
 4181000   0.58137783   -8.4643335    664.06161  0.013235701  0.012139313            3 
 4182000   0.58229829   -8.4636384    663.42656  0.013219882  0.012135169            4 
 4183000    0.5890934   -8.4734462    663.65308  0.013221234  0.012131029            2 
 4184000   0.58269065   -8.4438171    665.11154  0.013247123  0.012126887            2 
 4185000   0.59858972   -8.4551325    664.47222  0.013231227  0.012122748            2 
 4186000   0.58230804   -8.4776322    665.10136  0.013240591  0.012118608            3 
 4187000   0.58690746   -8.4613556    664.30592  0.013221597  0.012114466            4 
 4188000   0.58408682   -8.4636198    664.67902  0.013225864  0.012110331            3 
 4189000   0.57798824   -8.4396295    665.85424  0.013246086  0.012106199            4 
 4190000   0.56881191   -8.4639233    665.35713  0.013233038   0.01210207            2 
 4191000   0.56226755    -8.459356    664.72382  0.013217287   0.01209794            2 
 4192000   0.57819775   -8.4738187    664.70796  0.013213819  0.012093802            4 
 4193000   0.59143357   -8.4652928    663.87656  0.013194144   0.01208967            4 
 4194000   0.57849943   -8.4596306    665.11495  0.013215605  0.012085541            3 
 4195000   0.57388327   -8.4443384      665.387  0.013217859  0.012081414            3 
 4196000   0.58724041   -8.4635038    665.05309  0.013208077  0.012077287            3 
 4197000   0.58599947    -8.469294    664.84322  0.013200763  0.012073166            2 
 4198000   0.57249556   -8.4486057    665.47377  0.013210135  0.012069039            3 
 4199000   0.57678715   -8.4610667    664.51937  0.013188048  0.012064918            3 
 4200000   0.57881216   -8.4708041    664.46412  0.013183812  0.012060797            4 
 4201000   0.58628102   -8.4878782    664.39263  0.013179256  0.012056679            5 
 4202000   0.57461921   -8.4599987    665.11794  0.013190503  0.012052555            3 
 4203000    0.5841618   -8.4680598    664.98144  0.013184659  0.012048434            5 
 4204000   0.57259584   -8.4813515    664.08386   0.01316373  0.012044317            2 
 4205000   0.58888803   -8.4597981    664.25742  0.013164039  0.012040206            3 
 4206000   0.57986153   -8.4796292    664.03934  0.013156589  0.012036094            3 
 4207000   0.58558566   -8.4652042    664.49112   0.01316241   0.01203198            5 
 4208000   0.57917152   -8.4759954    663.16011  0.013132924  0.012027868            5 
 4209000   0.58385026   -8.4566013    664.52535  0.013156833  0.012023758            5 
 4210000   0.58439243    -8.470282    665.43522  0.013171719  0.012019646            3 
 4211000   0.58786004   -8.4791236    664.62598  0.013152576  0.012015536            4 
 4212000   0.59367391   -8.4781482    664.53243  0.013147603  0.012011424            3 
 4213000   0.58488673   -8.4799888    663.98064  0.013133568  0.012007311            3 
 4214000   0.58451831   -8.4741194    663.77572  0.013126399  0.012003209            3 
 4215000   0.58336931   -8.5013812    663.91051  0.013125949  0.011999103            4 
 4216000   0.58830157   -8.4535866    664.09277  0.013126438  0.011995004            3 
 4217000   0.57710316   -8.4701682    664.41988   0.01312979  0.011990907            3 
 4218000   0.57681621   -8.4615423    664.16666  0.013121674  0.011986811            3 
 4219000   0.57371721   -8.4880155     664.5763  0.013126655  0.011982713            3 
 4220000   0.57719879   -8.4734559    664.02838  0.013112725  0.011978618            5 
 4221000   0.58117935   -8.4838029    664.07582  0.013110555  0.011974522            5 
 4222000   0.57949257   -8.4833061    663.28971  0.013091933  0.011970425            4 
 4223000   0.57512182   -8.4894044    663.58861  0.013094731  0.011966332            2 
 4224000   0.56956023   -8.4990497    664.39706  0.013107581  0.011962239            4 
 4225000   0.56326593   -8.4688849    664.16645   0.01309993  0.011958145            5 
 4226000   0.58057464   -8.4680457    664.39066  0.013101251  0.011954058            4 
 4227000    0.5783077   -8.4748971    665.43456  0.013118732  0.011949971            2 
 4228000   0.58034449   -8.4686785    663.78729  0.013083162  0.011945879            3 
 4229000    0.5691583   -8.4776689    663.68764  0.013078104  0.011941793            3 
 4230000   0.57298257    -8.477981    664.19801  0.013085067  0.011937707            6 
 4231000   0.58089662   -8.4721393    663.39535  0.013066165  0.011933623            6 
 4232000   0.56737475   -8.4779864    664.07332  0.013076428  0.011929544            5 
 4233000   0.58820803   -8.4759744    664.63855  0.013084466  0.011925468            5 
 4234000   0.57013567   -8.4667145    664.16849  0.013072124  0.011921387            4 
 4235000    0.5744881   -8.4773789    664.08017    0.0130673   0.01191731            5 
 4236000   0.56254202   -8.4709359    664.45318  0.013071553  0.011913237            5 
 4237000   0.57476626   -8.4884939     663.7799  0.013055226  0.011909166            2 
 4238000   0.57633568   -8.4878062     663.8262  0.013053056  0.011905092            6 
 4239000   0.56352746   -8.4459509    663.50786  0.013043718  0.011901029            3 
 4240000   0.57712275   -8.4864691    665.02215  0.013070404  0.011896963            4 
 4241000   0.57899171   -8.4909888     664.2677  0.013052497  0.011892898            3 
 4242000   0.57225389   -8.4807963    663.92681  0.013042724  0.011888838            3 
 4243000   0.56844298     -8.48725    662.87732  0.013019038  0.011884777            2 
 4244000   0.57181558   -8.4821275    664.23055  0.013042542   0.01188072            5 
 4245000   0.57198549   -8.4970003    663.60478  0.013027185  0.011876661            3 
 4246000   0.58094486   -8.5097143    663.77803  0.013027517  0.011872605            3 
 4247000   0.57731455   -8.4959579    663.04206  0.013010008  0.011868548            5 
 4248000   0.58295619     -8.47145    662.52917  0.012996884  0.011864494            4 
 4249000   0.56495668   -8.4968094    663.50582   0.01301298  0.011860446            8 
 4250000   0.58831389   -8.4900184     664.2562  0.013024631  0.011856393            5 
 4251000   0.56202796   -8.4936523    663.28711   0.01300257  0.011852342            4 
 4252000   0.54918608   -8.4783874    666.05049  0.013053671  0.011848294            5 
 4253000    0.5798489   -8.4791263    664.48266  0.013019881  0.011844245            4 
 4254000   0.56546293   -8.5034698    663.72776  0.013002033  0.011840199            5 
 4255000   0.56813572   -8.4810947    664.69096  0.013017841  0.011836155            2 
 4256000   0.56927348   -8.4941968    663.11319  0.012983889  0.011832109            3 
 4257000   0.57143307   -8.4988757    663.83397  0.012994949  0.011828071            5 
 4258000   0.56995241   -8.4740418    663.82262  0.012991675  0.011824038            5 
 4259000   0.55866323   -8.4890324    664.85367  0.013008799  0.011820002            4 
 4260000   0.56224779   -8.5100474    664.08389  0.012990687  0.011815965            2 
 4261000   0.57028287   -8.4868973    663.07863  0.012967978  0.011811926            3 
 4262000   0.57104725    -8.494028    664.25309  0.012987899  0.011807893            4 
 4263000   0.57420845   -8.4802115    663.62833  0.012972639  0.011803866            7 
 4264000    0.5630185    -8.485289    663.46321   0.01296637  0.011799836            2 
 4265000   0.57377755   -8.4871672    664.41564  0.012981939  0.011795817            3 
 4266000   0.56828429    -8.506534    662.26293  0.012936844  0.011791794            7 
 4267000   0.56952803   -8.4941975     664.4736  0.012976986  0.011787771            5 
 4268000   0.57503908   -8.5002855    662.67252  0.012938779  0.011783755            3 
 4269000   0.56346143   -8.5050668    664.12463  0.012964094  0.011779735            3 
 4270000   0.56593846   -8.4846861    663.41695  0.012947247  0.011775716            4 
 4271000   0.56495484   -8.4828187    664.77557  0.012970724  0.011771699            3 
 4272000   0.56654524   -8.4984025    663.85003  0.012949634  0.011767686            4 
 4273000   0.56728581   -8.4816134    664.14816  0.012952417  0.011763677            7 
 4274000   0.56226414   -8.4986749    664.11108  0.012948664  0.011759665            3 
 4275000   0.57397614   -8.4795664    664.51624  0.012953533   0.01175566            3 
 4276000   0.56936418   -8.4853229    663.92525  0.012938986  0.011751654            4 
 4277000   0.59215101   -8.4907899    662.25515   0.01290342  0.011747649            2 
 4278000   0.57984199    -8.493494    664.16794  0.012937664  0.011743647            3 
 4279000   0.55429998   -8.4987476    664.36868   0.01293855  0.011739642            2 
 4280000   0.56456736   -8.4732181    663.71293   0.01292276  0.011735644            3 
 4281000   0.56615059    -8.501729    662.71178  0.012900253   0.01173164            4 
 4282000    0.5702858   -8.4848766     664.6145  0.012934269  0.011727637            3 
 4283000   0.56773332   -8.4902773    663.77869  0.012914987  0.011723638            4 
 4284000   0.56444169   -8.4884439    663.88189   0.01291398  0.011719637            4 
 4285000   0.57316606   -8.4893381    663.70694  0.012907564  0.011715642            2 
 4286000   0.56097226   -8.5217315    663.07217   0.01289221  0.011711643            3 
 4287000   0.57025519   -8.4866958    663.34044  0.012894418  0.011707647            3 
 4288000   0.57655044   -8.4981144    664.02368  0.012904689  0.011703659            6 
 4289000    0.5556291   -8.5057425    664.23687  0.012905822  0.011699667            3 
 4290000   0.56430971   -8.5072189    663.76472  0.012893643   0.01169568            4 
 4291000   0.54946749   -8.4820739    663.89663    0.0128932  0.011691692            4 
 4292000   0.55890945   -8.4933787    663.62385  0.012884899  0.011687706            3 
 4293000   0.55949044   -8.5026369    663.55904   0.01288064  0.011683719            3 
 4294000   0.56718922   -8.4949913     664.1915  0.012889914  0.011679736            2 
 4295000   0.56379902   -8.4961375    663.04822  0.012864731  0.011675758            3 
 4296000   0.56088409   -8.5045124    662.39149  0.012848997  0.011671774            2 
 4297000   0.55828008   -8.4996219    663.65207  0.012870454  0.011667797            2 
 4298000   0.56701786   -8.5192556    664.78153  0.012889358  0.011663819            6 
 4299000    0.5705434   -8.5033298    662.46158  0.012841389  0.011659846            3 
 4300000   0.55806038   -8.5043144    663.38405   0.01285628  0.011655875            4 
 4301000   0.58169615   -8.5203241    663.47785  0.012855108  0.011651909            3 
 4302000   0.56429121   -8.4923739    663.55729  0.012853659  0.011647942            2 
 4303000   0.55252927   -8.5192446    662.66409  0.012833374  0.011643971            2 
 4304000   0.55414337   -8.5076507    663.71114  0.012850665  0.011640005            2 
 4305000   0.54856731   -8.4903071    663.60835   0.01284569  0.011636039            3 
 4306000   0.56876391   -8.5016492    663.12312  0.012833316  0.011632081            2 
 4307000    0.5618412   -8.4899965    662.71521  0.012822444  0.011628117            3 
 4308000   0.57456213   -8.5070443     663.1632  0.012828134   0.01162416            9 
 4309000   0.57100842   -8.4967695    662.46805  0.012811713  0.011620195            3 
 4310000   0.56923591   -8.5127488    663.00003  0.012819026  0.011616234            2 
 4311000   0.56191026   -8.5102533     663.9204  0.012833844  0.011612275            2 
 4312000   0.55783508   -8.5080347    663.69969  0.012826602  0.011608319            3 
 4313000   0.54858034   -8.5091899    663.84078  0.012826354  0.011604361            5 
 4314000   0.55816654   -8.4984599    663.51253   0.01281704  0.011600409            8 
 4315000   0.56682273   -8.4914634    661.62185  0.012777556  0.011596453            3 
 4316000   0.56903521   -8.5064938    664.52939  0.012830734  0.011592502            3 
 4317000   0.56122826   -8.4955929    663.41996  0.012806346  0.011588553            3 
 4318000   0.56266583   -8.4993764    664.60158  0.012826185  0.011584608            4 
 4319000   0.56937539   -8.5014183    663.66887  0.012805219  0.011580663            4 
 4320000   0.55941516   -8.5158496    662.51265  0.012779951  0.011576719            2 
 4321000   0.54515507   -8.5179663    663.43121  0.012794708  0.011572776            4 
 4322000    0.5421497   -8.5131907    661.88063  0.012761851  0.011568832            1 
 4323000   0.55493891   -8.5011826    663.54583  0.012790998   0.01156489            1 
 4324000    0.5626583   -8.5166434    662.87053  0.012775026  0.011560949            5 
 4325000   0.55769106   -8.5301741    662.71791  0.012769131  0.011557011            3 
 4326000   0.55955713    -8.491341    664.26218  0.012795927  0.011553074            3 
 4327000   0.55337408   -8.5110028    662.38926    0.0127569  0.011549139            3 
 4328000   0.55991863   -8.5109208    663.14823  0.012768566  0.011545203            3 
 4329000   0.55428184   -8.5175407    663.08332  0.012764367  0.011541269            3 
 4330000   0.55594297   -8.5173665    663.03917  0.012760569  0.011537336            2 
 4331000   0.55972679    -8.522767    662.87816  0.012754525  0.011533405            5 
 4332000   0.55508306   -8.5108852    663.78889    0.0127691  0.011529479            3 
 4333000    0.5482304   -8.4980569    662.91067  0.012749263  0.011525553            3 
 4334000   0.56017487   -8.5168148     663.5146  0.012757933  0.011521625            1 
 4335000   0.57996865   -8.5089485    664.32137  0.012770499    0.0115177            4 
 4336000   0.56337105   -8.5022716    661.97489  0.012722457  0.011513777            1 
 4337000   0.56604159   -8.5213338    663.67753  0.012752239  0.011509858            6 
 4338000    0.5567353   -8.5166021    663.26068  0.012741292   0.01150594            3 
 4339000   0.56236743   -8.5154822    663.50753  0.012743096  0.011502026            2 
 4340000   0.54209206     -8.50901    662.63337  0.012723375  0.011498106            2 
 4341000   0.55325211    -8.523609    662.27947   0.01271365  0.011494195            1 
 4342000   0.56168547   -8.5135638    663.61682  0.012736389  0.011490282            4 
 4343000   0.55419979   -8.5081396    663.12359  0.012723993  0.011486374            4 
 4344000   0.56057838   -8.5119845     663.1017  0.012720643  0.011482464            2 
 4345000   0.56859723   -8.5016991    663.49931  0.012725342  0.011478553            4 
 4346000   0.56990327   -8.5092621    663.29619  0.012718519  0.011474647            1 
 4347000   0.55396012   -8.5169043    662.30669  0.012696624  0.011470743            2 
 4348000   0.55369609   -8.5277025    663.93011  0.012724818  0.011466842            3 
 4349000   0.55439868   -8.5261317    663.25476  0.012708952   0.01146294            3 
 4350000   0.55046067   -8.5213466    662.03751  0.012682711   0.01145904            2 
 4351000   0.56656004   -8.5227011    663.17866  0.012701652  0.011455139            2 
 4352000   0.56418167   -8.5052742     663.0069  0.012695445  0.011451244            2 
 4353000   0.55444586   -8.5014866    664.17833  0.012714954   0.01144735            3 
 4354000   0.54703965   -8.5204598    662.00115  0.012670363  0.011443454            3 
 4355000   0.54898057   -8.5281965    662.40311  0.012675146  0.011439564            1 
 4356000   0.54628298   -8.5089539    663.81165  0.012699182  0.011435675            3 
 4357000   0.55234196   -8.5095379    662.59049  0.012672911  0.011431785            3 
 4358000   0.54544872   -8.5092613    663.50333  0.012687458  0.011427896            3 
 4359000   0.55351299   -8.5105351    662.76296  0.012670394  0.011424007            2 
 4360000   0.54591019   -8.5157163    663.22874   0.01267639  0.011420122            2 
 4361000   0.55372721   -8.5150865    662.28846  0.012655516  0.011416233            4 
 4362000   0.55207353   -8.5299061    663.20276  0.012670082  0.011412348            2 
 4363000   0.54213687   -8.5360622     663.1029   0.01266527  0.011408469            1 
 4364000   0.55286588   -8.5297607    663.20116  0.012664245  0.011404589            4 
 4365000   0.55053261   -8.5278371    663.24016  0.012662088  0.011400711            2 
 4366000   0.56911241   -8.5137472    663.38589  0.012661969  0.011396838            4 
 4367000   0.56048766   -8.5308652     663.6422  0.012663961  0.011392965            2 
 4368000   0.55618283   -8.5097855    664.51464  0.012677706  0.011389094            4 
 4369000   0.56820227   -8.5133967     662.8303  0.012642677  0.011385224            2 
 4370000   0.56345112   -8.5104256    663.97963  0.012661702  0.011381356            3 
 4371000   0.53919625   -8.5103914    662.57531  0.012632031  0.011377487            3 
 4372000    0.5357276   -8.5304207    662.87639  0.012634881  0.011373619            1 
 4373000    0.5542703   -8.5365289    662.37379  0.012622414  0.011369748            3 
 4374000   0.54357075   -8.5156984    661.42449  0.012601442  0.011365884            4 
 4375000    0.5590058   -8.5304262    662.09623  0.012611357  0.011362019            2 
 4376000   0.54953046   -8.5219693    663.35773  0.012632498  0.011358159            3 
 4377000   0.55313775    -8.530583     663.1002  0.012624709    0.0113543            4 
 4378000   0.55652127   -8.5211984    662.99491  0.012619821  0.011350442            2 
 4379000   0.55106703    -8.518707    662.39807  0.012605581  0.011346584            4 
 4380000   0.55484992   -8.5261669    662.85769  0.012611448  0.011342725            2 
 4381000   0.54541029   -8.5065592    663.05243  0.012612273  0.011338868            4 
 4382000   0.56713228    -8.516898    661.65197  0.012582762  0.011335014            2 
 4383000    0.5451617   -8.5090005    662.76465  0.012601047  0.011331159            2 
 4384000   0.55585131   -8.5166879    662.19926  0.012587425  0.011327306            5 
 4385000   0.55301089   -8.5418962    662.80909  0.012596144  0.011323455            4 
 4386000   0.58277341   -8.5268951    662.65017  0.012590253  0.011319606            3 
 4387000   0.55159576   -8.5358082    661.55047  0.012566493  0.011315757            4 
 4388000   0.54712948   -8.5178727    662.15854  0.012575177  0.011311911            3 
 4389000   0.56093004   -8.5224518    662.62318  0.012581134  0.011308069            2 
 4390000   0.54613546   -8.5358715    662.78678  0.012581374  0.011304232            3 
 4391000   0.55473036    -8.551744    662.34415  0.012570108  0.011300392            3 
 4392000   0.54759994   -8.5333354    662.67597  0.012573542   0.01129655            5 
 4393000   0.56520404   -8.5458627    662.27651  0.012563102  0.011292714            2 
 4394000   0.54130275    -8.521953    662.24244  0.012559597   0.01128888            2 
 4395000   0.53859293   -8.5430403    663.39005  0.012578499   0.01128505            3 
 4396000   0.54567706   -8.5218497    663.18427  0.012571737  0.011281211            3 
 4397000   0.54701793   -8.5180858    662.49305  0.012555778  0.011277376            3 
 4398000   0.54185841   -8.5488149    663.12743  0.012564943  0.011273549            3 
 4399000   0.55021644   -8.5234458    663.45984  0.012568384  0.011269717            3 
 4400000   0.55147106   -8.5370374    662.89237   0.01255478  0.011265894            3 
 4401000   0.54935317   -8.5279657    662.44274  0.012543413  0.011262067            2 
 4402000   0.54021796   -8.5351791    662.78936  0.012547126  0.011258243            4 
 4403000   0.54004232   -8.5250132     662.2082  0.012533276  0.011254422            4 
 4404000   0.55680064   -8.5345807    661.74107  0.012521592  0.011250596            2 
 4405000   0.55137997   -8.5213249    662.91829   0.01254102  0.011246775            3 
 4406000   0.54547624   -8.5311101    661.92655  0.012519416  0.011242954            2 
 4407000   0.56598564   -8.5332504    662.06745  0.012519239   0.01123914            3 
 4408000   0.54389232   -8.5225628    661.92504  0.012513707  0.011235325            4 
 4409000   0.52934865   -8.5434415     662.5988  0.012523603   0.01123151            3 
 4410000   0.55098967   -8.5329012    662.70641  0.012522797  0.011227694            4 
 4411000   0.55137649   -8.5331928    662.56152  0.012517221  0.011223884            2 
 4412000   0.54471032   -8.5277128    662.46845  0.012512626  0.011220072            3 
 4413000   0.53087972   -8.5183466    663.06731  0.012521099  0.011216264            3 
 4414000   0.53853032   -8.5500403    663.40486  0.012524635  0.011212457            2 
 4415000   0.55001927   -8.5445464    662.24219  0.012499853  0.011208653            3 
 4416000   0.55192229    -8.522049    662.92604  0.012509927  0.011204849            5 
 4417000   0.54053549   -8.5365154    662.04755   0.01249052  0.011201047            3 
 4418000   0.54064216   -8.5196382     662.4142  0.012494609  0.011197249            5 
 4419000   0.54562609   -8.5453732    661.79152  0.012480039  0.011193446            2 
 4420000   0.54374497   -8.5453388    662.62767   0.01249298   0.01118965            3 
 4421000   0.54250265   -8.5473323    661.78979  0.012474361   0.01118585            1 
 4422000   0.55005257    -8.542693    662.12393  0.012477837  0.011182057            5 
 4423000   0.54531707   -8.5339143    661.93104  0.012471381   0.01117826            3 
 4424000   0.53378182   -8.5523763      662.003  0.012469918  0.011174467            3 
 4425000   0.53117573   -8.5404268    662.81193  0.012482334   0.01117067            3 
 4426000   0.55059549   -8.5514994    662.73819  0.012478125   0.01116688            4 
 4427000   0.53718445   -8.5282566    661.79464  0.012457545  0.011163089            4 
 4428000    0.5492019   -8.5359931    662.48919  0.012467803  0.011159303            3 
 4429000   0.55369009   -8.5427572    662.03134  0.012456374  0.011155518            4 
 4430000   0.54928853   -8.5352635    662.95009  0.012470844  0.011151737            3 
 4431000   0.53477982    -8.524754     662.0688  0.012451456  0.011147957            5 
 4432000   0.53883036   -8.5488424    663.63152   0.01247803  0.011144178            3 
 4433000   0.53625147   -8.5398842     661.8762  0.012442217  0.011140402            2 
 4434000   0.53415453   -8.5314937    660.88819  0.012420843  0.011136625            3 
 4435000     0.531281   -8.5526128    662.28849  0.012444353  0.011132855            4 
 4436000   0.54673221   -8.5463644    661.51172  0.012426956  0.011129081            3 
 4437000   0.54570235   -8.5506148    662.15895  0.012436311  0.011125308            3 
 4438000   0.53974693   -8.5585854    662.53296  0.012440532  0.011121539            4 
 4439000   0.54386921   -8.5396649    661.89786  0.012425807   0.01111777            3 
 4440000   0.54511025   -8.5656033    661.50488  0.012415632  0.011114003            3 
 4441000   0.53815497   -8.5397244    661.71864  0.012416847  0.011110239            4 
 4442000   0.54191164   -8.5339706    662.23508  0.012423741  0.011106476            4 
 4443000   0.54370429   -8.5412796    661.56755  0.012408424   0.01110271            2 
 4444000   0.54075535   -8.5409545    663.09637    0.0124343  0.011098947            1 
 4445000   0.54280149   -8.5417298    661.56106  0.012402719  0.011095189            7 
 4446000   0.53803721   -8.5350024    661.63294  0.012401277  0.011091432            3 
 4447000   0.52428863   -8.5600374    662.16983  0.012408549  0.011087676            3 
 4448000   0.54570677   -8.5376244    662.03416  0.012403218  0.011083919            3 
 4449000   0.53454864   -8.5477047     662.7483  0.012413806  0.011080168            5 
 4450000    0.5304958   -8.5356822    662.48647  0.012406114  0.011076418            3 
 4451000   0.53286139   -8.5467982    662.17596  0.012397513  0.011072672            3 
 4452000   0.53904998   -8.5570748    662.53122  0.012401378  0.011068923            2 
 4453000   0.53456884   -8.5461261    662.39296  0.012396006  0.011065179            3 
 4454000   0.53699057   -8.5408657    660.98141  0.012366813  0.011061435            2 
 4455000   0.52332624   -8.5431537    662.04867  0.012384001  0.011057688            4 
 4456000    0.5277795   -8.5385212    662.51764  0.012389992  0.011053949            5 
 4457000   0.53721922   -8.5466062    662.08415  0.012379107  0.011050208            4 
 4458000   0.53566855   -8.5510228    661.23679   0.01236049  0.011046473            3 
 4459000   0.54446913   -8.5655279    660.87426  0.012350943  0.011042732            3 
 4460000   0.53865622   -8.5575055    662.58695  0.012380175  0.011038994            2 
 4461000   0.53685241   -8.5629705    661.76176  0.012361985  0.011035253            4 
 4462000   0.54060462   -8.5543372    661.72295  0.012358489   0.01103152            5 
 4463000    0.5319386   -8.5348841    662.98525   0.01237929  0.011027792            4 
 4464000   0.53009879   -8.5504801    661.56353  0.012349976  0.011024063            3 
 4465000   0.54906961   -8.5489562    661.25998  0.012341545  0.011020332            3 
 4466000   0.53829924   -8.5480926    661.18326   0.01233735  0.011016604            3 
 4467000   0.53008441    -8.543222    662.23829   0.01235427  0.011012881            4 
 4468000    0.5355688    -8.537047     663.2997  0.012371302  0.011009156            5 
 4469000   0.54103054   -8.5418771    661.68997  0.012338517  0.011005438            5 
 4470000   0.52950564   -8.5356502    661.91021  0.012339862  0.011001714            3 
 4471000   0.53532855   -8.5609659    661.87188  0.012336388  0.010997995            2 
 4472000   0.53675532   -8.5519449     662.0588  0.012337112  0.010994274            3 
 4473000   0.53347771   -8.5665676    661.87444   0.01233092  0.010990555            4 
 4474000   0.53888815   -8.5579725    661.71224  0.012325142  0.010986837            3 
 4475000   0.53032556   -8.5582497    662.58372  0.012338617  0.010983124            3 
 4476000   0.55368208   -8.5486376    662.13783  0.012327559  0.010979412            2 
 4477000   0.53560734   -8.5414347    661.37485  0.012310603  0.010975701            3 
 4478000   0.54106034   -8.5652817    661.84293  0.012316565  0.010971992            2 
 4479000   0.52660995   -8.5517897    661.38631  0.012305319  0.010968285            5 
 4480000   0.53945906   -8.5452806    661.21517  0.012299389  0.010964578            4 
 4481000   0.52952962   -8.5473697    661.82826  0.012308046  0.010960877            3 
 4482000   0.52892702   -8.5529302    660.93701  0.012288729  0.010957175            3 
 4483000   0.54807425   -8.5486085     661.2285  0.012291406  0.010953478            2 
 4484000   0.53550618   -8.5544721    661.64539  0.012296413  0.010949775            3 
 4485000   0.54492275   -8.5515348    662.08088  0.012301763  0.010946079            3 
 4486000   0.52958734    -8.554312    661.68021  0.012291578  0.010942383            4 
 4487000   0.53046651    -8.541578    661.87429  0.012292443  0.010938686            4 
 4488000   0.53058289   -8.5388368     661.1519   0.01227629  0.010934988            3 
 4489000   0.51917605   -8.5313138    661.11079  0.012272793  0.010931298            4 
 4490000   0.52222773     -8.56385    660.99541  0.012267918  0.010927604            3 
 4491000   0.53990597   -8.5652548    663.27587  0.012307501  0.010923908            3 
 4492000   0.53414008    -8.556232    661.02672  0.012263037  0.010920217            3 
 4493000   0.53145871   -8.5735094    662.16188  0.012281361  0.010916526            2 
 4494000   0.53785528     -8.56845    662.02731  0.012276133  0.010912836            3 
 4495000   0.54390605   -8.5504441    661.45466  0.012262786  0.010909147            2 
 4496000   0.51942834   -8.5423001    663.86261   0.01230469  0.010905461            4 
 4497000   0.51898041   -8.5559844    662.67309   0.01227991   0.01090178            3 
 4498000   0.53753415   -8.5565618    660.81038   0.01224267  0.010898099            3 
 4499000   0.53149348   -8.5712801    661.33348  0.012249638  0.010894417            4 
 4500000     0.550348    -8.576283    661.88284   0.01225709  0.010890738            2 
 4501000   0.52998286   -8.5568574    661.46221  0.012246579  0.010887063            4 
 4502000   0.52486968   -8.5645816    662.51342  0.012263317  0.010883386            2 
 4503000   0.53073142   -8.5687664    660.95011  0.012231662  0.010879714            3 
 4504000   0.53286871   -8.5552225    661.87796  0.012246114   0.01087604            4 
 4505000   0.51754168    -8.550797    661.55179  0.012237362  0.010872366            3 
 4506000   0.52242782   -8.5516102    659.96442   0.01220529  0.010868695            3 
 4507000   0.52050989   -8.5662428    661.69468  0.012234574  0.010865027            3 
 4508000   0.53828316   -8.5492231    661.96866  0.012236924  0.010861358            3 
 4509000   0.54501095   -8.5567827    662.20431  0.012238566  0.010857694            4 
 4510000   0.51857438    -8.562414    661.29415  0.012219034  0.010854033            2 
 4511000   0.51921011   -8.5512264    661.91146   0.01222773  0.010850369            3 
 4512000   0.52444767    -8.560791    661.07819   0.01220963  0.010846704            3 
 4513000   0.52746867   -8.5547127    661.42041  0.012213243  0.010843044            3 
 4514000    0.5393201   -8.5505264    661.67435  0.012215226  0.010839387            3 
 4515000   0.53438798   -8.5425464    661.81409    0.0122151   0.01083573            5 
 4516000   0.52935873   -8.5447238    662.02895  0.012216359  0.010832081            3 
 4517000   0.52086083   -8.5429151    661.47355  0.012203408  0.010828426            3 
 4518000   0.53400396   -8.5447545    661.30647  0.012197626  0.010824776            2 
 4519000   0.53736031   -8.5713631    661.01833  0.012189613  0.010821125            3 
 4520000   0.53096373   -8.5646201    662.22674  0.012209195  0.010817475            3 
 4521000   0.53039315   -8.5490317    661.40963  0.012191433  0.010813828            5 
 4522000   0.53218146   -8.5602811    662.09929  0.012201446  0.010810179            2 
 4523000   0.50959867   -8.5697656    661.23066  0.012182745  0.010806533            5 
 4524000   0.52377844   -8.5634019    660.73089  0.012170846  0.010802888            4 
 4525000   0.52545201   -8.5498212    661.03876  0.012173826  0.010799245            7 
 4526000   0.52846087   -8.5607203    660.11448  0.012154118    0.0107956            4 
 4527000   0.52973306   -8.5628913     661.0212  0.012168125   0.01079196            2 
 4528000   0.53325078   -8.5681187    661.72462  0.012178383  0.010788318            1 
 4529000   0.52354692   -8.5419885    661.61306  0.012173641  0.010784684            2 
 4530000   0.53257999   -8.5619016     661.2222  0.012163764  0.010781049            2 
 4531000   0.52383242   -8.5619397     661.5725  0.012167522  0.010777418            5 
 4532000   0.52745868   -8.5619592    660.94878  0.012153368  0.010773786            4 
 4533000   0.52149575   -8.5707345    662.76463  0.012184069  0.010770153            4 
 4534000   0.52075532   -8.5677696    660.84859  0.012146166   0.01076652            4 
 4535000   0.51477711   -8.5610957    661.07959  0.012147732  0.010762891            2 
 4536000   0.52284711   -8.5653376    661.57261  0.012154112  0.010759263            5 
 4537000    0.5309969   -8.5589539       661.11  0.012142936  0.010755637            2 
 4538000   0.53163503   -8.5704314    660.69421  0.012132625  0.010752015            5 
 4539000   0.52760118   -8.5691697    661.26588  0.012140447  0.010748396            2 
 4540000   0.52373222   -8.5825489    662.32576  0.012157228  0.010744777            3 
 4541000   0.53121274   -8.5667335    661.26647  0.012135111  0.010741158            5 
 4542000   0.52669707   -8.5636699     660.4692  0.012117812  0.010737538            3 
 4543000   0.53107675   -8.5642436    661.21053  0.012128743  0.010733921            2 
 4544000   0.52208612   -8.5743433    661.22996   0.01212643  0.010730305            3 
 4545000   0.52408505   -8.5480496     661.7794  0.012133836  0.010726692            2 
 4546000   0.51983998   -8.5810913    661.16558  0.012119915   0.01072308            4 
 4547000   0.52122333   -8.5750756    661.94236  0.012131485  0.010719469            5 
 4548000   0.51289448   -8.5725844    660.84172  0.012108651  0.010715857            3 
 4549000   0.54212043   -8.5624192    661.97114  0.012126679  0.010712249            3 
 4550000   0.52738544    -8.574466    659.31006  0.012075276   0.01070864            3 
 4551000   0.52420729   -8.5660895     661.2315  0.012107806  0.010705033            4 
 4552000   0.52877102   -8.5791024    662.42982  0.012127084  0.010701437            3 
 4553000   0.52118504   -8.5760235    661.25207  0.012102864   0.01069784            3 
 4554000   0.52006227     -8.55084    661.14372  0.012098224  0.010694241            2 
 4555000   0.52375614   -8.5580544    662.01244  0.012111461  0.010690642            3 
 4556000   0.53066487   -8.5495638    661.59567  0.012101179  0.010687049            5 
 4557000   0.52162961   -8.5844429    661.19273  0.012091155  0.010683452            3 
 4558000   0.52252838   -8.5583527    660.21909  0.012070701  0.010679857            4 
 4559000   0.53034005   -8.5808147    660.53116  0.012073758  0.010676265            3 
 4560000   0.52257463   -8.5731547    660.69391  0.012074085  0.010672673            3 
 4561000   0.51628857   -8.5762607    661.43055  0.012084896  0.010669088            2 
 4562000   0.51961577   -8.5817552    661.71463  0.012087437    0.0106655            1 
 4563000   0.50677442   -8.5789762    661.00155  0.012071765  0.010661912            3 
 4564000   0.51777732   -8.5744603    661.63349  0.012080658  0.010658328            2 
 4565000   0.51943146   -8.5814831    660.88516  0.012064351  0.010654747            4 
 4566000   0.52048052   -8.5768784    661.22808  0.012067968  0.010651165            3 
 4567000   0.53260093    -8.571853    661.85852  0.012076829  0.010647583            3 
 4568000   0.52550924   -8.5759578    660.71913  0.012053399  0.010644005            4 
 4569000   0.51883495   -8.5835878    661.24262  0.012060309  0.010640428            2 
 4570000   0.51862773   -8.5609457    660.91383  0.012051674  0.010636849            3 
 4571000   0.51728353   -8.5729791    661.32159  0.012056472   0.01063327            4 
 4572000   0.51861453   -8.5753442    661.52042  0.012057459  0.010629689            2 
 4573000   0.52683816   -8.5722223    661.05947  0.012046422  0.010626114            3 
 4574000   0.51143037    -8.569196    659.76699  0.012020241   0.01062254            3 
 4575000   0.52848996   -8.5857859     661.7607  0.012053929   0.01061897            3 
 4576000   0.50246049   -8.5796809    661.64312  0.012049154  0.010615401            3 
 4577000   0.52321541   -8.5815579    661.13632  0.012037294  0.010611831            3 
 4578000   0.52180611   -8.5607829    660.68997   0.01202654  0.010608264            3 
 4579000   0.52323263   -8.5690651    660.37174  0.012018121  0.010604702            4 
 4580000   0.50814539   -8.5606295     660.7674  0.012022696  0.010601138            3 
 4581000   0.51038917   -8.5828968    661.71278  0.012037269  0.010597576            4 
 4582000   0.51416921   -8.5674491    660.35982  0.012010036  0.010594012            4 
 4583000   0.52082613   -8.5796548    660.79766  0.012015377  0.010590451            4 
 4584000   0.52516787   -8.5896811    661.65531  0.012028347  0.010586888            3 
 4585000   0.51219257   -8.5785181     660.8704  0.012011458  0.010583331            2 
 4586000   0.50663427   -8.5798879    660.95398  0.012010357  0.010579776            2 
 4587000   0.51560764   -8.5851698    661.84043  0.012023843   0.01057622            4 
 4588000   0.51089749   -8.5801685    661.15382  0.012008751  0.010572667            2 
 4589000   0.50422361   -8.5880583      661.173  0.012006483  0.010569114            3 
 4590000   0.51619074   -8.5979146     660.8594  0.011998174  0.010565562            4 
 4591000    0.5191769   -8.5689351    659.57448  0.011972237  0.010562013            3 
 4592000   0.52561359   -8.5753107    661.35334  0.012001912  0.010558471            4 
 4593000   0.51639472   -8.5659916    660.61688  0.011985937  0.010554926            4 
 4594000   0.51427655   -8.5758065     661.0592  0.011991351  0.010551381            3 
 4595000   0.51193535   -8.5823661    660.76931  0.011983484  0.010547837            3 
 4596000   0.52379253   -8.5836077    662.29225   0.01200849  0.010544298            5 
 4597000   0.52091504   -8.5773912    660.73166  0.011977588  0.010540756            3 
 4598000   0.51438793   -8.5657723     660.6594  0.011973673  0.010537217            4 
 4599000   0.52460348    -8.579628    661.00896  0.011977404  0.010533683            3 
 4600000   0.51995935   -8.5664877    660.68422  0.011968917  0.010530148            4 
 4601000   0.51632197   -8.5721132    660.65802  0.011965841   0.01052662            6 
 4602000   0.51472073   -8.5880337    662.03529  0.011988181  0.010523089            5 
 4603000   0.51200438   -8.5892452    661.35381  0.011973239  0.010519561            4 
 4604000   0.51273192   -8.5702907    660.45304  0.011954334  0.010516035            2 
 4605000   0.51440093   -8.5741502    660.90181  0.011959859  0.010512508            3 
 4606000   0.51965209   -8.5870623    660.70008  0.011953613  0.010508981            4 
 4607000   0.51443243   -8.5929031    660.55187  0.011948337  0.010505456            3 
 4608000   0.51680351   -8.5884057    660.54519  0.011945623  0.010501934            4 
 4609000   0.51505629   -8.5840129    660.34287  0.011939374  0.010498413            3 
 4610000   0.51320784   -8.5739826    661.06661  0.011949866  0.010494892            3 
 4611000   0.51166238   -8.5818547    660.83922  0.011943165  0.010491374            4 
 4612000   0.50198609      -8.5619     660.7238   0.01193849  0.010487853            3 
 4613000   0.51468013    -8.587443    659.48044  0.011913441  0.010484337            4 
 4614000   0.52912172   -8.5675943    661.06531  0.011939483  0.010480823            2 
 4615000   0.51919944   -8.5713713    661.59918  0.011946536  0.010477311            4 
 4616000   0.50610037   -8.5952554    661.62188  0.011944358  0.010473796            3 
 4617000   0.50890319   -8.5832791    660.01628  0.011912791  0.010470284            3 
 4618000   0.52295321   -8.5903293    661.01868    0.0119283  0.010466775            4 
 4619000   0.50340118   -8.5907347    660.21096  0.011911145  0.010463267            2 
 4620000   0.50905052   -8.5757164     660.2814  0.011909838  0.010459759            2 
 4621000    0.5199664   -8.5923129    660.80687  0.011916736   0.01045625            3 
 4622000   0.50478139   -8.5820152    661.90659  0.011933986  0.010452745            4 
 4623000   0.51609487   -8.6033597     661.3443  0.011921269  0.010449245            3 
 4624000   0.50741277   -8.5804206    660.88459  0.011910406  0.010445747            5 
 4625000   0.51363756   -8.5908261    660.15185  0.011894628  0.010442245            4 
 4626000   0.52293434     -8.59257    661.56931  0.011917591  0.010438747            2 
 4627000   0.51284151   -8.5891161    660.28618  0.011891906  0.010435251            4 
 4628000   0.52127054   -8.5801127    660.35865  0.011890641  0.010431755            4 
 4629000   0.50872449   -8.5974661    660.79225  0.011895878  0.010428259            4 
 4630000   0.51092916   -8.5831724    661.04208  0.011897806  0.010424764            3 
 4631000   0.50301937   -8.5886283    659.73379  0.011871694  0.010421271            2 
 4632000   0.50984913   -8.6087394    659.95387  0.011873091  0.010417777            3 
 4633000   0.50653309   -8.5859091    660.89175  0.011887397  0.010414287            3 
 4634000    0.5136869   -8.6058791    660.96969  0.011886234  0.010410799            3 
 4635000   0.51465432    -8.597889    661.97649  0.011901771  0.010407313            3 
 4636000   0.51032399   -8.5707336    660.81441  0.011878315   0.01040383            4 
 4637000   0.52443621   -8.6012411    660.28997  0.011866328  0.010400345            4 
 4638000   0.50445547   -8.5761463    659.25992  0.011845262  0.010396861            4 
 4639000   0.51030339   -8.6038741     660.1154  0.011858076   0.01039338            2 
 4640000   0.51321633   -8.6028556    660.54936  0.011863315  0.010389902            4 
 4641000   0.51452608   -8.5906438    660.01521  0.011851167  0.010386423            2 
 4642000   0.51040878   -8.5836476    659.76343  0.011844094  0.010382941            2 
 4643000   0.50759511   -8.6097956      660.474  0.011854297  0.010379464            2 
 4644000   0.50580414   -8.5890699    660.54892  0.011853089   0.01037599            3 
 4645000   0.52039408   -8.5971839    660.56768  0.011850873  0.010372517            3 
 4646000    0.5025064   -8.5988912    660.82523  0.011852942  0.010369048            4 
 4647000   0.51373277   -8.5668385    660.01955  0.011835944  0.010365577            2 
 4648000   0.50437386   -8.5893397    659.75315  0.011828621  0.010362109            4 
 4649000    0.5116902   -8.5963832    660.88907  0.011846438  0.010358642            2 
 4650000   0.50643653   -8.6174857     659.8551   0.01182536  0.010355172            2 
 4651000   0.49862927   -8.5897682    659.75339  0.011820995  0.010351708            2 
 4652000   0.50967546   -8.6016273    660.96206  0.011840106  0.010348244            3 
 4653000   0.50926739   -8.5954091    660.54593  0.011830108  0.010344779            4 
 4654000   0.51116214   -8.5929961    659.34694  0.011806098  0.010341315            3 
 4655000   0.51489911   -8.6138866    659.97945  0.011814884  0.010337857            2 
 4656000   0.52436813     -8.60256    660.39042  0.011819703  0.010334399            3 
 4657000    0.4934102   -8.6071531    660.64649  0.011821747  0.010330941            3 
 4658000   0.49115943   -8.5931478    660.40231   0.01181484  0.010327486            2 
 4659000    0.5051291   -8.5851591    660.59938  0.011815829  0.010324031            4 
 4660000   0.49677879   -8.6108478     660.2247  0.011806593  0.010320575            3 
 4661000   0.50319936   -8.6120365    659.63561  0.011793528  0.010317123            2 
 4662000   0.50610861   -8.5948208    659.29264  0.011784868  0.010313672            3 
 4663000   0.52114582   -8.6125012    660.72374  0.011807916  0.010310222            4 
 4664000   0.49858052   -8.5962571    659.70442  0.011787172  0.010306775            3 
 4665000   0.49714435    -8.604857    661.33511  0.011813775   0.01030333            4 
 4666000   0.50012793   -8.5870833    659.57238  0.011779761  0.010299885            3 
 4667000   0.50010386    -8.591875    659.33889  0.011773068  0.010296445            2 
 4668000    0.5078235    -8.590727     660.0199  0.011782703  0.010293003            3 
 4669000   0.50989428   -8.6051082    660.39484  0.011786872  0.010289558            2 
 4670000   0.49937176   -8.6043843    659.30208  0.011764848  0.010286122            3 
 4671000   0.50259695   -8.6095249    660.46664  0.011783106   0.01028268            4 
 4672000   0.50136159   -8.6038688     660.8029  0.011786581  0.010279245            2 
 4673000   0.50555893   -8.5921474    659.82515  0.011766623  0.010275809            4 
 4674000   0.49422095   -8.5989479    661.47092  0.011793448  0.010272373            2 
 4675000   0.49826128   -8.6084705    659.71904  0.011759698  0.010268939            3 
 4676000   0.50908502   -8.6040953    660.28124  0.011767202  0.010265508            5 
 4677000   0.50803454   -8.6065605     659.7596  0.011755392  0.010262078            4 
 4678000   0.50580206   -8.6098438    660.14226  0.011759695  0.010258649            3 
 4679000   0.51073089   -8.5890437    659.92615  0.011753333   0.01025522            3 
 4680000    0.5077544   -8.6130929    660.34203  0.011758227  0.010251794            2 
 4681000   0.49713433   -8.6153364    659.94648  0.011748673  0.010248366            4 
 4682000   0.49300267   -8.5919254    660.06698  0.011748309  0.010244941            3 
 4683000   0.49153303   -8.6157556     660.1144  0.011746644  0.010241516            2 
 4684000   0.49930888    -8.616685    660.08987    0.0117437  0.010238095            4 
 4685000   0.50646593   -8.6222281    660.74972   0.01175293  0.010234676            2 
 4686000   0.49286065   -8.6146839    659.98689  0.011736856   0.01023126            3 
 4687000   0.50498481   -8.5962936    659.85585  0.011732022  0.010227845            3 
 4688000   0.50998914   -8.5873212    659.89096  0.011730144   0.01022443            2 
 4689000   0.50140283   -8.6092696    659.10437  0.011713663  0.010221018            2 
 4690000   0.50275441   -8.6148351    659.65952  0.011721029  0.010217605            3 
 4691000   0.48471107    -8.620658    658.73337  0.011702078  0.010214191            3 
 4692000   0.50935544   -8.6104293    659.47224  0.011712707  0.010210778            3 
 4693000   0.50207897   -8.6215668    659.42464  0.011709366  0.010207367            4 
 4694000   0.49709963   -8.5942314    659.57221  0.011709491  0.010203961            6 
 4695000   0.49749093   -8.6204577    660.00212  0.011714628  0.010200554            3 
 4696000   0.49590751   -8.6071485     659.5216  0.011703606  0.010197148            6 
 4697000   0.49296367   -8.6196539    659.61903  0.011702843  0.010193746            3 
 4698000   0.50039076   -8.6166579    661.08652  0.011726382  0.010190346            4 
 4699000   0.50251902   -8.6035631      659.418  0.011694297  0.010186947            3 
 4700000   0.49303507   -8.6192236    659.85375  0.011699535  0.010183548            4 
 4701000   0.50812853   -8.6042334    660.49127  0.011708347  0.010180147            5 
 4702000    0.5132546   -8.6049045    659.52541  0.011688739  0.010176752            4 
 4703000   0.50659169    -8.609846    659.22109  0.011680861  0.010173358            2 
 4704000   0.50341283   -8.6173482    659.41241  0.011681767  0.010169963            7 
 4705000   0.50503163   -8.6191224    660.09011  0.011691288  0.010166572            3 
 4706000   0.50365716    -8.624776    660.53696  0.011696716   0.01016318            4 
 4707000   0.49480119   -8.6182062    659.07527  0.011668353  0.010159789            3 
 4708000   0.49579636   -8.6240286    660.97939  0.011699579  0.010156402            3 
 4709000   0.49934428   -8.6079128    659.06861   0.01166328  0.010153014            3 
 4710000    0.5029691   -8.6111644    660.64949  0.011688774  0.010149632            2 
 4711000   0.48766312   -8.6319304    659.28648  0.011662182  0.010146249            3 
 4712000   0.50555026   -8.6190634    659.58144  0.011664924  0.010142866            3 
 4713000   0.50669918   -8.6226849    660.09835  0.011671588  0.010139484            3 
 4714000   0.50496441   -8.5992066    658.72006  0.011644747  0.010136101            3 
 4715000   0.49344895   -8.6222815       659.94  0.011663839  0.010132722            3 
 4716000   0.49473499   -8.6115781    658.90512  0.011643079  0.010129345            3 
 4717000   0.49596029   -8.6211153    659.13966  0.011644754   0.01012597            4 
 4718000   0.49931821    -8.624909    659.90124  0.011655738  0.010122601            2 
 4719000    0.4913188   -8.6116649    659.24522  0.011641683  0.010119228            4 
 4720000    0.4984782   -8.6243942    660.16272  0.011655415  0.010115855            3 
 4721000   0.49578317   -8.6069764    659.00343  0.011632483  0.010112485            3 
 4722000   0.48715529   -8.6176893    659.12111  0.011632096  0.010109118            4 
 4723000   0.48804196   -8.6159867     659.4041  0.011634627  0.010105753            4 
 4724000   0.49346721   -8.6187199    659.08439  0.011626524  0.010102388            3 
 4725000   0.49750173   -8.6200001    659.76016  0.011635982  0.010099025            5 
 4726000   0.50305383   -8.6345954    660.96724  0.011654804  0.010095663            3 
 4727000   0.49892051   -8.6210169     659.2293    0.0116217  0.010092304            3 
 4728000   0.49601956   -8.6175904    659.84186  0.011630038  0.010088944            4 
 4729000   0.49632995   -8.6046488    659.46269  0.011620897  0.010085587            3 
 4730000   0.48744696   -8.6316143    658.97261  0.011609806   0.01008223            3 
 4731000   0.49342688   -8.6257285    659.23572  0.011611987  0.010078876            4 
 4732000    0.4869224   -8.6186872    660.09458  0.011624658  0.010075521            3 
 4733000    0.4998202   -8.6291976    660.11492   0.01162256  0.010072172            3 
 4734000   0.49479054   -8.6191676    658.78922  0.011596768  0.010068821            2 
 4735000   0.48744151   -8.6342727    659.30861   0.01160346   0.01006547            3 
 4736000   0.49013149   -8.6319941    660.70389  0.011625561  0.010062123            4 
 4737000    0.4875955   -8.6220867    659.08811  0.011594682  0.010058776            2 
 4738000    0.4967894   -8.6319626    659.26828  0.011595404   0.01005543            2 
 4739000   0.50232155   -8.6282484    659.86701  0.011603486  0.010052087            3 
 4740000   0.50427985   -8.6183185    659.54346  0.011595349  0.010048748            3 
 4741000   0.49550917    -8.621843     659.9413  0.011599896  0.010045406            2 
 4742000   0.50874875   -8.6154621    659.61117  0.011591649  0.010042069            4 
 4743000   0.48997958   -8.6209642    659.61318   0.01158924  0.010038729            3 
 4744000    0.5020976   -8.6227433    660.99757  0.011611115  0.010035393            2 
 4745000   0.49630456   -8.6214849     659.0763  0.011574926  0.010032059            5 
 4746000    0.4825205   -8.6214209    660.03442  0.011589311  0.010028726            5 
 4747000   0.49458627   -8.6036372     658.8604  0.011566259  0.010025393            2 
 4748000   0.49120665   -8.6226006    659.34525  0.011572333  0.010022063            2 
 4749000   0.49881884   -8.6135122    658.90819  0.011562227  0.010018736            2 
 4750000   0.48603572   -8.6071205    659.41304   0.01156865  0.010015409            2 
 4751000   0.48723759     -8.62612    659.24557  0.011563277  0.010012083            4 
 4752000   0.48657214   -8.6026974    659.85533  0.011571537  0.010008759            5 
 4753000    0.4864022   -8.6123291    659.90201  0.011569921  0.010005431            2 
 4754000   0.49165623   -8.6182319    659.56071  0.011561504  0.010002109            6 
 4755000   0.50087862   -8.6177007    659.58131  0.011559434 0.0099987853            4 
 4756000   0.48765545   -8.6374807    658.76918  0.011542774 0.0099954626            3 
 4757000   0.48853438   -8.6107277     659.0456   0.01154519 0.0099921419            2 
 4758000   0.49645476   -8.6245953    658.84733   0.01153929  0.009988823            3 
 4759000   0.48726164   -8.6256177    659.09706  0.011541239  0.009985503            2 
 4760000    0.4861774   -8.6256067     658.1861  0.011522866  0.009982187            3 
 4761000   0.49125263    -8.618479    659.37825  0.011541312 0.0099788725            3 
 4762000   0.47991454   -8.6066158    659.94782  0.011548856 0.0099755594            4 
 4763000   0.48400207   -8.6162351    659.69171   0.01154195 0.0099722499            3 
 4764000   0.48828298   -8.6172326    658.82074  0.011524292 0.0099689406            2 
 4765000    0.4827466   -8.6299551    659.91957  0.011541091 0.0099656335            3 
 4766000   0.47908281   -8.6229139    659.88941  0.011538142 0.0099623262            3 
 4767000   0.48546223   -8.6279656    659.66631  0.011531821 0.0099590209            3 
 4768000   0.49325892   -8.6368071    659.12958  0.011520022 0.0099557176            3 
 4769000    0.4814918   -8.6311046    659.82176  0.011529702  0.009952415            3 
 4770000   0.48466061   -8.6289091    658.72363    0.0115081 0.0099491144            3 
 4771000   0.48274156    -8.643775    659.42671  0.011517968 0.0099458118            3 
 4772000   0.49489778   -8.6353836    659.66184  0.011519661 0.0099425113            3 
 4773000   0.48914753    -8.625058     659.2252  0.011509624 0.0099392129            6 
 4774000   0.49584741   -8.6260323    659.75053  0.011516383 0.0099359176            2 
 4775000   0.49119331   -8.6241416     659.0506  0.011501756 0.0099326199            4 
 4776000   0.49396779   -8.6293445    659.59457  0.011508839 0.0099293249            4 
 4777000   0.48081956   -8.6224694     659.1825  0.011499241 0.0099260336            2 
 4778000   0.48893982   -8.6398094    659.41075  0.011500815 0.0099227439            4 
 4779000   0.48761399   -8.6243578    659.25365  0.011495669 0.0099194554            4 
 4780000   0.49133507   -8.6373435    659.78097  0.011502458 0.0099161663            3 
 4781000   0.48796156   -8.6202347      659.319     0.011492 0.0099128768            5 
 4782000   0.48466793   -8.6366469    659.83106   0.01149852 0.0099095923            2 
 4783000   0.48367757   -8.6282416    659.72315  0.011494236 0.0099063101            5 
 4784000   0.48321248   -8.6318781    659.75701  0.011492423 0.0099030282            3 
 4785000   0.47774417   -8.6328502     658.9681  0.011476282 0.0098997472            5 
 4786000   0.48143411   -8.6187631    659.25063  0.011478803 0.0098964686            2 
 4787000   0.47343292   -8.6277668      659.234  0.011476116 0.0098931873            5 
 4788000   0.50018083   -8.6259321    659.55354   0.01147928 0.0098899117            5 
 4789000   0.48772496   -8.6264505    658.70123  0.011462052 0.0098866353            3 
 4790000   0.48144584    -8.630274    658.58888  0.011457705 0.0098833621            3 
 4791000   0.48794344   -8.6181222    658.80436  0.011459061 0.0098800895            2 
 4792000   0.47690476   -8.6274421    659.88624  0.011475484 0.0098768187            2 
 4793000   0.48562923   -8.6227182    659.05913  0.011458709  0.009873547            2 
 4794000   0.46829237   -8.6260227    659.80482  0.011469281 0.0098702769            4 
 4795000   0.49606409   -8.6373789     658.7279  0.011448173 0.0098670063            4 
 4796000   0.47584983   -8.6535826    658.06964  0.011434349 0.0098637392            4 
 4797000   0.47871831   -8.6387303    659.98495  0.011465238 0.0098604742            2 
 4798000   0.47101198   -8.6366489    658.56036  0.011438105 0.0098572077            2 
 4799000   0.49616857   -8.6119665    659.39197  0.011450163 0.0098539456            2 
 4800000   0.48523827   -8.6347499    658.81821  0.011437816  0.009850685            5 
 4801000   0.48205563   -8.6385799    659.67415  0.011450291 0.0098474256            2 
 4802000   0.48127752   -8.6289138    658.31897  0.011424389 0.0098441649            5 
 4803000   0.47793621    -8.638132    658.04856  0.011417318 0.0098409038            4 
 4804000    0.4773474   -8.6221263    658.90188  0.011429744 0.0098376477            3 
 4805000   0.47725827   -8.6448918    658.71717  0.011424162 0.0098343944            5 
 4806000   0.48552605   -8.6463237    658.89146  0.011424807 0.0098311393            8 
 4807000   0.49180095   -8.6252715    658.98473  0.011424047 0.0098278878            3 
 4808000   0.48874014    -8.642032    659.25902  0.011426425 0.0098246358            4 
 4809000   0.48352915   -8.6281444    658.26089  0.011406753 0.0098213833            3 
 4810000   0.48234347   -8.6434028    658.62047  0.011410611 0.0098181331            3 
 4811000   0.47457261   -8.6417359    659.77882  0.011428304 0.0098148866            3 
 4812000    0.4837988   -8.6644292    659.32711  0.011418106 0.0098116397            4 
 4813000   0.48228409   -8.6371991    658.82616   0.01140706 0.0098083928            4 
 4814000    0.4825739   -8.6581312     659.0998  0.011409427 0.0098051442            3 
 4815000   0.48282253   -8.6407003    658.76607  0.011401282 0.0098019012            4 
 4816000     0.479684    -8.636441     658.5323  0.011394869 0.0097986618            4 
 4817000   0.47906749   -8.6498988    658.37883  0.011389849 0.0097954216            3 
 4818000   0.48321476    -8.621433    658.41447  0.011388101  0.009792183            3 
 4819000   0.47512356      -8.6429     658.5268  0.011387681 0.0097889436            2 
 4820000   0.48735487   -8.6512273    658.08488  0.011377678 0.0097857068            3 
 4821000   0.48292639   -8.6305676    657.73414  0.011369255 0.0097824725            2 
 4822000   0.48953974   -8.6486547    658.95372  0.011387974 0.0097792365            5 
 4823000    0.4740577   -8.6157562     658.0891  0.011370674 0.0097760066            3 
 4824000   0.48619292   -8.6298274    659.38545  0.011390711 0.0097727741            5 
 4825000   0.48110038   -8.6361434    659.40503  0.011388688 0.0097695445            3 
 4826000   0.47791135   -8.6374419     657.5988  0.011355139 0.0097663133            3 
 4827000   0.46770539   -8.6323023     659.0875  0.011378487 0.0097630852            2 
 4828000   0.47767098    -8.640217    659.06313   0.01137571 0.0097598592            5 
 4829000   0.47398662   -8.6559985    659.04077  0.011372968 0.0097566345            2 
 4830000   0.47633577   -8.6478609    658.58088  0.011362679 0.0097534105            2 
 4831000   0.48623063   -8.6446357    658.52596   0.01135938 0.0097501905            3 
 4832000   0.48029549   -8.6410742    659.55363  0.011374752 0.0097469682            3 
 4833000    0.4665327   -8.6462655    658.99255  0.011362724 0.0097437501            4 
 4834000   0.48504746   -8.6364411    657.74065  0.011338792 0.0097405309            3 
 4835000   0.48009431   -8.6323895    657.82867  0.011337964 0.0097373147            2 
 4836000   0.47992556   -8.6572762    659.69198  0.011367728 0.0097340991            2 
 4837000   0.47040441    -8.636914    658.20234  0.011339714 0.0097308835            2 
 4838000   0.47197472   -8.6713482    659.05144  0.011351995 0.0097276686            2 
 4839000   0.47254635   -8.6552174    658.75457  0.011344537 0.0097244557            3 
 4840000   0.48029598   -8.6464817    658.09284    0.0113308 0.0097212437            3 
 4841000   0.48572198   -8.6504334    658.14219  0.011329309 0.0097180344            3 
 4842000   0.47792683   -8.6427569    658.24529  0.011328743 0.0097148279            2 
 4843000   0.48297692   -8.6460512    659.18185  0.011342519 0.0097116208            4 
 4844000   0.47802782   -8.6467515    658.43006  0.011327244 0.0097084139            4 
 4845000   0.47500448   -8.6432284    657.56873  0.011310092 0.0097052081            3 
 4846000   0.48473114   -8.6483554    658.66237  0.011326564 0.0097020035            2 
 4847000   0.47600783   -8.6535249    657.81487  0.011309657 0.0096988006            4 
 4848000   0.47493352   -8.6474861    658.83019  0.011324776 0.0096955992            2 
 4849000   0.47591249   -8.6501805    659.29855   0.01133049 0.0096923997            4 
 4850000   0.47941331   -8.6464187    659.00845  0.011323169  0.009689202            4 
 4851000   0.47779274   -8.6324617    658.16306  0.011306312  0.009686005            3 
 4852000   0.46968725   -8.6499068    659.03328  0.011318928 0.0096828092            5 
 4853000   0.47453193   -8.6449991    658.56378  0.011308534  0.009679616            4 
 4854000    0.4853527   -8.6464987    658.66643  0.011307966 0.0096764248            4 
 4855000   0.48039825    -8.638219    658.61085  0.011304683  0.009673237            3 
 4856000   0.46736035   -8.6340691    658.72858  0.011304376  0.009670049            4 
 4857000   0.48352643   -8.6562031    657.67425  0.011283959 0.0096668619            4 
 4858000   0.47902768   -8.6482149    659.22117  0.011308172 0.0096636759            4 
 4859000   0.47655955   -8.6383289    658.03773  0.011285548 0.0096604892            3 
 4860000    0.4863092   -8.6347315     658.4174  0.011289736 0.0096573052            4 
 4861000   0.48327496   -8.6443198    658.86638   0.01129511 0.0096541226            3 
 4862000   0.47780025    -8.647503    658.51548  0.011286773 0.0096509416            3 
 4863000   0.47168503   -8.6464281    658.05184  0.011276507 0.0096477623            5 
 4864000   0.48744577   -8.6420419    657.62784  0.011266924  0.009644584            4 
 4865000   0.48279372   -8.6594745    658.89965  0.011286393 0.0096414043            3 
 4866000   0.46876838   -8.6609705    657.53756  0.011260747 0.0096382278            3 
 4867000   0.47015672   -8.6468889    658.58609  0.011276387  0.009635052            3 
 4868000   0.47767791   -8.6458094    659.02665  0.011281612 0.0096318805            2 
 4869000   0.46408202    -8.658932    659.11586  0.011280822 0.0096287073            5 
 4870000   0.48140298   -8.6551498    657.79701  0.011255938 0.0096255372            2 
 4871000   0.46839917   -8.6388684    658.65207  0.011268255 0.0096223672            3 
 4872000   0.46369693   -8.6483177    658.76316  0.011267843 0.0096192003            3 
 4873000   0.47827018   -8.6484909    658.01621  0.011252757 0.0096160324            4 
 4874000   0.47394932   -8.6664842    658.56686  0.011259863 0.0096128687            3 
 4875000   0.46678022   -8.6628006    657.60816  0.011241165  0.009609704            5 
 4876000   0.47247645   -8.6683101    658.62617  0.011256258 0.0096065407            4 
 4877000   0.46577774   -8.6536439    658.83424  0.011257505 0.0096033766            2 
 4878000   0.47284726   -8.6575301    657.49779  0.011232366 0.0096002131            2 
 4879000   0.48323169   -8.6723689     658.3697  0.011244956 0.0095970559            3 
 4880000   0.48501705   -8.6422808    657.18037  0.011222342  0.009593898            3 
 4881000   0.47876934   -8.6597949    657.58145  0.011226891 0.0095907391            3 
 4882000   0.46938613   -8.6677985    658.86553   0.01124651 0.0095875796            3 
 4883000   0.45922009   -8.6651659    657.46098  0.011220237 0.0095844219            2 
 4884000   0.46447538   -8.6524545    657.68849  0.011221821 0.0095812655            3 
 4885000   0.47193371    -8.663025    657.85757  0.011222408 0.0095781128            2 
 4886000   0.46884255   -8.6634123    658.41963  0.011229698 0.0095749614            4 
 4887000   0.46504215     -8.66809    657.91267  0.011218755 0.0095718099            2 
 4888000   0.46487402   -8.6701697    658.00818  0.011218088 0.0095686614            2 
 4889000   0.47409288   -8.6646103    657.69792  0.011210505  0.009565515            5 
 4890000   0.47158505   -8.6693626    657.43147  0.011203672 0.0095623702            2 
 4891000   0.47367845    -8.650633    657.89218  0.011209231 0.0095592254            4 
 4892000   0.46347097    -8.674685     657.5585  0.011201256 0.0095560813            4 
 4893000   0.46518622   -8.6527387    658.25998  0.011210913 0.0095529387            3 
 4894000   0.46987051   -8.6629438    657.45035  0.011194836  0.009549796            4 
 4895000   0.46329056   -8.6676802    658.10732  0.011203734 0.0095466569            3 
 4896000   0.47802254   -8.6540236    658.11905  0.011201645 0.0095435179            2 
 4897000   0.46673404   -8.6560803     659.2783  0.011219085 0.0095403825            2 
 4898000   0.46225314    -8.682308    658.02911  0.011195541 0.0095372461            2 
 4899000    0.4653582   -8.6552101    657.09699    0.0111774 0.0095341111            2 
 4900000   0.46188786   -8.6607266    658.20631  0.011193985  0.009530976            1 
 4901000   0.46828146    -8.666306    657.79999  0.011184792 0.0095278438            4 
 4902000   0.46487986   -8.6525759    658.43899  0.011193373 0.0095247147            4 
 4903000   0.47932555   -8.6641375    657.81553  0.011180494  0.009521584            5 
 4904000   0.46926066   -8.6516187    658.00424  0.011181421 0.0095184577            3 
 4905000   0.46673214   -8.6621103    658.13327  0.011181333 0.0095153305            3 
 4906000   0.46000884   -8.6727585    658.40378  0.011183649 0.0095122056            4 
 4907000   0.47563554   -8.6637979     657.5979  0.011167684 0.0095090811            3 
 4908000   0.46203551   -8.6533773    657.76954  0.011168323 0.0095059551            3 
 4909000   0.46461924   -8.6580228    658.59131  0.011179998 0.0095028339            4 
 4910000   0.45879671   -8.6626209    658.20204  0.011171114 0.0094997125            3 
 4911000   0.46488779   -8.6742055    657.82143  0.011162381 0.0094965909            3 
 4912000   0.46314257   -8.6593409    658.38992  0.011169753 0.0094934716            3 
 4913000   0.46628491   -8.6425329    657.16774  0.011146749 0.0094903558            4 
 4914000   0.45871062   -8.6758983    658.32702   0.01116414 0.0094872414            3 
 4915000   0.45570202   -8.6652136    657.21756  0.011143058 0.0094841275            2 
 4916000   0.46723219    -8.667466    656.91696  0.011135696 0.0094810137            5 
 4917000   0.47032638   -8.6747981    658.46687  0.011159699  0.009477903            3 
 4918000   0.47168259   -8.6585174    658.74831  0.011162199 0.0094747924            4 
 4919000   0.47433786   -8.6708205    657.91789  0.011145861 0.0094716829            4 
 4920000   0.46070092   -8.6479604     658.5815  0.011154836 0.0094685719            3 
 4921000   0.46425374   -8.6708832    657.85552  0.011140275 0.0094654631            3 
 4922000   0.45755569    -8.674129    657.80535  0.011137162 0.0094623565            2 
 4923000   0.47095807   -8.6651901    656.46347  0.011112185 0.0094592529            2 
 4924000   0.46048956   -8.6705776     657.4741  0.011127033 0.0094561502            5 
 4925000   0.46585805   -8.6705019     658.0343  0.011134252 0.0094530475            3 
 4926000   0.46663658   -8.6745218    657.71719  0.011126627 0.0094499462            2 
 4927000   0.47863464   -8.6696671    657.74601  0.011124856 0.0094468488            3 
 4928000   0.46742259   -8.6731289    657.67782  0.011121446   0.00944375            6 
 4929000   0.46987601   -8.6775221    657.76937  0.011120737 0.0094406541            3 
 4930000   0.46714185   -8.6624178    657.08336  0.011106886 0.0094375605            2 
 4931000   0.46995372    -8.671714    657.31053  0.011108472 0.0094344633            2 
 4932000   0.47386013   -8.6785735    657.14528  0.011103428 0.0094313708            3 
 4933000   0.45770108    -8.668392    657.64342  0.011109592 0.0094282795            3 
 4934000   0.45601458   -8.6687124     657.8606  0.011111009 0.0094251879            4 
 4935000     0.457805   -8.6611715    657.76588  0.011107158 0.0094221007            2 
 4936000   0.45534668   -8.6557769    656.87299  0.011089833 0.0094190126            5 
 4937000   0.46938184   -8.6626299    658.47978  0.011114708 0.0094159279            3 
 4938000    0.4549798    -8.688172    658.13405  0.011106623 0.0094128419            3 
 4939000   0.46824923   -8.6741208    657.65935  0.011096365 0.0094097575            5 
 4940000   0.45830785   -8.6678501    658.38479  0.011106356 0.0094066738            2 
 4941000   0.45514793    -8.660918    657.87346  0.011095484 0.0094035917            5 
 4942000   0.46522394   -8.6819498    657.47788  0.011086569 0.0094005094            6 
 4943000   0.45396144   -8.6726989    658.93858  0.011108952 0.0093974318            4 
 4944000   0.46363696   -8.6591893    657.71005  0.011085997 0.0093943525            3 
 4945000   0.46422968   -8.6752688     658.3138   0.01109393 0.0093912756            2 
 4946000   0.45091178   -8.6711825    657.27382  0.011074165 0.0093881984            3 
 4947000   0.46003302    -8.679717    657.25101  0.011071542 0.0093851232            4 
 4948000   0.45746672   -8.6875421    657.86191  0.011079593 0.0093820512            3 
 4949000   0.46572929   -8.6771424    658.03613  0.011080288 0.0093789798            2 
 4950000     0.461361    -8.678606    657.40436  0.011067414 0.0093759105            3 
 4951000    0.4655448   -8.6610886    658.01306  0.011075423 0.0093728421            3 
 4952000   0.45738061   -8.6614925    658.04211  0.011073676 0.0093697755            5 
 4953000   0.45837375   -8.6652579    658.10809   0.01107255 0.0093667079            2 
 4954000   0.46424938    -8.665492    657.40809   0.01105854 0.0093636449            2 
 4955000   0.46226866   -8.6790299    657.49511  0.011057772 0.0093605832            3 
 4956000   0.46644517   -8.6886034    658.36019  0.011070087 0.0093575188            6 
 4957000   0.45665703   -8.6681503    657.43877  0.011052363 0.0093544566            4 
 4958000   0.46863147   -8.6703721    657.64097  0.011053533 0.0093513966            4 
 4959000   0.45468999   -8.6740133    657.99834  0.011057309 0.0093483368            3 
 4960000    0.4576653   -8.6788927    658.58432  0.011064925 0.0093452776            3 
 4961000   0.45696037   -8.6681002    657.76248  0.011048889 0.0093422203            6 
 4962000   0.45466037   -8.6582404    657.08283  0.011035248 0.0093391658            4 
 4963000   0.45566725   -8.6785226     656.8338  0.011028843 0.0093361101            3 
 4964000   0.45538539   -8.6784633    656.55893  0.011022007  0.009333058            4 
 4965000   0.46154521   -8.6790368    656.96444  0.011026593 0.0093300074            3 
 4966000   0.46389183   -8.6731294    658.18489  0.011044853 0.0093269579            2 
 4967000   0.45700977   -8.6584602    657.69929  0.011034482 0.0093239128            3 
 4968000    0.4462029   -8.6843644    657.12701  0.011022662 0.0093208633            3 
 4969000   0.45396577   -8.6773989    657.24656  0.011022448 0.0093178169            4 
 4970000    0.4508079      -8.6801    656.83113  0.011013265 0.0093147729            3 
 4971000   0.46680175   -8.6632354    658.27629  0.011035276 0.0093117291            3 
 4972000   0.46153409   -8.6640349    657.44165  0.011019068 0.0093086888            2 
 4973000     0.460769   -8.6740991     657.9421  0.011025238  0.009305648            4 
 4974000   0.44486249   -8.6631608     657.5855  0.011017047 0.0093026061            4 
 4975000   0.45760541    -8.686921    657.97535  0.011021363 0.0092995672            2 
 4976000   0.45021629   -8.6643499    658.48494  0.011027682 0.0092965303            3 
 4977000   0.45911801   -8.6916301    657.29635  0.011005565 0.0092934933            4 
 4978000   0.46502208   -8.6849144    657.24692  0.011002526 0.0092904615            2 
 4979000   0.44806735   -8.6931828    656.79737  0.010992793 0.0092874269            4 
 4980000   0.45663409   -8.6775056    657.99104   0.01101056  0.009284395            3 
 4981000   0.45199971   -8.6776201    659.40543  0.011032012 0.0092813637            2 
 4982000   0.45170927   -8.6846132    656.73803   0.01098518 0.0092783357            3 
 4983000   0.44478006   -8.6836385    658.54521  0.011013198 0.0092753085            3 
 4984000   0.44770705   -8.6933539    657.34502  0.010990921 0.0092722833            3 
 4985000   0.44960076   -8.6988866    658.09349  0.011001229 0.0092692561            2 
 4986000   0.44978479   -8.6720818    658.39431   0.01100405 0.0092662314            3 
 4987000    0.4550693   -8.6843714    657.24281  0.010982602 0.0092632043            2 
 4988000   0.46635461   -8.6754923    657.17377  0.010979246 0.0092601821            3 
 4989000    0.4585291   -8.6860112    658.24552  0.010994948 0.0092571611            3 
 4990000   0.45503732   -8.6721578    658.10437  0.010990387  0.009254144            3 
 4991000    0.4555555   -8.6962613    657.40912  0.010976576  0.009251127            2 
 4992000   0.45522837   -8.6892016    656.65524  0.010961793 0.0092481069            5 
 4993000   0.44845218   -8.6892233    657.05557  0.010966279  0.009245091            3 
 4994000    0.4523697   -8.6922333    657.96766  0.010979303 0.0092420735            3 
 4995000   0.44752314   -8.6742906    656.93743  0.010959917  0.009239061            4 
 4996000   0.45786656   -8.6864046    656.99751  0.010958725 0.0092360486            4 
 4997000   0.45717436   -8.6898269    656.50225  0.010948273 0.0092330361            2 
 4998000   0.45520477   -8.6829333    657.75075  0.010966899 0.0092300252            7 
 4999000   0.44599571   -8.6703238    656.74562   0.01094795 0.0092270135            3 
 5000000   0.45315671   -8.6734758    656.54832  0.010942472 0.0092240042            2 
 5001000   0.44465825   -8.6720035    657.55022  0.010956979 0.0092209971            2 
 5002000   0.46465132    -8.687104    657.39258  0.010952162 0.0092179924            3 
 5003000   0.46533895   -8.6903037    657.10094  0.010945115 0.0092149882            2 
 5004000   0.44485692   -8.6932021    657.32668  0.010946687 0.0092119845            5 
 5005000   0.44727914   -8.6771002    657.32494  0.010944471 0.0092089801            1 
 5006000    0.4461685   -8.6889728    657.78956  0.010950019 0.0092059805            4 
 5007000   0.44962082   -8.7023718    657.19778  0.010937983 0.0092029805            3 
 5008000   0.45545886   -8.6760496    658.39581  0.010955734 0.0091999824            4 
 5009000   0.45468133   -8.6941219    658.00602  0.010947062 0.0091969857            3 
 5010000   0.44567735   -8.7013766    656.97869  0.010927789 0.0091939883            3 
 5011000   0.45153425   -8.6834954    656.58899  0.010919128 0.0091909928            4 
 5012000   0.44563494   -8.6957527    656.65033  0.010917969  0.009187998            4 
Loop time of 12050.8 on 48 procs for 5000000 steps with 4000 atoms

Performance: 71696.313 tau/day, 414.909 timesteps/s
99.4% CPU use with 48 MPI tasks x no OpenMP threads

MPI task timing breakdown:
Section |  min time  |  avg time  |  max time  |%varavg| %total
---------------------------------------------------------------
Pair    | 772.95     | 825.34     | 877.1      |  96.1 |  6.85
Neigh   | 78.374     | 81.595     | 84.958     |  19.2 |  0.68
Comm    | 760.81     | 816.84     | 871.88     | 104.4 |  6.78
Output  | 69.995     | 70.002     | 70.085     |   0.1 |  0.58
Modify  | 10128      | 10150      | 10164      |   8.5 | 84.22
Other   |            | 107.4      |            |       |  0.89

Nlocal:        83.3333 ave          89 max          75 min
Histogram: 1 2 4 5 3 6 5 12 7 3
Nghost:        2066.33 ave        2092 max        2047 min
Histogram: 6 3 8 6 6 4 6 4 3 2
Neighs:        13401.0 ave       14721 max       11631 min
Histogram: 2 1 2 4 8 8 7 10 4 2
FullNghs:      26801.3 ave       28795 max       23844 min
Histogram: 1 2 4 4 5 4 9 7 8 4

Total # of neighbors = 1286464
Ave neighs/atom = 321.61600
Neighbor list builds = 267665
Dangerous builds = 1

#clear
#
#next RN
#
#jump SELF
Total wall time: 3:20:54
