
units lj                  # Use reduced LJ style units
atom_style atomic         # Uncharged point particles
atom_modify map hash      # Needed for indexing of clusters etc
                          # Used to be able to find where atoms are in relation to each other.

lattice fcc 1.0 spacing 1 1 1
Lattice spacing in x,y,z = 1.5874011 1.5874011 1.5874011
region box block 0 10 0 10 0 10 units lattice
create_box 2 box
Created orthogonal box = (0.0000000 0.0000000 0.0000000) to (15.874011 15.874011 15.874011)
  3 by 4 by 4 MPI processor grid
create_atoms 1 box
Created 4000 atoms
  using lattice units in orthogonal box = (0.0000000 0.0000000 0.0000000) to (15.874011 15.874011 15.874011)
  create_atoms CPU = 0.004 seconds
set type 1 type/fraction 2 0.42 78393
Setting atom values ...
  1685 settings made for type/fraction
mass 1 1.0
mass 2 1.0
pair_style lj/cut  3.5
pair_modify tail  yes
pair_coeff 1  1  1.0  1.0   # Intearaction between 1 and 1 set with epsilon = 1 and sigma = 1
pair_coeff 1  2  1.5  0.8
pair_coeff 2  2  0.5  0.88

write_data data.0
System init for write_data ...
Neighbor list info ...
  update every 1 steps, delay 10 steps, check yes
  max neighbors/atom: 2000, page size: 100000
  master list distance cutoff = 3.8
  ghost atom cutoff = 3.8
  binsize = 1.9, bins = 9 9 9
  1 neighbor lists, perpetual/occasional/extra = 1 0 0
  (1) pair lj/cut, perpetual
      attributes: half, newton on
      pair build: half/bin/atomonly/newton
      stencil: half/bin/3d
      bin: standard
WARNING: Not all mixed pair coeffs generated from mixing. Use write_data with 'pair ij' option to store all pair coeffs. (../write_data.cpp:312)


#############################
#   M E L T   S Y S T E M   #
#############################

velocity all create 2.4 3143649 mom yes dist gaussian # Assign velocities
                                                    # Temperature 2.4, random number seed, zero linear momentum
                                                                                # Gaussian distribution

timestep 0.002   # simulation timestep
thermo 1000       # output thermodynamic data every 1000 steps bf 100

# Define a fix  in this case with index 1 applied to all
# particles in the simulation. This fix is for simulations
# in the anisotropic NPT ensemble. Note that we use the MTK
# correction.
fix 1 all npt temp 2.4 2.4 0.1 iso 5.68 5.68 0.5 mtk yes tchain 5 pchain 5 # Use NPT ensemble
                                                                         # Set temperature and pressure and damping
                                                                         # Numbers of thermostats in chain and in barostat
run 10000          # run for 10000 steps
Per MPI rank memory allocation (min/avg/max) = 3.642 | 3.644 | 3.648 Mbytes
Step Temp E_pair E_mol TotEng Press Volume 
       0          2.4   -5.7538232            0   -2.1547232    -4.186528         4000 
    1000    2.3857916   -4.9862264            0   -1.4084336     5.801361    3853.1112 
    2000     2.396248   -5.0045957            0   -1.4111223     5.800955    3842.6079 
    3000    2.3546625   -4.9874678            0   -1.4563571    5.5466341    3862.7846 
    4000    2.4253947    -4.996555            0   -1.3593724     5.774672    3851.0269 
    5000    2.4239905   -5.0998195            0   -1.4647427    5.7357127    3813.6112 
    6000    2.3963701   -5.0026036            0   -1.4089471     5.923482    3838.5834 
    7000    2.3451811   -5.0704225            0   -1.5535303    5.3965638    3839.8434 
    8000    2.4326051   -5.0439827            0   -1.3959872    5.5451614    3854.7333 
    9000    2.4265729   -5.0491562            0   -1.4102068    5.7599466    3836.5597 
   10000    2.3750767   -4.9550161            0   -1.3932917    5.7411899    3864.7065 
Loop time of 2.6704 on 48 procs for 10000 steps with 4000 atoms

Performance: 647093.899 tau/day, 3744.756 timesteps/s
99.5% CPU use with 48 MPI tasks x no OpenMP threads

MPI task timing breakdown:
Section |  min time  |  avg time  |  max time  |%varavg| %total
---------------------------------------------------------------
Pair    | 1.1428     | 1.2093     | 1.3077     |   3.3 | 45.29
Neigh   | 0.21177    | 0.22095    | 0.23431    |   1.1 |  8.27
Comm    | 0.8242     | 0.93878    | 1.0146     |   4.5 | 35.16
Output  | 0.00025627 | 0.00026031 | 0.00033739 |   0.0 |  0.01
Modify  | 0.24833    | 0.28555    | 0.31598    |   3.0 | 10.69
Other   |            | 0.01556    |            |       |  0.58

Nlocal:        83.3333 ave          91 max          74 min
Histogram: 3 2 5 2 6 11 3 8 4 4
Nghost:        1683.31 ave        1714 max        1653 min
Histogram: 3 3 5 8 3 8 8 6 2 2
Neighs:        9884.48 ave       11261 max        8496 min
Histogram: 2 2 3 6 8 13 7 2 3 2

Total # of neighbors = 474455
Ave neighs/atom = 118.61375
Neighbor list builds = 907
Dangerous builds = 196

# Equilibrate just above the melting temperature to avoid step fn in T

fix 1 all npt temp 1.25 1.25 0.1 iso 5.68 5.68 0.5 mtk yes tchain 5 pchain 5
run 2000
Per MPI rank memory allocation (min/avg/max) = 3.643 | 3.645 | 3.649 Mbytes
Step Temp E_pair E_mol TotEng Press Volume 
   10000    2.3750767   -4.9550161            0   -1.3932917    5.7411899    3864.7065 
   11000    1.2553446   -7.0226174            0   -5.1400713    5.5249998    3053.2355 
   12000     1.233114   -7.1443243            0   -5.2951157    5.5426246    3021.0631 
Loop time of 0.618225 on 48 procs for 2000 steps with 4000 atoms

Performance: 559019.981 tau/day, 3235.069 timesteps/s
99.6% CPU use with 48 MPI tasks x no OpenMP threads

MPI task timing breakdown:
Section |  min time  |  avg time  |  max time  |%varavg| %total
---------------------------------------------------------------
Pair    | 0.28091    | 0.30101    | 0.32277    |   2.0 | 48.69
Neigh   | 0.040529   | 0.042292   | 0.044122   |   0.5 |  6.84
Comm    | 0.20203    | 0.22506    | 0.24799    |   2.5 | 36.40
Output  | 5.2753e-05 | 5.3982e-05 | 7.0874e-05 |   0.0 |  0.01
Modify  | 0.041946   | 0.04499    | 0.04811    |   0.8 |  7.28
Other   |            | 0.004825   |            |       |  0.78

Nlocal:        83.3333 ave          90 max          76 min
Histogram: 2 4 10 3 2 8 4 6 1 8
Nghost:        1992.40 ave        2016 max        1972 min
Histogram: 4 5 4 5 8 10 3 2 4 3
Neighs:        12657.3 ave       14257 max       10970 min
Histogram: 4 1 5 7 5 8 7 6 1 4

Total # of neighbors = 607551
Ave neighs/atom = 151.88775
Neighbor list builds = 143
Dangerous builds = 9

#############################
# L I N E A R  Q U E N C H  #
#############################

# Define solid atoms. This closely follows ten Wolde  Ruiz-Montero and Frenkel  Faraday Discuss  1996  104  93-110
# Compute components of the per-atom q6 vector
compute q6 all orientorder/atom degrees 1 6 components 6 nnn NULL cutoff 1.3 # compute the Q6 parameter.
                                                                             # Use all neighbours within 1.3 unit cell.

# get number of connections
compute coord_number all coord/atom orientorder q6 0.5

# An atom is solid if it has 8 or more connections (of a possible 14)
variable is_solid atom c_coord_number>=8
group solid dynamic all var is_solid    # Must be dynamic to update
dynamic group solid defined

# do clustering
compute cluster solid cluster/atom 1.3 # Create a cluster where all atoms within are solid and max 1.3 units from another member

# define chunks one chunk per cluster
compute clus_chunks solid chunk/atom c_cluster nchunk every compress yes  # Says which atoms are in which chunk

# count the size of each chunk
compute size_chunks solid property/chunk clus_chunks count


# Find the maximum entry in the vector of chunk sizes
variable max_n equal max(c_size_chunks)


# Thermo style which includes this variable
# thermo_style custom step temp pe vol v_max_n

thermo ${N}  # Print the thermo information every 100 steps
thermo 1000  

# Reset the npt fix at a lower temperature (below freezing)
fix 1  all npt temp  ${temp} ${temp}  0.1  iso  5.68  5.68  0.5  mtk yes tchain  5  pchain  5
fix 1  all npt temp  0.45 ${temp}  0.1  iso  5.68  5.68  0.5  mtk yes tchain  5  pchain  5
fix 1  all npt temp  0.45 0.45  0.1  iso  5.68  5.68  0.5  mtk yes tchain  5  pchain  5

dump dmp2 all dcd ${N} traj.dcd
dump dmp2 all dcd 1000 traj.dcd


compute msd all msd com yes
variable twopoint equal c_msd[4]/6/(step*dt+1.0e-6)
fix 9 all vector 10 c_msd[4]
variable fit equal slope(f_9)/6/(10*dt)
thermo_style custom step temp pe c_msd[4] v_twopoint v_fit v_max_n

fix 1 all npt temp 1.25 ${temp} 0.1 iso 5.68 5.68 0.5 mtk yes tchain 5 pchain 5
fix 1 all npt temp 1.25 0.45 0.1 iso 5.68 5.68 0.5 mtk yes tchain 5 pchain 5
run 500000 # 5000000  # Run for this many steps
Neighbor list info ...
  update every 1 steps, delay 10 steps, check yes
  max neighbors/atom: 2000, page size: 100000
  master list distance cutoff = 3.8
  ghost atom cutoff = 3.8
  binsize = 1.9, bins = 8 8 8
  4 neighbor lists, perpetual/occasional/extra = 1 3 0
  (1) pair lj/cut, perpetual
      attributes: half, newton on
      pair build: half/bin/atomonly/newton
      stencil: half/bin/3d
      bin: standard
  (2) compute orientorder/atom, occasional
      attributes: full, newton on
      pair build: full/bin/atomonly
      stencil: full/bin/3d
      bin: standard
  (3) compute coord/atom, occasional
      attributes: full, newton on
      pair build: full/bin/atomonly
      stencil: full/bin/3d
      bin: standard
  (4) compute cluster/atom, occasional
      attributes: full, newton on
      pair build: full/bin/atomonly
      stencil: full/bin/3d
      bin: standard
Per MPI rank memory allocation (min/avg/max) = 9.829 | 9.834 | 9.839 Mbytes
Step Temp PotEng c_msd[4] v_twopoint v_fit v_max_n 
   12000     1.233114   -7.1443243 9.7325714e-31 6.7587299e-33 8.3333333e+20            1 
   13000    1.2501784   -7.1522869   0.43806737 0.0028081241  0.035113258            4 
   14000    1.2685226   -7.1490273   0.84152474 0.0050090757  0.034181513            2 
   15000    1.2713684    -7.124522    1.2487688 0.0069376044   0.03380882            2 
   16000    1.2255667   -7.1403683    1.6619071 0.0086557658  0.034040587            1 
   17000    1.2189626   -7.1546209    2.0073404 0.0098399039  0.033458153            1 
   18000    1.2525733   -7.1032045    2.4049861  0.011134195  0.032997239            1 
   19000    1.2451456   -7.1303577    2.8441428   0.01247431  0.032923965            2 
   20000    1.2361153   -7.1326568    3.3032934  0.013763722  0.033399687            1 
   21000     1.263271   -7.1389094    3.7753211  0.014981432  0.033981294            3 
   22000    1.2196871    -7.141657    4.2363426  0.016046752  0.034438532            3 
   23000    1.2703249   -7.1783361    4.5862176   0.01661673  0.034675729            1 
   24000    1.2502968   -7.1344802    4.9578714  0.017214831  0.034654405            1 
   25000    1.2394658    -7.183198    5.4210739  0.018070246  0.034661263            1 
   26000    1.2397515   -7.1718741    5.8639712  0.018794779  0.034763421            1 
   27000    1.2073429   -7.1958952    6.2578109  0.019314231  0.034816687            1 
   28000    1.2379123   -7.1745408     6.638252  0.019756702  0.034804966            6 
   29000    1.2186757   -7.2242402     7.014005  0.020155186  0.034743116            1 
   30000    1.2205421   -7.1681482    7.4124951  0.020590264  0.034659909            2 
   31000    1.2261928   -7.1621376    7.6869152   0.02066375  0.034442182            3 
   32000    1.2026433   -7.1966838    7.9890422  0.020804797  0.034146047            2 
   33000    1.2118071   -7.1946038    8.4229197  0.021269999  0.033886384            2 
   34000    1.2287884   -7.2602255     8.891983  0.021794076  0.033746363            2 
   35000    1.2006845   -7.2122934    9.3273857  0.022208061  0.033710777            2 
   36000    1.2387237   -7.2245103     9.658554  0.022357763  0.033638887            3 
   37000     1.223882   -7.2093074    10.016908  0.022560604  0.033537318            1 
   38000    1.2502871   -7.2495844    10.328134  0.022649416  0.033392241            2 
   39000    1.2022034    -7.196989    10.854813  0.023194045  0.033317804            3 
   40000    1.1904709   -7.1927383    11.189443  0.023311339  0.033274128            1 
   41000    1.1930934   -7.2296395    11.514029  0.023402498  0.033153457            2 
   42000    1.1671527   -7.2358292    11.780026  0.023373068   0.03302612            3 
   43000    1.2064771   -7.2266946    12.145336  0.023537473   0.03286844            5 
   44000    1.1847551   -7.2372409    12.321602  0.023336367  0.032697595            2 
   45000    1.1818026   -7.2549393    12.703976  0.023525882  0.032522887            1 
   46000    1.2052923   -7.2864441    13.129819  0.023785903  0.032382899            2 
   47000    1.1670931    -7.229675    13.496915    0.0239307  0.032268918            2 
   48000    1.2099793   -7.2460261    13.682122  0.023753683  0.032121203            4 
   49000    1.1944796   -7.2395374    14.019499  0.023842684  0.031950118            3 
   50000    1.1846518   -7.2582792    14.424641  0.024041069  0.031803082            2 
   51000    1.1836698   -7.2828373    14.592807  0.023844456  0.031642332            2 
   52000    1.1780702    -7.267354    14.861579  0.023816633  0.031459052            4 
   53000    1.1876225   -7.2807269    15.314683  0.024079689  0.031296943            1 
   54000     1.169085   -7.3018518    15.626692  0.024115266  0.031160643            1 
   55000    1.1606003   -7.3064502    15.888305  0.024073189  0.031022499            2 
   56000    1.2037493   -7.2792958    16.422282  0.024437919  0.030905174            1 
   57000    1.1639652   -7.2968403    16.756929  0.024498434  0.030818037            1 
   58000    1.1640672   -7.2697681    17.070552  0.024526655  0.030723411            1 
   59000    1.1990072   -7.3630631    17.234042  0.024341867  0.030625794            1 
   60000    1.1915088   -7.2837443    17.543221  0.024365584  0.030508688            4 
   61000    1.2013671    -7.359843    17.874565  0.024418804  0.030393904            2 
   62000     1.184544   -7.3104107    18.203961  0.024467689  0.030293757            1 
   63000     1.169735    -7.346568    18.568545  0.024561567  0.030201883            2 
   64000    1.1492514   -7.3794558    18.957972  0.024684859  0.030122124            1 
   65000    1.1645487   -7.3497186    19.367285  0.024829853     0.030051            1 
   66000    1.1433386   -7.3699491    19.571221  0.024711138  0.029976844            2 
   67000    1.1486997   -7.3331964    19.982496   0.02485385  0.029909168            1 
   68000    1.1948169   -7.3685266    20.315286  0.024896184  0.029843405            3 
   69000    1.1410184   -7.3392801    20.565944  0.024838096  0.029784355            2 
   70000    1.1496922   -7.3281189    21.105226  0.025125269  0.029731214            2 
   71000    1.1685969   -7.3518566    21.322915  0.025026895  0.029676696            1 
   72000     1.163367   -7.3625115    21.626434  0.025030594  0.029617249            2 
   73000     1.165028   -7.3697613    22.006165  0.025121193  0.029564124            3 
   74000    1.1432485   -7.3584895    22.411755  0.025238462  0.029524562            2 
   75000    1.1420668   -7.4038863     22.66277  0.025180855  0.029487948            1 
   76000    1.1396075   -7.3526331    23.052202  0.025276537  0.029446017            2 
   77000    1.1509809   -7.3815939    23.309947  0.025227216  0.029398131            1 
   78000    1.1516112   -7.3724982    23.666095  0.025284289  0.029354323            4 
   79000    1.1037769   -7.3678706    24.025879  0.025343754  0.029314188            2 
   80000    1.1564755   -7.3596182      24.1422  0.025148125  0.029256952            2 
   81000    1.1541081   -7.3584774    24.429269  0.025132992  0.029198017            3 
   82000    1.1385925   -7.3882517    24.589403  0.024989231  0.029134342            1 
   83000     1.141875   -7.4183345    24.865456  0.024965318    0.0290662            1 
   84000    1.1426445   -7.3853174    25.219511  0.025019356  0.028998052            2 
   85000    1.1156431   -7.3524366    25.563316  0.025062075  0.028929494            5 
   86000    1.1414541   -7.4241652    25.816839  0.025016317  0.028861498            2 
   87000     1.149775    -7.393076     26.00308  0.024907165  0.028788565            2 
   88000    1.1068501   -7.4119301    26.251996  0.024859844  0.028708931            3 
   89000    1.1260363   -7.4071361    26.371998  0.024692882  0.028622799            1 
   90000    1.1329435   -7.4264007    26.606315  0.024635477  0.028532509            2 
   91000    1.1201542   -7.4457124    26.836206   0.02457528  0.028446343            1 
   92000    1.1288225   -7.4424927    27.259802  0.024691849  0.028366647            1 
   93000    1.1203911   -7.4520993    27.749565  0.024865201   0.02829502            1 
   94000    1.1180252   -7.4692021    27.874008     0.024711  0.028229927            2 
   95000    1.1273217   -7.4882932    28.285625  0.024811952   0.02815955            1 
   96000    1.1173961   -7.4222518    28.461011  0.024705738    0.0280864            1 
   97000    1.1220262   -7.4209496    28.578879  0.024552302  0.028009995            2 
   98000    1.1109277    -7.431784    28.866895  0.024546679  0.027934172            3 
   99000     1.100804   -7.4339581    29.194091   0.02457415  0.027854602            1 
  100000    1.1186238   -7.4635548    29.546097  0.024621748  0.027781817            3 
  101000    1.1181131   -7.4917344    29.772652  0.024564894  0.027711111            3 
  102000    1.0990024   -7.4620477    29.936945  0.024458288  0.027637366            2 
  103000     1.101778   -7.4088901    30.153227  0.024395815  0.027559323            4 
  104000    1.1151284   -7.4725997    30.379275  0.024342368  0.027480988            4 
  105000    1.1046089   -7.5306825     30.58914  0.024277095  0.027402247            1 
  106000     1.123365   -7.5204344    30.762647  0.024184471  0.027321472            2 
  107000    1.0975501   -7.5127631    31.080525  0.024206016  0.027240659            3 
  108000    1.1069167   -7.4493497    31.298362  0.024149971  0.027158309            1 
  109000    1.1188815   -7.5148402    31.436403  0.024033947   0.02707443            2 
  110000    1.0961965   -7.4995891    31.620197  0.023954694  0.026986682            2 
  111000    1.1056015   -7.5097384    31.868644  0.023925409  0.026902836            2 
  112000    1.0628911   -7.5769205    32.030959  0.023832559  0.026819105            2 
  113000    1.0675172   -7.5310803    32.228008  0.023766968  0.026732444            1 
  114000    1.0592433   -7.4746863    32.511404  0.023765646  0.026643359            2 
  115000    1.0582339   -7.5040472    32.748886  0.023731077  0.026553134            2 
  116000    1.1067264    -7.477432    32.906887  0.023640005  0.026462748            2 
  117000    1.0859622   -7.5279225    33.108752  0.023581732  0.026373755            2 
  118000    1.0825359   -7.5334852    33.412093  0.023596111   0.02628436            1 
  119000    1.0847639    -7.568488    33.467128  0.023436364  0.026197693            1 
  120000    1.0820268   -7.5705326    33.641498  0.023362151  0.026107647            2 
  121000    1.0697786    -7.543312     33.86378  0.023322162  0.026018573            5 
  122000    1.0901015   -7.5086413    34.147023  0.023324469  0.025931062            1 
  123000    1.0643512   -7.5293963    34.325159  0.023255527  0.025843907            1 
  124000    1.0648283   -7.5239201    34.637016  0.023277564  0.025757752            1 
  125000    1.0889801   -7.5349097    34.799526  0.023199684  0.025673209            1 
  126000    1.0704195   -7.5234417    35.139713  0.023240551  0.025591509            2 
  127000    1.0625017   -7.5904077    35.260179    0.0231366  0.025512566            3 
  128000    1.0621881   -7.5677272    35.415307   0.02305684  0.025430882            1 
  129000     1.050406   -7.5589985     35.74894  0.023093631  0.025349331            1 
  130000     1.047523   -7.5681344    36.122335  0.023155343  0.025274049            1 
  131000    1.0444254    -7.623451    36.137853  0.022988456  0.025200799            1 
  132000    1.0489869   -7.5399581    36.410975  0.022986726  0.025125565            2 
  133000     1.055659   -7.5913184    36.537843  0.022893385  0.025048071            1 
  134000    1.0518108   -7.5706923    36.792864  0.022881134  0.024971729            2 
  135000    1.0642375   -7.6000561    37.031637  0.022859035  0.024898599            1 
  136000    1.0596865   -7.6039512    37.178339  0.022780845   0.02482427            5 
  137000    1.0607049   -7.6114997    37.435359    0.0227709  0.024751628            2 
  138000    1.0453588   -7.5546114    37.540539  0.022669408  0.024676672            5 
  139000     1.039491   -7.6056279    37.595418  0.022539219  0.024599803            1 
  140000    1.0529859   -7.5981886    37.744757  0.022467117  0.024521949            1 
  141000    1.0243453   -7.6658975    38.019901  0.022470391  0.024445094            2 
  142000    1.0402349   -7.6385789    38.198626  0.022417034  0.024370088            2 
  143000    1.0667978   -7.6778988     38.30793  0.022323968  0.024296736            2 
  144000    1.0656313   -7.6576414    38.475547  0.022265941  0.024219713            4 
  145000    1.0428363   -7.6629402    38.656133  0.022216169  0.024141861            2 
  146000    1.0374305   -7.6337552    38.932721  0.022221873  0.024066539            2 
  147000    1.0238047   -7.6158344    39.376274  0.022322151  0.023995742            3 
  148000    1.0348595   -7.6503403    39.521021  0.022252827  0.023928188            6 
  149000     1.035444   -7.6325974    39.659412  0.022180879  0.023860351            3 
  150000     1.013202   -7.6200189    39.886027  0.022158904  0.023790542            1 
  151000    1.0308584   -7.7054041    39.819954  0.021975692  0.023720879            3 
  152000    1.0241141    -7.659656    40.032555  0.021947672  0.023649043            3 
  153000    1.0087418   -7.6576765    40.305911  0.021953111   0.02357672            2 
  154000    1.0104615   -7.6562288    40.312701  0.021814232  0.023504386            4 
  155000    1.0414754   -7.6944563    40.424696  0.021733708  0.023429677            2 
  156000    1.0292158   -7.6615294     40.82857  0.021810134  0.023356903            1 
  157000    1.0256923   -7.7015981     40.95769   0.02173975  0.023285708            2 
  158000    1.0240796   -7.6987683    41.013228  0.021631449   0.02321651            3 
  159000    1.0046479   -7.6604332    41.420521  0.021708868  0.023148625            3 
  160000    1.0163877   -7.6673425    41.742851  0.021741068  0.023083836            4 
  161000    1.0156947   -7.7239185    41.834415  0.021653424  0.023018751            2 
  162000    1.0184053   -7.7134105    41.845344  0.021525382  0.022953894            3 
  163000   0.98358408   -7.7189094    42.023723  0.021484521  0.022888067            4 
  164000    1.0099871   -7.6795369    42.409862  0.021549727  0.022824536            2 
  165000    0.9879802   -7.7302278    42.537565  0.021483619  0.022762895            5 
  166000   0.99485589   -7.7163976    42.639026  0.021405134  0.022701086            1 
  167000     1.014265   -7.7248721    43.211812   0.02156278   0.02264154            3 
  168000    1.0145631   -7.6979695    43.274476  0.021465514  0.022584027            5 
  169000   0.99583085   -7.7320717     43.37368  0.021387416  0.022527701            2 
  170000     1.006481   -7.7325917    43.862472  0.021501212  0.022472091            3 
  171000    1.0011199   -7.7534192    43.797262  0.021343695  0.022418876            2 
  172000    1.0064807   -7.7688976    43.912795  0.021275579  0.022363352            3 
  173000   0.99017157   -7.7505492    44.080814  0.021233533  0.022306543            4 
  174000    1.0049025   -7.7368308    44.290628  0.021211986  0.022249445            1 
  175000    1.0088316   -7.7738153    44.364545  0.021125974  0.022191618            2 
  176000   0.97891976   -7.7495651    44.584461  0.021110067   0.02213327            3 
  177000   0.98246771   -7.7781801    44.470673  0.020937228  0.022071934            2 
  178000    1.0024558    -7.763983    44.539825  0.020851978  0.022010459            3 
  179000    1.0020406   -7.8012538     44.83323  0.020872081   0.02194884            1 
  180000   0.97097423   -7.7827864     44.98129  0.020824671  0.021887582            3 
  181000   0.98835708   -7.7651138     45.06239  0.020746956   0.02182609            5 
  182000   0.97326357   -7.7956648    45.200705  0.020696293  0.021766987            4 
  183000   0.96992923    -7.776848    45.551244  0.020742825  0.021708239            2 
  184000   0.99835112   -7.8141872     45.77686  0.020732273   0.02165134            2 
  185000   0.96305732   -7.8167849    46.042217  0.020739737  0.021595189            2 
  186000   0.99109033   -7.8037951    46.194796  0.020696593  0.021540922            4 
  187000   0.96562087   -7.8238688    46.350545  0.020655323  0.021486128            3 
  188000   0.99062683   -7.7970577    46.481042  0.020603299  0.021432878            2 
  189000   0.96610874    -7.834207    46.689745  0.020586307  0.021379162            2 
  190000   0.95164654   -7.8241294     46.73818  0.020499202  0.021326533            7 
  191000   0.95949647   -7.8465038    46.750771  0.020397369  0.021272573            2 
  192000   0.97668417   -7.8222021    47.057108  0.020424092  0.021217898            2 
  193000   0.96311972   -7.8450145    47.197565  0.020378914   0.02116448            3 
  194000   0.95304755   -7.8454769    47.304082  0.020319623  0.021109926            2 
  195000   0.96246861   -7.8118733    47.369655  0.020243442  0.021054339            3 
  196000   0.97618472   -7.8061895    47.410047  0.020157333  0.020997915            2 
  197000   0.95482615   -7.8715921    47.423973  0.020060902  0.020941013            2 
  198000   0.97160192   -7.8599183     47.51927  0.019999693  0.020883984            2 
  199000   0.92633799    -7.900688     47.47876  0.019882228  0.020824825            4 
  200000   0.93575898   -7.8556443    47.633655  0.019847356  0.020765449            3 
  201000   0.95246623   -7.8650671    47.734735   0.01979052  0.020706073            1 
  202000   0.92818489   -7.9133935    47.943111  0.019778511  0.020646796            2 
  203000   0.94176865   -7.8943623    48.060017  0.019729071  0.020587346            1 
  204000   0.95034713   -7.8839451    47.951112  0.019587872  0.020527721            2 
  205000   0.92945386   -7.9062329    48.154655  0.019575063  0.020467362            2 
  206000   0.94387425   -7.9252065    48.193769  0.019495861   0.02040771            2 
  207000   0.92352724     -7.88938    48.274872  0.019434329  0.020347985            2 
  208000   0.92643126   -7.8871908    48.665677  0.019497467  0.020288206            1 
  209000   0.93530651   -7.9228512    48.623929  0.019387531  0.020228791            2 
  210000   0.92190136   -7.8974948    48.710888  0.019329717  0.020168643            3 
  211000   0.91377558   -7.9266958    48.811491   0.01927784  0.020109694            1 
  212000   0.93820996    -7.941229     48.96609  0.019247677  0.020050866            5 
  213000   0.93105444   -7.9191531    49.077902  0.019201057  0.019991274            2 
  214000   0.90704667   -7.9518956    49.113736  0.019125286  0.019932107            3 
  215000   0.92500561   -7.9129069    49.152565  0.019051382  0.019873102            6 
  216000   0.91760849   -7.9227528    49.363541  0.019044576  0.019812817            4 
  217000   0.91336319   -7.9206231    49.593198  0.019045007  0.019753748            2 
  218000   0.92815688   -7.9346727    49.557579  0.018944029  0.019695085            3 
  219000   0.92012077   -7.9298507    49.828102  0.018960465   0.01963719            3 
  220000   0.90727722   -7.9666294    49.871176  0.018890597  0.019579709            3 
  221000    0.9189307   -8.0016475    49.890576  0.018812434  0.019521858            3 
  222000   0.89269428   -7.9414988    49.964899  0.018755593  0.019463622            3 
  223000   0.92015219   -7.9243195    50.122588  0.018730414  0.019405327            3 
  224000   0.90320242   -7.9789879    50.007481  0.018603974  0.019345904            3 
  225000   0.90808391   -7.9570727    50.102596  0.018556517   0.01928639            2 
  226000   0.91406389   -7.9864231     50.16311  0.018496722  0.019226832            1 
  227000   0.89245782   -7.9983072    50.181286  0.018421911  0.019166659            2 
  228000   0.90425951   -7.9463818     50.44031  0.018435786  0.019107123            2 
  229000   0.89696302   -7.9709429    50.591932  0.018410456   0.01904842            2 
  230000   0.89077453   -8.0202998    50.695205  0.018367828  0.018990293            2 
  231000   0.88847632   -8.0179136    50.719886  0.018297217   0.01893183            3 
  232000   0.87575945   -8.0191915    50.755156  0.018231019  0.018873921            1 
  233000   0.90891055   -7.9963657    50.929378  0.018215085  0.018815701            4 
  234000   0.91953343   -7.9925464      51.0643  0.018185292  0.018758661            3 
  235000   0.88539765   -8.0223994    50.857071  0.018034422   0.01870095            2 
  236000   0.88850095   -8.0178455    51.202772  0.018080075  0.018643184            1 
  237000   0.88015887   -8.0454424    51.117704  0.017973876  0.018585615            4 
  238000   0.89250454   -8.0502696    51.091171  0.017889065  0.018527429            2 
  239000   0.88289735   -8.0510744     51.10923  0.017820513  0.018467903            4 
  240000   0.88067709   -8.0408817    51.189638   0.01777418   0.01840864            2 
  241000   0.90889682   -8.0648826    51.245659  0.017719799  0.018349372            3 
  242000    0.8835067   -8.0374542     51.40938  0.017702954  0.018290315            5 
  243000   0.88442401   -8.0789602    51.573932  0.017686534  0.018231424            2 
  244000   0.87184118   -8.0704526     51.44045   0.01756846  0.018172998            1 
  245000   0.88798428   -8.0766037    51.682042  0.017578926  0.018114691            7 
  246000   0.87225218   -8.0947712    51.620062  0.017486471   0.01805629            3 
  247000   0.88563169    -8.048412    51.800336  0.017476497  0.017998137            3 
  248000   0.86747603   -8.0440612    51.730747  0.017382643  0.017939998            2 
  249000   0.86186659   -8.0858191    51.675495  0.017294342  0.017881536            2 
  250000   0.85642408   -8.0669418    51.921554  0.017307185  0.017824028            5 
  251000   0.85661258   -8.0907473    52.074187  0.017288907  0.017766375            2 
  252000   0.86398057    -8.091003    51.965251  0.017184276  0.017709206            3 
  253000   0.86942751   -8.0950038    52.089747  0.017157361   0.01765161            7 
  254000   0.86559058   -8.0931013    52.206712  0.017128186  0.017594738            2 
  255000   0.85193563   -8.0846552    52.220418  0.017065496  0.017537702            5 
  256000   0.86122534    -8.098379    52.210348  0.016995556  0.017480822            2 
  257000    0.8614081   -8.1248588    52.298451  0.016957993  0.017424294            4 
  258000    0.8367304   -8.1441989    52.265122  0.016881499   0.01736692            8 
  259000   0.85599966   -8.1230575    52.439365  0.016872382  0.017309753            4 
  260000    0.8808752   -8.1471187    52.475426  0.016819047  0.017252775            2 
  261000   0.86340925   -8.1566784    52.315114  0.016703421  0.017195544            5 
  262000   0.84190539   -8.1279199    52.479437  0.016691933  0.017138491            4 
  263000   0.85989405   -8.1449455     52.51721  0.016640434   0.01708171            3 
  264000   0.85644891   -8.1706784    52.478747  0.016565261  0.017024713            3 
  265000   0.83930436   -8.1430276    52.597605  0.016540127  0.016967662            3 
  266000   0.84616527   -8.1482892    52.597736  0.016477988  0.016910749            2 
  267000   0.86663202   -8.1665406    52.579623  0.016410619  0.016853516            1 
  268000   0.83768329   -8.1815943    52.695714  0.016385483  0.016796415            3 
  269000   0.83484335   -8.1936492    52.629082  0.016303929  0.016739422            8 
  270000   0.82745384   -8.1816694    52.730295  0.016274782  0.016682422            4 
  271000   0.80953531   -8.1637374    52.922589  0.016273859  0.016625751            2 
  272000    0.8315455    -8.194348    52.792765  0.016174254  0.016569092            4 
  273000   0.84342286   -8.1753497    52.792966  0.016115069  0.016512755            3 
  274000   0.85801533   -8.1748072    52.896239  0.016087664  0.016456191            4 
  275000   0.82107155   -8.1856547    52.827085  0.016008208  0.016399989            3 
  276000   0.84164219   -8.1547255    52.949877  0.015987282  0.016343578            4 
  277000    0.8233196   -8.2307682    53.032038  0.015954283  0.016287595            2 
  278000   0.83144407   -8.2044739    52.944443  0.015870636  0.016231321            9 
  279000   0.82693712   -8.2120119     53.11823   0.01586566  0.016174894            2 
  280000   0.81938101   -8.2361159    52.901612  0.015744527   0.01611872            6 
  281000   0.82510385   -8.2432196    52.920593  0.015694126  0.016062303           13 
  282000   0.81815306   -8.2325477    53.136121  0.015702163  0.016006169            4 
  283000   0.80143703   -8.2261201    53.074079   0.01562841  0.015950023            7 
  284000   0.81485393   -8.2123539    53.255181   0.01562652  0.015894015            1 
  285000   0.79139529   -8.2382388    53.149946   0.01554092  0.015838388            4 
  286000   0.81494986   -8.2423054    53.104901  0.015473456  0.015782689            2 
  287000   0.80929674   -8.2465552    53.137996  0.015429151  0.015727052            3 
  288000   0.78987851   -8.2717882     53.20005  0.015393533  0.015671417            5 
  289000   0.81654962   -8.2909792    53.202904  0.015341091  0.015615595            8 
  290000   0.82063555   -8.2548088    53.216311  0.015292043  0.015559867            2 
  291000   0.79903093   -8.2612404    53.297348    0.0152627  0.015504694            3 
  292000   0.81286495   -8.2587382    53.277075  0.015204645   0.01544977            4 
  293000    0.8035604   -8.2574671    53.520732  0.015222051  0.015395404            3 
  294000   0.78780826   -8.2660828    53.399315   0.01513586  0.015340974            3 
  295000   0.79681939   -8.2913241    53.407016  0.015086728  0.015286472            3 
  296000   0.79131142   -8.2792084    53.396376  0.015032763  0.015232004            5 
  297000   0.79331253   -8.2765648    53.530009  0.015019643  0.015177902            6 
  298000   0.80529653   -8.3288047     53.49535   0.01495955  0.015124205           13 
  299000   0.79960199   -8.2796768     53.64788  0.014952029  0.015070648            6 
  300000   0.79338201   -8.2967205    53.595783  0.014887717  0.015017139            6 
  301000   0.77359862   -8.3115643    53.500634  0.014811914  0.014963282            5 
  302000   0.78410036   -8.3450756    53.364546  0.014725316  0.014909818            9 
  303000   0.77936875   -8.3312594    53.416551  0.014691021  0.014856082            2 
  304000    0.7789167   -8.3479518    53.469486  0.014657206  0.014802585            4 
  305000   0.78189117    -8.317898     53.61456  0.014648787  0.014749288            2 
  306000   0.76146182   -8.3316691    53.532646  0.014578607  0.014696099            2 
  307000   0.77678782   -8.3649195    53.471762  0.014514593  0.014642823            3 
  308000   0.77222512   -8.3495388    53.512498   0.01447849  0.014589795            7 
  309000   0.77072877   -8.3398484    53.615467  0.014459403  0.014537001            4 
  310000    0.7620123   -8.3933662    53.606662  0.014410393  0.014484263            1 
  311000   0.79108525   -8.3751041    53.598053  0.014361751   0.01443177            2 
  312000   0.76743867   -8.3271099     53.65616  0.014331239  0.014379554           14 
  313000   0.77679264    -8.372388    53.620757  0.014276027  0.014327383            3 
  314000   0.76959221   -8.3694881    53.560993  0.014214701  0.014275751            4 
  315000   0.75435153   -8.3855908    53.708433   0.01420858  0.014224055            4 
  316000   0.75341947   -8.3725495     53.68797   0.01415822  0.014172744            6 
  317000    0.7541408    -8.410175    53.776607  0.014136858  0.014121714            8 
  318000   0.77404204   -8.4100145     53.60063  0.014046287  0.014070871            2 
  319000    0.7617664   -8.3892195    53.610781  0.014004906  0.014020197            2 
  320000   0.75056261    -8.404695    53.681974  0.013979681   0.01396941            5 
  321000   0.75428347   -8.3956008    53.808058  0.013968862  0.013919136            9 
  322000   0.75413219   -8.4167441    53.892213   0.01394726  0.013869271            5 
  323000   0.76425666   -8.3978832    53.772123  0.013873097  0.013819126            5 
  324000   0.74875881   -8.4093169    53.822841  0.013843323  0.013769341            2 
  325000   0.73594516   -8.4477502    53.724298  0.013775461  0.013719308            2 
  326000   0.73983472   -8.4377356    53.623835  0.013707524  0.013669038            2 
  327000   0.72828775   -8.4492808    53.790539  0.013708088  0.013619008            5 
  328000   0.73573254   -8.4349566    53.724595  0.013649541  0.013569243            2 
  329000   0.73812982   -8.4672644    53.675626   0.01359565  0.013519583            2 
  330000   0.73581218   -8.4715658    53.697594  0.013559998  0.013470081            4 
  331000   0.74592911   -8.4645102    53.667314  0.013511408  0.013420505            2 
  332000   0.72491913   -8.4823641     53.82014  0.013509071  0.013371031            4 
  333000   0.72962118   -8.4588142    53.672555   0.01343157  0.013321583            6 
  334000   0.71724098   -8.4868118    53.724411  0.013404294  0.013272193            3 
  335000   0.74091372   -8.4566411    53.776483  0.013377235  0.013223106            6 
  336000   0.72432227   -8.4843728    53.668104  0.013310542   0.01317417            3 
  337000   0.72498188   -8.4958523    53.601395  0.013254549  0.013125342            2 
  338000   0.72259594   -8.4842996    53.698791  0.013239347    0.0130767            4 
  339000    0.7185243    -8.479011    53.698522  0.013200227  0.013028039            3 
  340000   0.72651232   -8.5043457    53.648623  0.013149172  0.012979663            2 
  341000   0.72426957   -8.4893944    53.750542  0.013135518  0.012931452            4 
  342000   0.73330631    -8.529573    53.651809  0.013073053  0.012883464            5 
  343000   0.71630261   -8.5105755     53.68263  0.013042427  0.012835627            2 
  344000   0.72072648    -8.529624    53.617133  0.012988646  0.012787819            2 
  345000   0.72521782   -8.5299892    53.578058   0.01294156  0.012740176            3 
  346000   0.70857398   -8.5303889    53.749187  0.012945373  0.012692969            6 
  347000   0.71868293   -8.5238052    53.782788  0.012916135  0.012645818            3 
  348000   0.70977894    -8.522786      53.7143   0.01286262  0.012598787            1 
  349000   0.70732705   -8.5263445    53.774755  0.012840199  0.012552071            2 
  350000   0.70310022   -8.5438894    53.547196  0.012749332  0.012505364            6 
  351000   0.71048831   -8.5473879    53.674763  0.012743296  0.012458855            2 
  352000   0.71269878   -8.5603964    53.630184   0.01269654  0.012412459            7 
  353000   0.69284557   -8.5388362    53.613838  0.012656713  0.012366257            2 
  354000   0.69657621   -8.5581654    53.729194  0.012648115  0.012320298            4 
  355000   0.70939556   -8.5839684    53.699278  0.012605464  0.012274442            3 
  356000   0.70694121   -8.5741902     53.69925  0.012570049  0.012228744            4 
  357000    0.7054379   -8.5610271    53.661532  0.012526035  0.012183509            5 
  358000   0.68872945   -8.5689457    53.804254  0.012524268  0.012138139            3 
  359000   0.68427726    -8.593736     53.63978  0.012451202  0.012093147            5 
  360000    0.6833858   -8.5659198     53.60421  0.012408382   0.01204813            3 
  361000   0.68571616    -8.598738    53.718373  0.012400363   0.01200341            3 
  362000   0.69627142   -8.5805261    53.768551  0.012377659  0.011958827            3 
  363000    0.6837537   -8.5688616    53.723995  0.012333332  0.011914513            5 
  364000    0.6909549   -8.6160505    53.725082  0.012299698   0.01187048            5 
  365000   0.69395228   -8.6039533    53.697193  0.012259633  0.011826307            4 
  366000   0.68497267   -8.6072916    53.832587  0.012256964  0.011782382            7 
  367000   0.67966106   -8.6315901    53.658673  0.012184076  0.011738699            4 
  368000   0.67908252   -8.6237155    53.594849  0.012136515  0.011695244            3 
  369000   0.67434516     -8.59592    53.659379  0.012118198  0.011651771            4 
  370000   0.68669002   -8.6375041    53.574917  0.012066423  0.011608554            3 
  371000   0.65980832   -8.6131181    53.678265  0.012057113  0.011565306            2 
  372000   0.68027715   -8.6154376    53.604226  0.012008115  0.011522498            4 
  373000   0.67266184   -8.6339291    53.571669  0.011968648   0.01147958            2 
  374000   0.66294512   -8.6034726    53.692393  0.011963546  0.011437017            7 
  375000   0.67257897    -8.644991    53.558222  0.011901827   0.01139465            2 
  376000   0.66811623     -8.62288    53.681391  0.011897471  0.011352382            2 
  377000   0.67182059   -8.6455795    53.650055  0.011858987  0.011310218            3 
  378000   0.66962325   -8.6238987    53.695533   0.01183764  0.011268303            3 
  379000   0.66237526   -8.6234608    53.617648  0.011789281  0.011226428            3 
  380000   0.65921264   -8.6447438    53.643533  0.011763933  0.011184815            4 
  381000   0.65968529   -8.6421036    53.737661  0.011753644  0.011143339            5 
  382000   0.66228406   -8.6543252     53.57247  0.011686839  0.011102036            3 
  383000   0.67319939   -8.6452425    53.602462  0.011662851  0.011061055            3 
  384000   0.65236177   -8.6623989     53.56613  0.011624594  0.011020168            7 
  385000   0.64611265   -8.6734459      53.6512  0.011612814  0.010979434            4 
  386000   0.66114611   -8.6535824    53.668527   0.01158647  0.010938894            3 
  387000   0.65159601   -8.6663971    53.606701  0.011543217  0.010898504            5 
  388000   0.63963905   -8.6621045    53.645972  0.011521901   0.01085814            2 
  389000   0.65372734   -8.6943599    53.591989  0.011480717  0.010818025            2 
  390000   0.64355176   -8.6782956    53.632297  0.011459892   0.01077807            3 
  391000   0.64894433   -8.6999971    53.666935  0.011437966  0.010738311            3 
  392000   0.63519919   -8.6805947      53.5639  0.011386884  0.010698813            7 
  393000   0.64534966   -8.6803721    53.682265  0.011383008  0.010659466            5 
  394000   0.63721153   -8.6888226    53.629692  0.011342997  0.010620247            3 
  395000   0.64310094   -8.6887529    53.588925   0.01130568  0.010581191            3 
  396000    0.6430644   -8.6946461    53.529362  0.011264596  0.010542298            4 
  397000   0.63314054   -8.7020789    53.589471  0.011248839    0.0105036            3 
  398000   0.63932886    -8.714009    53.564211  0.011215287  0.010464905            3 
  399000   0.64376133   -8.7201509    53.576935  0.011189836   0.01042639           13 
  400000   0.63037677   -8.7357156      53.4954  0.011144875   0.01038805            2 
  401000   0.63763587   -8.6967844    53.563958   0.01113133  0.010349877            1 
  402000   0.63703661   -8.7056914    53.505798  0.011091583  0.010312022            5 
  403000   0.62463315   -8.7303665    53.470234  0.011056707  0.010274226            5 
  404000   0.62806359   -8.7337047    53.496578  0.011034773    0.0102366            5 
  405000   0.61732315   -8.7421261    53.505282  0.011009317  0.010198923            3 
  406000   0.61869071   -8.7259258    53.441628  0.010969135  0.010161484            4 
  407000   0.61874413   -8.7410851    53.462221  0.010946401  0.010124171            5 
  408000   0.62723546   -8.7480862    53.477813  0.010922756  0.010086974            7 
  409000   0.61436121   -8.7498053    53.477317  0.010895949   0.01004997            3 
  410000   0.61369036   -8.7272322    53.510118   0.01087604  0.010013214            6 
  411000   0.61011402   -8.7654771    53.465601  0.010840552  0.009976586            3 
  412000   0.61210486   -8.7417315     53.60003   0.01084143  0.009940158            7 
  413000   0.59700365   -8.7698351    53.397844  0.010774383 0.0099038766            4 
  414000   0.60127507   -8.7593252    53.540932   0.01077716 0.0098677969            2 
  415000   0.61483364     -8.75144    53.483033  0.010739565 0.0098318587            4 
  416000   0.58721584   -8.7943288      53.4486  0.010706851  0.009795998            3 
  417000   0.59035186   -8.7705381     53.41402  0.010674265  0.009760317            2 
  418000   0.59627824   -8.7786624    53.416377  0.010649198 0.0097247913            2 
  419000   0.60603125   -8.7615711    53.331943  0.010606989 0.0096894364            5 
  420000   0.58474481   -8.7712743    53.381613   0.01059159 0.0096541625            5 
  421000   0.59694075   -8.7704872      53.4431  0.010578602 0.0096190094           10 
  422000   0.59605849   -8.7981729    53.394271  0.010543892 0.0095840999           10 
  423000    0.5975803   -8.7829536    53.432417  0.010526481 0.0095492918            7 
  424000   0.58893784   -8.7825954    53.322539  0.010480059  0.009514607            5 
  425000   0.58662391   -8.8180463    53.335442   0.01045793 0.0094801378            3 
  426000   0.59785461   -8.7812317    53.373247  0.010440776 0.0094458404            3 
  427000   0.58671579   -8.8044144    53.360389  0.010413815 0.0094117212           14 
  428000   0.59902714   -8.7902875    53.431416  0.010403313 0.0093777511            4 
  429000    0.5821996   -8.8181682    53.405075  0.010373946 0.0093438975            2 
  430000   0.58403724   -8.8022139    53.355078  0.010340131 0.0093101968            2 
  431000   0.57336774   -8.8100602     53.35734  0.010316578 0.0092766241            3 
  432000   0.58431939   -8.8054464    53.339107   0.01028918 0.0092431855            6 
  433000   0.57636908   -8.8308108    53.328047  0.010263289 0.0092099106            7 
  434000   0.57596849    -8.815599    53.375587  0.010248769  0.009176854            4 
  435000   0.56230266   -8.8217405    53.379419  0.010225942 0.0091439696            2 
  436000   0.57037337   -8.8208538    53.335453  0.010194085 0.0091112405            2 
  437000    0.5688405   -8.8305713    53.293961  0.010162845 0.0090786264            3 
  438000   0.56714342   -8.8397751    53.332604  0.010146995 0.0090461777            6 
  439000   0.55895435   -8.8263347    53.471224  0.010150194  0.009013979            8 
  440000   0.55879152   -8.8230735    53.419794  0.010117385 0.0089819037            2 
  441000   0.56006698   -8.8318829    53.421624  0.010094789 0.0089500407            9 
  442000   0.56600917   -8.8298139    53.332225  0.010055095 0.0089182076            4 
  443000   0.54828507   -8.8505064    53.311759  0.010028548 0.0088865034            3 
  444000   0.55997891   -8.8434002    53.381527  0.010019055 0.0088549415            3 
  445000   0.56822831   -8.8585541    53.341895 0.0099891188 0.0088234989            5 
  446000   0.55641349    -8.850107    53.361762 0.0099704339 0.0087921949            5 
  447000   0.55602099    -8.867578    53.334985 0.0099431366 0.0087609651            6 
  448000   0.56052364   -8.8681371    53.287782 0.0099121618 0.0087299475            4 
  449000   0.53594456   -8.8747387    53.319291 0.0098959337 0.0086990836            3 
  450000    0.5508988   -8.8616875    53.386011 0.0098862984 0.0086683193           11 
  451000    0.5543008   -8.8850199    53.394957 0.0098660304 0.0086376915            8 
  452000   0.54486452    -8.882292    53.306225 0.0098278438 0.0086071954            4 
  453000   0.53810252   -8.8730578     53.32015 0.0098087104 0.0085768269            2 
  454000   0.55314932   -8.8666647    53.308907 0.0097850417 0.0085466207            2 
  455000   0.54225331   -8.8954751    53.257451 0.0097541119 0.0085165501            2 
  456000   0.55337612   -8.8719768    53.204015 0.0097229559 0.0084865815            2 
  457000   0.52738291   -8.8854458    53.201432 0.0097012093 0.0084566986            5 
  458000    0.5337249   -8.8995503    53.242832 0.0096875604 0.0084269443            2 
  459000   0.52772403    -8.895289    53.269313 0.0096712623 0.0083973126            3 
  460000   0.53599335   -8.8917616    53.256583 0.0096479316  0.008367783            3 
  461000   0.53132723   -8.8784933    53.183365 0.0096137681 0.0083384173            3 
  462000   0.53444825   -8.8996029    53.195268  0.009595106  0.008309111            2 
  463000   0.52977382    -8.920376    53.184944  0.009572524 0.0082799739            5 
  464000   0.53328594    -8.907355     53.23773  0.009561374 0.0082509233            2 
  465000   0.52201786   -8.9021739    53.205885 0.0095351048 0.0082220138            2 
  466000   0.51186966   -8.9178691    53.173125 0.0095087848 0.0081932061            6 
  467000   0.52304421   -8.9103307    53.130868 0.0094808829 0.0081645995            5 
  468000   0.52761877   -8.9166838    53.199481  0.009472842 0.0081361107            4 
  469000   0.51617199   -8.9264872    53.177477 0.0094487343  0.008107734            4 
  470000   0.52023803   -8.9205909    53.052624 0.0094064936 0.0080794858            2 
  471000   0.50972412   -8.9332001     53.15937 0.0094054087 0.0080513574            4 
  472000   0.51550837   -8.9326016     53.31445 0.0094128619 0.0080233259            2 
  473000   0.51213479   -8.9343927    53.162453 0.0093661826 0.0079954615            3 
  474000   0.50646475   -8.9389945    53.081472 0.0093321856 0.0079676888            8 
  475000    0.5065071   -8.9113526    53.198954 0.0093331498  0.007940073            3 
  476000   0.51514318   -8.9542385    53.131889 0.0093018012 0.0079125659            4 
  477000   0.50093571   -8.9383195     53.17563 0.0092899424 0.0078851764            2 
  478000   0.50330784   -8.9346218    53.066373 0.0092514597 0.0078578767            2 
  479000   0.50197871   -8.9438131    53.192685 0.0092541205 0.0078307224            4 
  480000   0.49337905   -8.9384735    53.080681 0.0092153959 0.0078036783            3 
  481000   0.50525173   -8.9530344    53.082814 0.0091966066 0.0077767159            2 
  482000   0.48580776   -8.9648055    52.952092 0.0091549259 0.0077498355            2 
  483000   0.49584763   -8.9418036    53.015286 0.0091468747 0.0077230812            4 
  484000   0.49938665   -8.9504759    53.079607 0.0091390508 0.0076964752            1 
  485000   0.48950958   -8.9771679    52.978742 0.0091028766   0.00766996            1 
  486000   0.48126576   -8.9641527    53.020174 0.0090912507 0.0076435422            3 
  487000    0.4770489   -8.9699979    53.039021 0.0090758078 0.0076172736            6 
  488000    0.4853679   -8.9728067    53.008771 0.0090520443 0.0075911405            5 
  489000   0.49351223   -8.9753771    53.001179 0.0090322391  0.007565081            3 
  490000   0.47864213   -8.9559507    52.894862 0.0089957248 0.0075391168            2 
  491000   0.48068659   -8.9783332    53.002617  0.008995692 0.0075132672            2 
  492000   0.48160045   -8.9790503    53.074639 0.0089896069 0.0074875233            5 
  493000   0.47451601   -8.9824772    52.948903 0.0089501188 0.0074619305           14 
  494000   0.48537205   -8.9932176    52.926862  0.008928283 0.0074363708            3 
  495000   0.47582441   -8.9899458    52.964993 0.0089166655 0.0074109853            2 
  496000   0.47253356   -8.9733417    53.037633 0.0089108926 0.0073857406            1 
  497000   0.47884893   -8.9832579    53.036933 0.0088928458  0.007360636            4 
  498000   0.47115491   -8.9954685    53.004635 0.0088695842 0.0073356413            6 
  499000   0.47185733   -8.9973798    52.967889 0.0088456728 0.0073107627            2 
  500000    0.4611229   -9.0056677    53.026317 0.0088377194 0.0072859879            3 
  501000   0.45773454   -9.0190462    52.976925 0.0088118638 0.0072613405            6 
  502000   0.46390836   -9.0137079    52.877891 0.0087778704 0.0072368052            7 
  503000   0.46552521   -8.9934149    52.975088 0.0087765221 0.0072123422            2 
  504000   0.45765443   -9.0058389    52.940538 0.0087533958 0.0071879986            5 
  505000   0.46327119   -9.0049248     52.95664 0.0087387194 0.0071637173            3 
  506000    0.4607805   -9.0175922    52.924009 0.0087160753  0.007139568            2 
  507000    0.4623154   -9.0257247    52.970853 0.0087065833 0.0071155423            3 
  508000   0.45204234   -9.0247186    52.848764 0.0086694167 0.0070916126            4 
  509000   0.45548138   -9.0274308    52.890304 0.0086591854 0.0070678044            4 
  510000   0.44892975   -9.0267269    52.822275 0.0086310906 0.0070440659            1 
  511000     0.449521   -9.0228891    52.945904 0.0086343615 0.0070204394            9 
  512000   0.44787915   -9.0268273    52.980352 0.0086231041 0.0069969256            8 
Loop time of 1248.69 on 48 procs for 500000 steps with 4000 atoms

Performance: 69192.592 tau/day, 400.420 timesteps/s
99.4% CPU use with 48 MPI tasks x no OpenMP threads

MPI task timing breakdown:
Section |  min time  |  avg time  |  max time  |%varavg| %total
---------------------------------------------------------------
Pair    | 81.279     | 88.568     | 96.355     |  37.0 |  7.09
Neigh   | 8.2399     | 8.5825     | 8.8579     |   5.8 |  0.69
Comm    | 78.976     | 86.924     | 93.653     |  38.2 |  6.96
Output  | 0.87883    | 0.87982    | 0.91397    |   0.5 |  0.07
Modify  | 1049.4     | 1051.9     | 1055.7     |   4.0 | 84.24
Other   |            | 11.82      |            |       |  0.95

Nlocal:        83.3333 ave          93 max          76 min
Histogram: 1 3 10 7 10 10 4 2 0 1
Nghost:        2209.81 ave        2230 max        2193 min
Histogram: 1 6 11 6 6 2 5 4 3 4
Neighs:        14762.6 ave       16683 max       13555 min
Histogram: 2 9 7 10 8 4 3 2 1 2
FullNghs:      29524.8 ave       33266 max       26725 min
Histogram: 2 1 7 13 7 13 4 0 0 1

Total # of neighbors = 1417192
Ave neighs/atom = 354.29800
Neighbor list builds = 26695
Dangerous builds = 0

#clear
#
#next RN
#
#jump SELF
Total wall time: 0:20:52
