
units lj                  # Use reduced LJ style units
atom_style atomic         # Uncharged point particles
atom_modify map hash      # Needed for indexing of clusters etc
                          # Used to be able to find where atoms are in relation to each other.

lattice fcc 1.0 spacing 1 1 1
Lattice spacing in x,y,z = 1.5874011 1.5874011 1.5874011
region box block 0 10 0 10 0 10 units lattice
create_box 2 box
Created orthogonal box = (0.0000000 0.0000000 0.0000000) to (15.874011 15.874011 15.874011)
  3 by 4 by 4 MPI processor grid
create_atoms 1 box
Created 4000 atoms
  using lattice units in orthogonal box = (0.0000000 0.0000000 0.0000000) to (15.874011 15.874011 15.874011)
  create_atoms CPU = 0.002 seconds
set type 1 type/fraction 2 0.99 78393
Setting atom values ...
  3965 settings made for type/fraction
mass 1 1.0
mass 2 1.0
pair_style lj/cut  3.5
pair_modify tail  yes
pair_coeff 1  1  1.0  1.0   # Intearaction between 1 and 1 set with epsilon = 1 and sigma = 1
pair_coeff 1  2  1.5  0.8
pair_coeff 2  2  0.5  0.88

write_data data.0
System init for write_data ...
Neighbor list info ...
  update every 1 steps, delay 10 steps, check yes
  max neighbors/atom: 2000, page size: 100000
  master list distance cutoff = 3.8
  ghost atom cutoff = 3.8
  binsize = 1.9, bins = 9 9 9
  1 neighbor lists, perpetual/occasional/extra = 1 0 0
  (1) pair lj/cut, perpetual
      attributes: half, newton on
      pair build: half/bin/atomonly/newton
      stencil: half/bin/3d
      bin: standard
WARNING: Not all mixed pair coeffs generated from mixing. Use write_data with 'pair ij' option to store all pair coeffs. (../write_data.cpp:312)


#############################
#   M E L T   S Y S T E M   #
#############################

velocity all create 2.4 8172548 mom yes dist gaussian # Assign velocities
                                                    # Temperature 2.4, random number seed, zero linear momentum
                                                                                # Gaussian distribution

timestep 0.002   # simulation timestep
thermo 1000       # output thermodynamic data every 1000 steps bf 100

# Define a fix  in this case with index 1 applied to all
# particles in the simulation. This fix is for simulations
# in the anisotropic NPT ensemble. Note that we use the MTK
# correction.
fix 1 all npt temp 2.4 2.4 0.1 iso 5.68 5.68 0.5 mtk yes tchain 5 pchain 5 # Use NPT ensemble
                                                                         # Set temperature and pressure and damping
                                                                         # Numbers of thermostats in chain and in barostat
run 10000          # run for 10000 steps
Per MPI rank memory allocation (min/avg/max) = 3.642 | 3.644 | 3.648 Mbytes
Step Temp E_pair E_mol TotEng Press Volume 
       0          2.4   -2.7429598            0   0.85614022   -1.7792645         4000 
    1000    2.3874213   -1.4943228            0    2.0859139    5.6910634    4245.4237 
    2000     2.455877   -1.5391455            0     2.143749    5.3989707    4264.6673 
    3000    2.3664208   -1.4835126            0    2.0652312    5.5587865    4286.0898 
    4000    2.4098043   -1.4849589            0    2.1288439    5.6162963    4270.3692 
    5000    2.4290152   -1.5264046            0    2.1162074    5.4717383    4263.4544 
    6000     2.436846   -1.5318322            0    2.1225229    5.6603972    4211.9161 
    7000    2.4409035   -1.4878071            0    2.1726327    5.7384713    4236.6356 
    8000    2.3354935   -1.4969116            0    2.0054527    5.6544561    4239.0347 
    9000     2.369799   -1.5179981            0    2.0358117    5.7080884    4222.8337 
   10000    2.4522328    -1.482414            0    2.1950157    5.8580357    4228.7638 
Loop time of 2.39109 on 48 procs for 10000 steps with 4000 atoms

Performance: 722682.431 tau/day, 4182.190 timesteps/s
99.6% CPU use with 48 MPI tasks x no OpenMP threads

MPI task timing breakdown:
Section |  min time  |  avg time  |  max time  |%varavg| %total
---------------------------------------------------------------
Pair    | 0.99216    | 1.0989     | 1.1911     |   3.1 | 45.96
Neigh   | 0.20298    | 0.21147    | 0.22348    |   0.9 |  8.84
Comm    | 0.70993    | 0.82403    | 0.94287    |   4.0 | 34.46
Output  | 0.00025026 | 0.00025434 | 0.00031992 |   0.0 |  0.01
Modify  | 0.21399    | 0.24125    | 0.27892    |   4.2 | 10.09
Other   |            | 0.01516    |            |       |  0.63

Nlocal:        83.3333 ave          97 max          72 min
Histogram: 2 0 6 12 14 3 4 3 2 2
Nghost:        1578.50 ave        1600 max        1551 min
Histogram: 1 3 2 5 6 12 6 4 4 5
Neighs:        9017.23 ave       10800 max        7460 min
Histogram: 1 2 6 10 12 5 5 5 1 1

Total # of neighbors = 432827
Ave neighs/atom = 108.20675
Neighbor list builds = 909
Dangerous builds = 204

# Equilibrate just above the melting temperature to avoid step fn in T

fix 1 all npt temp 1.25 1.25 0.1 iso 5.68 5.68 0.5 mtk yes tchain 5 pchain 5
run 2000
Per MPI rank memory allocation (min/avg/max) = 3.643 | 3.645 | 3.649 Mbytes
Step Temp E_pair E_mol TotEng Press Volume 
   10000    2.4522328    -1.482414            0    2.1950157    5.8580357    4228.7638 
   11000    1.2408182   -2.3295899            0  -0.46882788    5.5391356    3325.8243 
   12000    1.2167004   -2.3381551            0  -0.51356069    5.6347786    3301.7416 
Loop time of 0.582866 on 48 procs for 2000 steps with 4000 atoms

Performance: 592932.308 tau/day, 3431.321 timesteps/s
99.6% CPU use with 48 MPI tasks x no OpenMP threads

MPI task timing breakdown:
Section |  min time  |  avg time  |  max time  |%varavg| %total
---------------------------------------------------------------
Pair    | 0.25352    | 0.27833    | 0.29582    |   1.7 | 47.75
Neigh   | 0.038706   | 0.04052    | 0.042652   |   0.4 |  6.95
Comm    | 0.1899     | 0.21199    | 0.23633    |   2.2 | 36.37
Output  | 5.1854e-05 | 5.3622e-05 | 6.8773e-05 |   0.0 |  0.01
Modify  | 0.04229    | 0.047147   | 0.05141    |   1.2 |  8.09
Other   |            | 0.004821   |            |       |  0.83

Nlocal:        83.3333 ave          91 max          73 min
Histogram: 1 0 3 4 2 13 11 10 3 1
Nghost:        1866.92 ave        1897 max        1841 min
Histogram: 2 2 8 10 7 4 8 2 3 2
Neighs:        11581.3 ave       13321 max        9983 min
Histogram: 1 2 6 8 10 9 7 4 0 1

Total # of neighbors = 555904
Ave neighs/atom = 138.97600
Neighbor list builds = 142
Dangerous builds = 14

#############################
# L I N E A R  Q U E N C H  #
#############################

# Define solid atoms. This closely follows ten Wolde  Ruiz-Montero and Frenkel  Faraday Discuss  1996  104  93-110
# Compute components of the per-atom q6 vector
compute q6 all orientorder/atom degrees 1 6 components 6 nnn NULL cutoff 1.3 # compute the Q6 parameter.
                                                                             # Use all neighbours within 1.3 unit cell.

# get number of connections
compute coord_number all coord/atom orientorder q6 0.5

# An atom is solid if it has 8 or more connections (of a possible 14)
variable is_solid atom c_coord_number>=8
group solid dynamic all var is_solid    # Must be dynamic to update
dynamic group solid defined

# do clustering
compute cluster solid cluster/atom 1.3 # Create a cluster where all atoms within are solid and max 1.3 units from another member

# define chunks one chunk per cluster
compute clus_chunks solid chunk/atom c_cluster nchunk every compress yes  # Says which atoms are in which chunk

# count the size of each chunk
compute size_chunks solid property/chunk clus_chunks count


# Find the maximum entry in the vector of chunk sizes
variable max_n equal max(c_size_chunks)


# Thermo style which includes this variable
# thermo_style custom step temp pe vol v_max_n

thermo ${N}  # Print the thermo information every 100 steps
thermo 1000  

# Reset the npt fix at a lower temperature (below freezing)
fix 1  all npt temp  ${temp} ${temp}  0.1  iso  5.68  5.68  0.5  mtk yes tchain  5  pchain  5
fix 1  all npt temp  0.45 ${temp}  0.1  iso  5.68  5.68  0.5  mtk yes tchain  5  pchain  5
fix 1  all npt temp  0.45 0.45  0.1  iso  5.68  5.68  0.5  mtk yes tchain  5  pchain  5

dump dmp2 all dcd ${N} traj.dcd
dump dmp2 all dcd 1000 traj.dcd


compute msd all msd com yes
variable twopoint equal c_msd[4]/6/(step*dt+1.0e-6)
fix 9 all vector 10 c_msd[4]
variable fit equal slope(f_9)/6/(10*dt)
thermo_style custom step temp pe c_msd[4] v_twopoint v_fit v_max_n

fix 1 all npt temp 1.25 ${temp} 0.1 iso 5.68 5.68 0.5 mtk yes tchain 5 pchain 5
fix 1 all npt temp 1.25 0.45 0.1 iso 5.68 5.68 0.5 mtk yes tchain 5 pchain 5
run 5000000 # 5000000  # Run for this many steps
Neighbor list info ...
  update every 1 steps, delay 10 steps, check yes
  max neighbors/atom: 2000, page size: 100000
  master list distance cutoff = 3.8
  ghost atom cutoff = 3.8
  binsize = 1.9, bins = 8 8 8
  4 neighbor lists, perpetual/occasional/extra = 1 3 0
  (1) pair lj/cut, perpetual
      attributes: half, newton on
      pair build: half/bin/atomonly/newton
      stencil: half/bin/3d
      bin: standard
  (2) compute orientorder/atom, occasional
      attributes: full, newton on
      pair build: full/bin/atomonly
      stencil: full/bin/3d
      bin: standard
  (3) compute coord/atom, occasional
      attributes: full, newton on
      pair build: full/bin/atomonly
      stencil: full/bin/3d
      bin: standard
  (4) compute cluster/atom, occasional
      attributes: full, newton on
      pair build: full/bin/atomonly
      stencil: full/bin/3d
      bin: standard
Per MPI rank memory allocation (min/avg/max) = 9.810 | 9.817 | 9.822 Mbytes
Step Temp PotEng c_msd[4] v_twopoint v_fit v_max_n 
   12000    1.2167004   -2.3381551 4.2273084e-30 2.9356307e-32 8.3333333e+20            1 
   13000    1.2720805   -2.3179341    1.1696983 0.0074980659  0.099452844            1 
   14000    1.2562335   -2.2917279      2.47153  0.014711487   0.10427861            1 
   15000    1.2846272   -2.3188601    3.7660447   0.02092247    0.1066956       -1e+20 
   16000    1.2356265   -2.3279425    5.0583562  0.026345605   0.10754669            1 
   17000    1.2343952   -2.3105715    6.3739371  0.031244789   0.10765728            1 
   18000    1.2679946   -2.3131921    7.6081927  0.035223114   0.10739072            1 
   19000    1.2468393   -2.3117887    8.9541916  0.039272769   0.10742293            1 
   20000    1.2407441   -2.3295245    10.459136  0.043579732   0.10819902            2 
   21000     1.240868   -2.3139145    11.811422  0.046870721   0.10945405            1 
   22000    1.2418578   -2.2969853    13.047686  0.049423051   0.10971111            1 
   23000    1.2381014     -2.29742    14.298171  0.051804964   0.10978159            2 
   24000    1.2389154   -2.3370992    15.445308  0.053629539   0.10940406            2 
   25000    1.3016075   -2.3274778    16.866479  0.056221594    0.1091752            1 
   26000    1.2398897   -2.3053403    18.168532  0.058232472   0.10920442            1 
   27000    1.2305834   -2.3256153    19.571835  0.060406897   0.10933633            1 
   28000    1.2669824    -2.318772    20.774359  0.061828449   0.10946884            2 
   29000    1.2316793   -2.3258795    22.087918  0.063471028    0.1094217            1 
   30000    1.2365467   -2.3107399    23.351075  0.064864095    0.1092728            1 
   31000    1.2583026   -2.3024349    24.894199  0.066919888   0.10924904            1 
   32000    1.2256777   -2.3169778    26.353475  0.068628841   0.10940335            1 
   33000     1.255085   -2.3278877    27.701446  0.069953145   0.10965539            1 
   34000     1.240186   -2.3291057     29.05996  0.071225392   0.10987992            1 
   35000    1.2337915   -2.3340937    30.770061  0.073262049   0.11021032            1 
   36000    1.2222531   -2.3337769    31.810862  0.073636253   0.11057574            2 
   37000    1.2365899    -2.300797    33.338869  0.075087543   0.11080153            1 
   38000    1.2489802   -2.3009623    34.829186  0.076379793   0.11115038            1 
   39000    1.2327057   -2.3067302    36.172599  0.077291878   0.11145605            1 
   40000    1.2589229   -2.3514415      37.3337  0.077778542   0.11162916            1 
   41000    1.2308094   -2.3250653    38.892641  0.079050083   0.11183142            2 
   42000    1.2455677   -2.3191393    40.021981  0.079408691   0.11190955            2 
   43000    1.2248904   -2.3538168     41.38042  0.080194611   0.11198563            1 
   44000    1.2455248   -2.3084207     42.78986  0.081041401   0.11204984            2 
   45000    1.2413541   -2.3162066    44.084224  0.081637451   0.11210848            1 
   46000    1.2235997   -2.3421182    45.144459  0.081783438   0.11215619            1 
   47000    1.2242282   -2.2909984    46.815178  0.083005634   0.11216984            1 
   48000    1.2342155   -2.3241654    48.067792  0.083451027   0.11221992            1 
   49000    1.2570777   -2.3002006    49.739527  0.084591031   0.11229458            3 
   50000    1.2226892   -2.2969031    51.523264  0.085872106   0.11246445            2 
   51000    1.2286904    -2.307851    53.000932  0.086602829   0.11265058            1 
   52000    1.2444352   -2.3330135    54.290136  0.087003423   0.11280157            1 
   53000    1.2382772   -2.3257594    55.347201    0.0870239   0.11295601            1 
   54000    1.2284962   -2.3038062     56.77667  0.087618317   0.11302894            1 
   55000    1.2319667    -2.311802    57.937177    0.0877836   0.11310799            1 
   56000    1.2213396   -2.3500208    59.037066  0.087852776   0.11313156            1 
   57000    1.2431286   -2.3055673    60.632894  0.088644582   0.11316984            2 
   58000    1.2105978   -2.3038223    61.515051  0.088383693   0.11315228            2 
   59000    1.2282773   -2.3263235    62.867134  0.088795386   0.11311957            1 
   60000    1.2493696   -2.3053154    64.412832  0.089462266   0.11305442            3 
   61000    1.2583514   -2.3171973    65.713028  0.089771896   0.11302066            1 
   62000     1.266757   -2.2881573    66.563743  0.089467396   0.11295265            1 
   63000     1.249481   -2.3300222    68.112358  0.090095711   0.11284706            3 
   64000    1.2348701   -2.3035111    69.103602  0.089978648   0.11274434            1 
   65000     1.270076   -2.3311402    70.687452  0.090624938   0.11264979            1 
   66000    1.2634618   -2.3216229    71.971796  0.090873479   0.11254888            2 
   67000    1.2719835   -2.3331825    73.029266   0.09083242   0.11242219            2 
   68000    1.2318897   -2.3406261    74.369484  0.091139073   0.11230038            3 
   69000     1.267446   -2.3201511    75.915405  0.091685271   0.11220081            3 
   70000    1.2347147   -2.3355742    77.335502  0.092066073   0.11213763            3 
   71000      1.24667   -2.3545175    78.497834  0.092133607   0.11211204            2 
   72000    1.2554903   -2.3157398    80.480022  0.093148173    0.1120957            2 
   73000    1.2407463   -2.3082812    82.315136  0.093967049   0.11216122            2 
   74000    1.2385667   -2.3492444    83.449542  0.093974709   0.11224565            3 
   75000    1.2333737   -2.3294559    84.620866  0.094023184   0.11229707            1 
   76000    1.2350397   -2.3668976    85.651656  0.093916289   0.11230837            2 
   77000    1.2189119   -2.3677686    86.677703  0.093807037   0.11230128            1 
   78000    1.2319053   -2.3006083    88.829904  0.094903743   0.11231201            1 
   79000    1.2363629   -2.3077714    89.672876  0.094591641   0.11233235            1 
   80000    1.2333802   -2.3328702    91.489993  0.095302076   0.11236709            1 
   81000    1.2283201   -2.3503305    93.038107  0.095718216    0.1124127            2 
   82000    1.2506335    -2.310346    93.837281   0.09536309    0.1123927            1 
   83000     1.235748   -2.3382269    94.209128  0.094587477   0.11235269            2 
   84000     1.238356   -2.3397693     96.13519  0.095372212   0.11230615            1 
   85000    1.2311113   -2.3271972    97.976694  0.096055581   0.11227971            2 
   86000    1.2476139   -2.3298046     99.22889  0.096152024   0.11226359            5 
   87000    1.2494418   -2.3335839    100.39386  0.096162702   0.11224868            1 
   88000    1.2697519   -2.3323612    101.38357  0.096007165     0.112248            1 
   89000    1.2463638    -2.322395    103.19529  0.096624805   0.11222069            2 
   90000    1.2673096   -2.3347465    104.22739  0.096506842    0.1122031            1 
   91000    1.2525705   -2.3221174    106.26887  0.097315817   0.11218999            1 
   92000    1.2275991    -2.359441     107.7177  0.097570381   0.11221042            1 
   93000    1.2610901    -2.334532     108.3598  0.097096594   0.11222055            1 
   94000    1.2533135   -2.3435144    110.42092  0.097890886   0.11224698            4 
   95000    1.2266622    -2.328499    111.52622  0.097830021   0.11225838            2 
   96000    1.2375582   -2.3067324    112.97429  0.098067957   0.11226892            4 
   97000    1.2444431   -2.3162405    114.87684  0.098691441   0.11230202            1 
   98000    1.2582917   -2.3412713    116.32017  0.098911705   0.11233962            1 
   99000    1.2331851   -2.3481773    117.48521  0.098893274   0.11238519            3 
  100000    1.2087369   -2.3405063    118.33593  0.098613277   0.11242226            1 
  101000    1.2403238   -2.3294501    119.54887  0.098637683   0.11243502            1 
  102000    1.2333947   -2.3266071    121.17814  0.099001751   0.11242402            1 
  103000    1.2222735   -2.2983498    122.73875  0.099303191   0.11240869            2 
  104000    1.2481966    -2.328473    123.20291  0.098720281   0.11240802            1 
  105000    1.2254581   -2.3224164    124.73769  0.098998168   0.11237409            2 
  106000    1.2267826   -2.3438991    124.98211  0.098256377   0.11232525            5 
  107000    1.2432755   -2.3489904    126.86233   0.09880244   0.11226954            1 
  108000    1.2314074   -2.3274958    127.84983  0.098649559   0.11224835            1 
  109000    1.2243235   -2.3468794    128.98664  0.098613636   0.11221528            1 
  110000    1.2372178   -2.3161074    129.41275  0.098039961    0.1121496            3 
  111000    1.2161583   -2.3359064    131.09086  0.098416563   0.11206932            1 
  112000    1.2208907    -2.352639    132.78644  0.098799433   0.11199077            1 
  113000    1.2590192    -2.302649    134.01367  0.098830142   0.11192816            3 
  114000    1.2374154   -2.3084295    134.87422  0.098592263    0.1118487            1 
  115000    1.2208212    -2.352827    135.82458  0.098423611   0.11176475            1 
  116000    1.2317245   -2.3121051    137.79523  0.098990826   0.11167866            1 
  117000    1.2486648   -2.3625512    138.95329  0.098969577   0.11159937            1 
  118000    1.2615541   -2.3179424    139.13583  0.098259768   0.11152242            2 
  119000    1.2039764   -2.3338483    141.10335  0.098811872   0.11143949            1 
  120000    1.2308119    -2.309362    141.97997  0.098597204     0.111358            2 
  121000    1.2271548    -2.346353    143.15248   0.09858986    0.1112736            1 
  122000    1.2375903   -2.2940678    144.19318  0.098492607   0.11118696            1 
  123000    1.2467159   -2.3331336    145.57185  0.098625913   0.11109044            1 
  124000    1.2409609   -2.3194726     146.7317   0.09861001   0.11099579            1 
  125000    1.2529153   -2.3375668      148.372  0.098914664   0.11089809            1 
  126000    1.2569935   -2.3124912    149.48155  0.098863461   0.11080701            1 
  127000    1.2202595   -2.3351909    150.62002  0.098832034   0.11071648            2 
  128000    1.2188191   -2.3351869    152.87364  0.099527109   0.11062937            1 
  129000    1.2180346   -2.3305826    153.30441  0.099033859   0.11055781            1 
  130000    1.2519611   -2.3405753    155.34194  0.099578167   0.11048305            2 
  131000     1.226592   -2.2939594    155.45412  0.098889386   0.11040038            2 
  132000    1.2323042   -2.3812922    157.27441  0.099289403   0.11031958            2 
  133000    1.2276236   -2.3262075    158.92707  0.099578365   0.11023656            3 
  134000    1.2624936   -2.3158328    158.87153  0.098800701   0.11015615            1 
  135000    1.2330024   -2.3467364    159.97454  0.098749714   0.11006773            1 
  136000    1.1987875    -2.344061    161.80893  0.099147631    0.1099774            1 
  137000    1.2497714   -2.3503968    163.23702  0.099292592   0.10989439            1 
  138000    1.2400658   -2.3450273    164.07942  0.099081773   0.10980753            2 
  139000    1.2064293   -2.3365762    165.34723  0.099129034   0.10971876            1 
  140000     1.233085   -2.3427108    166.13247  0.098888374   0.10963277            1 
  141000    1.2484152   -2.3464612    167.73504  0.099134185   0.10953543            2 
  142000    1.2136485   -2.3362085    167.94001  0.098556345    0.1094474            3 
  143000    1.2380765   -2.3421767    170.67547  0.099461231   0.10937318            1 
  144000    1.2438256   -2.3417877    171.70284  0.099365067   0.10930036       -1e+20 
  145000    1.2076239   -2.3307716    173.30502  0.099600589   0.10923389            1 
  146000    1.2264655    -2.324698    174.79867  0.099770933   0.10917558            2 
  147000    1.2421659   -2.3468261    175.50583  0.099493098   0.10912468            1 
  148000    1.2394511     -2.34298    176.25975  0.099245352   0.10906911            1 
  149000    1.2036241    -2.351728    177.17879   0.09909328   0.10899419            2 
  150000    1.2289458   -2.3515841    178.29586  0.099053257   0.10891775            2 
  151000    1.2446607   -2.3367022    180.14815  0.099419507   0.10885089       -1e+20 
  152000    1.2129161   -2.3354468    181.34528  0.099421754   0.10878554            1 
  153000    1.2545576   -2.3652755    183.17774  0.099770012   0.10872693            3 
  154000    1.2229307   -2.3181656    184.06971  0.099604818   0.10867947            2 
  155000      1.19892   -2.3523102    185.61245  0.099791639   0.10864022            4 
  156000    1.2321703   -2.3668978    186.46414   0.09960691   0.10859824            1 
  157000    1.2054363   -2.3337656    189.14674   0.10039636    0.1085549            6 
  158000    1.2124115   -2.3289908    190.18247   0.10030721   0.10851515            1 
  159000    1.2130583   -2.3120865    190.37137  0.099775351   0.10847519            1 
  160000    1.1963521   -2.3447082    191.02433   0.09949184   0.10842686            1 
  161000    1.2225353    -2.346491    191.92086  0.099337921   0.10837559            2 
  162000     1.228958    -2.342703    194.44701   0.10002418   0.10833361            2 
  163000    1.2251496   -2.3660004    195.55301  0.099975978   0.10828076            1 
  164000     1.248646   -2.3220097    197.41874    0.1003144   0.10823356            1 
  165000    1.2443228   -2.3701667    198.52221   0.10026374   0.10818737            3 
  166000    1.2310215   -2.2830705    199.01853  0.099908902   0.10813822            1 
  167000    1.2240116    -2.355415    200.97938   0.10028911    0.1080917            3 
  168000    1.2330736   -2.3235628    202.23294   0.10031396    0.1080498            2 
  169000    1.2029056   -2.3238651    203.86136   0.10052335   0.10801568            1 
  170000     1.243374   -2.3710934    204.80589   0.10039504   0.10798223            2 
  171000    1.2138892   -2.3357441    205.81985   0.10030207   0.10793724            1 
  172000     1.259437   -2.3815041    206.82392   0.10020539   0.10789275            1 
  173000    1.2109688   -2.3353743    207.62562   0.10001234    0.1078421            1 
  174000    1.1992591   -2.3485649    209.36692   0.10027151     0.107789            1 
  175000    1.2272311   -2.3085492    210.41754   0.10019883    0.1077409            1 
  176000    1.2145044   -2.3658975     210.9644  0.099888448    0.1076948            1 
  177000    1.2466063   -2.3181304    213.29304   0.10042045   0.10765211            1 
  178000    1.2241367   -2.3585656    215.33645   0.10081295   0.10761885            2 
  179000    1.2174537    -2.357614    216.13018   0.10061927   0.10759384            2 
  180000    1.2087212   -2.3675783    217.34367   0.10062207   0.10757078            1 
  181000    1.2195971   -2.3473041    219.16698   0.10090561   0.10755104            1 
  182000    1.1955198   -2.3513418    219.65025   0.10057246    0.1075299            1 
  183000    1.2438687   -2.3271999     221.1518   0.10070665   0.10750576            1 
  184000    1.2097189   -2.3305508    223.07901   0.10103216   0.10747895            2 
  185000    1.2157701   -2.3526939    223.34165   0.10060435   0.10746001            1 
  186000    1.2050191   -2.3496822     225.1634   0.10087966    0.1074271            1 
  187000      1.22153   -2.3287882    225.47876   0.10048073   0.10740093            1 
  188000    1.2428429   -2.3543271    227.41788    0.1008058   0.10737392            2 
  189000    1.2465349   -2.3678341    227.92172   0.10049459   0.10734537            2 
  190000    1.2207657   -2.3257266    229.31936   0.10057867   0.10731408            1 
  191000    1.2054137    -2.339427    231.16655     0.100858    0.1072815            1 
  192000    1.2146557   -2.3315493    232.64335   0.10097368    0.1072408            1 
  193000     1.223655   -2.3933107    231.02566  0.099752014   0.10719577            2 
  194000    1.2369434   -2.3304464    234.14088   0.10057598   0.10714856            2 
  195000    1.2196269   -2.3506886    236.23359   0.10095453   0.10710777            1 
  196000    1.2026504   -2.3612189    235.81975    0.1002635   0.10707203            3 
  197000    1.2063808   -2.3606174     237.0248    0.1002643   0.10704064            2 
  198000    1.2270681   -2.3260252    239.10031   0.10063145   0.10701011            5 
  199000    1.2051911   -2.3534497    241.01441   0.10092731   0.10698336            1 
  200000    1.1961764   -2.3488508    243.25223    0.1013551   0.10696775            1 
  201000    1.1997379   -2.3343277    244.94733   0.10155362   0.10695096            2 
  202000    1.2145071   -2.3521217    246.03696    0.1015004   0.10694423            1 
  203000    1.2263953   -2.3313533    248.54026   0.10202802   0.10694036            2 
  204000    1.2499957   -2.3712401    248.83781   0.10164943    0.1069373            2 
  205000     1.201547   -2.3703407    249.47854   0.10141404   0.10693637            2 
  206000    1.1990454    -2.347188    252.60371   0.10218597   0.10693955            2 
  207000    1.2229523   -2.3298811    252.92317   0.10182092   0.10694331            1 
  208000    1.2228024   -2.3785052    253.05214   0.10138307   0.10694327            1 
  209000    1.2227142   -2.3335227    255.42444   0.10184388   0.10694596            1 
  210000    1.1883023   -2.3508171    255.79922   0.10150763    0.1069556            3 
  211000    1.2442372   -2.3554956    257.64811   0.10175676   0.10696011            1 
  212000    1.1980461   -2.3234933    259.39338   0.10196281   0.10696674            1 
  213000    1.2033503   -2.3667559    260.13257    0.1017733   0.10697697            1 
  214000    1.2103921   -2.3478579    263.22003   0.10250001   0.10697761            1 
  215000    1.2206142   -2.3308203    263.55521   0.10215318    0.1069892            2 
  216000    1.2081352   -2.3341186    264.98464   0.10223173   0.10699578            1 
  217000     1.223804   -2.3479824    265.10235   0.10180582   0.10700332            1 
  218000     1.210928   -2.3313798    267.01057   0.10206826   0.10701382            1 
  219000    1.2435107   -2.3344298    269.10683   0.10239986   0.10701791            2 
  220000    1.1918311   -2.3474075    271.36123   0.10278834   0.10703029            2 
  221000    1.2170153   -2.3416354    271.21712    0.1022689   0.10703999            3 
  222000    1.2365009   -2.3420711    272.76131   0.10238788   0.10704325            1 
  223000    1.2314413   -2.3599849    273.91219   0.10235882   0.10704452            3 
  224000    1.2163919   -2.3470781    274.91735    0.1022758   0.10704235            2 
  225000    1.2331354   -2.3716965    275.87484   0.10217587   0.10704561            3 
  226000    1.1873396   -2.3584878     277.1701   0.10220136   0.10705008            1 
  227000    1.1658175   -2.3605063    279.38674   0.10256488   0.10705362            1 
  228000    1.2316766   -2.3508537    281.34587   0.10283109   0.10705692            2 
  229000    1.2245775   -2.3771227    281.51757   0.10244453   0.10705706            2 
  230000     1.205323   -2.3605562    282.42379   0.10232746   0.10705865            3 
  231000    1.2182976   -2.3525734     283.1738   0.10215505   0.10706159            1 
  232000    1.2233819   -2.3416235    286.28271   0.10283143   0.10706701            1 
  233000    1.2163706   -2.3623183    285.49912   0.10210984   0.10707401            3 
  234000    1.2119449     -2.36043    288.61406   0.10278279   0.10708005            3 
  235000    1.2227735   -2.3350438    287.80818   0.10205964   0.10708018            2 
  236000    1.2430464   -2.3750255    289.50139   0.10222507    0.1070728            1 
  237000    1.2156757   -2.3463243     292.0246   0.10268094   0.10707386            3 
  238000    1.2189946     -2.37211    293.50786   0.10276886   0.10707266       -1e+20 
  239000    1.1959665   -2.3697221    293.70408   0.10240728   0.10707412            1 
  240000    1.2084084   -2.3607028    295.85182   0.10272633   0.10707036            2 
  241000     1.222808   -2.3423253    296.08468   0.10238059   0.10707033            1 
  242000    1.2234871   -2.3529202     297.8087    0.1025512   0.10707084            3 
  243000    1.2266032   -2.3354817    299.07305   0.10256277   0.10706901            2 
  244000    1.1983579   -2.3549824    299.92958   0.10243497   0.10706333            1 
  245000    1.2247754   -2.3325372    302.42732   0.10286643   0.10706163            1 
  246000    1.2142997   -2.3627692    303.80035    0.1029134   0.10705731            1 
  247000    1.2282492   -2.3524719    304.06453   0.10258587   0.10705573            4 
  248000    1.2060856   -2.3596093    305.47381   0.10264577   0.10704997            2 
  249000    1.1926769   -2.3409255    307.42633   0.10288699    0.1070464            1 
  250000    1.1736066   -2.3564319    308.62181   0.10287393   0.10704835            2 
  251000    1.2097958   -2.3401327    310.08766   0.10295075   0.10704704            3 
  252000    1.2057691   -2.3734269    310.81807   0.10278375    0.1070475            2 
  253000    1.2206887   -2.3497713    312.67298   0.10298846   0.10705565            2 
  254000    1.2062722   -2.3648942    313.21072   0.10275942   0.10706358            1 
  255000    1.2246729   -2.3632631    315.43333   0.10308279   0.10706672            1 
  256000    1.2412329   -2.3652874    316.05395   0.10288214   0.10707528            1 
  257000    1.2016295   -2.3625827    318.90693   0.10340692   0.10707931            1 
  258000    1.2227522   -2.3754973     317.9432   0.10269483   0.10708406            1 
  259000     1.205935   -2.3569525    321.07007    0.1033044   0.10708376            1 
  260000    1.2300128   -2.3347798    321.74831   0.10312446   0.10708221            2 
  261000    1.2162496   -2.3443215    321.60511   0.10268363   0.10708467            2 
  262000    1.1950117   -2.3533852    324.31425   0.10315339   0.10708345            1 
  263000    1.1745177   -2.3416948     323.0928   0.10237415   0.10708335            2 
  264000    1.2276568   -2.3518261    325.28526   0.10267843   0.10708412            1 
  265000    1.2164836   -2.3569525    326.55617   0.10269062     0.107083            3 
  266000    1.2299648   -2.3525539    328.20337   0.10282061   0.10707809            3 
  267000    1.1850631   -2.3520718    329.07107   0.10270633   0.10707369            1 
  268000    1.2072188   -2.3508309    330.29885   0.10270487    0.1070694            1 
  269000    1.2088188   -2.3725279    330.09613   0.10226026   0.10706521            1 
  270000    1.2229595   -2.3592713    332.06348   0.10248873   0.10705693            1 
  271000    1.2247946   -2.3195355    334.47125   0.10285094    0.1070509            1 
  272000    1.2312454   -2.3545508    333.57463   0.10219811   0.10704223            1 
  273000    1.2050436   -2.3566442    336.02466   0.10257163   0.10702838            1 
  274000    1.2186128   -2.3506985    337.62029   0.10268257    0.1070151       -1e+20 
  275000    1.2240775   -2.3637151    339.28715   0.10281429   0.10700095            1 
  276000    1.2329894   -2.3430826    338.37538   0.10216648   0.10699091            1 
  277000      1.17721   -2.3427801    340.65677   0.10248399   0.10698132            1 
  278000    1.1999377   -2.3445553    343.11746   0.10285295    0.1069672            1 
  279000    1.2101805   -2.3661742      342.669   0.10235036   0.10695532            2 
  280000    1.2272976   -2.3761274    345.50369   0.10282848   0.10694614            1 
  281000    1.1794708   -2.3559541    346.32927   0.10270738    0.1069378            2 
  282000    1.2160995   -2.3939056     346.3917   0.10236161   0.10692498            4 
  283000    1.2145446   -2.3780218    349.08897   0.10279416    0.1069158            1 
  284000    1.1735957   -2.3521685    352.60394    0.1034636   0.10690935            1 
  285000    1.2115391   -2.3616686    353.16533   0.10326472   0.10690192            2 
  286000    1.2256549   -2.3489847    354.99449   0.10343662   0.10689874            2 
  287000    1.2140571   -2.3861077    354.73467   0.10300077   0.10689776            1 
  288000    1.1805946   -2.3868872    355.49243   0.10286239   0.10689226            1 
  289000     1.199462   -2.3713985    356.55259   0.10281217   0.10688892            4 
  290000    1.2156389   -2.3508955    360.56773   0.10361142   0.10689067            2 
  291000    1.1946011   -2.3273862     360.6104   0.10326758   0.10689283            1 
  292000    1.2063477   -2.3695779    362.13499   0.10334903   0.10689054            3 
  293000    1.1975259   -2.3455746    362.80991   0.10318825   0.10688792            1 
  294000      1.21578   -2.3774473    364.55363   0.10333153   0.10688722            2 
  295000    1.1776266   -2.3670434    363.74122   0.10275176   0.10688427            1 
  296000    1.2023893   -2.3591872    365.82176   0.10299036   0.10687899            2 
  297000    1.2148698   -2.3416268    365.93594   0.10267563   0.10687142            1 
  298000    1.2015282   -2.3299474    370.53231   0.10361642   0.10686688            1 
  299000    1.2240343   -2.3333892     372.0246   0.10368579   0.10686392            1 
  300000    1.2079962   -2.3255967    370.81138   0.10300316   0.10686023            1 
  301000    1.2169931   -2.3591877     371.8494   0.10294834   0.10685868       -1e+20 
  302000    1.2038979   -2.3648698    374.62718   0.10337395   0.10685717            1 
  303000    1.2011466   -2.3856057    377.05271   0.10369986    0.1068565            1 
  304000    1.2181497   -2.3534884    376.88052   0.10331155   0.10685546            1 
  305000    1.2022261   -2.3553072    377.03661   0.10301547    0.1068558            1 
  306000    1.1913547   -2.3772651    379.39613   0.10332138   0.10686057            3 
  307000    1.2232257   -2.3420056    383.58774   0.10412262   0.10686989            1 
  308000    1.2110104    -2.401926    382.57808   0.10351139   0.10687763            2 
  309000    1.1868892   -2.3679047    384.16318   0.10360388   0.10688592            1 
  310000    1.2033197    -2.363389    385.17226   0.10354093   0.10689227            1 
  311000    1.2198236   -2.3649938    387.23604     0.103761   0.10689635            2 
  312000    1.1805094   -2.3606934    387.88086   0.10360066   0.10690607            1 
  313000    1.1938397   -2.3553118    391.03013   0.10410813   0.10691408            2 
  314000    1.1808868   -2.3814527    390.29531   0.10358156   0.10692103            2 
  315000    1.2001464    -2.345584    393.16468   0.10401182   0.10692931            1 
  316000    1.2260221   -2.3787137    392.66659   0.10355132   0.10693788            2 
  317000     1.201167   -2.3691654    395.51554   0.10397359   0.10694421            1 
  318000    1.1830665   -2.3551029     396.4989   0.10390432   0.10694699            1 
  319000    1.1954929   -2.3699929    397.37526   0.10380754   0.10694747            2 
  320000    1.1984442   -2.3632451     398.0661   0.10366305   0.10694921            1 
  321000    1.2269656   -2.3937264    401.02249    0.1041076   0.10695091            1 
  322000    1.1974799    -2.378788    403.01681   0.10430042   0.10695402            4 
  323000    1.2205181     -2.35795    404.15174   0.10427031   0.10695916            1 
  324000    1.2041428   -2.3671478    403.72375   0.10383841   0.10696498            1 
  325000    1.1821655   -2.3720656     404.5506   0.10373092   0.10696486            4 
  326000    1.2123325   -2.3666299     404.8427    0.1034874    0.1069626            2 
  327000    1.2108637   -2.3955844    406.48202   0.10358869   0.10695941            1 
  328000    1.2199499   -2.3775505    408.31264   0.10373797   0.10695585            2 
  329000    1.1943647   -2.3673943    408.51612   0.10347419   0.10695742            1 
  330000    1.1959872   -2.3742001    409.52259    0.1034148   0.10695803            1 
  331000    1.2151629   -2.3612656    411.26508   0.10354106   0.10695421            1 
  332000    1.2085189   -2.3641275    413.42074   0.10377027   0.10695075            1 
  333000    1.1823809   -2.3666728    414.29573   0.10367761   0.10694955            3 
  334000    1.2008808   -2.3309269    413.35155   0.10313162   0.10694765            1 
  335000    1.2105704   -2.3873526    415.85805   0.10344728   0.10694319            1 
  336000    1.2225576    -2.391681    416.57024   0.10331603   0.10693559            3 
  337000     1.182792   -2.3793986    417.42744   0.10322142   0.10692938            1 
  338000    1.1966646   -2.3806723    420.12709   0.10358163   0.10692274            2 
  339000    1.2071959   -2.3619083    420.15356   0.10328258   0.10691514            2 
  340000    1.2288654    -2.391596    421.48005   0.10330393   0.10690585            1 
  341000      1.21963   -2.3697334    420.75449   0.10282368   0.10689754            2 
  342000    1.2054159   -2.3554223    423.81403   0.10326853    0.1068853            1 
  343000    1.2065912   -2.4041048    421.35716   0.10237054   0.10686867            1 
  344000     1.171499   -2.3259157    424.79512    0.1029058   0.10685115            1 
  345000    1.1962877   -2.3387781    425.80978    0.1028526   0.10683448            1 
  346000    1.2088053   -2.3790752     427.1286   0.10287298   0.10681522            2 
  347000    1.1959605   -2.3482374    427.41925   0.10264631   0.10680156            1 
  348000    1.2127309   -2.3786173    430.92204   0.10319014    0.1067854            1 
  349000    1.2054447   -2.3468615    433.59722   0.10353324   0.10677351            1 
  350000    1.1754064   -2.3696258    433.00996   0.10309761   0.10675979            1 
  351000    1.2107738    -2.375625    432.38804   0.10265623   0.10674474            3 
  352000    1.2048737    -2.381437    436.25791   0.10328075   0.10672837            1 
  353000     1.193441   -2.3667704    435.43271   0.10279337   0.10671383            1 
  354000    1.2080234   -2.3580689      437.176   0.10291337   0.10669723            5 
  355000    1.1837016   -2.3632727    436.85403   0.10254789   0.10668174            1 
  356000    1.1939253   -2.3851515    440.89661   0.10320614   0.10666574            2 
  357000    1.1871636   -2.3630242     441.5618   0.10307232   0.10665121            2 
  358000    1.2023901   -2.3647375    442.91173   0.10309863   0.10663593            2 
  359000    1.1818168    -2.351055    441.81011   0.10255574   0.10662189            1 
  360000    1.2104559   -2.3607034    444.29416   0.10284587   0.10660737            1 
  361000    1.1969155   -2.3606779    446.22662   0.10300707   0.10659115            4 
  362000    1.1983039   -2.3868178    445.06998   0.10245626   0.10657781            1 
  363000    1.1761292   -2.3896679     448.3576   0.10292874   0.10656107            2 
  364000    1.1952403   -2.3801548    447.85405   0.10253069   0.10654667            2 
  365000    1.2049369   -2.3452591    451.73609   0.10313609   0.10652993            1 
  366000    1.1965044   -2.3710296    453.33804   0.10321904   0.10651122            1 
  367000    1.2004226   -2.3939401    451.42166   0.10250265   0.10649346            1 
  368000    1.1780298   -2.3832667    452.63144   0.10249806   0.10647158            1 
  369000    1.2052463   -2.3921099    454.57428   0.10265905   0.10645116            2 
  370000    1.1943139   -2.3666317    455.84713   0.10266827   0.10643033            2 
  371000    1.2190682   -2.3774099    456.81007   0.10260783   0.10641207            1 
  372000    1.2006543   -2.3711603    455.70958   0.10208548   0.10639641            1 
  373000    1.1735301   -2.3598982     458.3927   0.10241124   0.10637742            2 
  374000    1.2176914   -2.3703646    461.39178   0.10280566   0.10635995            1 
  375000    1.1846671   -2.3832977    462.25733   0.10272385   0.10634287            3 
  376000    1.2093632   -2.3837638     462.5786   0.10252185   0.10632479            1 
  377000    1.2006109   -2.3826495    463.07015   0.10235856   0.10630389            2 
  378000    1.1737383   -2.3740561    466.13298     0.102763   0.10628423            3 
  379000    1.1583132   -2.3779358    468.38296   0.10298658   0.10626216            1 
  380000    1.1754635   -2.3717178    466.96009   0.10240353   0.10624331            2 
  381000      1.19498   -2.3922215    468.07991   0.10237968   0.10622525            2 
  382000    1.1985994   -2.3641279    471.16405   0.10278448   0.10620867            1 
  383000    1.2047288    -2.343849    474.09873   0.10315464   0.10619109            1 
  384000    1.2058242   -2.4092349    472.52323    0.1025441   0.10617475            2 
  385000    1.1870468   -2.3734862    471.81049   0.10212348   0.10615755            1 
  386000    1.2025962   -2.3640032    476.61876   0.10289697   0.10614289            1 
  387000    1.2040999   -2.3564642     476.6829    0.1026449   0.10612779            1 
  388000    1.2075925   -2.3703588    477.00484   0.10244949   0.10611133            2 
  389000    1.1924757   -2.3482323    481.10867   0.10306527   0.10609487            1 
  390000    1.1993267     -2.38899    479.97213   0.10255815   0.10607903            1 
  391000    1.1820691   -2.3650732    480.84324   0.10248151   0.10606424            3 
  392000    1.1593707   -2.3598198    484.05444   0.10290273   0.10605079            2 
  393000    1.1916857   -2.3884429    484.61535   0.10275983   0.10603471            1 
  394000    1.1816433   -2.3596304    484.89644   0.10255847    0.1060178            1 
  395000    1.1857354   -2.3749091    485.71331   0.10247116   0.10599803            1 
  396000    1.2035617   -2.3995549    486.67899   0.10241561   0.10598152            2 
  397000    1.1959927   -2.3713142    491.18736   0.10310398   0.10596681            1 
  398000    1.1951225   -2.3950364    490.34636   0.10266884   0.10595334            2 
  399000    1.1890072   -2.3607693    493.84952   0.10314317   0.10594144            2 
  400000    1.1921719   -2.3802955     493.2648    0.1027635   0.10593019            1 
  401000    1.1777846   -2.3564411    493.75209    0.1026085   0.10591664            1 
  402000    1.1660628   -2.3730741    494.67141   0.10254383   0.10590469            2 
  403000    1.1814694   -2.3600479    494.97528   0.10235221   0.10589108            1 
  404000    1.1501818   -2.3419348    500.91439   0.10332393   0.10588473            1 
  405000    1.1984899   -2.3469123    498.98156    0.1026711   0.10587533            1 
  406000    1.1724621   -2.3693352    504.28327   0.10350642   0.10586832            2 
  407000     1.180671   -2.3622772    503.26779   0.10304418   0.10586256            2 
  408000    1.2023383    -2.356983    504.98924   0.10314323   0.10585292            2 
  409000    1.1920455   -2.3759085    505.90998   0.10307864   0.10584642            1 
  410000    1.2048145   -2.3809666     503.1597   0.10226823   0.10583467            1 
  411000    1.2001979   -2.3970464    507.13585    0.1028256   0.10582222            2 
  412000    1.1936305   -2.3841131    506.46237    0.1024398   0.10581051            1 
  413000    1.1799279   -2.3563224    509.42524    0.1027896   0.10579671            1 
  414000    1.1862015   -2.3850757    509.28262    0.1025126   0.10578218            2 
  415000    1.1688151   -2.3971469    510.17198   0.10244417   0.10576711            2 
  416000    1.1963156   -2.3589343    513.64677   0.10289398   0.10575648            1 
  417000    1.1799439    -2.386566    516.00986   0.10311948   0.10574437            2 
  418000    1.2089256   -2.3819261    514.16966   0.10250591   0.10572997            1 
  419000    1.1936411     -2.37313    518.35809   0.10309429   0.10571803            1 
  420000    1.1915173   -2.3742848     521.9906   0.10356956   0.10570692            1 
  421000    1.1848515   -2.3784158    518.02871   0.10253933   0.10569632            1 
  422000    1.1950939   -2.3818164    518.09466   0.10230937   0.10568407            1 
  423000    1.1933478   -2.4001266    522.45913   0.10292733   0.10567099            1 
  424000    1.1889908   -2.3716457    521.18015    0.1024332   0.10565768            2 
  425000    1.1837532   -2.3846511    522.55239   0.10246125   0.10564473            1 
  426000    1.1858006   -2.4235613    526.11226   0.10291711   0.10563019            3 
  427000    1.2204285   -2.4037672    526.91431   0.10283261   0.10561715            3 
  428000    1.2205577   -2.3717377    527.54219    0.1027146   0.10560539            1 
  429000    1.1872729   -2.4090147    525.83177   0.10214292    0.1055949            1 
  430000    1.1911698   -2.3695833    528.95404   0.10251047   0.10557993            1 
  431000    1.1790705   -2.4081821    527.00191   0.10189519    0.1055646            1 
  432000    1.1769379   -2.4279426    531.82579   0.10258985   0.10554801            1 
  433000    1.1716525   -2.3853064    531.48685   0.10228769   0.10553252            3 
  434000    1.1758169   -2.3781466    535.23869   0.10277241   0.10551722            3 
  435000    1.1541496   -2.3757038    536.11981   0.10270495    0.1055015            1 
  436000    1.1941222   -2.3589315    539.23515   0.10306482   0.10548635            1 
  437000    1.1590797   -2.4025799    533.20379   0.10167883   0.10547043            1 
  438000    1.1954326   -2.4090281    537.79613   0.10232042   0.10545456            2 
  439000    1.1624192   -2.3546217    543.38459   0.10314818   0.10544249            1 
  440000    1.1857887   -2.3582662    540.45135   0.10235821   0.10543112            1 
  441000    1.1717512   -2.3864919    542.76271   0.10256287   0.10541995            1 
  442000    1.1725236    -2.389888    542.75224   0.10232885   0.10540619            2 
  443000      1.17651    -2.377382    545.50512   0.10261571   0.10539408            1 
  444000    1.1698506   -2.3901726    545.83807   0.10244708   0.10538229            2 
  445000    1.1727412   -2.3777175    548.76388   0.10276477   0.10537163            1 
  446000    1.1785413   -2.3980799    547.86444    0.1023663   0.10536295            2 
  447000    1.1915105   -2.3702591    552.06243   0.10291992   0.10535209            1 
  448000    1.1845972   -2.3803806    552.14407   0.10270537   0.10534037            2 
  449000    1.1688019   -2.3816207    553.14282   0.10266199   0.10532989            2 
  450000    1.1848329   -2.3921475    554.14754   0.10261991   0.10531688            1 
  451000    1.1868474   -2.4040971    555.46352   0.10263554    0.1053053            3 
  452000    1.1635873   -2.3660478    556.07831   0.10252181    0.1052916            2 
  453000    1.1712687   -2.3665323    557.68338   0.10259076   0.10527652            2 
  454000    1.1740918   -2.4034094    557.91331     0.102407   0.10526273            1 
  455000    1.1691858   -2.3719909    559.17973   0.10241387   0.10524798            1 
  456000    1.1965539   -2.3773091    562.52866   0.10280129    0.1052312            1 
  457000    1.1456475   -2.4002876    562.94637   0.10265251   0.10521648            3 
  458000    1.2022326   -2.3908267    560.81206   0.10204004   0.10520046            1 
  459000    1.1614346   -2.4113504    561.20847    0.1018897   0.10518439            1 
  460000    1.1949553   -2.4023929    564.10134   0.10219227   0.10516528            1 
  461000    1.1795362   -2.4038961    565.46793   0.10221763    0.1051469            1 
  462000    1.1998402   -2.3783204    566.08284    0.1021073   0.10512773            2 
  463000    1.1581632   -2.3853501    566.48799   0.10195968   0.10510749            1 
  464000    1.1898974   -2.4070281    566.48683   0.10173973   0.10508809            1 
  465000    1.1812208   -2.3813209    568.35696   0.10185609   0.10507048            2 
  466000    1.1657664   -2.3760018    571.20724   0.10214722   0.10505088            2 
  467000    1.1628753   -2.3715559     570.4778   0.10179832    0.1050326            1 
  468000    1.1800254   -2.3616142    568.76631   0.10127605   0.10501057            1 
  469000    1.1882134    -2.395321    572.32621   0.10169265    0.1049884            2 
  470000    1.1730028   -2.4106692    571.51676   0.10133276   0.10496657            1 
  471000    1.1538755   -2.3729798    576.50389   0.10199998   0.10494342            1 
  472000    1.1745334   -2.4086953    574.11668   0.10136241   0.10492146            1 
  473000    1.1885555   -2.3830558    575.30984   0.10135832    0.1048994            1 
  474000    1.1878329   -2.3874546    575.92136     0.101252   0.10487742            2 
  475000    1.1987381     -2.38621    577.14525   0.10125355   0.10485419            2 
  476000     1.160064   -2.3908005    580.72529   0.10166759   0.10483348            3 
  477000     1.174278   -2.3706013    583.36623   0.10191583   0.10481179            2 
  478000    1.1812085   -2.3816493    583.92672   0.10180033   0.10479197            2 
  479000    1.1834165   -2.4238113     583.7852   0.10156319   0.10477432            1 
  480000    1.1571973   -2.3715663     588.7723   0.10221741   0.10475553            1 
  481000    1.1616085   -2.4056297     590.3606   0.10228008   0.10474017            2 
  482000    1.2010182   -2.4026201    588.33226   0.10171719   0.10472681            1 
  483000    1.1546758   -2.3719121    592.84261   0.10228478   0.10471033            2 
  484000    1.1932848   -2.4316008    591.55625   0.10185197   0.10469567            1 
  485000    1.1574555   -2.3973178     591.6175   0.10165249   0.10468041            1 
  486000    1.1518378   -2.4025291    594.02913   0.10185685   0.10466515            1 
  487000    1.1671278   -2.3955089    594.65569   0.10175491   0.10465274            1 
  488000     1.194878   -2.3638282    597.21076   0.10198271   0.10463796            1 
  489000    1.1668849   -2.4108482    597.35562   0.10179884   0.10462121            3 
  490000    1.1662402   -2.3951111    594.98276   0.10118754    0.1046022            1 
  491000    1.1752226   -2.3999546    601.54065   0.10209448   0.10458343            2 
  492000    1.1621688   -2.4120821    597.92698   0.10127489    0.1045666            1 
  493000     1.191915   -2.3861374    602.08484   0.10177229   0.10454982            3 
  494000      1.19161   -2.3778586    601.67795   0.10149763   0.10453234            2 
  495000    1.1485635   -2.3991951    602.94327    0.1015056   0.10451134            1 
  496000    1.1969506   -2.3830901    602.37415   0.10120533   0.10449151            2 
  497000    1.1654074   -2.4054021    604.04756   0.10128229   0.10447191            3 
  498000    1.1730859   -2.4081712    606.11009   0.10142405   0.10444846            3 
  499000    1.1593448   -2.4106103     608.0007   0.10153652   0.10442735            3 
  500000    1.1902027   -2.3862494    608.41934   0.10140322   0.10440679            2 
  501000    1.2016849   -2.3931161     610.7777    0.1015931   0.10438702            3 
  502000    1.1711133   -2.3868592    613.23052    0.1017979   0.10437281            1 
  503000    1.1600727   -2.4161885    614.22431   0.10176016   0.10435552            1 
  504000    1.1939842   -2.4064032     613.8523   0.10149674   0.10433779            5 
  505000    1.1988411   -2.4121313    612.65372   0.10109797   0.10431821            1 
  506000    1.1780611    -2.399956    617.71929   0.10173243   0.10429913            1 
  507000    1.1802497   -2.3731004    617.99332   0.10157681   0.10427982            1 
  508000    1.1533613   -2.4093432    615.97056   0.10104504    0.1042604            1 
  509000    1.2084067   -2.3948137    620.03112   0.10151132   0.10424123            4 
  510000    1.1895489    -2.420028    621.00217   0.10147094      0.10422            1 
  511000    1.1586485   -2.4111083    620.78875   0.10123757   0.10419982       -1e+20 
  512000    1.1699308   -2.4102173    622.03041   0.10124193   0.10417738            2 
  513000    1.1718635   -2.3897614    620.73669   0.10083442   0.10415546            1 
  514000    1.1557537   -2.3719535    619.95767   0.10051194   0.10413251            2 
  515000    1.1727072    -2.428296    622.28604   0.10069353   0.10410859            1 
  516000    1.1814944   -2.3928929    627.03575   0.10126546   0.10408364            3 
  517000    1.1456489   -2.4110902    625.05619   0.10075051   0.10406139            1 
  518000    1.1740892   -2.3749458    628.74613   0.10114964   0.10403762            1 
  519000    1.1779987   -2.3946759    626.52407   0.10059796   0.10401512            2 
  520000    1.1533428   -2.3968748    626.67309   0.10042838   0.10399123            2 
  521000    1.1563393   -2.4035901    626.66881   0.10023493   0.10396608            3 
  522000    1.1832717    -2.398395    629.31231   0.10046493    0.1039405            3 
  523000    1.1427205   -2.4060031    629.40686    0.1002879    0.1039138            1 
  524000    1.1741235   -2.4063417     632.9623   0.10066194   0.10388653            1 
  525000    1.2010543   -2.4238576    630.32582   0.10005172   0.10385975            1 
  526000    1.1847201   -2.4014797    634.82198   0.10057383   0.10383394            2 
  527000    1.1613027   -2.3968702    636.08339   0.10058245   0.10380942            1 
  528000    1.1757044   -2.3867781    638.69498   0.10080413    0.1037864       -1e+20 
  529000    1.1699043   -2.4119932    641.58879   0.10106944   0.10376323            1 
  530000    1.1541605   -2.4123766    639.36249   0.10052869   0.10373956            2 
  531000    1.1706929   -2.3835058    642.78007   0.10087572   0.10371531            1 
  532000    1.1528588   -2.3836077    641.63541    0.1005068   0.10369189            1 
  533000     1.148984   -2.3760555    641.41454    0.1002837    0.1036678            1 
  534000    1.1570281   -2.3745361       646.16   0.10083645   0.10364447            1 
  535000    1.1988119   -2.3861094    648.17629   0.10096204    0.1036219            2 
  536000    1.1501207   -2.4254911    646.59084   0.10052718   0.10359674            1 
  537000     1.128998   -2.4086195    645.31997   0.10014276   0.10357106            2 
  538000    1.1686849   -2.3996022    648.39467   0.10043288   0.10354453            1 
  539000    1.1583879   -2.3992058    648.59804   0.10027799   0.10351852            2 
  540000    1.1614258   -2.4320017    647.33596  0.099897525   0.10349264            3 
  541000    1.1430219   -2.4011169    651.63105   0.10037447   0.10346969            2 
  542000     1.176425   -2.3958683    653.15766   0.10042399   0.10344492            2 
  543000    1.1824402   -2.4118522    651.18552  0.099936391   0.10341991            2 
  544000    1.1638204   -2.4342691    653.72091   0.10014107   0.10339528            2 
  545000    1.1755523   -2.4235794    655.00804   0.10015413   0.10336744            1 
  546000    1.1496426   -2.4255737    654.82483   0.09994274   0.10334023            2 
  547000     1.184438   -2.3946405    655.57011  0.099873569   0.10331114            1 
  548000    1.1534375   -2.4122995    657.26856  0.099949598   0.10328188            2 
  549000    1.1668947   -2.3795697    659.12875    0.1000499   0.10325232            2 
  550000    1.1669506   -2.3878661    656.64245   0.09949128   0.10322238            2 
  551000     1.153424   -2.4205327    659.25438  0.099705744   0.10319362            3 
  552000    1.2005999   -2.4219109    658.88158  0.099468837   0.10316372            2 
  553000    1.1633045   -2.4550447    658.69416  0.099260723   0.10313379            1 
  554000     1.153735   -2.3970096    664.27948  0.099921702    0.1031033            2 
  555000    1.1915546   -2.4091004    663.58467  0.099637338   0.10307361            1 
  556000     1.198655   -2.4098202    665.20577  0.099701104   0.10304403            2 
  557000    1.1797187   -2.3772227    665.05332  0.099499299   0.10301498            4 
  558000    1.1771743   -2.4072548    664.81323  0.099285129   0.10298448            2 
  559000     1.157988   -2.4274992    665.42616   0.09919889   0.10295416            1 
  560000     1.178348   -2.3981146    669.37077  0.099608746   0.10292282            3 
  561000    1.1758713   -2.4214128    669.06794  0.099386206   0.10289307            1 
  562000    1.1584264   -2.4048936    672.78977  0.099761235   0.10286168            1 
  563000    1.1667265   -2.3695119    675.44049   0.09997639   0.10283061            1 
  564000    1.1687258   -2.3956508    672.89931  0.099423657   0.10279855            3 
  565000    1.1550702   -2.4174197    671.94815  0.099107396   0.10276649            1 
  566000    1.1332926    -2.415721    674.15273   0.09925688   0.10273331            3 
  567000    1.1779542   -2.3690981    676.80773  0.099472035   0.10270179            2 
  568000    1.1396686   -2.3891472     676.9179  0.099313072   0.10267032            1 
  569000    1.1611439   -2.4244828    675.77192  0.098970696   0.10263962            2 
  570000    1.1435679   -2.4291714    675.70005  0.098786556   0.10260928            3 
  571000     1.150362   -2.4260784    676.50981   0.09873173    0.1025769            1 
  572000    1.1702383   -2.4050559     678.6431  0.098869915   0.10254543            1 
  573000     1.160718   -2.4062691     683.3172  0.099377138   0.10251403            1 
  574000    1.1633416   -2.4218479    684.33963  0.099352444    0.1024839            2 
  575000    1.1660042   -2.4182662    683.14665  0.099006761   0.10245536            2 
  576000    1.1444385     -2.40212     686.3485  0.099298104   0.10242724            1 
  577000    1.1523114   -2.4102723    688.81011  0.099481529    0.1023999            2 
  578000     1.163545   -2.4018801    688.57673  0.099275768   0.10237296            2 
  579000    1.1597134   -2.3911933    693.62575  0.099830995   0.10234676            2 
  580000     1.164942   -2.4234277    686.82017  0.098681059   0.10232129            4 
  581000    1.1444788   -2.4109105    691.69227  0.099210021   0.10229581            2 
  582000     1.163095   -2.3986904    693.81724   0.09934382    0.1022699            1 
  583000    1.1610444   -2.4268906    692.42815  0.098974864    0.1022422            1 
  584000    1.1676541   -2.4305196    696.40002  0.099372149   0.10221536            1 
  585000    1.1701633   -2.4164477    692.95726   0.09871186   0.10218824            1 
  586000    1.1438974   -2.4162061     697.3068  0.099161945   0.10215983            2 
  587000    1.1815865   -2.3995199     697.5394  0.099026036   0.10213149            1 
  588000    1.1566665   -2.4041528    698.29822  0.098965167   0.10210445            1 
  589000    1.1688705   -2.3966126    699.52488  0.098970695   0.10207507            2 
  590000    1.1647928   -2.3999672    702.66857  0.099246974   0.10204667            1 
  591000    1.1387337   -2.4146114    704.10893  0.099282139   0.10201909            2 
  592000    1.1609228   -2.4086704    702.76508  0.098925265   0.10198997            1 
  593000    1.1542873   -2.4017389    702.50643  0.098722096   0.10196169            3 
  594000    1.1639027   -2.4142671    704.20024  0.098793524   0.10193277            1 
  595000     1.163636   -2.4232801    705.48076   0.09880683   0.10190471            4 
  596000    1.1267217   -2.4254703    704.37178  0.098485987   0.10187438            2 
  597000     1.141823    -2.437406    707.01006  0.098689288   0.10184461            2 
  598000    1.1347719      -2.4361    707.80507  0.098635043   0.10181402            3 
  599000    1.1733036   -2.4040867    708.17272  0.098521525   0.10178441            1 
  600000    1.1486612   -2.4369724     709.4483  0.098534485   0.10175438            1 
  601000    1.1389249   -2.4268396    705.59869  0.097836756   0.10172375            2 
  602000    1.1801785   -2.4402623    709.82135   0.09825877    0.1016923            2 
  603000     1.175797   -2.4168326    713.84124  0.098651359   0.10166122            1 
  604000    1.1530415   -2.4284818    713.80175  0.098482581   0.10162862            2 
  605000    1.1351262   -2.4185208     712.9344   0.09820033   0.10159568            1 
  606000    1.1717981   -2.3990903    714.11023  0.098199976    0.1015636            2 
  607000     1.151399   -2.4250182    715.38824  0.098213652   0.10153249            1 
  608000    1.1660597   -2.4123569    716.67244  0.098228131   0.10150156            2 
  609000     1.153001   -2.4017784    717.10388  0.098125872   0.10147048            2 
  610000    1.1690447   -2.4138494    720.05423  0.098368064    0.1014408            3 
  611000    1.1441733   -2.4101037      724.306  0.098786961   0.10141189            1 
  612000    1.1481178   -2.3937969     724.6407  0.098671119   0.10138265            3 
  613000    1.1499335   -2.3975752    725.89818  0.098681101   0.10135323            1 
  614000    1.1445572   -2.4160495    721.40324   0.09791032   0.10132446            1 
  615000    1.1461337   -2.4167305    727.68749  0.098602641   0.10129596            3 
  616000    1.1690187   -2.4082887    728.06689  0.098493897   0.10126924            1 
  617000    1.1765598   -2.3980318    726.45966  0.098117188   0.10124284            1 
  618000    1.1414698   -2.4399417    727.71177  0.098127261    0.1012144            2 
  619000    1.1625761   -2.4269488    728.48048  0.098072224   0.10118569            2 
  620000     1.152197   -2.4223584    730.12076  0.098134511   0.10115663            1 
  621000    1.1529716   -2.4333343    732.42713  0.098285981   0.10112814            3 
  622000    1.1649221   -2.3997164    733.78643  0.098310078   0.10110118            1 
  623000      1.14212   -2.4331608    734.64669  0.098267347   0.10107343            2 
  624000    1.1601379   -2.3862369    735.72325  0.098253639   0.10104564            1 
  625000    1.1450179    -2.388209    736.15065  0.098153421   0.10101811            1 
  626000     1.157343   -2.4224715    736.59249  0.098055443   0.10098767            1 
  627000    1.1398732   -2.3892615    740.34884  0.098398305   0.10096004            2 
  628000    1.1628248   -2.4182215    738.90945  0.098050617   0.10093009            2 
  629000    1.1359176   -2.4200367    741.42887   0.09822852   0.10090053            2 
  630000    1.1405789   -2.4145907    740.11561   0.09789889   0.10087184            3 
  631000    1.1259659   -2.3955398    744.91633  0.098377751   0.10084471            1 
  632000    1.1414609   -2.3887994    743.56806  0.098044311   0.10081722            2 
  633000    1.1590924   -2.4254532    742.00464  0.097683602   0.10078974            3 
  634000    1.1137031   -2.3905695    747.64047  0.098270304   0.10076153            1 
  635000    1.1312832   -2.4339696    746.65774   0.09798658   0.10073304            1 
  636000    1.1471129   -2.4367167    748.38446  0.098058761   0.10070555            1 
  637000    1.1708674   -2.4357841    746.46724  0.097654008   0.10067886            1 
  638000     1.135267   -2.4093271     750.7612  0.098061808   0.10065237            2 
  639000     1.171822   -2.4381877    751.31548  0.097980631   0.10062472            2 
  640000    1.1636734   -2.4141991    746.82949  0.097243424   0.10059624            2 
  641000    1.1457647   -2.4204412    752.56498  0.097837361   0.10056921            2 
  642000    1.1493465   -2.4278576    754.01367   0.09787301   0.10054291            3 
  643000    1.1520021   -2.4264591    755.44529  0.097906336   0.10051565            2 
  644000    1.1555463   -2.4441799    756.84333  0.097935213   0.10048995            1 
  645000    1.1682299    -2.453862     757.3701  0.097851434   0.10046506            1 
  646000    1.1751711   -2.3977386    760.44605  0.098096755   0.10044087            2 
  647000    1.1675826   -2.4021183    761.11398  0.098031167   0.10041718            1 
  648000    1.1916005   -2.4072664    761.13439  0.097882508   0.10039203            1 
  649000    1.1484135   -2.3929017    764.32832  0.098141797   0.10036766            1 
  650000    1.1751173   -2.4290502    758.36066  0.097225725     0.100341            2 
  651000    1.1750248   -2.3888538    763.37685   0.09771849   0.10031367            1 
  652000    1.1480717   -2.4245809    761.28699  0.097301507   0.10028667            2 
  653000    1.1415109    -2.420611     763.9325  0.097490109   0.10025967            1 
  654000    1.1412077   -2.4106074    768.08607  0.097870294   0.10023189            1 
  655000     1.148163   -2.4012954    770.61779  0.098042976   0.10020498            2 
  656000    1.1257904   -2.4423673    770.50497  0.097879188   0.10017947            3 
  657000    1.1482437   -2.4474807     769.8837  0.097651408    0.1001544            2 
  658000     1.159625   -2.4117483    768.98165   0.09738876   0.10012791            1 
  659000    1.1621387    -2.413513    773.81985  0.097852788   0.10010393            4 
  660000    1.1479662   -2.4090882    769.68581  0.097182552    0.1000801            1 
  661000     1.141005   -2.4288581    778.73508  0.098176384   0.10005514            2 
  662000    1.1424101   -2.4247121    776.43546  0.097738603   0.10003042            2 
  663000    1.1461169   -2.4117396    777.68431  0.097748153   0.10000614            2 
  664000    1.1586968   -2.4186273    777.05458   0.09752191  0.099980897            1 
  665000    1.1374705   -2.4184787    778.90438  0.097607066  0.099955985            1 
  666000    1.1248957   -2.4242125    778.75259  0.097441515  0.099931747            1 
  667000    1.1228659   -2.4284155    778.57648  0.097273424   0.09990548            1 
  668000    1.1686983   -2.4364659    783.26166  0.097712283  0.099879727            3 
  669000    1.1324144   -2.4323165    784.68289  0.097743259  0.099856114            3 
  670000    1.1527018    -2.394153    786.51054  0.097824694  0.099833785            2 
  671000    1.1216175   -2.4233408    786.53959  0.097682513  0.099811042            2 
  672000    1.1314827   -2.4367431    790.26859  0.097999577  0.099787765            1 
  673000    1.1548274   -2.3884996    791.74405  0.098036658  0.099766029            2 
  674000    1.1266885   -2.4245792    791.80721  0.097899012  0.099743478            1 
  675000    1.1435249   -2.4253455    790.12105  0.097545808  0.099722308            3 
  676000    1.1443041   -2.4119544    794.83366  0.097982453  0.099700201            3 
  677000    1.1394906    -2.435584    792.56755  0.097558782   0.09967686            1 
  678000    1.1608977   -2.4246883    797.12124  0.097974587  0.099655052            1 
  679000    1.1307788    -2.438561     796.5242   0.09775702  0.099632762            1 
  680000     1.141583   -2.4310109    794.92548  0.097417338  0.099609089            1 
  681000    1.1318496   -2.4275031     796.0251  0.097408847  0.099586275            2 
  682000    1.1636036   -2.4478151    799.41139  0.097679789  0.099563167            2 
  683000    1.1407508   -2.4267753    800.84045  0.097711133  0.099540201            4 
  684000    1.1281367    -2.406817    800.59954   0.09753893   0.09951796            3 
  685000    1.1586813    -2.394208     799.5627  0.097270402  0.099495453            1 
  686000    1.1381866   -2.4341441    798.93245  0.097052047  0.099471681            2 
  687000    1.1353327   -2.4418827    801.64513  0.097239826  0.099447849            1 
  688000    1.1429086   -2.4221437     801.0181  0.097022541  0.099424847            1 
  689000     1.167385   -2.4254819    802.72199  0.097087807  0.099401302            2 
  690000    1.1280876   -2.4197453    806.46587   0.09739926  0.099375991            1 
  691000    1.1497638   -2.4181589    805.66843  0.097162136  0.099350478            1 
  692000    1.1374317   -2.4517058    806.22556   0.09708882  0.099325811            1 
  693000    1.1217892   -2.4006239     808.9786  0.097279774  0.099300521            1 
  694000    1.1467441   -2.4070909    808.23462  0.097050266   0.09927562            1 
  695000    1.1336936    -2.415344    811.88375  0.097348172  0.099251475            1 
  696000    1.1361817   -2.4301201    811.22137  0.097128996  0.099229094            1 
  697000    1.1197121   -2.4347571    816.12354  0.097575746   0.09920633            1 
  698000    1.1123012   -2.4071016    816.21406  0.097446759  0.099184886            1 
  699000    1.1613702   -2.4402289     817.3809  0.097446459  0.099162818            1 
  700000    1.1607768   -2.4229425     816.1607  0.097161988  0.099141263            2 
  701000    1.1365459   -2.4015019    822.67045  0.097797248  0.099121126            2 
  702000    1.1298692   -2.4188581    815.47386  0.096803639  0.099100118            1 
  703000    1.1455758   -2.4559625    825.18133  0.097816658  0.099079876            3 
  704000    1.1175879   -2.4102769    826.58484   0.09784385  0.099060934            4 
  705000    1.1367673   -2.4302716    822.34943  0.097204424    0.0990434            1 
  706000    1.1579122    -2.424765    829.57688   0.09791984  0.099025564            2 
  707000    1.1587073   -2.4313568    824.67172  0.097203173  0.099006277            3 
  708000    1.1483129   -2.4364908    825.76645  0.097194732  0.098987507            4 
  709000    1.1483118   -2.4525722    829.66569  0.097515949  0.098968744            2 
  710000    1.1373371   -2.4397022    832.89444  0.097757563  0.098951007            1 
  711000    1.1477959   -2.4277055    831.99791  0.097514991  0.098932649            3 
  712000    1.1443206   -2.4485572    830.11283    0.0971574  0.098914197            2 
  713000    1.1302739   -2.4236458    832.86286   0.09734255  0.098896007            3 
  714000    1.1391121   -2.4406649    833.31614   0.09725912  0.098879096            1 
  715000    1.1334451   -2.4275202    837.49752  0.097610434  0.098861601            3 
  716000    1.1270905   -2.4131319    836.58889  0.097368354  0.098845201            2 
  717000    1.1416604   -2.4223367    842.28549  0.097894641  0.098829074            1 
  718000    1.1400816   -2.4250695    842.09968  0.097736732  0.098813957            3 
  719000    1.1372302   -2.3841589    843.86374  0.097805255  0.098798546            2 
  720000    1.1454989   -2.4460095     843.8874  0.097672153  0.098783607            2 
  721000    1.1419067   -2.4150896    844.57178  0.097615786  0.098767839            3 
  722000    1.1268044   -2.4205698     847.5568  0.097825115  0.098752674            3 
  723000    1.1281758   -2.4418154     848.0573  0.097747498   0.09873805            4 
  724000    1.1387772   -2.4355572    850.46023  0.097889069  0.098722882            2 
  725000     1.150293   -2.4319872      850.774  0.097790115  0.098709801            3 
  726000    1.1385063   -2.4387508    850.30406  0.097601476   0.09869426            2 
  727000    1.1542296   -2.4403163    851.82078   0.09764108  0.098678985            1 
  728000     1.126784   -2.4196121    852.20198  0.097550593  0.098663128            2 
  729000    1.1301304   -2.4177807    854.73133  0.097705914  0.098646169            2 
  730000    1.1346896   -2.4404211    854.62494  0.097559925  0.098631475            1 
  731000    1.1041563   -2.4249632     853.4128  0.097288281  0.098615569            1 
  732000    1.1254666   -2.4480009    855.63863   0.09740877  0.098599885            3 
  733000    1.1417297   -2.4633354    856.32418  0.097353818  0.098582973            3 
  734000    1.1264627   -2.4452979    859.56972  0.097589659  0.098566589            3 
  735000    1.1366997   -2.4599469    859.89279  0.097493514  0.098551905            1 
  736000    1.1044236   -2.4840468    863.63914  0.097785229  0.098537669            1 
  737000    1.1338264   -2.4552255    861.53562  0.097414701  0.098523674            2 
  738000    1.1463158   -2.4592297     864.6514   0.09763453  0.098510993            2 
  739000    1.1328619   -2.4458696    867.19442  0.097789176  0.098497401            2 
  740000    1.1393375    -2.421781    869.42336  0.097908035  0.098484902            2 
  741000     1.143494    -2.438995    869.68113  0.097804895  0.098473666            1 
  742000    1.1379866   -2.4359444    870.44928  0.097759352  0.098459761            1 
  743000    1.1477885   -2.4258304    868.76864  0.097439282  0.098446433            1 
  744000    1.1460977   -2.4350809    869.93723  0.097439206  0.098432665            2 
  745000    1.1306232   -2.4893477    869.50675  0.097260262  0.098417862            4 
  746000    1.1105439   -2.4354118    872.95921   0.09751555  0.098403565            1 
  747000    1.1620232   -2.4143249    876.66295  0.097798187  0.098389724            1 
  748000    1.1080006   -2.4347209    872.11899  0.097161206  0.098375539            2 
  749000    1.1351512   -2.4227953    878.36852  0.097726804  0.098362742            2 
  750000     1.117737   -2.4480414    880.67486  0.097852762  0.098349935            1 
  751000    1.1401365   -2.4715134    880.41172  0.097693266  0.098336259            2 
  752000    1.1188763    -2.465189    878.43079  0.097343837  0.098324001            1 
  753000    1.1484139   -2.4431933    885.41259  0.097987227  0.098310581            2 
  754000    1.1572513   -2.4108122    879.77475  0.097234167  0.098297926            3 
  755000    1.1152104   -2.4425569    882.46549  0.097402372  0.098285126            1 
  756000    1.1439018   -2.4565275    884.24709  0.097469918  0.098271473            1 
  757000    1.1145182   -2.4373745    882.39157  0.097136897  0.098258636            2 
  758000    1.1046516   -2.4390838    887.25414  0.097543332  0.098244443            2 
  759000     1.125281   -2.4624145    885.15856  0.097184734  0.098230848            1 
  760000    1.1318082    -2.451042    889.74594  0.097559862  0.098217814            3 
  761000    1.1218034   -2.4416935    883.41109  0.096737964  0.098205111            3 
  762000    1.1201179   -2.4308682    892.47751  0.097602528  0.098194219            1 
  763000    1.1098525   -2.4426086    893.60615  0.097597876  0.098182852            1 
  764000    1.1336842   -2.4505459    895.89042  0.097719287  0.098170905            1 
  765000    1.1472156   -2.4321747    895.93626  0.097596542  0.098158574            1 
  766000    1.1422797   -2.4527181    898.02516  0.097696384  0.098146708            2 
  767000    1.1470223   -2.4554843    894.74978  0.097213144  0.098133236            1 
  768000    1.1206407    -2.391711    898.97645  0.097545187  0.098120248            2 
  769000    1.1355291   -2.4585391    894.83967  0.096970055  0.098105603            2 
  770000    1.1302966   -2.4386533    895.20296  0.096883437  0.098089714            3 
  771000    1.1442478   -2.4452523    899.47212  0.097219209  0.098074226            1 
  772000    1.1273417   -2.4274426    895.06332  0.096617371  0.098058577            1 
  773000    1.1296688   -2.4304767    902.52404  0.097296684   0.09804363            2 
  774000    1.1343563   -2.4611282    900.10656  0.096910698  0.098028119            2 
  775000    1.1330568   -2.4483234     898.4334  0.096605742  0.098012238            1 
  776000    1.0901945   -2.4579803    904.93337   0.09717927  0.097996645            1 
  777000    1.1348822   -2.4431447     905.2852  0.097091934  0.097981128            6 
  778000    1.1371025    -2.428696    906.68267  0.097116824   0.09796681            1 
  779000    1.1205643   -2.4271248    907.63424   0.09709395  0.097953785            2 
  780000    1.1299886   -2.4448415    904.59735  0.096645016  0.097940585            1 
  781000    1.1195561   -2.4491928    911.96163  0.097307045  0.097926827            2 
  782000    1.1232205   -2.4364906    913.48186  0.097344614  0.097912708            1 
  783000    1.1222103   -2.4413163    910.03483   0.09685343  0.097899279            2 
  784000    1.1298578   -2.4262359     914.0472  0.097156377  0.097885258            1 
  785000    1.1245738   -2.4545638    916.13463  0.097254207  0.097872681            1 
  786000    1.1451674   -2.4176507    915.79309  0.097094263  0.097859014            3 
  787000     1.125596   -2.4190524    919.42764  0.097355743  0.097844967            1 
  788000    1.1369919    -2.452183    915.29754  0.096795425  0.097830311            1 
  789000    1.1294765   -2.4564471     917.2599  0.096880006  0.097816038            1 
  790000    1.1247158   -2.4220656    917.36382  0.096768336  0.097802283            2 
  791000    1.1214054   -2.4414526    918.94647  0.096812734  0.097788719            2 
  792000    1.0844048   -2.4396161    920.14357  0.096816453  0.097775671            3 
  793000    1.1076975   -2.4142798    924.65891  0.097168864  0.097762466            3 
  794000     1.094089   -2.4360081    925.87653  0.097174279  0.097749836            2 
  795000    1.1227375   -2.4384405    919.38273  0.096371355  0.097735772            2 
  796000    1.1374691   -2.4277231      923.538  0.096685302  0.097720702            1 
  797000    1.1231812   -2.4521906     924.6662  0.096681954  0.097705687            2 
  798000    1.1285395   -2.4401251    927.30011  0.096835851  0.097689479            3 
  799000     1.125831   -2.4301018    926.60107  0.096641747  0.097673371            2 
  800000    1.1308039   -2.4479973     923.7319  0.096222072  0.097657022            4 
  801000    1.1356403    -2.454368    930.83295  0.096840715  0.097641731            1 
  802000    1.1259628   -2.4473736    921.75501  0.095776706  0.097625001            3 
  803000    1.1031039   -2.4442553    929.68424  0.096480307   0.09760823            2 
  804000     1.116729    -2.462116    927.69501  0.096154127  0.097591822            2 
  805000    1.1121458   -2.4575671    931.66477  0.096445628  0.097574553            1 
  806000    1.1244743   -2.4520773    933.03053  0.096467176  0.097558891            3 
  807000    1.1165774   -2.4395007    932.69157  0.096312636  0.097542797            3 
  808000    1.1229394   -2.4647662    935.07607  0.096439363  0.097526183            2 
  809000    1.1418951    -2.445605    935.28074  0.096341238  0.097509028            2 
  810000    1.1425975   -2.4516064    939.82976  0.096690304  0.097492908            1 
  811000    1.0945178    -2.403343    937.36068  0.096317374  0.097476229            4 
  812000    1.1272688   -2.4660058    935.35417  0.095992834  0.097459452            3 
  813000    1.1341668   -2.4232265    936.03662  0.095944713  0.097442516            2 
  814000    1.1275245   -2.4784471    938.20582  0.096048917  0.097426012            1 
  815000    1.1202812   -2.4538237    946.33495  0.096762265  0.097410629            1 
  816000    1.1333367   -2.4337367    941.46581  0.096146427  0.097395601            1 
  817000    1.1165472   -2.4760935    940.70757  0.095951404  0.097379117            2 
  818000    1.1346198   -2.4655828    942.51036  0.096017763   0.09736255            1 
  819000    1.1127885   -2.4587541    943.25795  0.095976592  0.097344846            1 
  820000    1.1215219   -2.4617036    940.74503   0.09560417  0.097326766            3 
  821000    1.1256369   -2.4609483    952.78545  0.096709851  0.097308724            3 
  822000    1.1375174   -2.4459518    946.23931   0.09592856  0.097291947            2 
  823000    1.0949785   -2.4430169    953.57931  0.096555216  0.097275983            1 
  824000    1.1233865   -2.4608518    954.69719  0.096551091  0.097260987            2 
  825000    1.1207577   -2.4275245     953.5879   0.09632201  0.097245313            1 
  826000    1.1358365   -2.4639947    948.21469  0.095663306  0.097229462            1 
  827000    1.1305978   -2.4276355    954.78583  0.096209777  0.097212892            1 
  828000    1.1152222   -2.4505874    952.74357   0.09588804  0.097197664            2 
  829000    1.1025011   -2.4557174    956.03925  0.096103664   0.09718019            2 
  830000    1.1188306   -2.4337648    955.97697  0.095981624  0.097164377            4 
  831000    1.1216788   -2.4325878    959.20184  0.096189515  0.097148345            2 
  832000    1.1000926   -2.4733756    958.12064  0.095965609  0.097132157            2 
  833000    1.1242579   -2.4427273    963.00317  0.096338853  0.097114542            1 
  834000    1.1123673   -2.4146369    957.06711  0.095630206  0.097097892            3 
  835000    1.1166775   -2.4385696     959.9623  0.095804621  0.097080196            2 
  836000    1.1351865   -2.4224978    964.10279   0.09610275  0.097063306            1 
  837000    1.1314002   -2.4329233    961.67668  0.095746384  0.097046182            3 
  838000    1.1266104   -2.4410762    961.17913   0.09558265  0.097028172            2 
  839000    1.1157795   -2.4511463    966.37338  0.095984642  0.097009876            2 
  840000    1.1078548   -2.4810485    966.61123  0.095893971  0.096992201            1 
  841000    1.1170335   -2.4392875    966.33677  0.095752752  0.096975064            2 
  842000    1.1403046   -2.4651096    964.37267  0.095444642  0.096957289            2 
  843000    1.0816623   -2.4617952    968.15046   0.09570487  0.096938782            1 
  844000    1.1210169   -2.4451869    970.31008  0.095804707  0.096921403            1 
  845000    1.1140746   -2.4531368    971.07985  0.095767244  0.096903448            1 
  846000    1.1042991    -2.464281    970.84391  0.095630803  0.096885529            3 
  847000    1.1049119   -2.4543623    970.89625  0.095523047   0.09686807            4 
  848000    1.1297142   -2.4847072    970.36774  0.095358465  0.096850854            4 
  849000    1.1097607   -2.4314905     976.3025  0.095828671  0.096834039            2 
  850000    1.0909374    -2.461682    977.37271  0.095820854  0.096818535            2 
  851000    1.1011823   -2.4599217    974.04953  0.095382836  0.096801913            2 
  852000    1.1202434   -2.4541058    977.72986  0.095630855  0.096784774            2 
  853000     1.128677   -2.4248654    981.07979  0.095846013  0.096768494            1 
  854000    1.1170771   -2.4542562    978.14087  0.095447002  0.096752284            2 
  855000    1.1349146   -2.4406713     979.2104   0.09543961  0.096734837            1 
  856000    1.1234993   -2.4512517     986.1648   0.09600514  0.096717538            1 
  857000    1.1194079   -2.4645007    979.58592  0.095253396  0.096700843            2 
  858000    1.1277971   -2.4863993    987.08578  0.095870803  0.096684163            2 
  859000    1.0875831   -2.4513426    988.16771  0.095864155  0.096668094            3 
  860000     1.120229   -2.4241417    989.86171  0.095916832  0.096652018            3 
  861000    1.1091754   -2.4702308    989.85056  0.095804352  0.096636084            5 
  862000    1.1265306   -2.4518408    991.21348  0.095824969  0.096620471            2 
  863000    1.1188135   -2.4890165    992.26993  0.095815945  0.096605168            2 
  864000    1.1386169    -2.409839    993.97721  0.095869716  0.096590339            1 
  865000    1.1169076   -2.4723031     994.7792  0.095836146  0.096575252            1 
  866000    1.1023572   -2.4825676     994.8292  0.095730293  0.096560033            1 
  867000     1.088189   -2.4422539     1001.889  0.096298442  0.096545646            2 
  868000    1.1236695   -2.4268381    998.66502  0.095877978  0.096530661            3 
  869000    1.0951282   -2.4366563    993.21585  0.095245094  0.096515079            1 
  870000    1.1298148   -2.4552718    994.68184  0.095276038  0.096498361            1 
  871000    1.1077036   -2.4893596     998.0894  0.095492671  0.096481712            2 
  872000    1.0935643   -2.4453433    999.67146  0.095534352  0.096464057            2 
  873000    1.1113119   -2.4641872    1002.1579  0.095662265  0.096448165            2 
  874000    1.1247533   -2.4450004    999.01068  0.095252734  0.096432658            3 
  875000     1.111681   -2.4896346    1004.7694   0.09569232  0.096417288            2 
  876000    1.1055493   -2.4568564     1006.839  0.095779967  0.096402101            3 
  877000    1.0811618   -2.4542095    1008.1922  0.095799334  0.096387048            1 
  878000    1.1270281   -2.4706726    1006.8194   0.09555993  0.096372106            3 
  879000    1.1009768   -2.4701666    1011.9425  0.095936911  0.096357589            1 
  880000    1.1161955    -2.493766    1008.0918  0.095463236   0.09634295            2 
  881000    1.1128289   -2.4722844     1012.365  0.095759079  0.096329253            2 
  882000    1.0983898   -2.4594412    1017.2964  0.096116443  0.096315015            7 
  883000     1.112788   -2.4416908    1020.1284  0.096274855  0.096302243            1 
  884000    1.0946929   -2.4618298    1015.6729  0.095745939  0.096288907            1 
  885000    1.0957645   -2.4766448    1015.7231  0.095642472  0.096275173            4 
  886000    1.1263345   -2.4583211    1021.9091  0.096116359  0.096262321            2 
  887000     1.090327   -2.4486133    1022.9334  0.096104225  0.096250416            3 
  888000    1.1233133   -2.4738435    1017.9648  0.095529734  0.096238259            3 
  889000    1.0848843   -2.4786822    1020.4659  0.095656717  0.096225598            2 
  890000    1.1097556   -2.4562388     1024.518  0.095928652  0.096211905            2 
  891000    1.1229278   -2.4151866    1025.7138  0.095932826  0.096199001            1 
  892000     1.118962   -2.4643984    1023.7482   0.09564165  0.096186188            1 
  893000    1.0964666   -2.4348503    1024.0689  0.095564477  0.096172442            1 
  894000    1.1238195   -2.4737562    1022.1339   0.09527721  0.096158813            1 
  895000    1.0897865    -2.441112    1025.6526  0.095498377  0.096146122            2 
  896000    1.1321553   -2.4692533    1027.6092  0.095573772  0.096133823            1 
  897000    1.0849022   -2.4632549    1027.6206  0.095468287  0.096120498            2 
  898000    1.0994103   -2.4640733    1032.0839  0.095776159   0.09610638            1 
  899000    1.0961729   -2.4763314    1022.9972  0.094827325  0.096092348            3 
  900000    1.1235555   -2.4848625    1030.0292  0.095373077  0.096077079            3 
  901000    1.1020431   -2.4506752    1032.3001  0.095477255  0.096062867            2 
  902000    1.1051028   -2.4531633    1030.6705  0.095220849  0.096048117            2 
  903000    1.1104317   -2.4277528    1028.9425  0.094955937  0.096032908            3 
  904000    1.1338606   -2.4629807    1031.2927   0.09506754  0.096018228            2 
  905000    1.0673331   -2.4603115    1035.7633  0.095374151  0.096003273            3 
  906000    1.1318649   -2.4421918    1034.0863  0.095114632  0.095988474            1 
  907000    1.0945938   -2.4534146    1035.2592  0.095117532  0.095972786            2 
  908000    1.1054082   -2.4691968    1037.8371  0.095249366  0.095956732            1 
  909000    1.1056418   -2.4561129    1037.5958  0.095122459  0.095941657            1 
  910000    1.1062067   -2.4738148    1037.9445  0.095049864  0.095926316            2 
  911000     1.118938   -2.4783011    1038.5286  0.094998961  0.095911284            2 
  912000    1.1018362   -2.4786136    1043.7746  0.095374145  0.095896726            3 
  913000    1.0991019   -2.4408559    1045.1163  0.095392142  0.095883361            1 
  914000    1.1059013   -2.4688956    1044.6806  0.095248052  0.095869285            3 
  915000    1.1063896   -2.4822578    1048.8779  0.095526217  0.095855096            2 
  916000    1.1057737   -2.4946425    1043.9487    0.0949735  0.095841812            3 
  917000    1.1058798   -2.4634425     1049.718  0.095394222   0.09582923            1 
  918000    1.1065402   -2.4651911    1046.4359  0.094992363  0.095815483            3 
  919000    1.0820606   -2.4778951    1052.4527  0.095434596  0.095803203            2 
  920000    1.0944985   -2.4706643    1054.5118   0.09551737  0.095791025            1 
  921000     1.088214     -2.45819    1052.6546   0.09524562  0.095778399            2 
  922000    1.1042865   -2.4721336    1052.8207  0.095157329  0.095765649            1 
  923000    1.1102307   -2.4542473    1058.2801  0.095547134   0.09575329            3 
  924000    1.0867353   -2.4888035    1053.4491  0.095008038  0.095739924            2 
  925000    1.0971087   -2.4519427    1055.7111  0.095109104  0.095726485            2 
  926000    1.1084659   -2.4337386    1063.6106  0.095717298  0.095714384            1 
  927000     1.081061     -2.44253    1059.5078  0.095245216  0.095701775            1 
  928000    1.0961379   -2.4720434    1057.3235  0.094946431  0.095688547            1 
  929000    1.0771692   -2.4139917    1066.9758  0.095710064  0.095676109            1 
  930000    1.0841147   -2.4635845     1065.104  0.095439429  0.095663916            2 
  931000    1.1083683    -2.481244    1059.6372   0.09484758  0.095649914            4 
  932000    1.0910484   -2.4851223    1064.4142   0.09517294  0.095637559            2 
  933000    1.1159712   -2.4910412    1065.8149  0.095196042  0.095624679            3 
  934000    1.0708723   -2.4553022    1064.5708  0.094983123  0.095610928            1 
  935000    1.1016448   -2.4649551    1065.3495   0.09495094  0.095597823            1 
  936000    1.0981077   -2.4840721    1067.7818  0.095066041  0.095585173            3 
  937000    1.0621514   -2.4405374    1064.4168  0.094665315  0.095572685            4 
  938000    1.1088611   -2.4624496    1064.8411  0.094602085  0.095559586            2 
  939000    1.1074659   -2.4618891    1072.5421   0.09518478  0.095545015            2 
  940000     1.106399   -2.4815887    1074.1802   0.09522874  0.095531215            1 
  941000    1.0936404   -2.4466757    1073.5421  0.095071029  0.095517266            4 
  942000     1.118753   -2.4724806    1075.1602  0.095113253  0.095503608            3 
  943000    1.0715504   -2.4766941    1076.3201  0.095114888  0.095489821            3 
  944000    1.1086307   -2.4803916    1074.2996  0.094835766  0.095475786            2 
  945000    1.0956351   -2.4577394    1074.4679  0.094750252  0.095461995            1 
  946000    1.0995919   -2.4811419    1079.2541  0.095071717  0.095447803            2 
  947000    1.1068708   -2.4661299    1074.6164   0.09456322   0.09543384            1 
  948000    1.1200385   -2.4878962    1075.9559  0.094581217  0.095419054            2 
  949000    1.0878158   -2.4602141    1077.6735  0.094632378  0.095404852            1 
  950000    1.1145843   -2.4616072    1079.5424  0.094696701  0.095390043            1 
  951000    1.0983893   -2.4718958    1074.8161   0.09418297  0.095374929            2 
  952000    1.0776052   -2.4593665    1079.1301   0.09446167  0.095359856            1 
  953000    1.1435367   -2.4411159    1080.0702  0.094444756  0.095344694            5 
  954000    1.1174751    -2.466897    1082.7468  0.094579561  0.095328773            2 
  955000    1.1344455   -2.4671833    1082.6823  0.094474893  0.095312281            2 
  956000    1.1007747   -2.4886744    1079.6972  0.094115861  0.095295764            2 
  957000    1.1023667   -2.4965496    1080.5989  0.094096042  0.095278798            2 
  958000    1.1015794   -2.4665981    1088.9826  0.094727085  0.095261901            1 
  959000    1.1033506   -2.4919119    1079.8865  0.093837891   0.09524635            2 
  960000    1.0895717   -2.4974842    1092.9645  0.094875388  0.095230455            2 
  961000    1.0901676    -2.464013    1087.1362  0.094271263  0.095214038            1 
  962000    1.1201231   -2.5141452    1086.3909  0.094108706  0.095199186            3 
  963000    1.1303737    -2.458053    1089.5261  0.094282288  0.095184273            2 
  964000    1.1016645   -2.4725084    1091.3381  0.094341118  0.095168932            2 
  965000    1.1094401   -2.4930354    1093.0968  0.094395232  0.095154403            1 
  966000    1.1047136   -2.4868112     1091.935  0.094197288  0.095139715            1 
  967000    1.0921844   -2.4855324    1095.7525  0.094428859  0.095124683            2 
  968000    1.0816618   -2.4620266    1098.1816  0.094540428  0.095109856            2 
  969000    1.0984429   -2.4673818    1097.3504  0.094371377   0.09509455            1 
  970000      1.10713     -2.49892    1101.7197   0.09464946  0.095079711            2 
  971000    1.0687505   -2.4843332    1097.5859  0.094197206  0.095065351            4 
  972000    1.1135428   -2.5164878      1096.98  0.094048351  0.095050357            2 
  973000    1.0874758   -2.4719624    1102.3076  0.094407984  0.095035603            1 
  974000    1.1289885   -2.4518423    1094.9176  0.093678786  0.095020604            3 
  975000    1.0849902   -2.4508293     1100.951  0.094098377  0.095006114            2 
  976000    1.0951768   -2.4735794    1102.1876  0.094107547   0.09499142            2 
  977000    1.0916295   -2.4873358    1106.9175  0.094414664  0.094976515            2 
  978000    1.0989833   -2.4663969    1104.5607  0.094117306  0.094962298            1 
  979000    1.0983991    -2.472399     1110.458  0.094523154  0.094948426            3 
  980000    1.0805913   -2.4731306     1110.275  0.094411138  0.094934131            2 
  981000    1.0838519   -2.4550352    1112.5393  0.094507243  0.094919832            2 
  982000    1.0959474   -2.5070342    1110.5778   0.09424455  0.094904407            2 
  983000    1.1111116   -2.4556763    1105.8878  0.093751088  0.094888197            2 
  984000     1.099224   -2.4772053    1112.1373  0.094185072  0.094873175            1 
  985000    1.0970581   -2.4722587    1115.5782  0.094380559  0.094858324            1 
  986000    1.1118878   -2.4681832    1114.3288  0.094179244  0.094843704            1 
  987000    1.0879205   -2.4621077    1118.0328  0.094396552  0.094830025            3 
  988000    1.0789976      -2.4902    1112.5494   0.09383851  0.094815421            1 
  989000    1.0791272   -2.4804556    1118.7789  0.094268529  0.094801037            1 
  990000    1.0846637   -2.5122978    1119.8859  0.094266487  0.094787412            3 
  991000     1.081184   -2.4807677    1117.9924  0.094012146  0.094773251            1 
  992000    1.0847225   -2.4926361    1118.1035  0.093926706  0.094758875            2 
  993000    1.1000629   -2.4696991    1124.0077  0.094327597   0.09474413            4 
  994000    1.0964499   -2.4902309    1118.6125   0.09378039    0.0947298            2 
  995000    1.1283704   -2.4929151    1124.4952  0.094178824  0.094715273            2 
  996000    1.1009388   -2.4689685    1124.6561  0.094097729  0.094700045            2 
  997000    1.0878815   -2.4912868    1122.3528   0.09381083  0.094685335            2 
  998000    1.0917294   -2.4912745    1124.3523  0.093883792  0.094670244            1 
  999000    1.1017806   -2.4820494    1125.3571  0.093873628  0.094655453            2 
 1000000    1.0462412   -2.5010528     1130.627  0.094218915  0.094640863            2 
 1001000    1.0877199   -2.4561862     1129.702  0.094047789  0.094625942            2 
 1002000    1.1213952   -2.4792405    1125.0916  0.093570492  0.094611737            2 
 1003000    1.1106977   -2.4805032    1127.9124  0.093711568  0.094596843            3 
 1004000    1.0767904   -2.4755162    1131.1993  0.093891042  0.094582108            1 
 1005000    1.1138817   -2.4552694    1131.3493  0.093810056  0.094567228            2 
 1006000    1.0467245   -2.4533317    1135.5112  0.094061563  0.094552566            1 
 1007000    1.1057992   -2.4777666    1134.6455  0.093896514  0.094538014            1 
 1008000    1.0920764   -2.4983789    1137.2023  0.094014739  0.094523579            3 
 1009000    1.0944436   -2.4982261    1131.6447  0.093462564  0.094507933            1 
 1010000    1.0676883   -2.4750536    1133.8303  0.093550356  0.094492494            3 
 1011000    1.1071224   -2.4808185    1135.5582  0.093600251   0.09447735            3 
 1012000    1.0906748    -2.478041    1141.7624  0.094018643  0.094462394            2 
 1013000    1.0920741   -2.4500715    1137.0557  0.093538642  0.094447542            2 
 1014000    1.0881495    -2.484417    1140.9401  0.093765621  0.094432938            3 
 1015000    1.1088239   -2.4725956    1142.7203  0.093819402  0.094418624            2 
 1016000    1.1003028   -2.5021023    1141.2816  0.093609051  0.094405051            5 
 1017000    1.1034621   -2.4694788     1147.907  0.094059895  0.094390849            1 
 1018000    1.0974379   -2.4907341    1150.0753  0.094144995  0.094376894            2 
 1019000    1.0848584   -2.4901527     1152.068   0.09421557  0.094362762            2 
 1020000    1.0806379   -2.4699208     1151.002  0.094036115  0.094348446            2 
 1021000    1.0724633   -2.4698204    1152.8383  0.094093888   0.09433514            1 
 1022000    1.0875266   -2.4898059    1147.0342  0.093528555  0.094321713            1 
 1023000    1.0889545   -2.4406914     1150.706  0.093736233  0.094308073            2 
 1024000    1.0867156   -2.4790118    1152.9096  0.093824022  0.094294933            1 
 1025000    1.0829371   -2.4775286     1152.066  0.093663903  0.094281388            2 
 1026000    1.0773578   -2.4728074    1152.7181  0.093625577  0.094268399            1 
 1027000    1.0708495   -2.4670229    1156.4061  0.093833665  0.094255128            2 
 1028000     1.079583   -2.4659114    1158.9879  0.093951676  0.094242395            3 
 1029000    1.0919917   -2.4672243    1156.5185  0.093660389  0.094228575            2 
 1030000      1.10103   -2.4877227    1162.9445  0.094089358  0.094214728            4 
 1031000    1.0811152   -2.5073149    1158.9298  0.093673604  0.094201724            2 
 1032000    1.0952779   -2.4939604    1161.9379  0.093825731  0.094188666            2 
 1033000    1.0717739   -2.4805622    1161.9192  0.093733396  0.094176014            2 
 1034000    1.0893201   -2.4555431    1163.2914  0.093753338  0.094163361            2 
 1035000    1.0976913   -2.5104002    1160.8375  0.093465178  0.094149677            1 
 1036000    1.0746488   -2.4830186    1166.8493  0.093858536   0.09413652            4 
 1037000    1.0893335   -2.5205489     1162.495  0.093418117  0.094123252            6 
 1038000    1.0942712    -2.483412     1164.387   0.09348001  0.094109383            4 
 1039000     1.074706   -2.4577485    1167.6141   0.09364887  0.094097322            2 
 1040000    1.0773988   -2.4897009    1170.8326  0.093816713   0.09408484            2 
 1041000    1.1009205   -2.4881634    1174.7159  0.094037458  0.094072028            3 
 1042000    1.0785777     -2.49053    1178.9737   0.09428772  0.094060009            2 
 1043000    1.1117209   -2.4615896    1177.2733  0.094061463  0.094047992            1 
 1044000    1.0752883   -2.4438783    1177.8771  0.094019567  0.094035035            2 
 1045000    1.0922509   -2.5111986    1174.5148  0.093661467  0.094022096            4 
 1046000    1.0834232   -2.4613385    1177.8586  0.093838324    0.0940095            1 
 1047000    1.0953863   -2.4766831     1175.895  0.093592403  0.093997103            1 
 1048000    1.0819739   -2.4715081    1181.3032  0.093933145  0.093985485            2 
 1049000    1.1008235   -2.4744971    1179.7589  0.093720918  0.093973821            2 
 1050000    1.0885549   -2.4794539    1188.5984  0.094333208   0.09396288            2 
 1051000    1.1053953   -2.4760636    1184.5795  0.093924794   0.09395134            2 
 1052000    1.0686242   -2.4791953    1182.7098  0.093687403  0.093939611            2 
 1053000    1.0633353   -2.4728386    1184.7079  0.093756561   0.09392727            1 
 1054000    1.0727084   -2.4872877    1183.3297  0.093558645  0.093915667            4 
 1055000    1.0851541   -2.4705265    1190.0809  0.094003228  0.093903027            1 
 1056000    1.0852502    -2.476838    1185.0897  0.093520334  0.093891163            1 
 1057000    1.0780609   -2.4735724    1191.2427  0.093916959  0.093879202            2 
 1058000     1.101397   -2.5180733    1188.8193  0.093637307  0.093867313            2 
 1059000    1.0544667    -2.505453    1191.5054  0.093760259   0.09385459            1 
 1060000    1.0954664   -2.4726947    1189.5917  0.093521359  0.093842327            2 
 1061000    1.0599362   -2.5007633    1183.7131  0.092971499   0.09382937            2 
 1062000    1.0667581    -2.448458    1195.0668  0.093774861  0.093816205            3 
 1063000    1.0741621   -2.5144968    1189.1278  0.093221061  0.093802728            2 
 1064000    1.0878231   -2.4935142    1190.7801  0.093262855  0.093790011            1 
 1065000    1.0480147   -2.4961853    1189.3223  0.093061212  0.093776303            1 
 1066000    1.0909518   -2.4964923    1194.0329   0.09334216  0.093763465            2 
 1067000    1.0649109   -2.4759915    1193.9137  0.093245367  0.093750459            2 
 1068000    1.0531223   -2.4941966    1197.1155  0.093407888  0.093736995            3 
 1069000    1.0763165   -2.4698596    1196.9074  0.093304285   0.09372338            3 
 1070000    1.0692743   -2.4600498    1196.3927     0.093177  0.093710244            1 
 1071000    1.0650353   -2.4854441    1200.0896  0.093377652  0.093696444            4 
 1072000     1.093607   -2.4839755    1197.4097  0.093082221  0.093682434            2 
 1073000    1.0654829   -2.4831566    1202.7366  0.093409177  0.093668508            5 
 1074000    1.0746888   -2.4672339    1199.9407  0.093105271   0.09365436            3 
 1075000    1.0461044   -2.4905298    1201.3072  0.093124588  0.093640136            3 
 1076000    1.0841268   -2.5039336    1197.3048  0.092728064  0.093625461            1 
 1077000    1.0861683   -2.5129016    1206.0223  0.093316486  0.093611492            3 
 1078000    1.1022315   -2.4910624    1204.3046  0.093097138  0.093597355            1 
 1079000    1.0928096    -2.502011    1203.5569  0.092953116  0.093583722            2 
 1080000     1.048006   -2.5071749    1206.9386  0.093127981  0.093569508            1 
 1081000     1.082823   -2.5384401    1200.9907  0.092583308  0.093555592            1 
 1082000    1.0791296   -2.5076028    1212.7845  0.093406078  0.093541285            2 
 1083000    1.0901884   -2.4897522    1205.4146  0.092752743  0.093528196            3 
 1084000    1.1051518   -2.4932504    1210.5297  0.093060398  0.093515176            3 
 1085000    1.0937179   -2.4954217    1214.6508  0.093291155  0.093502503            1 
 1086000    1.0808169   -2.4922855    1216.2869  0.093330796  0.093490107            1 
 1087000    1.0698636   -2.5142411    1211.8191  0.092902412  0.093476509            1 
 1088000    1.1246222   -2.4801682    1217.0681  0.093219066  0.093462969            2 
 1089000    1.0835866   -2.5463562    1214.1558  0.092910609  0.093449623            2 
 1090000    1.0653184   -2.4996977     1214.632  0.092861773  0.093436545            1 
 1091000    1.1043563   -2.4659253    1215.6919  0.092857618   0.09342324            2 
 1092000    1.0760034   -2.5108597    1225.6657  0.093533708   0.09341037            2 
 1093000    1.1008873   -2.4661285    1224.6898  0.093373729  0.093397837            2 
 1094000    1.0653305   -2.5081359    1221.6369  0.093055825  0.093386086            1 
 1095000    1.0778373   -2.5082542    1223.8132  0.093136466  0.093373804            1 
 1096000    1.0813759   -2.5014548    1226.3221  0.093242253  0.093360876            1 
 1097000    1.0984247   -2.4869924     1224.489  0.093018004  0.093348131            3 
 1098000    1.1025705   -2.4947608    1229.1508  0.093287098  0.093335964            1 
 1099000    1.0856897   -2.4912708     1226.459  0.092998102  0.093324037            2 
 1100000    1.0642703   -2.4902842     1228.615   0.09307689  0.093311922            1 
 1101000    1.0898769   -2.4788929    1232.5608  0.093291004  0.093299366            2 
 1102000    1.0665518   -2.4740672    1235.2549  0.093410078  0.093287535            2 
 1103000    1.0618494   -2.4702097    1228.0437  0.092780577  0.093274882            2 
 1104000    1.0665899   -2.5084791    1236.6299  0.093344647  0.093263415            3 
 1105000    1.0798217   -2.5039461    1233.2475   0.09300509  0.093251283            2 
 1106000    1.0627242    -2.506803    1237.7922  0.093263425  0.093239656            1 
 1107000    1.0602016   -2.5071833    1232.4732   0.09277877  0.093227654            2 
 1108000    1.0597119      -2.4439     1242.523   0.09345089   0.09321581            1 
 1109000    1.0887352   -2.5222619    1240.3173   0.09320088  0.093204833            1 
 1110000    1.0768227    -2.502355    1232.1218  0.092501635  0.093193609            3 
 1111000    1.0863036   -2.5126829    1241.1322  0.093094227  0.093181706            2 
 1112000    1.0645255   -2.4883306    1244.0434  0.093228674  0.093169214            3 
 1113000     1.067318   -2.4878132    1240.9494  0.092913249  0.093157887            1 
 1114000    1.0659439   -2.5090408    1241.5894  0.092877722  0.093146176            1 
 1115000    1.0809239   -2.5243795    1238.9417  0.092596538  0.093134177            2 
 1116000    1.0443047   -2.5071276    1245.6639  0.093015526  0.093122556            2 
 1117000    1.0543356   -2.4820824     1245.983  0.092956056   0.09311014            2 
 1118000    1.0640576   -2.4872587    1250.4016  0.093202267  0.093098075            3 
 1119000    1.0860297   -2.5140268    1248.3958  0.092969599  0.093085675            2 
 1120000    1.0538904   -2.4869814    1247.5354  0.092822577  0.093072227            2 
 1121000    1.0897411   -2.4817651    1248.0615  0.092778881  0.093059708            3 
 1122000    1.0692987   -2.5227444    1249.9733  0.092838182  0.093047833            1 
 1123000    1.0717553   -2.5035951    1248.3748  0.092636894  0.093034887            1 
 1124000    1.0724333   -2.4832449     1250.676  0.092725088  0.093022614            1 
 1125000    1.0731812   -2.4704365    1252.2613  0.092760098  0.093010348            4 
 1126000     1.056471    -2.489468    1257.2015  0.093043334  0.092997983            1 
 1127000    1.0746113   -2.5195072    1251.4809  0.092537779  0.092985825            1 
 1128000    1.0785234   -2.4883984    1255.3331  0.092740327   0.09297288            1 
 1129000    1.0549915   -2.5047301    1259.8878  0.092994377  0.092960106            2 
 1130000    1.0403749   -2.4889608    1258.4845  0.092808592  0.092946569            3 
 1131000     1.056082   -2.4836257    1256.6451  0.092591001  0.092933106            2 
 1132000    1.0824867   -2.5149103    1253.1829  0.092254336  0.092919447            1 
 1133000    1.0751377   -2.5034051    1259.8309  0.092661876  0.092905997            4 
 1134000    1.0801952   -2.5027305    1257.9782  0.092444017   0.09289228            2 
 1135000    1.0491633   -2.5077811    1262.4729   0.09269258  0.092879841            1 
 1136000    1.0850577   -2.5358776    1257.5387  0.092249022  0.092867273            4 
 1137000    1.0699203   -2.4933989    1263.2088  0.092583467  0.092854498            2 
 1138000    1.0811741    -2.488148    1263.2248  0.092503279  0.092842488            1 
 1139000    1.0601197   -2.4933994    1266.2189  0.092641124  0.092829179            3 
 1140000    1.0766993   -2.5120838    1266.6406  0.092590688  0.092816545            3 
 1141000     1.085608   -2.4780881    1264.7134  0.092368783  0.092803898            2 
 1142000    1.0471943   -2.5648136    1262.6018  0.092133814  0.092791393            2 
 1143000    1.0696634   -2.5119773    1263.8542  0.092144515  0.092778121            1 
 1144000     1.050472   -2.5217438     1267.341  0.092317964   0.09276547            3 
 1145000    1.0933058   -2.5111205    1268.5681  0.092326644  0.092752731            2 
 1146000    1.0752938   -2.5099002    1274.2437  0.092658788  0.092739702            2 
 1147000    1.0491328   -2.5490619      1273.36  0.092513803  0.092726421            3 
 1148000    1.0525871   -2.5099002     1266.624  0.091944253  0.092712872            2 
 1149000    1.0724387   -2.5031681    1276.9709  0.092614655  0.092699438            1 
 1150000     1.075997   -2.5099486    1270.4767  0.092063528  0.092685567            3 
 1151000     1.061803   -2.4815126    1275.4669  0.092344835  0.092672173            3 
 1152000    1.0889058   -2.5050636    1278.2984  0.092469503  0.092658381            3 
 1153000    1.1063454   -2.5210274    1271.8728  0.091924891  0.092644582            2 
 1154000    1.0567614   -2.5041799    1278.8991  0.092352623  0.092630997            1 
 1155000    1.0326777    -2.529271    1276.8342  0.092123676  0.092617416            2 
 1156000    1.0623096    -2.490529    1276.5042    0.0920202  0.092604023            1 
 1157000     1.074331   -2.4870468    1281.6611  0.092312093  0.092590617            4 
 1158000    1.0525915   -2.5159164    1284.0502  0.092404305  0.092576946            2 
 1159000    1.0888351   -2.5347426    1283.5982  0.092292074  0.092563991            7 
 1160000    1.0478501    -2.512981    1279.1259  0.091891228  0.092550183            2 
 1161000    1.0749189   -2.5068626    1277.4024  0.091688373  0.092536754            2 
 1162000     1.060475   -2.5092679    1283.2348  0.092027737  0.092522878            4 
 1163000    1.0824956   -2.5373338    1288.5602  0.092330192  0.092509961            2 
 1164000    1.0856094   -2.5125204    1284.8099  0.091982384  0.092496756            1 
 1165000    1.0484386   -2.5075667    1288.4804  0.092165978  0.092482715            2 
 1166000    1.0832748    -2.496745    1290.2243   0.09221157  0.092468865            2 
 1167000    1.0487987   -2.5155855    1288.2151  0.091989078  0.092456042            1 
 1168000    1.0527182   -2.5148333     1292.882  0.092243292  0.092442927            1 
 1169000      1.07038    -2.513724    1290.9678  0.092027926  0.092429623            2 
 1170000    1.0648015   -2.5040912    1297.0345  0.092381377  0.092416478            1 
 1171000    1.0536424   -2.4939715    1290.5792  0.091843095  0.092403018            2 
 1172000    1.0527504   -2.4921198    1299.2441   0.09238084   0.09239029            3 
 1173000    1.0615588   -2.5276584     1294.882  0.091992187  0.092377008            2 
 1174000    1.0767565   -2.5151463     1298.376  0.092161839  0.092364339            2 
 1175000    1.0895554   -2.5085585    1304.1187  0.092490688  0.092351826            1 
 1176000    1.0472307   -2.5263806    1298.5108  0.092014655  0.092339551            2 
 1177000    1.0580582   -2.5326078    1300.7948  0.092098187  0.092326752            3 
 1178000    1.0759404   -2.5183677    1303.0644  0.092180563  0.092314163            2 
 1179000    1.0670884   -2.4919733    1304.3795  0.092195326  0.092301929            2 
 1180000    1.0657125   -2.5286394    1297.3907  0.091623639  0.092289058            2 
 1181000    1.0620625   -2.5111973    1305.9408  0.092149362  0.092275849            1 
 1182000    1.0528172    -2.490401    1305.9976  0.092075406  0.092262901            3 
 1183000    1.0560764   -2.5172141     1305.359  0.091952593   0.09225056            1 
 1184000    1.0638959   -2.5168309    1308.1635  0.092072315  0.092238066            2 
 1185000    1.0875489   -2.5504028    1307.7694  0.091966903  0.092225914            2 
 1186000    1.0642294    -2.489193      1311.16  0.092127603  0.092213496            3 
 1187000    1.0647369   -2.5079093    1308.8395  0.091887078  0.092200984            3 
 1188000    1.0514391   -2.5099506    1306.6077  0.091653179  0.092188372            2 
 1189000     1.078217   -2.5050834    1307.2151  0.091618667  0.092175016            2 
 1190000    1.0726119   -2.5199144    1306.9946  0.091526231  0.092162001            1 
 1191000    1.0840613   -2.5353791    1311.4245  0.091759339  0.092148924            2 
 1192000    1.0811071   -2.5262197    1309.7967   0.09156856  0.092135065            3 
 1193000     1.055554   -2.5083871    1310.4075  0.091534471  0.092122252            3 
 1194000    1.0530755    -2.533614     1312.293  0.091589403  0.092108971            2 
 1195000    1.0631587   -2.5303817    1313.4814  0.091595635   0.09209606            2 
 1196000    1.0579175   -2.5109192    1319.1635  0.091914959  0.092082734            2 
 1197000    1.0604904   -2.5226329    1316.6502  0.091663198  0.092069865            1 
 1198000    1.0611073   -2.4994581     1315.291  0.091492138  0.092056736            2 
 1199000     1.065395   -2.4947766    1325.6211  0.092133797  0.092043652            3 
 1200000    1.0717933   -2.5227612    1321.6998  0.091784707  0.092030499            3 
 1201000    1.0672401   -2.5057737    1327.2792  0.092095424  0.092017692            3 
 1202000    1.0465904   -2.5066886     1320.646  0.091558929  0.092004555            1 
 1203000    1.0675392   -2.5028246    1324.6046  0.091757041  0.091991263            2 
 1204000    1.0435004    -2.532786    1320.0066  0.091362581  0.091978166            2 
 1205000    1.0476695   -2.5284429    1323.1882  0.091506791  0.091965205            2 
 1206000    1.0585928   -2.4950671    1320.1595  0.091221633  0.091952344            3 
 1207000    1.0639247   -2.4814902    1330.8847  0.091886546  0.091939374            3 
 1208000    1.0675219   -2.5001387    1325.8691  0.091464483    0.0919273            2 
 1209000     1.048177    -2.493853    1325.9216  0.091392442  0.091914092            1 
 1210000    1.0562041   -2.5278823    1327.9365  0.091455684  0.091900599            2 
 1211000    1.0711539   -2.5074167    1332.5518  0.091697759  0.091886965            5 
 1212000      1.06775   -2.5040775    1330.1238   0.09145516   0.09187326            4 
 1213000    1.0595072   -2.5257811    1332.3217  0.091530757  0.091860025            3 
 1214000     1.051089    -2.515246    1330.3399  0.091319326  0.091846507            2 
 1215000    1.0580159   -2.5271462    1334.8808  0.091555612  0.091833679            3 
 1216000    1.0736912   -2.5321344    1328.2291  0.091024475  0.091820358            1 
 1217000    1.0660584   -2.5587815    1332.8505  0.091266128  0.091806573            3 
 1218000    1.0584139   -2.5380699    1336.2861  0.091426255  0.091792462            3 
 1219000     1.053266   -2.5131812    1333.7468  0.091177659   0.09177842            3 
 1220000     1.035437   -2.5489896     1334.236  0.091136339  0.091765087            2 
 1221000    1.0652893   -2.5296578     1333.362  0.091002047   0.09175136            3 
 1222000    1.0612054   -2.5058897    1334.1177  0.090979109  0.091737807            1 
 1223000    1.0475457   -2.5187242    1339.1911  0.091250418  0.091723486            1 
 1224000    1.0742855   -2.5245472    1340.2915  0.091250785  0.091709686            6 
 1225000     1.037714   -2.5310279     1341.705   0.09127245  0.091695822            3 
 1226000     1.070531   -2.5562047    1342.9797  0.091284647  0.091681825            1 
 1227000    1.0704225   -2.5243258    1340.7252  0.091057128  0.091667731            2 
 1228000    1.1040694   -2.5109751    1344.4626  0.091236603  0.091654179            3 
 1229000    1.0857064   -2.5207387    1345.5844  0.091238434  0.091640607            1 
 1230000    1.0625135    -2.543288    1347.7108  0.091308318  0.091627239            3 
 1231000    1.0295681   -2.5192489     1349.645  0.091365081   0.09161358            3 
 1232000    1.0476422    -2.501908    1351.0397   0.09138526  0.091599591            3 
 1233000    1.0678389   -2.5255951    1351.0649   0.09131285  0.091586309            2 
 1234000    1.0486109   -2.5349283    1353.0876  0.091375449  0.091573397            3 
 1235000    1.0593626   -2.5075119    1352.6228  0.091270097  0.091559409            7 
 1236000    1.0533253   -2.5393281    1348.6036  0.090925267  0.091545777            1 
 1237000    1.0588356   -2.5100324    1350.1711  0.090957364  0.091532502            2 
 1238000    1.0221851   -2.4842298    1353.5147  0.091108959  0.091519497            1 
 1239000    1.0506863    -2.505158    1360.7354  0.091521078  0.091506349            3 
 1240000    1.0705742   -2.5339711    1355.4131  0.091089589  0.091493143            2 
 1241000     1.050483    -2.546114    1359.4235  0.091285488  0.091479986            7 
 1242000    1.0543927   -2.5089528    1353.5378  0.090817086  0.091466787            1 
 1243000    1.0709218   -2.5277696    1360.2326  0.091192853  0.091453745            2 
 1244000    1.0554874    -2.543687    1360.9834  0.091169845  0.091440601            3 
 1245000    1.0718851   -2.5117477    1357.9534  0.090893801  0.091427126            1 
 1246000    1.0425848   -2.5020369    1360.8702  0.091015928  0.091414205            3 
 1247000    1.0417454   -2.5485707    1362.9413  0.091081347  0.091400909            1 
 1248000    1.0539827   -2.5160379    1368.0246  0.091347797   0.09138771            1 
 1249000    1.0499633    -2.526608    1370.4154  0.091434174  0.091373694            1 
 1250000    1.0547869   -2.5393295     1365.063  0.091004197  0.091360423            1 
 1251000    1.0634314   -2.5100577    1363.3885  0.090819912  0.091346701            7 
 1252000    1.0343387   -2.5124627    1366.4432  0.090950693  0.091333425            4 
 1253000    1.0489374   -2.5010872    1370.0978   0.09112116  0.091320009            3 
 1254000    1.0126158   -2.5171512     1365.744  0.090759172  0.091306408            3 
 1255000    1.0549233   -2.5230578    1369.1799  0.090915001  0.091292928            2 
 1256000    1.0757833   -2.4967553    1372.3184  0.091050847   0.09127991            2 
 1257000    1.0761331   -2.5570173     1368.012  0.090692917  0.091266511            3 
 1258000    1.0452563   -2.5301581     1377.382  0.091241522  0.091253016            2 
 1259000    1.0363746   -2.5256352    1374.8571  0.091001927  0.091239993            1 
 1260000    1.0493819   -2.5232202    1367.7866  0.090462074  0.091226064            2 
 1261000    1.0237474   -2.5262283    1377.7383  0.091047994  0.091211699            3 
 1262000     1.047853   -2.5548782    1371.3893  0.090556609  0.091197537            3 
 1263000    1.0564868   -2.5277385    1373.4164  0.090618658    0.0911839            7 
 1264000     1.065289   -2.5225689    1372.3199  0.090474679  0.091170236            3 
 1265000    1.0614646    -2.544942    1370.8254  0.090304706  0.091155812            2 
 1266000    1.0554222   -2.5188504    1377.1452  0.090649368  0.091141431            4 
 1267000    1.0577344     -2.53742    1378.1731  0.090645428  0.091127267            4 
 1268000    1.0525214   -2.5160489    1374.0776  0.090304787  0.091112789            3 
 1269000    1.0383127   -2.5208754    1377.5246  0.090459982  0.091098302            3 
 1270000      1.06865   -2.5118599    1381.1829    0.0906288  0.091083709            3 
 1271000    1.0267832   -2.5250903    1376.2489  0.090233996   0.09106842            1 
 1272000    1.0653449   -2.5400202    1375.6729  0.090125322  0.091053465            1 
 1273000    1.0455719   -2.5152821    1379.2381  0.090287906  0.091038523            2 
 1274000    1.0424907   -2.5265846    1381.4202  0.090359769  0.091024115            6 
 1275000    1.0563013   -2.5254824    1385.8545  0.090578725  0.091009219            2 
 1276000    1.0428139   -2.4892559    1389.3742  0.090737603  0.090994543            1 
 1277000    1.0500642   -2.5415573    1385.8841  0.090438798  0.090980264            1 
 1278000    1.0444918    -2.549577    1381.9187   0.09010946  0.090965155            2 
 1279000    1.0451391   -2.5325193    1386.1582  0.090315234  0.090950316            5 
 1280000    1.0699084   -2.5490462    1386.4667  0.090264759  0.090935474            2 
 1281000    1.0586604   -2.5448623    1387.5976  0.090267865  0.090921666            2 
 1282000    1.0534664   -2.5143092    1393.8892   0.09060642  0.090907635            1 
 1283000    1.0802775   -2.5616157    1384.9214  0.089953327  0.090892888            3 
 1284000    1.0606196   -2.5418174     1396.431  0.090630258  0.090878925            2 
 1285000    1.0605965   -2.5451712    1397.2655  0.090613849  0.090865627            3 
 1286000    1.0577311   -2.5257553    1405.8094  0.091097032  0.090852254            3 
 1287000    1.0543135   -2.5119857    1396.9249  0.090450978  0.090839073            4 
 1288000    1.0351225   -2.5391328    1397.4945  0.090417607  0.090825028            1 
 1289000    1.0379272    -2.521532      1399.36  0.090468065  0.090811329            2 
 1290000    1.0464951   -2.5442431    1399.9108  0.090433516  0.090797774            2 
 1291000    1.0325347   -2.5121171    1400.3029  0.090388778  0.090784326            4 
 1292000    1.0355347   -2.5306565    1399.5574  0.090270733  0.090771133            2 
 1293000    1.0487009   -2.5162524    1406.9955    0.0906803  0.090758243            2 
 1294000     1.020177   -2.5284916    1407.2052  0.090623727  0.090745472            2 
 1295000    1.0425042    -2.542915    1406.9257  0.090535758  0.090732745            2 
 1296000    1.0419505     -2.51444    1407.4426  0.090499137  0.090720688            2 
 1297000    1.0672004   -2.5269231    1405.8109  0.090324527  0.090708276            1 
 1298000    1.0432045   -2.5380632    1412.0705  0.090656812  0.090695703            1 
 1299000    1.0353047   -2.5489537    1405.0062  0.090133834  0.090682621            1 
 1300000    1.0455619   -2.5762322    1404.9577  0.090061393  0.090669646            3 
 1301000    1.0397333   -2.5288832    1414.3643  0.090594688  0.090657273            2 
 1302000    1.0332471   -2.5108492    1412.9218  0.090432782  0.090644223            4 
 1303000    1.0269304   -2.5130399    1418.4972  0.090719955  0.090631326            4 
 1304000     1.051137   -2.5308148    1414.7594  0.090411514  0.090618802            2 
 1305000    1.0615034   -2.5428382    1419.5922  0.090650846  0.090606183            2 
 1306000    1.0594103   -2.5134655    1412.0914   0.09010282  0.090592938            2 
 1307000    1.0792328   -2.5369125    1414.1892  0.090167638   0.09057986            2 
 1308000    1.0563774   -2.5397085    1417.4524  0.090306602  0.090566549            3 
 1309000    1.0302678   -2.5328095    1424.2035  0.090667399  0.090553232            1 
 1310000    1.0474882   -2.5413715    1413.2618  0.089902151  0.090540137            2 
 1311000    1.0355226   -2.5292553    1415.7148    0.0899895  0.090526938            3 
 1312000    1.0508031   -2.5244751    1418.6776  0.090109097    0.0905134            1 
 1313000    1.0646103   -2.4996483    1423.6273  0.090354615  0.090500167            1 
 1314000    1.0146396    -2.525859    1424.5367  0.090343525  0.090486778            3 
 1315000    1.0385093    -2.545039    1419.1962  0.089936387  0.090473354            1 
 1316000    1.0243164   -2.5210181    1420.5898  0.089956292  0.090460103            1 
 1317000    1.0497522   -2.5026523    1424.6709  0.090146225  0.090445963            2 
 1318000     1.038752   -2.5332181    1425.8522  0.090152517  0.090433178            3 
 1319000    1.0619702   -2.5368091    1424.0173  0.089968243  0.090420299            5 
 1320000    1.0196304   -2.5319338    1427.8597  0.090142659  0.090406852            1 
 1321000    1.0347765     -2.51407    1434.5976  0.090499469  0.090393806            2 
 1322000    1.0642154   -2.5534311    1425.7998  0.089876438  0.090380938            4 
 1323000    1.0280678   -2.5248852    1437.1881  0.090525831  0.090367825            1 
 1324000    1.0441486   -2.5293262    1434.3831  0.090280911  0.090354371            1 
 1325000    1.0340296   -2.5226069    1434.8106  0.090239658  0.090341515            1 
 1326000    1.0471062   -2.5362552     1432.892  0.090051033  0.090328423            3 
 1327000    1.0307608   -2.5601509    1432.9053  0.089984003  0.090315571            1 
 1328000    1.0529564   -2.5469861    1434.6991  0.090028807   0.09030271            2 
 1329000    1.0168918   -2.5744211    1435.1397  0.089988691  0.090290214            1 
 1330000     1.056129   -2.5232677    1437.2733  0.090054719  0.090277185            3 
 1331000    1.0187079     -2.52246    1435.1256  0.089852591  0.090264542            4 
 1332000    1.0603561   -2.5348521    1444.3793  0.090364068  0.090252061            2 
 1333000    1.0659351    -2.522913    1441.9063  0.090141676  0.090239782            3 
 1334000    1.0597574   -2.5252086    1442.4818  0.090110054  0.090227244            3 
 1335000    1.0163826   -2.5211577    1446.5002  0.090293398  0.090214776            1 
 1336000    1.0343838   -2.5195118    1444.3373  0.090090902  0.090202387            3 
 1337000    1.0235419     -2.53953    1445.5887  0.090101514  0.090189889            2 
 1338000    1.0281159   -2.5554192    1440.4618  0.089714863  0.090177061            1 
 1339000    1.0547773   -2.5195743    1446.4304  0.090019318  0.090164727            1 
 1340000    1.0219845   -2.5390597    1444.4197  0.089827094  0.090151651            2 
 1341000    1.0505558   -2.5434178    1439.2167  0.089436784  0.090138495            4 
 1342000    1.0373237   -2.5300865    1453.4684  0.090255114  0.090125351            2 
 1343000    1.0318168   -2.5516242    1449.0751  0.089915306  0.090112505            2 
 1344000    1.0437717   -2.5202884     1449.512  0.089875496  0.090099626            4 
 1345000    1.0228688   -2.5504745     1450.637  0.089878376  0.090086644            1 
 1346000    1.0409183   -2.5224976    1449.9483  0.089768961  0.090073384            2 
 1347000    1.0335462   -2.5243855    1455.3061  0.090033784  0.090060632            2 
 1348000    1.0462046   -2.5176141    1456.2927  0.090027986  0.090047733            3 
 1349000    1.0208739   -2.5439737    1454.0657  0.089823681  0.090034842            2 
 1350000    1.0181317   -2.5521623    1447.9052  0.089376867   0.09002152            3 
 1351000     1.034342   -2.5439534    1450.4359  0.089466808  0.090007916            2 
 1352000    1.0445954    -2.528049    1458.6781  0.089908663  0.089995002            2 
 1353000    1.0341681   -2.5421405     1459.944  0.089920179  0.089982087            2 
 1354000    1.0530594   -2.5457735    1457.7773  0.089720413  0.089969486            3 
 1355000    1.0436137   -2.5126864    1458.2477  0.089683129  0.089956298            1 
 1356000    1.0345641   -2.5640988    1454.7974  0.089404954  0.089942692            3 
 1357000    1.0371202   -2.5612015    1457.3232  0.089494179  0.089928769            3 
 1358000    1.0472466   -2.5339308    1453.3804  0.089186325  0.089915158            2 
 1359000    1.0330899   -2.5341546    1465.2316  0.089847412  0.089901568            5 
 1360000     1.050077   -2.5298713    1458.7406  0.089383616  0.089888021            1 
 1361000    1.0515997   -2.5649639    1458.7944  0.089321233  0.089874866            2 
 1362000    1.0243411   -2.5414193    1467.0094  0.089758285  0.089861494            1 
 1363000    1.0394381   -2.5701978    1466.0795  0.089635576  0.089848597            1 
 1364000    1.0094071   -2.5470232    1468.8647  0.089740026  0.089835606            2 
 1365000    1.0520055   -2.5471048    1465.6895  0.089480434  0.089822448            2 
 1366000    1.0357832   -2.5190968    1472.2638  0.089815998  0.089809432            2 
 1367000    1.0276263   -2.5446021    1471.8721  0.089726411  0.089796374            6 
 1368000    1.0405499   -2.5743511    1466.5409  0.089336069  0.089782642            1 
 1369000     1.014569   -2.5560232    1463.2461  0.089070254  0.089769177            3 
 1370000    1.0176246   -2.5616897    1462.9934  0.088989867  0.089755991            3 
 1371000    1.0383458   -2.5364226    1472.5611  0.089506508  0.089742978            1 
 1372000    1.0297282   -2.5539599    1474.1902  0.089540222  0.089730624            2 
 1373000    1.0263557   -2.5476024    1479.1537  0.089776261  0.089717916            1 
 1374000    1.0265741   -2.5288802    1481.1774  0.089833663  0.089705447            2 
 1375000    1.0336933   -2.5527282    1479.1064  0.089642812  0.089693161            2 
 1376000    1.0241485   -2.5464384     1477.699  0.089492431  0.089680884            2 
 1377000    1.0348717   -2.5408129    1480.8492  0.089618081  0.089668259            1 
 1378000    1.0516563   -2.5569431    1478.4995  0.089410953  0.089655129            2 
 1379000    1.0482308   -2.5512723    1474.8188  0.089123687   0.08964191            1 
 1380000    1.0154333   -2.5574283    1477.1702    0.0892011  0.089629454            2 
 1381000    1.0250141   -2.5305277    1489.0023  0.089850488  0.089616581            1 
 1382000    1.0607744    -2.532919    1487.8604  0.089716617  0.089603968            2 
 1383000     1.025241   -2.5502457     1482.839  0.089349179  0.089591597            1 
 1384000     1.013794   -2.5817842    1483.0016   0.08929441  0.089579007            3 
 1385000    1.0315023    -2.529537    1486.6222  0.089447789  0.089566267            1 
 1386000    1.0265977   -2.5439375    1490.9675   0.08964451  0.089552962            1 
 1387000     1.018321   -2.5559331    1480.0999  0.088926934      0.08954            2 
 1388000    1.0459433   -2.5311798    1486.7364  0.089261309  0.089526958            3 
 1389000    1.0510883   -2.5793184    1489.9658  0.089390798   0.08951442            2 
 1390000    1.0227498   -2.5245422    1489.1946  0.089280253  0.089502509            2 
 1391000    1.0131133   -2.5420593    1491.3672  0.089346225  0.089489819            2 
 1392000    1.0252968   -2.5646968    1494.0038  0.089439884  0.089476943            2 
 1393000    1.0400201   -2.5609137    1487.4907  0.088986042  0.089464006            3 
 1394000    1.0395568   -2.5518873    1498.3557  0.089571721  0.089451162            2 
 1395000    1.0329314   -2.5671687    1493.8847  0.089240424  0.089438678            2 
 1396000    1.0201706   -2.5472989    1497.6535  0.089401473  0.089425956            1 
 1397000    1.0316765   -2.5492321    1492.2887  0.089017458  0.089413273            3 
 1398000    1.0283092   -2.5449236    1494.3241  0.089075111  0.089400521            2 
 1399000    1.0394743   -2.5479984    1499.5954  0.089325436  0.089387422            2 
 1400000    1.0121096   -2.5487661    1496.1084  0.089054072  0.089374667            2 
 1401000     1.016339   -2.5443864     1498.989  0.089161848  0.089361329            2 
 1402000    1.0376949   -2.5768969    1495.9147  0.088915517  0.089347427            2 
 1403000    1.0377395   -2.5405624    1500.7589  0.089139871  0.089333598            3 
 1404000    1.0365876   -2.5569877    1498.5735  0.088946667  0.089320363            5 
 1405000    1.0085177   -2.5524689    1497.6753  0.088830092  0.089307087            2 
 1406000    1.0441571   -2.5603033    1493.6434  0.088527942  0.089293665            2 
 1407000    1.0340925   -2.5404071    1502.8756  0.089011819  0.089280149            3 
 1408000    1.0242527   -2.5596877    1508.6525  0.089290512  0.089266794            6 
 1409000    1.0034481   -2.5151829    1505.6347  0.089048655  0.089253577            2 
 1410000    1.0140135   -2.5377674    1510.2715  0.089259543  0.089240855            3 
 1411000    1.0347107   -2.5726575    1502.4203  0.088732595  0.089227153            4 
 1412000    1.0497919   -2.5567592    1501.5617  0.088619081  0.089213273            3 
 1413000    1.0571587    -2.532692    1511.7858  0.089159341  0.089199552            3 
 1414000    1.0353233   -2.5471328    1505.9205   0.08875062  0.089185679            2 
 1415000    1.0288578   -2.5872697    1505.8962  0.088686464  0.089171845            2 
 1416000     1.017641   -2.5817556    1504.2583  0.088527445  0.089157971            1 
 1417000    1.0471773   -2.5363765    1510.1929  0.088813979  0.089144174            3 
 1418000    1.0382786   -2.5805687    1509.9156  0.088735048  0.089130617            1 
 1419000    1.0539031    -2.548709    1512.3597  0.088816049  0.089117015            1 
 1420000    1.0181255   -2.5595861    1514.8463  0.088899429   0.08910423            2 
 1421000    1.0128895   -2.5387017    1519.2785  0.089096791   0.08909131            3 
 1422000    1.0294164   -2.5603076    1513.5041  0.088695738  0.089078562            3 
 1423000    1.0217382   -2.5267438    1516.4367  0.088805146  0.089066387            1 
 1424000    1.0288599   -2.5640608    1515.0934  0.088664172  0.089053468            4 
 1425000    1.0317772   -2.5657288    1516.5243  0.088685633  0.089040807            1 
 1426000    1.0346209   -2.5763396    1524.0425  0.089062789  0.089027994            4 
 1427000    1.0401424   -2.5116091    1524.3521  0.089018462  0.089015403            2 
 1428000   0.98918979   -2.5633084    1524.2331   0.08894918  0.089002775            2 
 1429000    1.0065661   -2.5338205     1524.802  0.088920105  0.088989958            1 
 1430000    1.0185982   -2.5751963    1516.9622  0.088401061  0.088976749            3 
 1431000      1.02697   -2.5685518    1522.4585  0.088659356  0.088963263            2 
 1432000    1.0419303   -2.5603963    1521.9746  0.088569283  0.088950443            3 
 1433000   0.99687071   -2.5645755    1520.6903  0.088432795  0.088937739            1 
 1434000    1.0143404   -2.5735418    1529.9069  0.088906721  0.088924876            1 
 1435000    1.0055076   -2.5602559    1529.5987   0.08882687  0.088912245            2 
 1436000     1.008894   -2.5544365     1528.044  0.088674789  0.088899357            1 
 1437000    1.0234132    -2.555069    1533.7164  0.088942035  0.088887106            3 
 1438000    1.0300958   -2.5589375    1533.6466  0.088876137  0.088874335            2 
 1439000    1.0209989   -2.5775017    1533.2234  0.088789865  0.088861405            4 
 1440000    1.0074009   -2.5471591    1532.0109  0.088658037  0.088849154            1 
 1441000     1.032104   -2.5353261    1535.4694  0.088796521  0.088836842            1 
 1442000    1.0197822   -2.5746127    1531.2195   0.08848934  0.088824823            1 
 1443000    1.0038603   -2.5527106    1536.3577  0.088724744  0.088812127            1 
 1444000    1.0116727   -2.5506415    1535.3277  0.088603862  0.088800515            3 
 1445000     1.016448   -2.5595503    1539.3067  0.088772015  0.088788124            7 
 1446000     1.006747   -2.5553302    1538.5231  0.088665463  0.088775746            1 
 1447000    1.0184862   -2.5736214    1534.6816  0.088382954  0.088763409            3 
 1448000    1.0039665   -2.5586486    1543.3289  0.088819571  0.088750956            2 
 1449000   0.99183093   -2.5773985    1544.3056  0.088814449  0.088738449            2 
 1450000    1.0196674   -2.5730878    1541.5044  0.088592209  0.088725845            2 
 1451000     1.014307    -2.559362    1551.8603  0.089125907    0.0887133            1 
 1452000    1.0170901   -2.5570089    1543.9802  0.088612273  0.088700365            1 
 1453000    1.0332706    -2.554106    1542.2069  0.088449581  0.088688132            2 
 1454000    1.0351765   -2.5630002    1543.4444  0.088459673  0.088675772            5 
 1455000    1.0329291   -2.5470903    1547.6846  0.088641728  0.088663364            8 
 1456000    1.0074404   -2.5485285    1553.3031  0.088902421  0.088651271            1 
 1457000    1.0033272   -2.5545396    1548.5813  0.088571342  0.088639178            4 
 1458000    1.0100833   -2.5579365    1548.5833  0.088510706  0.088626678            2 
 1459000    1.0142761   -2.5774522    1549.9467  0.088527913  0.088614261            2 
 1460000    1.0211716   -2.5323428    1555.9421  0.088809479  0.088601952            2 
 1461000    1.0070946   -2.5581709    1555.5152  0.088724344  0.088589926            1 
 1462000    1.0230679   -2.5516798    1550.2779  0.088365132  0.088577257            1 
 1463000    1.0262359   -2.5698002     1556.847  0.088678913  0.088564956            1 
 1464000    1.0013047   -2.5408387    1553.0968  0.088404874  0.088552451            2 
 1465000    1.0043565   -2.5617737    1554.2166  0.088408223  0.088540105            2 
 1466000    1.0276144   -2.5733981     1560.966  0.088731581  0.088527906            5 
 1467000    1.0178606   -2.5848717     1559.415  0.088582993  0.088515592            5 
 1468000    1.0163375   -2.5423066    1560.1762  0.088565861  0.088503515            1 
 1469000    1.0094856   -2.5605529    1553.8628  0.088147425  0.088491774            3 
 1470000    1.0239021   -2.5815937    1561.8046  0.088537675  0.088479421            2 
 1471000    1.0176247   -2.5636083    1569.7233  0.088926089  0.088467734            2 
 1472000    1.0279706   -2.5844785    1559.5472  0.088289583  0.088455389            3 
 1473000    1.0278769   -2.5708155    1565.7274  0.088579284  0.088442982            2 
 1474000    1.0308102   -2.5618055    1551.5214  0.087716047  0.088430073            3 
 1475000    1.0150598   -2.5870359    1556.7578  0.087952418    0.0884172            3 
 1476000    1.0269633   -2.5757056     1557.923  0.087958617  0.088404463            2 
 1477000    1.0209718   -2.5351175    1572.1454  0.088701498  0.088391931            2 
 1478000    1.0368855    -2.564177      1564.82  0.088228459  0.088379506            1 
 1479000    1.0190008    -2.575037    1575.0646  0.088746032   0.08836753            1 
 1480000    1.0244397   -2.5595159    1570.0489  0.088403653  0.088355017            1 
 1481000    1.0389838   -2.5760006    1566.9103  0.088167356  0.088342739            3 
 1482000    1.0211905   -2.5670931    1567.8398   0.08816013  0.088329818            1 
 1483000    1.0058185   -2.5536116    1572.3815  0.088355896  0.088317188            3 
 1484000    1.0105825   -2.5791855    1567.7929  0.088038686  0.088304635            3 
 1485000   0.98206584   -2.5563083    1581.9145  0.088771857  0.088292003            3 
 1486000   0.99881024   -2.5408543    1564.2182  0.087719728  0.088278627            2 
 1487000    1.0416324   -2.5648056    1570.4351  0.088009141  0.088265684            2 
 1488000    1.0225455    -2.529209    1577.4025  0.088340192  0.088252197            3 
 1489000    1.0023353   -2.5573354    1572.9047  0.088029143  0.088238903            3 
 1490000    1.0135851   -2.5772299    1567.4964  0.087667582  0.088225059            4 
 1491000   0.99981029   -2.5591189    1571.5154   0.08783341  0.088211114            1 
 1492000    1.0200254   -2.5536388    1571.8822  0.087795029  0.088197545            2 
 1493000    1.0112592     -2.58522    1571.5353   0.08771686  0.088184073            1 
 1494000    1.0137452   -2.5538297    1572.6812  0.087722066  0.088170681            1 
 1495000    1.0273668   -2.5564646    1579.5275  0.088045012  0.088157389            2 
 1496000    1.0232293   -2.5725498    1574.1587  0.087687092  0.088144158            2 
 1497000   0.99998214   -2.5670687    1577.9905  0.087841821  0.088130801            2 
 1498000    1.0151465   -2.5396122    1577.3299  0.087746434  0.088117548            2 
 1499000   0.99849431   -2.5766306    1576.2561  0.087628205  0.088104441            3 
 1500000    1.0094463   -2.5662761    1589.3345  0.088296362  0.088091461            3 
 1501000     1.013587   -2.5840443    1582.5706  0.087862012  0.088078786            1 
 1502000    1.0123542   -2.5808557    1575.0537  0.087386469  0.088065468            1 
 1503000     1.020083   -2.5836894    1580.5719  0.087634283  0.088052157            2 
 1504000    1.0273935   -2.5623132    1581.6224  0.087634218  0.088039461            3 
 1505000    1.0148752    -2.577331    1583.2436  0.087665758  0.088026372            2 
 1506000    1.0101053   -2.5657816    1587.6483  0.087851277  0.088013392            2 
 1507000    1.0225431    -2.566721    1586.6608  0.087738379  0.088000478            4 
 1508000    1.0187899   -2.5701238    1592.0755  0.087979413  0.087987907            1 
 1509000    1.0214617   -2.5716067     1589.354  0.087770817  0.087975516            5 
 1510000   0.99447413   -2.5864956    1595.8073  0.088068835  0.087962664            3 
 1511000    1.0219739   -2.5750802     1591.319  0.087763014  0.087949938            2 
 1512000   0.99959661   -2.5875098    1583.4628   0.08727198  0.087937248            2 
 1513000    1.0251237   -2.5753259    1589.7171  0.087558775  0.087924412            2 
 1514000   0.99310342   -2.5780281    1598.0217  0.087958039  0.087911543            1 
 1515000    1.0223285   -2.5570685    1592.2227  0.087581009  0.087898985            2 
 1516000    1.0301953    -2.575539    1601.9919   0.08806024  0.087886463            2 
 1517000    1.0173276   -2.5870728    1598.5525  0.087813258   0.08787382            1 
 1518000    1.0144959   -2.5821058    1600.8779  0.087883066  0.087861625            1 
 1519000    1.0148978   -2.5774592     1600.822  0.087822143  0.087848867            1 
 1520000    1.0262252   -2.5683459    1602.2713  0.087843823  0.087836418            5 
 1521000    1.0102031   -2.5837823    1598.1218  0.087558721  0.087823515            4 
 1522000    1.0064361   -2.5614421    1599.9458  0.087601062  0.087810211            4 
 1523000    1.0284946   -2.6123858    1591.1475  0.087062131  0.087797374            3 
 1524000    1.0122264   -2.5561267    1597.1986  0.087335883  0.087784003            1 
 1525000    1.0059994   -2.5794431    1605.3977  0.087726648   0.08777049            1 
 1526000    1.0211758   -2.5801724    1599.7593  0.087361256  0.087757422            1 
 1527000   0.99723626   -2.5834278    1603.2326  0.087493593  0.087744082            3 
 1528000      1.01255   -2.5799828    1598.7239   0.08719044  0.087730499           10 
 1529000    1.0000364   -2.5669095    1599.6797  0.087185506  0.087716414            4 
 1530000    1.0089885   -2.5601587    1602.3553  0.087274254  0.087702556            3 
 1531000    1.0207845   -2.5661745    1597.2954  0.086941835  0.087688518            5 
 1532000   0.99387974   -2.5874981    1601.2574  0.087100596  0.087674476            2 
 1533000   0.98480558   -2.5891775    1603.3672  0.087158471  0.087660064            1 
 1534000   0.99612058   -2.5652622    1604.1489  0.087144114  0.087646286            2 
 1535000    1.0109343   -2.5805252    1613.1424  0.087575592  0.087632436            2 
 1536000   0.99792395   -2.5765338    1598.7953  0.086740195  0.087618735            2 
 1537000    1.0193386   -2.5861545    1608.5307  0.087211599  0.087604838            2 
 1538000    1.0023972   -2.5859521    1612.2954  0.087358876  0.087590875            3 
 1539000    1.0027166   -2.5846829    1607.8483   0.08706131  0.087576979            3 
 1540000    1.0038387   -2.5852519    1606.7768  0.086946794  0.087562996            2 
 1541000    1.0288552   -2.6032629    1608.6006  0.086988999  0.087548915            3 
 1542000    1.0394164   -2.5604268    1613.0276  0.087171831  0.087535171            2 
 1543000    1.0082372   -2.5818511    1609.2732  0.086912574   0.08752122            2 
 1544000   0.99966916   -2.5540679    1612.9562  0.087055061  0.087507851            2 
 1545000    1.0068886    -2.570744    1618.6994  0.087308492  0.087493951            1 
 1546000    1.0155555   -2.5815898    1614.6592  0.087034239  0.087480361            2 
 1547000    1.0303106   -2.5761384    1614.8384  0.086987633  0.087466366            3 
 1548000    1.0061106   -2.5631297    1621.6082  0.087295876  0.087452478            1 
 1549000       1.0063   -2.5861695    1612.7799  0.086764575  0.087438389            3 
 1550000    1.0104348   -2.5776371    1618.5312  0.087017806  0.087423926            5 
 1551000   0.97996822   -2.5703604    1619.4538   0.08701127  0.087409691            2 
 1552000   0.99422554   -2.5995824    1621.5455  0.087067521  0.087395387            2 
 1553000    1.0136656   -2.5923303    1614.3109  0.086623251  0.087381205            2 
 1554000    1.0041031   -2.5827219    1618.7511  0.086805616  0.087367011            2 
 1555000    1.0025543   -2.5948233    1617.2862  0.086671288  0.087352962            1 
 1556000    1.0182995   -2.5730543    1625.7111  0.087066789   0.08733917            3 
 1557000   0.98954606    -2.582052    1623.7255  0.086904599  0.087325164            1 
 1558000    1.0264879    -2.563319    1628.7883  0.087119614   0.08731151            4 
 1559000    0.9889031   -2.5679149    1629.6797  0.087111379  0.087297849            2 
 1560000    0.9866022   -2.5828332    1625.7506  0.086845651  0.087284503            2 
 1561000    1.0240397   -2.5888658    1629.3614  0.086982779  0.087270917            1 
 1562000    1.0027799   -2.5757755    1626.4142  0.086769857   0.08725745            1 
 1563000   0.99548394   -2.5852526    1632.9773  0.087064264  0.087244321            3 
 1564000    1.0027538   -2.5912795    1625.3623  0.086602853  0.087230668            1 
 1565000   0.99719897   -2.5707465    1630.6001  0.086826416  0.087217437            5 
 1566000    1.0160283   -2.5845056    1631.0245  0.086793555   0.08720431            4 
 1567000   0.99921223   -2.5823998    1636.2229  0.087014617  0.087191514            3 
 1568000   0.98615929   -2.5894462    1635.2705   0.08690851  0.087178189            3 
 1569000    1.0060982   -2.5626131    1629.7023  0.086557377  0.087165178            2 
 1570000   0.98057085   -2.5793766    1637.2875  0.086904859  0.087152229            3 
 1571000   0.98922726   -2.5596705    1646.0726  0.087315544  0.087139131            3 
 1572000    1.0173465   -2.5972462    1636.1117  0.086731962  0.087126723            2 
 1573000    1.0101121   -2.5571117     1640.582  0.086913647  0.087113767            2 
 1574000    1.0090951    -2.579095    1642.4761  0.086958708  0.087101103            3 
 1575000    1.0059459   -2.5582056    1650.1028  0.087307028  0.087088374            2 
 1576000    1.0130263   -2.6147885    1648.0582  0.087143519  0.087075473            2 
 1577000   0.98630669   -2.5744985     1652.169  0.087305484  0.087063163            1 
 1578000    1.0007292   -2.6006971    1649.5102  0.087109746  0.087050404            2 
 1579000   0.99328061   -2.5705068    1644.0883  0.086768437  0.087037791            2 
 1580000    1.0269005   -2.5952311    1641.0086  0.086551086  0.087025577            2 
 1581000   0.99350819   -2.5654832    1649.0812  0.086921843    0.0870129            2 
 1582000   0.99802823   -2.5866251    1648.1215  0.086816346  0.087000361            2 
 1583000   0.97487872   -2.5840562    1651.0536  0.086915855  0.086987729            6 
 1584000   0.99035686   -2.5849949    1653.9847  0.087015188  0.086974935            2 
 1585000    1.0116596   -2.5509983    1655.0152  0.087014468  0.086962366            3 
 1586000    1.0004853   -2.5917964    1655.8081  0.087001268  0.086949253            2 
 1587000     1.021324   -2.5813261    1654.4617  0.086875746  0.086936433            2 
 1588000     1.009635   -2.5961864    1653.3915  0.086764879  0.086923639            1 
 1589000   0.99831186   -2.5591351    1661.0713  0.087113032  0.086911208            2 
 1590000    0.9952003   -2.5734292    1659.6658  0.086984579   0.08689874            2 
 1591000    1.0056902   -2.5810406    1661.8283  0.087043178   0.08688632            2 
 1592000   0.99606644   -2.5670242    1666.2563  0.087220285  0.086873353            3 
 1593000    1.0090882   -2.6055521    1658.1224  0.086740031   0.08686111            2 
 1594000    1.0062651    -2.584531    1663.6511   0.08697465  0.086848219            2 
 1595000   0.99665475   -2.6252005    1665.1241  0.086997079  0.086835013            1 
 1596000    1.0047645   -2.5905494    1658.9486  0.086620121   0.08682238            4 
 1597000    1.0090059   -2.5708431    1662.8266  0.086768245  0.086809813            3 
 1598000   0.98384215   -2.6107281    1657.8971   0.08645688  0.086796762            4 
 1599000   0.99835749   -2.5732043    1659.3401   0.08647801  0.086783477            1 
 1600000   0.96653903   -2.5571984    1663.0033  0.086614756  0.086769971            3 
 1601000   0.99163174   -2.5937351    1662.3707  0.086527725  0.086756804            1 
 1602000    0.9995415   -2.5941936    1665.7697  0.086650525  0.086743893            2 
 1603000   0.99036695    -2.576412    1666.5675  0.086637943  0.086730984            4 
 1604000    0.9907936   -2.5745162    1666.2187  0.086565811  0.086718542            3 
 1605000      0.98982   -2.5737871     1665.354  0.086466977  0.086705983            3 
 1606000   0.99535534   -2.5923446    1669.1673  0.086611007    0.0866937            2 
 1607000    1.0083255   -2.5683789    1671.1108  0.086657891  0.086681178            3 
 1608000    1.0014456     -2.58367     1668.474  0.086467349  0.086668394            2 
 1609000   0.98783279   -2.6133345    1670.9635  0.086542549    0.0866556            3 
 1610000    1.0067467   -2.6017638    1676.3959  0.086769975  0.086642752            2 
 1611000   0.97350843   -2.5848941    1668.1213  0.086288085  0.086630143            3 
 1612000   0.99144671   -2.6009914     1669.365  0.086298853   0.08661759            5 
 1613000   0.99040027   -2.5940705    1676.3111  0.086604213  0.086604495            2 
 1614000   0.98930064   -2.5996278    1667.4418  0.086092619  0.086592036            2 
 1615000   0.97831272   -2.6049031    1668.5189  0.086094886  0.086578819            4 
 1616000     0.970287   -2.5957048    1683.9815  0.086838978  0.086566064            1 
 1617000   0.99231996   -2.5770183    1676.8754  0.086419056  0.086553609            4 
 1618000   0.99509699   -2.5892361    1678.2917  0.086438593  0.086540802            3 
 1619000    1.0119094   -2.6117807    1684.7335  0.086716774  0.086528507            2 
 1620000    1.0060372   -2.6033111    1682.3255  0.086539377  0.086516034            1 
 1621000   0.98401821   -2.6226282    1676.6517  0.086194307  0.086503336            3 
 1622000    1.0012668   -2.5939755    1689.5528  0.086803986  0.086490432            3 
 1623000   0.99063457   -2.5973892    1680.2192  0.086271265  0.086478018            4 
 1624000   0.98275688   -2.6081824    1689.1565   0.08667675  0.086465781            2 
 1625000    0.9960643   -2.5839112    1681.3647  0.086223829  0.086453465            2 
 1626000   0.98234274   -2.6044673    1688.5747  0.086540318  0.086441535            2 
 1627000    1.0054816   -2.6017127     1684.289   0.08626762  0.086429784            3 
 1628000    1.0202261   -2.6028246    1687.4871  0.086378333  0.086417946            1 
 1629000   0.97374308    -2.585004    1693.9551  0.086656184  0.086405846            1 
 1630000    1.0133178   -2.5774299    1692.4772  0.086527463  0.086394016            1 
 1631000   0.99339372   -2.6060318    1695.4964  0.086628672  0.086382438            2 
 1632000     1.004736   -2.6075694    1690.9956  0.086345772  0.086370728            2 
 1633000   0.97713163    -2.565157    1695.3243  0.086513793  0.086358974            3 
 1634000   0.96623513   -2.5807586    1701.2059  0.086760804  0.086347018            3 
 1635000    1.0077066   -2.5671518    1700.2049  0.086656723  0.086335423            1 
 1636000   0.99759195   -2.5761445    1695.9739  0.086388237  0.086323239            2 
 1637000   0.98035303   -2.6118745    1701.9833  0.086641381   0.08631111            5 
 1638000   0.98974949    -2.589005    1704.8078  0.086732186  0.086298988            1 
 1639000    1.0086608   -2.6268099    1697.6237  0.086313996  0.086286565            2 
 1640000    0.9697557   -2.5748372    1695.3276  0.086144693  0.086273907            2 
 1641000   0.99770545   -2.5901358    1700.7766  0.086368913  0.086261636            2 
 1642000    1.0051272   -2.5882769    1695.3525  0.086041031  0.086249857            4 
 1643000   0.98584626   -2.6195547    1690.7085  0.085753119  0.086237598            1 
 1644000   0.99299183   -2.5923321    1696.0866  0.085973573  0.086224764            3 
 1645000   0.98929179   -2.6176017     1702.541  0.086248277  0.086212343            3 
 1646000   0.98113932   -2.5997514    1691.3669   0.08563016  0.086199919            1 
 1647000    0.9974736   -2.5932914     1700.475  0.086039012  0.086187485            3 
 1648000    1.0018667   -2.6048455    1707.7244  0.086353376  0.086174503            1 
 1649000   0.99391134   -2.6264877    1696.2142  0.085719334   0.08616151            2 
 1650000    1.0054997    -2.601682    1697.7411  0.085744498  0.086148332            2 
 1651000   0.97048573   -2.6127966    1697.8264   0.08569687  0.086135288            2 
 1652000   0.96978674   -2.5932191    1705.5206   0.08603312  0.086122439            4 
 1653000   0.98221135     -2.62242    1694.7807   0.08543964  0.086109543            2 
 1654000   0.99400533    -2.603193    1705.8461  0.085945492   0.08609626            3 
 1655000     1.007835   -2.5790169    1712.3522   0.08622116  0.086083569            4 
 1656000   0.98200364    -2.582865    1712.5418  0.086178631  0.086070781            5 
 1657000    1.0064403   -2.6142785    1708.1735  0.085906935  0.086058034            1 
 1658000   0.98403349   -2.5899773    1709.3068  0.085912084  0.086045037            2 
 1659000    1.0069331   -2.6002354    1705.2005  0.085654033  0.086032317            3 
 1660000   0.97761769   -2.6149445    1710.5319  0.085870074  0.086019451            1 
 1661000    1.0026283   -2.5983546    1714.1125  0.085998019  0.086006694            3 
 1662000   0.99133085   -2.6063804    1710.4097  0.085760613  0.085993543            2 
 1663000   0.99081693   -2.5805731    1709.4229  0.085659595  0.085980533            1 
 1664000   0.98091683   -2.5786254    1712.2769  0.085751046   0.08596767            2 
 1665000   0.98786412   -2.5916017    1713.3221  0.085751858  0.085954688            3 
 1666000   0.96937617   -2.5835479    1714.8044  0.085774529  0.085941898            3 
 1667000   0.97389591   -2.6080126    1720.2886  0.085997228  0.085928698            2 
 1668000   0.98681764   -2.5942557    1715.7512  0.085718984  0.085915394            1 
 1669000    1.0007897    -2.617734    1711.5813  0.085459423   0.08590197            3 
 1670000   0.98252591   -2.5773899    1713.8839  0.085523149  0.085888735            3 
 1671000   0.96551321   -2.6136475    1712.7346  0.085414651  0.085875239            2 
 1672000    1.0062555   -2.6039883    1714.2702  0.085440102  0.085861926            3 
 1673000   0.97623655   -2.5902138    1724.0678  0.085877056   0.08584848            2 
 1674000   0.97418983   -2.6260464    1713.2195   0.08528572  0.085835306            1 
 1675000    1.0034344    -2.609039    1716.6337  0.085404664  0.085821466            2 
 1676000   0.96312857   -2.6090041    1715.5868  0.085301651  0.085807379            2 
 1677000   0.97526793   -2.5647427    1726.0955  0.085772982  0.085793581            3 
 1678000   0.96759397    -2.610087    1715.3571  0.085188572  0.085779896            1 
 1679000   0.97819172    -2.617629    1718.0381  0.085270899  0.085765671            2 
 1680000   0.97911645   -2.6035646    1720.3051  0.085332593  0.085751882            1 
 1681000   0.97256754   -2.6199973    1720.8141  0.085307064  0.085737885            2 
 1682000   0.97874063   -2.5851508    1721.1552  0.085273245  0.085723939            2 
 1683000   0.98846204   -2.6005498    1725.2247   0.08542408  0.085710203            2 
 1684000    0.9782479   -2.5931878    1718.7074  0.085050843   0.08569657            2 
 1685000   0.97401804   -2.6064457    1727.3101   0.08542582   0.08568276            3 
 1686000     0.974815   -2.5962445    1735.1392  0.085762122  0.085668761            5 
 1687000   0.97330618   -2.6057275    1724.4363  0.085182589  0.085655009            3 
 1688000   0.98365792   -2.6025506     1722.583  0.085040631   0.08564102            3 
 1689000    0.9743281   -2.5962474     1728.879  0.085300918  0.085627136            2 
 1690000   0.98562672   -2.6015728    1724.5516  0.085037059  0.085613706            2 
 1691000   0.96346921   -2.6331589    1725.4593  0.085031505  0.085600077            2 
 1692000   0.98932596   -2.5958847    1729.3539  0.085173066  0.085586507            2 
 1693000   0.96330194   -2.5877039    1732.7767  0.085291234  0.085572688            2 
 1694000    0.9950607   -2.5988955    1732.5085  0.085227691   0.08555897            3 
 1695000    1.0036765   -2.5847586    1734.1865  0.085259905  0.085545294            2 
 1696000   0.98635071   -2.6044503    1730.6667  0.085036687  0.085531642            1 
 1697000    0.9642665   -2.5971456    1730.1358  0.084960508  0.085517961            1 
 1698000   0.99232595    -2.605345    1740.0566  0.085397361  0.085504113            4 
 1699000   0.97759168   -2.6151132    1728.9013  0.084799946  0.085490239            2 
 1700000   0.99773007   -2.6272945     1732.965  0.084949263  0.085476713            2 
 1701000   0.97012019   -2.5827835    1743.8618  0.085433166  0.085462934            3 
 1702000   0.96627851   -2.5995897    1742.6216  0.085322247  0.085449055            2 
 1703000   0.96091589   -2.5969972    1741.3162   0.08520827  0.085435831            2 
 1704000   0.98677965   -2.5946087    1730.6133  0.084634844  0.085422187            3 
 1705000   0.97313763   -2.6100283    1745.8775  0.085331257  0.085408418            1 
 1706000   0.97199303   -2.6231658     1740.129   0.08500044  0.085395026            3 
 1707000   0.95725709   -2.6079951    1740.2787  0.084957951  0.085381229            2 
 1708000   0.98468542   -2.6072318    1741.2284  0.084954546    0.0853674            2 
 1709000   0.97812884   -2.6007602    1741.9719  0.084941093  0.085353831            2 
 1710000   0.97055095   -2.5930147    1741.7399  0.084880113    0.0853405            3 
 1711000    1.0004359   -2.5810473     1744.465   0.08496323  0.085327077            3 
 1712000   0.97853463   -2.5951065     1742.736  0.084829441  0.085313536            1 
 1713000   0.97823223   -2.6003634    1753.0193  0.085280177  0.085300247            3 
 1714000   0.98197324   -2.6303312    1743.4129  0.084763367  0.085286744            2 
 1715000   0.97816136   -2.6177563    1747.5873  0.084916781  0.085273271            4 
 1716000    0.9949163   -2.5930296     1754.188   0.08518784  0.085259728            1 
 1717000   0.99888391   -2.5956175    1749.5549  0.084913363  0.085246573            5 
 1718000   0.98389941   -2.6258169    1757.0324   0.08522664  0.085233419            2 
 1719000   0.98496552   -2.6179431    1749.2003  0.084797379  0.085219953            2 
 1720000   0.98840976   -2.6257252    1755.0145  0.085029774  0.085206507            3 
 1721000   0.99129835   -2.6122103    1749.1266  0.084695264  0.085193101            1 
 1722000   0.98996385   -2.6216022    1753.7448   0.08486957  0.085180041            4 
 1723000   0.97940048   -2.6358562    1751.6771  0.084720308  0.085166281            4 
 1724000    0.9667192   -2.6219916    1755.5169  0.084856773  0.085152856            3 
 1725000   0.98453889   -2.6016993    1763.4467  0.085190662  0.085139973            2 
 1726000   0.97386085   -2.6268073    1754.0239  0.084686362  0.085127206            4 
 1727000   0.96638193   -2.6022734    1760.4324  0.084946554   0.08511455            2 
 1728000   0.96421049   -2.6189697    1761.0296  0.084926196  0.085101574            3 
 1729000   0.97999054   -2.6188624    1763.5273  0.084997459   0.08508871            1 
 1730000   0.95898017   -2.6219963    1766.9672  0.085114028  0.085075553            5 
 1731000   0.97678685   -2.6136214    1761.0331  0.084779177   0.08506272            1 
 1732000   0.96250905   -2.6011433    1764.8468  0.084913724   0.08504944            1 
 1733000   0.97314225   -2.6088482    1767.7045   0.08500214  0.085036118            2 
 1734000    0.9693823   -2.6073287    1768.4628  0.084989562  0.085023031            4 
 1735000   0.99290211   -2.6142866    1765.9882  0.084821721   0.08500984            4 
 1736000   0.98303392   -2.6014372    1773.3676  0.085127094  0.084996641            2 
 1737000   0.95327089   -2.6164129    1772.4813  0.085035562  0.084983372            1 
 1738000   0.96392292   -2.5891385    1764.7828  0.084617511   0.08497051            1 
 1739000   0.97452213   -2.5790561    1771.8658  0.084908271  0.084957779            3 
 1740000   0.97572187   -2.6146065    1770.2557  0.084782361  0.084944763            2 
 1741000    0.9904611   -2.6068456     1764.248  0.084446101  0.084931781            3 
 1742000   0.97730165   -2.6363858    1777.8242   0.08504708  0.084918822            1 
 1743000   0.96589916   -2.6040153    1776.0615  0.084914012  0.084905544            2 
 1744000    0.9706172   -2.6226846    1768.6826  0.084512737  0.084892229            4 
 1745000   0.97460815     -2.61441    1759.0157  0.084002658  0.084878985            3 
 1746000   0.97704621   -2.6250079     1766.707  0.084321638  0.084865288            4 
 1747000   0.98531448   -2.5966485    1774.8057  0.084659689  0.084852002            2 
 1748000   0.97017281   -2.6245873    1780.3117  0.084873746  0.084838856            3 
 1749000   0.96398184   -2.6325367    1772.4795  0.084452046  0.084825634            3 
 1750000   0.94226729   -2.6226877     1774.507  0.084500332  0.084812107            1 
 1751000   0.98645271   -2.6102023    1778.2627  0.084630814   0.08479895            2 
 1752000   0.97667691   -2.6004325    1788.2757  0.085058777  0.084786043            1 
 1753000   0.97193817   -2.6044416     1779.179   0.08457782  0.084772666            2 
 1754000   0.97642447   -2.6299862    1777.7101  0.084459809  0.084759643            3 
 1755000   0.97758651   -2.6165066     1783.848  0.084703134   0.08474632            2 
 1756000   0.96969126   -2.6373198    1782.9668  0.084613078  0.084732884            2 
 1757000   0.97741351   -2.6361143    1777.4391  0.084302748  0.084719682            1 
 1758000   0.97047551   -2.6507362    1774.9259  0.084135659  0.084706204            3 
 1759000   0.96987468    -2.638597     1777.904  0.084228916  0.084692441            1 
 1760000   0.96844802   -2.6254114    1783.2735  0.084435298  0.084678739            4 
 1761000   0.97978902   -2.6098938    1779.4457  0.084206216   0.08466496            3 
 1762000   0.96852581   -2.6153864    1785.7737  0.084457706  0.084650764            2 
 1763000   0.96855997   -2.5939555    1786.1512  0.084427645    0.0846371            1 
 1764000    0.9869758   -2.6422884    1770.1224   0.08362256   0.08462258            1 
 1765000   0.96009276   -2.6224799    1779.6496  0.084025003  0.084608614            2 
 1766000   0.98114781   -2.6121737    1779.6198   0.08397602  0.084594455            5 
 1767000   0.95160315   -2.6475853    1779.9502  0.083944076  0.084579994            2 
 1768000   0.96221832    -2.606745    1777.7404  0.083792442  0.084565671            3 
 1769000   0.96131331   -2.6231704    1786.9058  0.084176831  0.084551402            1 
 1770000     0.968998   -2.6243309    1782.1843  0.083906981  0.084536975            2 
 1771000   0.97398642   -2.6046103    1787.8996  0.084128532  0.084522591            5 
 1772000   0.95521853   -2.6270523    1784.8259  0.083936507  0.084508424            4 
 1773000   0.99498722   -2.5993425    1789.1641  0.084093066  0.084494103            5 
 1774000    0.9488215   -2.6325701    1790.0205  0.084085893  0.084479988            1 
 1775000   0.95483141   -2.6356353    1790.8507  0.084077496  0.084465884            2 
 1776000   0.97376588   -2.6356512    1792.2109  0.084093978  0.084452129            2 
 1777000   0.96525838   -2.6087101    1789.7342  0.083930508  0.084438502            2 
 1778000    0.9710772   -2.6047415    1791.4662  0.083964481  0.084425012            3 
 1779000   0.96147285   -2.6039338    1795.3893  0.084101054  0.084411418            3 
 1780000   0.95864328   -2.5919814    1794.3624  0.084005732  0.084397717            2 
 1781000   0.97885218   -2.6239952    1796.7739  0.084071398  0.084383858            2 
 1782000    0.9569942    -2.641097    1797.0023  0.084034898  0.084370211            4 
 1783000   0.95424206   -2.5833414    1806.6247  0.084437499  0.084356715            2 
 1784000   0.95967067   -2.6094437    1798.6835  0.084019222  0.084343153            3 
 1785000   0.94529615    -2.585861      1806.05  0.084316062  0.084329427            5 
 1786000   0.95344904   -2.6158502    1793.1417   0.08366656  0.084316002            3 
 1787000   0.95981534   -2.6267824    1812.1189  0.084504706  0.084302496            3 
 1788000   0.96551166   -2.6053181    1808.2661  0.084277876  0.084289651            2 
 1789000    0.9587862   -2.6419912    1803.5673  0.084011893  0.084276429            3 
 1790000   0.97168534   -2.6399424    1804.8946   0.08402675  0.084262759            2 
 1791000   0.95607854   -2.5951684    1804.8297  0.083976816  0.084249277            4 
 1792000   0.99678227   -2.6167634    1810.0579  0.084173078  0.084236092            2 
 1793000   0.95478127   -2.6579849    1810.5517  0.084149084  0.084222917            2 
 1794000   0.94957459   -2.6047923    1810.2863  0.084089849  0.084209653            1 
 1795000   0.98786276   -2.6391503    1813.5912  0.084196433  0.084196818            1 
 1796000     0.965928      -2.6019    1812.1768  0.084083926  0.084183864            1 
 1797000   0.96563166   -2.6220437    1813.3656  0.084092266  0.084171093            3 
 1798000   0.96462616   -2.6101678    1817.7996     0.084251  0.084158438            3 
 1799000   0.95964415   -2.6085412    1812.8237  0.083973674  0.084145699            2 
 1800000    0.9548025   -2.6428379    1814.8021  0.084018614    0.0841326            1 
 1801000   0.96044225   -2.5991215     1809.546  0.083728762  0.084119811            2 
 1802000   0.95608123   -2.5952188    1821.8946  0.084253358  0.084107236            3 
 1803000   0.96121012    -2.617147    1821.9746  0.084210325  0.084094424            3 
 1804000    0.9700426   -2.6300653    1813.8183  0.083786877  0.084081689            5 
 1805000   0.97741951   -2.6260754    1819.1615   0.08398714  0.084068891            2 
 1806000   0.97690343   -2.6172982    1829.1699  0.084402449  0.084056178            3 
 1807000   0.97521009   -2.6266905    1820.2793  0.083945732  0.084043486            2 
 1808000   0.97419154   -2.6382397    1818.4309  0.083814108  0.084030591            3 
 1809000   0.96762012   -2.6214439    1825.3625  0.084087087  0.084018236            2 
 1810000   0.95103296   -2.6338173    1834.1175  0.084443716  0.084005609            3 
 1811000   0.96860061   -2.6183564    1820.2086  0.083757067  0.083993368            3 
 1812000   0.95270548   -2.6278241     1826.652  0.084007173  0.083980922            3 
 1813000   0.95345257   -2.6273963    1828.1587  0.084030094  0.083968491            2 
 1814000   0.96557872   -2.6474708    1823.4688   0.08376832  0.083955857            4 
 1815000   0.95841128   -2.6215807    1829.2565  0.083987902  0.083943851            2 
 1816000   0.97194231   -2.6074373    1835.4721  0.084226877   0.08393195            3 
 1817000     0.950665   -2.6457601     1830.948  0.083973033  0.083919604            2 
 1818000   0.94611513   -2.6137306    1837.2817  0.084217168  0.083907623            4 
 1819000   0.96308507    -2.622154      1829.77  0.083826737  0.083895915            2 
 1820000   0.95263314   -2.6316531    1838.5823   0.08418417  0.083884176            4 
 1821000   0.99404903   -2.6298041    1831.1047  0.083795751  0.083872495            2 
 1822000   0.97451367    -2.645672    1842.1677   0.08425575   0.08386075            2 
 1823000   0.95000323   -2.6413094    1834.3399  0.083851704  0.083849303            3 
 1824000   0.96479436   -2.6509482    1839.8401   0.08405702    0.0838379            3 
 1825000   0.94328639    -2.639501    1851.0846  0.084524413  0.083826216            2 
 1826000   0.97810621   -2.6366696     1835.974  0.083788518  0.083814692            3 
 1827000   0.96611319   -2.6240079    1839.5306  0.083904882  0.083803385            3 
 1828000   0.96434852   -2.6305084    1836.1743  0.083705978  0.083791617            2 
 1829000   0.97024841   -2.6318901    1848.2303  0.084209511  0.083780075            5 
 1830000   0.95653728   -2.6300822    1840.3936   0.08380663  0.083768319            2 
 1831000   0.97324756   -2.6313489    1853.9656  0.084378553  0.083756797            3 
 1832000   0.93359728   -2.6081253    1847.1543  0.084022668  0.083745291            3 
 1833000   0.96465121   -2.6401742    1853.6769  0.084273365  0.083733857            4 
 1834000   0.95160238   -2.6031494     1854.401  0.084260317  0.083722223            3 
 1835000   0.93953561   -2.6343843    1844.0972  0.083746465  0.083710479            2 
 1836000   0.95305878   -2.6290666    1848.0839  0.083881805  0.083698943            1 
 1837000   0.95676746   -2.6618225    1840.2632  0.083481362  0.083687483            2 
 1838000   0.94003248   -2.6248896    1862.9525  0.084464658  0.083675746            2 
 1839000   0.98051396   -2.6399077    1852.6139   0.08395024  0.083664114            4 
 1840000   0.95459497   -2.6138178    1851.6825  0.083862431  0.083652913            2 
 1841000   0.95254907   -2.6346531    1861.6971  0.084270195  0.083641034            1 
 1842000   0.97589456   -2.6130693    1858.5837   0.08408359  0.083629447            5 
 1843000   0.96839625   -2.6358914    1856.3771  0.083938196  0.083618005            1 
 1844000   0.97721158   -2.6217409    1858.1606  0.083973273  0.083606304            2 
 1845000   0.96161505   -2.6331437    1864.1463  0.084198115  0.083595006            7 
 1846000   0.94788007   -2.6329222    1855.1046   0.08374434  0.083583639            2 
 1847000   0.95658282   -2.6665095    1857.2408  0.083795379  0.083571791            2 
 1848000   0.95887044   -2.6284373    1859.3307  0.083844276  0.083560191            2 
 1849000   0.94844607   -2.6265846    1861.5602  0.083899415  0.083548326            4 
 1850000   0.95791949   -2.6288952    1865.3561  0.084025048  0.083536916            6 
 1851000   0.95288433   -2.6052774    1872.5611   0.08430403  0.083525577            2 
 1852000    0.9427941   -2.6422179    1857.6092  0.083585728   0.08351414            2 
 1853000   0.93852176   -2.6474577    1859.8112  0.083639648  0.083502279            2 
 1854000   0.94886929   -2.6332729    1864.5691  0.083808392  0.083490756            1 
 1855000   0.95037974   -2.6282672    1871.6478  0.084081214   0.08347924            2 
 1856000   0.95104118   -2.6737174    1865.2198  0.083747296  0.083467631            2 
 1857000   0.96364795   -2.6284291    1864.6624  0.083677186  0.083455908            3 
 1858000   0.93911926   -2.6466052    1877.2906  0.084198538  0.083444528            3 
 1859000   0.96240914   -2.6532677    1863.7087  0.083544409  0.083432632            3 
 1860000   0.94207646   -2.6330757     1875.631  0.084033647  0.083421009            5 
 1861000   0.95181362   -2.6377279    1865.6665  0.083542294  0.083409214            2 
 1862000   0.94988661    -2.648683    1868.8823  0.083641349   0.08339756            3 
 1863000   0.93708864   -2.6437909    1868.9671  0.083600246  0.083385482            2 
 1864000   0.94695306   -2.6316924    1868.9958  0.083556681   0.08337356            2 
 1865000   0.97095194   -2.6704298    1866.5085  0.083400737  0.083361607            2 
 1866000   0.96593693   -2.6520674    1872.2086  0.083610601  0.083349601            2 
 1867000    0.9260542   -2.6004214    1867.4043   0.08335138  0.083337944            3 
 1868000   0.97202533   -2.6507203    1869.8119  0.083414163  0.083325784            2 
 1869000   0.93769322   -2.6893994    1868.7399  0.083321736  0.083313499            5 
 1870000   0.96560971   -2.6475901    1871.7456  0.083411122  0.083301428            4 
 1871000   0.95936901   -2.6289931    1874.7054  0.083498372  0.083289368            1 
 1872000   0.95663798   -2.6259956    1874.7348  0.083455074  0.083277433            2 
 1873000   0.95347096   -2.6278478    1871.1776  0.083252251  0.083265416            2 
 1874000   0.94979438   -2.6495247    1872.5757  0.083269999  0.083253342            2 
 1875000   0.95094534   -2.6366281    1876.1114  0.083382727  0.083241339            1 
 1876000   0.94610294   -2.6329189    1879.5653  0.083491706  0.083229303            3 
 1877000   0.95546983   -2.5912237    1887.4361  0.083796667  0.083217566            2 
 1878000   0.93948587   -2.6438364    1886.3078  0.083701979   0.08320576            2 
 1879000    0.9345459   -2.6507312    1884.4928   0.08357694  0.083193708            2 
 1880000   0.94919797   -2.6337884    1880.3663   0.08334957  0.083181424            6 
 1881000   0.96249414   -2.6385771    1881.6154  0.083360598   0.08316948            2 
 1882000   0.94781775   -2.6477793    1874.7276  0.083011316  0.083157238            1 
 1883000     0.936703   -2.6475744    1875.0036  0.082979446  0.083144931            3 
 1884000   0.94427169   -2.6227022    1886.1914  0.083430264  0.083132531            3 
 1885000    0.9321363   -2.6318676    1879.6945  0.083098784  0.083119745            2 
 1886000   0.95590968   -2.6299555    1875.8054  0.082882883  0.083107207            3 
 1887000   0.94547086   -2.6448394    1884.7976  0.083236073   0.08309484            2 
 1888000   0.94910486   -2.6635549    1872.9276  0.082668064  0.083082408            2 
 1889000    0.9436884   -2.6365922    1877.9695  0.082846723  0.083069722            6 
 1890000   0.95094441   -2.6411886    1878.6929  0.082834783  0.083057186            3 
 1891000   0.94033178   -2.6307189    1887.3827  0.083173924  0.083044674            2 
 1892000   0.95637839   -2.6292961    1884.1734  0.082988609  0.083032684            3 
 1893000   0.92905172   -2.6576959    1883.9975  0.082937029   0.08302022            2 
 1894000   0.93867244   -2.6242238    1884.9758   0.08293628  0.083007798            4 
 1895000   0.96387684   -2.6364627    1893.0588  0.083247967   0.08299574            3 
 1896000   0.96331962   -2.6349859    1892.2916  0.083170339  0.082983472            3 
 1897000   0.96337249   -2.6593619     1893.479   0.08317866  0.082971549            2 
 1898000   0.95357324   -2.6631062    1898.6238  0.083360721  0.082959359            2 
 1899000   0.97108467   -2.6504023    1895.1939  0.083166311  0.082947444            1 
 1900000   0.95023442     -2.64113    1902.5067  0.083443276  0.082935265            7 
 1901000    0.9557076    -2.612093    1888.9164   0.08280363  0.082923103            4 
 1902000   0.94064692   -2.6121068    1900.4735  0.083266451  0.082910648            1 
 1903000   0.94720095   -2.6186799    1896.7064  0.083057732   0.08289841            3 
 1904000   0.93573423   -2.6784122    1889.3607  0.082692608  0.082886454            3 
 1905000   0.93112221    -2.652214    1897.1996  0.082992106  0.082874138            5 
 1906000   0.95913745     -2.66758     1891.164  0.082684679  0.082861818            6 
 1907000   0.96099706   -2.6301852    1903.9927  0.083201916  0.082849665            3 
 1908000   0.93638776   -2.6578196    1899.7095   0.08297124  0.082837619            2 
 1909000   0.93852729   -2.6369749    1904.7691  0.083148645  0.082825729            2 
 1910000    0.9230283   -2.6316249    1897.2539  0.082777222  0.082813774            4 
 1911000   0.94731833   -2.6322428    1898.3623  0.082782238  0.082801989            1 
 1912000   0.92981921   -2.6513358    1907.1039  0.083119938  0.082789754            4 
 1913000   0.96647455   -2.6354386    1906.7442  0.083060819  0.082777724            2 
 1914000   0.92302188   -2.6402495    1906.9152  0.083024871  0.082766199            2 
 1915000   0.94294177   -2.6486599    1908.0352  0.083030253   0.08275415            3 
 1916000   0.92053317   -2.6737955    1901.9874  0.082723876  0.082741867            8 
 1917000   0.94567503   -2.6430032    1904.6136  0.082794889  0.082729787            3 
 1918000   0.93946459   -2.6553386    1905.2212  0.082778118  0.082717513            4 
 1919000   0.93625863   -2.6525687    1911.5228  0.083008633  0.082705502            2 
 1920000   0.95929654   -2.6426978    1906.6538  0.082754071  0.082693181            2 
 1921000   0.95463538   -2.6391585    1914.8007  0.083064407  0.082681052            4 
 1922000   0.95165629   -2.6406484    1912.4899     0.082921  0.082668854            2 
 1923000   0.95419309   -2.6367557    1915.0126  0.082987199  0.082656748            1 
 1924000   0.93447444   -2.6493716    1907.4436  0.082616233  0.082644463            2 
 1925000   0.92384639   -2.6368204    1906.1644  0.082517937  0.082632374            6 
 1926000   0.94233696   -2.6671247    1912.2089  0.082736628  0.082620236            2 
 1927000   0.96856005   -2.6467811    1921.3164  0.083087544  0.082607972            5 
 1928000   0.95192521   -2.6507541    1905.4012  0.082356553  0.082595947            2 
 1929000   0.92540561   -2.6275066    1913.1319  0.082647826  0.082583827            2 
 1930000    0.9488394   -2.6572648     1912.414  0.082574009   0.08257134            2 
 1931000   0.95262157   -2.6550432    1914.7731  0.082633053  0.082558698            1 
 1932000   0.94366787   -2.6295406    1914.6039  0.082582982  0.082545911            2 
 1933000   0.92720311   -2.6608559    1917.3586   0.08265902  0.082533379            2 
 1934000   0.93835766    -2.650157    1917.0264  0.082601963   0.08252063            2 
 1935000   0.93268267   -2.6406008    1913.6353  0.082413235  0.082508048            3 
 1936000   0.93274953   -2.6386147    1920.3678  0.082660461  0.082495291            3 
 1937000   0.94612554   -2.6809484    1916.4744  0.082450282  0.082482896            4 
 1938000    0.9284902   -2.6555122    1912.7064  0.082245718  0.082470249            1 
 1939000   0.96045579   -2.6765046    1917.8913  0.082426133   0.08245784            3 
 1940000   0.94296544    -2.639777    1916.1219  0.082307642  0.082445554            3 
 1941000   0.92188672   -2.6625785    1917.9842  0.082345192   0.08243337            9 
 1942000   0.93692402   -2.6579977    1917.6429  0.082288145  0.082421018            1 
 1943000   0.94963052   -2.6656894    1925.3302  0.082575495  0.082408661            6 
 1944000   0.94999333   -2.6368972    1928.6534   0.08267547  0.082396411            5 
 1945000   0.94349689   -2.6515223     1922.913  0.082387016  0.082384107            5 
 1946000   0.95003283   -2.6456162    1924.4147  0.082408988  0.082371665            3 
 1947000   0.91600601   -2.6472903    1928.4618  0.082539881  0.082359457            2 
 1948000   0.94339361   -2.6513889    1931.4865  0.082626903  0.082347197            3 
 1949000   0.95448919   -2.6620291    1929.2998  0.082491013  0.082334985            3 
 1950000   0.93931294   -2.6197585    1930.3448  0.082493367  0.082322806            2 
 1951000   0.95770696   -2.6565679    1922.1462  0.082100898  0.082310121            5 
 1952000   0.94620878   -2.6322247    1923.0728  0.082098394   0.08229762            2 
 1953000   0.91509046   -2.6638195    1921.8386  0.082003696  0.082285051            3 
 1954000    0.9214247   -2.6531165    1924.2176  0.082063185  0.082272342            2 
 1955000   0.92700849   -2.6422068    1930.4863  0.082288419  0.082259766            2 
 1956000   0.93565103   -2.6834112    1921.2637   0.08185343  0.082246794            1 
 1957000   0.94054119    -2.670221    1927.9678  0.082097081  0.082233836            3 
 1958000    0.9286522   -2.6340642    1922.2277  0.081810847  0.082221173            1 
 1959000   0.95010693   -2.6621681    1928.2539  0.082025435  0.082208257            3 
 1960000   0.92822513   -2.6325576    1933.7498  0.082217254  0.082195692            3 
 1961000   0.94056308   -2.6763663     1921.367  0.081649117  0.082182756            4 
 1962000     0.946182     -2.63897     1934.926  0.082183402  0.082169881            2 
 1963000    0.9471091   -2.6298534     1928.863   0.08188415  0.082157265            2 
 1964000   0.95568887   -2.6497973    1939.8725  0.082309595  0.082144342            2 
 1965000   0.93670603   -2.6430425    1934.0213  0.082019563  0.082131451            4 
 1966000   0.92545176   -2.6576451    1926.6879  0.081667003  0.082118219            2 
 1967000   0.94202092   -2.6480936    1935.4384  0.081996203  0.082105008            3 
 1968000   0.92747673   -2.6576313    1936.7483  0.082010005  0.082092015            2 
 1969000   0.93750748   -2.6376396    1938.5964  0.082046573  0.082078896            9 
 1970000   0.93580339   -2.6408865    1931.5126   0.08170527  0.082065835            1 
 1971000   0.91955308   -2.6645124    1930.3262  0.081613656  0.082052556            3 
 1972000   0.93387914   -2.6775691    1940.0336   0.08198249  0.082039171            3 
 1973000   0.91737276   -2.6545887    1939.9638  0.081937989   0.08202575            4 
 1974000   0.92394297   -2.6757255    1931.3487   0.08153279  0.082012243            2 
 1975000   0.92991167   -2.6818871     1937.012  0.081730466  0.081998769            2 
 1976000   0.95780069    -2.632284    1942.9063  0.081937683  0.081985393            4 
 1977000   0.90866906   -2.6881659    1934.0941  0.081524789  0.081971718            3 
 1978000   0.94054533   -2.6608521    1938.7972  0.081681714   0.08195793            2 
 1979000   0.94228933   -2.6400623    1936.7198  0.081552966  0.081944495            3 
 1980000   0.93656362   -2.6711418    1936.4699  0.081501256  0.081931124            2 
 1981000   0.92472523   -2.6444537    1943.2129  0.081743769    0.0819177            3 
 1982000   0.93616594   -2.6727355    1943.0649  0.081696303  0.081904179            3 
 1983000   0.91884397   -2.6587458    1945.5835  0.081760946  0.081890762            2 
 1984000   0.90407479   -2.6856753    1936.3394  0.081331459  0.081877226            8 
 1985000   0.93150025   -2.6664125    1945.0294  0.081655305  0.081863799            4 
 1986000   0.93668524   -2.6694909    1940.4143  0.081420539  0.081850512            4 
 1987000   0.94209241   -2.6831339    1947.0298  0.081657013  0.081837538            1 
 1988000    0.9122568   -2.6664478    1945.6179  0.081556754  0.081824623            1 
 1989000   0.94372053   -2.6758803    1949.8766  0.081694177  0.081811546            4 
 1990000   0.94610119   -2.6458691    1955.1929  0.081875749  0.081798713            3 
 1991000   0.93270509   -2.6705507     1950.628  0.081643564  0.081785773            2 
 1992000   0.93878907   -2.6611963    1957.0211  0.081870027  0.081773292            2 
 1993000   0.95559733   -2.6539869    1955.9931  0.081785964  0.081760423            3 
 1994000   0.93284066   -2.6870695    1947.9771  0.081409942  0.081747514            2 
 1995000   0.94226784   -2.6529832    1949.8365  0.081446805  0.081734264            3 
 1996000   0.92995408    -2.661075    1961.7896  0.081905044  0.081721409            3 
 1997000   0.92437001   -2.6674368    1953.9484  0.081536822  0.081708364            1 
 1998000   0.93639833    -2.671041     1951.418  0.081390474   0.08169535            4 
 1999000   0.93147655   -2.6686147    1950.5873   0.08131513  0.081681907            2 
 2000000   0.94772153    -2.673827    1953.7574  0.081406559  0.081668799            2 
 2001000   0.93743225   -2.6415827    1954.8428  0.081411077  0.081655544            4 
 2002000   0.93009018   -2.6680987    1954.2451  0.081345535  0.081642535            3 
 2003000   0.93053455   -2.6845764    1958.1606  0.081467823  0.081629265            3 
 2004000   0.91458488   -2.6679216    1957.5623   0.08140229  0.081616172            3 
 2005000   0.92804562   -2.6634281    1957.3365  0.081352307  0.081602783            7 
 2006000   0.93901928   -2.6904455    1951.1503  0.081054764  0.081589421            3 
 2007000   0.93273722   -2.6748281     1954.542  0.081155208  0.081576108            4 
 2008000   0.94091327    -2.668462    1957.9307  0.081255425  0.081562689            2 
 2009000   0.94335639   -2.6733383    1960.5276  0.081322697  0.081549254            2 
 2010000    0.9279912   -2.6795973    1962.7526  0.081374487  0.081535902            3 
 2011000   0.90685914   -2.6605414    1958.1137  0.081141792  0.081522632            2 
 2012000   0.93361762    -2.669432    1964.8031  0.081378523  0.081509588            2 
 2013000   0.90197549   -2.6484089    1964.5689  0.081328404  0.081496108            2 
 2014000   0.93556747   -2.6688704    1961.1588  0.081146921  0.081483126            2 
 2015000   0.93456113   -2.6628701    1965.0136  0.081266072  0.081469886            1 
 2016000   0.93580401   -2.6639674    1965.2082  0.081233806  0.081456723            4 
 2017000   0.95015465   -2.6464952    1960.2986  0.080990686  0.081443401            3 
 2018000   0.91807005   -2.6422014    1966.2138  0.081194824  0.081430073            3 
 2019000   0.91772115     -2.66504    1960.8516  0.080933282  0.081417006            2 
 2020000   0.93316742   -2.6942998    1968.5047  0.081208941  0.081403727            3 
 2021000   0.94181883   -2.6625376    1973.4959  0.081374563  0.081390428            2 
 2022000   0.91493795   -2.6821626    1967.5421  0.081088943   0.08137702            2 
 2023000   0.92241661   -2.6788916    1973.8043  0.081306818  0.081363953            3 
 2024000   0.93525063   -2.6676804    1967.0232  0.080987453  0.081350567            2 
 2025000   0.92311259    -2.657367    1976.3046  0.081329407  0.081337306            3 
 2026000   0.92637261   -2.6529065    1975.9511  0.081274724  0.081324129            2 
 2027000   0.95110762   -2.6631576    1969.3122  0.080961692   0.08131066            4 
 2028000   0.93690981   -2.6754173    1966.6538  0.080812535  0.081296747            5 
 2029000    0.9387647   -2.6698617    1967.1996  0.080795119  0.081283025            3 
 2030000   0.93378896   -2.6694921    1973.2271  0.081002755  0.081269455            2 
 2031000   0.93518911   -2.6609891    1971.0924  0.080875282  0.081256113            2 
 2032000   0.93493513   -2.6720231    1974.6738  0.080982355  0.081242624            1 
 2033000   0.91631338   -2.6872923    1968.5103  0.080689879  0.081229307            2 
 2034000   0.91774428   -2.6792197    1966.0258  0.080548418  0.081215573            4 
 2035000   0.91793617   -2.6403718    1974.3202  0.080848491   0.08120173            3 
 2036000   0.90998438   -2.6873654    1969.1717  0.080598056  0.081187941            4 
 2037000   0.91539759   -2.6848932    1970.4663  0.080611449  0.081174363            3 
 2038000   0.91033471    -2.641218    1976.7754  0.080829875  0.081160562            1 
 2039000   0.91119874   -2.6534139    1971.6756  0.080581806  0.081146764            4 
 2040000   0.92614999   -2.6749865    1972.8929  0.080592028  0.081132809            2 
 2041000   0.92126352   -2.6615305    1977.0285  0.080721398   0.08111859            4 
 2042000    0.9138471   -2.6830081    1974.3452  0.080572362  0.081104436            4 
 2043000   0.92441865   -2.6726802    1981.7719  0.080835856  0.081090634            3 
 2044000   0.94121988   -2.6470662    1972.8613   0.08043303  0.081076749            3 
 2045000   0.91170446   -2.6839497    1976.2405  0.080531396   0.08106279            2 
 2046000   0.93499268   -2.6863934    1979.0951  0.080608306  0.081048632            2 
 2047000   0.90789854    -2.654454     1980.077  0.080608898  0.081034684            2 
 2048000   0.93849899   -2.6752081    1982.9867  0.080687936   0.08102097            1 
 2049000    0.9347144   -2.6787267    1984.1716  0.080696747  0.081007078            3 
 2050000   0.92092691   -2.6764542    1984.4372   0.08066818  0.080993141            3 
 2051000   0.91769321   -2.6361961    1980.7763  0.080480105   0.08097904            2 
 2052000   0.91458698    -2.691291    1977.5147  0.080308425  0.080965088            2 
 2053000   0.92114974   -2.6825121     1977.299  0.080260555  0.080950898            2 
 2054000   0.92590497   -2.6716881    1983.6545  0.080479327  0.080936541            4 
 2055000   0.90887347   -2.6616637    1984.5345   0.08047585   0.08092236            2 
 2056000   0.94797407   -2.7042204    1979.6652  0.080239349  0.080908117            2 
 2057000   0.92580424   -2.6674973    1984.2956  0.080387926  0.080893901            3 
 2058000   0.92545481   -2.6830077    1980.3798  0.080190306  0.080879506            2 
 2059000   0.92587324   -2.6650923    1986.7704  0.080410003  0.080865265            2 
 2060000   0.91073125   -2.6653971    1983.9343  0.080256242  0.080850837            2 
 2061000   0.93503568   -2.6875689    1981.3015  0.080110847  0.080836398            3 
 2062000   0.91685623   -2.6391605    1989.6229  0.080408298   0.08082229            2 
 2063000      0.91194   -2.6901728    1985.0626  0.080185109  0.080807674            1 
 2064000   0.91220234   -2.6690901     1984.679  0.080130775  0.080793338            2 
 2065000   0.90907342     -2.70049    1981.5637   0.07996625  0.080778848            2 
 2066000   0.94767381   -2.6719246    1981.1081  0.079909168  0.080764315            1 
 2067000   0.92668928    -2.667194    1989.3738  0.080203748  0.080749748            3 
 2068000   0.91485744   -2.6628771    1998.2757  0.080523684  0.080735226            6 
 2069000   0.91933568   -2.6966793    1979.1543  0.079714609  0.080720883            2 
 2070000   0.91487587   -2.6666686    1990.3262  0.080125855  0.080706033            4 
 2071000   0.90419235   -2.6832961      1987.63  0.079978675  0.080691536            2 
 2072000   0.91552127   -2.6560676    1993.9444  0.080194031  0.080677066            2 
 2073000   0.91204955   -2.6710999    1987.7136  0.079904874  0.080662605            2 
 2074000   0.92529322   -2.7013632    1992.0432  0.080040308  0.080647789            5 
 2075000   0.91691239   -2.6956852    1995.2073  0.080128807  0.080633143            1 
 2076000   0.93350006   -2.6432209    1998.6187  0.080227148  0.080618672            1 
 2077000    0.9272725   -2.6848498    1995.6539  0.080069566  0.080604371            3 
 2078000   0.90901578   -2.6701828    1990.3858  0.079819769  0.080590212            2 
 2079000   0.91072239   -2.6781504    2000.3648  0.080181371  0.080576168            3 
 2080000   0.91172436   -2.6788187    2000.0612  0.080130657  0.080561767            4 
 2081000   0.93511251   -2.6719639    2004.6195  0.080274687  0.080547869            2 
 2082000   0.92024837   -2.6690724    1996.8311  0.079924397  0.080533784            5 
 2083000   0.91370562   -2.6823149    2000.0494  0.080014777  0.080519718            4 
 2084000    0.9205778   -2.6775668    2001.6805  0.080041606  0.080505235            5 
 2085000    0.9225232   -2.6873728    2009.2498  0.080305746  0.080491043            2 
 2086000   0.92045669   -2.7028535    2003.7458  0.080047371  0.080477041            3 
 2087000   0.89332281   -2.6675136    2005.0667  0.080061758  0.080462839            3 
 2088000   0.91361308   -2.6966299    2004.2479  0.079990737  0.080448939            3 
 2089000   0.91827631   -2.7085151     2007.753   0.08009227  0.080434737            3 
 2090000    0.9296375   -2.6744908    2007.8123  0.080056313   0.08042053            2 
 2091000    0.9139755   -2.6787353    1995.4571  0.079525629  0.080406277            4 
 2092000   0.93852179   -2.6678184     2007.676  0.079974347  0.080392406            2 
 2093000   0.92762322   -2.6957972    2001.5306  0.079691456  0.080378468            4 
 2094000   0.90349862   -2.7060719    2004.7063  0.079779778   0.08036431            4 
 2095000   0.91838671    -2.699648    2008.1164  0.079877345  0.080350464            2 
 2096000   0.91659892    -2.672433    2018.3697  0.080246885  0.080336856            2 
 2097000   0.92900568    -2.661384    2011.0821  0.079919015  0.080323047            2 
 2098000   0.89559229   -2.6554039     2008.073    0.0797614  0.080309468            2 
 2099000   0.90460912   -2.7083656    2008.9535  0.079758359  0.080295742            4 
 2100000   0.91586943   -2.6795196    2012.0688  0.079844001  0.080281683            1 
 2101000   0.90975804   -2.7062772     2009.206  0.079692447  0.080267822            1 
 2102000   0.91852534    -2.681021    2014.9452  0.079882063  0.080253874            2 
 2103000   0.90370395    -2.691346    2010.9691  0.079686523   0.08023985            1 
 2104000   0.90124697   -2.6548427    2019.8241  0.079999369  0.080226072            1 
 2105000   0.91769822   -2.6906119    2007.0268  0.079454743  0.080212072            4 
 2106000   0.89663118   -2.7026532    2023.4189  0.080065643   0.08019824            3 
 2107000   0.91810601   -2.6931899    2020.9732  0.079930914  0.080184507            2 
 2108000   0.91299394    -2.702616    2020.1315  0.079859721  0.080170806            4 
 2109000   0.92462117   -2.7083084    2020.3924  0.079832164  0.080157459            2 
 2110000   0.90377565   -2.6746097    2016.9022  0.079656484  0.080143877            5 
 2111000   0.91282947   -2.6712201    2018.8705  0.079696449  0.080130454            3 
 2112000   0.91123549   -2.6630076    2030.7868  0.080128898  0.080116845            2 
 2113000   0.92419991   -2.7032105    2027.3572  0.079955718  0.080103409            3 
 2114000   0.90054733   -2.6802401    2027.5728  0.079926397  0.080089943            1 
 2115000   0.90907319   -2.6855985    2022.4171  0.079685466  0.080076533            2 
 2116000    0.8886509   -2.6965922    2031.4895    0.0800051   0.08006317            2 
 2117000   0.91451763   -2.6885131    2022.3721  0.079608411  0.080049658            1 
 2118000   0.92308523   -2.7093247    2023.8016  0.079627068  0.080036088            2 
 2119000   0.91834719   -2.6975745    2024.9472  0.079634543  0.080022594            2 
 2120000    0.9026713   -2.6893352    2017.7548  0.079314262  0.080009016            2 
 2121000   0.89895478   -2.6949761    2028.3823  0.079694415  0.079995317            2 
 2122000   0.91632966   -2.6755541     2031.424  0.079776313  0.079981379            4 
 2123000   0.88609192   -2.6417281    2029.2909  0.079655003  0.079967954            1 
 2124000   0.91980674   -2.6919901    2032.1728  0.079730572  0.079954088            5 
 2125000    0.8920871    -2.669591    2030.4392  0.079625068  0.079940434            2 
 2126000   0.89830574   -2.6736824    2034.3025  0.079739043  0.079926835            2 
 2127000   0.90023876   -2.6985132     2029.882  0.079528366  0.079912934            7 
 2128000   0.90162555   -2.6773941    2030.8606  0.079529317  0.079898951            3 
 2129000   0.91506418   -2.6538007    2039.1432  0.079816159  0.079885371            1 
 2130000   0.90310008   -2.6729734    2032.5836  0.079522049  0.079872018            3 
 2131000   0.90882757   -2.6928806    2032.0994  0.079465798  0.079858551            5 
 2132000   0.92359645   -2.6752361    2033.2505  0.079473521   0.07984494            2 
 2133000   0.90534923   -2.7064346    2031.8136  0.079380122  0.079831102            3 
 2134000   0.91893092   -2.6969863     2039.371  0.079638041  0.079817317            3 
 2135000   0.91551988   -2.6758969    2036.2996   0.07948086   0.07980351            3 
 2136000   0.88432938   -2.6812716    2036.2514  0.079441766  0.079789609            2 
 2137000   0.89837365   -2.6903197    2032.1696  0.079245422  0.079775838            2 
 2138000   0.90918817   -2.6934338    2042.7663  0.079621387  0.079762261            3 
 2139000   0.91018312   -2.6860805    2039.9266  0.079473532  0.079748552            2 
 2140000   0.91710725   -2.6944236    2039.8761  0.079434427  0.079735039            2 
 2141000   0.91828687   -2.6979639    2041.5158  0.079461148  0.079721288            2 
 2142000   0.92594929   -2.6862113    2042.6961  0.079469971  0.079707537            2 
 2143000   0.91008319   -2.6917561    2036.3686  0.079186832  0.079693457            3 
 2144000   0.89623233   -2.6976266    2039.7427  0.079281042  0.079679731            5 
 2145000   0.89657336   -2.6829333    2038.2991     0.079188  0.079666078            4 
 2146000   0.90388541   -2.7069511    2040.4348  0.079234031  0.079652329            3 
 2147000   0.90896252   -2.6971889    2041.4282  0.079235687  0.079638314            2 
 2148000    0.9209432   -2.6815718    2036.2738   0.07899883  0.079624318            2 
 2149000    0.9214454   -2.6890464    2040.4016  0.079122135  0.079610171            1 
 2150000   0.91236719   -2.6874243    2044.6812  0.079251208  0.079596012            1 
 2151000   0.89841644   -2.7106456    2033.5224  0.078782056  0.079582029            4 
 2152000   0.91690491   -2.6847547    2049.0693  0.079347478  0.079568066            2 
 2153000   0.91667955   -2.7089849     2039.369  0.078935167  0.079554068            3 
 2154000   0.92941964   -2.6941258    2040.0047  0.078923115  0.079539831            2 
 2155000   0.90033603   -2.6721487    2047.9334  0.079193094   0.07952587            2 
 2156000   0.91634708   -2.6823878    2045.7193  0.079070782   0.07951203            5 
 2157000   0.91578782   -2.7023041    2037.6383  0.078721924  0.079498049            2 
 2158000   0.91545989   -2.7025779    2054.1398  0.079322669  0.079484212            6 
 2159000   0.91025746    -2.663732    2046.5534  0.078993107  0.079470318            1 
 2160000    0.8975855   -2.6878312    2037.7297  0.078616116  0.079456194            2 
 2161000   0.91534399   -2.7206352    2048.1819  0.078982797  0.079441966            2 
 2162000   0.91044771   -2.6977009    2050.0567  0.079018528  0.079427761            3 
 2163000    0.9267062   -2.6868934    2047.8968  0.078898784   0.07941372            5 
 2164000   0.90761232   -2.6907641    2050.3634  0.078957307  0.079399622            4 
 2165000   0.90684627   -2.7017898    2050.5665  0.078928657  0.079385353            2 
 2166000   0.89270752   -2.6856275     2048.933  0.078829371   0.07937115            5 
 2167000   0.89518905   -2.7042027    2053.5451  0.078970355  0.079357217            1 
 2168000   0.91210485   -2.7037649     2056.025   0.07902925  0.079343242            6 
 2169000   0.90842641   -2.6860337    2057.4367  0.079047052  0.079329121            5 
 2170000   0.92038833   -2.7184776    2054.6299  0.078902839  0.079315042            5 
 2171000   0.91052346   -2.6928701    2055.6297   0.07890487  0.079300952            3 
 2172000   0.89903147   -2.6951738    2053.6957   0.07879434  0.079287196            2 
 2173000   0.87828364   -2.6998625    2058.3974  0.078938388   0.07927362            7 
 2174000   0.90911369   -2.7007685    2059.9751  0.078962552  0.079259787            4 
 2175000   0.89767684   -2.6977373    2056.4897   0.07879271  0.079245864            3 
 2176000   0.90081944   -2.6970461    2059.1063  0.078856707   0.07923172            2 
 2177000   0.92173129    -2.675027    2061.9474  0.078929237  0.079217682            3 
 2178000   0.88885978   -2.6560074     2061.578  0.078878864   0.07920381            3 
 2179000   0.90006493   -2.6928413    2062.5956  0.078881581  0.079189849            1 
 2180000   0.90008658    -2.679825    2064.2453  0.078908458  0.079176074            2 
 2181000   0.90625972   -2.6974941    2063.5481   0.07884564  0.079162008            5 
 2182000   0.90136951   -2.6961515    2067.0389  0.078942823  0.079148312            2 
 2183000   0.90220599   -2.7100722    2056.5569  0.078506523  0.079134335            7 
 2184000   0.89748779   -2.6879163    2063.5168  0.078736142  0.079120588            1 
 2185000   0.91976087   -2.6653406    2062.3515  0.078655665  0.079106834            1 
 2186000   0.89965882   -2.6883875    2062.7494   0.07863485   0.07909287            1 
 2187000   0.91279646    -2.691573    2064.2153  0.078654751  0.079078884            3 
 2188000   0.89706942   -2.6880081    2064.9887   0.07864826   0.07906506            4 
 2189000   0.90070433   -2.6769681    2065.4529  0.078630003  0.079051419            4 
 2190000    0.8873784   -2.7028349    2067.4444  0.078669879  0.079037572            3 
 2191000   0.88263974   -2.6828928    2067.6289   0.07864099  0.079023768            6 
 2192000    0.8850047   -2.6930951     2071.554  0.078754335  0.079010334            2 
 2193000   0.90852041   -2.6968773    2070.1066  0.078663422  0.078996864            5 
 2194000   0.92435627   -2.7175522    2076.1656  0.078857702  0.078983116            3 
 2195000   0.89604747   -2.7129849    2075.7102  0.078804487  0.078969321            2 
 2196000   0.90126936   -2.6972786    2066.2189  0.078408427  0.078955672            5 
 2197000   0.89686305   -2.7021392    2074.7836  0.078697602  0.078942161            2 
 2198000    0.8827372   -2.7162391    2067.9113  0.078401248  0.078928561            3 
 2199000   0.89598933   -2.6793861    2085.2191  0.079021491   0.07891505            2 
 2200000   0.91637503   -2.7094747    2079.3879  0.078764695   0.07890166            3 
 2201000    0.9122054    -2.707864    2077.2247  0.078647006  0.078888064            2 
 2202000   0.89253537   -2.7255009    2075.0772  0.078530017  0.078874477            4 
 2203000   0.89968783   -2.6906357    2068.8843  0.078260112  0.078860795            6 
 2204000    0.9026453   -2.7055046    2085.9244  0.078868889  0.078847326            4 
 2205000   0.88116803   -2.7089467    2080.5511  0.078630051  0.078833594            2 
 2206000     0.885954   -2.7047382     2081.088  0.078614687  0.078819918            4 
 2207000   0.90631191   -2.7063758    2074.0932  0.078314951  0.078806293            5 
 2208000   0.91847676   -2.7232729     2081.396  0.078555103  0.078792501            3 
 2209000   0.89221658   -2.6745845    2086.4039  0.078708463  0.078778952            2 
 2210000   0.88601162   -2.7223757    2079.7616  0.078422382  0.078765452            8 
 2211000   0.91247298   -2.7017103    2078.8342  0.078351961  0.078751658            1 
 2212000   0.89803186   -2.7148116    2082.3962  0.078450732   0.07873802            3 
 2213000   0.91077194   -2.6858449    2083.3358  0.078450663  0.078724395            3 
 2214000   0.89959134   -2.6925612    2084.4209  0.078456071  0.078711106            2 
 2215000   0.89778299   -2.6858716    2091.0013  0.078668221  0.078697509            3 
 2216000   0.89850535   -2.6700505    2095.2921  0.078794076  0.078684037            2 
 2217000   0.88953425   -2.7019344    2084.4613  0.078351426  0.078670635            2 
 2218000   0.90598886   -2.7010459    2079.6984   0.07813715  0.078657065            3 
 2219000    0.8930889   -2.6949289    2076.5374  0.077983226  0.078643169            1 
 2220000   0.90429278    -2.723899    2086.1386  0.078308505  0.078629304            4 
 2221000    0.9035575   -2.7075532    2081.6141  0.078103487  0.078615485            1 
 2222000   0.89360672   -2.7393353    2084.9407  0.078193097  0.078601534            2 
 2223000   0.88435765   -2.7178836    2086.2437  0.078206767  0.078587514            3 
 2224000   0.89497373   -2.7227903    2077.2697  0.077835345  0.078573368            2 
 2225000   0.87903325   -2.6902835    2091.0705  0.078317247  0.078559492            3 
 2226000   0.86792176   -2.6945383    2086.8963  0.078125797  0.078545675            2 
 2227000   0.88640205   -2.6876108    2088.9296  0.078166802  0.078531769            3 
 2228000   0.90282097   -2.6812697    2085.9652  0.078020843  0.078517913            2 
 2229000   0.88041248   -2.6862854    2090.5198  0.078156118  0.078504102            5 
 2230000   0.88869364   -2.7146856    2100.2213  0.078483606  0.078490299            3 
 2231000     0.901983   -2.7329356     2084.962  0.077878454  0.078476567            2 
 2232000   0.88978287   -2.6892677    2098.1111  0.078334493  0.078462777            2 
 2233000   0.88694035    -2.714128    2094.5497  0.078166507  0.078449247            5 
 2234000   0.90216608   -2.7130289    2095.3303  0.078160634  0.078435506            2 
 2235000   0.90926283     -2.72559    2092.4303  0.078017535  0.078421879            3 
 2236000   0.88233964   -2.6985996    2094.4695  0.078058643  0.078408349            2 
 2237000   0.88979623   -2.7339203    2096.1529   0.07808646  0.078394817            2 
 2238000   0.87895408   -2.7164485    2100.9803   0.07823132  0.078380979            3 
 2239000   0.89963265   -2.7164161    2094.4159  0.077952058  0.078367384            6 
 2240000   0.88657563   -2.7122016     2098.549   0.07807102  0.078353774            4 
 2241000   0.89187515   -2.7192321    2102.7974  0.078194162  0.078340201            2 
 2242000   0.90703164   -2.7166636    2099.5398  0.078038202  0.078326767            6 
 2243000   0.86591246   -2.6991857     2098.734  0.077973471  0.078313121            3 
 2244000   0.88360788    -2.673551    2108.6715  0.078307767  0.078299799            2 
 2245000   0.88648451   -2.7169685    2099.9916  0.077950691  0.078286514            3 
 2246000   0.87884587   -2.6878871    2110.0861   0.07829052  0.078273288            6 
 2247000   0.90564275   -2.7113934    2102.7426  0.077983334   0.07825994            5 
 2248000   0.88401638   -2.7205309    2109.4923  0.078198853  0.078246674            2 
 2249000   0.88340828   -2.7169038    2098.1411  0.077743483  0.078233336            3 
 2250000   0.88434155   -2.7154948     2100.031  0.077778926  0.078219726            2 
 2251000   0.92343607   -2.7064003    2101.3044  0.077791513  0.078206328            2 
 2252000   0.88742405   -2.7264108    2110.7018  0.078104716  0.078192883            2 
 2253000   0.87476597   -2.6792267    2107.5402  0.077953107  0.078179515            2 
 2254000   0.87449141   -2.6966067    2111.5033  0.078065045  0.078166115            4 
 2255000   0.89422014   -2.7172095    2105.8246  0.077820569  0.078152986            3 
 2256000   0.91325538   -2.7279741    2108.0995  0.077870105  0.078139699            2 
 2257000    0.8989923   -2.7381143    2109.3919  0.077883321  0.078126484            5 
 2258000   0.90706623   -2.7221361    2114.5462  0.078039053  0.078113507            2 
 2259000   0.90177667   -2.7283958    2113.1636  0.077953503  0.078100167            3 
 2260000   0.88220798   -2.7220622    2116.9118  0.078057221  0.078087199            2 
 2261000   0.86958175   -2.7161722    2122.3277   0.07822231   0.07807437            1 
 2262000   0.88571285   -2.7275066    2119.5121  0.078084002  0.078061627            4 
 2263000   0.88153953   -2.7263085    2114.6914  0.077871978  0.078048524            4 
 2264000    0.8658377   -2.7152314    2117.0847  0.077925673  0.078035372            4 
 2265000   0.89631114   -2.7459622    2116.7895  0.077880409  0.078022314            2 
 2266000   0.88261483   -2.7107468    2122.0144  0.078038187  0.078009173            3 
 2267000    0.9013646   -2.6802761    2120.6038  0.077951912   0.07799641            4 
 2268000     0.873926   -2.7249136    2123.6763  0.078030434  0.077983352            4 
 2269000   0.89377594   -2.7482715    2121.4006  0.077912465  0.077970246            2 
 2270000   0.89273136   -2.7281051    2120.1446  0.077832033  0.077957268            8 
 2271000   0.88816809   -2.7235006    2117.5017   0.07770078  0.077944172            2 
 2272000   0.87933255   -2.7202152    2111.5805  0.077449403  0.077931074            5 
 2273000   0.90322955   -2.7403577    2119.4697  0.077704563  0.077917919            4 
 2274000   0.86914972   -2.7245467    2120.5727  0.077710814  0.077904723            3 
 2275000    0.9082284   -2.6843214    2133.1571  0.078137622  0.077891745            2 
 2276000   0.86695986    -2.724785    2127.9979  0.077914395  0.077878927            3 
 2277000   0.89206274   -2.7184441    2125.2053  0.077777973  0.077865794            4 
 2278000   0.86937756   -2.7293326     2124.296  0.077710566  0.077852594            2 
 2279000    0.8668265   -2.7208651    2125.1899  0.077709154  0.077839565            2 
 2280000   0.88924889    -2.715184    2131.2213  0.077895514  0.077826532            3 
 2281000   0.88476435   -2.7090698    2126.4771  0.077688043  0.077813584            2 
 2282000   0.88136892   -2.6981416    2130.9515  0.077817394  0.077800685            3 
 2283000   0.89105786   -2.7454078    2130.3172  0.077760153  0.077787624            9 
 2284000    0.8730981   -2.7053866    2126.9345  0.077602689  0.077774534            2 
 2285000   0.88199102    -2.702395    2134.6199  0.077849012  0.077761622            2 
 2286000   0.88847034   -2.7040568    2137.2697  0.077911553  0.077748658           10 
 2287000   0.88627573   -2.7116332    2130.1081  0.077616532  0.077735833            3 
 2288000   0.90968228   -2.7075193    2135.8456  0.077791581  0.077722875            2 
 2289000   0.86775569   -2.7297453    2136.0981  0.077766785  0.077710089            5 
 2290000   0.90411054   -2.7154214    2127.2324  0.077410204  0.077697029            4 
 2291000   0.87922217   -2.7130538    2133.0637  0.077588524  0.077683764            2 
 2292000    0.8799445   -2.7161409    2143.8482   0.07794678  0.077670964            4 
 2293000   0.89348583   -2.7103022    2139.5512  0.077756621  0.077658097            1 
 2294000   0.86474948   -2.7242504    2138.9403  0.077700534  0.077645362            6 
 2295000   0.87128222   -2.7245534     2135.696  0.077548874  0.077632726            2 
 2296000   0.89386182   -2.7185995    2142.2484  0.077752919  0.077619955            3 
 2297000   0.87939854   -2.7371917    2132.3605  0.077360344  0.077607129            1 
 2298000   0.89779697   -2.7224555    2135.8636  0.077453714  0.077594505            3 
 2299000   0.87757437   -2.7079074    2145.6862  0.077776069  0.077581624            3 
 2300000   0.85578485   -2.7047452    2145.1485   0.07772277  0.077568875            2 
 2301000    0.8936701   -2.7294854    2142.3855   0.07758893  0.077556264            2 
 2302000   0.89385327   -2.7329181    2143.4387  0.077593351  0.077543559            6 
 2303000   0.87426786   -2.7265264    2139.2363  0.077407596    0.0775309            3 
 2304000   0.88418685   -2.7210483    2146.4696   0.07763562  0.077518154            2 
 2305000   0.88179172   -2.7191498    2150.2279  0.077737811  0.077505674            7 
 2306000   0.88808403   -2.7252761    2151.4853   0.07774954  0.077493258            2 
 2307000    0.8873065   -2.7217761     2153.571   0.07779118   0.07748087            2 
 2308000   0.89795444   -2.7009884    2148.8223  0.077586016  0.077468423            2 
 2309000   0.89105688   -2.7274283    2141.7278  0.077296371  0.077455809            5 
 2310000     0.882237   -2.7137756    2146.2516  0.077426103  0.077443277            3 
 2311000   0.89287079   -2.7199126    2158.9524  0.077850584  0.077430819            3 
 2312000   0.88435843    -2.737635     2147.119  0.077390392  0.077418679            7 
 2313000   0.87933378   -2.6999764    2158.2391  0.077757568  0.077406586            4 
 2314000   0.88779383   -2.7356563    2161.9394  0.077857224  0.077394276            4 
 2315000   0.89189025   -2.7293059    2154.3288  0.077549633  0.077381825            1 
 2316000   0.88007966    -2.749793    2156.4184  0.077591336  0.077369417            4 
 2317000   0.87593716   -2.7264937    2159.5062  0.077668905  0.077357127            2 
 2318000   0.85715921   -2.7054325    2154.5053  0.077455613  0.077344783            5 
 2319000   0.86583918   -2.7271026    2160.2696  0.077629353   0.07733244            2 
 2320000   0.88258479   -2.7293012    2161.0546  0.077624087  0.077320227            5 
 2321000   0.89704923   -2.7265557    2162.8452  0.077654932  0.077307965            3 
 2322000   0.88695301   -2.7228115    2163.4548  0.077643369  0.077295804            3 
 2323000   0.85903596   -2.7190243    2174.3291  0.078000041    0.0772836            5 
 2324000   0.87609199   -2.7387833    2155.8133  0.077302543  0.077271458            6 
 2325000   0.87961277     -2.73631    2163.8523  0.077557429   0.07725917            3 
 2326000   0.86044707    -2.704342    2162.6572   0.07748127  0.077246812            4 
 2327000   0.88600731   -2.7555616    2161.3122  0.077399808  0.077234642            4 
 2328000   0.88745946   -2.7219789    2162.5306  0.077410174   0.07722225            4 
 2329000   0.86101292   -2.7336458    2168.7414  0.077599164   0.07720982            1 
 2330000   0.89260754   -2.6996527    2170.0897  0.077614082  0.077197655            4 
 2331000   0.87390404   -2.7144554    2163.4332  0.077342814  0.077185412            7 
 2332000   0.90021151   -2.7237367    2166.6078   0.07742309  0.077173329            4 
 2333000   0.88991772   -2.7342093    2169.9809  0.077510391  0.077160996            3 
 2334000   0.90091403   -2.7272497    2160.4036  0.077135233  0.077148778            6 
 2335000   0.85592126   -2.7189031    2167.7838  0.077365591  0.077136651            3 
 2336000   0.85694343   -2.7260504     2167.167  0.077310465  0.077124372            2 
 2337000   0.87836997    -2.735567    2172.5299  0.077468618  0.077112028            3 
 2338000    0.8791938   -2.7233515     2177.467  0.077611457  0.077099778            5 
 2339000   0.86072838   -2.7328295    2164.2637   0.07710787   0.07708749            2 
 2340000   0.88928217   -2.7401611    2167.8629  0.077203094  0.077075328            3 
 2341000   0.87072061    -2.751431    2166.3511  0.077116299  0.077063051            4 
 2342000   0.86301437   -2.7382847    2180.4347  0.077584496  0.077050935            3 
 2343000   0.87298481   -2.7501758    2174.1183  0.077326728  0.077038797            2 
 2344000   0.87521657   -2.7367058     2178.049  0.077433481  0.077026687            4 
 2345000   0.87640283   -2.7504165    2172.1816  0.077191954  0.077014728            3 
 2346000   0.86814801   -2.7281823    2175.1985  0.077266215  0.077002827            2 
 2347000   0.87268084   -2.7552799     2184.741  0.077572115  0.076990793            2 
 2348000    0.8762567   -2.7283377    2177.9433  0.077297817  0.076978881            3 
 2349000   0.87169011   -2.7406195    2187.1243  0.077590615  0.076966901            3 
 2350000   0.88070177   -2.7258699    2178.6454   0.07725693   0.07695497            4 
 2351000   0.87389309   -2.7332211    2189.2403  0.077599615  0.076943233            2 
 2352000   0.89012264   -2.7346506     2183.333  0.077357319  0.076931509            2 
 2353000   0.86028567   -2.7312722    2188.9844  0.077524593  0.076919619            7 
 2354000   0.87713475    -2.719813    2182.8189  0.077273398  0.076907819            5 
 2355000   0.87905891   -2.7339496    2193.2548  0.077609867  0.076895999            2 
 2356000   0.87382264   -2.7136205    2173.6515  0.076883541  0.076884031            6 
 2357000   0.86458729   -2.7374916    2179.4068  0.077054406  0.076871905            4 
 2358000   0.86802012    -2.722111    2189.0234  0.077361584  0.076859932            5 
 2359000   0.87917115   -2.7098334    2180.7888  0.077037899  0.076848199            3 
 2360000    0.8647463   -2.7383591    2179.9575  0.076975899  0.076835798            2 
 2361000   0.88917989   -2.7342185    2185.7603  0.077148111  0.076823683            2 
 2362000   0.85988001   -2.7607432    2185.0568  0.077090629  0.076811386            3 
 2363000   0.87849777   -2.7252875    2185.9361  0.077089016  0.076799133            1 
 2364000   0.84348223   -2.7456149    2191.3588  0.077247559  0.076787167            3 
 2365000   0.86989172   -2.7366201    2184.8961  0.076987177  0.076775115            2 
 2366000   0.87414085   -2.7263786    2191.0188  0.077170287  0.076763068            3 
 2367000   0.86706497    -2.704611    2192.7071  0.077197123  0.076750968            5 
 2368000   0.88416742   -2.7389238    2188.0963  0.077002263   0.07673898            2 
 2369000    0.8575144   -2.7528013    2189.1738  0.077007661  0.076727054            2 
 2370000   0.90300161   -2.7121661    2194.0185  0.077145517  0.076715154            3 
 2371000   0.87383784   -2.7426126    2187.1038  0.076869948  0.076703168            3 
 2372000   0.86318788   -2.7261879    2191.3665  0.076987299  0.076691078            2 
 2373000   0.86301079   -2.7209979    2193.2376  0.077020564  0.076678978            4 
 2374000   0.87201042   -2.7104748    2194.5104  0.077032801  0.076666874            3 
 2375000   0.85167825   -2.7375182    2193.0102  0.076947725  0.076655052            4 
 2376000   0.86471809   -2.7330057    2198.0662   0.07709267  0.076643034            3 
 2377000   0.86932847   -2.7314349    2197.7445   0.07704896  0.076631036            4 
 2378000   0.86970445   -2.7514502    2192.0996  0.076818743  0.076619029            5 
 2379000   0.85833193   -2.7559086    2195.2932   0.07689832  0.076607016            6 
 2380000   0.86624244   -2.7687245    2192.1677  0.076756572  0.076595149            2 
 2381000   0.87465003   -2.7372526    2200.4839  0.077015398  0.076583225            3 
 2382000   0.86534524   -2.7314765    2192.2668  0.076695592  0.076571331            2 
 2383000   0.87071672    -2.755315     2196.316  0.076805007  0.076559488            3 
 2384000   0.87957364    -2.788331    2193.4659  0.076673165  0.076547341            2 
 2385000   0.86500809   -2.7417292    2192.9685  0.076623638  0.076535229            6 
 2386000   0.86681918   -2.7380007    2205.0109  0.077012116  0.076523293            4 
 2387000    0.8591708   -2.7187942     2195.829  0.076659299  0.076511294            3 
 2388000   0.88702385   -2.7297671    2203.5836  0.076897808  0.076499262            3 
 2389000   0.86002868   -2.7299076     2195.065  0.076568474  0.076487107            2 
 2390000   0.87664204   -2.7233924    2200.6366  0.076730705   0.07647513            3 
 2391000   0.88276038   -2.7474199     2187.455  0.076239195  0.076463184            2 
 2392000   0.85936614   -2.7357031    2206.8871  0.076884306  0.076451112            4 
 2393000    0.8798696   -2.7364187     2206.323  0.076832531  0.076439168            4 
 2394000    0.8602395   -2.7057678    2209.2004    0.0769006  0.076427174            6 
 2395000   0.85606688   -2.7496363    2209.6784   0.07688512  0.076415521            3 
 2396000   0.89227733   -2.7265041    2203.1297  0.076625267  0.076403697            2 
 2397000   0.87586617   -2.7360541     2210.402  0.076846129  0.076391682            4 
 2398000   0.88254782   -2.7300067    2205.8547  0.076656057  0.076379605            4 
 2399000   0.88474504   -2.7544708     2205.554  0.076613657  0.076367569            1 
 2400000   0.86915754   -2.7470079    2214.8712  0.076905251  0.076355076            9 
 2401000   0.85922656   -2.7504594     2201.746  0.076417672  0.076343032            5 
 2402000   0.87472407   -2.7107875    2205.3307  0.076510224  0.076330799            2 
 2403000   0.87282446   -2.7249329    2211.4883  0.076691923  0.076318598            4 
 2404000   0.87353969    -2.779077    2209.8037  0.076601625  0.076306339            3 
 2405000   0.88157018   -2.7362946    2204.5922  0.076389195  0.076293911            2 
 2406000   0.88005496   -2.7336527    2201.8215  0.076261483  0.076281535            4 
 2407000   0.88303793   -2.7559701     2202.105  0.076239615   0.07626927            4 
 2408000   0.85260583   -2.7394282    2204.5461  0.076292431  0.076256802            3 
 2409000   0.86976476   -2.7267989     2210.145  0.076454442  0.076244245            2 
 2410000   0.87842281   -2.7284433    2207.3704  0.076326779    0.0762318            5 
 2411000    0.8749136    -2.747557    2210.2124  0.076393349  0.076219397            3 
 2412000   0.86078569   -2.7481176    2208.5368  0.076303787  0.076206982            3 
 2413000   0.87264994   -2.7401745    2209.6395  0.076310247  0.076194494            3 
 2414000   0.84126757   -2.7273695    2217.4815  0.076549347  0.076181837            4 
 2415000   0.88385222   -2.7194839     2211.566  0.076313527  0.076169629            4 
 2416000   0.85807271    -2.749903    2213.6979  0.076355473  0.076157026            4 
 2417000   0.87296876   -2.7262829    2215.6176  0.076390071  0.076144782            3 
 2418000   0.86734005   -2.7572439    2218.4533  0.076456206  0.076132535            7 
 2419000    0.8652907   -2.7586353    2211.0626  0.076169995  0.076120021            4 
 2420000   0.85263122   -2.7754788    2206.7713  0.075990746  0.076107338            2 
 2421000   0.87762284   -2.7626584    2200.9354  0.075758481  0.076094532            2 
 2422000   0.85414132   -2.7467566     2216.269  0.076254784  0.076081954            2 
 2423000   0.85281858    -2.744894    2216.7116  0.076238532  0.076069286            1 
 2424000   0.86934509   -2.7562206    2219.1835  0.076292063  0.076056808            2 
 2425000   0.85818928   -2.7191874    2224.6864  0.076449704  0.076044466            2 
 2426000   0.85950443   -2.7498237    2218.6725  0.076211613  0.076031899            2 
 2427000   0.85710334   -2.7296962    2213.4914  0.076002316  0.076019288            3 
 2428000   0.85838231   -2.7405825    2215.2505  0.076031386  0.076006656            1 
 2429000   0.87796879   -2.7390241     2215.002  0.075991561  0.075993802            5 
 2430000   0.84516858   -2.7419456    2221.6211  0.076187279  0.075981032            2 
 2431000   0.85335585   -2.7437732    2221.4527  0.076150166  0.075968184            4 
 2432000   0.88016765   -2.7468666      2224.34  0.076217791  0.075955732            3 
 2433000    0.8517804   -2.7652964    2218.6022  0.075989938  0.075942945            3 
 2434000   0.85467826   -2.7644084    2216.3636  0.075882072   0.07592992            2 
 2435000   0.87227505   -2.7409001    2213.9938   0.07576981  0.075917039            7 
 2436000   0.86747516   -2.7578272    2223.9434  0.076079071   0.07590435            2 
 2437000   0.88288572   -2.7768775     2218.662  0.075867253  0.075891526            2 
 2438000   0.87571592   -2.7470648     2214.302  0.075687106  0.075878818            4 
 2439000   0.83783963   -2.7528973    2227.8101  0.076117605  0.075866013            2 
 2440000   0.85682607   -2.7495223    2226.6271  0.076046006  0.075853387            3 
 2441000   0.88846556   -2.7604638    2233.6172  0.076253489  0.075840506            1 
 2442000   0.85832082   -2.7538413    2209.6925  0.075405833  0.075827731            3 
 2443000   0.84978156   -2.7328776    2228.1265   0.07600377    0.0758148            2 
 2444000   0.85710268    -2.711446    2229.6653  0.076025139  0.075801947            2 
 2445000   0.84919191   -2.7621011    2222.7649  0.075758857  0.075789205            2 
 2446000   0.87331083   -2.7327307    2240.8637  0.076344497  0.075776457            7 
 2447000   0.86817023   -2.7514249     2232.611  0.076032251  0.075763882            3 
 2448000   0.84478021   -2.7456821    2229.8295  0.075906504  0.075751345            3 
 2449000    0.8805787   -2.7380167    2225.9709   0.07574421  0.075738521            1 
 2450000   0.86626919   -2.7636457    2221.5834   0.07556406  0.075725866            5 
 2451000   0.86773246   -2.7611185    2231.9545  0.075885846  0.075713209            3 
 2452000   0.85483941   -2.7633199    2233.6104  0.075911175  0.075700663            4 
 2453000   0.86035833    -2.749948    2227.6083  0.075676324  0.075688235            3 
 2454000   0.85949723   -2.7417768    2242.2333  0.076142124  0.075675749            3 
 2455000   0.85947575   -2.7569323    2227.7851  0.075620675  0.075663435            4 
 2456000   0.86466456   -2.7462682    2246.0186  0.076208558  0.075650888            5 
 2457000   0.85782842   -2.7574521    2231.1471  0.075673147  0.075638502            5 
 2458000   0.85995612   -2.7395933    2240.4628  0.075958192  0.075626106            3 
 2459000   0.85935899    -2.743437    2246.4532  0.076130311  0.075613541            4 
 2460000   0.84733981   -2.7632479    2231.0644  0.075578063  0.075601114            2 
 2461000   0.84542929   -2.7272224    2226.0251  0.075376713  0.075588599            3 
 2462000   0.87134994   -2.7559264    2244.9945  0.075988169  0.075575857            4 
 2463000   0.87007864   -2.7342679    2236.2546  0.075661611  0.075563285            8 
 2464000    0.8608163   -2.7537617    2238.3893  0.075703102  0.075550621            2 
 2465000   0.84079961   -2.7685703    2242.4272  0.075808899  0.075537962            3 
 2466000   0.84627171   -2.7484135     2243.025  0.075798358   0.07552542            3 
 2467000   0.87269911   -2.7491012    2236.4404   0.07554521  0.075512817            4 
 2468000   0.85165477    -2.738848    2244.7813  0.075796237  0.075500262            2 
 2469000    0.8702889   -2.7519937    2243.0615  0.075707488  0.075487823            3 
 2470000   0.85645264   -2.7458632    2241.9448  0.075639163  0.075475451            2 
 2471000   0.84256199   -2.7554807    2245.8235  0.075739361   0.07546294            2 
 2472000   0.85337969   -2.7760951     2241.372  0.075558658  0.075450629            3 
 2473000   0.84894828   -2.7404741    2240.9396  0.075513532  0.075438152            2 
 2474000   0.84514419   -2.7815384    2240.6492  0.075473229  0.075425575            7 
 2475000   0.84258482   -2.7551766    2241.5817  0.075474131  0.075413105            2 
 2476000   0.83592861   -2.7718286    2247.0158  0.075626541   0.07540037            2 
 2477000   0.86090092   -2.7551232    2240.5325  0.075377894  0.075387864            2 
 2478000   0.85569583   -2.7701369    2246.9975  0.075564889  0.075375145            2 
 2479000   0.85881587   -2.7590424    2255.6199  0.075824255  0.075362389            3 
 2480000   0.85740452   -2.7667228    2246.5398  0.075488567  0.075349899            3 
 2481000   0.85476943   -2.7568097    2247.5061  0.075490597  0.075337284            2 
 2482000   0.85890815    -2.756788    2248.6844  0.075499745  0.075324707            8 
 2483000   0.85538442   -2.7698747    2245.0419   0.07534709  0.075311988            3 
 2484000   0.84647534   -2.7565132    2248.4101  0.075429754  0.075299546            3 
 2485000   0.85352943   -2.7740277     2253.149  0.075558315  0.075286827            1 
 2486000   0.85745152    -2.756125    2246.5001  0.075305044  0.075274391            5 
 2487000   0.86403792   -2.7598598    2250.8608  0.075420881  0.075261769            3 
 2488000   0.85080851   -2.7513505    2249.5519  0.075346728  0.075249261            3 
 2489000   0.87257158   -2.7532014    2243.4084  0.075110768   0.07523695            7 
 2490000    0.8486171   -2.7593539    2254.6685  0.075457447  0.075224322            2 
 2491000    0.8514766   -2.7787423    2243.0969   0.07504004  0.075211855            4 
 2492000   0.85328253   -2.7398478    2244.4182  0.075054113  0.075199192            2 
 2493000   0.85350476   -2.7677383     2259.723  0.075535601  0.075186702            3 
 2494000   0.86658257    -2.780767      2249.67  0.075169407  0.075174028            3 
 2495000   0.83094222   -2.7336232    2259.9294  0.075481943  0.075161604            3 
 2496000   0.81904869   -2.7811071    2246.4237  0.075000793  0.075149029            3 
 2497000   0.84557436    -2.774189    2253.2662  0.075199111  0.075136351            7 
 2498000   0.85197938   -2.7811127     2254.172  0.075199226  0.075123529            2 
 2499000   0.83431526    -2.745676    2254.3736  0.075175856  0.075111007            2 
 2500000    0.8544581   -2.7562484    2257.8522  0.075261741  0.075098633            5 
 2501000    0.8485671   -2.7450486    2256.0515  0.075171646  0.075086036            2 
 2502000   0.86410506   -2.7588917    2264.5581   0.07542493  0.075073625            3 
 2503000   0.85886652   -2.7507724    2264.5122  0.075393268  0.075061235            6 
 2504000   0.85994377   -2.7650721    2252.1131  0.074950515  0.075048807            4 
 2505000   0.85777346   -2.7718132    2252.4999  0.074933464  0.075036239            2 
 2506000   0.84963979    -2.751898    2261.1874  0.075192452     0.075024            4 
 2507000   0.84078019   -2.7675668    2252.2733   0.07486615  0.075011537            3 
 2508000   0.84618967   -2.7594257    2256.8504  0.074988382   0.07499913            3 
 2509000   0.83987612   -2.7610211    2257.3549  0.074975253  0.074986819            4 
 2510000   0.83818229   -2.7721797    2257.9046  0.074963633  0.074974331            4 
 2511000   0.84290618   -2.7535856    2269.0351  0.075303171   0.07496183            3 
 2512000   0.85215726   -2.7528428    2263.8885  0.075102458  0.074949375            3 
 2513000   0.84452931   -2.7748632    2268.6012   0.07522885  0.074936979            3 
 2514000   0.84771417   -2.7824889    2265.1422  0.075084267  0.074924527            5 
 2515000   0.85106578   -2.7536049    2258.3119  0.074828093  0.074912089            4 
 2516000   0.84712606   -2.7712836    2273.0579  0.075286761  0.074899714            3 
 2517000   0.84455896   -2.7540386    2267.7857  0.075082296  0.074887247            3 
 2518000   0.83613392   -2.7529744    2278.4115  0.075404139  0.074874915            5 
 2519000   0.85672156   -2.7677212    2267.1843  0.075002787  0.074862633            3 
 2520000   0.84335645   -2.7650928     2268.631  0.075020865  0.074850259            4 
 2521000   0.86135598   -2.7793469    2255.9942  0.074573389  0.074837704            3 
 2522000   0.85650745   -2.7617569    2273.6634  0.075127658  0.074825188            1 
 2523000   0.84932031   -2.7655427    2271.0873  0.075012791  0.074812616            7 
 2524000   0.83139629   -2.7761528    2273.3196  0.075056776   0.07480027            2 
 2525000   0.84590087   -2.7804835    2269.8937  0.074913983  0.074787793            4 
 2526000   0.85034522   -2.7731548    2269.7673  0.074880155  0.074775316            3 
 2527000   0.85089157   -2.7753532    2269.9618  0.074856938  0.074762914            5 
 2528000   0.83717861   -2.7536591    2284.0845   0.07529287   0.07475014            2 
 2529000   0.83677838   -2.7791482    2272.0015  0.074864951  0.074737639            3 
 2530000   0.86632035   -2.7483534    2270.9734  0.074801495  0.074725123            4 
 2531000   0.83920655   -2.7641515    2271.7617  0.074797895  0.074712606            4 
 2532000   0.84451858   -2.7583279    2272.3882  0.074788976   0.07469998            4 
 2533000   0.85763186   -2.7734031    2267.7493  0.074606832  0.074687438            2 
 2534000   0.82830107   -2.7693941    2274.7158   0.07480649  0.074674585            5 
 2535000   0.82672805   -2.7745465    2260.3005  0.074303107  0.074661828            5 
 2536000   0.85711648    -2.776307    2269.6547  0.074581186  0.074649003            3 
 2537000   0.84020732   -2.7822125    2273.4907  0.074677791  0.074636313            3 
 2538000   0.86121021    -2.766016    2268.1268  0.074472249  0.074623584            2 
 2539000   0.83754482   -2.7636351    2272.2442  0.074578055   0.07461106            2 
 2540000   0.84434507   -2.7815622    2277.2314  0.074712317  0.074598358            4 
 2541000   0.85326735   -2.7520412    2274.5141  0.074593797  0.074585784            6 
 2542000   0.82034516   -2.7721771    2281.3928  0.074789956  0.074573481            4 
 2543000   0.84486566   -2.7493973    2282.7935  0.074806447  0.074561123            1 
 2544000   0.85127822   -2.7641794      2276.51  0.074571214  0.074548467            3 
 2545000   0.82848692   -2.7741256    2275.1831  0.074498463  0.074535975            2 
 2546000   0.83514504   -2.7738111    2281.2854  0.074668938   0.07452347            3 
 2547000   0.82861374   -2.7770782     2285.377  0.074773491  0.074510905            1 
 2548000   0.85564816   -2.7800787    2280.5708  0.074586956  0.074498239            4 
 2549000   0.86469344   -2.7808149    2280.4266  0.074552983  0.074485784            4 
 2550000   0.85857386   -2.7734334    2279.7226  0.074500739  0.074472976            2 
 2551000   0.83925968   -2.7962126    2288.6517  0.074763219  0.074460267            6 
 2552000   0.86337026   -2.7702768    2286.3761  0.074659616  0.074447809            3 
 2553000   0.83180359   -2.7673411    2282.9264  0.074517771  0.074435134            2 
 2554000   0.83900282   -2.7802717    2283.8676  0.074519302  0.074422384            4 
 2555000   0.84336953   -2.7535324     2289.022  0.074658251  0.074410009            6 
 2556000   0.83733549   -2.7779612     2280.943  0.074365644  0.074397417            8 
 2557000   0.82742406   -2.7772339    2287.1288  0.074538156  0.074384828            4 
 2558000   0.83434597   -2.7691298    2290.4234  0.074616346  0.074372292            3 
 2559000   0.85150372   -2.7441242    2292.7858  0.074664119  0.074359916            6 
 2560000   0.83345281   -2.7792012    2290.1672  0.074549714  0.074347666            4 
 2561000   0.86330423   -2.7855511    2293.1935  0.074619076  0.074335158            3 
 2562000   0.81867712   -2.7521035    2297.0249  0.074714576  0.074322507            2 
 2563000   0.83038865   -2.7324015    2288.6444  0.074412939  0.074309959            1 
 2564000   0.85651827   -2.7626459    2277.3898   0.07401813  0.074297559            4 
 2565000   0.83955808   -2.7871108    2283.1225  0.074175521  0.074285087            3 
 2566000   0.83629315   -2.7885691    2291.3231  0.074412935  0.074272617            3 
 2567000   0.85590781   -2.7710161    2289.3936  0.074321308  0.074260195            8 
 2568000   0.83991276   -2.7919911    2290.2879  0.074321389  0.074247782            8 
 2569000   0.82520124    -2.770232    2293.9724  0.074411976  0.074235363            3 
 2570000   0.83606384    -2.796566    2287.8845  0.074185618   0.07422268            2 
 2571000   0.82855419   -2.7643219    2303.6937  0.074669186  0.074210039            3 
 2572000   0.83699469   -2.7620095    2290.3614  0.074208184  0.074197466            5 
 2573000   0.84235568   -2.7703431    2295.1757  0.074335268  0.074184947            7 
 2574000   0.84448074   -2.7692999    2291.1633  0.074176485   0.07417219            5 
 2575000    0.8385695   -2.8004329    2286.7132  0.074003663  0.074159511            4 
 2576000    0.8185343   -2.7845134    2289.5973  0.074068234   0.07414669            4 
 2577000   0.86468974   -2.7759381    2300.4869  0.074391633  0.074133957            4 
 2578000   0.82749772   -2.7792597    2293.6927  0.074143158  0.074121195            4 
 2579000   0.84830154   -2.7884473    2291.7648  0.074052114   0.07410841            2 
 2580000    0.8634139    -2.787511    2297.9268  0.074222441  0.074095496            3 
 2581000   0.83301056   -2.7834563    2291.2582  0.073978375  0.074082588            3 
 2582000    0.8426864   -2.7885569    2301.5973  0.074283412  0.074069623            9 
 2583000   0.82937193   -2.7721026    2300.4647  0.074218116  0.074056872            2 
 2584000   0.83021503   -2.7870033    2300.1229  0.074178371  0.074044023            6 
 2585000     0.842967   -2.7961099    2294.4695  0.073967424  0.074031333            3 
 2586000   0.82170123   -2.7986723    2293.0746  0.073893871   0.07401847            3 
 2587000   0.84683495   -2.7863249    2302.3019  0.074162541  0.074005602            5 
 2588000   0.83697723    -2.761449    2302.0627  0.074126181  0.073992831            2 
 2589000   0.82634755   -2.7730263    2304.8591   0.07418756  0.073979973            3 
 2590000    0.8458334   -2.7595089    2298.0595  0.073940139  0.073967385            3 
 2591000   0.85062822   -2.7888928    2302.9768  0.074069754   0.07395451            3 
 2592000   0.81485355   -2.7793316    2308.9617  0.074233595  0.073941746            2 
 2593000   0.83833513   -2.7675126    2297.4266  0.073834252  0.073928905            6 
 2594000     0.831382   -2.7751723    2309.3854  0.074189971  0.073916018            7 
 2595000   0.85697617   -2.7820472    2307.6408  0.074105358  0.073903204            3 
 2596000    0.8259682   -2.7996968    2296.5988  0.073722355  0.073890333            3 
 2597000   0.83568145   -2.7968309    2303.4743  0.073914591  0.073877319            3 
 2598000   0.83214276   -2.7614105     2304.423   0.07391657  0.073864419            4 
 2599000   0.83643543   -2.7962722     2299.023  0.073714985  0.073851552            1 
 2600000   0.84010643   -2.7894493    2301.0514  0.073751646  0.073838743            3 
 2601000   0.84318609   -2.7729126    2297.3006  0.073603121  0.073825904            3 
 2602000   0.84488696   -2.7677251    2300.2279  0.073668585  0.073813002            6 
 2603000   0.84339499   -2.7847221    2301.7641  0.073689465  0.073800119            8 
 2604000   0.82497046   -2.7747547    2310.7972  0.073950245  0.073787272            2 
 2605000   0.83206254   -2.8050488    2299.6153  0.073564149  0.073774437            3 
 2606000    0.8112049   -2.7764617     2304.848  0.073703249  0.073761438            7 
 2607000   0.82303406   -2.8044259    2316.4478  0.074045768  0.073748741            6 
 2608000      0.81099   -2.7694963    2301.2323  0.073531196  0.073736102            7 
 2609000   0.84308598   -2.7787622    2307.8901  0.073715668  0.073723349            3 
 2610000   0.85162137   -2.7935925    2305.0257  0.073595967  0.073710502            4 
 2611000   0.83632001    -2.792936    2318.5992  0.074000995  0.073697668            5 
 2612000   0.85769593   -2.7734448    2307.6627  0.073623745  0.073684786            3 
 2613000   0.85259991   -2.8004103    2298.6872  0.073309325   0.07367197            3 
 2614000   0.82177121   -2.7830651    2307.3535  0.073557557  0.073659028            4 
 2615000   0.82943371   -2.8010952    2300.5604   0.07331295  0.073645862            3 
 2616000   0.83494135    -2.783268    2307.6832  0.073511826  0.073632782            3 
 2617000   0.83945839   -2.7696857    2318.1658  0.073817533  0.073619654            2 
 2618000   0.82972129   -2.7719903     2307.103  0.073437198  0.073606737            3 
 2619000   0.82278879    -2.807471    2308.0485  0.073439242  0.073593746            3 
 2620000    0.8478046   -2.7627008    2316.8459  0.073691027  0.073580836            5 
 2621000    0.8504429   -2.7771728    2306.9544  0.073348418  0.073567939            3 
 2622000   0.82740011   -2.7912321    2318.0441  0.073672899  0.073554953            4 
 2623000   0.83202297   -2.7976164    2311.1369  0.073425368  0.073541859            2 
 2624000   0.81568559   -2.7894652    2313.4413   0.07347057   0.07352868            2 
 2625000    0.8377009   -2.7905421    2309.5018  0.073317519  0.073515756            3 
 2626000   0.83269375   -2.8096447    2308.4988  0.073257767  0.073502769            2 
 2627000   0.82251362   -2.7679461    2307.1866  0.073188258   0.07348974            4 
 2628000   0.83881931     -2.81333    2299.4304  0.072914458  0.073476579            3 
 2629000   0.82764041   -2.8043878    2308.1734  0.073163858  0.073463423            4 
 2630000    0.8397163   -2.8154214    2318.3287  0.073457816  0.073450528            7 
 2631000   0.83205713   -2.7883416    2311.7237  0.073220692  0.073437589            2 
 2632000    0.8262096   -2.8017299    2318.7362  0.073414899  0.073424693            8 
 2633000   0.83196926   -2.7703734    2314.1148  0.073240751     0.073412            4 
 2634000   0.82815828   -2.7923623    2315.4144  0.073254064  0.073399131            3 
 2635000   0.82279641   -2.7900504     2326.292  0.073570273  0.073386266            3 
 2636000   0.83057386   -2.7873163    2321.4444  0.073389113   0.07337338            4 
 2637000   0.81231194   -2.8171693    2320.7905  0.073340619  0.073360505            3 
 2638000   0.81932856   -2.8152568    2321.9017  0.073347918  0.073347658            2 
 2639000   0.85665475   -2.7939621    2316.8273  0.073159887  0.073334964            3 
 2640000   0.82811106   -2.7780169    2325.1209  0.073393969  0.073322044            3 
 2641000   0.82866798   -2.7821737    2327.7298  0.073448499  0.073309223            6 
 2642000   0.84427018   -2.7759976    2326.1405  0.073370567   0.07329641            3 
 2643000   0.80915593    -2.806265    2326.9961  0.073369786  0.073283555            3 
 2644000   0.81254273   -2.7826924    2322.5336  0.073201387  0.073270746            2 
 2645000   0.83504234   -2.7967801    2323.5359  0.073205291  0.073257898            3 
 2646000   0.80599939   -2.7864603    2332.4597  0.073458672  0.073245114            4 
 2647000   0.81555974   -2.7787761     2323.328  0.073143431  0.073232751            3 
 2648000   0.82858891    -2.804334    2330.8845  0.073353616  0.073220033            2 
 2649000   0.84113241   -2.7866122    2329.5856  0.073285063   0.07320731            3 
 2650000   0.82577805   -2.7925721    2335.3992  0.073440227  0.073194781            3 
 2651000   0.82010131   -2.8047658    2331.2944  0.073283492  0.073182036            3 
 2652000   0.81954243   -2.8055025    2329.7883  0.073208531  0.073169475            3 
 2653000   0.81671956   -2.8047407     2331.833  0.073245164  0.073156891            4 
 2654000   0.84943802   -2.8097595    2337.3012  0.073389261   0.07314414            3 
 2655000   0.83108365   -2.7905481    2337.7277  0.073375005  0.073131699            3 
 2656000   0.85840747   -2.8022113    2331.4875  0.073151591  0.073119336            3 
 2657000   0.83051445    -2.789844    2333.2529  0.073179427  0.073106881            5 
 2658000   0.82583602   -2.8095453     2334.719  0.073197863  0.073094201            2 
 2659000   0.82611458   -2.8079334    2334.1511  0.073152535  0.073081795            3 
 2660000   0.83359045   -2.7972746    2333.1444  0.073093496  0.073069376            3 
 2661000   0.83142419   -2.7947418     2346.739  0.073491764   0.07305683            2 
 2662000   0.82338996   -2.8032733    2333.5247  0.073050485   0.07304446            4 
 2663000   0.83069431   -2.7764078    2349.8563  0.073534118  0.073032141            2 
 2664000   0.81264649   -2.8001032     2341.573  0.073247405  0.073019832            5 
 2665000   0.81627379   -2.7934167    2346.1883  0.073364238  0.073007473            5 
 2666000   0.82000029   -2.8317255      2333.61  0.072943547  0.072994979            3 
 2667000   0.81775946   -2.7962016    2342.8698  0.073205532  0.072982593            4 
 2668000   0.84585075   -2.7749211    2337.5749  0.073012709  0.072970048            4 
 2669000   0.81850913   -2.8114779    2336.8565  0.072962923  0.072957614            3 
 2670000   0.81703301    -2.808988    2342.5455  0.073113156  0.072945224            3 
 2671000   0.83421201   -2.8046965    2339.3037  0.072984641  0.072932886            3 
 2672000   0.83281696   -2.8025852    2344.5659  0.073121441  0.072920507            2 
 2673000   0.82021852   -2.8192198    2342.6959  0.073035786   0.07290806            3 
 2674000   0.83195215    -2.805728    2346.4639  0.073125901  0.072895445            3 
 2675000   0.80983061   -2.8052239    2342.0368  0.072960649  0.072883048            4 
 2676000   0.81875871   -2.8112255    2339.1626  0.072843877  0.072870589            9 
 2677000   0.84049428   -2.8037604    2350.3088  0.073163642  0.072858191           10 
 2678000   0.81420518   -2.7985684    2334.1146  0.072632392  0.072845762            2 
 2679000   0.80522468   -2.8103395    2342.8012  0.072875487  0.072833217            2 
 2680000   0.82730492   -2.8099854    2351.8196  0.073128719   0.07282071            4 
 2681000   0.83311266   -2.7714052     2352.529  0.073123493  0.072808318            4 
 2682000   0.82050239   -2.8084578    2354.7912  0.073166517  0.072796117            4 
 2683000   0.81110788   -2.7919809    2343.2828    0.0727818   0.07278373            4 
 2684000   0.82367164   -2.8140109    2354.1652  0.073092561  0.072771439            3 
 2685000   0.83404266   -2.8046354    2350.7738  0.072960081  0.072759245            8 
 2686000   0.82489984   -2.8017061    2358.8459  0.073183355  0.072746971            1 
 2687000   0.80381962   -2.7950577    2352.9827   0.07297428  0.072734691            6 
 2688000   0.82777386   -2.7814687    2361.3483  0.073206483  0.072722465            2 
 2689000   0.82284179   -2.7950907    2354.3549   0.07296253  0.072710136            3 
 2690000   0.82107261   -2.7934438    2356.2872  0.072995266  0.072698124            3 
 2691000   0.81332499   -2.8238025    2353.5699  0.072883994  0.072685745            2 
 2692000   0.81934298   -2.7936947    2349.2263  0.072722458  0.072673496            4 
 2693000   0.80312592   -2.8105942    2360.2932  0.073037914  0.072661111            5 
 2694000   0.83458243   -2.7789059    2364.1636  0.073130525  0.072648966            2 
 2695000   0.82767625   -2.7960861    2363.5934  0.073085758  0.072636721            4 
 2696000   0.84803605   -2.7953017    2348.0726  0.072578902  0.072624581            6 
 2697000   0.82578645   -2.8202228    2356.2244  0.072803869  0.072612059            3 
 2698000   0.80475328   -2.8035577    2356.1077  0.072773278  0.072599875            4 
 2699000   0.82985819   -2.7907581    2357.6599  0.072794242  0.072587652            3 
 2700000    0.8163997   -2.7759022    2368.9094  0.073114486  0.072575618            2 
 2701000   0.82351859   -2.7948278     2358.542  0.072767554  0.072563502            2 
 2702000    0.8150596   -2.8108389    2356.3276  0.072672331  0.072551133            3 
 2703000   0.80663769   -2.8245228    2360.3906  0.072770707  0.072538917            3 
 2704000   0.80625196   -2.8117867    2362.0707  0.072795571  0.072526552            4 
 2705000   0.80931268   -2.8130636    2364.0574  0.072829865  0.072514269            5 
 2706000   0.83153936   -2.8010293    2360.2018  0.072684213  0.072502031            3 
 2707000   0.80663705   -2.7856752    2372.1529   0.07302527  0.072489815            5 
 2708000    0.8139837   -2.8200622    2358.3643  0.072573989  0.072477366            4 
 2709000    0.8144664   -2.8134276    2358.0438  0.072537339  0.072464933            5 
 2710000   0.81936604   -2.7879197    2367.9798  0.072816108  0.072452601            9 
 2711000   0.83028122   -2.7840729    2367.6597  0.072779409  0.072440293            2 
 2712000   0.81652181   -2.8162505    2362.2246  0.072585564  0.072427972            3 
 2713000   0.82247423   -2.8183103    2366.0578   0.07267655  0.072415548            6 
 2714000   0.81803007   -2.7984061    2368.3803  0.072721086  0.072403285            3 
 2715000    0.8040423   -2.8215695    2375.7598  0.072920805  0.072391145            3 
 2716000   0.83233754   -2.7899885    2371.0847  0.072750514  0.072379077            4 
 2717000   0.81691745   -2.8059646    2367.4376  0.072611876  0.072366929            3 
 2718000   0.81379241   -2.8147035    2370.2069  0.072670066  0.072354727            3 
 2719000   0.83405178   -2.7988555    2370.6351  0.072656463  0.072342535            3 
 2720000   0.81705356   -2.7867896    2365.5855  0.072475047  0.072330373            4 
 2721000   0.84278798   -2.8066535    2366.9693  0.072490789  0.072318054            4 
 2722000   0.82994056   -2.8070381     2368.324  0.072505632  0.072305967            4 
 2723000   0.80584992   -2.8161518       2367.2  0.072444608  0.072293701            3 
 2724000   0.81453132   -2.7994351    2370.1178  0.072507274   0.07228133            3 
 2725000   0.80992306   -2.8305448    2364.6267  0.072312744  0.072268986            9 
 2726000   0.80556064   -2.7959911    2376.0925  0.072636723  0.072256689            3 
 2727000   0.82978221   -2.8110561    2365.1465  0.072275591  0.072244619            6 
 2728000   0.80524871    -2.796953    2373.8194  0.072514035  0.072232322            4 
 2729000    0.8191079   -2.8006661    2373.4025   0.07247473  0.072220083            3 
 2730000   0.81382801   -2.8095982    2369.9069  0.072341482  0.072207843            3 
 2731000   0.82088546   -2.7964814    2377.9308  0.072559831  0.072195548            3 
 2732000   0.80801489    -2.799617    2386.3609  0.072790414  0.072183469            3 
 2733000   0.81286908   -2.7952181    2381.8921   0.07262752  0.072171204            2 
 2734000   0.81699891   -2.8163904    2378.0556  0.072484017  0.072159121            4 
 2735000   0.82408025   -2.8221218    2380.9356  0.072545265  0.072146895            4 
 2736000   0.80303269   -2.7931649    2381.3252  0.072530618  0.072134556            3 
 2737000   0.80640159   -2.7993003     2379.836  0.072458774  0.072122447            5 
 2738000   0.82425413   -2.7986998    2378.5161  0.072392138  0.072110179            8 
 2739000   0.79332469   -2.8152011     2381.622  0.072460204  0.072097825            3 
 2740000   0.82060932   -2.8188589    2381.0741  0.072417095  0.072085495            3 
 2741000   0.82194709   -2.7915564     2384.503  0.072494923  0.072073248            4 
 2742000   0.81177319   -2.8399026    2373.2368  0.072126088  0.072061202            1 
 2743000   0.80447949   -2.8142114    2375.3705  0.072164616    0.0720489            3 
 2744000   0.79603322   -2.8020808    2385.8485  0.072456528  0.072036604            7 
 2745000    0.8195649    -2.806558    2380.3419  0.072262959  0.072024611            6 
 2746000     0.819043   -2.8268049    2379.8598  0.072222014  0.072012299            2 
 2747000   0.82845341    -2.836036    2373.6632  0.072007743  0.071999803            2 
 2748000   0.78193012    -2.806306    2379.9437  0.072171996  0.071987369            3 
 2749000   0.79657523   -2.8150037    2371.3478  0.071885166  0.071974936            3 
 2750000   0.80498758   -2.7996156    2374.2463  0.071946857  0.071962452            1 
 2751000   0.81564619   -2.8085811    2383.4452  0.072199358  0.071950139            4 
 2752000   0.82284073   -2.7882504    2384.1171  0.072193468  0.071937734            4 
 2753000   0.80735931   -2.8271333    2385.2025  0.072200099  0.071925358            4 
 2754000   0.80442409   -2.7974887    2389.0893  0.072291495  0.071913028            5 
 2755000   0.80488325   -2.8387733     2381.113  0.072023988  0.071900625            6 
 2756000   0.80409031   -2.8185927    2388.4301  0.072219101  0.071888291            3 
 2757000   0.81515733   -2.8245228    2375.4958  0.071801953  0.071876028            4 
 2758000   0.81036595   -2.8005145    2387.4563  0.072137308  0.071863722            7 
 2759000   0.81097262   -2.8369487    2394.1291  0.072312706  0.071851371            4 
 2760000   0.80781912   -2.8133338    2389.3744  0.072142948  0.071838874            3 
 2761000   0.81468444   -2.8153237    2385.1412  0.071989049  0.071826457            4 
 2762000   0.83472622   -2.8065894    2390.6142  0.072128114  0.071814071            6 
 2763000   0.81227091   -2.8070656    2384.4811  0.071917032  0.071801743            2 
 2764000   0.80090126   -2.8223202    2395.0023  0.072208221  0.071789415            3 
 2765000   0.81037991   -2.7988914    2390.7207  0.072053064  0.071777087            4 
 2766000   0.80268908   -2.8109859    2389.1255  0.071978955   0.07176476            2 
 2767000   0.80323965   -2.8122291    2385.0213  0.071829336  0.071752204            3 
 2768000   0.81583488   -2.7947964    2394.7339  0.072095794  0.071739797            5 
 2769000   0.80236908   -2.8183949    2394.1037  0.072050792  0.071727511            4 
 2770000   0.80282926   -2.8132813    2387.2718  0.071819248  0.071715137            5 
 2771000   0.79626483   -2.8405216    2388.8163  0.071839777  0.071702714            4 
 2772000   0.82914953   -2.8291691    2391.3703  0.071890642  0.071690151            3 
 2773000   0.82190194   -2.8241316    2394.0285  0.071944599  0.071677935            4 
 2774000   0.81618226   -2.8296078    2395.2694  0.071955942  0.071665674            3 
 2775000    0.7943623   -2.8069786    2397.6895  0.072002688  0.071653497            4 
 2776000   0.80057661   -2.8375719    2392.0867  0.071808559  0.071641231            2 
 2777000   0.80824816   -2.8225603     2394.448  0.071853559  0.071629136            6 
 2778000   0.81034483   -2.8095105    2392.6178  0.071772793  0.071616811            3 
 2779000   0.80958463   -2.8212417    2387.6366  0.071597596  0.071604328            4 
 2780000   0.78745549   -2.8321377    2391.0089  0.071672929  0.071591912            3 
 2781000   0.79621102   -2.8234225    2391.0052  0.071647044  0.071579482            3 
 2782000   0.81485529   -2.8092752    2399.0717   0.07186292  0.071567138            6 
 2783000    0.8056372    -2.786404    2399.3677  0.071845962  0.071554822            3 
 2784000   0.81989396   -2.8373072    2392.9818  0.071629006  0.071542527            5 
 2785000   0.82319507   -2.8247824    2402.8161  0.071897549  0.071530329            4 
 2786000   0.80479166   -2.8468876    2401.1848  0.071822949  0.071517847            3 
 2787000    0.8034158   -2.8163834    2395.7564  0.071634864  0.071505362            5 
 2788000   0.81028968    -2.831968    2400.3168   0.07174548  0.071493039            3 
 2789000    0.7926848   -2.8345028     2407.503  0.071934475  0.071480726            4 
 2790000     0.805072   -2.8252989    2402.0459  0.071745694  0.071468594            4 
 2791000   0.79803526   -2.8324596    2408.6567  0.071917373  0.071456336            3 
 2792000   0.81803029   -2.8131284    2403.3096   0.07173202  0.071444123            5 
 2793000   0.79506085    -2.801355    2398.7912  0.071571524   0.07143206            4 
 2794000   0.81286934   -2.8198114    2413.7342  0.071991596  0.071419934            3 
 2795000   0.80255579   -2.8388669    2402.8327  0.071640807  0.071407664            3 
 2796000   0.82082991   -2.8277228    2406.1924   0.07171532  0.071395547            6 
 2797000   0.81449556   -2.8377138    2405.5313  0.071669982  0.071383474            3 
 2798000   0.81827038   -2.7989382    2405.3484  0.071638921  0.071371459            5 
 2799000   0.80828699   -2.8230016    2401.9921    0.0715134  0.071359242            3 
 2800000   0.80154687    -2.823984    2407.7707  0.071659842  0.071347217            3 
 2801000   0.79895247   -2.8352284     2405.739  0.071573812  0.071335066            3 
 2802000   0.79817628   -2.8376043    2410.1563  0.071679643  0.071322863            2 
 2803000   0.81311979   -2.8330806     2405.942  0.071528778  0.071310626            3 
 2804000   0.82009053   -2.8273051    2409.7094  0.071615234  0.071298508            4 
 2805000   0.79187297   -2.8252945    2411.5668  0.071644885  0.071286561            3 
 2806000   0.79034148   -2.8233137    2409.3238  0.071552737  0.071274378            4 
 2807000   0.81731379   -2.8305874    2407.1587   0.07146297  0.071262165            4 
 2808000    0.8148687    -2.826365    2404.2011  0.071349746  0.071250042            3 
 2809000    0.8048119   -2.8222552    2418.4887  0.071748212  0.071237982            2 
 2810000   0.79910138   -2.8387207    2414.1585  0.071594261  0.071225686            5 
 2811000    0.8094591   -2.8548612    2413.8685  0.071560195   0.07121329            4 
 2812000   0.79278132   -2.8296194    2405.6868  0.071292284  0.071200801            7 
 2813000   0.79327495   -2.8394641    2417.8197  0.071626368  0.071188514            4 
 2814000    0.7996964   -2.8361948    2408.0214  0.071310748  0.071176171            3 
 2815000   0.79638213   -2.8236109    2402.1075  0.071110347  0.071163992            3 
 2816000   0.80136474   -2.8383531    2414.7283   0.07145858  0.071151743            3 
 2817000   0.79905349   -2.8430682    2410.3685  0.071304238  0.071139495            5 
 2818000   0.79745634   -2.8180684    2415.1123  0.071419218  0.071127205            2 
 2819000   0.80955368   -2.8064003    2409.6715  0.071233047  0.071114987            4 
 2820000   0.81971833   -2.8470593    2414.3219   0.07134521  0.071102634            5 
 2821000   0.78402743   -2.8217726     2412.912  0.071278269  0.071090333            3 
 2822000    0.7997057   -2.8452799      2409.23  0.071144283  0.071078012            7 
 2823000   0.78753216   -2.8390079    2412.2651  0.071208677  0.071065714            9 
 2824000   0.80565074   -2.8239352    2423.3565  0.071510757  0.071053144            2 
 2825000   0.79254816   -2.8185971    2408.1382  0.071036525  0.071040762            2 
 2826000   0.82193427   -2.8335571    2399.1403  0.070746057  0.071028313            5 
 2827000   0.79735129   -2.8133614    2417.0247  0.071248222  0.071015649            3 
 2828000   0.78895326   -2.8484877    2414.9625   0.07116226  0.071003119            3 
 2829000   0.79191275   -2.8372854    2409.4838  0.070975722  0.070990634            6 
 2830000   0.79517065   -2.8659388    2412.9265  0.071052017  0.070977985            3 
 2831000   0.78902038   -2.8404549    2418.2844  0.071184636  0.070965274            5 
 2832000   0.79252729   -2.8529664    2411.9459  0.070972985  0.070952709            2 
 2833000    0.7953993   -2.8329699    2414.5109  0.071023383  0.070940088            4 
 2834000   0.79050267   -2.8276934    2410.5051  0.070880532   0.07092751           11 
 2835000   0.81976478   -2.8461072    2410.9371  0.070868229  0.070914919            2 
 2836000   0.79000867    -2.840447    2416.0868  0.070994559   0.07090225            3 
 2837000   0.80239887   -2.8428886    2418.8037  0.071049339  0.070889623            4 
 2838000   0.81194232   -2.8374962    2410.8341  0.070790291  0.070877004            4 
 2839000   0.78539832   -2.8409485    2416.0063  0.070917174  0.070864207            4 
 2840000   0.80573789   -2.8182874    2416.0417  0.070893242  0.070851398            6 
 2841000   0.79784199   -2.8159735    2422.5818  0.071060126  0.070838719            3 
 2842000   0.81907394   -2.8466256     2417.894  0.070897665  0.070826013            7 
 2843000   0.80893794    -2.846977    2420.3033  0.070943348  0.070813383            4 
 2844000   0.80041368   -2.8380452    2416.6475  0.070811283  0.070800799            4 
 2845000   0.79818469   -2.8230725    2423.0335  0.070973446  0.070788159            2 
 2846000   0.79034179   -2.8486278    2414.7783  0.070706792   0.07077532            3 
 2847000   0.79692212   -2.8537863     2418.057  0.070777924  0.070762649            7 
 2848000   0.80335553   -2.8460432    2414.6068  0.070652119  0.070749855            2 
 2849000   0.79848727   -2.8420301    2417.0572  0.070698993  0.070736954            4 
 2850000    0.8040642   -2.8245013    2420.3907  0.070771659  0.070724134            3 
 2851000   0.79068704   -2.8381353    2420.9327  0.070762677  0.070711593            3 
 2852000   0.79328748   -2.8324535    2429.6343   0.07099212  0.070699102            2 
 2853000   0.79343291   -2.8332371    2418.9509  0.070655184  0.070686435            3 
 2854000    0.8015092   -2.8428202    2413.3221  0.070466073  0.070673672            4 
 2855000    0.7811024   -2.8445101    2420.2229  0.070642818  0.070661057            5 
 2856000    0.7839839   -2.8182801    2416.1447  0.070499087  0.070648365            3 
 2857000   0.79020815   -2.8406296    2423.5489  0.070690378  0.070635734            3 
 2858000   0.78797306   -2.8388259    2424.9265  0.070705811  0.070623103            3 
 2859000   0.79266794   -2.8461664    2433.4001  0.070928066  0.070610425            5 
 2860000   0.80071355   -2.8511304    2427.8141  0.070740504   0.07059764            3 
 2861000   0.78898287   -2.8314889    2423.9157  0.070602228  0.070584851            2 
 2862000   0.78787269   -2.8310751    2427.7737  0.070689893  0.070572045            5 
 2863000   0.80054822    -2.841585    2423.8899  0.070552157   0.07055931            5 
 2864000   0.79145011   -2.8150682    2429.1354  0.070680151  0.070546451            4 
 2865000   0.79082359   -2.8487619    2419.8213  0.070384564   0.07053358           11 
 2866000   0.77691256   -2.8487673    2425.3069  0.070519507  0.070520791            3 
 2867000   0.78462989   -2.8332746    2423.7643  0.070450072  0.070508044            6 
 2868000   0.78218868   -2.8472243    2428.3587  0.070559005  0.070495247            2 
 2869000   0.78326962   -2.8669121    2425.3487  0.070446983   0.07048253            5 
 2870000   0.80106945   -2.8404513    2423.0377  0.070355333   0.07046971            5 
 2871000   0.78497889   -2.8419311    2431.2398  0.070568903  0.070457018            3 
 2872000   0.78858542   -2.8510885    2429.2319   0.07048607  0.070444488            3 
 2873000   0.78389784   -2.8366445    2431.7774  0.070535369  0.070431887            3 
 2874000   0.80069976   -2.8365577    2435.9689  0.070632361  0.070419284            4 
 2875000   0.79572348   -2.8318245    2435.3532  0.070589947  0.070406743            3 
 2876000   0.79263177   -2.8365167    2434.8071   0.07054958  0.070394089            3 
 2877000   0.76899409   -2.8496017     2432.485  0.070457797  0.070381448            3 
 2878000   0.78597139   -2.8477752    2433.0356   0.07044926  0.070368806            5 
 2879000   0.78708762   -2.8592723    2432.3491  0.070404916  0.070356193            4 
 2880000    0.8087042   -2.8328214     2432.176  0.070375462  0.070343713            4 
 2881000   0.79796677   -2.8527649    2436.3412  0.070471514  0.070330999            7 
 2882000   0.78287547   -2.8395233    2438.5577  0.070511152   0.07031835            4 
 2883000   0.78796959   -2.8765895    2428.1833  0.070186822  0.070305623            4 
 2884000   0.79070857   -2.8308434    2441.8422  0.070557159  0.070293032            4 
 2885000   0.79346444   -2.8520596    2431.4436   0.07023234  0.070280322            3 
 2886000   0.80202142   -2.8528184    2435.2434  0.070317724  0.070267559            4 
 2887000   0.79309011   -2.8279014     2437.544  0.070359772  0.070254894            5 
 2888000   0.78959718   -2.8337419    2439.8507   0.07040197  0.070242252            3 
 2889000   0.80230884   -2.8456852    2430.2597   0.07010095  0.070229771            2 
 2890000   0.78719558   -2.8375487    2440.2234  0.070363998  0.070217157            2 
 2891000   0.78718226   -2.8629271    2439.7608  0.070326323  0.070204475            4 
 2892000   0.78699788   -2.8501594    2435.0762  0.070167019  0.070191965            3 
 2893000    0.7710778   -2.8502414    2441.8463  0.070337778  0.070179361            7 
 2894000   0.79046019   -2.8529061    2434.8498  0.070112007  0.070166756            4 
 2895000    0.7979242   -2.8201593    2447.7436  0.070458939  0.070154294            4 
 2896000   0.77212667   -2.8668491    2440.4478  0.070224673  0.070141757            3 
 2897000   0.79857362   -2.8562544    2434.3358  0.070024619  0.070129245            3 
 2898000   0.79771353   -2.8345119    2447.7357  0.070385774  0.070116504            3 
 2899000    0.7907892   -2.8505798    2444.2232  0.070260525  0.070103921            4 
 2900000   0.78509423   -2.8339416    2443.0315  0.070202054  0.070091268            6 
 2901000    0.7997084   -2.8633707    2447.8393  0.070315962  0.070078579            5 
 2902000   0.79341739   -2.8433748     2440.794  0.070089422  0.070065774            5 
 2903000   0.79428659   -2.8644489    2441.3164  0.070080273  0.070053147            2 
 2904000   0.77882935   -2.8629387    2436.3335  0.069913152  0.070040437            3 
 2905000   0.79097426   -2.8423294    2433.6655   0.06981255  0.070027708            7 
 2906000   0.78706872    -2.852386    2442.4517  0.070040483  0.070015017            5 
 2907000   0.76822061   -2.8360178    2445.9903  0.070117828  0.070002299            5 
 2908000   0.78693422   -2.8556816    2452.9489  0.070293125  0.069989502            5 
 2909000   0.77710372   -2.8584808    2445.2379  0.070048066  0.069976826            3 
 2910000   0.79799767   -2.8683584     2439.412  0.069857159  0.069964062            6 
 2911000   0.76971593   -2.8374059    2443.0205  0.069936462  0.069951392            3 
 2912000   0.78535364   -2.8353179    2445.2585  0.069976492  0.069938825            4 
 2913000   0.78267088   -2.8421185    2447.4817  0.070016069  0.069926072            6 
 2914000   0.78710775   -2.8645412     2447.723  0.069998941   0.06991333            6 
 2915000   0.79085347    -2.884254    2443.4737  0.069853451  0.069900578            6 
 2916000   0.79718136   -2.8554877    2444.1352  0.069848401  0.069887972            6 
 2917000   0.77749968   -2.8520652    2443.4694  0.069805434  0.069875204            4 
 2918000   0.77320942    -2.851771    2444.9668  0.069824274  0.069862544            4 
 2919000   0.78022467   -2.8558045    2447.2765  0.069866294   0.06984988            3 
 2920000   0.78377293   -2.8509352    2454.5134  0.070048898  0.069837245            7 
 2921000   0.79017477   -2.8548611    2453.3221   0.06999093  0.069824526            3 
 2922000    0.7858324    -2.867423    2451.4673  0.069914079  0.069811643            5 
 2923000   0.77245043   -2.8605874    2444.7073  0.069697436  0.069798784            5 
 2924000   0.78590207   -2.8549882    2437.3287  0.069463311  0.069785839            6 
 2925000   0.78353538   -2.8809555    2451.9575  0.069856339  0.069772955            5 
 2926000    0.7753946   -2.8703182     2442.314  0.069557814  0.069760096            7 
 2927000   0.76563711   -2.8469106     2450.506  0.069767282  0.069747149            4 
 2928000    0.7853834   -2.8400338    2447.6348  0.069661738   0.06973433            5 
 2929000   0.78082053   -2.8416809    2449.9301  0.069703257  0.069721463            6 
 2930000   0.77055753   -2.8682848    2448.5456  0.069640092  0.069708617            2 
 2931000   0.78504033   -2.8493808     2445.879  0.069540515   0.06969578            3 
 2932000   0.79317075   -2.8570733    2458.4883  0.069875179  0.069682826            8 
 2933000   0.77374918   -2.8479634    2451.9716  0.069666201  0.069670057            3 
 2934000   0.78469127   -2.8734525    2438.2049  0.069251444  0.069657171            5 
 2935000   0.79611598   -2.8461833     2456.595  0.069750001  0.069644349            2 
 2936000   0.77215236    -2.828284    2466.1147  0.069996443  0.069631619            3 
 2937000   0.78677782   -2.8653853    2454.8476  0.069652923  0.069618931            3 
 2938000   0.77061564    -2.859478    2459.2619  0.069754423   0.06960624            3 
 2939000   0.78859321   -2.8590262    2460.8036  0.069774401  0.069593467            3 
 2940000   0.78149392   -2.8624528    2450.6756  0.069463593  0.069580705            6 
 2941000   0.77601025   -2.8620906    2456.0707  0.069592846  0.069567957            5 
 2942000   0.78791459   -2.8740886    2460.3261  0.069689727  0.069555357            6 
 2943000   0.78266889   -2.8515178    2448.2654   0.06932454  0.069542482            4 
 2944000    0.7681719   -2.8637028    2457.5319  0.069563289  0.069529584           10 
 2945000   0.78308118    -2.852095    2461.6973  0.069657536  0.069516807            6 
 2946000   0.78349157   -2.8406073     2463.083  0.069673088  0.069504093            5 
 2947000    0.7949705   -2.8693231    2458.6009  0.069522703  0.069491214            2 
 2948000   0.77363293   -2.8794399    2460.5202  0.069553376   0.06947839            5 
 2949000   0.77928174   -2.8368021    2458.3921  0.069469653  0.069465584            5 
 2950000   0.78187429   -2.8596865    2457.9095  0.069432473  0.069452688            4 
 2951000   0.78266498   -2.8587865     2449.672  0.069176324   0.06943998            5 
 2952000   0.78994066   -2.8566321    2455.1776  0.069308311  0.069427214            2 
 2953000   0.80005036   -2.8771578    2455.8276  0.069303184  0.069414438            3 
 2954000   0.77876077   -2.8613861    2462.2562  0.069461074  0.069401607            3 
 2955000    0.7816262   -2.8671618    2460.6527  0.069392348  0.069388882            5 
 2956000   0.77554944   -2.8633866    2454.2077  0.069187181  0.069375915            5 
 2957000   0.78410183   -2.8748546     2454.477  0.069171372   0.06936307            6 
 2958000   0.80500985   -2.8596689    2453.2665  0.069113885  0.069350042            5 
 2959000   0.77606322   -2.8709658    2461.2415  0.069315126  0.069337021            2 
 2960000   0.78344496   -2.8505067    2455.9888  0.069143828  0.069324058            4 
 2961000   0.77677431    -2.856723    2457.2991  0.069157353  0.069311121            6 
 2962000   0.76277934   -2.8528098    2459.8336  0.069205311  0.069298254            3 
 2963000   0.78595257    -2.867236    2465.9793  0.069354801  0.069285264            4 
 2964000   0.77398824   -2.8724815    2463.5267  0.069262447  0.069272223            7 
 2965000   0.79646914   -2.8713584     2458.475  0.069097105  0.069259346            7 
 2966000   0.77515983   -2.8504979    2459.5761  0.069104745  0.069246535           10 
 2967000   0.76877098    -2.843386    2455.0122  0.068953269  0.069233621            1 
 2968000   0.77041695   -2.8470186      2464.75  0.069203447  0.069220562            4 
 2969000   0.77142409   -2.8598207    2459.9738  0.069046083  0.069207501            3 
 2970000   0.78215775   -2.8461885    2467.3704  0.069230371  0.069194519            4 
 2971000   0.76806149   -2.8929647    2466.6012  0.069185494  0.069181595            2 
 2972000   0.78998834   -2.8637844    2456.4024  0.068876245  0.069168542            4 
 2973000    0.7822507   -2.8644704    2467.7861  0.069172164  0.069155538            3 
 2974000   0.78955436   -2.8692671    2457.1628  0.068851233  0.069142408           10 
 2975000   0.75830057   -2.8704538    2467.0146  0.069104049  0.069129463            3 
 2976000   0.76973853   -2.8563937    2466.4091  0.069063875  0.069116509            7 
 2977000   0.77904938     -2.87201    2469.5037  0.069127302  0.069103488            7 
 2978000   0.78081105   -2.8565313    2463.7101  0.068941965   0.06909042            3 
 2979000   0.78452139   -2.8622802    2464.5778  0.068943096  0.069077294            3 
 2980000   0.78273679   -2.8703683    2468.7772  0.069037395  0.069064281            2 
 2981000   0.78424264   -2.8672053       2459.7  0.068760484  0.069051454            7 
 2982000   0.77101492   -2.8835382    2464.2499  0.068864574  0.069038351            8 
 2983000   0.76372684   -2.8756634     2462.086  0.068781037   0.06902531            5 
 2984000    0.7768505   -2.8875841    2463.3763  0.068794021  0.069012461            8 
 2985000   0.76293143   -2.8441858     2466.429  0.068856197   0.06899941            3 
 2986000   0.79149034   -2.8621138    2470.7546  0.068953858  0.068986344            3 
 2987000   0.79261008   -2.8499292    2472.2293  0.068971913  0.068973295            4 
 2988000   0.75589052   -2.8646231    2465.9883  0.068774773  0.068960134            2 
 2989000   0.77832264   -2.8569741    2480.4616  0.069155281  0.068946985            2 
 2990000   0.77912979   -2.8495434    2468.5199  0.068799328  0.068933852            2 
 2991000    0.7720385   -2.8771363    2466.6966  0.068725526  0.068920664           11 
 2992000   0.75643685   -2.8721328    2469.8469  0.068790298  0.068907458            3 
 2993000   0.78489627   -2.8641772    2466.5771  0.068676275  0.068894286            5 
 2994000    0.7724481    -2.854443    2459.1439  0.068446445  0.068881119            3 
 2995000   0.75543639   -2.8707815    2469.5459  0.068713019  0.068867931            6 
 2996000    0.7837324   -2.8728416    2465.5905  0.068580065  0.068854737            2 
 2997000   0.77309993   -2.8692216    2462.2121  0.068463245   0.06884143            4 
 2998000   0.74880559   -2.8589854    2463.0988  0.068465053   0.06882808            4 
 2999000   0.77130634   -2.8744353    2467.1323  0.068554305  0.068814789            5 
 3000000   0.76889019   -2.8807308    2469.0683   0.06858523  0.068801537            4 
 3001000   0.78639259    -2.843298    2471.4192  0.068627658  0.068788194            5 
 3002000   0.76471918   -2.8740579    2470.4177  0.068576997  0.068775079            6 
 3003000   0.77377881     -2.85136    2469.6497  0.068532849  0.068761754            4 
 3004000   0.75964076   -2.8623161    2474.9955  0.068658331  0.068748427            2 
 3005000   0.77358921   -2.8874142    2469.2099   0.06847504  0.068735282            4 
 3006000   0.77426087   -2.8655106    2460.3406  0.068206382  0.068722026            4 
 3007000   0.77799391   -2.8597175    2472.2526  0.068513817  0.068708673            4 
 3008000   0.77358723   -2.8833985    2466.3746  0.068328198  0.068695378            4 
 3009000   0.77470474   -2.8908563    2471.8735   0.06845778  0.068682172           11 
 3010000   0.75964118   -2.8842209    2475.0276  0.068522358  0.068668923            5 
 3011000   0.78187752   -2.8583623    2479.6826  0.068628436  0.068655811            6 
 3012000   0.77888867   -2.8709464     2473.444  0.068433045  0.068642641           10 
 3013000   0.78296357   -2.8677878     2475.169  0.068458044  0.068629353            3 
 3014000   0.75929187   -2.8555119     2475.968  0.068457422  0.068616424            3 
 3015000   0.78201892   -2.8682147    2471.6016   0.06831403  0.068603224            4 
 3016000   0.77142324    -2.884961    2466.5624  0.068152145  0.068589928            6 
 3017000   0.76101804   -2.8530214    2482.1391  0.068559803  0.068576776            4 
 3018000    0.7932105    -2.870349    2482.3858  0.068543899  0.068563743            4 
 3019000   0.77911208   -2.8676859    2479.7243   0.06844773  0.068550761            1 
 3020000   0.74741698   -2.8776131    2475.2786  0.068302389  0.068537579            4 
 3021000   0.77011234    -2.896131     2483.667  0.068511172  0.068524444            5 
 3022000   0.78152807   -2.8810165     2469.995  0.068111488  0.068511311            6 
 3023000   0.77018797   -2.8625886    2486.4602  0.068542844  0.068498272            5 
 3024000   0.76886291   -2.8845283    2477.5151  0.068273674  0.068485134            3 
 3025000   0.76959356   -2.8610629    2485.1312  0.068460916  0.068472079            3 
 3026000   0.78077135   -2.8648256    2481.1174  0.068327753  0.068458983            3 
 3027000    0.7537367   -2.8616359    2482.4051  0.068340631  0.068446001            5 
 3028000   0.77054465   -2.8643775    2477.9352  0.068195046  0.068433058            3 
 3029000   0.76194435   -2.8949053    2478.9887  0.068201516  0.068420033            7 
 3030000    0.7577885   -2.8914227    2468.8964   0.06790144  0.068406894            2 
 3031000   0.75604617   -2.8890257    2477.9973  0.068129255  0.068393603            3 
 3032000   0.75210056   -2.8733669     2485.565  0.068314782  0.068380527            4 
 3033000   0.79214607   -2.8950703    2482.6897  0.068213257  0.068367361            4 
 3034000    0.7621722   -2.8753204    2488.4661  0.068349432  0.068354271            3 
 3035000   0.77911823    -2.852623    2483.9294  0.068202344  0.068341161            3 
 3036000   0.76767964   -2.8776386    2491.3346  0.068383142  0.068327992            4 
 3037000   0.75977092   -2.8720006    2484.9168  0.068184524  0.068314799            4 
 3038000   0.75320308   -2.8687422    2486.7131  0.068211354  0.068301621            4 
 3039000   0.74700876   -2.8930296    2484.5006  0.068128238   0.06828837            5 
 3040000   0.77007373   -2.8910377    2482.1803  0.068042223  0.068275206            5 
 3041000   0.78653336   -2.9085824    2484.0783   0.06807186  0.068262129            6 
 3042000   0.77458624   -2.8706293    2481.3746  0.067975415  0.068249038            2 
 3043000   0.77096636   -2.8948509     2479.552  0.067903167  0.068235824            5 
 3044000   0.77844117   -2.8810086    2491.8471  0.068217453  0.068222839            2 
 3045000   0.77149892   -2.8506762    2484.2297  0.067986581  0.068209947            2 
 3046000   0.77883797   -2.8816214    2486.9673  0.068039158  0.068196807            7 
 3047000   0.75306768   -2.8667914    2491.2702   0.06813451  0.068183724            5 
 3048000    0.7503373   -2.8808731    2485.3456  0.067950174  0.068170563            3 
 3049000   0.77145094   -2.8841764    2482.0952   0.06783905  0.068157439            4 
 3050000    0.7483372   -2.8825829      2486.73  0.067943443   0.06814437            5 
 3051000   0.76595303   -2.8943119    2489.8082  0.068005249  0.068131216            3 
 3052000   0.75443713   -2.8703772    2492.9397  0.068068473  0.068118172            4 
 3053000   0.75875267   -2.8785403    2489.9333  0.067964114   0.06810512            4 
 3054000   0.74872688   -2.9007669    2484.9874  0.067806905  0.068092071            6 
 3055000   0.77163123   -2.8577187    2485.5619   0.06780038  0.068078913            5 
 3056000   0.75662494    -2.881736    2495.2955  0.068043617  0.068065996            3 
 3057000   0.75692003   -2.8863396    2495.4556  0.068025723  0.068053115            3 
 3058000   0.77389878   -2.8827965    2496.2407  0.068024871  0.068040139            4 
 3059000   0.75959427   -2.8838812    2488.0419  0.067779284  0.068027259            6 
 3060000   0.75165745   -2.8672375    2501.7413   0.06813021  0.068014285            3 
 3061000   0.75784732   -2.8723017    2499.1053  0.068036188  0.068001394            3 
 3062000   0.76600013   -2.8719909     2492.018  0.067821086  0.067988379            5 
 3063000   0.78199012   -2.8757196    2488.5055  0.067703382  0.067975298            5 
 3064000   0.75548229   -2.8948058    2504.2973  0.068110783  0.067962211            3 
 3065000   0.76432775   -2.8969979    2496.0099  0.067863238  0.067949256            2 
 3066000   0.76072376    -2.881033    2497.2745  0.067875474  0.067936291            3 
 3067000    0.7578537   -2.8646016    2500.9977  0.067954508  0.067923269            7 
 3068000   0.76318448   -2.8758999    2505.0083  0.068041294   0.06791041            5 
 3069000   0.77284859   -2.8764804    2490.0867  0.067613954  0.067897426            3 
 3070000   0.76586008    -2.889952    2501.7557  0.067908678  0.067884497            8 
 3071000    0.7674911   -2.8655956    2500.3812  0.067849267  0.067871629            4 
 3072000   0.76487207   -2.8703262     2501.632  0.067861112  0.067858706            7 
 3073000   0.77264428   -2.8887976    2498.6581  0.067758382  0.067845639            3 
 3074000   0.75067452   -2.9067664    2499.2688  0.067752896  0.067832547            2 
 3075000   0.75182418   -2.8740181    2499.5124  0.067737463  0.067819573            4 
 3076000   0.75929463   -2.8984436    2504.4322  0.067848728  0.067806478            3 
 3077000   0.75980338   -2.8690381    2495.1098  0.067574202  0.067793589            3 
 3078000   0.75695382   -2.8747182    2502.2071    0.0677444  0.067780573            6 
 3079000   0.76273925    -2.869477      2498.98  0.067635056  0.067767663            7 
 3080000   0.75867692   -2.9079086    2495.3048  0.067513657  0.067754511            7 
 3081000   0.76240237   -2.8821792    2502.5467  0.067687619   0.06774151            2 
 3082000   0.75260681   -2.8862454    2501.5468  0.067638621  0.067728578            3 
 3083000    0.7660297   -2.8797986    2500.0336   0.06757578  0.067715404            5 
 3084000     0.762502   -2.8864956    2509.1714  0.067800784  0.067702216            4 
 3085000   0.74746192   -2.9017832    2497.9184  0.067474834   0.06768901            3 
 3086000   0.76224024   -2.8966732    2498.3034  0.067463368  0.067675848            3 
 3087000   0.76484129   -2.8809887    2507.3498   0.06768572  0.067662801            6 
 3088000   0.73642654    -2.884717    2508.1181  0.067684535  0.067649715            4 
 3089000   0.77138374    -2.905565      2507.32  0.067641091  0.067636653            7 
 3090000   0.76712359   -2.9088303    2499.2376  0.067401231  0.067623523            4 
 3091000   0.75301409   -2.8866685    2507.9209  0.067613527  0.067610331            3 
 3092000   0.76102464   -2.8927357     2506.287  0.067547622  0.067597198            4 
 3093000   0.75470636   -2.8630242    2512.2926  0.067687591  0.067584178            3 
 3094000   0.76513863   -2.9170758    2505.9996   0.06749622  0.067571194            3 
 3095000   0.76043428   -2.8648084    2504.0536  0.067422015  0.067558167            2 
 3096000   0.75732665   -2.8699306    2514.5964  0.067684012  0.067545216            5 
 3097000   0.75588308   -2.9039428    2506.1948  0.067436088  0.067532219            2 
 3098000   0.76741662   -2.9131924    2510.0102  0.067516952  0.067519073            5 
 3099000   0.75666682   -2.8866659    2497.1564   0.06714952  0.067505974            4 
 3100000   0.74112452   -2.8912961    2503.0215  0.067285524  0.067492961            3 
 3101000   0.74683074   -2.9121763    2511.2112  0.067483909  0.067480089            8 
 3102000   0.74186445   -2.8868849    2508.4744  0.067388632   0.06746699            9 
 3103000   0.76792527   -2.8772658    2514.2959  0.067523254  0.067453979            6 
 3104000   0.74920272   -2.8699241    2514.8367  0.067516019   0.06744101            3 
 3105000   0.77138983   -2.8887158    2506.3381  0.067266187  0.067427911            2 
 3106000   0.75436293   -2.8998136    2505.1361  0.067212281  0.067414856            7 
 3107000   0.74096479   -2.8888732    2513.7122  0.067420668  0.067401793            9 
 3108000   0.74841725   -2.8948525    2510.3332  0.067308375  0.067388756           10 
 3109000   0.76895159   -2.9085074    2509.7228  0.067270364  0.067375846            2 
 3110000   0.74845397   -2.9035516    2509.8499  0.067252142  0.067362792            6 
 3111000   0.76002262   -2.8967578    2499.8155  0.066961735  0.067349731            5 
 3112000   0.75985829   -2.8557357    2517.4598  0.067412698  0.067336832            5 
 3113000   0.74476778    -2.880064    2517.1224  0.067382012  0.067323932            4 
 3114000   0.74201785   -2.9004993     2508.877  0.067139718  0.067310927            2 
 3115000   0.74089225   -2.9019286    2504.6962  0.067006319  0.067297825            6 
 3116000   0.75776135   -2.8999362    2510.1334  0.067130226  0.067284745            4 
 3117000   0.73167746     -2.89098    2511.7171  0.067151029  0.067271625            6 
 3118000   0.73087093   -2.8955252    2511.8387  0.067132743   0.06725846           12 
 3119000   0.75065124   -2.8966384    2515.4437  0.067207536  0.067245294            5 
 3120000   0.76310611   -2.8776788    2513.3288  0.067129508  0.067232218            3 
 3121000   0.73449758   -2.9040315    2507.4431  0.066950846   0.06721905            4 
 3122000   0.74887414   -2.8902183    2510.3816  0.067007837  0.067206037            2 
 3123000   0.74925842   -2.9008419    2518.6941  0.067208188  0.067193123            2 
 3124000   0.75058499   -2.8995094    2509.6265  0.066944796  0.067179934            3 
 3125000   0.74705635   -2.9160796    2511.3688  0.066969835   0.06716694            2 
 3126000   0.74347496   -2.9152927    2509.0127  0.066885601  0.067153727            5 
 3127000   0.76014643   -2.9118032    2517.6796  0.067095181  0.067140604            3 
 3128000   0.75006122   -2.9062788    2509.4408  0.066854241  0.067127604            8 
 3129000    0.7448202   -2.9075217    2521.0191  0.067141236  0.067114444            5 
 3130000   0.74291489   -2.9198241    2510.4247  0.066837718   0.06710133            5 
 3131000   0.75056873   -2.8898104    2516.4509  0.066976761  0.067088309            2 
 3132000   0.74473435   -2.8898309    2510.3973  0.066794308  0.067075247            6 
 3133000   0.75114235   -2.9146466    2524.1692  0.067139301  0.067062187            5 
 3134000   0.74512213    -2.903526    2516.3378  0.066909642  0.067049089            5 
 3135000   0.75472648   -2.9001654     2509.534  0.066707442  0.067035938            3 
 3136000   0.73295659   -2.9037621    2517.7775  0.066905226  0.067022792            3 
 3137000   0.75131649   -2.9108252    2520.8433  0.066965342  0.067009792            7 
 3138000   0.75737037   -2.8806947    2509.5757  0.066644777   0.06699667            4 
 3139000   0.74993006   -2.9131054    2513.7635  0.066734722  0.066983632            3 
 3140000   0.74217049   -2.9069266    2516.7155  0.066791811  0.066970404            3 
 3141000    0.7501914   -2.9123894    2526.0443  0.067018048  0.066957221            3 
 3142000   0.75481486   -2.9094346    2514.7576   0.06669737  0.066944129            4 
 3143000   0.73976275   -2.9069083    2530.4293  0.067091666  0.066931063            3 
 3144000   0.73801894   -2.8999532    2513.5842  0.066623839  0.066918125            8 
 3145000   0.76055033   -2.8941097    2519.6486  0.066763343  0.066905115            5 
 3146000   0.74065834    -2.902925    2520.7145  0.066770357  0.066892227            8 
 3147000   0.74941095   -2.8923985    2522.3174  0.066791584  0.066879235            3 
 3148000   0.74517988   -2.9068756    2520.2062  0.066714479  0.066866349            8 
 3149000   0.74494327   -2.9091185    2520.7416  0.066707464  0.066853373            4 
 3150000   0.75483944    -2.911058    2512.1765  0.066459695  0.066840337            1 
 3151000   0.76779812   -2.9175139    2526.1635  0.066808512  0.066827348            6 
 3152000   0.74066334   -2.9046136    2529.0723  0.066864222   0.06681433            3 
 3153000   0.74461817   -2.8739842     2523.953  0.066707712  0.066801359            6 
 3154000   0.74096641    -2.928974    2522.0203  0.066635496  0.066788304            4 
 3155000   0.74719692   -2.9117969    2526.7945  0.066740478  0.066775302            9 
 3156000   0.75593272   -2.8908522    2533.0409  0.066884265  0.066762284            4 
 3157000   0.75253808   -2.8798095    2535.9756  0.066940544  0.066749411            4 
 3158000   0.74696455   -2.9200128    2524.2726  0.066610528  0.066736318            5 
 3159000   0.75986053   -2.9066145    2524.0599  0.066583832  0.066723271            3 
 3160000   0.73029795   -2.9151961     2521.735  0.066501451  0.066710128            8 
 3161000   0.73892833   -2.9051847    2525.4764  0.066579046   0.06669705            6 
 3162000    0.7495874    -2.901941    2529.7217  0.066669874  0.066684038            3 
 3163000   0.75753354   -2.9022539    2523.2584  0.066478511   0.06667105            5 
 3164000   0.73711397   -2.9085578    2535.2628  0.066773673  0.066658112            4 
 3165000   0.73615043   -2.9123343    2521.9164  0.066401168   0.06664501            3 
 3166000   0.74532985   -2.9073354    2527.6887  0.066532129  0.066632061            2 
 3167000   0.75253196   -2.9225246    2530.8617  0.066594614  0.066619111            3 
 3168000   0.72696176   -2.8988866    2534.2524  0.066662785  0.066606158            3 
 3169000   0.75313185   -2.9245963     2529.117  0.066506706  0.066593193            3 
 3170000   0.74725457   -2.8724349     2525.585  0.066392875  0.066580179            3 
 3171000   0.75703744   -2.8729816    2530.5593  0.066502663  0.066567148           11 
 3172000   0.74737163   -2.9058489    2532.2669  0.066526559  0.066554155            2 
 3173000   0.73999871   -2.8881707    2531.8325  0.066494182  0.066541185            3 
 3174000   0.74525809   -2.9047855    2523.7504  0.066261036  0.066528026            9 
 3175000   0.76433625   -2.9281996    2523.2767  0.066227735   0.06651483            6 
 3176000   0.73456259   -2.9125794    2526.7411  0.066297783  0.066501725            8 
 3177000    0.7304383   -2.9098223    2539.6024  0.066614269  0.066488769            3 
 3178000   0.74195778   -2.9019878    2534.9637  0.066471673   0.06647585            2 
 3179000   0.74727075   -2.9088478    2535.3069   0.06645976  0.066462883            7 
 3180000   0.75559033   -2.9190288    2534.9445  0.066429362  0.066449904            3 
 3181000   0.74410674   -2.8775338    2531.6171  0.066321312  0.066436861            7 
 3182000   0.73330716   -2.9119689    2528.8378  0.066227682  0.066423779            2 
 3183000   0.75064704   -2.9108102    2530.0451  0.066238483  0.066410646            6 
 3184000   0.73384553   -2.9022207    2529.3913  0.066200569  0.066397613            2 
 3185000   0.74084975   -2.9059938    2529.4174  0.066180466  0.066384556            3 
 3186000   0.72116159   -2.9097569    2533.1373  0.066256992  0.066371522            4 
 3187000   0.74013634   -2.9125339    2530.0125  0.066154495  0.066358561            5 
 3188000   0.74275439   -2.9253841    2539.7614  0.066388577  0.066345432            4 
 3189000   0.73908495    -2.915227     2535.582  0.066258544  0.066332347            4 
 3190000   0.73324399   -2.9032915    2534.5212  0.066210062  0.066319264            2 
 3191000   0.74233396   -2.9102248    2538.3803  0.066290094  0.066306218            9 
 3192000   0.74278091   -2.8996946    2536.1714  0.066211661  0.066293166            3 
 3193000   0.75781012   -2.9197327    2540.4196  0.066301796  0.066280073            4 
 3194000   0.74575709   -2.9010373    2533.3127  0.066095615  0.066267011            7 
 3195000   0.73975402   -2.9369377    2540.3323  0.066258014  0.066254013            3 
 3196000   0.74975199   -2.8948064    2540.3864  0.066238695  0.066241013            7 
 3197000   0.73797935   -2.9327687    2538.2619  0.066162597  0.066228044            3 
 3198000   0.73076274   -2.9071649    2538.9583  0.066160056  0.066215089            9 
 3199000    0.7535832   -2.9235729    2525.1446   0.06577953  0.066202115            4 
 3200000   0.74959225   -2.9355601    2531.9285  0.065935638  0.066189088            8 
 3201000   0.74123561   -2.9325902    2539.0394  0.066100161  0.066176175            3 
 3202000   0.72891976   -2.9225005    2543.6208   0.06619875  0.066163032            3 
 3203000   0.73233313   -2.9116565    2528.5481  0.065785933  0.066149949            2 
 3204000   0.72993458   -2.9212382    2537.2267  0.065991123  0.066136968            3 
 3205000   0.75635997   -2.9228533    2536.8432  0.065960562   0.06612406            7 
 3206000   0.73931041   -2.9101611    2536.1246  0.065921308  0.066111118            5 
 3207000    0.7451999   -2.9401442     2536.138  0.065901101  0.066098213            3 
 3208000   0.71510732   -2.9011961    2541.2049   0.06601218  0.066085239            3 
 3209000   0.75033077   -2.9259778    2540.0998  0.065962912  0.066072322            4 
 3210000   0.73808757   -2.9253392    2542.6553  0.066008705  0.066059468            4 
 3211000   0.72039735   -2.9105348    2544.1336  0.066026512  0.066046563            3 
 3212000   0.72854748   -2.9179287    2543.5047  0.065989641  0.066033671            5 
 3213000   0.73444089    -2.912995    2542.7566    0.0659497  0.066020741            3 
 3214000   0.72049435    -2.919233    2542.2507  0.065916063  0.066007759            4 
 3215000   0.72749707   -2.8890253    2544.9749  0.065966171  0.065994908            5 
 3216000   0.72897636   -2.9119978    2545.7466  0.065965656  0.065981971            3 
 3217000   0.73886035   -2.9267774    2541.7099  0.065840584  0.065969105            4 
 3218000   0.74730469   -2.9067366    2546.6723  0.065948631  0.065956159            6 
 3219000   0.73610541   -2.9227419    2550.1582  0.066018385  0.065943293           12 
 3220000   0.73869598    -2.915432    2548.8413  0.065963801  0.065930308            6 
 3221000   0.72792198   -2.9358034     2554.156  0.066080823  0.065917264            6 
 3222000   0.73777274   -2.9318529    2540.6419  0.065710787  0.065904215            5 
 3223000   0.74766091   -2.9411322    2538.6617  0.065639201  0.065891158            7 
 3224000   0.72664514   -2.9301198    2540.0243  0.065654061  0.065878031            4 
 3225000   0.72656809   -2.9110121    2553.0916  0.065971358  0.065865033           11 
 3226000   0.72630176   -2.9277822    2541.5421  0.065652566  0.065852095            3 
 3227000   0.73117311   -2.9405082    2549.6676  0.065842051  0.065839126            6 
 3228000   0.71099999   -2.9279152    2554.2765  0.065940637   0.06582607            4 
 3229000    0.7428269   -2.9232107     2542.798  0.065623981  0.065813059            6 
 3230000   0.74116717   -2.9147416     2549.992  0.065789268  0.065799997            5 
 3231000   0.72822616   -2.9128363    2552.2709  0.065827682  0.065787062            7 
 3232000   0.72315633   -2.9219983    2547.1608  0.065675557  0.065773951            4 
 3233000   0.74159568   -2.9208501      2553.19  0.065810649   0.06576086            7 
 3234000   0.72668175   -2.9225236    2547.8288  0.065652155  0.065747868            4 
 3235000   0.72506719   -2.9136299    2549.0144    0.0656624  0.065734869            2 
 3236000   0.74971212    -2.906586     2558.984  0.065898847  0.065721953            4 
 3237000   0.74550591   -2.9414878    2550.7623   0.06566683  0.065709056            8 
 3238000   0.74471667    -2.926527    2548.5975  0.065590837  0.065696142            5 
 3239000   0.74179667   -2.9111735    2550.2835  0.065613962  0.065683104            5 
 3240000   0.73569475   -2.9290675     2548.308  0.065542901  0.065670257            4 
 3241000   0.72062264   -2.9078635    2548.8643  0.065536981  0.065657312            7 
 3242000   0.74355203    -2.897304    2554.6155  0.065664597  0.065644541            2 
 3243000   0.72504659   -2.9483072    2548.0587  0.065475864   0.06563168           13 
 3244000   0.74367903   -2.9296799    2558.1989  0.065716165   0.06561883            3 
 3245000   0.72138703   -2.9308454    2559.5092  0.065729563  0.065606024            4 
 3246000   0.72565151   -2.9353094    2566.3079  0.065883855  0.065593127            4 
 3247000   0.74437448   -2.9362542    2558.1251  0.065653554  0.065580247            4 
 3248000   0.72312459   -2.9539233    2550.2502  0.065431297  0.065567451            4 
 3249000   0.72995276   -2.9405478      2556.18  0.065563251  0.065554492            7 
 3250000   0.73709965   -2.9238915    2544.5258  0.065244251  0.065541656            3 
 3251000   0.72235318   -2.9288301    2547.8348  0.065309002  0.065528733            3 
 3252000   0.72322427   -2.9071983    2560.1621  0.065604811  0.065515854            3 
 3253000   0.74021834   -2.8983496    2561.9331  0.065630011  0.065503057            4 
 3254000   0.73270267   -2.9264743    2552.2979  0.065363088  0.065490245            4 
 3255000   0.73500308   -2.9303943    2561.0851  0.065567976  0.065477397            9 
 3256000   0.73318575   -2.9398886    2558.9691  0.065493681  0.065464552            7 
 3257000   0.74042822   -2.9305681    2552.3859  0.065305134  0.065451677            9 
 3258000   0.72415795   -2.9266728    2554.8635  0.065348463  0.065438826            3 
 3259000   0.76038932   -2.9119582    2570.7261  0.065734022  0.065426029            6 
 3260000   0.73313561   -2.9575062    2553.1902  0.065265597  0.065413203            5 
 3261000   0.72399381   -2.9239913    2554.0674  0.065268002   0.06540035            6 
 3262000   0.74017773   -2.9220814    2565.0465  0.065528473  0.065387445            5 
 3263000   0.72916294   -2.9274188     2560.241  0.065385662  0.065374625            9 
 3264000   0.72849942    -2.932343    2551.5082  0.065142674  0.065361723            3 
 3265000    0.7127675   -2.9252169     2559.035  0.065314828  0.065348827            3 
 3266000   0.73690201   -2.9475398    2559.2119  0.065299345  0.065335964            3 
 3267000   0.72558971   -2.9416141    2562.3508  0.065359423  0.065323137            2 
 3268000   0.73138813   -2.9489618     2566.991  0.065457748  0.065310343            4 
 3269000   0.73298308   -2.9307194    2564.4762  0.065373616  0.065297585            2 
 3270000   0.70386134    -2.932473      2569.13  0.065472221  0.065284855            6 
 3271000   0.72381709   -2.9310746    2561.5813  0.065259892  0.065271976            9 
 3272000   0.72340663    -2.940394    2556.5332   0.06511138  0.065259029            5 
 3273000   0.71521433   -2.9262479    2570.3008  0.065442022  0.065246258            8 
 3274000   0.71673926   -2.9430846    2559.1227  0.065137514  0.065233399            4 
 3275000    0.7255016   -2.9161868    2562.1297   0.06519414  0.065220519            4 
 3276000   0.71611822   -2.9284577    2573.2947   0.06545825  0.065207597            4 
 3277000   0.74525454   -2.9397806    2564.8891  0.065224521  0.065194618            8 
 3278000   0.72679205   -2.9352932    2566.9858  0.065257927  0.065181732            2 
 3279000   0.74233328   -2.9253069     2566.383  0.065222705  0.065168833            3 
 3280000    0.7232299   -2.9307559    2564.9208  0.065165672     0.065156            9 
 3281000   0.72969465   -2.9331552    2574.9185  0.065399738  0.065143212            9 
 3282000   0.74446458   -2.9466143    2561.4634  0.065038173  0.065130425            4 
 3283000   0.72923182      -2.9273     2574.473  0.065348589   0.06511759            8 
 3284000   0.72962112   -2.9563689    2565.2945  0.065095779  0.065104944            8 
 3285000   0.72136418   -2.9371184     2565.974  0.065093201  0.065092277            4 
 3286000   0.71892734   -2.9561385    2574.3625  0.065286124  0.065079654            4 
 3287000   0.71555054   -2.9508401    2574.6559  0.065273702  0.065066991            5 
 3288000   0.72090828    -2.947688    2565.1052  0.065011789   0.06505431            4 
 3289000   0.72678087   -2.9216417    2577.6557  0.065310016  0.065041496            8 
 3290000   0.70217798   -2.9387138    2581.3843  0.065384608  0.065028872            5 
 3291000    0.7226845   -2.9052793    2570.6559  0.065093079  0.065016359            3 
 3292000    0.7089601   -2.9244469    2577.3187  0.065241968  0.065003696            4 
 3293000   0.74042457   -2.9578358     2574.086  0.065140349  0.064991209            5 
 3294000   0.71684758   -2.9303184    2583.2253  0.065351785   0.06497864            4 
 3295000   0.72489959   -2.9451291     2574.103   0.06510124  0.064966059            4 
 3296000   0.71676112   -2.9287114     2579.208  0.065210557  0.064953531            4 
 3297000   0.74372672   -2.9315528    2572.8321  0.065029626  0.064940987            3 
 3298000    0.7112597   -2.9230271    2577.0055   0.06511536  0.064928376            8 
 3299000   0.71923906    -2.951886    2570.7494  0.064937592   0.06491577            4 
 3300000   0.73443086   -2.9311583    2574.2586   0.06500653  0.064903202            5 
 3301000   0.72462009   -2.9525375     2567.804  0.064823891  0.064890526            9 
 3302000   0.71830302   -2.9267741    2578.4607  0.065073206  0.064877972            4 
 3303000   0.73131589   -2.9251206    2581.3973  0.065127594  0.064865334            2 
 3304000    0.7257624   -2.9320829    2585.0908   0.06520104  0.064852721            9 
 3305000   0.72018443   -2.9414791    2571.2264   0.06483173  0.064840112            4 
 3306000   0.71796283   -2.9258683    2567.2118  0.064710924  0.064827553            4 
 3307000   0.71884978    -2.923699    2578.4511  0.064974575  0.064814861            4 
 3308000   0.71853252    -2.910127    2571.9053  0.064790037  0.064802277            3 
 3309000   0.71025331   -2.9212667    2578.6603  0.064940573  0.064789605            4 
 3310000   0.71465847   -2.9329674    2583.3771  0.065039706  0.064777081            5 
 3311000   0.72307201   -2.9431568    2580.0285  0.064935783  0.064764455            3 
 3312000   0.73029648   -2.9388671    2572.2723  0.064721021  0.064751905            3 
 3313000   0.71526069   -2.9354217    2583.3871  0.064981062  0.064739281            3 
 3314000   0.74005417   -2.9423298     2580.511  0.064889132  0.064726646            5 
 3315000   0.70407879   -2.9423136    2585.2492  0.064988666  0.064714033            5 
 3316000   0.73137991   -2.9477052    2576.7544   0.06475559  0.064701548            5 
 3317000   0.71889416    -2.948425    2573.4929  0.064654129  0.064688894            3 
 3318000   0.72722344   -2.9350853    2575.9514  0.064696389  0.064676371            6 
 3319000    0.7208697    -2.951437    2581.4316  0.064814493  0.064663751            3 
 3320000   0.71867892   -2.9329768    2578.8379  0.064729867  0.064651209            9 
 3321000   0.72148372   -2.9411986    2590.2188  0.064995956  0.064638758            4 
 3322000   0.71284476    -2.960683    2575.8311   0.06461547  0.064626231            3 
 3323000   0.71884495   -2.9529163    2588.6795  0.064918235   0.06461377            3 
 3324000   0.70384211   -2.9533265    2583.4594  0.064767835  0.064601477            3 
 3325000   0.73634572   -2.9414156    2599.8478  0.065159093  0.064589233            4 
 3326000   0.71701369   -2.9445347    2591.2362  0.064923737  0.064576909            7 
 3327000   0.72336126   -2.9351269    2594.8546  0.064994855  0.064564573            5 
 3328000   0.71155901   -2.9342861    2593.9354  0.064952309  0.064552368            4 
 3329000   0.71705802   -2.9289854    2594.8273  0.064955123  0.064540075            3 
 3330000   0.71822864   -2.9476421    2594.3717  0.064924218  0.064527778            5 
 3331000   0.72002902   -2.9361937    2595.9057  0.064943103  0.064515497           13 
 3332000   0.72423758   -2.9503184     2589.608  0.064766107  0.064503144            3 
 3333000   0.72453702    -2.948823    2600.7246  0.065024618  0.064490767            5 
 3334000   0.72770525   -2.9099641    2594.2349  0.064842904  0.064478602            4 
 3335000   0.71623142   -2.9290462    2600.0906  0.064969779  0.064466374            7 
 3336000   0.71835465    -2.947597    2595.7125   0.06484094    0.0644541            2 
 3337000   0.72755899   -2.9482437    2596.6419  0.064844719    0.0644418           18 
 3338000   0.72082043   -2.9426461    2598.4582  0.064870636  0.064429492            6 
 3339000   0.69697217   -2.9398886    2592.0652  0.064691653  0.064417095            5 
 3340000    0.7140958   -2.9360658    2590.3888  0.064630458  0.064404898            5 
 3341000     0.724347   -2.9447808    2593.3933  0.064686054  0.064392623            2 
 3342000   0.71476305    -2.948002    2595.5508  0.064720497  0.064380424            7 
 3343000   0.71355981   -2.9494794     2594.643  0.064678507   0.06436823            3 
 3344000   0.72174266   -2.9499378    2596.3728  0.064702273  0.064356036            4 
 3345000   0.72424099   -2.9532622    2603.5798  0.064862476  0.064343852            3 
 3346000   0.71617502   -2.9337916    2597.2146  0.064684563  0.064331556            7 
 3347000   0.73832366   -2.9457024    2597.4236   0.06467044  0.064319509            9 
 3348000   0.71630974    -2.954165    2603.0017  0.064789966  0.064307287            5 
 3349000   0.71669695   -2.9594727    2597.0707   0.06462304  0.064295157            4 
 3350000   0.72234051   -2.9451253    2586.3686  0.064337528  0.064282904            5 
 3351000   0.71828323   -2.9401441    2589.1284   0.06438696   0.06427066            2 
 3352000   0.73807878   -2.9655712    2597.5672  0.064577546  0.064258397           11 
 3353000    0.7191511   -2.9720122    2594.5466  0.064483214  0.064246107            6 
 3354000   0.70362503   -2.9444628    2598.8948  0.064572023  0.064233823            5 
 3355000   0.72869935   -2.9514377    2606.3331  0.064737533  0.064221651            5 
 3356000   0.71498151   -2.9513248    2594.9873  0.064436515  0.064209348            6 
 3357000   0.70053889   -2.9525164    2610.4808  0.064801926  0.064197036            4 
 3358000   0.72652807   -2.9267209    2599.3854  0.064507281  0.064184893            5 
 3359000   0.70233707   -2.9465741     2614.246  0.064856753  0.064172698            4 
 3360000   0.71876893   -2.9463666    2610.8067  0.064752151  0.064160501            5 
 3361000   0.70444054   -2.9617773    2601.7417  0.064508125   0.06414821            5 
 3362000   0.70891831   -2.9676289    2593.9719  0.064296349  0.064135973            9 
 3363000   0.71644265   -2.9364505    2594.5864  0.064292456  0.064123576            3 
 3364000   0.71826316   -2.9412241    2600.7331  0.064425612  0.064111342            4 
 3365000   0.73131142   -2.9474309    2606.7612   0.06455575  0.064099093            4 
 3366000   0.70095401   -2.9714516    2600.4655  0.064380708  0.064086825            3 
 3367000   0.68779506   -2.9512524    2601.3007  0.064382257  0.064074506            4 
 3368000   0.73711963   -2.9566118    2606.4804  0.064491301  0.064062215            5 
 3369000   0.70992421   -2.9344408    2604.8387   0.06443155  0.064049982            4 
 3370000   0.70881924   -2.9626617    2605.5007    0.0644288  0.064037755            8 
 3371000   0.70095219   -2.9620932    2600.6132  0.064288866  0.064025467            6 
 3372000   0.71593816   -2.9673275    2600.2949  0.064261933  0.064013125            6 
 3373000   0.72129943   -2.9556352    2602.6958  0.064302199  0.064000824            4 
 3374000   0.71318284    -2.955199    2599.5196  0.064204692  0.063988549            6 
 3375000   0.71922993   -2.9515998    2602.9367  0.064270043   0.06397631            5 
 3376000   0.70311869   -2.9526994    2609.6608  0.064416984  0.063964125            4 
 3377000   0.71699785   -2.9361481    2611.3607  0.064439855  0.063951951            2 
 3378000   0.70913468   -2.9518532    2610.9299  0.064410152  0.063939856            4 
 3379000   0.72313005     -2.94642    2601.3037  0.064153688  0.063927585           11 
 3380000     0.695585   -2.9520084    2610.8318  0.064369619  0.063915407            4 
 3381000   0.70559401   -2.9692548    2603.0588  0.064158997  0.063903222            3 
 3382000   0.71422375   -2.9456186    2604.3564     0.064172  0.063890883            3 
 3383000     0.713045   -2.9356495    2607.0403  0.064219143  0.063878597            5 
 3384000   0.70031985   -2.9787781    2603.0769  0.064102564   0.06386639            4 
 3385000   0.70456533   -2.9481612    2605.0397  0.064131947  0.063854109            3 
 3386000   0.69837452    -2.950088    2609.0072  0.064210651    0.0638418            6 
 3387000   0.71550249   -2.9611317     2605.839  0.064113745  0.063829565            8 
 3388000   0.71624423   -2.9650158    2605.6602  0.064090422  0.063817393            8 
 3389000   0.69191273   -2.9835923     2602.833  0.064001993   0.06380511            4 
 3390000   0.69665663   -2.9518922    2604.0373  0.064012717  0.063792825            7 
 3391000   0.71481203   -2.9484897    2614.9701   0.06426251  0.063780579            4 
 3392000   0.70475627   -2.9816397    2607.6605  0.064063987  0.063768299            8 
 3393000   0.71218277   -2.9631385    2610.0364  0.064103459  0.063756016            7 
 3394000   0.70252688   -2.9460136    2612.6306  0.064148267  0.063743842            5 
 3395000   0.69994499   -2.9629715    2604.1606  0.063921467  0.063731524            6 
 3396000   0.71193883   -2.9542693    2610.7854  0.064065208  0.063719275            5 
 3397000   0.70982495   -2.9597594     2606.692  0.063945934  0.063706981            5 
 3398000   0.70799951   -2.9565345    2603.2819  0.063843485  0.063694666            3 
 3399000   0.70993693     -2.94632    2601.3031  0.063776187  0.063682336            4 
 3400000   0.70775933   -2.9600317    2604.3909  0.063833109  0.063669964            5 
 3401000   0.71901441   -2.9552502    2617.6742  0.064139816  0.063657732            4 
 3402000   0.71408824   -2.9741039    2614.7986  0.064050523  0.063645278            4 
 3403000   0.70959482   -2.9578224    2617.2789  0.064092442  0.063633062            3 
 3404000   0.69342693   -2.9585234    2604.4167  0.063758731  0.063620797            8 
 3405000   0.72545629   -2.9579464     2610.324  0.063884582  0.063608315            2 
 3406000   0.70624626   -2.9627811    2612.6044  0.063921618  0.063595936            3 
 3407000   0.69760578   -2.9719339    2614.0128  0.063937305  0.063583529            4 
 3408000   0.70310595   -2.9443292    2617.1098  0.063994274  0.063571109            5 
 3409000   0.71132771   -2.9577819    2607.1743  0.063732627  0.063558764            6 
 3410000   0.69161029   -2.9751813    2616.5838  0.063943887    0.0635465            4 
 3411000    0.6991337   -2.9367683    2616.0174  0.063911301  0.063534141            5 
 3412000   0.72439309   -2.9581779     2612.502  0.063806712  0.063521859            2 
 3413000   0.70574304   -2.9500208    2612.5225  0.063788517  0.063509559            4 
 3414000   0.71003741   -2.9557112    2615.4587  0.063841503  0.063497261            6 
 3415000   0.70793581    -2.958795    2612.9841  0.063762423  0.063484918            7 
 3416000   0.70207463   -2.9490557    2619.5358  0.063903585  0.063472583            4 
 3417000   0.69624427   -2.9634574     2616.153  0.063802385  0.063460317            4 
 3418000   0.71144762   -2.9524611    2611.7708  0.063676877   0.06344798            3 
 3419000   0.71260004   -2.9672297    2615.6439  0.063752654  0.063435608            3 
 3420000   0.69018933   -2.9261223    2617.2103  0.063772181   0.06342328            4 
 3421000   0.70734572   -2.9535302      2614.17  0.063679479  0.063410923            4 
 3422000    0.7287067   -2.9760149    2615.1578  0.063684925   0.06339868            5 
 3423000   0.70901945   -2.9805214    2619.3438   0.06376823  0.063386327            9 
 3424000   0.70210899   -2.9485206    2620.5325  0.063778536  0.063374076            6 
 3425000   0.69060982    -2.976558    2614.1544  0.063604729  0.063361817            3 
 3426000    0.6858096   -2.9756338    2617.2113   0.06366052   0.06334945            6 
 3427000   0.71896938   -2.9811322    2609.9774   0.06346604  0.063337193           10 
 3428000   0.70330679   -2.9617801    2616.7127  0.063611258  0.063324939            6 
 3429000   0.68940089   -2.9759462    2614.7978   0.06354617  0.063312597            9 
 3430000   0.70798966   -2.9621717    2606.2703  0.063320464  0.063300198            8 
 3431000   0.70500887   -2.9784942    2617.8256  0.063582667  0.063287822            3 
 3432000   0.69431855   -2.9677984    2615.4257  0.063505869    0.0632757            4 
 3433000   0.70496398   -2.9504647    2613.3819  0.063437759  0.063263354            4 
 3434000   0.68436506   -2.9668141    2625.1207  0.063704151  0.063251049            5 
 3435000   0.69785869   -2.9679445    2621.2116  0.063590773  0.063238795           12 
 3436000   0.70702416   -2.9745314    2618.6495  0.063510126  0.063226463            7 
 3437000   0.69746372   -2.9663204    2626.5741  0.063683786  0.063214143            9 
 3438000   0.70222786   -2.9498057    2628.1651  0.063703827  0.063201945            8 
 3439000   0.70743928   -2.9742037    2623.8299  0.063580254  0.063189744            5 
 3440000   0.68897569   -2.9763033    2622.1406  0.063520847  0.063177512            5 
 3441000   0.70095602   -2.9419885    2620.5125  0.063462959  0.063165188            4 
 3442000   0.69385943   -2.9780174    2620.3477  0.063440531  0.063152976            9 
 3443000    0.7037229   -2.9753656     2618.663  0.063381328  0.063140559            4 
 3444000   0.70711372   -2.9661814    2628.1558   0.06359262  0.063128304            7 
 3445000   0.71366912   -2.9810232    2622.0599  0.063426703  0.063115987            6 
 3446000    0.7046249   -2.9624092    2632.2225  0.063654055  0.063103712            6 
 3447000   0.71625303   -2.9725371    2619.5055  0.063328148  0.063091415            5 
 3448000   0.69340496   -2.9566558    2625.2147  0.063447765  0.063079165            6 
 3449000   0.70434249   -2.9613089     2629.658  0.063536725  0.063066829            5 
 3450000   0.70214023    -2.990997    2620.7568  0.063303304  0.063054551            4 
 3451000   0.71272607   -2.9814597    2616.1995  0.063174914  0.063042276            6 
 3452000   0.68907097   -2.9759411    2630.3906  0.063499194  0.063030017            4 
 3453000   0.69850504   -2.9602522    2627.0969  0.063401316  0.063017816            4 
 3454000   0.71987219   -2.9767186    2626.4833  0.063368155  0.063005573            6 
 3455000   0.69759077   -2.9630838    2623.8917  0.063287306  0.062993393            5 
 3456000   0.69538466   -2.9584981    2630.9038  0.063438073  0.062981155            6 
 3457000   0.69429731   -2.9800488    2624.0956  0.063255607  0.062968939           10 
 3458000   0.69681975   -2.9889926    2623.3135  0.063218466  0.062956737            7 
 3459000   0.70878751     -2.98205    2625.6651  0.063256844  0.062944416            7 
 3460000   0.70041498   -2.9657657    2625.6175  0.063237416  0.062932197            4 
 3461000   0.69096348   -2.9593304    2630.2748  0.063331281  0.062919947            5 
 3462000   0.72066032   -2.9663969    2624.0998  0.063164351  0.062907735            3 
 3463000   0.68582246   -2.9699032    2627.2765  0.063222555  0.062895416            4 
 3464000   0.71003052   -2.9716458    2631.6495  0.063309505   0.06288319            3 
 3465000   0.68782805   -2.9740485    2632.1226  0.063302611  0.062870845            9 
 3466000   0.70452657   -2.9769636    2627.9553  0.063184153  0.062858604            5 
 3467000    0.6885011   -2.9818013    2630.5335    0.0632279  0.062846432            4 
 3468000   0.68798793   -2.9579222    2628.3918  0.063158203   0.06283427            6 
 3469000   0.69370021   -2.9810685     2627.535  0.063119414  0.062822033            8 
 3470000   0.70478948   -2.9797339    2628.6416  0.063127801  0.062809815            9 
 3471000   0.67347646   -2.9911721     2631.336  0.063174301  0.062797515            5 
 3472000    0.6773067    -2.960236    2627.7016  0.063068875  0.062785226            9 
 3473000   0.71845298   -2.9847066    2629.2465  0.063087785  0.062773064            4 
 3474000   0.69023277   -2.9854884    2634.3838  0.063192856  0.062760837            2 
 3475000   0.69688315   -2.9670532    2635.6889  0.063205968  0.062748745            5 
 3476000   0.68588739   -2.9718305    2630.7278  0.063068849  0.062736485            5 
 3477000   0.69510127   -2.9711637    2631.3936  0.063066666  0.062724264            3 
 3478000   0.71102169   -2.9650986    2634.8566  0.063131507  0.062711996            3 
 3479000   0.70111627   -3.0008936    2629.1387  0.062976399  0.062699832            3 
 3480000   0.70898963   -2.9944928    2633.0176  0.063051189  0.062687742            9 
 3481000   0.69355429   -2.9777943    2628.1688  0.062916997  0.062675492            4 
 3482000   0.68608349   -2.9952167    2630.8674  0.062963513   0.06266323            4 
 3483000   0.69215283   -2.9783918    2623.1758  0.062761409  0.062650912            4 
 3484000   0.69639938   -2.9771801    2637.2712  0.063080539  0.062638708            2 
 3485000   0.68802245   -2.9703145    2636.6415  0.063047383  0.062626484            6 
 3486000    0.6939589    -2.980975    2633.4419  0.062952809  0.062614385            7 
 3487000   0.69433209   -2.9821122    2643.6135   0.06317784  0.062602079            6 
 3488000    0.6827909   -2.9901366    2636.2346  0.062983433  0.062589948            7 
 3489000   0.69403613   -2.9888004    2625.3609  0.062705669  0.062577714            8 
 3490000   0.68997885    -2.976344    2628.3873  0.062759965  0.062565342            7 
 3491000   0.69839556   -2.9853574    2636.9918  0.062947384  0.062553105            9 
 3492000    0.6923626   -2.9856634    2638.7085  0.062970324  0.062540979            4 
 3493000   0.68735648   -3.0088236    2634.3519  0.062848361  0.062528734            6 
 3494000   0.69272145   -2.9745422    2631.1648   0.06275436  0.062516558            3 
 3495000   0.69733173   -2.9574114    2636.3838  0.062860844  0.062504328            4 
 3496000   0.67335015   -2.9867277    2630.5565  0.062703959  0.062492094            6 
 3497000   0.69272369   -2.9675898     2644.677  0.063022519  0.062479977            2 
 3498000   0.69373333   -2.9815194    2642.4977  0.062952585  0.062467792            4 
 3499000   0.69323459   -2.9645752    2642.5355  0.062935493  0.062455812            6 
 3500000   0.70417408   -2.9705553    2648.9672  0.063070647  0.062443758            4 
 3501000   0.68599874   -2.9803912    2643.0211    0.0629111  0.062431686            3 
 3502000    0.6789253   -2.9878309    2644.2411  0.062922167  0.062419459            4 
 3503000   0.68241695   -2.9855136    2629.9469  0.062564158  0.062407296            7 
 3504000    0.6875712   -2.9776589    2644.1155  0.062883265  0.062395049            6 
 3505000   0.69453297   -2.9898104    2635.2948  0.062655605    0.0623829            6 
 3506000   0.68955661   -2.9771616    2648.8016  0.062958775  0.062370736            6 
 3507000   0.67641478   -2.9750716    2645.9199  0.062872349  0.062358588            8 
 3508000   0.68392025   -2.9666486    2637.2616  0.062648745  0.062346472            5 
 3509000   0.67634362   -3.0038889    2640.3539  0.062704328  0.062334268            5 
 3510000   0.69043632    -3.004126    2641.2104  0.062706799   0.06232203            4 
 3511000   0.69192368   -2.9909253    2640.9901  0.062683711  0.062309797            4 
 3512000   0.69110555   -2.9896972    2649.3516  0.062864266  0.062297655           12 
 3513000   0.69340056   -2.9840482    2642.0669  0.062673568  0.062285456            4 
 3514000   0.66986152     -2.97998    2644.2091  0.062706533  0.062273345            5 
 3515000    0.6897609   -2.9865281     2633.835  0.062442744  0.062261141            3 
 3516000    0.7041855    -2.972084    2645.4051  0.062699212  0.062248955            7 
 3517000   0.68468641   -2.9901523    2646.9949  0.062719052  0.062236772            5 
 3518000   0.68258924   -2.9753271    2649.6674  0.062764529  0.062224577            6 
 3519000    0.6883645   -2.9857059    2636.8468   0.06244309  0.062212356            7 
 3520000   0.67737767   -2.9762384    2657.3851  0.062911579  0.062200198           10 
 3521000   0.70175548   -2.9797351    2642.8844  0.062550515  0.062188139            5 
 3522000   0.69984538   -2.9891945     2644.507  0.062571148  0.062175981            4 
 3523000   0.69495255   -2.9927087    2643.7214  0.062534804   0.06216382            5 
 3524000   0.68168923   -2.9771631    2648.9659  0.062641078  0.062151728            6 
 3525000   0.69898142   -2.9950011    2654.2575  0.062748403  0.062139602            5 
 3526000   0.68888816   -3.0035891    2640.2727  0.062400093  0.062127504           13 
 3527000   0.69133951   -3.0102036    2652.4048  0.062669048   0.06211544            5 
 3528000   0.68372571   -3.0067339    2649.7074  0.062587571  0.062103271            7 
 3529000   0.67003144    -3.014482    2644.9485  0.062457459  0.062091159           16 
 3530000   0.68670394   -2.9604865    2646.6483  0.062479894  0.062078975            5 
 3531000   0.68318335    -2.993144    2636.5263  0.062223316  0.062066787           11 
 3532000   0.68180665   -3.0081764    2645.9344  0.062427671  0.062054527            7 
 3533000   0.69275829   -3.0140629    2646.2063  0.062416415  0.062042314            6 
 3534000   0.68418841   -2.9811386    2647.0037  0.062417556  0.062030151            5 
 3535000   0.67039103   -3.0059085     2646.909  0.062397665  0.062017953            6 
 3536000   0.68455174   -2.9769528    2646.1239  0.062361517  0.062005826            4 
 3537000   0.67647859    -3.002473    2647.6355  0.062379501  0.061993662            4 
 3538000   0.69091268   -2.9776472    2641.9845  0.062228766  0.061981454            6 
 3539000   0.69515077   -3.0081068    2646.7632  0.062323707  0.061969258            5 
 3540000   0.69654095   -2.9839628     2659.815  0.062613348  0.061957086            6 
 3541000   0.68930583   -2.9886196    2653.4675  0.062446285   0.06194492            9 
 3542000   0.68533709   -2.9853901    2655.5266  0.062477098  0.061932811            3 
 3543000   0.68057956   -3.0044599    2648.8696  0.062302889  0.061920796           21 
 3544000   0.67920396   -2.9691161    2653.2598   0.06238854  0.061908843            9 
 3545000   0.66854113   -2.9989875    2652.2497  0.062347196  0.061896782            5 
 3546000   0.69384861     -3.00074     2643.462  0.062123097  0.061884594            3 
 3547000    0.6815742   -3.0106274    2650.8628  0.062279457  0.061872523            7 
 3548000    0.6954806   -2.9860689    2653.8218  0.062331402  0.061860423            3 
 3549000   0.68393785   -2.9795731    2653.3697  0.062303225  0.061848425            3 
 3550000   0.69007082   -3.0088255    2649.5584  0.062196206  0.061836377            8 
 3551000    0.6970773   -2.9987622    2663.3428  0.062502177  0.061824437            7 
 3552000   0.68741494   -2.9894516    2649.8062     0.062167  0.061812383           10 
 3553000    0.6844763   -3.0136615    2646.2009  0.062064944   0.06180025            3 
 3554000   0.67349661   -2.9841071     2665.504  0.062500094  0.061788191            2 
 3555000   0.67747693    -2.980454    2661.7711   0.06239501  0.061776204            5 
 3556000   0.70118902   -2.9962827    2653.7586  0.062189694    0.0617643            3 
 3557000   0.68851113       -3.031    2653.3211   0.06216196  0.061752408            7 
 3558000   0.68576818   -2.9910891    2658.6818  0.062270044  0.061740461            4 
 3559000    0.7031116   -2.9898403    2658.6829  0.062252574  0.061728486            4 
 3560000   0.68934128   -3.0211257    2651.1461  0.062058663  0.061716456            9 
 3561000   0.66805729   -3.0004498    2659.4297  0.062235087  0.061704456            4 
 3562000   0.68104568   -2.9821287    2654.0518  0.062091797  0.061692407            5 
 3563000   0.68316615   -2.9990574    2656.3672  0.062128525  0.061680363            7 
 3564000   0.67608451   -2.9976781    2653.7727  0.062050428   0.06166833            9 
 3565000   0.68968359   -3.0041257    2661.8279  0.062221316  0.061656223            4 
 3566000   0.66602357   -2.9750073    2648.2944  0.061887606  0.061644189            3 
 3567000   0.67696882    -2.999577    2658.6343  0.062111818   0.06163217            5 
 3568000   0.68560505   -2.9857937     2656.229  0.062038234  0.061619987            3 
 3569000   0.68104964   -2.9964847    2652.6254   0.06193671   0.06160799            3 
 3570000     0.670181   -3.0028393     2654.521  0.061963608  0.061595882            4 
 3571000   0.67679551   -2.9929217     2657.067   0.06200567  0.061583846            6 
 3572000     0.676682   -2.9768788    2652.4558  0.061880735  0.061571657            4 
 3573000   0.68451654   -2.9919132    2659.1169  0.062018774  0.061559561            7 
 3574000   0.68864582   -3.0108445    2654.2021  0.061886823  0.061547442            6 
 3575000   0.67555249    -2.990151    2661.3044  0.062035069  0.061535299            8 
 3576000   0.68648598   -3.0203083    2657.2179   0.06192249  0.061523112            4 
 3577000   0.68236973   -3.0131617    2647.5617  0.061680217  0.061510867            5 
 3578000   0.67728793   -3.0167372    2657.3106  0.061890036  0.061498729            5 
 3579000   0.69142529   -3.0083084    2654.2025  0.061800375  0.061486501            5 
 3580000   0.67721054   -3.0044637    2657.7031  0.061864598  0.061474265            4 
 3581000    0.6737224   -2.9981225    2652.6957  0.061730794  0.061462041            6 
 3582000   0.67577336    -3.033482    2654.2009  0.061748578  0.061449878            6 
 3583000   0.66394814   -3.0083796    2659.4103  0.061852505  0.061437681            7 
 3584000   0.68223175   -2.9851979    2664.1763  0.061946063  0.061425547            6 
 3585000   0.66324453   -3.0012798    2662.4145  0.061887831  0.061413435            3 
 3586000   0.69010109   -3.0187846    2650.4635  0.061592848  0.061401245            5 
 3587000   0.66746313   -3.0121309    2652.5971  0.061625245  0.061389046            4 
 3588000   0.67033284   -2.9812007    2658.2626  0.061739655  0.061376879            9 
 3589000   0.68175667   -2.9935043    2660.1227  0.061765643  0.061364793            6 
 3590000   0.67898618   -3.0161404    2653.5165   0.06159509  0.061352569            6 
 3591000   0.68442507   -3.0156279    2649.6988  0.061489345  0.061340354            7 
 3592000   0.68608941   -3.0084728    2669.9713  0.061942542  0.061328227            5 
 3593000   0.66634691   -3.0088257    2662.9651  0.061762806  0.061316076            4 
 3594000   0.68320041   -2.9997198    2658.8673  0.061650606  0.061303914            5 
 3595000   0.66354497   -3.0229343    2661.2759  0.061689289  0.061291723            7 
 3596000   0.67160608   -2.9983191    2654.5176  0.061515518  0.061279541           18 
 3597000   0.68902205   -3.0033418    2655.8889  0.061530184   0.06126736            3 
 3598000   0.67628877   -3.0107274    2662.2252  0.061659839  0.061255116           10 
 3599000   0.67528435   -3.0007042     2661.932  0.061635918  0.061242937            4 
 3600000    0.6704769   -2.9953309    2657.6415   0.06151948  0.061230785           10 
 3601000   0.67833383   -3.0118308    2654.0758  0.061419878  0.061218648           12 
 3602000   0.66779387   -3.0069863    2658.4031   0.06150294  0.061206409            6 
 3603000   0.69641732   -3.0081765    2662.7385  0.061586143  0.061194199            5 
 3604000   0.68579373   -2.9953567    2656.9469  0.061435138  0.061181967            6 
 3605000   0.67809569   -3.0053232    2658.7503  0.061459784  0.061169772            7 
 3606000   0.67628847   -3.0090768    2664.8713  0.061584195   0.06115758            7 
 3607000   0.68497864   -3.0203449    2661.1076  0.061480169  0.061145373            4 
 3608000   0.66115541   -2.9906718    2661.0879  0.061462672  0.061133098            5 
 3609000   0.66453271   -3.0125104    2659.4551  0.061407941  0.061120893            3 
 3610000    0.6889321   -3.0171771    2670.6496  0.061649345  0.061108708            6 
 3611000   0.68619592   -2.9984125    2664.7015  0.061495003  0.061096609            4 
 3612000   0.67962186   -3.0096595    2664.2873  0.061468423  0.061084446            4 
 3613000   0.68456727   -3.0200208    2659.1005  0.061331777  0.061072193            6 
 3614000   0.67860261    -2.996481    2660.3119   0.06134274  0.061059897            2 
 3615000    0.6823892   -3.0291249    2670.2705  0.061555337  0.061047661            4 
 3616000   0.67050103   -3.0078749    2665.2732  0.061423148  0.061035394            4 
 3617000   0.67394341    -3.027214    2658.3758  0.061247253  0.061023141            5 
 3618000   0.66312232   -3.0356107    2657.2332  0.061204008  0.061010898            7 
 3619000   0.67475465   -3.0069033    2658.9788   0.06122729  0.060998565            5 
 3620000   0.66905497   -3.0096416    2669.5718   0.06145423   0.06098629           14 
 3621000   0.67142229   -2.9956183    2665.2313  0.061337369  0.060973984            6 
 3622000   0.66972723   -3.0053173    2664.5928  0.061305743  0.060961789            9 
 3623000   0.67585532   -3.0107896    2662.5967  0.061242908  0.060949664            7 
 3624000   0.68574919    -3.015758    2673.7199  0.061481785  0.060937494            6 
 3625000   0.66828882   -3.0104245    2664.5838  0.061254801  0.060925369            5 
 3626000   0.67665685   -3.0074864    2669.1356  0.061342518  0.060913199           13 
 3627000   0.67279008   -3.0241009    2672.1288  0.061394377  0.060900942            9 
 3628000   0.66733511   -3.0181804    2663.3309   0.06117537  0.060888747            7 
 3629000   0.66750723   -3.0283209    2664.9207  0.061195019  0.060876606            6 
 3630000   0.67801822   -3.0112993    2666.7473  0.061220093  0.060864344            7 
 3631000   0.68981467   -2.9898284    2672.2401  0.061329296  0.060852224            5 
 3632000   0.66466977   -3.0234395    2662.1274  0.061080383  0.060839896            5 
 3633000   0.67171157   -3.0329597    2668.2199   0.06120332  0.060827532            4 
 3634000    0.6829804   -3.0016766    2663.2287   0.06107202  0.060815291            4 
 3635000   0.67205251   -3.0404227    2666.0595  0.061120117  0.060803032            3 
 3636000   0.67828658   -3.0125798    2654.9373  0.060848397   0.06079075            2 
 3637000   0.67502873   -3.0031722    2666.0977  0.061087383  0.060778508            5 
 3638000   0.66426668   -3.0119564    2666.3866  0.061077207  0.060766275            8 
 3639000   0.67183133   -3.0247038    2670.6463  0.061157971  0.060754028            9 
 3640000   0.67333471   -3.0217705    2668.3509  0.061088619   0.06074182           16 
 3641000   0.68656008   -3.0138385    2663.9201  0.060970431   0.06072954            5 
 3642000   0.66245495   -3.0131965    2664.8142  0.060974149  0.060717263           18 
 3643000   0.67919824   -3.0192668    2665.2251  0.060966811  0.060704922            9 
 3644000   0.66488028   -3.0158189    2657.5335  0.060774184  0.060692629            5 
 3645000   0.66905438   -3.0072958      2668.69  0.061012573  0.060680376            7 
 3646000   0.65102954   -3.0186938    2668.1642  0.060983823  0.060668216            3 
 3647000   0.66421677    -2.998445    2669.2429   0.06099175  0.060655874            6 
 3648000   0.67314548   -3.0155928    2666.6438  0.060915657  0.060643729            6 
 3649000    0.6762389   -3.0197035    2676.3383  0.061120359  0.060631482            5 
 3650000   0.66201078   -3.0150149    2671.8046  0.061000105  0.060619216            4 
 3651000   0.66659097   -3.0136223    2676.9125  0.061099983  0.060607045            4 
 3652000   0.67043521   -3.0393134    2669.0674   0.06090424  0.060594762            4 
 3653000   0.66971369   -3.0382403    2672.8398  0.060973623  0.060582558            8 
 3654000   0.67040687   -3.0124648     2675.957  0.061028028  0.060570449            5 
 3655000   0.65731102   -3.0238611    2665.3665   0.06076987  0.060558323            4 
 3656000   0.67434348   -3.0211619     2673.257  0.060933101   0.06054624            4 
 3657000   0.65114919    -3.014187    2671.8082  0.060883425  0.060534064            5 
 3658000     0.667323   -3.0214888    2665.7227  0.060728147  0.060521812            7 
 3659000   0.67816184   -3.0105734    2666.5513  0.060730421  0.060509605            9 
 3660000   0.65832994   -3.0167813     2667.337  0.060731717  0.060497482            5 
 3661000   0.65525555   -3.0315669    2674.8386  0.060885882  0.060485284            7 
 3662000   0.65497406   -3.0225185    2667.8201  0.060709542  0.060473111            5 
 3663000   0.66396713   -3.0303152    2679.0019  0.060947354  0.060460851            5 
 3664000   0.65748556   -3.0247186     2678.366  0.060916257  0.060448724            5 
 3665000   0.67683091   -3.0198006     2673.512  0.060789268  0.060436602            8 
 3666000    0.6481399    -3.060101    2664.1674   0.06056027   0.06042433            5 
 3667000   0.67015842   -3.0019592     2677.092  0.060837469  0.060412098           10 
 3668000   0.66247994   -3.0380788     2681.326  0.060917076  0.060399985            6 
 3669000   0.65553999   -3.0274818    2676.4403  0.060789504  0.060387853            5 
 3670000   0.64483795   -3.0227362    2675.4846   0.06075124  0.060375748            9 
 3671000   0.67127159   -3.0031375    2676.0655  0.060747878  0.060363656            6 
 3672000   0.65747664   -3.0116817    2677.5512   0.06076505   0.06035161            8 
 3673000   0.67314257   -3.0204085    2677.3881  0.060744808  0.060339507            7 
 3674000    0.6876158   -3.0206506    2669.6813  0.060553468  0.060327395            8 
 3675000   0.66546974   -3.0297644    2674.2434  0.060640441  0.060315298            5 
 3676000   0.65513047   -3.0145065    2678.7804  0.060726796  0.060303215            6 
 3677000   0.64833441   -3.0140052    2678.0795  0.060694395  0.060291036            4 
 3678000   0.67806868   -3.0333573    2672.3967  0.060549137  0.060278783            3 
 3679000   0.65572497   -3.0356764    2678.8205  0.060678184  0.060266646            7 
 3680000    0.6698644   -3.0215284    2676.8891   0.06061796  0.060254392            5 
 3681000   0.64857396   -3.0206528    2678.3055  0.060633558   0.06024218            5 
 3682000   0.67431234   -3.0203222    2681.5489  0.060690496   0.06023005            5 
 3683000   0.65725477   -3.0368691    2676.7409   0.06056523     0.060218            7 
 3684000   0.65471333   -3.0400423    2676.7362  0.060548682  0.060205849            5 
 3685000   0.65590634   -3.0235833    2678.6163  0.060574769  0.060193728           12 
 3686000   0.65104816      -3.0353    2670.7275  0.060379984  0.060181561            4 
 3687000   0.65879032   -3.0225203    2677.0226  0.060505891  0.060169339            4 
 3688000   0.65826899   -3.0198549    2669.1801  0.060312277  0.060157169            6 
 3689000   0.67626922   -3.0324576    2679.4474  0.060527862  0.060144943            5 
 3690000   0.66573968   -3.0258405     2673.019  0.060366283  0.060132728            4 
 3691000   0.65130319   -3.0475738    2681.8843  0.060550082  0.060120544            4 
 3692000   0.65712298   -3.0446008     2681.413  0.060523045  0.060108342            8 
 3693000   0.68163774   -3.0199353    2677.3876  0.060415823  0.060096193           10 
 3694000   0.66505661   -3.0241314    2679.5666  0.060448624  0.060083988            3 
 3695000   0.66914652   -3.0327281     2681.482  0.060475463  0.060071893            5 
 3696000    0.6598097   -3.0399669    2683.9705  0.060515207  0.060059761            5 
 3697000   0.66743434   -3.0279102    2675.4155  0.060306003  0.060047543            4 
 3698000   0.66759207   -3.0220584     2680.377  0.060401502  0.060035298            4 
 3699000   0.66244676   -3.0297093     2681.263  0.060405133   0.06002307           12 
 3700000   0.65680714   -3.0293999    2675.0943  0.060249872  0.060010824            5 
 3701000   0.66549915   -3.0349143    2674.0513  0.060210108  0.059998572            4 
 3702000   0.66619794    -3.035246    2678.4507  0.060292875   0.05998633            4 
 3703000   0.67672238   -3.0307939    2683.8316  0.060397686  0.059974155            4 
 3704000   0.65347883   -3.0389299    2685.7969  0.060425597   0.05996201            4 
 3705000   0.64971263   -3.0314137    2680.3521  0.060286821   0.05994987            6 
 3706000   0.66024406    -3.036447    2683.6484  0.060344675  0.059937706            7 
 3707000   0.66451489   -3.0279925    2673.7233  0.060105281  0.059925545            4 
 3708000   0.64657072      -3.0037     2688.674  0.060425072  0.059913474           12 
 3709000   0.66274291   -3.0503166    2688.6422  0.060408066  0.059901362            4 
 3710000   0.65981108   -3.0242968    2687.3356  0.060362435  0.059889233            5 
 3711000   0.65226677   -3.0215123    2683.3742  0.060257212  0.059877159            9 
 3712000   0.66205002   -3.0457154    2684.9824  0.060277084  0.059864933            7 
 3713000   0.64935879   -3.0263569    2688.0023  0.060328627   0.05985283            4 
 3714000   0.66184157   -3.0101796    2695.0594  0.060470728  0.059840751            3 
 3715000   0.65286482   -3.0349157    2685.7617  0.060245889  0.059828666           13 
 3716000   0.65857067   -3.0139294    2686.3779  0.060243494  0.059816599            3 
 3717000   0.66510329   -3.0272385    2684.6132  0.060187722  0.059804624            8 
 3718000   0.65082623   -3.0391195    2689.8996  0.060290023   0.05979256            4 
 3719000   0.64767581   -3.0469686    2696.4194  0.060419901  0.059780561           10 
 3720000   0.65490779   -3.0219951     2683.811  0.060121215  0.059768517            9 
 3721000   0.64021869   -3.0333073    2686.0024  0.060154134  0.059756369            7 
 3722000   0.64977126   -3.0342554    2689.0532  0.060206278  0.059744175            7 
 3723000   0.66213255   -3.0223928    2683.5875  0.060067766  0.059732203            5 
 3724000   0.64065942   -3.0487178    2688.6023  0.060163854  0.059720077            5 
 3725000   0.65243599   -3.0312187     2688.866  0.060153602  0.059708016            6 
 3726000   0.66071976   -3.0210459    2688.6837   0.06013338  0.059695952            7 
 3727000   0.64894576   -3.0386889    2683.1382  0.059993251  0.059683838            6 
 3728000   0.65634374   -3.0559193    2685.0789  0.060020541  0.059671823            7 
 3729000   0.65636524   -3.0362306    2686.9193  0.060045573  0.059659723            7 
 3730000   0.66072173   -3.0463853    2691.2973  0.060127286   0.05964762            4 
 3731000   0.64866293   -3.0468024    2695.7187  0.060209924  0.059635598            7 
 3732000   0.66154569   -3.0185402    2693.0638  0.060134508  0.059623622           10 
 3733000    0.6398933   -3.0247097     2689.243  0.060033106  0.059611629            8 
 3734000    0.6671015   -3.0370291    2679.6183  0.059802229  0.059599602           12 
 3735000   0.66273795   -3.0674278    2687.6334  0.059965048  0.059587541            6 
 3736000   0.65894729   -3.0210506    2686.4567   0.05992275   0.05957554            4 
 3737000   0.65838178    -3.056874    2690.1289  0.059988602  0.059563538            4 
 3738000   0.64650485   -3.0604269    2691.4594  0.060002216  0.059551491            5 
 3739000   0.64312479    -3.044739    2688.9619  0.059930504  0.059539438           11 
 3740000   0.64943289   -3.0425536    2686.9296  0.059869198   0.05952742            5 
 3741000    0.6518848   -3.0469669    2687.3437  0.059862419  0.059515366            4 
 3742000   0.64536766   -3.0393206    2686.9873  0.059838483  0.059503369            9 
 3743000   0.66162182   -3.0328922    2689.3495  0.059875089  0.059491406            6 
 3744000   0.64292797   -3.0553413    2687.4294  0.059816359  0.059479371           15 
 3745000   0.66367847   -3.0457391    2699.0878   0.06005981  0.059467371            8 
 3746000   0.63915106   -3.0221967    2698.8074  0.060037538  0.059455418            8 
 3747000   0.67442026   -3.0380694    2693.3645  0.059900465  0.059443526            6 
 3748000   0.66431983   -3.0388369    2689.7539  0.059804205  0.059431497            8 
 3749000   0.65904156   -3.0487938    2693.5569  0.059872785  0.059419453            6 
 3750000   0.64848732   -3.0483779    2688.3827  0.059741839  0.059407406            4 
 3751000   0.65650098   -3.0262375    2695.2157  0.059877716  0.059395375            5 
 3752000    0.6452371   -3.0547966    2694.1108  0.059837216  0.059383353           10 
 3753000   0.63923131   -3.0413805    2691.3785  0.059760602  0.059371281           11 
 3754000   0.65591626   -3.0433807    2690.3235  0.059721263  0.059359294            5 
 3755000   0.65320079   -3.0417693    2695.2613  0.059814942  0.059347292           13 
 3756000   0.64928539   -3.0429315    2692.4083  0.059735719  0.059335379            4 
 3757000   0.65559531    -3.032117    2695.2383  0.059782591  0.059323362           10 
 3758000   0.64723383   -3.0354092    2702.5929  0.059929769  0.059311421            6 
 3759000   0.64176794   -3.0516118    2688.3321  0.059597678   0.05929944            9 
 3760000   0.65703994   -3.0568016     2692.887  0.059682779  0.059287411            5 
 3761000   0.64483243   -3.0511528    2694.6625   0.05970625    0.0592754            4 
 3762000   0.64762047   -3.0383129    2705.3803  0.059927794  0.059263428            8 
 3763000   0.65329245   -3.0454652    2697.4655  0.059736591  0.059251407            3 
 3764000   0.65385872   -3.0392311    2702.7634  0.059838013  0.059239447            8 
 3765000   0.65188099   -3.0476744    2698.2326  0.059721838  0.059227539            6 
 3766000   0.64312712   -3.0481058    2696.0718  0.059658165  0.059215547           11 
 3767000   0.65120329   -3.0430018    2694.3587  0.059604431  0.059203603            5 
 3768000   0.63772864   -3.0365137    2696.9721   0.05964641  0.059191699            5 
 3769000   0.66366451   -3.0598606    2696.2798  0.059615279  0.059179835           13 
 3770000   0.65182687   -3.0442637    2704.3643  0.059778168  0.059167891           12 
 3771000   0.65980233   -3.0449096     2699.502  0.059654865  0.059155951            3 
 3772000   0.64420782   -3.0569704    2696.2297  0.059566757  0.059143984            6 
 3773000   0.65683277   -3.0560399    2693.0651  0.059481075  0.059132004            9 
 3774000   0.66146051   -3.0484897    2701.3155   0.05964749  0.059120107            6 
 3775000   0.65267888   -3.0545333    2697.6202  0.059550114   0.05910797            7 
 3776000   0.64454801    -3.042432    2697.9532  0.059541694  0.059096089            7 
 3777000   0.66254155   -3.0544237    2691.4164  0.059381705   0.05908405            4 
 3778000   0.63710789   -3.0364185    2693.8525  0.059419722  0.059072102            9 
 3779000   0.63984574   -3.0547893    2695.8461   0.05944796  0.059060066            3 
 3780000   0.64750491   -3.0432774    2709.8685  0.059741368  0.059048104            7 
 3781000   0.64762517   -3.0711294    2696.5625  0.059432304  0.059036113            6 
 3782000   0.65926931    -3.067129    2700.3773  0.059500645  0.059024121            8 
 3783000   0.64641231   -3.0394776     2710.586  0.059709798  0.059012164           11 
 3784000   0.63097251   -3.0584758    2700.4328   0.05947042  0.059000202            7 
 3785000   0.64998786   -3.0486999    2702.5878  0.059502154  0.058988211            5 
 3786000   0.64599291   -3.0297731    2700.9799  0.059451045  0.058976258            7 
 3787000   0.65313898   -3.0679065    2698.3837  0.059378217  0.058964274            5 
 3788000   0.65646487   -3.0467814    2705.6016   0.05952133  0.058952204            7 
 3789000   0.63291672   -3.0654123    2697.2611  0.059322184  0.058940238            7 
 3790000   0.65008391    -3.050598    2711.0815  0.059610411  0.058928247            5 
 3791000   0.66040791   -3.0721692    2697.0189  0.059285564  0.058916257            7 
 3792000   0.63371032   -3.0445309    2699.9155  0.059333585  0.058904104           15 
 3793000   0.62879703   -3.0617222    2692.8605  0.059162943  0.058892057            7 
 3794000   0.64516195   -3.0647563    2692.3338  0.059135779  0.058879954           11 
 3795000   0.63769863   -3.0739173    2694.1222  0.059159469  0.058867813            6 
 3796000   0.65290446   -3.0343329    2703.4655  0.059348997  0.058855794            5 
 3797000   0.62796303   -3.0316098    2707.7624  0.059427671  0.058843751            3 
 3798000   0.65106705   -3.0550803    2698.8895   0.05921734   0.05883177            5 
 3799000   0.65604388   -3.0427656    2701.9251   0.05926834    0.0588198            6 
 3800000   0.63592491   -3.0624122    2699.1126  0.059191065  0.058807854            7 
 3801000   0.64342161   -3.0438884    2696.7915  0.059124606  0.058795728            8 
 3802000   0.64933722   -3.0594242    2702.5032  0.059234245   0.05878373            8 
 3803000   0.62093085   -3.0694743    2697.8582  0.059116885  0.058771621            4 
 3804000   0.65284313   -3.0517704    2700.2499  0.059153739  0.058759629            5 
 3805000   0.63361586   -3.0664496    2711.0182  0.059374031  0.058747548            5 
 3806000   0.63797068    -3.061768    2701.1222  0.059141754  0.058735444            3 
 3807000   0.63251835   -3.0446425    2696.8624  0.059032974  0.058723376            6 
 3808000   0.65308025   -3.0627224    2696.0986  0.059000758   0.05871131            5 
 3809000   0.64317429   -3.0530669    2702.9727  0.059135659   0.05869916            5 
 3810000   0.64519853   -3.0482516    2700.9727  0.059076394  0.058687062            4 
 3811000   0.62555396   -3.0641953    2703.0384  0.059106061  0.058675091            5 
 3812000    0.6337377   -3.0491792    2701.6577  0.059060372  0.058663041            5 
 3813000   0.63828098   -3.0632754    2699.3186  0.058993762  0.058650976            9 
 3814000   0.64595736   -3.0626475    2709.4235  0.059199081   0.05863883           14 
 3815000   0.63699052   -3.0612836     2698.832  0.058952206   0.05862677            7 
 3816000   0.64068101   -3.0490225    2703.1527  0.059031112  0.058614536           10 
 3817000   0.64047953   -3.0591453    2699.2016  0.058929387  0.058602411            6 
 3818000    0.6537648   -3.0606678    2694.8829   0.05881969  0.058590221           14 
 3819000   0.62799324     -3.06503    2702.2945  0.058966015   0.05857805           10 
 3820000   0.64355623   -3.0608974    2697.0429  0.058836015  0.058565887            8 
 3821000     0.643829   -3.0570431    2716.3659  0.059242038   0.05855375            5 
 3822000    0.6381934   -3.0772529    2703.2723  0.058941051  0.058541641            6 
 3823000   0.62799558   -3.0534339    2699.7801  0.058849509  0.058529462           12 
 3824000   0.63677857   -3.0582488    2704.3232  0.058933125  0.058517342           13 
 3825000   0.63773924    -3.085612    2700.0845  0.058825371   0.05850527            6 
 3826000   0.64112277   -3.0542654    2705.1947  0.058921298  0.058493101            7 
 3827000    0.6369018   -3.0659711    2703.3364  0.058865439  0.058481025            8 
 3828000   0.63404381   -3.0608707      2704.54  0.058876263  0.058468933           10 
 3829000   0.63498102   -3.0660656    2702.0844  0.058807442  0.058456734            6 
 3830000   0.63039384   -3.0639994    2705.3028  0.058862116  0.058444561            3 
 3831000   0.63734868    -3.071144    2706.2311  0.058866944  0.058432434            5 
 3832000   0.63023723   -3.0410879     2700.505  0.058727058  0.058420383            6 
 3833000   0.62898487   -3.0749018    2701.9683   0.05874355  0.058408252            8 
 3834000   0.63098362   -3.0786132    2702.1077  0.058731257  0.058396092            6 
 3835000   0.64982731   -3.0505772    2699.0241  0.058648937   0.05838405           11 
 3836000   0.64120459   -3.0547702    2708.6404  0.058842553  0.058371973            6 
 3837000   0.64112516   -3.0641072    2710.3415  0.058864163  0.058359954            3 
 3838000   0.65091846   -3.0657769    2703.3237  0.058696451  0.058347994            5 
 3839000   0.64733539    -3.063787    2702.9128  0.058672242  0.058335847            7 
 3840000   0.64072774    -3.043745    2706.7244   0.05873968  0.058323785            4 
 3841000   0.63638777   -3.0621664    2699.1121  0.058559231  0.058311699            8 
 3842000   0.64094123   -3.0790789    2702.3402  0.058614008  0.058299625            6 
 3843000   0.64901238   -3.0598809    2704.5825  0.058647378  0.058287539            5 
 3844000   0.62601179   -3.0581452    2711.9446  0.058791722    0.0582755            8 
 3845000   0.63920968   -3.0884831     2707.244  0.058674557  0.058263405            6 
 3846000   0.64618709    -3.071028    2709.6518   0.05871147  0.058251392            8 
 3847000     0.647583   -3.0881996    2708.9424  0.058680843   0.05823933            6 
 3848000   0.64362566   -3.0529664    2714.2526  0.058780592  0.058227247            5 
 3849000   0.63060963   -3.0713921     2711.573  0.058707305  0.058215184           12 
 3850000   0.63248589   -3.0771146    2707.1216  0.058595706   0.05820314            5 
 3851000    0.6452252   -3.0409026    2708.1065  0.058601802  0.058191114            5 
 3852000    0.6369302   -3.0568646    2710.0967  0.058629646  0.058179145            9 
 3853000   0.65258576   -3.0664428    2707.6503  0.058561517  0.058167091            7 
 3854000   0.63412158   -3.0564959    2706.7046  0.058525873  0.058155043            4 
 3855000   0.63958098   -3.0712221    2716.0365  0.058712419  0.058143033           10 
 3856000   0.63394946   -3.0749009    2711.6838  0.058603124  0.058130935            5 
 3857000   0.64880277   -3.0500958    2709.3777  0.058538105  0.058118933            4 
 3858000   0.63002884    -3.058649    2707.9757   0.05849265  0.058106874            8 
 3859000   0.63261362   -3.0598464    2713.0849  0.058587823  0.058094814            7 
 3860000   0.64298148   -3.0699233     2711.828   0.05854551  0.058082831            7 
 3861000    0.6411785   -3.0753404    2708.1707   0.05845141  0.058070832            6 
 3862000   0.64300069   -3.0613283    2721.8562  0.058731577  0.058058868           13 
 3863000   0.63580759   -3.0643461    2710.2484  0.058465969  0.058047042            8 
 3864000   0.63686515   -3.0685819    2708.4509  0.058412071  0.058035032            9 
 3865000   0.63115796   -3.0614314    2714.3249  0.058523607  0.058023027            5 
 3866000   0.63590328    -3.038261    2706.1169  0.058331543  0.058011026            7 
 3867000   0.62870943    -3.064268     2715.444  0.058517456  0.057999047            6 
 3868000   0.63126176   -3.1016024    2713.6257  0.058463152  0.057986976           16 
 3869000    0.6282212    -3.065561    2709.8912  0.058367606  0.057974938            5 
 3870000   0.62432873   -3.0818438    2712.7059  0.058413134  0.057962909            4 
 3871000    0.6229161   -3.0678257    2714.8714  0.058444661  0.057950862            4 
 3872000   0.62756891   -3.0764796    2710.6174  0.058338013  0.057938798            8 
 3873000   0.62164732   -3.0890315    2716.6139  0.058451973  0.057926737            8 
 3874000   0.62804318   -3.0921678    2711.6181  0.058329421  0.057914743            7 
 3875000   0.63617343   -3.0459245    2717.7666  0.058446594  0.057902774           12 
 3876000   0.64871343   -3.0781376    2714.2981  0.058356943  0.057890825            5 
 3877000    0.6408326   -3.0615055    2716.0731  0.058380042  0.057878773           10 
 3878000   0.63447042   -3.0849185    2716.3088  0.058370052   0.05786676            3 
 3879000   0.63969167   -3.0737196    2716.9467  0.058368709  0.057854772           13 
 3880000   0.63184178   -3.0706539    2707.0662  0.058141456  0.057842727            4 
 3881000   0.62351604   -3.0711353    2710.8031  0.058206715  0.057830637            5 
 3882000   0.62939283   -3.0760363     2710.458  0.058184312  0.057818616            4 
 3883000   0.62376917   -3.0766788    2712.6692  0.058216783  0.057806624            8 
 3884000    0.6143926   -3.0680404    2714.7718  0.058246907  0.057794587            5 
 3885000   0.64045605   -3.0757539    2715.8219  0.058254439  0.057782575            9 
 3886000    0.6286396   -3.0946186    2716.0497  0.058244333  0.057770589            2 
 3887000   0.62580414   -3.0811266    2709.7071  0.058093369  0.057758561            9 
 3888000   0.61838232   -3.0874142     2714.508  0.058181326    0.0577465            3 
 3889000   0.61861745   -3.0867228    2715.1926  0.058181037  0.057734428            5 
 3890000   0.63094605   -3.0855333    2713.9024  0.058138439  0.057722342            6 
 3891000   0.61892173   -3.0658788    2713.4223  0.058113217  0.057710338           12 
 3892000    0.6235469   -3.0927022    2714.2618  0.058116261  0.057698341            4 
 3893000   0.63681944    -3.087212      2702.71  0.057854054  0.057686304           11 
 3894000   0.61548838   -3.0961383    2716.2538   0.05812904  0.057674217            7 
 3895000   0.63115019   -3.0860638     2711.282  0.058007746  0.057662201            7 
 3896000   0.62982768   -3.0817214    2716.2879  0.058099929  0.057650138            4 
 3897000   0.62073706   -3.0702553    2711.2631   0.05797757  0.057638074            6 
 3898000   0.62570566   -3.0887603    2717.9465  0.058105577  0.057625983           12 
 3899000   0.61799082   -3.0721692    2719.3185  0.058119998  0.057613852           10 
 3900000   0.62060181   -3.0747043    2715.5232  0.058023999  0.057601762            7 
 3901000   0.61643077   -3.0933914    2707.0623  0.057828383   0.05758966           10 
 3902000   0.62193736   -3.0890327    2708.7742  0.057850123  0.057577528            7 
 3903000   0.61189816   -3.0840751    2711.8197  0.057900326  0.057565345            6 
 3904000   0.62275716   -3.0806397    2716.2122  0.057979256  0.057553269           10 
 3905000   0.62637237   -3.0896491    2711.4758  0.057863332  0.057541171            7 
 3906000   0.62354133   -3.0919466    2716.1502  0.057948246  0.057529058            4 
 3907000   0.62680892   -3.0915304    2712.6201  0.057858119  0.057516988            8 
 3908000   0.62773718   -3.0853658    2714.9425  0.057892837  0.057504928            4 
 3909000   0.63319043   -3.0728607    2719.9668  0.057985136  0.057492914            8 
 3910000   0.62608794   -3.1013084     2708.477  0.057725426  0.057480915            7 
 3911000   0.62630541   -3.0827262    2716.0193  0.057871373  0.057468794            8 
 3912000   0.62726677    -3.084793    2712.9254  0.057790674  0.057456729            5 
 3913000   0.62746087   -3.0812725    2716.9811  0.057862277  0.057444705            4 
 3914000   0.63099165   -3.0746405    2712.0358  0.057742204    0.0574326            5 
 3915000   0.63491304   -3.0876003    2714.3234  0.057776147  0.057420548            8 
 3916000   0.61953739   -3.0890654    2716.8445  0.057815043   0.05740848           15 
 3917000   0.62455795   -3.0593897    2720.7977  0.057884386  0.057396428            7 
 3918000   0.62261443   -3.0865064    2722.7422  0.057910971  0.057384435            7 
 3919000   0.62592779   -3.0978912    2724.0914  0.057924882  0.057372389            6 
 3920000   0.63625244   -3.0803551    2716.3924  0.057746437  0.057360403            5 
 3921000   0.62722284   -3.0689688    2717.8612  0.057762926  0.057348276            9 
 3922000   0.63566448   -3.0882907    2722.4116  0.057844883  0.057336287            6 
 3923000   0.61854982   -3.0950517    2719.7748  0.057774126  0.057324258           11 
 3924000   0.62758097   -3.0549223    2715.9165  0.057677466  0.057312156           14 
 3925000   0.62077172   -3.1072323    2714.5036  0.057632774  0.057300014           12 
 3926000   0.63571267   -3.1036431    2721.9091  0.057775282  0.057287999            5 
 3927000    0.6143949   -3.0677824    2718.2628  0.057683192  0.057275858            5 
 3928000   0.62800406   -3.1057929    2722.8553  0.057765938  0.057263792            6 
 3929000    0.6307633   -3.0925667    2715.3929  0.057592961  0.057251619            7 
 3930000   0.62599293   -3.0751783    2720.8175  0.057693331   0.05723946            6 
 3931000   0.61479879   -3.0976378    2717.4009  0.057606226  0.057227294            6 
 3932000   0.62154534   -3.0924353    2707.9276  0.057390802  0.057215055            9 
 3933000   0.61895826   -3.0768884    2715.1703   0.05752967  0.057202929            5 
 3934000   0.60798024   -3.1102124     2712.443  0.057457274  0.057190799            6 
 3935000   0.62716861    -3.110355    2716.7371  0.057533611  0.057178625            9 
 3936000   0.63005984   -3.0844847    2714.4989  0.057471605  0.057166488            6 
 3937000   0.62100419   -3.0733499    2717.9479  0.057530011  0.057154308            8 
 3938000   0.63079563   -3.0804806    2719.6765  0.057551983  0.057142246            4 
 3939000   0.62377492   -3.0792241    2721.0902   0.05756728  0.057130161           12 
 3940000    0.6163225   -3.0867929    2720.5383  0.057540995  0.057117944           11 
 3941000   0.62835656   -3.0963887    2714.1888  0.057392135  0.057105738            9 
 3942000   0.61678429   -3.0912566    2722.0436  0.057543624  0.057093532           15 
 3943000   0.61717248   -3.0934536    2715.8982  0.057399151  0.057081416            8 
 3944000   0.61570058   -3.0916693    2718.7907  0.057445712  0.057069305            4 
 3945000      0.62513    -3.099028    2715.2862  0.057357123  0.057057214            3 
 3946000   0.61253691   -3.0766278      2722.78  0.057500844  0.057045023            8 
 3947000   0.61033571   -3.1092636    2713.5926  0.057292302  0.057032879            9 
 3948000    0.6212862   -3.0896673    2718.3902  0.057379058  0.057020834            7 
 3949000   0.61252547   -3.0963143    2721.1548  0.057422867  0.057008725            6 
 3950000   0.62707437   -3.0840138    2721.5267  0.057416175  0.056996714            7 
 3951000   0.61757552   -3.0916086    2721.7481  0.057406312  0.056984683            9 
 3952000    0.6306231   -3.1018002    2723.4489   0.05742765  0.056972681            7 
 3953000    0.6122853   -3.0852175    2725.1037  0.057448009  0.056960641           10 
 3954000   0.61043091   -3.1018717    2722.2948  0.057374278  0.056948624            6 
 3955000   0.61335722   -3.0911091    2714.8268  0.057202418  0.056936502            6 
 3956000   0.61526458   -3.1004809      2717.28  0.057239636  0.056924464           10 
 3957000   0.61408628   -3.0874515    2718.9303  0.057259925  0.056912267            4 
 3958000   0.62868263   -3.0854648    2714.6263   0.05715484  0.056900141           11 
 3959000   0.61583114   -3.1093572    2720.2238  0.057258226  0.056888141            5 
 3960000   0.60088157   -3.0824416    2723.7918  0.057318852   0.05687612            8 
 3961000   0.62428975   -3.0754414     2719.351  0.057210952  0.056864023            8 
 3962000   0.59552005    -3.078913    2726.4892  0.057346651  0.056851956            9 
 3963000     0.632093    -3.086325    2715.2775  0.057096423  0.056839886            5 
 3964000   0.61253291   -3.0963344    2721.7229  0.057217518  0.056827725            7 
 3965000   0.61316526   -3.1089631    2708.7514  0.056930463  0.056815576            7 
 3966000   0.63928909   -3.1015242    2725.4592  0.057267172  0.056803503           15 
 3967000   0.60929901   -3.0819432     2728.424  0.057315015    0.0567915           12 
 3968000   0.62509996   -3.0991683    2726.5459  0.057261128  0.056779487            8 
 3969000   0.61946339   -3.0924183    2717.9258  0.057065712  0.056767393            9 
 3970000   0.60629018   -3.0939649    2732.6532  0.057360479  0.056755411            4 
 3971000   0.62184466   -3.0960905    2727.4902  0.057237686  0.056743522            6 
 3972000   0.62319966   -3.1004835    2723.2532  0.057134381  0.056731593            9 
 3973000   0.59492943   -3.1040281    2723.4842  0.057124846  0.056719514            7 
 3974000   0.62438996   -3.0942863    2725.1689  0.057145801  0.056707476            8 
 3975000    0.6073654     -3.09496    2727.5685  0.057181731  0.056695419            7 
 3976000   0.61301946   -3.0938133    2724.8187  0.057109715  0.056683428            9 
 3977000    0.6140961   -3.1056053    2724.1372  0.057081074  0.056671318           10 
 3978000   0.61487999   -3.1020047    2732.3123  0.057237982  0.056659264            5 
 3979000   0.62201419   -3.1008742    2724.8161  0.057066602  0.056647246            8 
 3980000   0.62273955   -3.1272121    2729.7791   0.05715618  0.056635136            8 
 3981000   0.61206921   -3.0998797     2732.423  0.057197166  0.056623099            7 
 3982000   0.61893569   -3.0893314    2722.2662  0.056970246  0.056611129            9 
 3983000    0.6137397   -3.0955727    2720.1959  0.056912627  0.056599169            4 
 3984000   0.62940307   -3.1020734    2729.8652  0.057100594  0.056587188            4 
 3985000   0.61133168    -3.098602    2729.7642  0.057084152  0.056575222            7 
 3986000   0.61969326   -3.1124952    2722.0443  0.056908435  0.056563237            8 
 3987000   0.62009696   -3.1042799    2731.3204  0.057088045  0.056551218            9 
 3988000    0.6042109   -3.0985891    2725.5992  0.056954179  0.056539256            7 
 3989000    0.6158484   -3.1167659    2737.6729  0.057192131  0.056527306           10 
 3990000   0.61421439   -3.0989284    2726.2786  0.056939821  0.056515309           11 
 3991000   0.61671646   -3.1081014    2734.3196  0.057093453   0.05650331            6 
 3992000   0.62430255   -3.0879945    2730.8006  0.057005691  0.056491338            5 
 3993000   0.61944015   -3.0998543    2733.3488  0.057044594  0.056479358            6 
 3994000   0.61853734   -3.1155647    2724.8516  0.056853021   0.05646733            4 
 3995000   0.61718141   -3.0966722    2728.8036  0.056921226   0.05645537            7 
 3996000   0.59542799   -3.1010375    2728.1732  0.056893836  0.056443418            7 
 3997000   0.61642048   -3.1236858    2718.9409  0.056687117  0.056431409           12 
 3998000     0.616805    -3.100036    2729.5398  0.056893859  0.056419441            9 
 3999000   0.61580456    -3.110987    2721.1227  0.056704233  0.056407423           10 
 4000000   0.61745597   -3.1078467     2730.789  0.056891437   0.05639547           10 
 4001000   0.60463725   -3.1190948    2724.5658    0.0567476  0.056383527            8 
 4002000   0.61758202   -3.1030127    2731.9824  0.056887857  0.056371535            9 
 4003000   0.61331374   -3.0919937    2731.5745  0.056865154  0.056359587           10 
 4004000    0.6097421   -3.1026933     2730.039  0.056818993  0.056347658            5 
 4005000   0.60957761   -3.1076673    2728.2791  0.056768188  0.056335626            8 
 4006000   0.60322126   -3.1103548    2726.5931  0.056718943  0.056323664           11 
 4007000   0.60184026   -3.0921623    2733.7777  0.056854207  0.056311781           16 
 4008000   0.59623784   -3.1195305     2730.752  0.056777112   0.05629981           11 
 4009000   0.62347165   -3.1032779    2730.1715  0.056750883   0.05628788            5 
 4010000   0.61130686   -3.1001014    2741.7265  0.056976861  0.056275896            8 
 4011000   0.61130933   -3.1120794    2738.1411  0.056888163  0.056263943           11 
 4012000   0.60564639   -3.1128779     2732.564  0.056758142   0.05625204            6 
 4013000   0.61040533   -3.1043333    2731.7601  0.056727306  0.056240147            6 
 4014000   0.60758213   -3.1129943    2732.6102  0.056730821  0.056228199            8 
 4015000   0.60892722   -3.1112482    2733.5369  0.056735926  0.056216365            9 
 4016000    0.5900764   -3.0972218    2738.0366  0.056815169  0.056204472            7 
 4017000    0.6034228   -3.1230167    2734.1481  0.056720358  0.056192594            5 
 4018000   0.60973059   -3.1134182    2734.8503  0.056720804  0.056180634           13 
 4019000   0.60039497   -3.0892313    2731.2104  0.056631219  0.056168775            8 
 4020000   0.61172993   -3.1075087    2735.5769  0.056707648   0.05615689            9 
 4021000   0.60930909   -3.1059673    2732.8534  0.056637101   0.05614489            7 
 4022000   0.61814623   -3.1033337    2734.3029  0.056653052  0.056132982            5 
 4023000   0.60654537   -3.0986061    2733.2697  0.056617567  0.056121077           12 
 4024000   0.61207864   -3.1200515    2735.7602  0.056655074  0.056109188           14 
 4025000   0.60603368   -3.1056647    2739.3171  0.056714639  0.056097282            8 
 4026000   0.59797984   -3.1116867    2739.4479  0.056703259  0.056085437            5 
 4027000   0.61872113      -3.1133    2734.1277  0.056579085  0.056073558            5 
 4028000   0.60989319   -3.1152126    2735.0454  0.056584024  0.056061653            5 
 4029000   0.61512281   -3.1058168    2735.1954  0.056573082   0.05604974            5 
 4030000   0.60994989   -3.1169039    2735.6196  0.056567816  0.056037949           13 
 4031000   0.60965514    -3.123006    2734.5133  0.056530913  0.056026034            5 
 4032000   0.60548018   -3.1082289    2740.4122  0.056638811  0.056014186            6 
 4033000   0.61409291   -3.1293131    2731.4342  0.056439254  0.056002276           15 
 4034000   0.60362184   -3.1135014    2740.0492  0.056603231  0.055990399            4 
 4035000   0.60463954   -3.1223892    2734.9387  0.056483657   0.05597856           10 
 4036000   0.60554358   -3.1147262    2730.7558  0.056383295  0.055966681            7 
 4037000   0.61254519   -3.1278849     2739.972  0.056559575  0.055954811            6 
 4038000   0.60528396   -3.1250599    2731.6776  0.056374393  0.055942865           13 
 4039000   0.60708521   -3.1261045    2731.2209  0.056351013  0.055930915           20 
 4040000   0.59908361   -3.1165424    2730.9035  0.056330519  0.055919017            6 
 4041000   0.60369618   -3.1116676    2736.5018  0.056432026   0.05590718            7 
 4042000   0.60677924   -3.1157022    2732.0196  0.056325655  0.055895299           13 
 4043000   0.59632563   -3.1091329    2735.6027  0.056385578  0.055883351            6 
 4044000   0.61593023   -3.1286099    2741.7667  0.056498654  0.055871469            5 
 4045000   0.61489907   -3.1212903    2750.5193  0.056665003  0.055859606           16 
 4046000   0.60893217    -3.127728    2739.1235  0.056416287  0.055847772            9 
 4047000   0.59372711   -3.1172606    2746.7555  0.056559498  0.055835946            8 
 4048000   0.59489252   -3.1090477    2732.7193  0.056256573  0.055824138            6 
 4049000   0.59164279   -3.1138006    2739.3431  0.056379006   0.05581231           13 
 4050000   0.58877423   -3.1011151     2736.021  0.056296729  0.055800417            6 
 4051000   0.60292713   -3.1127827     2739.406  0.056352463  0.055788562            2 
 4052000   0.60233343   -3.1507961    2733.3651  0.056214319  0.055776649            7 
 4053000   0.58489727   -3.1294684    2730.7492  0.056146665  0.055764718            8 
 4054000   0.60751359   -3.1114458    2733.1209  0.056181568  0.055752794            9 
 4055000   0.60972682   -3.1212942    2744.8882  0.056409539  0.055740918            6 
 4056000   0.59665477   -3.1123094    2735.7862  0.056208626  0.055729017            8 
 4057000   0.59677466   -3.1213254    2732.6803  0.056130973  0.055717166            6 
 4058000   0.60489648   -3.1320421    2735.3582  0.056172133  0.055705317            8 
 4059000   0.60338544   -3.1199702    2740.5492  0.056264868  0.055693452            4 
 4060000   0.61236185   -3.1172943    2740.4225   0.05624841  0.055681552            6 
 4061000    0.6093331   -3.1308086    2735.3593  0.056130659   0.05566964            9 
 4062000   0.59736209   -3.1124315    2741.0001  0.056232564   0.05565777            6 
 4063000   0.60530945   -3.1296612    2741.2413   0.05622367  0.055645984           13 
 4064000   0.60129176   -3.1167889    2742.6605  0.056238936  0.055634041           13 
 4065000   0.59699291   -3.1247139    2734.2252  0.056052178  0.055622147            6 
 4066000   0.60147285   -3.1132197    2737.9068  0.056113846  0.055610285            4 
 4067000    0.6039489   -3.1405379     2735.217  0.056044934  0.055598451           11 
 4068000   0.59821145   -3.1115778    2746.3388  0.056258988  0.055586534            7 
 4069000   0.59763655   -3.1179048    2739.5014  0.056105132  0.055574707            8 
 4070000   0.60985574   -3.1216348    2741.4911  0.056132086  0.055562809           13 
 4071000   0.60037425   -3.1132049    2738.6081  0.056059283  0.055550958            7 
 4072000   0.59552487   -3.1294051    2729.2971  0.055854967  0.055539109           12 
 4073000   0.60114701   -3.1096863     2744.469   0.05615167  0.055527209            9 
 4074000   0.60192082   -3.1255226    2741.0936  0.056068843  0.055515316            5 
 4075000   0.59838176   -3.1176389    2741.1192  0.056055608  0.055503414            9 
 4076000   0.60498385   -3.1391794    2739.1666  0.056001933  0.055491507            6 
 4077000   0.59309407   -3.1352471    2730.2628  0.055806205  0.055479567            6 
 4078000   0.60742149   -3.1367153    2740.4942  0.056001598  0.055467544           10 
 4079000   0.59692453   -3.1375959    2738.8829   0.05595495  0.055455566            5 
 4080000   0.59378377   -3.1130436    2742.9526  0.056024359  0.055443539            7 
 4081000   0.59695829   -3.1468492     2730.351  0.055753308  0.055431499            8 
 4082000   0.59175758   -3.1011888    2738.1234  0.055898322  0.055419532           11 
 4083000   0.60433195   -3.1400996    2739.1263  0.055905101  0.055407578           10 
 4084000   0.59980085   -3.1289493    2741.5543  0.055940954  0.055395606           13 
 4085000   0.59470814   -3.1237873    2736.5357  0.055824881  0.055383597            7 
 4086000   0.59663646   -3.1302412    2741.8697  0.055920005  0.055371644            6 
 4087000   0.59036169   -3.1208674    2742.4204  0.055917551  0.055359716           14 
 4088000   0.59678631   -3.1239417    2745.6865  0.055970452  0.055347813            6 
 4089000   0.60144441   -3.1240028    2740.1702  0.055844343  0.055335867            5 
 4090000   0.59039347   -3.1363203    2735.0288  0.055725934   0.05532392            9 
 4091000   0.60188016   -3.1411056    2740.3736  0.055821185  0.055311948            7 
 4092000   0.58655106   -3.1231016    2734.5962  0.055689888  0.055299998           13 
 4093000   0.58439563   -3.1491176    2739.9825  0.055785945  0.055287967           13 
 4094000   0.59908025   -3.1348037    2737.8903  0.055729732  0.055275886            3 
 4095000   0.58823672   -3.1075976    2738.1937  0.055722297  0.055263937            6 
 4096000   0.58154231   -3.1074644    2737.6582  0.055697799  0.055252011            4 
 4097000   0.58679111   -3.1073553    2743.4374  0.055801753  0.055240045           10 
 4098000   0.62139331   -3.1333965    2738.8515  0.055694883  0.055228079           13 
 4099000   0.60799253   -3.1299722    2735.8988  0.055621266  0.055216032            6 
 4100000   0.60282473   -3.1442286    2733.8232  0.055565512  0.055203994           11 
 4101000   0.60093801   -3.1303021    2736.6574  0.055609554  0.055191939            5 
 4102000    0.6018772   -3.1367405    2733.7377  0.055536684  0.055179875            9 
 4103000   0.58301125   -3.1308372    2735.8444  0.055565935   0.05516781            5 
 4104000   0.59409461   -3.1239941    2736.3156  0.055561963  0.055155766            6 
 4105000   0.58930498   -3.1259433    2741.9576  0.055662965  0.055143766            8 
 4106000   0.60054367   -3.1282978    2742.6203  0.055662858  0.055131766            4 
 4107000   0.58547748   -3.1372234    2736.0323   0.05551563  0.055119765            8 
 4108000   0.59247979   -3.1262611    2743.6971  0.055657602   0.05510772            8 
 4109000   0.59021213   -3.1489005    2734.9965  0.055467601    0.0550957           13 
 4110000   0.60522052   -3.1304344     2735.061  0.055455414  0.055083693            8 
 4111000   0.58258538   -3.1356236    2737.4349  0.055490046  0.055071754            8 
 4112000   0.58417876   -3.1384458    2737.5351   0.05547858  0.055059753            5 
 4113000   0.59070227    -3.133218    2735.9833  0.055433652  0.055047686            5 
 4114000   0.58531288   -3.1207089    2746.6963   0.05563718  0.055035671            7 
 4115000   0.58484829   -3.1388755    2739.4463  0.055476839  0.055023621            6 
 4116000   0.58710166    -3.137954    2740.7404  0.055489561  0.055011588            5 
 4117000   0.60641197   -3.1345791     2737.412  0.055408713  0.054999572            9 
 4118000   0.59362141    -3.147817    2740.7177  0.055462153  0.054987584           14 
 4119000    0.5829463   -3.1232296    2742.5117  0.055484983  0.054975653           17 
 4120000   0.59623117   -3.1246865    2737.9756  0.055379766  0.054963697            6 
 4121000    0.6113902   -3.1270454    2735.6562  0.055319426  0.054951748           14 
 4122000   0.58686705   -3.1651712    2738.8302  0.055370172  0.054939728           14 
 4123000   0.59608339   -3.1486259       2731.7  0.055212628  0.054927698           11 
 4124000   0.59808746   -3.1473734     2736.918   0.05530468  0.054915654            6 
 4125000   0.59018151   -3.1364903    2743.0126  0.055414396  0.054903691            6 
 4126000   0.59456155   -3.1229895    2740.5894  0.055352025  0.054891683            5 
 4127000   0.58871365   -3.1496108    2750.3374  0.055535445  0.054879773            9 
 4128000   0.58997854   -3.1264077    2741.2478  0.055338497  0.054867761           12 
 4129000   0.59368489   -3.1300046    2736.2065   0.05522335  0.054855796            6 
 4130000   0.58509619    -3.140223    2738.1142   0.05524847  0.054843789           10 
 4131000   0.59014762   -3.1424748     2746.274  0.055399702  0.054831778            9 
 4132000   0.59203046   -3.1300928    2741.5805  0.055291636   0.05481971            7 
 4133000   0.57801339   -3.1540917    2738.2872  0.055211857  0.054807707            8 
 4134000   0.58528132   -3.1516102    2741.3272   0.05525978  0.054795664           11 
 4135000   0.59545632   -3.1231042    2740.2087  0.055223876  0.054783667           13 
 4136000   0.60082229   -3.1550026    2735.2907  0.055111435   0.05477165            3 
 4137000   0.58623968   -3.1395107     2739.803  0.055189006  0.054759675            6 
 4138000   0.58724821   -3.1564446    2734.4775  0.055068421  0.054747681            6 
 4139000   0.59285002     -3.15469    2744.5857  0.055258632   0.05473567            8 
 4140000   0.59142059   -3.1362635    2746.7035  0.055287913  0.054723656            6 
 4141000   0.58873068   -3.1353426    2741.1297  0.055162395  0.054711737           11 
 4142000   0.59045457   -3.1341678    2738.4199  0.055094557  0.054699815           10 
 4143000   0.57661614   -3.1442876    2735.1695   0.05501588   0.05468796           10 
 4144000    0.5784939   -3.1198415    2744.0742  0.055181673   0.05467609           10 
 4145000   0.58513141   -3.1592718    2744.6011  0.055178953  0.054664163            5 
 4146000   0.59469857   -3.1543335    2734.9262  0.054971181  0.054652212           11 
 4147000    0.5822676   -3.1567399    2740.8011   0.05507598  0.054640245           12 
 4148000   0.59814713   -3.1436129    2751.1412  0.055270435  0.054628348            7 
 4149000   0.58134294   -3.1399944    2748.1444  0.055196924  0.054616471            9 
 4150000   0.58095002   -3.1516242    2739.4942  0.055009923  0.054604575           10 
 4151000   0.60034795   -3.1277361    2745.8286  0.055123838  0.054592735            8 
 4152000    0.5748382   -3.1655916    2744.6009  0.055085919  0.054580869           15 
 4153000   0.59564839   -3.1241361    2748.5592  0.055152083     0.054569            8 
 4154000   0.59848506   -3.1468004      2747.52  0.055117959  0.054557141            8 
 4155000   0.58157884   -3.1528962    2748.4644  0.055123634  0.054545238           12 
 4156000    0.5752668   -3.1230282    2737.7995  0.054896525  0.054533224           15 
 4157000   0.59561791   -3.1487374    2747.8756  0.055085311  0.054521275           11 
 4158000   0.58605114   -3.1396158    2751.9446  0.055153611  0.054509361            4 
 4159000   0.58872847   -3.1596803    2748.0558   0.05506243  0.054497496            4 
 4160000    0.5855412   -3.1469578    2747.6143   0.05504035  0.054485636            5 
 4161000   0.57121877   -3.1390465    2747.2059  0.055018944  0.054473754           12 
 4162000   0.57750789   -3.1443582    2746.6092  0.054993777  0.054461942            6 
 4163000   0.59120895   -3.1555268    2732.9617  0.054707376  0.054450018           11 
 4164000   0.59899551   -3.1424826    2744.6577  0.054928307   0.05443811            8 
 4165000   0.57779638   -3.1381641     2741.837  0.054858683  0.054426175            6 
 4166000   0.58140814   -3.1551404    2745.7863  0.054924514  0.054414323            9 
 4167000   0.57895516   -3.1607125    2750.0211  0.054996023  0.054402406            8 
 4168000   0.57065472   -3.1515619    2752.2674  0.055027739  0.054390539           14 
 4169000   0.58780609   -3.1425237    2747.4075  0.054917397  0.054378712           16 
 4170000   0.59535494    -3.145869    2745.1353  0.054858818  0.054366888           15 
 4171000   0.57930908   -3.1568975    2743.9634  0.054822254  0.054355018            9 
 4172000   0.59645932   -3.1400609    2750.0042  0.054929773  0.054343148            6 
 4173000   0.58478156    -3.151137    2748.1996  0.054880574  0.054331344            4 
 4174000    0.5848692   -3.1387602     2746.087  0.054825247  0.054319505           10 
 4175000   0.57827461    -3.156841    2747.2808  0.054835945  0.054307635           11 
 4176000   0.59633239   -3.1382408    2744.6205  0.054769726  0.054295823           11 
 4177000   0.57825578   -3.1339459    2745.3458  0.054771084  0.054283932            5 
 4178000   0.58422925   -3.1433706    2748.1813  0.054814531  0.054272123           10 
 4179000   0.58847775   -3.1498323    2751.4013  0.054865625   0.05426032           10 
 4180000   0.58018474   -3.1383039    2747.1918  0.054768576  0.054248481            5 
 4181000   0.58162633   -3.1738182    2741.8862  0.054649729  0.054236543            9 
 4182000   0.59220686   -3.1627153    2743.1163  0.054661174  0.054224685           12 
 4183000   0.57781931     -3.15329    2744.6617  0.054678892  0.054212741            6 
 4184000   0.59295607    -3.161507    2740.9352  0.054591603  0.054200846           10 
 4185000    0.5853243   -3.1626398    2739.6481  0.054552929  0.054188939           13 
 4186000   0.57838938   -3.1629436    2738.6231  0.054519491  0.054177047            9 
 4187000   0.57905018   -3.1301752    2752.5871  0.054784394  0.054165127           13 
 4188000   0.58516738   -3.1524355    2747.3931  0.054667963  0.054153251           11 
 4189000   0.58849132   -3.1502919     2750.724  0.054721175  0.054141406            9 
 4190000   0.57247557   -3.1574928    2750.3693  0.054701061  0.054129623           13 
 4191000   0.58343939   -3.1487498    2761.0564  0.054900509  0.054117859           13 
 4192000   0.57693673   -3.1462118    2751.4632  0.054696708  0.054106067           11 
 4193000   0.59509566    -3.146995     2755.738  0.054768623  0.054094339            8 
 4194000   0.58583491   -3.1360709    2753.2563  0.054706253  0.054082585            5 
 4195000   0.57293201   -3.1559322    2757.5063  0.054777637  0.054070766            7 
 4196000   0.56892674   -3.1476472    2755.7291  0.054729288  0.054058993            8 
 4197000   0.57896991   -3.1539439    2746.9554  0.054542041  0.054047285            5 
 4198000   0.58260666   -3.1375072    2751.6483  0.054622207  0.054035565            5 
 4199000   0.58000182   -3.1696669    2753.3011     0.054642  0.054023817           11 
 4200000   0.57505559   -3.1585711    2755.9959  0.054682459  0.054012002            6 
 4201000   0.58950754   -3.1549501    2749.2764  0.054536149  0.054000206            7 
 4202000   0.58699879   -3.1623553    2753.2702  0.054602376  0.053988409            7 
 4203000   0.58530398   -3.1401135    2749.6523  0.054517651  0.053976676            8 
 4204000   0.58103976   -3.1666867    2751.8985  0.054549208  0.053964928           10 
 4205000    0.5761862   -3.1565128    2754.9049  0.054595817  0.053953049           10 
 4206000   0.57000403   -3.1629276    2750.1622  0.054488869  0.053941221            6 
 4207000   0.58675318   -3.1728285     2749.376  0.054460345  0.053929371            8 
 4208000   0.58019592   -3.1680451     2746.157  0.054383655  0.053917521           16 
 4209000    0.5818868    -3.142228    2752.1222  0.054488837  0.053905743           10 
 4210000   0.57919627   -3.1666062    2748.7419  0.054408984  0.053893884           19 
 4211000   0.58999363   -3.1727062    2747.7352  0.054376143  0.053881997           10 
 4212000   0.57851227   -3.1643196    2755.8959  0.054524689  0.053870161           19 
 4213000   0.58090011   -3.1496423    2746.7729  0.054331294  0.053858294            6 
 4214000   0.58148331   -3.1660269    2752.4825  0.054431311  0.053846523            9 
 4215000   0.58465016   -3.1757174    2745.5894  0.054282115  0.053834715           11 
 4216000   0.58170335   -3.1514503    2756.5706  0.054486294  0.053822965           11 
 4217000   0.57618434   -3.1726288     2754.604  0.054434511  0.053811205            7 
 4218000    0.5677775   -3.1671907    2743.0927  0.054194181   0.05379938           10 
 4219000   0.57010548   -3.1689289    2760.2309  0.054519848  0.053787538            5 
 4220000   0.58104207   -3.1536721    2758.8973  0.054480594  0.053775749            8 
 4221000   0.57195382   -3.1587483     2748.486  0.054262141  0.053763908           10 
 4222000   0.56740489   -3.1503743    2750.5677  0.054290378  0.053752103            5 
 4223000   0.58182692   -3.1790943    2752.1951  0.054309636  0.053740209           12 
 4224000   0.56700969   -3.1651865    2752.6813  0.054306369  0.053728306            7 
 4225000   0.58783465   -3.1454838    2750.5046  0.054250583  0.053716469            5 
 4226000   0.56245231   -3.1819266    2750.8136  0.054243839   0.05370467            3 
 4227000   0.57941873   -3.1566659    2746.2348  0.054140739  0.053692826            7 
 4228000   0.58084747   -3.1737788    2761.7029  0.054432807  0.053681006           17 
 4229000   0.57519137   -3.1614067    2753.4325  0.054256967  0.053669189           15 
 4230000   0.57643194   -3.1604908    2751.2917  0.054201963  0.053657316           12 
 4231000    0.5745708   -3.1707449     2753.398  0.054230639  0.053645505            7 
 4232000   0.56795908   -3.1836692    2755.6722  0.054262607  0.053633667            7 
 4233000   0.56541578    -3.153075    2755.7491  0.054251302  0.053621811           13 
 4234000   0.58387939    -3.156257    2751.7944  0.054160651  0.053610037           12 
 4235000   0.56466122   -3.1445768    2750.9537   0.05413132  0.053598223            6 
 4236000   0.58078212   -3.1690218    2750.4412  0.054108458  0.053586425            4 
 4237000    0.5688382    -3.167584    2762.8927  0.054340585  0.053574624           13 
 4238000    0.5726194   -3.1719468     2751.688  0.054107441  0.053562815            9 
 4239000   0.56140094   -3.1716013    2747.4721  0.054011796  0.053550999           20 
 4240000   0.57504693   -3.1269447    2760.2728  0.054250645  0.053539162            8 
 4241000   0.57760853   -3.1689394    2754.2862   0.05412022  0.053527378            8 
 4242000   0.58782433   -3.1494304    2755.9469  0.054140086   0.05351567            6 
 4243000    0.5675804   -3.1480445    2755.6149  0.054120805  0.053503963           12 
 4244000   0.57480354     -3.15711    2756.3957  0.054123383  0.053492235            6 
 4245000   0.57668308   -3.1589952    2750.2484  0.053989956  0.053480481            9 
 4246000   0.56776246   -3.1731737    2755.5889  0.054082057  0.053468762            8 
 4247000   0.57243431    -3.154519    2758.7927  0.054132186  0.053457017            5 
 4248000   0.58123518   -3.1694788    2752.1088  0.053988324  0.053445352            9 
 4249000   0.57892677   -3.1631505    2754.4999  0.054022513  0.053433589            7 
 4250000   0.57181437   -3.1781238    2754.0347   0.05400068  0.053421837           14 
 4251000   0.58896679   -3.1784031    2754.8735  0.054004421  0.053410099           13 
 4252000    0.5626117   -3.1585563    2751.8098  0.053931676  0.053398333            7 
 4253000   0.56149698   -3.1729464    2753.4606  0.053951341   0.05338651            6 
 4254000   0.56607724   -3.1762917    2756.8302  0.054004667  0.053374726            9 
 4255000   0.56774853   -3.1521055    2749.4233  0.053846912  0.053362976           10 
 4256000   0.58979918   -3.1792545    2749.5551   0.05383684  0.053351286            5 
 4257000   0.57698573   -3.1668719    2751.8337  0.053868799   0.05333957           11 
 4258000   0.57458105   -3.1575236    2762.8832  0.054072397   0.05332788            5 
 4259000    0.5793927   -3.1824082    2761.2138  0.054027036  0.053316149           18 
 4260000   0.57344546   -3.1738925     2755.704  0.053906574  0.053304363           10 
 4261000   0.57077809   -3.1654308    2763.1442  0.054039431  0.053292625           12 
 4262000   0.56114421   -3.1631223    2756.4883  0.053896611  0.053280858            8 
 4263000   0.56925261    -3.167582    2752.6288  0.053808523  0.053269156           14 
 4264000   0.57028654   -3.1724474    2752.5515  0.053794394  0.053257462            6 
 4265000   0.57512347   -3.1722975    2753.7081  0.053804379  0.053245703            7 
 4266000   0.56348107   -3.1704439    2754.8435  0.053813946  0.053233983            6 
 4267000   0.56068718   -3.1749729    2751.6877  0.053739702  0.053222188           13 
 4268000   0.57482682   -3.1676075    2750.5525  0.053704945  0.053210414            7 
 4269000   0.56231466   -3.1852721    2763.9046  0.053953006  0.053198668           14 
 4270000   0.56927216   -3.1630486    2763.0913  0.053924498   0.05318699            6 
 4271000   0.55963673   -3.1775016    2761.4448  0.053879747  0.053175328           16 
 4272000   0.57604199   -3.1706831    2754.8831  0.053739136  0.053163608            6 
 4273000   0.56784446   -3.1672491    2757.3043   0.05377378  0.053151886            6 
 4274000   0.56573613    -3.194372    2757.8538  0.053771911  0.053140142            9 
 4275000   0.58744809   -3.1869305    2756.8031  0.053738852  0.053128414            9 
 4276000   0.57050713   -3.1719476    2751.8487  0.053629729   0.05311668           14 
 4277000   0.56738967   -3.1664192    2761.3955  0.053803201  0.053105006            7 
 4278000   0.56728703   -3.1912457    2755.3788  0.053673422  0.053093287            8 
 4279000   0.56181869    -3.191515    2757.1847  0.053696048  0.053081541            4 
 4280000   0.57499424   -3.1767849    2756.1327   0.05366302  0.053069834            9 
 4281000   0.57001005   -3.1737722    2758.7842  0.053702098   0.05305817           12 
 4282000   0.56947572    -3.187482    2754.6099  0.053608319  0.053046477           12 
 4283000   0.55623923   -3.1612327    2753.0061  0.053564598  0.053034668            7 
 4284000   0.55886668   -3.1828277    2762.3079  0.053733036  0.053022947            6 
 4285000   0.56911902   -3.1761311    2755.9773  0.053597381  0.053011272           12 
 4286000     0.557957   -3.1807988    2766.0292  0.053780316  0.052999597            9 
 4287000   0.57335031   -3.1778697    2753.5124  0.053524461  0.052987887            8 
 4288000   0.56991336   -3.1888686    2764.4864  0.053725249  0.052976224           13 
 4289000   0.57208627   -3.1898351    2757.4182  0.053575391  0.052964488           15 
 4290000    0.5523359   -3.1864235    2757.8111  0.053570534  0.052952751           10 
 4291000   0.56949303   -3.1757899    2757.7786  0.053557418  0.052941053            7 
 4292000   0.56604145   -3.1858156    2762.0365  0.053627612  0.052929343           10 
 4293000   0.55244041   -3.1823472    2764.1238  0.053655636  0.052917677            7 
 4294000   0.56506514   -3.1805522    2756.7659  0.053500346  0.052905964            6 
 4295000   0.55434918   -3.1782254    2752.2373  0.053400026  0.052894324            6 
 4296000   0.57576607   -3.1738957    2756.8899  0.053477846  0.052882625            5 
 4297000   0.56162057   -3.1761309    2761.3044  0.053551013  0.052870956            8 
 4298000   0.56891506   -3.1861705    2759.7591  0.053508592  0.052859276            6 
 4299000   0.56518683   -3.1804864    2755.6048  0.053415616  0.052847551           10 
 4300000    0.5596576   -3.1724809    2756.3063  0.053416789  0.052835805           15 
 4301000   0.56340179    -3.177026    2754.8569  0.053376287  0.052824039           15 
 4302000   0.55908198   -3.1774774    2757.8145   0.05342117  0.052812291           11 
 4303000   0.56366711   -3.1931892    2762.6878  0.053503134  0.052800554            6 
 4304000    0.5706728   -3.1787453    2757.6396  0.053392959  0.052788823            7 
 4305000   0.57706305   -3.1738338    2758.2476  0.053392326  0.052777107           14 
 4306000   0.55925866   -3.1784968    2761.8941  0.053450497  0.052765411            9 
 4307000   0.54995082   -3.1948963     2756.172  0.053327374  0.052753753            6 
 4308000   0.56656544   -3.1825294     2760.013  0.053389295   0.05274206           10 
 4309000   0.56214942   -3.1890193    2756.6774  0.053312397  0.052730427            5 
 4310000   0.55218838    -3.169301    2755.2548  0.053272522  0.052718751            5 
 4311000   0.56434055   -3.1897894    2760.0578  0.053353008  0.052706996            9 
 4312000   0.55958361   -3.2088614    2757.9323  0.053299558  0.052695243            9 
 4313000    0.5569216   -3.1788495    2761.7564  0.053361087  0.052683493            7 
 4314000   0.57218872   -3.1628537    2758.0288  0.053276711  0.052671804           14 
 4315000   0.54577198   -3.1719236    2756.7788  0.053240224  0.052660109            8 
 4316000   0.55875723   -3.1869363    2763.3233   0.05335425  0.052648444           12 
 4317000   0.54492831   -3.1778051    2761.9024  0.053314462  0.052636666            5 
 4318000   0.54349847   -3.1825321    2753.4798  0.053139567  0.052624944            7 
 4319000   0.56478329   -3.1652142    2763.0827  0.053312547  0.052613247           12 
 4320000     0.568236   -3.2005372    2750.7628  0.053062554  0.052601582            7 
 4321000   0.55294663   -3.1758872    2759.9244  0.053226962  0.052589907            9 
 4322000   0.56640675   -3.2017796    2757.7583   0.05317288    0.0525782           13 
 4323000    0.5617125   -3.1982039    2759.8902  0.053201678  0.052566545           14 
 4324000   0.55712013   -3.1872047    2760.4702  0.053200551  0.052554876            5 
 4325000   0.55557138   -3.2001774    2758.8009  0.053156087  0.052543112            8 
 4326000   0.53999188   -3.1811472    2760.5341  0.053177186  0.052531334            8 
 4327000   0.54989883   -3.1950068     2761.067  0.053175159  0.052519615           15 
 4328000   0.54278916   -3.1993417    2762.7861  0.053195975  0.052507921           17 
 4329000   0.56368087   -3.1894551    2762.6934    0.0531819  0.052496225           14 
 4330000   0.56216862    -3.202389     2749.155  0.052909064  0.052484512           12 
 4331000   0.55933946   -3.1931817    2765.0991  0.053203631  0.052472748            9 
 4332000   0.55943479   -3.1760099    2759.4011  0.053081739  0.052461024           12 
 4333000    0.5623838   -3.1977434    2756.0983  0.053005967  0.052449336            5 
 4334000   0.57078089    -3.209544    2755.6275  0.052984685  0.052437625           12 
 4335000   0.56057727   -3.1804228    2758.9797  0.053036903  0.052425879            5 
 4336000   0.56435717   -3.1951627    2763.5922  0.053113318  0.052414214           20 
 4337000   0.55155319   -3.1833988    2759.2865   0.05301834  0.052402503           10 
 4338000   0.55142542   -3.1986853     2759.645  0.053013006  0.052390823           10 
 4339000   0.55226984   -3.1813845    2760.7757  0.053022503   0.05237917            7 
 4340000   0.55248099   -3.1857494    2756.9581  0.052936984  0.052367483            5 
 4341000   0.55541551   -3.1961383    2754.9655  0.052886537  0.052355716           13 
 4342000   0.57258116   -3.1964802    2765.6575  0.053079562  0.052343989            6 
 4343000   0.54234909   -3.1958218    2755.2983  0.052868568  0.052332276           12 
 4344000   0.55417528    -3.184817    2761.0187  0.052966135  0.052320587           12 
 4345000   0.55270923   -3.1858532    2767.8706  0.053085359  0.052308934            8 
 4346000   0.55445321   -3.1818874     2759.288  0.052908575  0.052297298            7 
 4347000    0.5558145    -3.196253    2759.6278  0.052902919  0.052285598            4 
 4348000   0.55712087    -3.192967    2756.1772  0.052824617  0.052273789           10 
 4349000   0.55882377   -3.1924592    2758.7275  0.052861338   0.05226206            8 
 4350000   0.55544055   -3.2044036    2755.3918  0.052785284  0.052250297           10 
 4351000   0.54562897   -3.1872133    2755.7024  0.052779101  0.052238535            6 
 4352000   0.54539151   -3.2005815    2756.8673  0.052789278  0.052226771            8 
 4353000   0.54955489   -3.1940321    2761.4697  0.052865259  0.052214971           10 
 4354000   0.55566181     -3.19354    2755.4074  0.052737088  0.052203175            8 
 4355000   0.55014447   -3.1916087    2764.1671  0.052892597  0.052191309           10 
 4356000   0.54634816   -3.1805503    2760.5598  0.052811445   0.05217953            6 
 4357000    0.5460361     -3.19412    2760.2188    0.0527928  0.052167784            3 
 4358000   0.56290836   -3.1961696    2753.5421  0.052653016  0.052155975           10 
 4359000   0.55742268    -3.203911    2759.1947  0.052749001  0.052144168           14 
 4360000   0.56124628   -3.2079817    2758.0301  0.052714643  0.052132336           17 
 4361000   0.55029254    -3.195152    2748.8227  0.052526614  0.052120435            8 
 4362000   0.54866592   -3.1910897    2754.0691  0.052614801  0.052108591           15 
 4363000   0.54853296   -3.2130721    2759.4216  0.052704974  0.052096735           10 
 4364000   0.54391523   -3.1962149    2759.8006  0.052700133  0.052084917           10 
 4365000   0.54582174   -3.1859449    2748.4395  0.052471162  0.052073052            4 
 4366000   0.56199826   -3.1904887    2757.2344  0.052627011  0.052061285           16 
 4367000   0.55421184   -3.1880609    2746.6974  0.052413888  0.052049463           15 
 4368000   0.54923262   -3.1814261    2759.5146  0.052646417  0.052037679            8 
 4369000   0.56293321   -3.2069719     2756.488  0.052576638  0.052025895           16 
 4370000   0.55713168   -3.1981394    2756.7133  0.052568903  0.052014081            8 
 4371000   0.54965845   -3.2002065    2753.9768  0.052504706  0.052002309            5 
 4372000   0.55516969   -3.1988205      2762.88  0.052662397   0.05199047            9 
 4373000   0.55291557   -3.1990859    2754.2197  0.052485321  0.051978668           16 
 4374000   0.56046847   -3.1773672    2753.7892   0.05246512  0.051966881           12 
 4375000   0.55321238    -3.205099    2751.6882  0.052413109   0.05195509            8 
 4376000   0.56571056    -3.196175    2759.0534  0.052541388  0.051943288            9 
 4377000   0.53663347   -3.2040585    2748.5476  0.052329365   0.05193149           14 
 4378000   0.56399575   -3.2055955    2751.1448   0.05236685  0.051919675            8 
 4379000   0.54771476   -3.1875571    2752.9087  0.052388459  0.051907873           12 
 4380000   0.54085528   -3.2098836    2752.2442  0.052363855  0.051896057            7 
 4381000   0.54074833   -3.1891197    2759.7904  0.052495442   0.05188425           12 
 4382000   0.55327571   -3.2189261    2752.2337  0.052339755  0.051872516           12 
 4383000   0.55754982   -3.1965093    2758.6979  0.052450717  0.051860699            8 
 4384000   0.54875511   -3.2050184    2759.2106  0.052448499  0.051848913           11 
 4385000   0.54988766    -3.205498    2756.2161   0.05237963  0.051837071            6 
 4386000   0.56401143   -3.2138721     2753.945  0.052324536  0.051825343           12 
 4387000   0.55626479   -3.1904356    2754.4188   0.05232161   0.05181353           10 
 4388000   0.54811215   -3.1959331    2754.7376   0.05231574  0.051801757            7 
 4389000    0.5489278   -3.2121411    2762.7632    0.0524562  0.051789996           21 
 4390000   0.53776375   -3.2024538    2761.4293   0.05241893  0.051778264            8 
 4391000   0.55165021   -3.1901864    2759.9492  0.052378903  0.051766506           14 
 4392000   0.54553576   -3.2042136    2758.4791  0.052339085  0.051754792           17 
 4393000   0.54734306   -3.1851775    2752.4731   0.05221324  0.051743045            8 
 4394000   0.55012644   -3.2067111    2750.4788  0.052163534  0.051731239           17 
 4395000   0.55491548   -3.2217862    2757.1694  0.052278524  0.051719467            5 
 4396000   0.54428634   -3.1968236    2756.6534   0.05225685  0.051707662           16 
 4397000   0.55846331   -3.1964963    2748.2196  0.052085126  0.051695876           10 
 4398000   0.55358775   -3.2285928    2751.5014  0.052135466   0.05168403           13 
 4399000   0.54936654   -3.2084243    2753.6036   0.05216344  0.051672123           14 
 4400000   0.54406697   -3.2164775    2751.9386   0.05212005  0.051660257           11 
 4401000   0.54286216   -3.2130555    2755.1856  0.052169689  0.051648455            5 
 4402000   0.54043328   -3.2171542     2764.021  0.052325099  0.051636641           12 
 4403000    0.5508684    -3.205663    2755.2438  0.052147094  0.051624796            7 
 4404000   0.54996423   -3.2196665     2757.592  0.052179685  0.051612983           20 
 4405000   0.54131414   -3.1994647    2761.8932   0.05224921  0.051601187            6 
 4406000   0.54766966   -3.2047822    2755.6652  0.052119556  0.051589417           10 
 4407000    0.5496425   -3.2076251     2758.516  0.052161637  0.051577616           12 
 4408000   0.54677795   -3.2251371    2761.4622  0.052205501  0.051565801           16 
 4409000   0.55350458   -3.2296927    2758.5704  0.052139004  0.051554051            6 
 4410000   0.54219253   -3.2136266    2759.3826  0.052142529  0.051542303           16 
 4411000   0.55041942   -3.2049574    2760.3491  0.052148966  0.051530502           23 
 4412000   0.54502742   -3.1985909     2761.824  0.052165005  0.051518797            8 
 4413000   0.54764166    -3.210846    2761.7875  0.052152494  0.051507043            5 
 4414000   0.54231872   -3.2133375    2757.0828  0.052051858  0.051495333            6 
 4415000   0.54767508   -3.2103789    2758.8145  0.052072754  0.051483675           11 
 4416000   0.54622995   -3.2143522    2754.2909  0.051975599  0.051471871           10 
 4417000   0.54767105   -3.2140744    2749.6904  0.051877035  0.051460104           13 
 4418000   0.55821695   -3.2293462    2754.7912  0.051961507  0.051448366           12 
 4419000   0.55118511    -3.218975    2760.5751  0.052058819  0.051436599            6 
 4420000   0.54947691   -3.2240847    2763.3564  0.052099479  0.051424805           16 
 4421000    0.5539334   -3.2117396    2763.0064  0.052081099  0.051413066            9 
 4422000   0.54981741   -3.2084968     2756.622  0.051949006  0.051401368           10 
 4423000   0.54660752   -3.2134362    2759.0625  0.051983241  0.051389695           14 
 4424000   0.54282643   -3.2166069    2755.1802  0.051898361  0.051377951            9 
 4425000   0.55362366   -3.2065047    2759.2783   0.05196381  0.051366244            6 
 4426000   0.55511156   -3.2238997    2760.6562  0.051978012   0.05135457           14 
 4427000   0.53988926   -3.2266026    2763.6326  0.052022299  0.051342886           15 
 4428000   0.55520204   -3.1913414    2761.4174  0.051968861  0.051331224           14 
 4429000   0.54871103   -3.2315227    2764.9943  0.052024428  0.051319568           16 
 4430000   0.54060544   -3.2201528    2760.7249  0.051932372  0.051307893           16 
 4431000   0.54857928   -3.2190771    2753.6732  0.051788031  0.051296205            8 
 4432000   0.54355243   -3.2232468    2764.1604  0.051973534  0.051284526            9 
 4433000    0.5454755   -3.2310542    2763.2573  0.051944832  0.051272807            9 
 4434000   0.53224333   -3.2166184    2759.9225  0.051870443  0.051261127           12 
 4435000   0.53584844   -3.2088875     2759.476  0.051850356  0.051249509           17 
 4436000   0.53794566   -3.2065316    2760.2747  0.051853673   0.05123789            8 
 4437000   0.54606328   -3.2128617    2763.5341  0.051903202  0.051226293           11 
 4438000   0.54822956   -3.2354367    2761.1235  0.051846243  0.051214631            9 
 4439000   0.54522157    -3.232018    2769.9991  0.052001185  0.051202978            6 
 4440000   0.53632588   -3.2075885    2766.0159  0.051914713  0.051191352           10 
 4441000   0.53769699   -3.2339677    2761.5828  0.051819838  0.051179703           13 
 4442000   0.54164478   -3.2126451    2760.2119  0.051782454  0.051168007            6 
 4443000   0.55349835   -3.2409326    2753.4953  0.051644822   0.05115636           16 
 4444000    0.5320543   -3.2282662    2760.7008  0.051768316  0.051144648            9 
 4445000   0.54059645   -3.2283754    2763.3255  0.051805878  0.051133002           13 
 4446000   0.54845465   -3.2091889    2766.5679  0.051854999  0.051121355           10 
 4447000   0.53356326   -3.2183746    2764.7377  0.051809042   0.05110982            6 
 4448000   0.55404947   -3.2088381    2765.1739  0.051805567   0.05109822           11 
 4449000   0.54402362   -3.2083931    2766.6643  0.051821839  0.051086677            7 
 4450000   0.53823161   -3.2151389     2764.855  0.051776311  0.051075082           10 
 4451000   0.53960204   -3.2259615    2765.5655  0.051777981  0.051063487           11 
 4452000   0.54030851   -3.2140108    2766.4134  0.051782222  0.051051891            9 
 4453000    0.5409716   -3.1945463    2769.8315   0.05183456  0.051040363            9 
 4454000   0.53441067   -3.2190955    2765.4795  0.051741496  0.051028769           31 
 4455000   0.53015788   -3.2311854    2759.9737  0.051626893  0.051017109           34 
 4456000   0.53810593   -3.2318271    2768.8214  0.051780772  0.051005572           15 
 4457000     0.533239   -3.2345613    2757.3396  0.051554475  0.050993984           12 
 4458000   0.54163316   -3.2136945    2763.3419  0.051655113   0.05098239            6 
 4459000   0.55410076   -3.2255709    2760.7849  0.051595741  0.050970818            8 
 4460000   0.54603551   -3.2241151    2759.0504  0.051551763  0.050959221           30 
 4461000   0.53518922   -3.2270942    2766.2012  0.051673788  0.050947696           25 
 4462000   0.54427525   -3.2301449    2766.1254  0.051660792  0.050936187           18 
 4463000   0.53950456   -3.2253796    2764.9447  0.051627171  0.050924635            9 
 4464000   0.54181761   -3.2191356    2761.6473  0.051554049  0.050913037           11 
 4465000   0.52604442    -3.227784    2762.4953   0.05155833  0.050901477           10 
 4466000   0.53879468   -3.2159068    2768.9247  0.051666754  0.050889876           23 
 4467000    0.5355312   -3.2227703    2766.2319  0.051604954  0.050878314            8 
 4468000   0.54732893   -3.2271869    2763.2709  0.051538176   0.05086669           16 
 4469000   0.54516566   -3.2297829    2756.7399  0.051404861  0.050855008           17 
 4470000   0.54759828   -3.2177865    2761.7651  0.051487046  0.050843327           11 
 4471000   0.53856611    -3.248777    2757.3615  0.051393453  0.050831673           12 
 4472000   0.52547257   -3.2210556    2766.3078  0.051548669  0.050819962            7 
 4473000   0.53688422   -3.2273066    2762.7922  0.051471648  0.050808301            8 
 4474000   0.54514306   -3.2086096    2765.0122  0.051501494   0.05079673            8 
 4475000   0.53337447   -3.2294918    2768.2868  0.051550965  0.050785108           13 
 4476000   0.53192373   -3.2252524    2761.8299  0.051419234  0.050773457           15 
 4477000   0.53874822   -3.2377871    2761.7718  0.051406668  0.050761785            9 
 4478000   0.53263444   -3.2175882    2768.7537  0.051525118  0.050750117           11 
 4479000   0.54535952    -3.233612    2758.8019  0.051328457  0.050738494            7 
 4480000   0.52323352   -3.2241772    2763.3271  0.051401175  0.050726921            7 
 4481000   0.53798576   -3.2339984    2764.6888  0.051415026  0.050715329           20 
 4482000   0.54763039   -3.2186951    2759.2951   0.05130327  0.050703758            5 
 4483000    0.5348026   -3.2397011    2767.7187  0.051448411  0.050692197            8 
 4484000   0.53077183   -3.2374061    2762.2655  0.051335591  0.050680611           11 
 4485000   0.53524179   -3.2445212    2762.0659  0.051320437  0.050668984           12 
 4486000   0.52315748   -3.2245249    2768.1791  0.051422556  0.050657424           14 
 4487000   0.53402984   -3.2352135    2758.8209  0.051237296   0.05064593            8 
 4488000   0.52319821   -3.2229094    2767.2358  0.051382127   0.05063439            4 
 4489000   0.54519196   -3.2356432    2766.9704  0.051365752  0.050622883            7 
 4490000   0.53875412   -3.2423542    2772.1192  0.051449874  0.050611339           11 
 4491000   0.53099907   -3.2291434    2762.6201  0.051262156  0.050599777           10 
 4492000   0.53279687    -3.211918    2771.0037  0.051406272  0.050588248            5 
 4493000   0.51580137   -3.2414664    2764.4519  0.051273313  0.050576682            9 
 4494000   0.54287655   -3.2267087      2765.46  0.051280597    0.0505651            6 
 4495000   0.52907571   -3.2190446    2768.4795  0.051325167  0.050553557           22 
 4496000   0.53100029   -3.2349934     2768.118   0.05130705  0.050542049           21 
 4497000   0.53770945   -3.2175599     2771.565  0.051359517  0.050530552           12 
 4498000   0.53570115    -3.235521     2759.142  0.051117941  0.050519025           20 
 4499000   0.52013026   -3.2361747    2770.4613  0.051316243  0.050507529            9 
 4500000   0.53296384   -3.2361906    2768.1189  0.051261461  0.050496001           11 
 4501000   0.54021866   -3.2362702    2762.4118  0.051144409  0.050484483           10 
 4502000   0.52478384   -3.2368985    2766.0628  0.051200628  0.050472975            9 
 4503000   0.53009155   -3.2373033    2768.3011  0.051230681  0.050461508           19 
 4504000   0.53696138   -3.2241308    2769.9244  0.051249342  0.050450045            9 
 4505000   0.52563113    -3.234854    2769.2729  0.051225914  0.050438567           11 
 4506000   0.54010197   -3.2238638    2766.5157  0.051163555  0.050427089           14 
 4507000    0.5377671   -3.2482167    2769.0945  0.051199883  0.050415605           12 
 4508000   0.53265522   -3.2304337    2760.6864  0.051033097  0.050404081           15 
 4509000   0.53448604   -3.2455049    2766.1744  0.051123205  0.050392623           15 
 4510000   0.53442517   -3.2432777    2765.8491  0.051105859  0.050381119           11 
 4511000   0.52667476   -3.2358435     2773.131   0.05122905  0.050369634            7 
 4512000     0.535173   -3.2298996    2779.9819  0.051344229  0.050358161           12 
 4513000   0.53022331   -3.2498982    2766.4385   0.05108277  0.050346707            9 
 4514000   0.53045502   -3.2273059    2761.0002  0.050971056  0.050335174            8 
 4515000   0.52909627   -3.2469461    2766.8855  0.051068393  0.050323672           14 
 4516000   0.52665624   -3.2329139    2770.2047  0.051118332  0.050312206           22 
 4517000   0.53096552   -3.2321381    2768.4408  0.051074474  0.050300701           11 
 4518000   0.53242574   -3.2322234    2770.5975  0.051102948  0.050289274           11 
 4519000   0.52164521   -3.2301532    2769.9039   0.05107885  0.050277831           10 
 4520000   0.53011119   -3.2646719    2769.6835  0.051063487   0.05026639            7 
 4521000   0.54031052    -3.232038    2780.1972  0.051245985  0.050254981            9 
 4522000   0.53175075   -3.2142741    2771.4029  0.051072588  0.050243606            5 
 4523000   0.53011443    -3.245379    2771.5934  0.051064805  0.050232138           10 
 4524000    0.5221599   -3.2444225    2764.2976  0.050919128  0.050220676           20 
 4525000   0.53981562    -3.233755    2773.1057  0.051070087  0.050209257            9 
 4526000   0.52447444   -3.2283475    2778.3424  0.051155222  0.050197885           10 
 4527000   0.53320803   -3.2385248    2766.6287  0.050928295  0.050186456            7 
 4528000    0.5421547    -3.238683    2770.2156  0.050983061   0.05017503            8 
 4529000   0.52509535   -3.2464545     2768.081  0.050932527   0.05016365            6 
 4530000   0.53252027   -3.2460604    2770.7272  0.050969963  0.050152239            9 
 4531000   0.52255913   -3.2494295    2776.2526  0.051060337  0.050140836           18 
 4532000   0.53221698   -3.2539634    2768.2305  0.050901561  0.050129448           13 
 4533000   0.51760925   -3.2458648    2772.9774  0.050977597  0.050117997           11 
 4534000   0.52293287    -3.256727    2772.8886  0.050964721  0.050106538           25 
 4535000   0.52460122   -3.2463933    2767.5639  0.050855639  0.050095129           19 
 4536000   0.52270536   -3.2390182     2775.221    0.0509851  0.050083769           11 
 4537000    0.5159379   -3.2464839    2775.0084  0.050969958  0.050072445           11 
 4538000   0.52240625   -3.2328567    2772.2636  0.050908321  0.050061094           13 
 4539000   0.52677531    -3.235891    2771.1187  0.050876087  0.050049784            8 
 4540000   0.52768226   -3.2439638    2768.2204  0.050811681   0.05003841            5 
 4541000   0.52794778   -3.2585254    2771.3204  0.050857381  0.050027051           13 
 4542000   0.52973556   -3.2346076    2775.0646   0.05091488  0.050015649           18 
 4543000    0.5281307   -3.2545907    2769.3405  0.050798673  0.050004267           24 
 4544000   0.52455446   -3.2405226    2772.7526   0.05085007  0.049992868           12 
 4545000   0.53197139   -3.2499959    2773.1398  0.050845981  0.049981491           14 
 4546000   0.51123521   -3.2424951    2780.9419  0.050977818  0.049970077           10 
 4547000   0.53563767   -3.2464957      2770.16  0.050769006  0.049958675           21 
 4548000   0.51675062   -3.2362492     2768.578  0.050728856  0.049947227            9 
 4549000   0.51738509   -3.2701622    2765.4057   0.05065959  0.049935794           14 
 4550000    0.5308994    -3.241882    2772.2133  0.050773138   0.04992439            9 
 4551000   0.51583451   -3.2515579    2771.7058  0.050752688  0.049912994           14 
 4552000   0.51487655   -3.2338346    2769.8373  0.050707332  0.049901634           16 
 4553000   0.54126594   -3.2424965    2771.1661  0.050720516  0.049890183           12 
 4554000   0.52872035   -3.2518079    2768.7022  0.050664291  0.049878764           14 
 4555000   0.53100169   -3.2508158    2772.1313  0.050715903  0.049867334           13 
 4556000   0.52266493   -3.2610122    2766.3389  0.050598825  0.049855898           17 
 4557000   0.52986984   -3.2610063    2771.3687    0.0506797  0.049844475           21 
 4558000   0.52435798    -3.249498    2767.8579  0.050604394  0.049833033            8 
 4559000   0.52275122   -3.2676768    2769.5568  0.050624348  0.049821672           11 
 4560000   0.51849966   -3.2535484    2762.9297  0.050492136  0.049810235           17 
 4561000   0.52380945   -3.2736097    2762.9775   0.05048194   0.04979876            6 
 4562000   0.52812905   -3.2582057    2767.9011  0.050560813  0.049787271            9 
 4563000   0.51778426   -3.2458344    2774.3375  0.050667278  0.049775866            7 
 4564000   0.51930403   -3.2552381    2777.0626  0.050705933  0.049764523           12 
 4565000   0.52762003   -3.2650356    2775.1206  0.050659376  0.049753119           18 
 4566000   0.52284832   -3.2477559    2775.4247  0.050653832  0.049741731           16 
 4567000   0.51400123   -3.2349919    2766.3204  0.050476615  0.049730416           10 
 4568000   0.52268875   -3.2530182    2770.8179  0.050547612  0.049719076           12 
 4569000   0.50647062   -3.2552838    2767.0713  0.050468216  0.049707676            9 
 4570000     0.522016   -3.2623403    2770.3184  0.050516382  0.049696269           16 
 4571000   0.51775229   -3.2535233    2774.8301  0.050587583  0.049684908           21 
 4572000   0.51815209   -3.2457974    2774.9423  0.050578563  0.049673549           10 
 4573000   0.51360468   -3.2516158    2764.6559  0.050380056  0.049662179           15 
 4574000   0.50436236    -3.248225    2773.9342  0.050538081  0.049650797           12 
 4575000   0.52163164   -3.2542569    2767.2661  0.050405575  0.049639434            3 
 4576000   0.51816713   -3.2372866     2771.928  0.050479458  0.049628051           15 
 4577000   0.51975461   -3.2675929    2771.8703  0.050467378  0.049616651            8 
 4578000   0.52389158   -3.2684501    2769.6885  0.050416639  0.049605264            9 
 4579000   0.51392597   -3.2499373    2772.7194  0.050460788   0.04959382           12 
 4580000   0.53627257   -3.2515135     2766.604  0.050338501  0.049582406           26 
 4581000   0.51892994   -3.2535525    2770.3158  0.050395035   0.04957105           13 
 4582000   0.52077742   -3.2555956    2772.9619  0.050432159  0.049559732           16 
 4583000   0.52455765   -3.2558912    2770.4597  0.050375659  0.049548345           10 
 4584000   0.52244281   -3.2618103    2773.1717  0.050413971  0.049536955           14 
 4585000   0.52037236   -3.2597159    2775.4476  0.050444341  0.049525576            8 
 4586000   0.51868887   -3.2447926    2773.4688  0.050397383  0.049514214            7 
 4587000   0.52546365     -3.24884    2770.1471   0.05032605  0.049502862           11 
 4588000   0.52707076   -3.2801118    2774.6692  0.050397217  0.049491517           13 
 4589000   0.50918728   -3.2593759    2772.2129   0.05034163  0.049480118           22 
 4590000   0.51882595   -3.2769266    2777.8347  0.050432729  0.049468775           28 
 4591000   0.51699204   -3.2680453    2768.5275  0.050252804  0.049457376           10 
 4592000    0.5099971   -3.2564297    2771.9019  0.050303098  0.049445985            9 
 4593000   0.52460119   -3.2710114     2775.569  0.050358681  0.049434615            8 
 4594000   0.51898091   -3.2657574    2774.2908  0.050324532  0.049423196           10 
 4595000   0.51804624   -3.2419702    2780.7718  0.050431118  0.049411831           11 
 4596000   0.52258489   -3.2671449     2771.202  0.050246627  0.049400499           15 
 4597000   0.51657949   -3.2524861    2774.2255  0.050290507  0.049389145           19 
 4598000   0.51234215   -3.2647088    2765.3007  0.050117817  0.049377828           16 
 4599000   0.51446224   -3.2671133    2766.0548  0.050120584  0.049366449           13 
 4600000   0.52371385   -3.2692461    2770.8766  0.050197039  0.049355054           14 
 4601000   0.52008707   -3.2736815    2770.6069  0.050181245  0.049343691           25 
 4602000   0.51214247   -3.2654619    2775.8515   0.05026531  0.049332336           54 
 4603000   0.52123174   -3.2817589    2770.5982  0.050159283  0.049320987           13 
 4604000   0.52143055    -3.263501    2766.9258  0.050081918  0.049309609            8 
 4605000   0.51682541    -3.270796     2774.755  0.050212722  0.049298269           12 
 4606000   0.51721543   -3.2646684     2768.585   0.05009019   0.04928685           17 
 4607000   0.51766944   -3.2570555    2769.2348  0.050091072  0.049275556            8 
 4608000   0.51353359   -3.2664194    2771.1888  0.050115539  0.049264233            9 
 4609000   0.51896393   -3.2648348    2773.2317  0.050141602   0.04925293           14 
 4610000    0.5002614   -3.2542249    2775.1068   0.05016462  0.049241614           18 
 4611000   0.50534174   -3.2579267    2771.3515  0.050085872  0.049230329           11 
 4612000   0.50857519   -3.2612237    2765.4408  0.049968213  0.049218999           24 
 4613000   0.52494624   -3.2654586    2775.9325  0.050146913  0.049207669           12 
 4614000   0.51216151   -3.2615423    2777.0258   0.05015579   0.04919638            8 
 4615000   0.50746129   -3.2666862    2772.1395   0.05005669  0.049185079            6 
 4616000   0.50612333   -3.2818328     2771.206  0.050028994  0.049173691           13 
 4617000   0.51902552   -3.2769187    2771.5983  0.050025238  0.049162307           17 
 4618000   0.52845305   -3.2805283     2772.301  0.050027087  0.049150952           13 
 4619000   0.51919392    -3.251538       2774.3  0.050052321  0.049139647           13 
 4620000   0.49738026   -3.2578691    2768.0248  0.049928297  0.049128341           15 
 4621000   0.50423172   -3.2764716    2770.9103  0.049969529  0.049117027            8 
 4622000   0.51616874   -3.2741048    2769.3186   0.04993002  0.049105742           16 
 4623000   0.52330051    -3.289296    2766.4602  0.049867694  0.049094448           14 
 4624000    0.5092341   -3.2658072    2770.1786  0.049923922  0.049083152           18 
 4625000   0.51444409   -3.2670042    2778.1809  0.050057314  0.049071834           17 
 4626000   0.51336463   -3.2695739    2773.6044  0.049964052  0.049060524           23 
 4627000   0.50542385   -3.2886113    2769.9447   0.04988734  0.049049218           10 
 4628000   0.51247711   -3.2745276    2772.3763  0.049920345  0.049037914           19 
 4629000   0.51383613   -3.2864588    2764.8659  0.049774356   0.04902661           17 
 4630000   0.50456699   -3.2779073    2772.1926  0.049895475  0.049015359           13 
 4631000   0.51024532   -3.2564228    2773.9706  0.049916696  0.049004134           10 
 4632000   0.52314054   -3.2691919    2771.7893  0.049866676  0.048992924           11 
 4633000   0.50875708   -3.2746465    2777.8513  0.049964948  0.048981661            7 
 4634000   0.50868525    -3.265328    2781.3236  0.050016609  0.048970463            5 
 4635000   0.52188476    -3.251213    2782.1364  0.050020432  0.048959292           17 
 4636000   0.50532686   -3.2776639    2779.6539  0.049965018  0.048948024           14 
 4637000   0.51341291   -3.2793236     2771.351  0.049805028  0.048936756           20 
 4638000   0.50464197   -3.2666463     2772.715  0.049818798   0.04892546           26 
 4639000    0.5096596   -3.2704721     2776.108  0.049869009   0.04891424           20 
 4640000   0.50497626   -3.2833745    2777.6741  0.049886388  0.048902959           12 
 4641000   0.50728593   -3.2517502    2778.3636  0.049888021  0.048891719           12 
 4642000   0.50251747   -3.2839812    2777.4308  0.049860527  0.048880489            8 
 4643000   0.51105335    -3.279549    2772.7684  0.049766106   0.04886924           30 
 4644000   0.50723463    -3.263934    2778.8071  0.049863751  0.048858057           12 
 4645000   0.51127247   -3.2733438    2777.3385  0.049826669  0.048846879            8 
 4646000   0.51461886   -3.2745126    2774.7111  0.049768817  0.048835724           12 
 4647000   0.50594356   -3.2741683    2780.7307  0.049866055  0.048824503            8 
 4648000   0.49940703   -3.2763438    2764.2635  0.049560089   0.04881329           12 
 4649000   0.51132382   -3.2620327    2771.8417  0.049685268  0.048802086           14 
 4650000   0.49983242   -3.2877589    2772.1615  0.049680314  0.048790889            8 
 4651000   0.49616807    -3.297622    2777.8878  0.049772233  0.048779664            9 
 4652000   0.49349045    -3.285928    2770.5526  0.049630133  0.048768448           12 
 4653000   0.51455186   -3.2682153    2779.8476  0.049785937  0.048757249           17 
 4654000    0.5095817   -3.2889287    2774.7059  0.049683173  0.048746089            9 
 4655000   0.50370407   -3.2844092    2777.0922  0.049715219  0.048734888           28 
 4656000   0.50218744   -3.2756617      2774.68  0.049661369  0.048723667           35 
 4657000   0.51698674   -3.2735389    2777.5934  0.049702838  0.048712553           20 
 4658000   0.50915979    -3.277564    2779.9092  0.049733599  0.048701359           24 
 4659000   0.49756738   -3.2691335    2776.3391  0.049659067  0.048690171           17 
 4660000   0.50402473   -3.2937012    2774.5396  0.049616231  0.048679026           11 
 4661000   0.50894379   -3.2706495    2770.4842  0.049533079  0.048667885            8 
 4662000    0.5120553   -3.2783528    2780.6773  0.049704657  0.048656798            8 
 4663000   0.50542662   -3.2758731    2781.5607  0.049709784  0.048645678           10 
 4664000   0.51166809   -3.2848398    2780.3938  0.049678277  0.048634593           28 
 4665000   0.50276014   -3.2878591    2778.9434  0.049641718  0.048623506           30 
 4666000   0.50716405   -3.2764223    2777.5296   0.04960583  0.048612376           11 
 4667000   0.50103296   -3.2920996    2776.6311  0.049579156  0.048601274           19 
 4668000   0.50970493   -3.2882224    2774.7477  0.049534913  0.048590131           37 
 4669000    0.5036257   -3.2723328    2781.4658   0.04964421  0.048578952           17 
 4670000   0.49829849   -3.3112824    2776.3724   0.04954269  0.048567809           39 
 4671000   0.49965984   -3.2816041    2777.4466  0.049551248  0.048556639           17 
 4672000   0.48179426   -3.2872774    2778.3589  0.049556916  0.048545515           10 
 4673000   0.50425287   -3.2829624    2780.8505  0.049590742  0.048534415            8 
 4674000   0.51989635   -3.2883471    2784.1468  0.049638903  0.048523299           13 
 4675000    0.4897845   -3.2671349    2779.3111  0.049542088  0.048512193            8 
 4676000   0.51180804   -3.2931487    2774.4495  0.049444851  0.048501085           17 
 4677000   0.50363062   -3.2848672    2783.0055  0.049586728      0.04849           14 
 4678000   0.50645976   -3.2815864    2783.2212   0.04957997  0.048478879            9 
 4679000    0.5073138   -3.2846439     2781.002   0.04952985  0.048467787           19 
 4680000   0.51498539   -3.3016699    2782.3805  0.049543812  0.048456674           21 
 4681000   0.48832872     -3.29575    2777.8639  0.049452822  0.048445575           12 
 4682000   0.50773809   -3.2751187    2772.9313  0.049354465  0.048434496           11 
 4683000   0.49794708   -3.2905144    2778.0653  0.049435285  0.048423353           15 
 4684000   0.50034077   -3.2813067    2778.7956  0.049437725  0.048412217           16 
 4685000     0.509386   -3.2757666    2778.3224  0.049418756   0.04840114           14 
 4686000   0.49599812   -3.2883716    2777.4773   0.04939318  0.048390049           11 
 4687000    0.5027585   -3.2996525    2779.5508  0.049419508  0.048378923           20 
 4688000   0.50537596   -3.2980499    2776.1851  0.049349138   0.04836779           12 
 4689000   0.50048198    -3.286202    2779.7383  0.049401762  0.048356697           10 
 4690000   0.50683013   -3.2990322    2774.9672  0.049306453  0.048345677           10 
 4691000   0.49784911   -3.2906092     2776.229  0.049318358  0.048334555           15 
 4692000    0.4997503   -3.3047326    2775.2567  0.049290578  0.048323486           16 
 4693000   0.51222782   -3.2849076    2781.0487  0.049382923   0.04831241           15 
 4694000   0.49949159   -3.2858919    2781.8901  0.049387341  0.048301283            9 
 4695000   0.49287572   -3.2778541    2780.6858  0.049355446  0.048290193            7 
 4696000   0.50941385   -3.2955475    2779.0086  0.049315173  0.048279085            8 
 4697000   0.50016232   -3.2886301    2775.0086  0.049233706  0.048268015           11 
 4698000   0.49120499   -3.2979226     2782.113  0.049349245  0.048256926            6 
 4699000   0.51843559   -3.2791149    2787.0764  0.049426765  0.048245873           28 
 4700000   0.50274833   -3.2819708    2778.8309  0.049270052  0.048234803           18 
 4701000   0.50380158   -3.2911959     2776.643  0.049220787  0.048223671           29 
 4702000   0.50239168   -3.2896558    2778.6403  0.049245717  0.048212558           23 
 4703000   0.49946763   -3.2876734    2781.1804  0.049280254  0.048201441           16 
 4704000   0.49511608   -3.2926482    2783.4809  0.049310532  0.048190289           39 
 4705000   0.50186549   -3.2861506    2775.5144  0.049158951  0.048179215           21 
 4706000   0.49536074   -3.2917863     2778.907   0.04920858  0.048168076            9 
 4707000   0.48927334   -3.2784351    2777.0196  0.049164712  0.048156996           21 
 4708000   0.49915638   -3.3069311    2777.0666  0.049155102  0.048145863           15 
 4709000   0.48881947   -3.2938018    2778.1803  0.049164372  0.048134738           12 
 4710000   0.49367448   -3.3011805    2779.5336  0.049177877  0.048123564           13 
 4711000   0.49501165   -3.2972809    2774.0379  0.049070224  0.048112467            7 
 4712000   0.50370565   -3.2927829    2774.2794  0.049064081   0.04810133           14 
 4713000   0.50022588   -3.2897388    2774.6999  0.049061106  0.048090213           24 
 4714000   0.49292956    -3.273993    2781.1105  0.049164023  0.048079146           12 
 4715000    0.4955777   -3.2805242    2776.1403  0.049065753  0.048068073           26 
 4716000   0.49977894   -3.2982628    2772.9128  0.048998318  0.048056983           13 
 4717000   0.49324551    -3.281669    2776.5049   0.04905139  0.048045952           26 
 4718000   0.50069208   -3.2873722    2785.1752  0.049194136  0.048034893            8 
 4719000   0.50487602   -3.2850551    2777.9554  0.049056216  0.048023806           12 
 4720000   0.49565941   -3.2911389    2789.4232   0.04924829  0.048012798           21 
 4721000    0.5024059   -3.2841738    2785.8839  0.049175384  0.048001757           21 
 4722000   0.49726943   -3.2960911    2777.8306  0.049022847  0.047990717           12 
 4723000   0.51187361   -3.2951883    2777.1035  0.048999639  0.047979682           11 
 4724000   0.49355651   -3.2985866    2778.2895  0.049010187  0.047968641           13 
 4725000   0.49261019   -3.2993383     2778.189  0.048998042  0.047957546           19 
 4726000   0.49554557   -3.3011168    2780.2995  0.049024889  0.047946478           25 
 4727000   0.49694656   -3.3103974    2774.4196  0.048910859  0.047935366           39 
 4728000   0.49486191   -3.3002254    2777.2846  0.048951011  0.047924258           20 
 4729000   0.49900404   -3.2950187     2774.485  0.048891326  0.047913172           13 
 4730000   0.49649637   -3.2937912    2775.7516  0.048903305  0.047902077           12 
 4731000   0.48839805    -3.305806    2775.9874  0.048897122  0.047890934           14 
 4732000   0.50857951   -3.3110881    2780.5604  0.048967321  0.047879864           30 
 4733000   0.49846019   -3.2942507    2777.4981  0.048903058  0.047868791           11 
 4734000   0.49642028   -3.2897297     2775.037  0.048849406  0.047857696           11 
 4735000   0.49626875   -3.3077167    2774.7455  0.048833958  0.047846586            9 
 4736000   0.48409185   -3.3013646    2781.9563  0.048950527  0.047835523            9 
 4737000   0.49056388   -3.3100043    2778.9436  0.048887194  0.047824471           10 
 4738000   0.49303765   -3.3111483    2777.2248  0.048846644  0.047813383           12 
 4739000   0.50614919   -3.3035011    2773.2394  0.048766255  0.047802283           15 
 4740000   0.49749276   -3.2874073    2771.7702  0.048730136  0.047791251           21 
 4741000   0.49850754   -3.3050519    2780.2548  0.048868994  0.047780207            5 
 4742000   0.48617053   -3.2904334    2776.5746  0.048794015   0.04776914           17 
 4743000   0.48232083   -3.3103709    2783.2607    0.0489012  0.047758065           12 
 4744000   0.48547495    -3.307274    2778.6056  0.048809121  0.047746988           13 
 4745000   0.49369247   -3.2973171    2774.0631  0.048719056  0.047735888           14 
 4746000    0.4936739    -3.307629    2776.6126  0.048753557  0.047724795           12 
 4747000   0.49828415   -3.3063242    2781.4304  0.048827863  0.047713703           10 
 4748000    0.4903738   -3.2888489    2780.3699  0.048798967  0.047702657           16 
 4749000   0.48802101   -3.3112495    2778.5804   0.04875729  0.047691665            6 
 4750000    0.4937663   -3.3092978    2780.5956  0.048782379  0.047680625            7 
 4751000   0.48606575   -3.2804214    2779.3694  0.048750604  0.047669612           19 
 4752000   0.48538772     -3.29318     2777.402  0.048705843  0.047658586           20 
 4753000   0.49441015   -3.2980716    2775.0197  0.048653828  0.047647594           11 
 4754000   0.50292762   -3.3257818    2781.5636  0.048758302  0.047636537           22 
 4755000   0.48520136   -3.3128768    2783.1532  0.048775906  0.047625498           17 
 4756000   0.49097926   -3.2964903      2781.46  0.048735982  0.047614497           12 
 4757000   0.49203439   -3.3171155    2775.6696  0.048624301  0.047603472           19 
 4758000   0.49253225   -3.3096779    2768.9908  0.048497107  0.047592405           10 
 4759000    0.5016602   -3.3092271    2782.1021  0.048716504  0.047581399           19 
 4760000    0.4855746   -3.2943572    2781.2167  0.048690769  0.047570377           11 
 4761000   0.49173616   -3.3196006    2774.5338  0.048563569  0.047559368           20 
 4762000   0.49171638   -3.3097258    2779.8183  0.048645847  0.047548353           11 
 4763000   0.49052019   -3.3211143    2780.7035  0.048651121  0.047537325           32 
 4764000   0.49269453   -3.3016834    2777.5745  0.048586176  0.047526327           19 
 4765000   0.49296043   -3.3064686    2772.0587  0.048479515  0.047515346           21 
 4766000   0.47965159   -3.3155842    2779.1124  0.048592677  0.047504352           15 
 4767000   0.48140454   -3.3046685    2778.9162  0.048579054  0.047493327           17 
 4768000   0.49313384   -3.3085632    2777.4462  0.048543173  0.047482304           11 
 4769000   0.48782596   -3.3125569    2785.8239  0.048679385   0.04747128           18 
 4770000   0.49358661   -3.3141398    2776.9916  0.048514877  0.047460246           15 
 4771000   0.47878594   -3.3057647    2784.8778  0.048642454  0.047449246           12 
 4772000   0.48759344   -3.3213907    2775.3915  0.048466602  0.047438275            8 
 4773000   0.48626585   -3.3083343    2783.1918  0.048592636  0.047427279           25 
 4774000   0.47673695   -3.3293503    2783.6736  0.048590867  0.047416285           30 
 4775000     0.497735   -3.3027543    2781.5341  0.048543352  0.047405318           43 
 4776000    0.5004415   -3.3121185    2782.2756  0.048546127  0.047394337           18 
 4777000   0.48060147   -3.3032468    2788.0983  0.048637538  0.047383433           24 
 4778000   0.48372559   -3.3135803     2779.935  0.048484984  0.047372555           12 
 4779000    0.4859123   -3.2914313    2783.1658  0.048531175  0.047361631           20 
 4780000    0.4765674   -3.3077178    2779.4054  0.048455464  0.047350675            9 
 4781000   0.48874528   -3.3069575    2779.4713  0.048446477  0.047339755           13 
 4782000   0.48368817   -3.2834176    2784.1042  0.048517082  0.047328829           15 
 4783000   0.48201972   -3.3153456    2786.7641  0.048553281  0.047317977           33 
 4784000   0.48539967   -3.3083597    2787.3973  0.048554162  0.047307073            9 
 4785000   0.49328393   -3.3190454    2782.2312  0.048454043  0.047296162           24 
 4786000   0.48252607   -3.3042349    2781.8157  0.048436685  0.047285269           14 
 4787000   0.49705222   -3.3059264    2782.6172   0.04844052  0.047274352           15 
 4788000   0.47943406   -3.3209005    2782.3514  0.048425777  0.047263437           28 
 4789000   0.47929039   -3.3042612    2783.8258   0.04844132  0.047252549           18 
 4790000   0.48143859   -3.3003198     2781.554  0.048391685   0.04724164           11 
 4791000    0.4854492   -3.3144844    2783.2989  0.048411934  0.047230779           18 
 4792000   0.48380106   -3.3157162    2780.2686  0.048349134  0.047219905           22 
 4793000   0.48342709   -3.3085297    2785.5369  0.048430644  0.047209034           50 
 4794000   0.48031907   -3.3129359    2788.9992  0.048480726  0.047198145           37 
 4795000   0.47591318   -3.3196696    2782.4367  0.048356564  0.047187285           36 
 4796000   0.48005101   -3.3210711    2786.5647  0.048418207  0.047176427           36 
 4797000   0.48954344   -3.3109694    2785.0675  0.048382105  0.047165557           20 
 4798000   0.48348345   -3.3148406    2786.8055  0.048402208   0.04715467           10 
 4799000   0.47927928   -3.3059103    2779.9799  0.048273596   0.04714383           10 
 4800000   0.48242562   -3.3027849    2779.1589  0.048249287  0.047132944           14 
 4801000   0.48440345   -3.3069632    2777.3672  0.048208138  0.047122032           10 
 4802000   0.47880182   -3.3122393    2782.2688   0.04828316  0.047111116           11 
 4803000   0.47648775   -3.3092616    2777.0284  0.048182185  0.047100226            8 
 4804000   0.48580618   -3.3030495    2777.6829  0.048183509  0.047089301            8 
 4805000   0.48003888   -3.3173064    2775.4869  0.048135395  0.047078404           13 
 4806000   0.48465592   -3.3089051    2787.5805  0.048335076  0.047067509           13 
 4807000   0.48633477   -3.3216445    2778.2307  0.048162934  0.047056627           11 
 4808000   0.49305644   -3.3207375    2776.5267  0.048123382  0.047045687           19 
 4809000    0.4892731   -3.3294484    2778.4687  0.048147027  0.047034786           22 
 4810000   0.49158542   -3.3033149    2779.4596  0.048154186  0.047023924            7 
 4811000   0.47361625   -3.3197438    2784.2682  0.048227469  0.047013073            7 
 4812000   0.48191189   -3.3311004    2784.8899  0.048228213  0.047002176           11 
 4813000   0.47850917   -3.3245528     2782.449   0.04817593  0.046991272           17 
 4814000   0.49065234   -3.3206631    2782.6097  0.048168704  0.046980407           14 
 4815000   0.47546166   -3.3397903    2781.9925  0.048148018  0.046969487           14 
 4816000   0.48527187   -3.3249783    2773.5333  0.047991648  0.046958572           17 
 4817000   0.47054156   -3.3100437     2786.564  0.048207113  0.046947684           15 
 4818000   0.47694799   -3.3255775    2782.2783  0.048122981  0.046936806           24 
 4819000   0.48028294   -3.3261813    2780.5188  0.048082569   0.04692594           26 
 4820000    0.4785567   -3.3343081    2775.7779  0.047990627   0.04691505           17 
 4821000   0.47891212   -3.3276594    2786.1989  0.048160806  0.046904116           23 
 4822000   0.47960413   -3.3322135    2787.6248  0.048175461  0.046893211           31 
 4823000   0.47754246   -3.3295963    2783.8029  0.048099435  0.046882344           20 
 4824000   0.47775306   -3.3219968    2777.7208  0.047984397   0.04687146            9 
 4825000   0.48238765   -3.3371176    2788.1042  0.048153786  0.046860635           22 
 4826000   0.47133642   -3.3172649     2785.757  0.048103277  0.046849828           28 
 4827000   0.48105627   -3.3065641    2780.5394  0.048003235  0.046838995           13 
 4828000   0.49140215   -3.3253521    2782.2628  0.048023039  0.046828213           15 
 4829000   0.47607857   -3.3246543     2784.904  0.048058674  0.046817439           24 
 4830000   0.48296283   -3.3040011    2786.1928  0.048070959  0.046806674           31 
 4831000    0.4811994   -3.3297825    2782.8805  0.048003872  0.046795902           22 
 4832000   0.47998795   -3.3181586    2776.4044   0.04788225  0.046785105           28 
 4833000   0.47140391   -3.3169056    2783.3754  0.047992541  0.046774294           38 
 4834000    0.4953952   -3.3052348    2787.4424  0.048052725   0.04676352           23 
 4835000   0.48151858     -3.32899    2784.1037  0.047985241  0.046752758           22 
 4836000   0.47161528   -3.3139469    2784.4256  0.047980867  0.046741983           18 
 4837000   0.48160525   -3.3318616     2787.419  0.048022518  0.046731182           10 
 4838000   0.48059726   -3.3344045    2781.1588  0.047904761    0.0467204           12 
 4839000   0.48016607   -3.3302772     2781.709  0.047904337  0.046709565           30 
 4840000   0.47996161   -3.3167113    2781.1475   0.04788477  0.046698749            8 
 4841000   0.47861736   -3.3223567      2784.93  0.047939992  0.046687982            8 
 4842000   0.47839892   -3.3314234     2789.069  0.048001326  0.046677199           17 
 4843000   0.47149626    -3.318545    2785.6502  0.047932587  0.046666444           21 
 4844000   0.49335428   -3.3225786    2783.5417  0.047886418  0.046655712           24 
 4845000   0.46942119    -3.346107    2782.2333  0.047854031  0.046644926           17 
 4846000   0.48243776   -3.3417232    2782.8323  0.047854455  0.046634142           22 
 4847000   0.48277685   -3.3285979    2788.2284  0.047937357  0.046623426           13 
 4848000   0.47230078   -3.3167514    2786.6027  0.047899524  0.046612693           12 
 4849000   0.48749534   -3.3450331    2779.6445  0.047770063  0.046601907           19 
 4850000   0.48149775    -3.323545    2781.4108  0.047790563  0.046591078           13 
 4851000   0.46612385   -3.3231284    2782.5157  0.047799692  0.046580279           15 
 4852000    0.4800066   -3.3306893     2781.097  0.047765474  0.046569487           16 
 4853000   0.46309133   -3.3358271      2784.14  0.047807886  0.046558742           32 
 4854000   0.47235042   -3.3282987    2792.6829  0.047944701  0.046547997           33 
 4855000   0.46820826    -3.329891    2784.8531  0.047800432  0.046537288           14 
 4856000    0.4871929   -3.3271461    2784.0099  0.047776117  0.046526532           12 
 4857000   0.46483496   -3.3163455    2781.0009  0.047714654    0.0465158           65 
 4858000   0.47068767   -3.3383473     2787.053  0.047808648  0.046505024           14 
 4859000   0.47335888    -3.342605    2782.9482  0.047728411  0.046494247           12 
 4860000   0.46442791   -3.3419546    2787.3122  0.047793419   0.04648352           22 
 4861000   0.46210506    -3.326473    2778.1085  0.047625806  0.046472792           29 
 4862000   0.47970233   -3.3464051    2780.7643   0.04766153  0.046462037           20 
 4863000   0.47417523   -3.3362206    2783.4579  0.047697887  0.046451309           24 
 4864000   0.47766477   -3.3317416    2791.0732  0.047818551  0.046440606           13 
 4865000   0.47277035   -3.3538629     2786.673   0.04773335  0.046429879           13 
 4866000   0.47570739   -3.3428018    2783.6066  0.047671027   0.04641909           17 
 4867000    0.4643459   -3.3513341    2781.6559  0.047627832  0.046408311           16 
 4868000   0.47688881   -3.3328718    2785.0737  0.047676556  0.046397556           28 
 4869000   0.47012903   -3.3228548    2782.9012  0.047629581  0.046386826           17 
 4870000   0.47394577   -3.3542287    2783.1498  0.047624055  0.046376085           23 
 4871000   0.47698032    -3.343513    2786.8241  0.047677139    0.0463653           11 
 4872000   0.46840559   -3.3409935    2782.6435  0.047595846  0.046354525           23 
 4873000   0.46902626    -3.364439    2789.4186  0.047701939  0.046343759           22 
 4874000   0.47323074   -3.3429194    2784.3001  0.047604639  0.046333035           56 
 4875000    0.4642036   -3.3330444    2787.4098  0.047648031  0.046322309           20 
 4876000   0.47408207   -3.3373105    2785.3087   0.04760235  0.046311614           33 
 4877000   0.47419219   -3.3333287    2787.9723  0.047638102  0.046300904            9 
 4878000   0.46229988   -3.3405502    2780.6609  0.047503432  0.046290202           17 
 4879000   0.48059826    -3.332611    2783.6313   0.04754443  0.046279463           24 
 4880000   0.48016845    -3.337677    2779.1341  0.047457891  0.046268766           14 
 4881000   0.46562274   -3.3303693    2783.0071  0.047514292  0.046258055           12 
 4882000   0.48264969    -3.346072    2786.7314  0.047568131  0.046247351           40 
 4883000   0.47174129   -3.3412424    2782.7112  0.047489781  0.046236631           14 
 4884000   0.46597521    -3.340102    2779.1839  0.047419872  0.046225911           24 
 4885000   0.47566525   -3.3361727    2779.0892  0.047408551   0.04621518           28 
 4886000   0.47612852   -3.3286781    2778.7786   0.04739355  0.046204466           36 
 4887000   0.46654555   -3.3433907    2783.7198   0.04746811  0.046193786           35 
 4888000   0.47317727   -3.3505541    2784.9487  0.047479349  0.046183073           13 
 4889000   0.46655502   -3.3270877    2786.1177  0.047489563  0.046172375           15 
 4890000   0.46223726   -3.3503381    2787.5074  0.047503534  0.046161665           28 
 4891000   0.45702282    -3.336729    2781.8511   0.04739745  0.046150913           31 
 4892000   0.46908276   -3.3420498    2785.0407  0.047442095  0.046140137           18 
 4893000   0.46212809   -3.3674786    2783.8723  0.047412499  0.046129376           14 
 4894000   0.46826833    -3.361517    2776.9227  0.047284476  0.046118593           28 
 4895000   0.47407528   -3.3537496    2772.2975  0.047196076  0.046107774           35 
 4896000   0.46807127   -3.3576974    2778.7684  0.047296575  0.046097013           24 
 4897000   0.48042819   -3.3468942    2783.5206  0.047367786  0.046086247           27 
 4898000    0.4664399   -3.3430382    2781.7889  0.047328653  0.046075503           20 
 4899000   0.46721471   -3.3364148    2783.5264  0.047348548  0.046064756           36 
 4900000   0.44964069   -3.3393364    2780.9958  0.047295846  0.046054068           59 
 4901000   0.46266515   -3.3329066    2785.2979  0.047359347  0.046043374           10 
 4902000   0.46705841   -3.3404278    2776.0323  0.047192172  0.046032658           32 
 4903000   0.46721074   -3.3516276    2777.9506   0.04721515  0.046021859           21 
 4904000   0.46397371   -3.3458929    2782.1995  0.047277724   0.04601111           36 
 4905000   0.48060664   -3.3403296    2784.3272  0.047304234  0.046000376           18 
 4906000   0.46804507   -3.3499536     2778.926  0.047202848  0.045989662           19 
 4907000   0.46054606   -3.3357906    2781.0949  0.047230061  0.045978951           19 
 4908000   0.47581616    -3.352372    2784.4847  0.047277993  0.045968234           27 
 4909000   0.45759401   -3.3456538    2790.5779  0.047371799  0.045957549           39 
 4910000   0.46738055   -3.3493969    2786.0188  0.047284773  0.045946831           29 
 4911000   0.46426606   -3.3511365    2777.5276   0.04713106  0.045936069           41 
 4912000   0.47207576   -3.3499862    2778.7182  0.047141663  0.045925327           23 
 4913000   0.47742852   -3.3458469    2785.7949  0.047252102  0.045914563           53 
 4914000   0.46501652   -3.3409186     2785.194  0.047232295  0.045903862           34 
 4915000   0.47118433   -3.3513972    2783.4652  0.047193374   0.04589315           17 
 4916000   0.47005822   -3.3367674     2782.145  0.047161394  0.045882478           13 
 4917000   0.45965826   -3.3402903    2780.8611  0.047130044  0.045871785           11 
 4918000   0.46791137   -3.3441889    2784.0094  0.047173806  0.045861114           31 
 4919000   0.46694471   -3.3647928     2788.443  0.047239327  0.045850405           27 
 4920000    0.4659791   -3.3529683    2782.8784  0.047135474  0.045839678           37 
 4921000   0.47539383   -3.3409944    2785.9973  0.047178712  0.045828983           17 
 4922000   0.47478822   -3.3555745    2785.2819  0.047157015  0.045818321           37 
 4923000   0.46019342   -3.3494077    2791.3578  0.047250285  0.045807652           40 
 4924000    0.4680372   -3.3412211    2789.1012  0.047202498  0.045796999           32 
 4925000   0.45696431   -3.3402366    2781.9459  0.047071843  0.045786358           27 
 4926000   0.46420189   -3.3491471    2787.1753  0.047150753  0.045775735           19 
 4927000   0.47128875   -3.3504235    2776.9647  0.046968485  0.045765087           21 
 4928000   0.46228286   -3.3505287    2781.2294  0.047031071  0.045754436           11 
 4929000   0.46141409   -3.3401399    2780.4754  0.047008781  0.045743784           19 
 4930000   0.46709734   -3.3541267     2781.886   0.04702309  0.045733126           47 
 4931000   0.46153615   -3.3513318    2779.4315  0.046972073  0.045722417           38 
 4932000   0.46667529   -3.3564734    2785.6116   0.04706697  0.045711789           20 
 4933000   0.46563712   -3.3388362    2789.1611  0.047117391  0.045701116           21 
 4934000    0.4702281    -3.353065    2783.0718  0.047004997   0.04569045           33 
 4935000   0.45732693   -3.3516416    2779.8609  0.046941251    0.0456798           33 
 4936000   0.46028675   -3.3421828    2781.2961  0.046955971  0.045669138           11 
 4937000   0.45921959   -3.3571263    2786.9797  0.047042396  0.045658466           19 
 4938000   0.45960639   -3.3549287    2783.0933  0.046967283  0.045647767           22 
 4939000    0.4592522   -3.3581816    2781.0683  0.046923606  0.045637054           52 
 4940000   0.45388816   -3.3559632    2782.5392   0.04693892  0.045626372           21 
 4941000   0.46527697   -3.3555176    2778.2155  0.046856499  0.045615693           11 
 4942000   0.46447093   -3.3681467    2781.2309  0.046897864  0.045605027           17 
 4943000   0.45190411   -3.3441618    2781.9195  0.046899984  0.045594341           15 
 4944000   0.46362282   -3.3466782     2780.792  0.046871493  0.045583666           13 
 4945000   0.46371034   -3.3604842     2779.743  0.046844338  0.045572997           12 
 4946000    0.4588839   -3.3538911    2787.0127   0.04695735  0.045562319           19 
 4947000   0.45652272   -3.3501921     2785.588  0.046923859  0.045551667           21 
 4948000   0.44757405   -3.3615036    2789.7601  0.046984641  0.045541025           13 
 4949000   0.46020997   -3.3414307    2785.3141  0.046900285  0.045530417           11 
 4950000   0.45817376   -3.3437621    2783.2607  0.046856241  0.045519779           30 
 4951000   0.46866682    -3.362819    2786.1571  0.046895529  0.045509107           20 
 4952000   0.45468145   -3.3615353    2788.2282  0.046920911  0.045498462           13 
 4953000   0.46487254   -3.3524564    2782.6865  0.046818199   0.04548784           33 
 4954000   0.46299361   -3.3505247    2784.5346  0.046839836  0.045477249           11 
 4955000   0.45368888   -3.3475683    2776.5601  0.046696268  0.045466624           10 
 4956000   0.46299572   -3.3654603    2781.8183  0.046775261  0.045455977           21 
 4957000    0.4559843   -3.3498028    2786.7978  0.046849537  0.045445341           37 
 4958000   0.45505031    -3.346022    2788.0597  0.046861296   0.04543472           17 
 4959000   0.46983232   -3.3606395    2785.4816  0.046808523  0.045424115           16 
 4960000   0.46027384   -3.3582059    2774.4532  0.046613798  0.045413477           23 
 4961000   0.45745046   -3.3606257    2778.8068  0.046677531  0.045402809           25 
 4962000   0.45282925    -3.373119    2779.9275  0.046686945  0.045392145           23 
 4963000   0.46244041   -3.3696264    2784.5792  0.046755644  0.045381471           39 
 4964000   0.45691399   -3.3662068     2777.596  0.046628996  0.045370793           10 
 4965000   0.45820641   -3.3646472    2776.2633  0.046597235  0.045360139           18 
 4966000   0.46403566   -3.3456832     2783.209  0.046704407  0.045349517           22 
 4967000   0.45847196   -3.3463181    2777.7033  0.046602632  0.045338859           29 
 4968000   0.45677696    -3.349453    2777.7449   0.04659395  0.045328258           11 
 4969000   0.45204177   -3.3823449    2783.9438  0.046688533  0.045317642           28 
 4970000   0.46325785   -3.3634465    2782.9368  0.046662253  0.045307005           23 
 4971000   0.45939155    -3.359592    2788.0058  0.046737843  0.045296419           22 
 4972000   0.46586628   -3.3702433    2776.6185  0.046537585  0.045285771           29 
 4973000   0.45939431   -3.3718935    2781.6545  0.046612617  0.045275145           14 
 4974000   0.45738476    -3.357084     2778.966  0.046558202  0.045264523           13 
 4975000   0.45768354   -3.3591159    2781.1558  0.046585524  0.045253924           20 
 4976000   0.45931209   -3.3817658    2779.6919  0.046551646  0.045243267           17 
 4977000   0.46295453   -3.3695289    2777.0266  0.046497666  0.045232622           30 
 4978000   0.45027446   -3.3816309    2782.3385  0.046577248   0.04522195           71 
 4979000   0.44737659   -3.3927941    2777.4189  0.046485555   0.04521128           37 
 4980000   0.45114838   -3.3813672    2775.0547  0.046436658  0.045200591           36 
 4981000   0.45326358   -3.3726232    2774.1124  0.046411571  0.045189925           18 
 4982000   0.44804367   -3.3666978    2780.2276  0.046504543  0.045179257           46 
 4983000   0.46381471   -3.3796145    2781.2433  0.046512197  0.045168584           25 
 4984000   0.46091861   -3.3500353    2777.6699  0.046443117  0.045157939           40 
 4985000   0.45579642   -3.3772191    2777.9252  0.046438067  0.045147296           74 
 4986000   0.46121128    -3.378354    2777.6512  0.046424175  0.045136636           56 
 4987000   0.45134603   -3.3576803    2783.8162  0.046517883  0.045126006           20 
 4988000   0.45779625   -3.3612652    2779.9354  0.046443721  0.045115373           54 
 4989000    0.4581187   -3.3581808    2778.6094  0.046412263  0.045104791           46 
 4990000   0.45418616   -3.3677123    2782.3502  0.046465435   0.04509419           72 
 4991000   0.44586723   -3.3606281    2787.6974  0.046545405  0.045083583           20 
 4992000   0.45905716   -3.3757033    2784.7498  0.046486875  0.045072969           30 
 4993000   0.45674721   -3.3700905    2787.8201  0.046528809  0.045062381           17 
 4994000   0.45251287   -3.3605495    2785.9899  0.046488952  0.045051785           77 
 4995000   0.46602766   -3.3875979    2776.9764  0.046329269   0.04504118           32 
 4996000   0.44821705   -3.3746812    2776.9927  0.046320267  0.045030549           32 
 4997000   0.45716902   -3.3696455    2776.7585  0.046307092  0.045019927           28 
 4998000   0.45149943   -3.3812551    2779.5434   0.04634426  0.045009275           97 
 4999000   0.45280206   -3.3850111    2777.5525  0.046301801  0.044998633           53 
 5000000    0.4492619   -3.3832596    2779.6409  0.046327348  0.044987965           44 
 5001000   0.44167622   -3.3773694    2779.6716  0.046318596  0.044977302           30 
 5002000    0.4542444   -3.3770435    2782.2889   0.04635294   0.04496668           13 
 5003000   0.46086611    -3.371519    2779.9135   0.04630411  0.044956073           12 
 5004000   0.45222447   -3.3768897    2782.5122  0.046338132  0.044945479           14 
 5005000   0.44643535   -3.3712207    2777.1632  0.046239814  0.044934897           12 
 5006000   0.44973995   -3.3706807    2778.4444  0.046251905  0.044924318           23 
 5007000   0.44627143   -3.3692528    2773.9872  0.046168485  0.044913757           18 
 5008000   0.44805252     -3.37694    2782.6891  0.046304065  0.044903175           22 
 5009000    0.4464826   -3.3796259    2783.9035  0.046315024  0.044892559           40 
 5010000   0.45610175   -3.3684991    2783.0324   0.04629129  0.044881933           42 
 5011000   0.45110558    -3.366285    2787.4817  0.046356045  0.044871348           28 
 5012000   0.45450625   -3.3802177    2784.3941  0.046295459  0.044860768           18 
Loop time of 12001.4 on 48 procs for 5000000 steps with 4000 atoms

Performance: 71991.560 tau/day, 416.618 timesteps/s
99.4% CPU use with 48 MPI tasks x no OpenMP threads

MPI task timing breakdown:
Section |  min time  |  avg time  |  max time  |%varavg| %total
---------------------------------------------------------------
Pair    | 800.16     | 845.17     | 894.13     |  81.7 |  7.04
Neigh   | 80.625     | 83.885     | 86.663     |  18.4 |  0.70
Comm    | 772.07     | 821.55     | 868.53     |  84.7 |  6.85
Output  | 15.608     | 15.613     | 15.699     |   0.3 |  0.13
Modify  | 10115      | 10131      | 10145      |   7.5 | 84.42
Other   |            | 104        |            |       |  0.87

Nlocal:        83.3333 ave          92 max          76 min
Histogram: 2 1 4 14 8 6 7 4 0 2
Nghost:        2160.33 ave        2186 max        2139 min
Histogram: 3 5 7 6 4 10 5 4 3 1
Neighs:        14276.4 ave       15406 max       13153 min
Histogram: 5 3 6 6 2 8 4 7 3 4
FullNghs:      28553.7 ave       31698 max       25717 min
Histogram: 2 1 3 10 16 3 7 4 0 2

Total # of neighbors = 1370576
Ave neighs/atom = 342.64400
Neighbor list builds = 271634
Dangerous builds = 0

#clear
#
#next RN
#
#jump SELF
Total wall time: 3:20:04
