
units lj                  # Use reduced LJ style units
atom_style atomic         # Uncharged point particles
atom_modify map hash      # Needed for indexing of clusters etc
                          # Used to be able to find where atoms are in relation to each other.

lattice fcc 1.0 spacing 1 1 1
Lattice spacing in x,y,z = 1.5874011 1.5874011 1.5874011
region box block 0 10 0 10 0 10 units lattice
create_box 2 box
Created orthogonal box = (0.0000000 0.0000000 0.0000000) to (15.874011 15.874011 15.874011)
  3 by 4 by 4 MPI processor grid
create_atoms 1 box
Created 4000 atoms
  using lattice units in orthogonal box = (0.0000000 0.0000000 0.0000000) to (15.874011 15.874011 15.874011)
  create_atoms CPU = 0.002 seconds
set type 1 type/fraction 2 0.59 78393
Setting atom values ...
  2375 settings made for type/fraction
mass 1 1.0
mass 2 1.0
pair_style lj/cut  3.5
pair_modify tail  yes
pair_coeff 1  1  1.0  1.0   # Intearaction between 1 and 1 set with epsilon = 1 and sigma = 1
pair_coeff 1  2  1.5  0.8
pair_coeff 2  2  0.5  0.88

write_data data.0
System init for write_data ...
Neighbor list info ...
  update every 1 steps, delay 10 steps, check yes
  max neighbors/atom: 2000, page size: 100000
  master list distance cutoff = 3.8
  ghost atom cutoff = 3.8
  binsize = 1.9, bins = 9 9 9
  1 neighbor lists, perpetual/occasional/extra = 1 0 0
  (1) pair lj/cut, perpetual
      attributes: half, newton on
      pair build: half/bin/atomonly/newton
      stencil: half/bin/3d
      bin: standard
WARNING: Not all mixed pair coeffs generated from mixing. Use write_data with 'pair ij' option to store all pair coeffs. (../write_data.cpp:312)


#############################
#   M E L T   S Y S T E M   #
#############################

velocity all create 2.4 5300450 mom yes dist gaussian # Assign velocities
                                                    # Temperature 2.4, random number seed, zero linear momentum
                                                                                # Gaussian distribution

timestep 0.002   # simulation timestep
thermo 1000       # output thermodynamic data every 1000 steps bf 100

# Define a fix  in this case with index 1 applied to all
# particles in the simulation. This fix is for simulations
# in the anisotropic NPT ensemble. Note that we use the MTK
# correction.
fix 1 all npt temp 2.4 2.4 0.1 iso 5.68 5.68 0.5 mtk yes tchain 5 pchain 5 # Use NPT ensemble
                                                                         # Set temperature and pressure and damping
                                                                         # Numbers of thermostats in chain and in barostat
run 10000          # run for 10000 steps
Per MPI rank memory allocation (min/avg/max) = 3.642 | 3.644 | 3.648 Mbytes
Step Temp E_pair E_mol TotEng Press Volume 
       0          2.4   -4.7762807            0   -1.1771807   -4.0862689         4000 
    1000    2.3900977   -4.4663211            0  -0.88207092    5.7640734    3643.1221 
    2000    2.3804331   -4.4587237            0  -0.88896671     5.684317    3657.1489 
    3000    2.3787394   -4.5712913            0   -1.0040742    5.6555383    3586.4361 
    4000     2.398093   -4.5147285            0  -0.91848817    5.9436246    3601.2769 
    5000    2.4362591   -4.5016314            0  -0.84815635    5.6577235    3624.4519 
    6000    2.3910246   -4.5529262            0  -0.96728597    5.4112758     3617.667 
    7000    2.3637404   -4.5493894            0   -1.0046653    5.3060761    3631.4633 
    8000    2.4282049   -4.5621234            0   -0.9207267    5.7532043    3589.8178 
    9000    2.3968093   -4.5624733            0  -0.96815813    6.0613793    3561.1145 
   10000    2.4094003   -4.4055782            0  -0.79238127    5.6863046    3675.9627 
Loop time of 2.77067 on 48 procs for 10000 steps with 4000 atoms

Performance: 623676.775 tau/day, 3609.241 timesteps/s
99.6% CPU use with 48 MPI tasks x no OpenMP threads

MPI task timing breakdown:
Section |  min time  |  avg time  |  max time  |%varavg| %total
---------------------------------------------------------------
Pair    | 1.2385     | 1.284      | 1.4152     |   2.4 | 46.34
Neigh   | 0.21728    | 0.22579    | 0.25382    |   1.1 |  8.15
Comm    | 0.84151    | 0.94336    | 1.0153     |   4.4 | 34.05
Output  | 0.000259   | 0.00026392 | 0.00033815 |   0.0 |  0.01
Modify  | 0.23426    | 0.30137    | 0.35809    |   7.2 | 10.88
Other   |            | 0.01589    |            |       |  0.57

Nlocal:        83.3333 ave          93 max          75 min
Histogram: 2 1 10 9 5 6 7 6 1 1
Nghost:        1737.85 ave        1764 max        1713 min
Histogram: 3 6 2 6 8 5 8 7 1 2
Neighs:        10390.7 ave       11629 max        8814 min
Histogram: 1 0 2 10 6 7 7 11 2 2

Total # of neighbors = 498754
Ave neighs/atom = 124.68850
Neighbor list builds = 904
Dangerous builds = 199

# Equilibrate just above the melting temperature to avoid step fn in T

fix 1 all npt temp 1.25 1.25 0.1 iso 5.68 5.68 0.5 mtk yes tchain 5 pchain 5
run 2000
Per MPI rank memory allocation (min/avg/max) = 3.644 | 3.646 | 3.650 Mbytes
Step Temp E_pair E_mol TotEng Press Volume 
   10000    2.4094003   -4.4055782            0  -0.79238127    5.6863046    3675.9627 
   11000    1.2455966   -6.5926368            0   -4.7247089    5.6330948    2781.1717 
   12000    1.2745336   -6.6840839            0   -4.7727614    5.8651999    2751.1239 
Loop time of 0.675695 on 48 procs for 2000 steps with 4000 atoms

Performance: 511473.491 tau/day, 2959.916 timesteps/s
99.6% CPU use with 48 MPI tasks x no OpenMP threads

MPI task timing breakdown:
Section |  min time  |  avg time  |  max time  |%varavg| %total
---------------------------------------------------------------
Pair    | 0.30351    | 0.32885    | 0.38084    |   2.4 | 48.67
Neigh   | 0.041752   | 0.044716   | 0.053651   |   0.9 |  6.62
Comm    | 0.19269    | 0.25144    | 0.2846     |   3.2 | 37.21
Output  | 5.426e-05  | 5.5311e-05 | 7.1614e-05 |   0.0 |  0.01
Modify  | 0.039198   | 0.045133   | 0.051021   |   1.6 |  6.68
Other   |            | 0.005504   |            |       |  0.81

Nlocal:        83.3333 ave          89 max          77 min
Histogram: 2 7 2 4 1 16 4 3 5 4
Nghost:        2111.73 ave        2124 max        2091 min
Histogram: 1 0 2 5 8 7 8 3 4 10
Neighs:        13879.9 ave       15281 max       12166 min
Histogram: 1 2 5 5 5 12 5 3 6 4

Total # of neighbors = 666235
Ave neighs/atom = 166.55875
Neighbor list builds = 144
Dangerous builds = 16

#############################
# L I N E A R  Q U E N C H  #
#############################

# Define solid atoms. This closely follows ten Wolde  Ruiz-Montero and Frenkel  Faraday Discuss  1996  104  93-110
# Compute components of the per-atom q6 vector
compute q6 all orientorder/atom degrees 1 6 components 6 nnn NULL cutoff 1.3 # compute the Q6 parameter.
                                                                             # Use all neighbours within 1.3 unit cell.

# get number of connections
compute coord_number all coord/atom orientorder q6 0.5

# An atom is solid if it has 8 or more connections (of a possible 14)
variable is_solid atom c_coord_number>=8
group solid dynamic all var is_solid    # Must be dynamic to update
dynamic group solid defined

# do clustering
compute cluster solid cluster/atom 1.3 # Create a cluster where all atoms within are solid and max 1.3 units from another member

# define chunks one chunk per cluster
compute clus_chunks solid chunk/atom c_cluster nchunk every compress yes  # Says which atoms are in which chunk

# count the size of each chunk
compute size_chunks solid property/chunk clus_chunks count


# Find the maximum entry in the vector of chunk sizes
variable max_n equal max(c_size_chunks)


# Thermo style which includes this variable
# thermo_style custom step temp pe vol v_max_n

thermo ${N}  # Print the thermo information every 100 steps
thermo 1000  

# Reset the npt fix at a lower temperature (below freezing)
fix 1  all npt temp  ${temp} ${temp}  0.1  iso  5.68  5.68  0.5  mtk yes tchain  5  pchain  5
fix 1  all npt temp  0.45 ${temp}  0.1  iso  5.68  5.68  0.5  mtk yes tchain  5  pchain  5
fix 1  all npt temp  0.45 0.45  0.1  iso  5.68  5.68  0.5  mtk yes tchain  5  pchain  5

dump dmp2 all dcd ${N} traj.dcd
dump dmp2 all dcd 1000 traj.dcd


compute msd all msd com yes
variable twopoint equal c_msd[4]/6/(step*dt+1.0e-6)
fix 9 all vector 10 c_msd[4]
variable fit equal slope(f_9)/6/(10*dt)
thermo_style custom step temp pe c_msd[4] v_twopoint v_fit v_max_n

fix 1 all npt temp 1.25 ${temp} 0.1 iso 5.68 5.68 0.5 mtk yes tchain 5 pchain 5
fix 1 all npt temp 1.25 0.45 0.1 iso 5.68 5.68 0.5 mtk yes tchain 5 pchain 5
run 2000000 # 5000000  # Run for this many steps
Neighbor list info ...
  update every 1 steps, delay 10 steps, check yes
  max neighbors/atom: 2000, page size: 100000
  master list distance cutoff = 3.8
  ghost atom cutoff = 3.8
  binsize = 1.9, bins = 8 8 8
  4 neighbor lists, perpetual/occasional/extra = 1 3 0
  (1) pair lj/cut, perpetual
      attributes: half, newton on
      pair build: half/bin/atomonly/newton
      stencil: half/bin/3d
      bin: standard
  (2) compute orientorder/atom, occasional
      attributes: full, newton on
      pair build: full/bin/atomonly
      stencil: full/bin/3d
      bin: standard
  (3) compute coord/atom, occasional
      attributes: full, newton on
      pair build: full/bin/atomonly
      stencil: full/bin/3d
      bin: standard
  (4) compute cluster/atom, occasional
      attributes: full, newton on
      pair build: full/bin/atomonly
      stencil: full/bin/3d
      bin: standard
Per MPI rank memory allocation (min/avg/max) = 9.846 | 9.851 | 9.854 Mbytes
Step Temp PotEng c_msd[4] v_twopoint v_fit v_max_n 
   12000    1.2745336   -6.6840839 7.6243406e-31 5.2946808e-33 8.3333333e+20            3 
   13000      1.26823   -6.6918914   0.47704435 0.0030579765  0.039209698            2 
   14000    1.2510646   -6.6233919   0.90809025 0.0054052989  0.036825353            2 
   15000    1.2773907   -6.6872952    1.3348689 0.0074159379   0.03607627            2 
   16000    1.2804242   -6.6886232     1.746623 0.0090969948  0.035791284            8 
   17000    1.2593108   -6.6743629     2.186968  0.010720431   0.03572377            2 
   18000    1.2456906   -6.6661354    2.6014305  0.012043659  0.035428961            1 
   19000    1.2678349   -6.7098365    3.0693808  0.013462196  0.035680167            4 
   20000    1.2381279    -6.702166    3.5024358  0.014593482   0.03591344            2 
   21000    1.2223567   -6.7337119     3.877519   0.01538698  0.035805249            2 
   22000    1.2519164    -6.705822     4.292835  0.016260738   0.03557332            3 
   23000    1.2553338   -6.6725402    4.7431885  0.017185465  0.035507408            2 
   24000    1.2579192   -6.6785574    5.1392952  0.017844775  0.035477594            1 
   25000    1.2240059   -6.7035741    5.5104137  0.018368045  0.035331922            3 
   26000    1.2467531   -6.7147501    5.8867367  0.018867745  0.035133385            1 
   27000    1.2432679    -6.761705    6.2406629  0.019261305  0.034911397            2 
   28000    1.2779308   -6.7043769    6.7285968  0.020025585  0.034735314            3 
   29000    1.2306393   -6.7135908    7.0931758  0.020382689  0.034642909            3 
   30000    1.2111639   -6.7446794    7.4570294   0.02071397  0.034511247            4 
   31000    1.2483048   -6.7330863    7.9258627  0.021306082  0.034419239            1 
   32000    1.2356368   -6.7062211    8.3423262  0.021724808    0.0343843            3 
   33000    1.2420568    -6.710942    8.7618135  0.022125791  0.034361789            4 
   34000    1.2302234   -6.7287277    9.2983882  0.022790167  0.034423092            1 
   35000    1.2451175   -6.7151862    9.7310274  0.023169112  0.034536244            1 
   36000    1.2520292   -6.7629627    10.202068  0.023615899  0.034674762            3 
   37000    1.2654534   -6.7430392      10.6798  0.024053603  0.034809961            4 
   38000    1.2438077   -6.7398477    11.141361  0.024432808  0.034936192            5 
   39000    1.2359467   -6.7775197    11.477341  0.024524232  0.035050303            3 
   40000    1.2352925   -6.7191454    11.980762   0.02495992  0.035127197            4 
   41000    1.2364601   -6.7243809    12.389505  0.025181919  0.035197166            2 
   42000    1.2068866   -6.6956688    12.855453  0.025506851  0.035266192            1 
   43000    1.2812585   -6.7199963    13.384963  0.025939851  0.035314787            2 
   44000     1.229429   -6.6798576    13.751529  0.026044563  0.035391658            3 
   45000    1.2555918   -6.7479675    14.082589  0.026078868  0.035434104            2 
   46000    1.2328198   -6.7266934    14.445967   0.02617023  0.035421531            2 
   47000    1.2307706   -6.6845848     14.80988  0.026258652  0.035405858            3 
   48000    1.2475823   -6.6963944    15.298159  0.026559304  0.035386583            2 
   49000    1.2470884   -6.6759515    15.835657  0.026931388  0.035391051            4 
   50000    1.2340596   -6.7468628    16.088995  0.026814991  0.035396422            2 
   51000    1.2198949   -6.7329935    16.531727  0.027012625  0.035368638            2 
   52000    1.2133649   -6.7324796     16.97248  0.027199486  0.035352393            3 
   53000      1.25117   -6.7324655    17.438224  0.027418591   0.03534627            2 
   54000    1.2244549   -6.6978879    17.975403   0.02773982  0.035374974            3 
   55000    1.2586162   -6.7242983    18.359978  0.027818149  0.035401201            4 
   56000     1.229699   -6.7900506    18.718781  0.027855328  0.035412082            1 
   57000    1.2310499   -6.7734823    19.177581  0.028037399  0.035421824            3 
   58000    1.2456008   -6.7423718    19.687617  0.028286806  0.035444431            1 
   59000    1.2461508   -6.7603986    20.122254  0.028421262  0.035464832            3 
   60000    1.2492508   -6.6900032    20.605086  0.028618175  0.035493176            3 
   61000    1.2324903   -6.7186636    21.108342  0.028836533  0.035524931            3 
   62000    1.2131627    -6.752804    21.563515  0.028983219  0.035576703            2 
   63000     1.242835    -6.759393    21.939789  0.029020885  0.035620201            3 
   64000     1.246836   -6.7438714    22.468336  0.029255646  0.035658618            3 
   65000    1.2496722   -6.7600418    22.783748  0.029209933  0.035686411            5 
   66000    1.2159761   -6.7574018    23.148285  0.029227633  0.035693143            2 
   67000    1.2347057   -6.7542721    23.588573  0.029339021  0.035696597            2 
   68000    1.2075437   -6.7389919    23.959027  0.029361553  0.035714439            2 
   69000    1.2352167   -6.7668567    24.402727  0.029471893  0.035715172            5 
   70000    1.2171842   -6.7989057    24.759846  0.029476007  0.035717644            3 
   71000    1.2310853   -6.7279106    25.277744  0.029668714  0.035713033            1 
   72000    1.2088908   -6.7210346    25.651563  0.029689308   0.03570797            2 
   73000     1.223481   -6.7451106    25.991957  0.029671183  0.035695077            2 
   74000    1.2241332   -6.7195989    26.241606  0.029551358  0.035669919            2 
   75000    1.2293871   -6.6974412    26.638336   0.02959815  0.035632101            2 
   76000    1.2300254   -6.7458578    26.877669  0.029471128  0.035586384            2 
   77000    1.2335387   -6.7456581    27.406802  0.029661041  0.035535494            2 
   78000    1.2309933   -6.7623524    27.615215  0.029503435  0.035481728            4 
   79000    1.2036823   -6.7289143    28.117324  0.029659625  0.035435176            2 
   80000     1.208987   -6.7756572    28.403986  0.029587485  0.035383332            2 
   81000    1.2133071    -6.804143    28.816742  0.029646854  0.035331063            7 
   82000     1.215085   -6.7303529    29.014574  0.029486355   0.03527189            1 
   83000    1.2359861   -6.7640199    29.614232  0.029733165  0.035210039            4 
   84000    1.1914664   -6.7440632    29.911003  0.029673614  0.035153193            2 
   85000    1.2238263   -6.7689208     30.03508  0.029446157  0.035084129            2 
   86000    1.2262422    -6.781963    30.474154  0.029529219  0.035010223            1 
   87000     1.209525   -6.8111531    30.762966  0.029466442  0.034940312            2 
   88000    1.2267706   -6.7481952    31.265324  0.029607315  0.034872506            6 
   89000    1.2101926   -6.7296336     31.60856   0.02959603  0.034804381            2 
   90000    1.1871965   -6.7870501    31.905652   0.02954227  0.034740475            2 
   91000    1.2197371   -6.7650059    32.339911  0.029615303  0.034673912            2 
   92000    1.2419116   -6.7769799    32.515728  0.029452652   0.03459982            1 
   93000     1.216477   -6.7213463    32.867422  0.029451095  0.034525231            3 
   94000    1.2221819   -6.7594693    33.372897  0.029585901  0.034453707            1 
   95000    1.2083393   -6.7822074    33.716847  0.029576182  0.034385518            2 
   96000    1.2209192    -6.782455    33.981466    0.0294978  0.034324258            5 
   97000    1.2252191    -6.804542    34.444171  0.029591212  0.034264111            5 
   98000    1.2141481   -6.7936651    34.940808  0.029711571  0.034210924            3 
   99000     1.204976   -6.7673521    35.252239  0.029673602   0.03415268            7 
  100000    1.2153406   -6.8120432    35.457425  0.029547854  0.034093347            2 
  101000    1.2118549   -6.7717335    35.872541  0.029597806  0.034034559            3 
  102000    1.2002711   -6.7991466    36.316337   0.02967021   0.03397805            3 
  103000    1.2113144   -6.7789726    36.688197  0.029683007  0.033924476            2 
  104000    1.2337141   -6.7548632    37.185783  0.029796301  0.033873747            5 
  105000    1.2153756   -6.8320187    37.424662  0.029702113  0.033827234            3 
  106000    1.2070361   -6.7903204    37.899746  0.029795398  0.033782906            3 
  107000    1.1947992   -6.8180639    38.100073  0.029672954  0.033734682            2 
  108000    1.1788615   -6.8178406    38.369717  0.029606263  0.033688464            3 
  109000    1.2120072   -6.7919138    38.848482  0.029700674   0.03364328            4 
  110000    1.1972318    -6.761539    39.340241  0.029803213  0.033598595            1 
  111000    1.1992655   -6.8595796    39.455051  0.029620909   0.03355199            2 
  112000    1.2137281   -6.7804624     39.97162  0.029740788  0.033501456            2 
  113000    1.2184633   -6.8349106    40.367908  0.029769843  0.033458017            2 
  114000    1.1865388   -6.7689397    40.503628  0.029607915  0.033402405            1 
  115000    1.1697679   -6.7799859    41.133883  0.029807162  0.033354061            5 
  116000    1.1648343   -6.8294248    41.560017  0.029856334   0.03331741            2 
  117000    1.1900414   -6.8150886    41.852226  0.029809278  0.033280617            1 
  118000    1.1888992   -6.8190311    42.358955  0.029914516  0.033244504            4 
  119000    1.1895332   -6.7953764      42.6762  0.029885294  0.033208814            2 
  120000     1.231436   -6.8212566    43.144867  0.029961713  0.033178283            1 
  121000    1.2189333   -6.8136745    43.503162  0.029960855  0.033150887            1 
  122000    1.2286378   -6.8391513    43.800923  0.029918663  0.033120807            2 
  123000    1.2177339   -6.8042871    44.221258  0.029960202  0.033093548            1 
  124000    1.2064634   -6.7841652    44.719376  0.030053344  0.033063537            2 
  125000    1.1817707   -6.8178165    44.841704  0.029894469  0.033035458            4 
  126000    1.1980465   -6.8230301    44.999958  0.029761877  0.033000106            4 
  127000    1.2451477   -6.8161915     45.26973  0.029704547  0.032959185            3 
  128000     1.187735   -6.7957239    45.540611  0.029648835  0.032920072            2 
  129000    1.1791597   -6.8277084    46.188519  0.029837545  0.032884712            2 
  130000    1.1701247    -6.805107     46.65843   0.02990925  0.032854002            2 
  131000    1.1948193   -6.7681587    46.839259  0.029795966  0.032823267            4 
  132000    1.2016617    -6.843322    47.258372  0.029834831  0.032788083            3 
  133000    1.2087912   -6.8254164    47.710917  0.029894058  0.032756363            2 
  134000    1.2260838   -6.8395467    47.821954  0.029740021  0.032725496            2 
  135000    1.1771076    -6.793804    48.296513  0.029812662  0.032692481            3 
  136000    1.2051033   -6.8659533    48.436982  0.029679523  0.032660312            5 
  137000    1.2029878   -6.8281632    48.975227  0.029790284  0.032628184            3 
  138000    1.2136911   -6.8138107     49.35737  0.029805175  0.032596295            3 
  139000    1.1860843   -6.8545184    49.353755  0.029588582  0.032562475            3 
  140000    1.1802534   -6.8134097    49.859192  0.029678091  0.032523346            2 
  141000     1.189642    -6.834335    50.197097  0.029667315  0.032485703            3 
  142000    1.1928331   -6.8472156    50.475948  0.029622035  0.032450136            2 
  143000    1.1984845   -6.8250719    50.877198  0.029648717  0.032411797            2 
  144000    1.1920768   -6.8929178    51.198139  0.029628553  0.032375446            2 
  145000    1.1748397   -6.8439111    51.569286   0.02963752  0.032338543            5 
  146000    1.2171514   -6.7921748    52.116445  0.029746829  0.032304079            4 
  147000    1.1578094   -6.8202207     52.32985  0.029665448  0.032272251            4 
  148000    1.1826308   -6.8512404    52.659049  0.029650365  0.032237605            2 
  149000    1.2262993   -6.8191997    52.742164  0.029497855  0.032198504            3 
  150000    1.1723744   -6.8171745    53.212856  0.029562698  0.032164037            2 
  151000    1.1849047   -6.8472109    53.731995  0.029653419  0.032130391            3 
  152000    1.2018923   -6.7965604    54.117524  0.029669695  0.032094097            2 
  153000    1.1967983   -6.8392078    54.221302    0.0295323  0.032061759            5 
  154000    1.1778413   -6.8595809    54.377367  0.029424982  0.032027691            3 
  155000    1.1790916   -6.8365332    55.023424  0.029582486  0.031994207            2 
  156000    1.1660378   -6.8281316    55.329629  0.029556426  0.031960384            2 
  157000    1.1970426    -6.790816    55.743566   0.02958788  0.031927779            2 
  158000    1.1779532   -6.8426778    56.063943   0.02956959  0.031894953            3 
  159000    1.1986753   -6.8528276    56.408371  0.029564136  0.031864703            3 
  160000    1.2062979   -6.8262156    57.013283  0.029694418  0.031834825            2 
  161000    1.1833033   -6.8843218    56.824299  0.029412163  0.031804084            3 
  162000    1.1874747   -6.8276832    57.349595   0.02950082  0.031774326            1 
  163000    1.2107148   -6.8378221     57.52925  0.029411682  0.031741216            3 
  164000    1.1930529   -6.8954409    57.823568  0.029381894  0.031707797            6 
  165000    1.1923291   -6.8407552    58.510154  0.029550583  0.031676549            3 
  166000    1.1685914   -6.8210145    58.882755  0.029559616  0.031648573            4 
  167000    1.1802078   -6.8898563    59.097237  0.029489639  0.031623898            1 
  168000    1.1720798   -6.8734925    59.465146    0.0294966  0.031597588            1 
  169000    1.1644787   -6.8212055    59.837172  0.029505509  0.031569976            1 
  170000     1.162165   -6.8396381    60.208798  0.029514117  0.031542243            4 
  171000    1.2129688   -6.8510261    60.135897  0.029305993   0.03151443            2 
  172000    1.2008125   -6.9002483    60.416309  0.029271467  0.031482873            6 
  173000    1.1864946    -6.875207     60.82949  0.029301296  0.031452224            3 
  174000    1.2209479   -6.8741301    61.153877  0.029288255  0.031422094            3 
  175000    1.1973073   -6.8759059    61.416503  0.029245954  0.031388121            3 
  176000      1.18854   -6.9017255    61.585057  0.029159591  0.031355496            5 
  177000    1.1825714   -6.8321678    62.259639  0.029312447  0.031322424            2 
  178000    1.1516325   -6.8904199    62.468443  0.029245525  0.031293538            2 
  179000    1.1905489   -6.8599725    62.722476  0.029200408  0.031265007            1 
  180000    1.1933556   -6.8224761     63.30585  0.029308264  0.031238929            2 
  181000    1.2095592   -6.8875066    63.254129  0.029122527  0.031210869            3 
  182000    1.2046765   -6.8363991    63.815288  0.029219454  0.031182218            2 
  183000    1.2006789   -6.8429724    64.295699  0.029278552  0.031155132            2 
  184000    1.1850054   -6.8983731    64.315788  0.029128527  0.031124698            2 
  185000    1.1720562   -6.8314502    64.625286  0.029110489  0.031092482            3 
  186000    1.1861831   -6.8327342    65.035066  0.029137574  0.031060527            1 
  187000    1.1846815   -6.8732487    64.944195  0.028941263  0.031027519            2 
  188000    1.1671974   -6.8713488    65.234646  0.028916066  0.030991517            1 
  189000     1.192247   -6.8534268    65.453013  0.028859353   0.03095447            4 
  190000    1.1742858   -6.9075689    65.598471  0.028771259   0.03091908            3 
  191000    1.1586294   -6.8439992     66.38447  0.028963556  0.030883686            3 
  192000    1.1731353   -6.8939911    66.588951  0.028901454  0.030850041            5 
  193000    1.1803358   -6.8687223    67.235103  0.029030701   0.03081837            3 
  194000    1.1814047   -6.8260099     67.61693  0.029045073  0.030785515            3 
  195000    1.1872562   -6.8908547    67.541575  0.028863921  0.030751353            1 
  196000      1.18164   -6.8826136    68.095273  0.028952072  0.030719168            4 
  197000    1.2026699   -6.8759515     68.16768  0.028835736  0.030689714            2 
  198000    1.1820966   -6.8379303    69.107866  0.029085802  0.030661704            1 
  199000    1.1527958   -6.8598496    69.059892  0.028919553  0.030635001            3 
  200000    1.1881719   -6.8984289    69.420405  0.028925169  0.030605495            1 
  201000    1.1791032   -6.9690059    69.414837  0.028778954  0.030579045            2 
  202000    1.1667227   -6.9107679    69.992983  0.028874993  0.030552154            2 
  203000    1.1576162    -6.913574    70.172633  0.028806499  0.030525054            8 
  204000    1.1764154   -6.8809715    70.481646  0.028791522  0.030496707            1 
  205000    1.1726029   -6.8916982    70.947427  0.028840417   0.03046893            3 
  206000    1.1936198   -6.8790507    71.402769  0.028884615  0.030441321            2 
  207000     1.172628     -6.90662    71.340756  0.028720111  0.030413655            4 
  208000    1.1701196   -6.9068138    71.611366  0.028690451  0.030384236            5 
  209000    1.1614113   -6.8859687    72.009208  0.028711805  0.030354887            2 
  210000    1.1681244   -6.8955137    72.370155  0.028718315  0.030324846            1 
  211000    1.1588628   -6.9274465    72.284514  0.028548386  0.030295626            4 
  212000    1.1655331   -6.9057585    72.569757  0.028525848  0.030267135            5 
  213000    1.1459664   -6.9087579    73.178111  0.028629934  0.030238779            3 
  214000    1.2056418   -6.8868526    73.824688  0.028747932  0.030211936            4 
  215000    1.1502257   -6.8768914    74.138215  0.028735742  0.030185171            2 
  216000    1.1689057   -6.8897932    74.634596  0.028794211  0.030161798            2 
  217000    1.1659691   -6.8980278    74.970137  0.028790375  0.030138989            4 
  218000    1.1846979   -6.9198294     74.91458  0.028637072  0.030112907            4 
  219000    1.1765623   -6.8830398    75.205541  0.028617025  0.030086566            2 
  220000    1.2123531    -6.945248    75.500127  0.028598533  0.030061618            2 
  221000    1.1551394   -6.9317174    75.998969  0.028657228   0.03003448            3 
  222000    1.1712978   -6.8563113    76.515778  0.028722139  0.030009308            1 
  223000    1.1449569   -6.8943167    76.792823   0.02869687  0.029986833            2 
  224000    1.1700626   -6.9225536    77.120142  0.028690529   0.02996657            4 
  225000    1.1594812   -6.9725428    77.215404  0.028598298  0.029944598            5 
  226000    1.1611746   -6.9198435    77.862376  0.028710316  0.029924723            3 
  227000    1.1557549    -6.926848    78.250417  0.028726291  0.029905495            3 
  228000    1.1390035    -6.898488    78.574348  0.028718694  0.029884906            2 
  229000    1.1571224   -6.9008805    78.754857  0.028658972  0.029863891            3 
  230000    1.1698659   -6.8764815    78.843646  0.028566538  0.029842843            4 
  231000    1.1637434   -6.9252724    79.328006  0.028617607  0.029819967            2 
  232000    1.1729748   -6.9210698    79.440278  0.028534583  0.029796139            1 
  233000    1.1566463   -6.9369183     79.67159  0.028494846   0.02977369            2 
  234000    1.1762177    -6.947198    79.930493  0.028465275  0.029751103            5 
  235000     1.167998   -6.9012057    80.396943  0.028509554  0.029727772            3 
  236000    1.1433659   -6.9211117    80.662412   0.02848249  0.029704514            9 
  237000    1.1611647   -6.9501442    80.621783  0.028348025  0.029681094            2 
  238000    1.1731189   -6.9496955    80.663297  0.028243451  0.029654752            6 
  239000    1.1553389   -6.9241187    81.132067  0.028288726  0.029627658            4 
  240000    1.1673155   -6.9663861    81.472914  0.028289206  0.029601446            2 
  241000    1.1716112   -6.9445399    81.733422  0.028261903  0.029577281            4 
  242000    1.1618583   -6.9254775    82.003214  0.028238021  0.029553328            1 
  243000    1.1691037   -6.9268522    82.287832  0.028219421  0.029528014            2 
  244000    1.1518933   -6.9424609    82.655908  0.028229477  0.029503011            4 
  245000    1.1363565   -6.9746226    82.987555   0.02822706  0.029479638            3 
  246000    1.1676036   -6.9615975    83.155442  0.028169187  0.029454423            2 
  247000    1.1538961   -7.0049723    83.403537  0.028138845  0.029429112            3 
  248000    1.1478591    -6.975309    83.727154  0.028134124  0.029404056            3 
  249000    1.1431726   -6.9375262    83.782995  0.028039824  0.029378233            1 
  250000    1.1486935   -6.9204145    84.210414  0.028070138  0.029352689            3 
  251000     1.152154   -6.9184669    84.414609  0.028026099  0.029327407            3 
  252000    1.1615945   -6.9729221    84.576331  0.027968363  0.029302438            3 
  253000    1.1224785   -6.9581297    84.883953  0.027959141  0.029276566            1 
  254000    1.1592782   -6.9332498     85.25514  0.027970846   0.02925021            3 
  255000    1.1389873   -6.9371165    85.818045  0.028045113  0.029224018            4 
  256000    1.1526709   -6.9422947    86.000651  0.027995004  0.029196754            4 
  257000    1.1774755   -6.9534385    86.536115    0.0280597  0.029172147            4 
  258000    1.1711501   -6.9451685    86.569817  0.027961827  0.029148527            3 
  259000    1.1651916   -6.9156364    86.851241  0.027944415  0.029123628            3 
  260000    1.1687598   -6.9295841    87.194841  0.027947065  0.029097894            3 
  261000    1.1194406   -7.0260374    87.050578  0.027793926  0.029072521            3 
  262000    1.1373229   -6.9219647    87.845815  0.027940781  0.029048849            3 
  263000    1.1529802   -6.9699647    87.918662  0.027857624  0.029025376            6 
  264000    1.1175993   -6.9462418    88.426891  0.027912529  0.029003119            2 
  265000    1.1777147   -6.9531974     88.72815  0.027901934   0.02898055            3 
  266000    1.1534874   -6.9405219    89.103781  0.027914718  0.028958616            4 
  267000    1.1688481   -6.9654611    89.458943  0.027921018  0.028937212            2 
  268000    1.1438916   -6.9822438    89.887324  0.027950039   0.02891637            1 
  269000    1.1388892   -6.9576641    90.031665   0.02789085  0.028895298            3 
  270000    1.1604803   -7.0167103    90.136271  0.027819837  0.028873626            3 
  271000    1.1735177   -6.9653812    90.771369  0.027912475  0.028853963            2 
  272000    1.1567628   -6.9598712    91.418804  0.028008212  0.028834053            3 
  273000    1.1584417   -6.9463158    91.741724  0.028004189  0.028815037            2 
  274000    1.1367049   -6.9877643    91.761555  0.027908016   0.02879688            4 
  275000    1.1434447   -7.0394617    92.085897  0.027904817  0.028778324            3 
  276000    1.1207566   -6.9719359     92.26237  0.027856996  0.028758304            4 
  277000    1.1277624   -7.0204165     92.39104  0.027795138  0.028737931            3 
  278000    1.1649742   -6.9399674    93.114931   0.02791215  0.028717956            2 
  279000    1.1537831   -6.9869018    93.394348  0.027895564  0.028699426            9 
  280000    1.1509531   -7.0122367    93.646393   0.02787095   0.02868236            4 
  281000    1.1397686   -6.9467889    94.068943  0.027897077  0.028665542            4 
  282000    1.1335787    -6.982419      94.3084  0.027868913  0.028647812            3 
  283000    1.1284231   -6.9506509     94.81327  0.027919102  0.028631519            3 
  284000    1.1362693   -6.9507104    95.194866  0.027932766  0.028615881            2 
  285000    1.1545168    -6.963608    95.742713  0.027994945  0.028600351            2 
  286000    1.1345723   -7.0057734    95.877664  0.027936382  0.028584271            2 
  287000    1.1363053   -7.0193229    95.899939  0.027845511  0.028567202            2 
  288000    1.1180546   -6.9734222    96.403124  0.027894422   0.02855082            2 
  289000    1.1386792   -6.9643632    96.707672  0.027885719  0.028535295           10 
  290000    1.1299261   -6.9709246    96.752933  0.027802567  0.028518337            1 
  291000    1.1330943   -6.9730931    96.931115  0.027758051  0.028501382            4 
  292000     1.149535   -7.0396128     97.05504  0.027698356  0.028483172            6 
  293000    1.1152148   -7.0267387    97.346425  0.027686697  0.028465192            5 
  294000    1.1397229   -6.9919421    98.068345   0.02779715  0.028447848            2 
  295000    1.1395246     -6.95868    98.447034  0.027809897   0.02843092            4 
  296000    1.1479948   -7.0038931    98.688992  0.027784063   0.02841609            6 
  297000    1.1473226   -6.9892244    99.165034  0.027824084  0.028400874            3 
  298000    1.1475699    -6.983051    99.643942  0.027864637  0.028385253            5 
  299000    1.1290553   -6.9902361     99.80095  0.027815203  0.028370432            2 
  300000    1.1241595   -6.9906682    100.06372  0.027795477  0.028355937            2 
  301000    1.1210882   -7.0168087    99.636247  0.027584786  0.028340214            2 
  302000    1.1337517   -7.0148048    100.07235  0.027613784  0.028323978            3 
  303000    1.1416993   -6.9976665    100.65059  0.027681682  0.028307112            5 
  304000    1.1288639   -7.0535902     100.8805  0.027653645  0.028290965            3 
  305000    1.1286361   -6.9504348    101.54691  0.027745056  0.028274483            3 
  306000    1.1154007    -7.006071    101.56796  0.027660121  0.028259108            1 
  307000    1.1416434   -7.0033987    102.02078  0.027692937  0.028244337            3 
  308000    1.1402743   -7.0197167    102.17074  0.027643598  0.028230873            4 
  309000    1.1116502    -7.057075    102.21034  0.027564817  0.028215472            2 
  310000    1.1320428    -6.959641    102.94393  0.027673099  0.028200385            6 
  311000    1.1368095   -6.9779563    103.36889  0.027697989  0.028187185            2 
  312000    1.1456082   -7.0394995    103.36833  0.027609062  0.028172963            5 
  313000    1.1353337   -6.9817826    104.08332  0.027711215  0.028160138            1 
  314000    1.1257708   -6.9689459    104.43744  0.027716943  0.028147709            4 
  315000    1.1254976   -6.9697454    104.76353   0.02771522  0.028134886            3 
  316000    1.1446551   -7.0172126     104.8744  0.027656751  0.028121731            4 
  317000    1.1099609   -7.0892671    104.44961  0.027457837   0.02810671            3 
  318000    1.1617652   -7.0798438    104.86135   0.02747939  0.028091566            8 
  319000    1.1222114   -7.0084986    105.83206  0.027646828  0.028077749            2 
  320000    1.1347775   -6.9701603    106.21015  0.027658893   0.02806442            8 
  321000    1.1206323   -7.0158572    106.56652  0.027665244   0.02805179            3 
  322000    1.1095441   -6.9775921    107.03504  0.027700578   0.02803931            4 
  323000    1.1345299   -6.9943507    107.45082  0.027722089  0.028027565            4 
  324000    1.1244436   -7.0566429    107.21877  0.027576845  0.028015328            7 
  325000     1.152493   -7.0025016    107.71548  0.027619354  0.028002879            4 
  326000    1.1271487   -7.0205036    107.79364  0.027554611  0.027990571            7 
  327000    1.1459887   -7.0713745    108.07591  0.027542282   0.02797801            2 
  328000    1.1004765   -7.0712453    108.22754  0.027496834  0.027965636            4 
  329000    1.1075681   -7.0423317    108.45125  0.027469921  0.027952408            1 
  330000    1.1256907   -7.0304877    108.92485  0.027506276  0.027938391            3 
  331000    1.1317218   -7.0471363    109.24868  0.027504703  0.027925095            2 
  332000    1.1107127   -7.0276418    109.40391   0.02746082  0.027912405            5 
  333000    1.0941648   -7.0380003    109.83463  0.027486143  0.027899855            4 
  334000    1.1080904   -6.9607625    110.76549  0.027636101  0.027887201            3 
  335000    1.1116093   -7.0481977    110.55584  0.027501453  0.027874528            2 
  336000    1.1319222   -7.0303368    110.70723  0.027457151  0.027861553            2 
  337000    1.1301826   -7.0055837    111.10658  0.027474426  0.027849239            2 
  338000    1.1499164   -7.0343062    111.33378  0.027449156  0.027836834            3 
  339000    1.1188569   -7.0308808    111.45363  0.027397648  0.027823503            3 
  340000    1.1110302   -7.0823719    111.25338  0.027267984  0.027810868            2 
  341000    1.1314372   -7.0668781    111.77377  0.027315193  0.027797057            4 
  342000    1.1152293   -7.0016243    112.13751  0.027323955  0.027784382            3 
  343000     1.111383   -7.0601856     112.3075  0.027285594  0.027770473            4 
  344000    1.1072151   -7.0702463    112.71551  0.027305113  0.027755622            4 
  345000    1.1361538   -7.0177221    113.15989  0.027333306  0.027740754            2 
  346000    1.1283639   -7.0165918    112.93951  0.027201231  0.027725964            2 
  347000    1.1069427   -7.1164099    113.23895  0.027194752  0.027711466            2 
  348000    1.1219258   -7.0582379    113.50659  0.027180696  0.027697278            2 
  349000    1.0977852   -7.0463007    113.79916  0.027172673  0.027683231            1 
  350000    1.1106526   -7.0551091     114.1453  0.027177452  0.027668757            2 
  351000    1.1229612   -6.9936753    114.98552  0.027299506   0.02765429            3 
  352000    1.1314186   -7.0511849    114.86472  0.027193352  0.027640343            3 
  353000    1.1284746   -7.0622625    114.73463  0.027085607  0.027625591            3 
  354000    1.1026142   -7.0209966    115.19965  0.027118562   0.02761046            2 
  355000    1.1367445   -7.0967316    115.28736  0.027062761  0.027595478            3 
  356000    1.1078405   -7.0794356    115.56846  0.027052542  0.027580549            2 
  357000    1.1080517   -7.0383346    116.32541  0.027153457  0.027566922            3 
  358000    1.0928439   -7.0379173     116.4645  0.027109986  0.027552834            5 
  359000    1.1123545   -7.0931861    116.67281  0.027082825  0.027538481            1 
  360000    1.1005955    -7.053738    116.80851  0.027039008  0.027524842            3 
  361000    1.1113254   -7.0524847    117.43088  0.027107774   0.02751052            3 
  362000    1.1046462   -7.0234011    117.74403  0.027104979   0.02749654            3 
  363000    1.0943356   -7.0683996    117.80813  0.027045025  0.027482107            4 
  364000    1.1034572   -7.0624205    117.51803  0.026904311  0.027466947            5 
  365000    1.1322773   -7.0585696    117.95493  0.026930349  0.027451468            4 
  366000    1.1114742   -7.0950375    118.24545  0.026922917  0.027436166            6 
  367000     1.111953   -7.0295533    118.79644  0.026974668  0.027421173            4 
  368000    1.1251954   -7.0469458    119.17244  0.026986514  0.027405677            5 
  369000    1.1174663   -7.0625169    119.30246  0.026942742  0.027390708            3 
  370000    1.1051415   -7.0778986    119.25321  0.026858831  0.027375123            2 
  371000    1.1302948   -7.0717449    119.25955  0.026787859  0.027359793            1 
  372000    1.1070012   -7.0371838    119.37062   0.02674073  0.027344582            5 
  373000    1.1120255   -7.1270945    119.39355  0.026674163   0.02732909            2 
  374000    1.1184677    -7.076282    119.78576  0.026690232   0.02731191            4 
  375000    1.1089489   -7.0913599    120.10669  0.026690375   0.02729523            2 
  376000    1.1024014   -7.1071696    120.90441  0.026796189   0.02727893            2 
  377000    1.1152346   -7.1231716    120.33446  0.026599129  0.027262336            2 
  378000    1.1155658   -7.1005302    120.95709  0.026666024  0.027245119            6 
  379000    1.0981997   -7.0981943    120.88856  0.026580599    0.0272278            4 
  380000    1.1072171    -7.158402    120.58405   0.02644387  0.027209625            4 
  381000    1.0661571    -7.094209    121.58304  0.026592966  0.027191054            2 
  382000    1.0976266   -7.1248432    121.38946  0.026481122  0.027172709            2 
  383000    1.0898874     -7.10406    122.00729  0.026546407  0.027154892            3 
  384000    1.0951714   -7.1325158    122.04993   0.02648653  0.027136905            6 
  385000    1.0847695   -7.1213211    122.43169  0.026500366  0.027118175            5 
  386000    1.0784612   -7.0841793    122.82971   0.02651764  0.027099475            4 
  387000    1.1149722   -7.0686978    123.05845  0.026498374   0.02708131            4 
  388000    1.0973415    -7.057729    122.87936  0.026391615  0.027063142            4 
  389000    1.0898226   -7.0818531    123.03692  0.026357523  0.027044406            3 
  390000    1.0915256   -7.1684876    123.11874  0.026307422  0.027026156            4 
  391000    1.0807505   -7.0697156    123.94123  0.026415438  0.027007895            5 
  392000     1.079574   -7.1513292    123.44143  0.026241801  0.026989397            3 
  393000    1.0977308   -7.1173986    124.31195  0.026359616  0.026970786            2 
  394000    1.1036597   -7.0652012    124.61692  0.026357217  0.026952573            4 
  395000    1.0875825   -7.1334906     124.5557  0.026277574   0.02693428            1 
  396000    1.0963494   -7.0728263    125.13848  0.026333856  0.026915375            4 
  397000    1.0842688   -7.0948284    125.46751  0.026336589  0.026896367            2 
  398000    1.1099585   -7.1321892    125.29797  0.026234918  0.026877897            5 
  399000    1.0859332   -7.1129549     125.7617  0.026266019  0.026859622            3 
  400000    1.0642106   -7.1267406    125.71057  0.026189703  0.026840701            2 
  401000     1.089448   -7.1010809    126.16929  0.026219719  0.026821606            3 
  402000      1.09785   -7.1027129    126.28866   0.02617924  0.026803143            5 
  403000    1.0818762   -7.1074323    126.26379  0.026109139   0.02678426            4 
  404000    1.0825096   -7.1086915    126.38577  0.026069673  0.026764178            6 
  405000    1.0950168   -7.0896927    126.64905  0.026059476  0.026744254            4 
  406000    1.0730344    -7.092218    126.92959  0.026052871  0.026724409            2 
  407000    1.0866997   -7.1156007    126.79313   0.02596092  0.026704685            4 
  408000    1.0878253   -7.1178494    127.37566  0.026016269  0.026684943            2 
  409000    1.0974821   -7.1270079     127.5996  0.025998288  0.026664804            5 
  410000    1.0702875   -7.1011799    127.81691  0.025979047  0.026644564            9 
  411000    1.0678585   -7.1017199    128.20959  0.025995456  0.026624786            2 
  412000    1.0805198    -7.135626    128.19171  0.025928743  0.026605307            5 
  413000    1.0896104   -7.1164901    128.31778    0.0258914  0.026585364            1 
  414000    1.0859437   -7.0675272    128.77544  0.025920983  0.026565132            3 
  415000    1.0798476   -7.0699436    128.79311  0.025862069  0.026545684            2 
  416000    1.0783765    -7.161726    128.51183  0.025743556  0.026525199            2 
  417000     1.095269   -7.1310465    129.09372  0.025798105  0.026504077            6 
  418000    1.1031388   -7.0981719    129.30162  0.025777835  0.026483552            3 
  419000     1.072438   -7.0847857    129.90734  0.025836782  0.026463103            5 
  420000    1.0685134   -7.1007139    130.00415  0.025794473  0.026443146            2 
  421000    1.0857753   -7.1662343    129.85231   0.02570315  0.026422454            3 
  422000    1.0760149   -7.1002389    130.83987  0.025837257  0.026401983            3 
  423000    1.0784313   -7.1075741    130.69531  0.025747697   0.02638152            1 
  424000    1.0780327   -7.1246599    130.61792  0.025671761  0.026361072            2 
  425000    1.0818884   -7.1512297    130.88981   0.02566467  0.026340292            2 
  426000    1.0706314   -7.1573987    131.09252  0.025644077  0.026319996            1 
  427000    1.0768427   -7.1105481    131.81654   0.02572532  0.026300027            1 
  428000    1.1044793   -7.1514763    131.42449  0.025588881  0.026280109            3 
  429000    1.0767307   -7.1755318    131.50972  0.025545788   0.02625963            9 
  430000    1.0658683   -7.1110402    132.56696  0.025691271  0.026239513            2 
  431000    1.0753611   -7.1323038    132.53576   0.02562563  0.026219608            1 
  432000    1.0974412   -7.1256932    132.55106  0.025569263  0.026199632            2 
  433000    1.0924724   -7.1641631    132.61025  0.025521603  0.026179821            3 
  434000    1.0795108   -7.1217439    132.74059  0.025487825  0.026159579            3 
  435000    1.0765856   -7.1707022     132.6925  0.025420019  0.026138903            3 
  436000    1.1058712   -7.1632838     132.6068  0.025345337  0.026117335            2 
  437000     1.089459   -7.1641117    133.59568  0.025475912  0.026096105            4 
  438000    1.1002274   -7.1389929    133.59926  0.025418428  0.026075767            8 
  439000    1.0737739   -7.1839319    133.56906  0.025354794  0.026054954            5 
  440000    1.1069584   -7.1481718    134.08787   0.02539543  0.026034319            4 
  441000    1.0821455   -7.1559743    134.63216  0.025440695  0.026013828            2 
  442000    1.0662005   -7.1572891    134.74629  0.025404656  0.025993803            4 
  443000    1.0783794   -7.1582401    134.38189   0.02527876  0.025973416            3 
  444000    1.0504255    -7.201651    134.39728  0.025224715  0.025952416            2 
  445000    1.0880812   -7.1465908    134.95953  0.025273319  0.025931581            3 
  446000    1.0492643     -7.16925    134.81908  0.025190412  0.025911176            5 
  447000    1.0836644   -7.1566429    135.47787  0.025256874  0.025890591            2 
  448000    1.0835354   -7.1459685    136.02425   0.02530213  0.025870885            4 
  449000    1.0903297   -7.1508748    136.10124  0.025260067  0.025851391            4 
  450000    1.0727344   -7.1848149    136.24933  0.025231358  0.025831294            4 
  451000     1.055443   -7.1903146    135.88985   0.02510899  0.025811018            2 
  452000    1.0719436   -7.1583859    136.49843  0.025165639  0.025790413            2 
  453000    1.0771598   -7.2131631    136.69397  0.025146057  0.025769254            3 
  454000     1.085802   -7.1325049    137.40537  0.025221249  0.025749303            4 
  455000    1.0602735   -7.1507057    137.50243  0.025183595  0.025729647            5 
  456000    1.0926897   -7.2005342    137.50042     0.025128  0.025710432            3 
  457000    1.0603753   -7.1350048      138.028  0.025169219  0.025690752            6 
  458000    1.0704204   -7.1978062    138.11145  0.025129449  0.025671711            6 
  459000    1.0780068   -7.1931294      138.431  0.025132715  0.025652794            3 
  460000     1.050758   -7.1783375    138.31324  0.025056746  0.025633712            4 
  461000    1.0587482   -7.1517767    139.07162  0.025139482   0.02561476            5 
  462000    1.0734954   -7.1885533    139.20659  0.025109413  0.025596141            2 
  463000    1.0718413   -7.1791868    139.44681  0.025098417  0.025577221            3 
  464000    1.0649081   -7.1967629    139.52223  0.025057872  0.025558784            3 
  465000     1.067428   -7.1881499    140.14227  0.025115102   0.02554064            2 
  466000    1.0672877   -7.1837253    140.13417  0.025059758  0.025522426            4 
  467000    1.0800745   -7.1883243    139.86167  0.024957472  0.025504356            6 
  468000    1.0713421   -7.1648016    140.70957  0.025055122  0.025486375            5 
  469000    1.0712342   -7.2385421    140.27632   0.02492472  0.025467937            3 
  470000    1.0496523   -7.1824099    140.92392  0.024986511  0.025449878            3 
  471000    1.0491218   -7.2770585    140.61803  0.024879341  0.025430857            3 
  472000     1.073965   -7.1698879    141.34065  0.024954211  0.025411557            3 
  473000    1.0848345   -7.1844533     141.0727  0.024854247  0.025392635            3 
  474000    1.0764227   -7.1774593    141.35847  0.024852052  0.025373321            4 
  475000    1.0656228   -7.1942913    141.78012  0.024873705  0.025354045           10 
  476000    1.0688838   -7.1783221    141.92953  0.024847607  0.025335518            8 
  477000    1.0608559   -7.1889343    142.89871  0.024964835   0.02531668            6 
  478000    1.0692944   -7.1785382    142.64727  0.024868771  0.025298139            9 
  479000    1.0548464    -7.248695     141.9795  0.024700678  0.025279424            3 
  480000    1.0778531   -7.2021048    142.69704  0.024773791  0.025260867            2 
  481000    1.0486274   -7.1797194    142.63286  0.024711168  0.025242356            2 
  482000    1.0604524   -7.2308911    143.04811  0.024731693  0.025223495            4 
  483000    1.0693897   -7.1893456    143.21623  0.024709495  0.025205036            3 
  484000    1.0868784   -7.1787299    143.26837  0.024667419  0.025186446            2 
  485000    1.0610161    -7.232561    143.78736  0.024705732  0.025167119            2 
  486000    1.0658268   -7.2477286    143.59512  0.024621933  0.025147836            2 
  487000     1.054926    -7.199678    144.18574   0.02467244   0.02512779            2 
  488000    1.0605968   -7.2274254     144.1049  0.024608077  0.025108348            3 
  489000    1.0582192     -7.24486    144.19604  0.024573285  0.025088453            4 
  490000    1.0646803   -7.1923788    144.94797  0.024651015  0.025069082            3 
  491000    1.0891991   -7.1897775    144.86085  0.024586023  0.025049963            2 
  492000    1.0525944   -7.2406414    144.66666   0.02450316   0.02503061            1 
  493000    1.0698561   -7.2456162    144.88608  0.024490548  0.025011199            3 
  494000     1.029263   -7.1487744    145.67201  0.024573551  0.024991706            1 
  495000    1.0697435   -7.2290245     144.7266  0.024364747  0.024972568            3 
  496000    1.0510399   -7.2338983    145.30465  0.024412744  0.024953334            5 
  497000    1.0215351   -7.1983606    145.22051  0.024349515  0.024933872            3 
  498000    1.0394557   -7.1936349    145.96077  0.024424494  0.024914587            5 
  499000    1.0539506   -7.1649165    146.23678  0.024421639  0.024895168            5 
  500000    1.0598843   -7.2368854    146.23345  0.024372241  0.024875367            2 
  501000     1.042666   -7.2258895    145.93501  0.024273954  0.024855123            2 
  502000    1.0339445   -7.2361237    146.50679  0.024320516  0.024835098            6 
  503000    1.0301689   -7.2234556    146.72028  0.024307535  0.024815437            3 
  504000    1.0421276   -7.2000289     146.8722  0.024284424  0.024795696            7 
  505000    1.0315071   -7.1849468    147.33907  0.024313378  0.024776161            5 
  506000     1.068239   -7.2961606    147.10741  0.024227175  0.024756634            4 
  507000    1.0384841    -7.222174    147.38268  0.024224635  0.024736895            2 
  508000    1.0753983   -7.2370039    148.13675  0.024300648  0.024718107            6 
  509000    1.0295255   -7.2799825     148.2675  0.024274312   0.02469916            6 
  510000    1.0748003   -7.2371891     148.6478  0.024288856  0.024680494            6 
  511000    1.0346601   -7.2806053    148.31193  0.024186551  0.024661643            4 
  512000    1.0677889   -7.2584589    148.40429  0.024154343  0.024641918            7 
  513000    1.0557856   -7.2198155    148.80838  0.024172902   0.02462244            2 
  514000     1.065021   -7.2583205    149.38222  0.024218907  0.024603394            5 
  515000    1.0668874   -7.2191257    149.55956  0.024200575  0.024584693            8 
  516000    1.0210693    -7.239973    149.37287  0.024123526  0.024565825            8 
  517000    1.0406609   -7.2177564    149.48421  0.024094812   0.02454688            2 
  518000    1.0394813   -7.2638757    149.23138  0.024007621  0.024527535            4 
  519000    1.0549451   -7.2779631     149.7911  0.024051236  0.024508572            1 
  520000    1.0185491   -7.2900342    149.94804  0.024030134  0.024489205            6 
  521000    1.0580296   -7.1999995    150.69513  0.024103507  0.024470538           14 
  522000    1.0529299   -7.2264772    151.05428  0.024114668  0.024451986            3 
  523000    1.0307192   -7.2332346    150.97733  0.024056299  0.024432887            3 
  524000    1.0397569   -7.2312055    151.23083  0.024050705  0.024414224            2 
  525000    1.0205124   -7.2716401    150.87578  0.023948537  0.024395147            6 
  526000    1.0185375   -7.2896013    150.98399  0.023920151  0.024375884            4 
  527000    1.0295402   -7.2372208    151.26587  0.023919335  0.024356974            3 
  528000    1.0344317   -7.2831029    151.51965  0.023914086  0.024338187            7 
  529000    1.0198694   -7.2541084    152.38568  0.024005306  0.024320007            3 
  530000    1.0413065   -7.2538243    152.81151  0.024026967  0.024302352            2 
  531000    1.0457331   -7.2706439    152.21358  0.023887881   0.02428462            5 
  532000     1.040962   -7.2580654    153.16268  0.023991647  0.024267107            6 
  533000    1.0357381   -7.2273854    153.11796  0.023939644  0.024249155            2 
  534000    1.0348451   -7.2281496    153.30274  0.023923648  0.024231232            5 
  535000    1.0576179   -7.2241654    153.03556  0.023837314  0.024212764            2 
  536000    1.0400779   -7.2542276    153.78208  0.023908906  0.024194258            6 
  537000    1.0109596   -7.2407264    153.80386  0.023867763  0.024176141            2 
  538000    1.0341722   -7.2245605     153.6448   0.02379876  0.024157786            2 
  539000    1.0494098   -7.2666785    153.77144  0.023774187  0.024139646            2 
  540000    1.0310584   -7.2691234    154.09039  0.023779381  0.024121503            3 
  541000    1.0409227   -7.2844942     154.0516  0.023729452  0.024103184            4 
  542000    1.0338737   -7.2840742    154.46602  0.023749388   0.02408465            3 
  543000    1.0472789   -7.2406833     154.7551  0.023750015  0.024066553            5 
  544000    1.0415766   -7.2836193    154.75303   0.02370604  0.024048875            4 
  545000    1.0392267   -7.2993351    155.13972   0.02372167  0.024031116            2 
  546000    1.0157676   -7.2739741    155.83064  0.023783676  0.024013229            4 
  547000    1.0464907   -7.2670857    155.81632  0.023738013  0.023995394            4 
  548000     1.026352    -7.288363    155.82935  0.023696678  0.023977874            2 
  549000    1.0229439   -7.2749858    155.77881  0.023645843  0.023960088            2 
  550000    1.0331846   -7.2844797    156.07466  0.023647676   0.02394236            8 
  551000    1.0141293   -7.2631043     156.5309  0.023673759  0.023924783            5 
  552000    1.0041541   -7.2628017    156.77294  0.023667412  0.023907282            4 
  553000    1.0468618   -7.3158659    156.28714  0.023551407  0.023889424            6 
  554000     1.056219   -7.2453525    156.42514  0.023529654  0.023871012            5 
  555000    1.0243944   -7.2984064    156.72927  0.023532923  0.023852654            2 
  556000    1.0609387   -7.2488024    157.29595  0.023575532  0.023834747            3 
  557000    1.0420742   -7.2986468    157.09371  0.023502948  0.023816933            2 
  558000    1.0310632   -7.3172089    157.33721  0.023497194  0.023798937            2 
  559000    1.0185068   -7.2822548    157.85504  0.023532356  0.023781379            4 
  560000    1.0369826   -7.3094504    158.03366  0.023516913  0.023763886            4 
  561000    1.0165695   -7.2700479    158.09293  0.023483798  0.023746357            3 
  562000    1.0232185   -7.3182623    158.54789  0.023509474  0.023728714            3 
  563000    1.0427988    -7.278074    158.29594  0.023430423  0.023711305            4 
  564000    1.0393785   -7.3239085    158.08098  0.023357119  0.023693734            8 
  565000    1.0319416   -7.3024468    159.11605  0.023468444    0.0236764            4 
  566000     1.021346   -7.2932761     158.8614  0.023389487  0.023659379            3 
  567000    1.0503645   -7.3201861    158.57311  0.023305865  0.023641356            5 
  568000    1.0229623   -7.2970424    159.31351   0.02337346  0.023623757            3 
  569000    1.0494282   -7.2796556    159.32427  0.023333959  0.023606492            2 
  570000    1.0629704   -7.3052755    159.54979  0.023325992  0.023588894            3 
  571000     1.045833   -7.2831006    159.83714  0.023327078  0.023571112            8 
  572000    1.0273999   -7.2793673    160.13788  0.023330111  0.023553495            2 
  573000    1.0196418   -7.3112645    159.76363  0.023234966  0.023535414            2 
  574000     1.019434   -7.2826348    160.43032  0.023291278   0.02351751            8 
  575000     1.033455   -7.3107925    160.00218  0.023188722  0.023499856            4 
  576000    1.0337173   -7.2999176    160.41194  0.023207745  0.023481992            4 
  577000    1.0209297   -7.2937347    160.39281  0.023164762  0.023463648            3 
  578000    1.0436702   -7.3030468    160.38572  0.023123662  0.023444774            5 
  579000    1.0137646   -7.3287438    160.02896  0.023032378  0.023426109            8 
  580000    1.0473984    -7.293349    160.31364  0.023033569  0.023406971            6 
  581000    1.0139577    -7.313546    160.62639  0.023038782  0.023387915            4 
  582000    1.0168904   -7.3278368    160.33969  0.022958146   0.02336844            1 
  583000    1.0174399   -7.3202038    160.59788  0.022955672  0.023349179            3 
  584000    1.0119392   -7.3234645     160.8854  0.022957392  0.023330446            3 
  585000    1.0273334   -7.2836345    161.25386  0.022970635  0.023311443            5 
  586000    1.0257038   -7.3329927    160.95113  0.022888385  0.023292407            4 
  587000    1.0328994   -7.3066449    161.17045   0.02288053  0.023273554            7 
  588000    1.0177636   -7.3298628    161.30171   0.02286022  0.023254474           11 
  589000    1.0271086   -7.2696206    162.04131  0.022926049   0.02323563            5 
  590000    1.0347084   -7.3611843    161.96306  0.022876139  0.023216527            4 
  591000    1.0262564   -7.3097096    161.84069  0.022820176  0.023197102           11 
  592000    1.0151022   -7.3260426    161.92428  0.022793395  0.023178129            5 
  593000     1.051596   -7.3076175    162.94386  0.022898238   0.02315941            6 
  594000     1.011319   -7.3407458    161.97162  0.022723291  0.023140723            9 
  595000    1.0069429   -7.3106856    162.72871  0.022791135  0.023121738            3 
  596000    1.0111868   -7.3202483    162.38251  0.022704489  0.023102792            5 
  597000    1.0207207   -7.2999363    162.58352  0.022694517  0.023083791            3 
  598000    1.0145599   -7.3301491     163.0538  0.022722101   0.02306484            1 
  599000   0.99248624   -7.3342013    162.76968  0.022644641  0.023045613            2 
  600000    1.0249857   -7.3490922    163.12123  0.022655726  0.023025959            5 
  601000    1.0119793   -7.3198275    163.47292  0.022666794  0.023006534            4 
  602000    1.0097709   -7.3221895    163.26013  0.022599686   0.02298687            8 
  603000    1.0360086   -7.3156795    163.18111  0.022551287  0.022967372            4 
  604000   0.99885221   -7.3606212    163.02397   0.02249227  0.022947521            6 
  605000    1.0275763   -7.3806095    163.05671  0.022459602  0.022927346            8 
  606000    1.0019677   -7.3684482    163.22234  0.022445317  0.022907269            9 
  607000    1.0209563   -7.3572854    164.17982  0.022539788  0.022887726            2 
  608000    1.0048223   -7.3375996    164.03892  0.022483404  0.022868109            7 
  609000    1.0239105   -7.3494545    164.61505  0.022525322   0.02284885           17 
  610000    1.0185187   -7.3514794    164.13351   0.02242261  0.022829634            3 
  611000   0.99416711     -7.36584    164.29922  0.022408514  0.022810483            3 
  612000    1.0173693   -7.3481712    164.52143  0.022402156  0.022791364            5 
  613000    1.0237555   -7.3517604    165.08045  0.022441605  0.022772201            4 
  614000    1.0218153   -7.3395863    164.90933  0.022381831   0.02275302            5 
  615000    1.0031266   -7.3494479    165.13795  0.022376416  0.022733704            6 
  616000    1.0114901    -7.360341    165.09521  0.022334309  0.022714348            2 
  617000    1.0133851   -7.3837985    165.11923  0.022301354  0.022695022            2 
  618000    1.0131945   -7.3333502    165.55302  0.022323762  0.022675698            3 
  619000     1.002939   -7.3458158    165.72463    0.0223108   0.02265649            5 
  620000   0.99923614   -7.3440138    165.93422  0.022302987  0.022637537            5 
  621000    1.0145339   -7.3646861    165.95212  0.022269474  0.022618477            7 
  622000    1.0123499   -7.3449754     166.3883  0.022292109  0.022599096            3 
  623000   0.99928702   -7.3265233    166.64864   0.02229115  0.022579737            5 
  624000    1.0105305   -7.3550361    166.42154  0.022225098  0.022560651            5 
  625000   0.99347518   -7.3352885    166.64363   0.02221915  0.022541342            3 
  626000     1.005604   -7.3365707    167.14336  0.022250181  0.022522176            4 
  627000    1.0032609   -7.3687077    166.65258  0.022149466  0.022503154            5 
  628000    1.0063928   -7.3592294    166.50074  0.022094048  0.022484033            8 
  629000      1.02055   -7.3710005    166.83588  0.022103322  0.022464761            4 
  630000   0.98799031   -7.3530303    167.33948  0.022134852  0.022446009            3 
  631000    1.0062069   -7.3986008    167.08745  0.022066489   0.02242665            4 
  632000   0.99421368   -7.3810932    167.30699  0.022060521  0.022407485            4 
  633000   0.98697501    -7.364655     167.6195  0.022066811  0.022388589            5 
  634000   0.98394804   -7.3755267    167.55044  0.022022928  0.022369441            3 
  635000   0.98315413   -7.4073218    166.98463  0.021913993  0.022350035            6 
  636000   0.98543778   -7.3823056    167.45513  0.021941186  0.022330486            4 
  637000   0.99800683   -7.3356201    168.60101  0.022056647  0.022311305            2 
  638000    0.9972878   -7.3569739    167.86777  0.021926302  0.022292186            6 
  639000    1.0041282   -7.3857417    168.28634  0.021946575  0.022272898            6 
  640000    1.0037238   -7.3930745     168.3992   0.02192698  0.022254068            9 
  641000   0.98595626   -7.4021667    168.39301  0.021891967  0.022235021            6 
  642000    0.9877938   -7.3941356    168.87867  0.021920907   0.02221566            3 
  643000    1.0432526    -7.407405    168.73968  0.021868803  0.022196448            4 
  644000   0.98768923   -7.3814408    168.87581  0.021852459   0.02217722            3 
  645000   0.98258561   -7.4261045     168.8247  0.021811977  0.022157623            3 
  646000   0.99029775   -7.4256412    168.98123  0.021798405  0.022138149            3 
  647000   0.99658414   -7.4121229    168.83516  0.021745899  0.022118861            3 
  648000   0.99948645   -7.4350252    168.94026  0.021725857  0.022099326            3 
  649000   0.98673214   -7.4049738    169.59293  0.021776185  0.022080187           13 
  650000   0.99106339   -7.4129125    169.53778  0.021735613  0.022061204            4 
  651000    1.0056012   -7.4079889    169.55022  0.021703817  0.022042097            5 
  652000   0.98757316   -7.3837701    169.87922  0.021712579  0.022023383            3 
  653000   0.99336719   -7.3846292    170.79022  0.021795587  0.022004661            2 
  654000   0.98628451     -7.36801     170.7236  0.021753772  0.021985943            2 
  655000   0.99177108    -7.424367    170.80691  0.021731159  0.021967635            4 
  656000   0.98485809   -7.4239812    170.66286  0.021679734   0.02194861            5 
  657000    1.0037855   -7.4076309    170.55304  0.021632806  0.021929733           10 
  658000   0.99531416   -7.3870601    171.07761  0.021666364  0.021911118           11 
  659000   0.99451983   -7.3899403    171.30665  0.021662449  0.021892447            8 
  660000   0.97943863    -7.431433    171.80932  0.021693096  0.021874016            5 
  661000   0.99306503     -7.41795    171.43151  0.021612646  0.021855505            4 
  662000   0.99075677   -7.4588679    170.91271  0.021514691  0.021836765            2 
  663000   0.99958328   -7.3683702    171.95845  0.021613682  0.021818141            8 
  664000   0.96038936    -7.431569    172.01383  0.021588081  0.021799587            6 
  665000   0.98024039   -7.4292853     171.5726  0.021500325  0.021781164            7 
  666000   0.96338935   -7.3703467    172.45346   0.02157826  0.021762939            4 
  667000   0.97697282   -7.3901259    172.79647  0.021588765  0.021745001            4 
  668000   0.99779391   -7.4094512    172.71694  0.021546525  0.021727022            8 
  669000    0.9748125   -7.4313097    172.80193  0.021524905  0.021709003            7 
  670000   0.99585783   -7.4053007    173.21261  0.021543856  0.021691197            5 
  671000   0.98227418   -7.4089795    173.32944  0.021526259  0.021673277            5 
  672000   0.99046085   -7.4042967    173.53332  0.021519508  0.021655645            4 
  673000   0.98240303   -7.4092364    173.62685  0.021499115  0.021638063            4 
  674000   0.97643513   -7.4134625    173.91526  0.021502876  0.021620326            5 
  675000   0.98698425   -7.4056492    173.90601  0.021469877  0.021602823            5 
  676000    0.9869177   -7.3743912    174.37628  0.021496089  0.021585388            6 
  677000    1.0083155   -7.3862382    174.29403  0.021454213  0.021568001            8 
  678000   0.98412258   -7.4481583    174.26259  0.021418706  0.021550428            2 
  679000   0.98236607   -7.4312216    173.99992  0.021354923  0.021532713           10 
  680000    1.0006494     -7.43354    173.84987  0.021305131   0.02151494            6 
  681000   0.99028915   -7.4147739    174.71622   0.02137986  0.021497081            9 
  682000   0.99790732    -7.417345    174.79624   0.02135829  0.021479246            2 
  683000    0.9884461   -7.4726391    174.36324  0.021274188  0.021461529            6 
  684000   0.98435455   -7.4375745    175.35248  0.021363606  0.021443774            5 
  685000   0.98175515   -7.4479345    175.07639   0.02129883  0.021425666            5 
  686000    1.0016136   -7.3865927    175.14289  0.021275861  0.021407897            9 
  687000   0.98007279   -7.3748759    175.69303  0.021311625  0.021390317            2 
  688000   0.96493211   -7.4251604    174.98176  0.021194496  0.021372261            6 
  689000   0.96745871   -7.4201182    175.29527  0.021201653  0.021354079            6 
  690000   0.98705763   -7.4568956    174.71542  0.021100896  0.021335667            3 
  691000   0.95953047   -7.4569485     174.9845   0.02110281  0.021316997            7 
  692000   0.97070379   -7.3807205    175.03077  0.021077886  0.021298495            5 
  693000   0.96774469   -7.4193304    175.10115  0.021055934  0.021280301            8 
  694000   0.97597638   -7.4228586    175.92068  0.021124002  0.021261926           13 
  695000   0.97449751   -7.4829765    175.19885  0.021007056  0.021243555            5 
  696000   0.96528031   -7.4397317     175.7941  0.021048144  0.021225391            4 
  697000   0.96719059   -7.4124606    175.51241  0.020984267  0.021207318            6 
  698000   0.98635623   -7.4789899    175.97692  0.021009661  0.021189123            5 
  699000    0.9745364    -7.421305    176.99776  0.021101306  0.021171212            7 
  700000   0.99066534   -7.4930982    176.12534  0.020967303  0.021153469            5 
  701000   0.94826592   -7.4876107    176.71576  0.021007579  0.021135528            5 
  702000   0.97614687   -7.4399633    176.68657   0.02097419  0.021117493            4 
  703000   0.97082916   -7.4481755    177.16476  0.021001038  0.021099857            3 
  704000   0.97438393   -7.4708345    177.17976  0.020972983  0.021082062            4 
  705000   0.97599531   -7.4410412    176.82601  0.020901419  0.021064169            3 
  706000   0.96299945   -7.4408537    177.06646  0.020900196  0.021046565            7 
  707000   0.97481748   -7.4511791    176.84689  0.020844753   0.02102879            4 
  708000   0.94587434   -7.4585747     176.9221  0.020824164  0.021010768            4 
  709000   0.96722696   -7.4728528    177.17823  0.020824898  0.020992569            7 
  710000   0.96726495   -7.4504577    177.87026  0.020876792   0.02097463            4 
  711000   0.96741578   -7.4495184    177.42202  0.020794892  0.020956664            3 
  712000   0.94864892   -7.4755994    177.55665  0.020781443   0.02093869            7 
  713000   0.97514672   -7.5029785    177.64044   0.02076209  0.020920843            4 
  714000   0.97211553   -7.4752969    177.90595     0.020764  0.020902884            5 
  715000   0.97772121    -7.492864    177.39175  0.020675029  0.020884837            4 
  716000   0.97778841   -7.4702081    177.64955  0.020676158  0.020866822            3 
  717000   0.97987531   -7.4671371    178.41547   0.02073634  0.020849068            6 
  718000   0.98938221   -7.4876678    178.43207  0.020709386  0.020831494            2 
  719000   0.98303226   -7.4824694    178.76845  0.020719571  0.020813948            4 
  720000   0.96703675   -7.4802078    178.72603  0.020685883  0.020796346            4 
  721000   0.97241072   -7.4999198    178.86883  0.020673697  0.020778513            4 
  722000   0.98804551   -7.5082084    178.53967  0.020607071  0.020760682            5 
  723000   0.96753313   -7.4516109     178.9852  0.020629922  0.020742952            4 
  724000    0.9515822   -7.4868292    179.92034  0.020709063  0.020725471            5 
  725000   0.99459067    -7.520674    179.06754  0.020582476  0.020707965            7 
  726000   0.98996354   -7.4560517    179.53165  0.020607398  0.020690384            7 
  727000   0.96015695   -7.5162216    179.27413  0.020549533  0.020673034           15 
  728000   0.94971816    -7.467271    179.73451  0.020574005  0.020655716            3 
  729000   0.97943152   -7.4751605    179.65424  0.020536608  0.020638582            3 
  730000   0.94010286   -7.4517861    180.64964  0.020622105  0.020621348            5 
  731000   0.97159918   -7.4800623    179.80243  0.020497313  0.020604228            6 
  732000   0.97182075   -7.4116133    180.75298  0.020577525  0.020587041            2 
  733000    0.9618052   -7.4443918    181.09265  0.020588069  0.020569906            5 
  734000   0.95286892   -7.4661896    180.25312  0.020464705  0.020552773            6 
  735000   0.96058822   -7.4732423    180.43628  0.020457628  0.020535392            5 
  736000   0.95873524   -7.4788838     180.0485  0.020385926   0.02051784            3 
  737000   0.94754901   -7.4571938    181.09659  0.020476774  0.020500371            4 
  738000   0.95725573   -7.4831452    180.51121  0.020382928  0.020482981            9 
  739000   0.95026172   -7.4833703    180.96618  0.020406651  0.020465552            6 
  740000   0.95729586   -7.4944549    181.04136   0.02038754  0.020448048            7 
  741000   0.95747521   -7.4729919    181.19769  0.020377608  0.020430695            9 
  742000   0.95245001   -7.4758434    181.10961  0.020340253  0.020413402            4 
  743000   0.95898487   -7.5208984    180.81024    0.0202793  0.020395799            3 
  744000   0.95176673   -7.5146112    181.09152  0.020283549   0.02037835            4 
  745000   0.94737605   -7.5197268    180.79205  0.020222825  0.020360904            5 
  746000   0.96284649   -7.5169777    181.00566  0.020219577  0.020343426            9 
  747000   0.94766406   -7.5303236    181.02915   0.02019513  0.020325801            7 
  748000   0.96266922   -7.5117653    181.67376  0.020239947  0.020308404            4 
  749000   0.97413083   -7.5138955    181.34921  0.020176814  0.020290941            5 
  750000   0.94422074   -7.5229446    181.83982  0.020204424  0.020273733           15 
  751000   0.96104452   -7.5298479    181.96462  0.020191369  0.020256591           12 
  752000   0.95318434   -7.5373473    181.80287  0.020146595  0.020239298            8 
  753000    0.9645712   -7.5411898    182.06465  0.020148811  0.020221895            4 
  754000   0.95490646    -7.553792    182.36474  0.020155255  0.020204606            4 
  755000   0.93398196   -7.4902143    183.24988  0.020226256  0.020187505            3 
  756000   0.95604942   -7.5384563    183.00641  0.020172664  0.020170677            7 
  757000   0.94114611   -7.4955961    183.44732  0.020194553  0.020153902            8 
  758000   0.95085566   -7.4862666    184.12637  0.020242564  0.020137179            4 
  759000   0.96894857    -7.546588    183.11402  0.020104745   0.02012047            7 
  760000   0.94617169   -7.5471423    182.42555  0.020002802  0.020103669            3 
  761000    0.9574968   -7.4997404    183.37722   0.02008073  0.020086951            3 
  762000   0.93777453   -7.4873512    183.45947  0.020063371  0.020070352            5 
  763000   0.94947452    -7.530559    183.80629  0.020074955  0.020053662            6 
  764000   0.96899378   -7.5118082    184.60416  0.020135707  0.020037139            4 
  765000   0.96148575    -7.504739    184.18593  0.020063827    0.0200206            4 
  766000   0.94437867   -7.5163155    184.20737  0.020039966  0.020004122            6 
  767000   0.94106379   -7.5175791    184.02808  0.019994359  0.019987479            3 
  768000    0.9581015    -7.496368    184.52858  0.020022632  0.019970759            5 
  769000   0.94675913   -7.5416387    184.06025  0.019945844  0.019954076           11 
  770000   0.94575014   -7.4894755    184.36502  0.019952924  0.019937384            2 
  771000   0.96183319   -7.5329782    184.33834  0.019924161   0.01992059            6 
  772000   0.94415643   -7.5487264    183.98758   0.01986049  0.019903584            3 
  773000   0.95406956   -7.5620688    184.12995  0.019850145  0.019886562            6 
  774000   0.95171173   -7.5488637    184.90094  0.019907509  0.019869786           14 
  775000    0.9512372   -7.5308042     184.9659  0.019888807  0.019853181            6 
  776000   0.94760261   -7.5723558    184.56087  0.019819681  0.019836361            3 
  777000   0.94394972   -7.5495405    184.97238  0.019838307  0.019819559            6 
  778000   0.93998816    -7.562616    184.85866  0.019800628  0.019802654            8 
  779000   0.92559816   -7.5587771    185.06473  0.019797254  0.019785621           11 
  780000    0.9382979    -7.550774    185.36292  0.019803731  0.019768679            8 
  781000    0.9311699   -7.5523976    185.29382  0.019771001  0.019751875            5 
  782000   0.92745499   -7.5521354    184.74233  0.019686949  0.019735196            4 
  783000   0.95033993   -7.5576622    185.07593   0.01969731  0.019718347            4 
  784000   0.93050256   -7.5237175    185.79847  0.019748987  0.019701524            5 
  785000   0.93988861   -7.4949587    186.41304   0.01978907  0.019685069           10 
  786000   0.96676989   -7.5578903    185.47611  0.019664557  0.019668416            5 
  787000   0.92510817   -7.5282281    185.71787   0.01966517  0.019651694            3 
  788000   0.95229974   -7.5255417    186.16732  0.019687745  0.019635084            5 
  789000   0.93130278   -7.5737753     186.1575  0.019661755  0.019618597            5 
  790000   0.94018184   -7.5632511    185.74162  0.019592998  0.019601903            7 
  791000   0.92877821   -7.5587078    186.29214  0.019626226  0.019585245            3 
  792000   0.93447838   -7.6074571    185.88711  0.019558828  0.019568534            7 
  793000    0.9261236   -7.5040412    186.76161  0.019626063  0.019551768            5 
  794000   0.95051476   -7.5643382    186.80381  0.019605774  0.019535317            5 
  795000   0.91067758   -7.5238317    186.91922   0.01959321  0.019518938            6 
  796000   0.92081381     -7.58414    186.45919  0.019520434  0.019502608            6 
  797000   0.93586764   -7.5648056     187.0002  0.019552509  0.019486202            6 
  798000   0.92575282   -7.5730668    186.34025  0.019459091  0.019469716            4 
  799000   0.95247529   -7.5500929    186.95982  0.019499355  0.019453211            5 
  800000   0.93373069   -7.5475485    186.87997  0.019466663  0.019436536            4 
  801000   0.93968585   -7.5349743    187.17556  0.019473112  0.019419863            5 
  802000   0.91021441   -7.5293096    187.51486  0.019484087  0.019403516            7 
  803000   0.94418604   -7.5641692    187.08461  0.019415173  0.019387144            6 
  804000   0.90980252   -7.5290425    187.49064  0.019433109  0.019370424            5 
  805000   0.93126606   -7.5776218    186.67887  0.019324935  0.019353707            7 
  806000   0.93734469   -7.5794648    187.55176  0.019391208  0.019337122            7 
  807000   0.92913148   -7.6003937    187.16295  0.019327029  0.019320539            9 
  808000   0.94016478   -7.5998956    187.18659  0.019305548  0.019303751           10 
  809000    0.9270037   -7.5800231    187.65287  0.019329715  0.019286945            7 
  810000   0.93065959   -7.6089193    187.59883  0.019300291  0.019270183            5 
  811000   0.93223806   -7.6177756      187.479   0.01926418  0.019253473            4 
  812000   0.91935113   -7.5906996    187.24133  0.019216064  0.019236604            5 
  813000   0.92111246   -7.5718923    187.75594  0.019245176  0.019219713            5 
  814000   0.93133618   -7.6303568    187.74324  0.019220234  0.019202892            5 
  815000   0.93268977   -7.6011147    187.90473  0.019213162  0.019186249            4 
  816000   0.93983538   -7.5843533    188.41472  0.019241699  0.019169599            3 
  817000   0.91879166   -7.6098291    188.11967  0.019188053  0.019153152            8 
  818000    0.9274168   -7.5982073    188.20747  0.019173541  0.019136618            6 
  819000   0.92040099   -7.6008239    188.44503  0.019174301  0.019120196            9 
  820000   0.91812558   -7.6167761     188.8796  0.019195081  0.019103761            5 
  821000   0.93064285   -7.5534649     189.3128  0.019215672  0.019087345           13 
  822000    0.9371673   -7.5660012    188.71065   0.01913125  0.019071077            4 
  823000    0.9092395   -7.5979845    188.83276  0.019120369  0.019054744            8 
  824000   0.92460094   -7.6189877    189.41026  0.019155568  0.019038374            7 
  825000   0.94043349   -7.6390668    188.69646  0.019060249  0.019021868            3 
  826000     0.920423   -7.6127968    188.63522  0.019030995  0.019005484            4 
  827000   0.95231749   -7.5738245    189.43155  0.019088225  0.018989139           11 
  828000    0.9209316   -7.5730321    189.35135    0.0190571  0.018972819            7 
  829000   0.94339075   -7.6089204    189.50313   0.01904937  0.018956308            6 
  830000   0.93106031   -7.5927095    189.39207  0.019015268  0.018939785           11 
  831000   0.91908086   -7.5900984    189.20116  0.018973241  0.018923289            9 
  832000    0.9101365   -7.5987025    189.32424  0.018962764  0.018906777            3 
  833000   0.91558862   -7.6243441    189.67624  0.018975214  0.018890377            4 
  834000    0.9139211   -7.6161826    189.51013  0.018935864  0.018873972            5 
  835000   0.90279854    -7.601793    189.42976  0.018905165  0.018857572            5 
  836000   0.93678729   -7.6293582    189.48492   0.01888805  0.018841059            5 
  837000   0.91365142   -7.6105192    189.75583  0.018892457  0.018824867            4 
  838000   0.91725509   -7.6157574    189.91417  0.018885657  0.018808557            4 
  839000   0.91757155   -7.6421087    189.59358  0.018831306  0.018792305            4 
  840000   0.92484167   -7.6149058    190.05428  0.018854592  0.018776016            6 
  841000   0.91538099   -7.6512336    189.72301  0.018799347  0.018759636            4 
  842000   0.93334556    -7.646237    189.70327  0.018775067  0.018743015            3 
  843000    0.9203656   -7.6489547     190.3251  0.018814265  0.018726498            8 
  844000   0.93064391   -7.6220128     190.0147  0.018761325  0.018709995            6 
  845000   0.90961791   -7.6506825    189.97205  0.018734916  0.018693602            9 
  846000   0.92471367   -7.6386754    190.36509  0.018751487  0.018677324            3 
  847000   0.88884256   -7.6373215    190.78592  0.018770752  0.018660942            7 
  848000   0.91603429   -7.6469412    189.86955  0.018658564  0.018644538            5 
  849000    0.9271002   -7.6151373    190.97253  0.018744849  0.018628157           14 
  850000   0.91001277   -7.6621839    190.29992  0.018656855  0.018611786            7 
  851000   0.90309009   -7.6433064    190.69403  0.018673525  0.018595299           23 
  852000   0.90131479   -7.6382801    190.82639  0.018664553  0.018578932            5 
  853000   0.91600946   -7.6629922    190.28225  0.018589513    0.0185625           11 
  854000   0.91748421   -7.6684501    190.49422  0.018588429  0.018546051           17 
  855000   0.91342439   -7.6527665     190.4991  0.018567164  0.018529649            9 
  856000   0.92603082   -7.6560692    191.45364  0.018638399  0.018513235           16 
  857000   0.90986209   -7.6488689    190.78249  0.018551389  0.018496867            8 
  858000   0.90367612   -7.6781723    190.86957  0.018538226   0.01848027            8 
  859000   0.91801419   -7.6626967    190.82653  0.018512469  0.018463652            8 
  860000   0.91432332   -7.6505311    191.06043  0.018513608  0.018447208           15 
  861000   0.91614164   -7.6540088    191.08417  0.018494403   0.01843085            9 
  862000   0.90865128   -7.6260059    191.74922  0.018537241  0.018414488            3 
  863000   0.89650759   -7.6155834    191.60812  0.018502136  0.018398159            4 
  864000    0.9130828   -7.6427029    191.78495  0.018497776   0.01838178           13 
  865000   0.91649886   -7.6189714    191.94488    0.0184918  0.018365523            4 
  866000   0.90840541   -7.5890648    191.85444  0.018461743  0.018349462           14 
  867000   0.89632563   -7.6365289    191.83252  0.018438343  0.018333314            4 
  868000   0.87663004    -7.642574    191.54323  0.018389327   0.01831701            2 
  869000    0.9130076   -7.6511429    191.48077  0.018362175  0.018300804            4 
  870000   0.89682254   -7.6558829    191.91244  0.018382417  0.018284634            8 
  871000   0.89471601   -7.6657268    191.68331   0.01833939  0.018268614            3 
  872000   0.88582988   -7.6849545    191.88125  0.018337276  0.018252449            8 
  873000   0.89403155   -7.6512523    192.26834   0.01835322  0.018236372            3 
  874000   0.92771825   -7.6787363    192.13339  0.018319355  0.018220373            6 
  875000   0.89948647   -7.6959478     191.9517  0.018281114  0.018204241            5 
  876000   0.90175682   -7.6622411    192.26209  0.018289773  0.018188134            3 
  877000   0.89073006   -7.7033588    192.60502  0.018301503  0.018171963            4 
  878000   0.92224811   -7.7040914    192.21892  0.018244013  0.018155786            2 
  879000   0.91223409   -7.6858716    192.24583  0.018225808  0.018139488           16 
  880000   0.88594823   -7.7173746    191.86064  0.018168621    0.0181231           10 
  881000   0.89951793   -7.6695803    192.75738  0.018232821  0.018106811            5 
  882000    0.8936588   -7.6727291    192.55108  0.018192657  0.018090694            4 
  883000   0.87889176   -7.6633089     193.1136  0.018225141  0.018074625            6 
  884000   0.90619228   -7.6806001    193.04441  0.018198003  0.018058628            7 
  885000   0.89420043   -7.6717511    192.73678  0.018148473  0.018042658            4 
  886000   0.88091716   -7.7349483     192.4744  0.018103311  0.018026619           10 
  887000   0.88867866   -7.7231758    192.86721  0.018119806  0.018010497           25 
  888000   0.92399704   -7.6936975    193.14703   0.01812566  0.017994546            7 
  889000    0.9068454   -7.7225525    193.12247  0.018102969  0.017978543           11 
  890000   0.89539598   -7.6877457     193.2787  0.018097256  0.017962465           13 
  891000   0.90134504   -7.6805544    193.81594  0.018127192  0.017946674            6 
  892000   0.90795247   -7.7376508    193.48117  0.018075596  0.017930817            6 
  893000   0.89527386   -7.6962953      193.441  0.018051605  0.017914922            7 
  894000   0.90711429   -7.6872283    193.21427  0.018010279  0.017899098           10 
  895000    0.8987495    -7.692761    193.56759  0.018023053  0.017883201           11 
  896000   0.90390577   -7.7411966    193.56344  0.018002552  0.017867406            7 
  897000   0.90829581   -7.6899925    193.85946  0.018009983  0.017851709            8 
  898000   0.89779766   -7.6584538    194.29993  0.018030803  0.017836165            8 
  899000   0.89371362   -7.6887611    194.03476  0.017986166  0.017820524            6 
  900000   0.89339815   -7.7243928    194.22531  0.017983825  0.017804797            5 
  901000   0.89852103   -7.7178021    194.11233  0.017953416  0.017789021            9 
  902000   0.88507981   -7.6574196    194.46791  0.017966363  0.017773276           10 
  903000   0.89681932   -7.6819227     194.2614  0.017927408  0.017757648            8 
  904000   0.89118039   -7.6860836    194.31258  0.017912295  0.017742208           16 
  905000    0.9154618   -7.7143184    194.91292  0.017947783  0.017726647           26 
  906000    0.8846249   -7.7124279    194.45151  0.017885532  0.017711095            8 
  907000   0.89711818   -7.7167316     194.9416  0.017910842  0.017695465            4 
  908000   0.88677234    -7.731124    194.95996  0.017892801  0.017679953           10 
  909000   0.88749047    -7.704751    194.54437  0.017835018  0.017664467            5 
  910000   0.86784019   -7.6951768    195.33899  0.017888185  0.017648996            8 
  911000   0.87667475   -7.7253199    194.60354  0.017801275  0.017633564            6 
  912000   0.87787137   -7.6928767    195.16474  0.017833035  0.017618073            5 
  913000   0.89061672   -7.7187286    194.71509  0.017772462  0.017602621           10 
  914000   0.89036114   -7.7477199    195.28907  0.017805349  0.017587173           16 
  915000   0.87769893   -7.7447934    194.89901  0.017750365  0.017571814           10 
  916000   0.89399857   -7.7235389    195.29187  0.017766728  0.017556435            4 
  917000   0.87247389   -7.7070989    195.72368  0.017786594  0.017541162            8 
  918000   0.86873887   -7.7210658    195.84566  0.017778291   0.01752584            8 
  919000   0.89058967   -7.7231498    195.64274  0.017740546   0.01751046            5 
  920000   0.89531813   -7.7011965    195.41665  0.017700784  0.017495134            6 
  921000   0.90319596   -7.6951156    196.52618  0.017781956  0.017479784           10 
  922000   0.89299437   -7.7477776    195.96514  0.017711961   0.01746462            4 
  923000   0.88999071   -7.7229959    196.18419  0.017712549  0.017449402            4 
  924000   0.88967568   -7.7577724    196.13213  0.017688684  0.017434147           16 
  925000   0.86562762   -7.7286813    196.11092  0.017667651  0.017418907            7 
  926000   0.89511486   -7.7288257    196.39487  0.017674125  0.017403815            9 
  927000   0.88524221   -7.7632302    195.98959  0.017618626  0.017388695            7 
  928000   0.88326481   -7.7433559    196.80001  0.017672415   0.01737355           13 
  929000   0.89642058   -7.7426673    196.43556    0.0176207  0.017358398           10 
  930000   0.88275561   -7.7270863    196.07463  0.017569411  0.017343234           14 
  931000   0.88313956   -7.7058271    196.66897  0.017603739  0.017328105            6 
  932000   0.86877224   -7.7504434    196.76184  0.017593155  0.017312975            3 
  933000   0.87880429   -7.7380368    196.33904  0.017536535    0.0172978            5 
  934000   0.87632627   -7.7093902    196.88988  0.017566906  0.017282804            5 
  935000   0.86729445   -7.7202641    197.13623  0.017570074  0.017267792           10 
  936000    0.8660721    -7.731744    197.04673  0.017543334  0.017252736           19 
  937000   0.89090474   -7.7431776     197.0663  0.017526352  0.017237699            7 
  938000    0.8733355   -7.7858849    196.98998  0.017500886  0.017222673            9 
  939000   0.88467224   -7.7838025    196.46852  0.017435971  0.017207784           11 
  940000   0.87877171   -7.7433096    197.17691  0.017480222  0.017192735           15 
  941000   0.89021221   -7.7905593    196.70563  0.017419911  0.017177651            6 
  942000   0.88417729   -7.8043785    197.07292   0.01743391  0.017162582            4 
  943000    0.8631461   -7.7586671    196.84522    0.0173953  0.017147557            3 
  944000   0.87520341    -7.776022    197.30016  0.017417034  0.017132541           10 
  945000   0.88755641   -7.7763322    196.89576  0.017362942  0.017117407           13 
  946000   0.88996054   -7.7974555    197.15537  0.017367457  0.017102199           13 
  947000   0.88917592   -7.7832347    197.11211  0.017345311  0.017087064           14 
  948000   0.86868332   -7.7571656    197.47813  0.017359188  0.017072011           19 
  949000   0.85529686   -7.7940818    197.32542  0.017327487  0.017057003           23 
  950000   0.88581069   -7.7846751    197.39873  0.017315678  0.017041952            7 
  951000   0.89524386   -7.7551316    197.61282   0.01731623  0.017026908            9 
  952000   0.87667893   -7.7840342    197.43661  0.017282616  0.017011876            6 
  953000   0.88160923   -7.7828617    196.47468  0.017180367  0.016996819           11 
  954000   0.86251291   -7.7751391    197.52764  0.017254336  0.016981833           10 
  955000   0.86912774   -7.7241988    198.18606  0.017293722  0.016966898            4 
  956000   0.86556078     -7.73739    198.04801  0.017263599  0.016951997            3 
  957000   0.87865601   -7.7516759    198.17153  0.017256316  0.016937247            5 
  958000    0.8675387   -7.7459467    198.01312  0.017224523  0.016922375            6 
  959000   0.86976895   -7.7377586    198.68691  0.017265112  0.016907584           10 
  960000   0.87801425   -7.7554125    198.31203  0.017214586  0.016892828            8 
  961000   0.87334367   -7.7625429    198.58392  0.017220249  0.016878027            9 
  962000   0.84691379   -7.7379356    198.40227  0.017186614  0.016863257            4 
  963000   0.87924268   -7.7531701    198.04727  0.017138047   0.01684832            9 
  964000   0.88247483   -7.7948841    198.01574  0.017117543  0.016833371            9 
  965000   0.86987714   -7.8131935    197.54509  0.017059161  0.016818361            9 
  966000   0.85484051   -7.7731541    197.85501  0.017068238  0.016803272           16 
  967000   0.85809167   -7.7919956    197.56927  0.017025963  0.016788137            5 
  968000   0.87415796   -7.8220029    197.89906  0.017036765  0.016773142            7 
  969000   0.86417464   -7.8219196    197.20441  0.016959443   0.01675802            9 
  970000   0.86934582    -7.794525     197.7793  0.016991349  0.016742951           50 
  971000    0.8752796   -7.7753723    198.32865  0.017020997   0.01672789            5 
  972000   0.86842125    -7.799933    198.08375  0.016982489  0.016712923            6 
  973000   0.85918378   -7.7719009    198.45998  0.016997258  0.016698009            7 
  974000   0.86722222   -7.7921806    198.28944  0.016965216   0.01668299            8 
  975000   0.85386685   -7.7938616    198.51372  0.016966985  0.016668031           13 
  976000   0.85172891   -7.8123825    197.87652  0.016895195  0.016653006           28 
  977000   0.86665497   -7.7978358    198.91188  0.016966213   0.01663805           26 
  978000     0.862375   -7.8013492    198.13947   0.01688305  0.016623108           21 
  979000   0.85377895    -7.821257    198.47431  0.016894307  0.016608193            9 
  980000   0.87242468   -7.8238182    198.52356  0.016881255  0.016593391            6 
  981000    0.8474398   -7.7711465    198.71148   0.01688001  0.016578686            6 
  982000     0.879893   -7.7997421    198.97137  0.016884876  0.016563904            7 
  983000   0.85032118   -7.7912206    198.33897  0.016814087  0.016549127            9 
  984000   0.85236024   -7.7934649    198.50719  0.016811246   0.01653435            8 
  985000   0.87049046   -7.8250457     198.5471  0.016797555  0.016519425            9 
  986000   0.86147386     -7.80504    198.43643  0.016771166  0.016504585           14 
  987000    0.8505315   -7.8001857    199.25891  0.016823616  0.016489884           16 
  988000   0.85989187   -7.7822782    198.99075   0.01678397  0.016475222           21 
  989000   0.85456431   -7.7767671     199.1498  0.016780401  0.016460457           15 
  990000   0.85401758   -7.8024839    199.06396  0.016756225  0.016445728            7 
  991000   0.85608942   -7.8052094    199.18589  0.016749571  0.016431088           13 
  992000   0.86814532   -7.7952184    199.30987  0.016743101  0.016416384           16 
  993000   0.85324376   -7.7965737    199.27593  0.016723391  0.016401653            9 
  994000    0.8614721   -7.7995389    199.19618  0.016699881  0.016386936           14 
  995000   0.85628385   -7.8104548    199.77837  0.016731857   0.01637234           13 
  996000   0.85080904   -7.8005755    199.96995  0.016731087  0.016357665            3 
  997000   0.84517393   -7.8151641    199.71216  0.016692758  0.016342991            6 
  998000   0.84917227   -7.8079649    200.31462  0.016726338  0.016328484            7 
  999000   0.84358109   -7.8383198    199.51352  0.016642769  0.016313863           10 
 1000000   0.84610912   -7.8606634    199.41344  0.016617787  0.016299243           10 
 1001000   0.86304419   -7.8380993    199.31975  0.016593386  0.016284501           40 
 1002000   0.84641796   -7.8392337    199.78526   0.01661554  0.016269907           55 
 1003000   0.85873778    -7.811264    199.60492  0.016583991  0.016255407           40 
 1004000   0.83309173   -7.7979312     199.4907  0.016557993  0.016240889           33 
 1005000   0.83718584   -7.8399689    199.96641  0.016580963  0.016226382           33 
 1006000   0.84513204   -7.8164566    199.87349  0.016556783  0.016211811           25 
 1007000   0.82975861   -7.8076943    200.14052  0.016562439  0.016197379           35 
 1008000   0.85260372   -7.7973602    200.04961  0.016538493   0.01618303           34 
 1009000   0.86970951   -7.8356515    200.45897  0.016555911  0.016168702           26 
 1010000   0.84742425    -7.864174    200.03039  0.016504157  0.016154353           29 
 1011000   0.85741205   -7.8509204    199.81627  0.016470184  0.016140032           46 
 1012000   0.85322766   -7.8516264    200.26813  0.016491118  0.016125715           34 
 1013000   0.85791717   -7.8373485    200.20788  0.016469881  0.016111351           38 
 1014000    0.8348024   -7.8817285    200.35721  0.016465912  0.016097018           60 
 1015000   0.85921294   -7.8520314    200.58348  0.016468266  0.016082643           68 
 1016000    0.8498446   -7.8804367    200.59353  0.016452881  0.016068294           81 
 1017000   0.85076751   -7.8411781    200.79853  0.016453501  0.016053964          103 
 1018000    0.8486893    -7.848742    200.89046  0.016444864  0.016039653           88 
 1019000    0.8523399   -7.8537199    200.57595  0.016403006  0.016025313           90 
 1020000   0.84626709   -7.8766932    200.81245  0.016406246  0.016010939           98 
 1021000   0.85235415    -7.856192    200.61677  0.016374206  0.015996535          121 
 1022000   0.84246548   -7.8801126    200.18245   0.01632277   0.01598206          108 
 1023000   0.86053357   -7.8887553    200.06536  0.016297276  0.015967563          101 
 1024000   0.84109278   -7.8812132    200.24824  0.016296243  0.015953063          152 
 1025000   0.83781082   -7.9048477    200.00829  0.016260837   0.01593859          135 
 1026000   0.84203667   -7.8908219     200.3182  0.016270159  0.015924141           97 
 1027000   0.85553387   -7.9050171    200.42637  0.016263094  0.015909691          124 
 1028000   0.86386535   -7.9164919    200.19974  0.016228903  0.015895264          159 
 1029000   0.85578545   -7.9195084    200.20645  0.016213675  0.015880768          146 
 1030000    0.8392058   -7.8863906    200.66433  0.016234978  0.015866197          148 
 1031000   0.83740793   -7.9142763    200.61392  0.016215157  0.015851681          122 
 1032000   0.84414013   -7.9027691    200.20853   0.01616671  0.015837176          160 
 1033000    0.8598856   -7.9045123    199.81019  0.016118925  0.015822694          155 
 1034000   0.83471018   -7.9209924    200.57097   0.01616465  0.015808222          147 
 1035000    0.8284116   -7.8893236     200.2631  0.016124243  0.015793759          152 
 1036000   0.82023149   -7.9367456    200.57442  0.016133721  0.015779277          202 
 1037000   0.83131611   -7.9432313    200.21486  0.016089269  0.015764781          191 
 1038000   0.83595605   -7.9263413    200.81087  0.016121618  0.015750271          218 
 1039000   0.82792934   -7.9140137    200.75654  0.016101744  0.015735745          191 
 1040000     0.838027   -7.8771344    200.62398  0.016075639  0.015721344          159 
 1041000   0.82872956   -7.9253852    200.13115  0.016020746  0.015706905          218 
 1042000   0.83881871   -7.9485479    200.65776  0.016047486  0.015692435          205 
 1043000   0.84299436   -7.9325775    200.64858  0.016031367  0.015678005          203 
 1044000    0.8333488   -7.9091046    200.41922  0.015997702  0.015663675          185 
 1045000   0.83656866    -7.917697    200.66658  0.016002119  0.015649199          193 
 1046000   0.84518024   -7.9542614    200.90127  0.016005519  0.015634762          212 
 1047000   0.83147236   -7.9548395    200.38191  0.015948894  0.015620295          172 
 1048000   0.83928043   -7.9200846    200.22096  0.015920878  0.015605805          190 
 1049000   0.82052017   -7.9284576    200.29264  0.015911395  0.015591332          210 
 1050000   0.83630893    -7.962617    200.35171   0.01590093  0.015576711          230 
 1051000   0.84185011   -7.9258164    200.62453  0.015907432  0.015562105          197 
 1052000   0.85024827   -7.9497363     200.3029  0.015866833   0.01554758          204 
 1053000   0.84873964   -7.9425336      200.457   0.01586396   0.01553302          216 
 1054000   0.83246281   -7.9344537    200.41264  0.015845401  0.015518447          231 
 1055000   0.82916932   -7.9391137    200.54005  0.015840446  0.015503996          266 
 1056000   0.82189628   -7.9332648     200.2978  0.015806329   0.01548951          229 
 1057000    0.8407172   -7.9417933    201.02762  0.015848914  0.015474993          271 
 1058000     0.822972    -7.954201     200.2287  0.015771007  0.015460425          245 
 1059000    0.8171324   -7.9184929    200.80271  0.015801284  0.015445829          289 
 1060000   0.81853266   -7.9526096     200.5145  0.015763718  0.015431317          333 
 1061000   0.82090448   -7.9805963    200.18908  0.015723302  0.015416783          297 
 1062000   0.82038343   -7.9842427    200.83226  0.015758966  0.015402295          342 
 1063000   0.82406378   -7.9532489    200.84172  0.015744883  0.015387827          339 
 1064000   0.81960386   -7.9783125    200.55071  0.015707292  0.015373352          361 
 1065000   0.82916862   -8.0001623    200.40103  0.015680832   0.01535879          334 
 1066000   0.82443871   -7.9763667    200.68376  0.015688224  0.015344182          362 
 1067000   0.82415964   -8.0039502    200.98894  0.015697356  0.015329741          398 
 1068000    0.8136506   -7.9827728    200.51432  0.015645624  0.015315266          359 
 1069000   0.82075998   -7.9652138     200.6375  0.015640591  0.015300797          433 
 1070000   0.83202316   -7.9716894    200.88948  0.015645598  0.015286272          470 
 1071000   0.82513423   -8.0083093    200.16597  0.015574694  0.015271717          568 
 1072000    0.8122281   -7.9972609    200.18209  0.015561419  0.015257133          509 
 1073000   0.83165223   -8.0390174    200.40904  0.015564541  0.015242615          483 
 1074000   0.81529607   -8.0014447      200.927  0.015590239  0.015228116          498 
 1075000   0.81654009   -7.9815025    200.91717  0.015574975  0.015213591          455 
 1076000   0.81820424   -8.0173677    200.51226   0.01552914   0.01519906          462 
 1077000   0.81610932   -8.0385946    200.42078  0.015507643   0.01518446          530 
 1078000    0.8301801   -8.0167654    200.28245  0.015482564  0.015169877          585 
 1079000   0.81867932   -8.0664488    200.05439  0.015450602  0.015155237          567 
 1080000   0.82332466   -8.0560612    200.15411   0.01544399  0.015140623          616 
 1081000   0.84114691   -8.0705322    200.22267  0.015434989  0.015125974          605 
 1082000   0.82757311   -8.0394734    200.42764   0.01543651  0.015111383          640 
 1083000   0.83504234   -8.0643231    200.03517  0.015392057  0.015096744          587 
 1084000   0.81590995   -8.0428247     200.2183  0.015391936  0.015082116          664 
 1085000   0.83534703   -8.0622488    200.38515  0.015390564  0.015067475          724 
 1086000   0.83302571   -8.0686032    200.30852  0.015370513  0.015052829          795 
 1087000   0.82356705   -8.0899779    200.17194  0.015345902  0.015038197          751 
 1088000   0.82969529   -8.0896116    199.82967  0.015305581  0.015023546          830 
 1089000   0.80826596   -8.1136683    200.01333  0.015305581  0.015008893          889 
 1090000    0.8089261   -8.1261398    199.96961  0.015288196  0.014994217          881 
 1091000   0.81974959   -8.1133852    199.88926  0.015268046  0.014979513          908 
 1092000    0.8068573   -8.0982075    200.64757  0.015311933  0.014964868          967 
 1093000   0.82029747   -8.1176561    200.11467  0.015257294  0.014950138          939 
 1094000   0.80848811   -8.1082224    199.59156  0.015203501  0.014935454          955 
 1095000   0.83207025   -8.1257517    199.80615  0.015205947  0.014920753          959 
 1096000   0.82743079   -8.1212153    199.63762  0.015179259   0.01490605          937 
 1097000   0.80307128   -8.1351726    199.88097  0.015183908  0.014891326         1052 
 1098000   0.80798837   -8.1201971    199.94941  0.015175274  0.014876673         1094 
 1099000   0.79776289   -8.1499569    199.88991  0.015156954  0.014861919         1169 
 1100000   0.79622083   -8.1434678    199.97837  0.015149877   0.01484719         1143 
 1101000   0.80223429   -8.1294742    199.90085  0.015130249  0.014832453         1165 
 1102000   0.82749158   -8.1524183    199.54569  0.015089662  0.014817748         1234 
 1103000   0.81561323   -8.1710385    199.92055  0.015104302  0.014802966         1313 
 1104000   0.82488768   -8.1990131    199.17622  0.015034437  0.014788213         1309 
 1105000   0.80928229   -8.2004498    199.49331  0.015044744  0.014773414         1309 
 1106000   0.79244087   -8.1995402    199.49191  0.015031036  0.014758599         1346 
 1107000   0.81845216   -8.1949573    199.34283  0.015006235  0.014743781         1379 
 1108000   0.80878756   -8.1808307    199.47547  0.015002668  0.014729008         1439 
 1109000   0.81354145   -8.2259193    199.20922  0.014969133  0.014714196         1515 
 1110000   0.83103034    -8.206676    199.38763  0.014969041  0.014699353         1628 
 1111000   0.81628185    -8.223828    199.28122  0.014947586  0.014684445         1574 
 1112000   0.80672994   -8.2212058    198.72461  0.014892432  0.014669546         1657 
 1113000   0.80633202   -8.2194211    199.03189  0.014902058   0.01465461         1778 
 1114000   0.80313156   -8.2583104    199.27997  0.014907239  0.014639658         1862 
 1115000   0.80909042   -8.2673981    199.06995  0.014878173  0.014624682         1958 
 1116000     0.827077    -8.308658    198.48387  0.014821077   0.01460961         2063 
 1117000    0.8440737   -8.3312178    198.14507  0.014782533  0.014594517         2114 
 1118000   0.79313891   -8.2986157    198.83303   0.01482059  0.014579383         2183 
 1119000   0.80740613    -8.309039    198.06657  0.014750266  0.014564285         2194 
 1120000    0.8007158   -8.3539921    198.55937  0.014773763  0.014549098         2272 
 1121000   0.80365633   -8.3098358    198.38251  0.014747436   0.01453392         2331 
 1122000   0.80631265   -8.3368233    198.91387  0.014773758  0.014518734         2334 
 1123000   0.82354241   -8.3501922    198.65849  0.014741651  0.014503547         2375 
 1124000   0.82968752   -8.3856845    197.74209  0.014660594   0.01448832         2477 
 1125000   0.80831901   -8.3822872    197.91753  0.014660558  0.014472995         2487 
 1126000   0.79183396   -8.3979532    197.74553  0.014634808  0.014457618         2614 
 1127000   0.80617947   -8.4198973    197.65442  0.014615086  0.014442283         2709 
 1128000   0.78955505   -8.4266526    197.37934  0.014581807   0.01442685         2695 
 1129000   0.78982226   -8.4302964    197.36944  0.014568161  0.014411418         2766 
 1130000   0.78790682   -8.4702748    196.81548  0.014514416    0.0143959         2923 
 1131000    0.8043221   -8.4764377     196.4837  0.014477136  0.014380344         2864 
 1132000   0.79031289   -8.4758595    196.67265  0.014478258  0.014364784         2924 
 1133000   0.79023765   -8.4770861    196.80077  0.014474902  0.014349222         3042 
 1134000   0.80238207   -8.4736186    197.15189   0.01448794  0.014333624         2992 
 1135000   0.79758504   -8.4855271    196.62083  0.014436185  0.014318063         3065 
 1136000   0.79817359   -8.5020697    196.70257  0.014429473  0.014302469         3061 
 1137000   0.81908065   -8.5154405    196.88156    0.0144299  0.014286843         3158 
 1138000   0.78984169   -8.5014814    196.76872  0.014408957  0.014271222         3191 
 1139000   0.79617545   -8.5315344    196.36204  0.014366553  0.014255615         3301 
 1140000   0.79888173   -8.5539481    196.20798  0.014342689  0.014239956         3325 
 1141000   0.80613822   -8.5311873    196.14395  0.014325442  0.014224294         3373 
 1142000   0.79793296   -8.5696787    196.40612  0.014332029    0.0142086         3389 
 1143000   0.80774285   -8.5696047    195.78448  0.014274167  0.014192881         3448 
 1144000   0.80427586   -8.5767096    196.46805  0.014311484  0.014177137         3490 
 1145000   0.79057005   -8.6074911    195.66571   0.01424059  0.014161396         3561 
 1146000   0.79008325   -8.5577522    196.32573  0.014276158  0.014145642         3511 
 1147000   0.79459227   -8.5664501    195.89148  0.014232162  0.014129892         3501 
 1148000   0.79150599    -8.575208    196.00224  0.014227805  0.014114159         3507 
 1149000   0.80118826    -8.589577    196.09694   0.01422229  0.014098428         3523 
 1150000   0.77981008    -8.590851    196.23879  0.014220202  0.014082728         3546 
 1151000   0.78449137   -8.5815187    195.94802  0.014186796  0.014066994         3585 
 1152000   0.78668149   -8.6049836    195.78716  0.014162844  0.014051259         3597 
 1153000   0.76714554   -8.5935114    195.67294  0.014142306  0.014035557         3628 
 1154000    0.7950163   -8.6049855    195.72736   0.01413398  0.014019811         3554 
 1155000   0.81220236   -8.6410207    195.39557  0.014097805  0.014004065         3646 
 1156000   0.81756571   -8.6192047    195.93655  0.014124607  0.013988339         3655 
 1157000   0.78621907   -8.6602323    195.38148   0.01407242   0.01397263         3718 
 1158000   0.79447552   -8.5958547     195.6093  0.014076662   0.01395692         3665 
 1159000   0.78143055   -8.6157472    195.35089  0.014045937  0.013941247         3680 
 1160000   0.81630036   -8.6198937    195.64703  0.014055103  0.013925592         3681 
 1161000     0.803498   -8.6176012    195.30943  0.014018765  0.013909939         3704 
 1162000   0.78942624   -8.6334067    195.62274  0.014029169  0.013894317         3701 
 1163000   0.78207231   -8.6203172    195.57387  0.014013605  0.013878666         3687 
 1164000    0.7929198   -8.6480805    195.41893  0.013990473  0.013863038         3694 
 1165000   0.81034317   -8.6444158    195.14452  0.013958835  0.013847399         3733 
 1166000   0.79450155   -8.6559852    195.14664  0.013947015  0.013831742         3747 
 1167000   0.79805268   -8.6419355    195.06187  0.013929011  0.013816112         3716 
 1168000   0.78287627   -8.6571386    194.89852  0.013905431  0.013800502         3709 
 1169000   0.77359732    -8.652685    195.41814  0.013930577  0.013784905         3772 
 1170000   0.77602355   -8.6548476    195.31997  0.013911679  0.013769285         3749 
 1171000   0.78773228   -8.6510816    195.37206  0.013903506  0.013753696         3722 
 1172000   0.80552532   -8.6563565    194.90228  0.013858239  0.013738136         3730 
 1173000   0.77938096     -8.65061     195.3574  0.013878758  0.013722567         3759 
 1174000   0.79679574   -8.6405212    195.03517  0.013844064  0.013707018         3754 
 1175000   0.78065864   -8.6405855    195.41001  0.013858866  0.013691465         3743 
 1176000   0.77692298   -8.6866534    194.57013  0.013787566  0.013675909         3782 
 1177000   0.77950363   -8.6627223    194.63471  0.013780424  0.013660383         3700 
 1178000   0.77272791   -8.6697821    195.19597   0.01380843  0.013644872         3745 
 1179000   0.77752757   -8.6835845    195.09819  0.013789807  0.013629368         3777 
 1180000   0.78366858   -8.6742691    194.95699  0.013768149  0.013613896         3795 
 1181000   0.75521137   -8.6709071    195.09503  0.013766232  0.013598427         3713 
 1182000   0.78919468   -8.6572635    194.91617  0.013741975   0.01358298         3778 
 1183000   0.77430611   -8.6861929    194.91203  0.013730067   0.01356754         3804 
 1184000   0.77275815   -8.6859171    194.78224  0.013709336  0.013552087         3777 
 1185000   0.78710063   -8.6841695    194.94216  0.013709013  0.013536664         3773 
 1186000   0.76631604   -8.7231794    194.73048   0.01368258  0.013521231         3778 
 1187000   0.77734105   -8.6903176    194.75273  0.013672615  0.013505826         3798 
 1188000   0.78116553   -8.6972052    194.67952  0.013655971  0.013490449         3829 
 1189000   0.77854586   -8.6870185    194.93658  0.013662502  0.013475083         3741 
 1190000   0.78939188   -8.7009385    194.82984  0.013643546  0.013459731         3803 
 1191000   0.77225007   -8.6965156    194.99574  0.013643699   0.01344439         3817 
 1192000   0.76766139   -8.7157979    194.83377  0.013620929  0.013429064         3817 
 1193000   0.81252098   -8.7078797    194.91975  0.013615517  0.013413765         3840 
 1194000   0.78599746   -8.6888734    194.62506  0.013583547  0.013398447         3830 
 1195000   0.78553066   -8.7103689    194.60628   0.01357087  0.013383164         3830 
 1196000   0.77214346    -8.680021    194.45546  0.013549015  0.013367906         3818 
 1197000   0.77095041   -8.6803268    194.94816  0.013571997  0.013352688         3802 
 1198000   0.78675242   -8.6923342     194.5168  0.013530662  0.013337451         3796 
 1199000   0.78034101    -8.683427    194.91469  0.013547032  0.013322242         3814 
 1200000   0.77525319   -8.6946449    194.54299   0.01350993  0.013307052         3799 
 1201000   0.77285926   -8.7116877    194.88175  0.013522186  0.013291888         3838 
 1202000   0.78646779    -8.699249    194.73488  0.013500754  0.013276721         3812 
 1203000    0.7845508   -8.7143648    194.73402  0.013489472  0.013261569         3843 
 1204000   0.77010028   -8.7065189    194.69526  0.013475586  0.013246413         3818 
 1205000   0.77439862   -8.6870475    194.48291  0.013449717  0.013231313         3817 
 1206000   0.76846446   -8.7131311    194.85449  0.013464241  0.013216182         3827 
 1207000   0.77470733   -8.6995313    194.67752  0.013440867  0.013201071         3852 
 1208000   0.76504086   -8.7153709    194.88478  0.013444039  0.013186001         3863 
 1209000    0.7684787   -8.7233135     194.7421  0.013423084  0.013170895         3824 
 1210000   0.77124985   -8.7175156    194.29169   0.01338097  0.013155832         3853 
 1211000   0.76482988    -8.695356    194.82758  0.013406797  0.013140792         3844 
 1212000   0.74447065   -8.7181215      194.487  0.013372319  0.013125787         3852 
 1213000   0.77222317   -8.7163753    194.60856  0.013369645    0.0131108         3844 
 1214000   0.78333668   -8.7158743    194.64329  0.013361016  0.013095822         3847 
 1215000   0.77349522   -8.7413478      194.009  0.013306516  0.013080848         3877 
 1216000   0.76450782   -8.7337174    194.15211  0.013305381  0.013065887         3851 
 1217000   0.75545971   -8.7311134    194.48985  0.013317574  0.013050957         3825 
 1218000   0.77442795    -8.745636    194.12854   0.01328192  0.013036009         3845 
 1219000   0.76732702   -8.7226494    194.35211  0.013286308    0.0130211         3871 
 1220000   0.76275332   -8.7484841    193.96917   0.01324926  0.013006192         3836 
 1221000   0.76728262   -8.7153907    194.53195  0.013276819  0.012991288         3844 
 1222000   0.74751873   -8.7145964    194.63459  0.013272954  0.012976447         3848 
 1223000   0.77236085   -8.7210282    194.42952  0.013248128  0.012961596         3841 
 1224000   0.76379848   -8.7369714    194.49075  0.013241472  0.012946742         3852 
 1225000   0.78281561   -8.7272146    194.17899  0.013209455  0.012931926         3829 
 1226000   0.75222117   -8.7501484    194.33341  0.013209177  0.012917115         3856 
 1227000    0.7536227   -8.7486694    194.34009  0.013198865   0.01290232         3851 
 1228000     0.774327   -8.7273137    194.12724  0.013173672  0.012887554         3817 
 1229000   0.76458835   -8.7302358    194.53421  0.013190548  0.012872801         3815 
 1230000   0.77814401   -8.7411785    194.57303  0.013182454  0.012858093         3855 
 1231000   0.74983871   -8.7319978    194.30925  0.013153889  0.012843385         3842 
 1232000   0.77340172   -8.7367348    194.54772  0.013159343    0.0128287         3820 
 1233000    0.7556268   -8.7502867     194.3198  0.013133266  0.012814023         3829 
 1234000   0.75823365   -8.7537952    194.51838  0.013136033  0.012799372         3835 
 1235000   0.78299845   -8.7494455    194.03655  0.013092885  0.012784719         3817 
 1236000   0.75372477   -8.7245502    194.37199  0.013104908  0.012770084         3857 
 1237000   0.75657008   -8.7441846    194.34756  0.013092668  0.012755473         3841 
 1238000   0.75844956   -8.7489011    194.11353  0.013066339   0.01274086         3867 
 1239000   0.75432656   -8.7671854    194.37102  0.013073111  0.012726248         3857 
 1240000   0.75972793    -8.749216    194.37267   0.01306268  0.012711696         3848 
 1241000        0.749   -8.7495682    194.01351  0.013028036   0.01269715         3862 
 1242000   0.73972847   -8.7558157    194.30361  0.013037011  0.012682636         3840 
 1243000    0.7708867   -8.7512173     194.0919  0.013012329  0.012668102         3861 
 1244000   0.75398136   -8.7418014    194.21173  0.013009896    0.0126536         3860 
 1245000   0.74986923   -8.7607048    194.31196  0.013006155  0.012639117         3858 
 1246000   0.75678424   -8.7642047    193.94653  0.012971277  0.012624641         3864 
 1247000   0.75390926   -8.7408324    194.03963  0.012967097  0.012610189         3838 
 1248000   0.74610188   -8.7852993     193.8402  0.012943389  0.012595748         3887 
 1249000   0.74862298   -8.7603337    194.32096  0.012965103  0.012581322         3885 
 1250000   0.75400173   -8.7415484    193.82602  0.012921734  0.012566919         3854 
 1251000   0.74957525   -8.7571619    193.96129  0.012920416  0.012552538         3876 
 1252000   0.76259847   -8.7371772    194.04908   0.01291594  0.012538184         3870 
 1253000   0.75568248   -8.7461422    194.18012  0.012914347  0.012523845         3837 
 1254000   0.76559934   -8.7598941    193.83443  0.012881076  0.012509517         3882 
 1255000   0.74436988   -8.7441151    194.12617  0.012890184  0.012495222         3873 
 1256000   0.73834153    -8.769363     193.6829  0.012850511  0.012480944         3885 
 1257000   0.74906098   -8.7560297    194.21657  0.012875667  0.012466667         3868 
 1258000   0.74877964      -8.7744    194.21965  0.012865636  0.012452417         3876 
 1259000   0.74995741   -8.7966371    194.03269  0.012843042  0.012438181         3861 
 1260000   0.74608144   -8.7606428    194.04715  0.012833806  0.012423961         3887 
 1261000   0.75336911   -8.7585979     194.1807  0.012832454  0.012409783         3869 
 1262000   0.74453719   -8.7437969    193.75038  0.012793871  0.012395616         3876 
 1263000   0.75665624   -8.7692011    193.62616  0.012775545  0.012381439         3863 
 1264000   0.74217253   -8.7683334    193.88421   0.01278245  0.012367287         3875 
 1265000   0.75927148    -8.750053    194.04133  0.012782697  0.012353148         3887 
 1266000   0.75127847   -8.7715727    194.08662  0.012775581  0.012339029         3854 
 1267000   0.76371189   -8.7814819    193.79179  0.012746105  0.012324925         3901 
 1268000   0.73387614   -8.8026669    193.58278  0.012722317  0.012310839         3878 
 1269000   0.74906897   -8.7842175     193.9604   0.01273709   0.01229679         3874 
 1270000   0.74853283   -8.7672061    193.76317  0.012714119  0.012282746         3838 
 1271000   0.74895751   -8.7735869    193.99974  0.012719626  0.012268766         3880 
 1272000    0.7474789   -8.7631543     193.9566    0.0127068  0.012254769         3854 
 1273000    0.7476386   -8.7770997    193.99449  0.012699299  0.012240809         3876 
 1274000   0.75345701    -8.782508    194.06452  0.012693912  0.012226835         3886 
 1275000   0.75239132   -8.7713703     193.6914  0.012659569  0.012212895         3854 
 1276000   0.74109226   -8.7848885    193.86005  0.012660661  0.012198987         3881 
 1277000   0.73464727    -8.761177    193.63846  0.012636287  0.012185086         3866 
 1278000   0.73402197   -8.7771945    193.75727  0.012634146  0.012171203         3882 
 1279000   0.73769196   -8.7801956    193.85372  0.012630553  0.012157332         3838 
 1280000   0.74622793   -8.7997161    193.76432  0.012614865  0.012143483         3870 
 1281000   0.74601172   -8.7844399    193.90704  0.012614301  0.012129642         3881 
 1282000   0.72539437   -8.7644415    193.83516  0.012599789  0.012115825         3881 
 1283000   0.74871883   -8.7929484    193.62043  0.012576022  0.012102044         3889 
 1284000   0.75587611   -8.7922542    193.68357  0.012570325  0.012088254         3868 
 1285000   0.75093054   -8.7737286    194.27146  0.012598668  0.012074496         3889 
 1286000   0.73499678   -8.7857841    193.78876  0.012557592  0.012060759         3891 
 1287000   0.73996575   -8.7917391    193.48553  0.012528201  0.012047021         3893 
 1288000   0.73645914   -8.7964609    193.82898  0.012540695  0.012033319         3846 
 1289000   0.73302107   -8.7840212    193.83954  0.012531648  0.012019626         3906 
 1290000   0.72866757   -8.7762456    194.03512  0.012534568  0.012005957         3868 
 1291000   0.72824516   -8.7695803    193.78464  0.012508691  0.011992293         3880 
 1292000   0.74400762   -8.8087894    193.84501  0.012502903  0.011978658         3884 
 1293000   0.75041468   -8.8138636    193.99173   0.01250269  0.011965035         3885 
 1294000    0.7392079   -8.7763576    194.06376  0.012497666   0.01195143         3898 
 1295000   0.72472661   -8.7902822    193.98929  0.012483223  0.011937859         3859 
 1296000   0.75280112   -8.7766776    193.90112  0.012467922  0.011924306         3879 
 1297000   0.75705597   -8.8039199    193.43317  0.012428243  0.011910763         3838 
 1298000    0.7468981   -8.7881912    194.05297   0.01245846  0.011897225         3880 
 1299000   0.73612355   -8.7848907    193.71063  0.012426907  0.011883704         3874 
 1300000   0.75375226   -8.7867101     193.5582  0.012407577  0.011870199         3880 
 1301000   0.73606673   -8.8086293    193.60698  0.012401164  0.011856718         3887 
 1302000   0.74067245   -8.8199673     193.6846  0.012396608  0.011843253         3872 
 1303000   0.75263685   -8.7896331    193.92684  0.012402586   0.01182981         3875 
 1304000   0.73610499   -8.8055403    193.78024  0.012383706  0.011816393         3888 
 1305000   0.72945067   -8.7912761    193.65454   0.01236619   0.01180298         3873 
 1306000   0.74375417   -8.7911241    193.98791  0.012377994  0.011789584         3907 
 1307000    0.7168492   -8.7896204     193.5111  0.012338122  0.011776195         3862 
 1308000   0.74659741   -8.7998602    193.78052  0.012345854  0.011762839         3893 
 1309000   0.72258703   -8.8007435    193.62576   0.01232657  0.011749507         3838 
 1310000   0.72911545   -8.7639474    193.66302  0.012319531  0.011736194         3865 
 1311000   0.72052781   -8.8321808    193.55484  0.012303257  0.011722893         3869 
 1312000   0.74553473   -8.8013473    193.84442  0.012312272   0.01170961         3901 
 1313000   0.72123675   -8.8201855    193.66118  0.012291265  0.011696333         3884 
 1314000   0.73890625   -8.8142648    193.67602  0.012282852  0.011683083         3894 
 1315000   0.72122903   -8.8147498     193.5002   0.01226237  0.011669849         3898 
 1316000   0.73754338   -8.7873904    193.67465  0.012264099  0.011656648         3901 
 1317000   0.72298614   -8.8119639    193.66241  0.012254012  0.011643466         3905 
 1318000   0.72283848   -8.8177951    193.94999  0.012262897  0.011630297         3869 
 1319000     0.726892   -8.7889295      193.407  0.012219295  0.011617157         3891 
 1320000   0.74474943   -8.7938147    193.74221    0.0122312   0.01160402         3854 
 1321000   0.71918583   -8.8271667    193.06368  0.012179137  0.011590904         3885 
 1322000   0.70914886   -8.7982155    193.39023  0.012190509  0.011577801         3888 
 1323000   0.71102619   -8.8060624    193.53969  0.012190709  0.011564714         3870 
 1324000   0.72390556   -8.8133466    193.84619  0.012200792  0.011551653         3881 
 1325000   0.74105678   -8.8142558    193.86103  0.012192518  0.011538603         3894 
 1326000   0.72637155   -8.8295996     193.4206  0.012155644  0.011525573         3879 
 1327000   0.71698136   -8.8248375    193.10108  0.012126418  0.011512557         3929 
 1328000   0.71604504   -8.8398718    193.65046  0.012151761  0.011499549         3908 
 1329000   0.72819524   -8.8173992    193.53199  0.012135189  0.011486559         3882 
 1330000   0.72326907   -8.8017223    193.46431  0.012121824  0.011473602         3885 
 1331000   0.72084683    -8.823721    193.49363  0.012114552  0.011460662         3910 
 1332000   0.73132112    -8.815335     193.3448  0.012096146  0.011447722         3884 
 1333000   0.72237494   -8.8197213    193.37607  0.012089027  0.011434793         3892 
 1334000   0.73234837   -8.8054675    193.42783  0.012083198  0.011421873         3865 
 1335000    0.7384611   -8.8126736    193.12219  0.012055068  0.011408988         3905 
 1336000   0.72063106   -8.8275584    193.42285  0.012064799  0.011396135         3893 
 1337000   0.70802129   -8.8280417    193.93888  0.012087938  0.011383289         3898 
 1338000   0.73064033     -8.83646    193.57771   0.01205641  0.011370435         3870 
 1339000   0.72813536   -8.8097068    193.72634  0.012056655  0.011357621         3906 
 1340000   0.71959481    -8.807827    193.48521  0.012032663   0.01134483         3895 
 1341000   0.70408287   -8.8322062    193.20194  0.012006086  0.011332041         3920 
 1342000   0.71489916   -8.8303458    193.40979  0.012010046  0.011319278         3901 
 1343000   0.72601987   -8.8148137    193.26859  0.011992343  0.011306524         3886 
 1344000   0.70816411   -8.8378642     193.2389  0.011981579  0.011293777         3904 
 1345000   0.70990224   -8.8276616    193.49494  0.011988534  0.011281052         3883 
 1346000   0.72063348   -8.8244424    192.84299  0.011939264  0.011268353         3905 
 1347000   0.70967421   -8.8525356    193.26739  0.011956656  0.011255663         3909 
 1348000   0.73331682   -8.8393834    193.05408  0.011934599  0.011242998         3887 
 1349000   0.70832854   -8.8352724    193.12097  0.011929884  0.011230362         3913 
 1350000   0.70881935   -8.8271203    192.76694  0.011899194  0.011217739         3927 
 1351000    0.7091785   -8.8256684    193.35288  0.011926528  0.011205129         3902 
 1352000   0.70599711   -8.8456934    193.86365  0.011949189  0.011192533         3878 
 1353000   0.71338837   -8.8262115    192.98901  0.011886487  0.011179945         3877 
 1354000    0.7259803   -8.8499589    193.41975  0.011904219  0.011167384         3893 
 1355000    0.7039718   -8.8430249    193.08991  0.011875148  0.011154834         3921 
 1356000   0.70715081   -8.8209763      193.423  0.011886861  0.011142313         3894 
 1357000   0.70754991   -8.8160506    193.52157  0.011884154    0.0111298         3904 
 1358000   0.70758741   -8.8583115    192.92611  0.011838863  0.011117294         3904 
 1359000   0.71372914   -8.8077257    193.46358  0.011863109  0.011104824         3900 
 1360000   0.71040577   -8.8479239    193.01537  0.011826922  0.011092361         3920 
 1361000   0.71550242   -8.8630213    193.29134   0.01183513  0.011079913         3904 
 1362000   0.71218792   -8.8434189    193.14049   0.01181721  0.011067491         3897 
 1363000   0.69807395   -8.8449466    193.25538  0.011815565  0.011055071         3898 
 1364000   0.70181784   -8.8532977     193.1587  0.011800996  0.011042667         3893 
 1365000   0.71072632   -8.8235409    193.56728  0.011817294  0.011030292         3862 
 1366000   0.71823775   -8.8586049    192.86588  0.011765854  0.011017909         3889 
 1367000   0.70528102   -8.8200329    193.50439  0.011796171  0.011005556         3883 
 1368000   0.70188565   -8.8443068    193.34247  0.011777684   0.01099321         3861 
 1369000   0.69660554   -8.8689105    193.05569  0.011751625  0.010980884         3894 
 1370000   0.71124372   -8.8623932    193.22222  0.011753176  0.010968559         3884 
 1371000    0.7182009   -8.8319725    193.24263  0.011745844  0.010956263         3902 
 1372000   0.70759388   -8.8442743    192.91649  0.011717474  0.010943982         3872 
 1373000   0.70726127   -8.8649044    193.25807  0.011729672   0.01093173         3864 
 1374000   0.70937615   -8.8650288    193.19213  0.011717136  0.010919491         3879 
 1375000   0.71078919   -8.8496636     193.0549  0.011700297  0.010907269         3895 
 1376000   0.72613462    -8.849748    193.17394  0.011699003  0.010895053         3897 
 1377000   0.70665816   -8.8401238    192.97877  0.011678696  0.010882846         3873 
 1378000   0.71092647   -8.8728214    192.97181    0.0116698  0.010870663         3906 
 1379000   0.70903031   -8.8508963    193.03613  0.011665224  0.010858501         3902 
 1380000    0.6890416   -8.8789623    193.13886  0.011662975  0.010846343         3897 
 1381000   0.69985096   -8.8669698    193.03195  0.011648078  0.010834215         3908 
 1382000   0.70513126   -8.8662856    193.07305  0.011642128  0.010822095         3927 
 1383000   0.70642792   -8.8445539    192.96976  0.011627486  0.010810001         3914 
 1384000   0.70067735    -8.862568    193.00276  0.011621072  0.010797928         3899 
 1385000    0.7026366   -8.8483735    193.25308  0.011627742  0.010785874         3872 
 1386000    0.7085647   -8.8616784    192.95262  0.011601288  0.010773818         3873 
 1387000   0.71277424   -8.8791049    192.77297   0.01158213  0.010761788         3914 
 1388000   0.70429953   -8.8409603    193.00241  0.011587561  0.010749797         3893 
 1389000   0.71172414   -8.8699463    193.05564  0.011582412  0.010737801         3915 
 1390000   0.69734967    -8.840216    193.08098  0.011575598  0.010725835         3903 
 1391000   0.69776111   -8.8914506    192.98936  0.011561788  0.010713881         3889 
 1392000   0.69716867   -8.8619527    193.01952  0.011555287  0.010701944         3891 
 1393000   0.69784518   -8.8622516    192.97359  0.011544245  0.010690018         3916 
 1394000   0.69244587   -8.8600236    192.98269  0.011536507  0.010678099         3929 
 1395000   0.72140029   -8.8706233    193.07967   0.01153403  0.010666205         3905 
 1396000   0.69140843   -8.8738858    193.07459  0.011525465  0.010654334         3913 
 1397000   0.68449419   -8.8679707    193.20277  0.011524861  0.010642462         3885 
 1398000   0.67872076   -8.8871132    192.94218  0.011501084  0.010630604         3872 
 1399000   0.68207507   -8.8550225    192.90634  0.011490728  0.010618778         3900 
 1400000   0.68483611    -8.875048     192.8824  0.011481095  0.010606976         3886 
 1401000   0.69402817   -8.8730768     192.9185  0.011475048  0.010595177         3885 
 1402000   0.67362222   -8.8639946    193.30837  0.011490037  0.010583396         3870 
 1403000   0.69513093   -8.8705372    192.94253  0.011460117  0.010571632         3901 
 1404000   0.68816072   -8.8884077    192.82932  0.011445235  0.010559879         3906 
 1405000   0.68594746   -8.8729824     193.3066  0.011465397  0.010548154         3894 
 1406000   0.68292339   -8.8862977    192.58155  0.011414269  0.010536427         3904 
 1407000    0.6913772   -8.8920493    192.73394  0.011415183  0.010524723         3904 
 1408000   0.69631442    -8.885127    192.71779  0.011406119  0.010513046         3889 
 1409000   0.69021293   -8.8587434    193.07426  0.011419107  0.010501381         3904 
 1410000   0.68673745   -8.8928745     193.2383  0.011420703  0.010489719         3912 
 1411000     0.691869    -8.894819    192.45479  0.011366335  0.010478073         3904 
 1412000   0.68552513   -8.8723554    193.10696  0.011396775  0.010466451         3880 
 1413000   0.68308957    -8.877991    192.85912  0.011374093  0.010454845         3896 
 1414000   0.69419071   -8.8779102    192.84458  0.011365192  0.010443254         3895 
 1415000   0.68889236   -8.8869535     192.9796  0.011365112  0.010431689         3898 
 1416000   0.68063236   -8.8713765    193.30079  0.011375988  0.010420143         3892 
 1417000   0.67666784     -8.89849    192.69253  0.011332188  0.010408602         3907 
 1418000   0.68012417   -8.8809906    192.88597  0.011335565  0.010397077         3901 
 1419000   0.68904339   -8.8799286    193.02887  0.011335968  0.010385566         3909 
 1420000   0.67645308   -8.8955638    192.79177  0.011314071  0.010374077         3883 
 1421000   0.69386136   -8.8911506    192.84002  0.011308938    0.0103626         3891 
 1422000   0.69490201   -8.8860137    192.86731  0.011302585  0.010351138         3896 
 1423000    0.6896894   -8.8829852    192.92232  0.011297864  0.010339695         3889 
 1424000   0.69065306   -8.8953713    192.66193  0.011274692  0.010328272         3884 
 1425000   0.69142022   -8.8831136    192.90794  0.011281166  0.010316875         3903 
 1426000   0.68409915   -8.8844235    192.55026  0.011252353  0.010305488         3901 
 1427000   0.68467328   -8.9017041    193.01171  0.011271415    0.0102941         3901 
 1428000   0.67022687   -8.8918815    192.80302  0.011251343  0.010282743         3893 
 1429000   0.66116732   -8.8926921    192.79749  0.011243148  0.010271399         3911 
 1430000    0.6878034   -8.8665823    193.14441  0.011255502  0.010260072         3880 
 1431000   0.68359325   -8.8790035    193.02293  0.011240562  0.010248757         3888 
 1432000   0.67360375   -8.8620166    193.04514  0.011234005  0.010237471         3902 
 1433000    0.6842701   -8.9011496     192.5169  0.011195447  0.010226202         3921 
 1434000   0.69413212   -8.8959028    192.79361   0.01120372  0.010214941         3900 
 1435000   0.67953065     -8.91548    192.75737  0.011193808   0.01020368         3901 
 1436000   0.66614448   -8.8941556    193.00626  0.011200456  0.010192469         3922 
 1437000     0.670974   -8.8932167    192.69633  0.011174689  0.010181257         3913 
 1438000   0.68057111   -8.9103222    192.78128   0.01117184  0.010170068         3913 
 1439000   0.67451897   -8.9132411    192.81167  0.011165837  0.010158894         3915 
 1440000   0.70131471   -8.8938408    192.44236   0.01113671  0.010147724         3921 
 1441000   0.68390003   -8.8939906    192.72519  0.011145339  0.010136571         3891 
 1442000    0.6855239   -8.9015917    193.11499  0.011160136  0.010125436         3896 
 1443000   0.66853554   -8.8878266    192.92453  0.011141402   0.01011431         3896 
 1444000   0.68460397   -8.8825625    192.78454  0.011125609  0.010103208         3916 
 1445000   0.68707385   -8.8932409    192.48746  0.011100776  0.010092107         3907 
 1446000   0.68265147   -8.8946209    192.62665  0.011101121  0.010081043         3884 
 1447000    0.6711067   -8.9083959    192.71814  0.011098718  0.010069987         3897 
 1448000   0.66201023   -8.8986656    192.72212  0.011091282  0.010058944         3910 
 1449000   0.67520128   -8.9153186    192.55712  0.011074139  0.010047915         3905 
 1450000   0.66703133   -8.8912449     192.9597  0.011089638  0.010036892         3896 
 1451000   0.68137586   -8.8953418    192.53746  0.011057745    0.0100259         3918 
 1452000   0.67559637   -8.9039987    192.58325  0.011052758  0.010014923         3897 
 1453000   0.67490032   -8.9316577    192.27149  0.011027271  0.010003954         3904 
 1454000   0.67091432   -8.9204159    192.10488  0.011010138 0.0099929939         3921 
 1455000   0.67271823   -8.9172998    192.63722   0.01103306 0.0099820568         3905 
 1456000   0.67012551   -8.9064304    192.60029  0.011023368 0.0099711323         3909 
 1457000    0.6804744   -8.9118168    192.57724  0.011014484 0.0099602261         3899 
 1458000    0.6663272   -8.9110367    192.54479  0.011005075 0.0099493297         3896 
 1459000   0.66385163    -8.910215    192.63523  0.011002698  0.009938453         3893 
 1460000   0.67133899   -8.9122218      192.536  0.010989498 0.0099275879         3882 
 1461000   0.67596055   -8.8845418    192.77338  0.010995516 0.0099167356         3895 
 1462000   0.66886391    -8.925116    192.70628   0.01098417  0.009905906         3909 
 1463000   0.68140279   -8.9165798    192.70142  0.010976385 0.0098950822         3903 
 1464000    0.6838938    -8.902452    192.56059  0.010960871 0.0098842776         3919 
 1465000   0.66737285   -8.9009307    192.50798  0.010950397 0.0098734816         3913 
 1466000   0.67088021    -8.940718    192.54307  0.010944922 0.0098626979         3920 
 1467000   0.66300566   -8.9012161    192.75398  0.010949442 0.0098519504         3909 
 1468000   0.66396941   -8.8976119    192.52689  0.010929092 0.0098411931         3879 
 1469000   0.66494696    -8.904156    192.59704  0.010925632  0.009830456         3905 
 1470000   0.65944568   -8.9125424    192.32098   0.01090255 0.0098197408         3906 
 1471000   0.66028146    -8.928762      192.343  0.010896385 0.0098090429         3906 
 1472000   0.66203605   -8.9157136     192.5366  0.010899943 0.0097983583         3909 
 1473000   0.67499993   -8.9184157    192.39242  0.010884387 0.0097876794         3904 
 1474000   0.67000101   -8.9007336    192.65413  0.010891798 0.0097770339         3919 
 1475000   0.65355015   -8.9147141    192.50028  0.010875722 0.0097663995         3905 
 1476000   0.66042512   -8.9149211    192.56776  0.010872164 0.0097557835         3924 
 1477000   0.68377878   -8.9242599    192.51301  0.010861713 0.0097451665         3913 
 1478000   0.66743085   -8.9248301    192.32118  0.010843549  0.009734578         3896 
 1479000   0.65778347   -8.9318624    192.42352  0.010841984  0.009724001         3923 
 1480000   0.65895459   -8.9316791    192.12974  0.010818116 0.0097134347         3910 
 1481000   0.66146127   -8.9153941    192.25751  0.010818001  0.009702885         3907 
 1482000   0.66454046   -8.9058537     192.6904  0.010835043 0.0096923467         3919 
 1483000    0.6674967   -8.9264116    192.48452  0.010816168 0.0096818244         3934 
 1484000   0.66015461   -8.9212946    192.55594   0.01081289 0.0096713111         3920 
 1485000   0.66204869   -8.9260739    192.74324  0.010816119 0.0096608209         3917 
 1486000   0.65096337   -8.8993066    192.29987  0.010783977 0.0096503569         3901 
 1487000   0.67418487   -8.9093388    192.45953  0.010785672 0.0096398981         3919 
 1488000   0.66453031   -8.9292026    192.28423  0.010768606 0.0096294447         3894 
 1489000   0.65063362   -8.9139244    192.29535  0.010761996 0.0096190087         3904 
 1490000   0.63723033   -8.9268747    192.69406  0.010777073 0.0096086012         3918 
 1491000   0.64416524    -8.913248    192.49743  0.010758855  0.009598199         3914 
 1492000   0.65702272   -8.9263337    192.19249  0.010734612 0.0095878123         3908 
 1493000   0.67113781   -8.9369901    192.13546  0.010724239  0.009577424         3928 
 1494000    0.6527022    -8.945353     192.1925  0.010720242 0.0095670564         3915 
 1495000    0.6453868    -8.924845    192.33699  0.010721125 0.0095567047         3915 
 1496000   0.63601809    -8.915461    192.63884  0.010730773 0.0095463787         3893 
 1497000   0.66807137   -8.9055663    192.69585  0.010726778 0.0095360651         3891 
 1498000   0.65300062   -8.9142979    192.48705  0.010708002 0.0095257652         3910 
 1499000   0.65724707   -8.9491266    192.20782  0.010685336 0.0095154684         3911 
 1500000   0.65552933   -8.9302501    192.25151  0.010680639 0.0095051958         3891 
 1501000   0.65565547   -8.9359083     192.5096  0.010687853 0.0094949406         3890 
 1502000   0.64601432   -8.9354659    192.32466  0.010670476 0.0094846952         3912 
 1503000   0.63824444   -8.9215757     192.5178  0.010674085 0.0094744549         3886 
 1504000   0.65591506   -8.9329713    192.44045  0.010662702 0.0094642355         3900 
 1505000    0.6627989   -8.9287413    192.58674  0.010663718 0.0094540365         3898 
 1506000   0.65849762    -8.943741    192.34986  0.010643529 0.0094438578         3915 
 1507000   0.64202457   -8.9336959    192.23189  0.010629943 0.0094336746         3916 
 1508000   0.65565154   -8.9239584    192.29884  0.010626594 0.0094235211         3915 
 1509000   0.65084018   -8.9147263      192.701   0.01064176 0.0094133819         3908 
 1510000   0.64557207   -8.9310875    192.20683  0.010607441 0.0094032496         3904 
 1511000   0.64610991   -8.9258313    192.25163  0.010602892 0.0093931378         3899 
 1512000   0.64478194    -8.937241    192.09449  0.010587218 0.0093830356         3911 
 1513000   0.63763663   -8.9507139    192.27453  0.010590137 0.0093729439         3895 
 1514000   0.66077925   -8.9331846    192.15238  0.010576419  0.009362868         3914 
 1515000   0.64038099    -8.976478    192.21517  0.010572892 0.0093527952         3927 
 1516000   0.63532155    -8.920993    192.15447  0.010562581 0.0093427439         3909 
 1517000   0.65746137   -8.9527713    192.03251  0.010548918 0.0093327022         3912 
 1518000   0.65898773   -8.9409346    192.40905   0.01056264 0.0093226937         3892 
 1519000   0.64743761   -8.9382177    191.79995  0.010522271 0.0093126952         3904 
 1520000   0.64233162   -8.9531801    191.92742  0.010522337 0.0093027009         3917 
 1521000   0.64450946   -8.9609136    192.13746  0.010526926 0.0092927192         3908 
 1522000   0.64750266   -8.9401656    191.84091  0.010503773 0.0092827575         3900 
 1523000   0.65447161   -8.9506948    192.50842    0.0105334 0.0092728016         3911 
 1524000   0.64269855    -8.924757    192.21702  0.010510554 0.0092628654         3913 
 1525000   0.63573222   -8.9514761    192.27692  0.010506935 0.0092529447         3925 
 1526000   0.64601656   -8.9367634    192.29055  0.010500795  0.009243039         3909 
 1527000   0.64074034   -8.9395882    192.07825  0.010482332  0.009233146         3924 
 1528000   0.63940748   -8.9432118    192.34813   0.01049019 0.0092232692         3915 
 1529000   0.65223251   -8.9620474     191.8489   0.01045612 0.0092134023         3914 
 1530000   0.65026183   -8.9499912    192.08647  0.010462226 0.0092035405         3915 
 1531000   0.63989961   -8.9477442    192.27956  0.010465903 0.0091937002         3905 
 1532000    0.6323746   -8.9537833    192.04363  0.010446238 0.0091838739         3909 
 1533000   0.65559078   -8.9813157    191.84742  0.010428757 0.0091740634         3913 
 1534000    0.6418897   -8.9321517    192.21393  0.010441869 0.0091642658         3911 
 1535000   0.65471331   -8.9423074     192.1101   0.01042943 0.0091544766         3919 
 1536000   0.62192827   -8.9622073    192.07824  0.010420912    0.0091447         3916 
 1537000   0.64458617     -8.94545    191.81247  0.010399722 0.0091349485         3909 
 1538000   0.63582425   -8.9557003    192.09382  0.010408204 0.0091252115         3937 
 1539000    0.6317287   -8.9633381    191.78751  0.010384856 0.0091154783         3907 
 1540000   0.64725294   -8.9596773    191.85395  0.010381707 0.0091057773         3886 
 1541000   0.63640698   -8.9317209    192.12499  0.010389627 0.0090960812         3896 
 1542000   0.64933199   -8.9430995    192.34252  0.010394645 0.0090863974         3892 
 1543000   0.62622491   -8.9658335    192.04328  0.010371748 0.0090767261         3919 
 1544000   0.63840856   -8.9450669    192.13737  0.010370108  0.009067071         3896 
 1545000   0.62846465   -8.9593552    192.00427  0.010356217 0.0090574206         3905 
 1546000   0.63604563   -8.9771692     192.0892  0.010354097 0.0090477965         3894 
 1547000   0.63106539   -8.9852178    192.10554  0.010348284 0.0090381808         3921 
 1548000   0.62699482   -8.9549436    192.06597  0.010339469 0.0090285782         3898 
 1549000   0.63807802   -8.9666059    191.83582  0.010320412 0.0090189874         3899 
 1550000   0.63861476   -8.9511512     192.2666  0.010336914 0.0090094286         3903 
 1551000   0.63551974   -8.9646798    192.00042  0.010315948 0.0089998752         3931 
 1552000   0.62944479   -8.9512262    192.03234  0.010311015 0.0089903134         3915 
 1553000   0.63274288   -8.9845241    192.26334  0.010316771 0.0089807589         3902 
 1554000    0.6313236   -8.9654032    191.83794   0.01028732 0.0089712348         3907 
 1555000   0.63216801   -8.9630864     192.0242  0.010290686 0.0089617225         3927 
 1556000   0.63766747   -8.9755893    192.07125  0.010286592 0.0089522163         3921 
 1557000   0.62872358   -8.9697499     192.0439  0.010278522 0.0089427308         3911 
 1558000   0.62486563   -8.9744168    192.11315  0.010275629 0.0089332494         3912 
 1559000   0.63057014   -8.9639014    192.26713  0.010277268 0.0089237927         3915 
 1560000   0.63264853   -8.9704741    191.80189  0.010245828 0.0089143393         3907 
 1561000   0.62033475   -8.9687697    191.55509  0.010226089 0.0089048994         3897 
 1562000   0.64822281   -8.9446293    191.68593  0.010226522 0.0088954767         3912 
 1563000   0.63929054   -8.9525093     191.8438  0.010228396 0.0088860753         3913 
 1564000   0.62505184   -8.9717606    192.17898  0.010239715  0.008876676         3911 
 1565000   0.62946365    -8.994709    192.20167  0.010234381 0.0088672858         3903 
 1566000   0.62789402   -8.9696095    192.13313  0.010224198 0.0088579096         3907 
 1567000   0.62438489   -8.9900912    191.92605  0.010206661 0.0088485442         3919 
 1568000    0.6195693   -8.9939463    191.60573  0.010183128 0.0088391949         3898 
 1569000   0.62758372   -8.9720656    191.90692  0.010192634 0.0088298602         3889 
 1570000   0.64145771   -8.9833689    192.05868  0.010194198 0.0088205391         3922 
 1571000   0.63184856   -8.9801206    191.88273  0.010178375 0.0088112284         3926 
 1572000   0.62433204   -8.9729468    191.74541  0.010164621 0.0088019436         3915 
 1573000   0.63378264   -8.9682928    191.90914  0.010166833 0.0087926572         3904 
 1574000   0.63288024   -8.9797557    191.84842  0.010157159 0.0087833893         3907 
 1575000    0.6258902   -8.9731128    192.22213  0.010170483 0.0087741348         3932 
 1576000   0.62351779   -8.9707233    191.84571  0.010144126 0.0087649021         3920 
 1577000   0.63658604   -8.9691443    191.73906  0.010132058 0.0087556742         3923 
 1578000   0.62553854   -8.9871697    192.00821   0.01013985 0.0087464585         3925 
 1579000   0.62829056   -8.9860977    191.80369  0.010122635 0.0087372576         3924 
 1580000   0.63623019   -8.9842752    191.93934  0.010123383 0.0087280744         3910 
 1581000   0.61977451    -8.986134    192.07991  0.010124389 0.0087188964         3921 
 1582000   0.61573627   -8.9778636    192.04918   0.01011637 0.0087097313         3916 
 1583000   0.61139531   -8.9842204    191.71247  0.010092255 0.0087005851         3918 
 1584000   0.61897845   -8.9753812    192.03087  0.010102634 0.0086914525         3942 
 1585000   0.63142481   -9.0008586    192.36177  0.010113658 0.0086823262         3924 
 1586000   0.61480004   -8.9736663    191.85767  0.010080794 0.0086732033         3916 
 1587000   0.62260451   -8.9792051    191.82789  0.010072878 0.0086641031         3906 
 1588000   0.60944036   -8.9975942    191.92058  0.010071399 0.0086550159         3934 
 1589000   0.61135047   -8.9991086      191.844  0.010061045 0.0086459418         3903 
 1590000   0.63519487   -9.0134468    191.76789  0.010050728 0.0086368768         3924 
 1591000   0.61968411   -8.9976668    191.85227  0.010048831 0.0086278231         3935 
 1592000   0.62306593   -8.9846381    192.23696  0.010062655 0.0086187749         3919 
 1593000   0.60643553   -8.9987645    191.59365  0.010022685 0.0086097411         3930 
 1594000    0.6249324   -9.0041873     191.6895  0.010021408 0.0086007194         3937 
 1595000   0.62425211   -9.0009172    192.02105  0.010032448 0.0085917251         3922 
 1596000   0.61046127   -8.9931872    191.97972  0.010024004 0.0085827355         3916 
 1597000   0.60692086   -9.0036538    191.72073  0.010004213 0.0085737517         3923 
 1598000   0.61118332   -8.9892972    191.45044 0.0099838568 0.0085647912         3922 
 1599000   0.61570736   -8.9960459    191.71639 0.0099914731 0.0085558391         3923 
 1600000   0.63325927   -9.0041854    191.70426 0.0099845969 0.0085468938         3927 
 1601000   0.62258315   -9.0124422    191.63233 0.0099746163 0.0085379679         3928 
 1602000   0.60772625   -8.9997818    191.99541  0.009987277 0.0085290501         3912 
 1603000   0.62085379   -8.9903891    191.65417 0.0099633069 0.0085201474         3918 
 1604000   0.63203036   -9.0079648    191.53243 0.0099507707 0.0085112597         3940 
 1605000    0.6203702   -8.9915421    191.54518 0.0099452324 0.0085023775         3935 
 1606000   0.61271866   -9.0177154    191.92956  0.009958985 0.0084935118         3921 
 1607000    0.6060531   -9.0034515    191.93377 0.0099530061 0.0084846548         3932 
 1608000   0.61308913    -9.006924     191.4222 0.0099203048 0.0084758078         3939 
 1609000   0.61912217   -9.0130947    191.85601 0.0099366069 0.0084669689         3919 
 1610000   0.60455082   -8.9982491    191.76689 0.0099258225 0.0084581503         3917 
 1611000   0.61786499   -9.0007018    192.08751 0.0099362459 0.0084493412         3919 
 1612000   0.60072749     -8.98562    191.98957 0.0099250191 0.0084405422         3932 
 1613000   0.62302548   -8.9949641     191.7232 0.0099051045  0.008431762         3925 
 1614000   0.61034061   -9.0270008    191.47515 0.0098861603 0.0084229852         3942 
 1615000   0.61501029   -9.0150606    191.56643 0.0098847488 0.0084142323         3941 
 1616000   0.60772611   -9.0073534    191.72817 0.0098869725 0.0084054875         3925 
 1617000   0.61950167   -9.0229808    191.84797 0.0098870318 0.0083967503         3925 
 1618000   0.61516307   -9.0088295    191.61202  0.009868769 0.0083880212         3925 
 1619000   0.59916161   -9.0025128    191.99387 0.0098823279 0.0083793033         3930 
 1620000   0.59826721   -9.0106536    191.29568 0.0098403127 0.0083706053         3912 
 1621000   0.61541247   -9.0214426    191.73262 0.0098567047 0.0083619156         3923 
 1622000   0.61930918   -9.0211636    191.72533 0.0098502531 0.0083532484         3913 
 1623000   0.61567808   -9.0113543    191.67546 0.0098416235  0.008344583         3928 
 1624000   0.60207593   -9.0188949    191.70235 0.0098369435 0.0083359359         3919 
 1625000   0.59276257   -9.0286416    191.67121 0.0098292927 0.0083272908         3911 
 1626000   0.59637775   -9.0146736    191.71655 0.0098255716 0.0083186612         3933 
 1627000   0.60993641   -9.0017171     191.7761 0.0098225826 0.0083100553         3919 
 1628000   0.61399837   -9.0095473    191.80491 0.0098180236 0.0083014461         3937 
 1629000   0.60281012     -9.04042    191.31554 0.0097869623 0.0082928494         3918 
 1630000   0.60238379   -9.0171662    191.40678 0.0097856225   0.00828427         3905 
 1631000   0.60975716   -9.0136459    191.43093 0.0097808568 0.0082756998         3926 
 1632000   0.60603694   -9.0378432    191.64608 0.0097858499 0.0082671391         3928 
 1633000   0.61875969   -9.0184292    191.54042  0.009774465 0.0082585918         3936 
 1634000   0.60840354   -9.0251807    191.43499 0.0097631066 0.0082500599         3918 
 1635000   0.60927275   -9.0167814    191.70121 0.0097707038 0.0082415432         3931 
 1636000    0.5974203   -9.0070342    191.62174 0.0097606834 0.0082330303         3917 
 1637000   0.60404883   -9.0270497    191.69708 0.0097585564 0.0082245254         3935 
 1638000    0.6023471   -9.0242489    191.70665 0.0097530856 0.0082160344         3929 
 1639000   0.60513334   -9.0305631    191.40977 0.0097320405 0.0082075572         3920 
 1640000   0.60722116   -9.0351146    191.37175 0.0097241745  0.008199095         3927 
 1641000    0.5991724   -9.0156157     191.8003 0.0097400113  0.008190637         3930 
 1642000   0.59696909   -9.0264681    191.64701 0.0097262999 0.0081822013         3926 
 1643000   0.59769698   -9.0259245    191.51511 0.0097136899 0.0081737738         3942 
 1644000   0.60604981   -9.0213022     191.3763 0.0097007454 0.0081653494         3928 
 1645000    0.6085127   -9.0333945    191.45612 0.0096988913 0.0081569464         3913 
 1646000   0.59822551   -9.0177888    191.54371 0.0096974337 0.0081485463         3943 
 1647000   0.59305272   -9.0561813    191.42614  0.009685597 0.0081401595         3931 
 1648000   0.58777849   -9.0332044    191.42243 0.0096795323 0.0081317826         3934 
 1649000   0.59557683   -9.0262652    191.58962 0.0096821115  0.008123412         3930 
 1650000   0.59460684   -9.0186841    191.74949 0.0096843179 0.0081150568         3910 
 1651000   0.58965335   -9.0136613    191.49917  0.009665817 0.0081067073         3914 
 1652000   0.59276371   -9.0320658    191.50613 0.0096603173 0.0080983734         3931 
 1653000   0.58818621    -9.020803    191.49185 0.0096537532 0.0080900473         3917 
 1654000   0.59731047    -9.022786    191.62674 0.0096547129 0.0080817366         3912 
 1655000   0.59061873   -9.0301156    191.63091  0.009649089 0.0080734346         3932 
 1656000   0.59478016   -9.0439262    191.33893 0.0096285693 0.0080651468         3932 
 1657000   0.58239797   -9.0334589    191.84284  0.009648101 0.0080568712         3933 
 1658000   0.59261058   -9.0602646    191.45793  0.009622936 0.0080486059         3910 
 1659000   0.59673019   -9.0489242    191.35452 0.0096119411   0.00804035         3932 
 1660000   0.59673587   -9.0511702    191.27752 0.0096022849 0.0080321043         3915 
 1661000   0.59819097   -9.0367009    191.42691  0.009603999 0.0080238774         3921 
 1662000   0.58631936   -9.0473353    191.05159 0.0095794017 0.0080156572         3922 
 1663000   0.59326112   -9.0372737    191.64395  0.009603325 0.0080074476         3926 
 1664000   0.57576652   -9.0470315    191.05634  0.009568126 0.0079992462         3934 
 1665000   0.59720893   -9.0601145    191.22132 0.0095706366 0.0079910526         3918 
 1666000   0.58430573   -9.0397292    191.42011 0.0095748356 0.0079828754         3924 
 1667000   0.58890106   -9.0352838    191.28908 0.0095625415 0.0079747053         3926 
 1668000   0.59867696   -9.0495681    191.13974 0.0095493476 0.0079665607         3926 
 1669000   0.58482501   -9.0314067    191.24512 0.0095488875 0.0079584284         3936 
 1670000   0.58224376   -9.0263154    191.21983 0.0095419077 0.0079503019         3916 
 1671000    0.5871634   -9.0314141     191.4095 0.0095456562 0.0079421961         3927 
 1672000   0.58499852    -9.029005    191.32997 0.0095359834 0.0079340856         3932 
 1673000    0.5925621   -9.0614289    191.05306 0.0095164902 0.0079259874         3938 
 1674000   0.58832857   -9.0465224    191.60525 0.0095382939 0.0079179062         3936 
 1675000   0.58783661   -9.0527564    191.41455 0.0095231121 0.0079098268         3922 
 1676000   0.58128653   -9.0672678    191.30402 0.0095119343 0.0079017596         3935 
 1677000   0.58464951   -9.0480625     191.0177 0.0094920343 0.0078936994         3900 
 1678000   0.57790884   -9.0451893    191.07499 0.0094892226 0.0078856597         3930 
 1679000   0.58693033   -9.0670108    191.25582 0.0094925463 0.0078776262         3942 
 1680000   0.58654691   -9.0645761    191.09571 0.0094789541 0.0078696037         3943 
 1681000   0.57840837   -9.0592686    191.27929 0.0094824155 0.0078615879         3932 
 1682000   0.58008176    -9.047407    191.79093 0.0095021271 0.0078535931         3905 
 1683000   0.58649309   -9.0352059    191.25449 0.0094699195 0.0078456032         3908 
 1684000   0.58163093    -9.047048    191.19307 0.0094612566 0.0078376188         3912 
 1685000    0.5932704   -9.0833874      191.237  0.009457814 0.0078296493         3938 
 1686000   0.58390968   -9.0487537    191.80206 0.0094801334 0.0078216882         3924 
 1687000   0.58068653   -9.0599581     191.4269 0.0094559819 0.0078137431         3924 
 1688000   0.58527581   -9.0578656    191.19588 0.0094389751 0.0078058018         3937 
 1689000   0.58187638    -9.050588    191.62582 0.0094545992 0.0077978766         3940 
 1690000    0.5739268   -9.0394243    191.31518 0.0094336874 0.0077899701         3941 
 1691000   0.58080649    -9.036165    191.19514 0.0094221931 0.0077820675         3913 
 1692000   0.59415338   -9.0456887    191.44308 0.0094288355 0.0077741805         3928 
 1693000   0.57778572   -9.0542931    191.40295 0.0094212911 0.0077663028         3940 
 1694000   0.56552718   -9.0449838    191.68557 0.0094296324  0.007758431         3927 
 1695000   0.58428022   -9.0554367      191.403 0.0094101768 0.0077505713         3925 
 1696000    0.5593025   -9.0559668    191.59201 0.0094139156 0.0077427228         3917 
 1697000   0.57607767   -9.0646819    191.37958 0.0093979366 0.0077348852         3937 
 1698000   0.56981055   -9.0563143    191.44135 0.0093954335   0.00772705         3910 
 1699000   0.57400913   -9.0680642    191.20851  0.009378483 0.0077192315         3942 
 1700000   0.58580351   -9.0512255    191.22897 0.0093739691 0.0077114224         3926 
 1701000   0.57603461   -9.0437529    191.30997 0.0093724264 0.0077036277         3931 
 1702000   0.57468542   -9.0750262    191.49969 0.0093762089 0.0076958411         3924 
 1703000   0.56837464   -9.0660639    191.36489 0.0093641071 0.0076880701         3916 
 1704000   0.56713496   -9.0787624    190.98839 0.0093401992 0.0076803014         3922 
 1705000   0.57544866   -9.0627738    191.22348 0.0093462109 0.0076725468         3923 
 1706000   0.57628149   -9.0715526    191.00534 0.0093300771 0.0076648001         3927 
 1707000   0.57194221   -9.0662543    191.21493 0.0093348435 0.0076570723         3917 
 1708000   0.57141753   -9.0820388    191.14894 0.0093261582 0.0076493458         3917 
 1709000   0.55832271   -9.0719814     191.2755 0.0093268725 0.0076416271         3911 
 1710000   0.57261163   -9.0588848    191.04287 0.0093100813 0.0076339214         3927 
 1711000   0.57840574   -9.0597415    191.30049 0.0093171875 0.0076262248         3923 
 1712000   0.58192671   -9.0741577      191.539 0.0093233548  0.007618546         3922 
 1713000   0.56917951   -9.0820825    191.28652 0.0093056297 0.0076108736         3932 
 1714000   0.57280467   -9.0583426     191.1547 0.0092937912  0.007603213         3931 
 1715000   0.56875263   -9.0782209    191.02381 0.0092820123 0.0075955656         3921 
 1716000   0.56599645   -9.0665999    191.09058 0.0092798453 0.0075879286         3902 
 1717000     0.569508   -9.0570522    191.11698  0.009275722 0.0075802982         3948 
 1718000   0.56566602    -9.060188    191.22254 0.0092754432 0.0075726776         3929 
 1719000   0.56713053   -9.0755725    191.14005 0.0092660484 0.0075650651         3918 
 1720000    0.5622847   -9.0671347    191.05396 0.0092564902 0.0075574612         3942 
 1721000   0.57289041   -9.0769772    191.00995 0.0092489809 0.0075498727         3935 
 1722000   0.56088937   -9.0778586    190.79928 0.0092334145 0.0075422881         3921 
 1723000   0.56823079   -9.0666343    190.97228  0.009236423 0.0075347229         3947 
 1724000   0.57079584   -9.0790379     191.2055 0.0092423388 0.0075271584         3936 
 1725000   0.56768582   -9.0503938    191.05818 0.0092298636 0.0075196094         3933 
 1726000   0.56515721   -9.0902332    191.30314 0.0092363433 0.0075120774         3920 
 1727000   0.56035277   -9.0941596    190.77059 0.0092052978 0.0075045456         3940 
 1728000   0.56345254   -9.0814642    190.87569 0.0092050389 0.0074970287         3923 
 1729000   0.56196234   -9.0776903    191.15081 0.0092129753 0.0074895201         3924 
 1730000   0.56456726   -9.0915479    190.85784 0.0091935377 0.0074820172         3921 
 1731000   0.55800095   -9.0847182    190.73516 0.0091823207 0.0074745286         3932 
 1732000   0.56003204    -9.077039    190.77152 0.0091787682 0.0074670555         3933 
 1733000   0.54361409   -9.0829668    191.01519  0.009185189 0.0074595844         3939 
 1734000   0.55426224   -9.0825836    191.10217 0.0091840721 0.0074521272         3923 
 1735000   0.56385823   -9.0815397    191.17908 0.0091824724 0.0074446703         3937 
 1736000   0.56372922    -9.086838    190.93702 0.0091655634 0.0074372279         3933 
 1737000   0.56919242   -9.1056073    190.95261 0.0091610347  0.007429798         3926 
 1738000   0.53798799   -9.0888505    190.78483 0.0091477192   0.00742238         3941 
 1739000   0.54825773   -9.0801131    190.97959 0.0091517919 0.0074149694         3931 
 1740000   0.56106374     -9.09912    190.81751 0.0091387698 0.0074075741         3939 
 1741000   0.56703476   -9.0944297    191.53565 0.0091678946 0.0074001877         3922 
 1742000   0.54844365   -9.0823665    190.89771 0.0091321139 0.0073928148         3934 
 1743000   0.55825741   -9.0581434    191.09035 0.0091360849 0.0073854477         3903 
 1744000   0.55160664   -9.0891996    191.05639 0.0091292236 0.0073780867         3925 
 1745000    0.5515843   -9.0825449    190.70086 0.0091070133 0.0073707326         3941 
 1746000   0.54891755   -9.0815148    191.10637 0.0091211515 0.0073633943         3914 
 1747000   0.55658667   -9.0864513    190.73734 0.0090983274 0.0073560594         3936 
 1748000   0.54837029   -9.0875195    191.02524 0.0091068481 0.0073487366         3910 
 1749000   0.55148974   -9.0914485    190.96963 0.0090989913 0.0073414199         3925 
 1750000   0.55441715   -9.0895532    191.09481 0.0090997527 0.0073341124         3930 
 1751000   0.55072378    -9.095036    191.10044 0.0090948239  0.007326819         3930 
 1752000   0.54056117   -9.0896477    191.01086 0.0090853719  0.007319535         3917 
 1753000   0.55904141   -9.1031027    190.77366 0.0090689133 0.0073122577         3930 
 1754000   0.54707763   -9.1277403     191.0797 0.0090782832  0.007304993         3944 
 1755000   0.54540408    -9.081859    190.98667  0.009068693 0.0072977351         3943 
 1756000   0.55530213   -9.0864909     191.0467 0.0090663772 0.0072904932         3929 
 1757000   0.55044033   -9.0846477    190.76968 0.0090480782 0.0072832519         3921 
 1758000   0.55302938   -9.1012073    190.64179 0.0090368692 0.0072760275         3929 
 1759000   0.54625099   -9.0979273    191.12266 0.0090545131 0.0072688115         3933 
 1760000   0.53677217   -9.0953762    190.88049 0.0090379019 0.0072616064         3926 
 1761000   0.55754385   -9.1121739    191.00565 0.0090386923 0.0072544101         3932 
 1762000    0.5492731   -9.0956861    190.83901 0.0090256815 0.0072472258         3923 
 1763000   0.53866095   -9.0896469    190.79887 0.0090186646 0.0072400428         3931 
 1764000   0.54159125   -9.0922089    190.85122 0.0090160252 0.0072328778         3935 
 1765000   0.54487838   -9.1057392    191.03116 0.0090194126 0.0072257176         3943 
 1766000   0.56018687   -9.0808829    190.79884 0.0090033426 0.0072185707         3905 
 1767000   0.55635908     -9.10749    191.11402 0.0090131119 0.0072114287         3910 
 1768000   0.54660582    -9.105319    190.93793 0.0089997138 0.0072042904         3918 
 1769000   0.54585001   -9.0754924     190.6942  0.008983145 0.0071971669         3925 
 1770000   0.54080052   -9.1102059    190.80391 0.0089832348 0.0071900516         3927 
 1771000   0.53920023   -9.0884699    190.81541 0.0089787038 0.0071829556         3950 
 1772000   0.55452854   -9.0832021    190.88459 0.0089768899 0.0071758599         3938 
 1773000   0.53811295   -9.1077502    190.69254 0.0089628002 0.0071687765         3932 
 1774000   0.53204332   -9.1139153     190.4003 0.0089440202  0.007161702         3921 
 1775000   0.55235942   -9.0879736    190.63779 0.0089501311 0.0071546402         3924 
 1776000   0.53440286   -9.1129466     190.5215  0.008939635 0.0071475813         3940 
 1777000   0.54603719   -9.0997557    190.93642 0.0089540623 0.0071405277         3931 
 1778000   0.54755481   -9.1004296    190.69142 0.0089375433 0.0071334915         3941 
 1779000   0.53545087   -9.1166949     190.5486 0.0089258293 0.0071264531         3932 
 1780000   0.55353429   -9.0937896    190.82712 0.0089338541 0.0071194328         3892 
 1781000   0.52954275   -9.1074829    190.56696 0.0089166647  0.007112421         3917 
 1782000   0.54159093      -9.1038    190.76187 0.0089207758 0.0071054206         3918 
 1783000   0.53297329   -9.1014409    191.02058 0.0089278639 0.0070984314         3938 
 1784000   0.54583074   -9.1130562    190.78873 0.0089120298 0.0070914511         3913 
 1785000   0.54360103   -9.1101135    190.54975 0.0088958801 0.0070844807         3935 
 1786000    0.5465399   -9.1093516    190.92218 0.0089082763 0.0070775181         3911 
 1787000   0.54794434   -9.1147457    190.84231 0.0088995667 0.0070705639         3945 
 1788000   0.54149344   -9.1230189    190.79883  0.008892563 0.0070636198         3921 
 1789000   0.53261466   -9.1234039    190.80818 0.0088880278 0.0070566852         3934 
 1790000   0.53919277   -9.1147616    190.92717 0.0088886018 0.0070497585         3919 
 1791000   0.54594515   -9.1131854    190.97699 0.0088859571 0.0070428382         3924 
 1792000   0.54630969   -9.1340776    190.51803 0.0088596552 0.0070359336         3933 
 1793000   0.54143458   -9.1231999    190.48656 0.0088532517 0.0070290315         3931 
 1794000    0.5406334   -9.1176305    190.48421 0.0088482072 0.0070221417         3920 
 1795000   0.53418835   -9.1108221     190.8878 0.0088620147 0.0070152573         3941 
 1796000   0.54891652   -9.1217509    190.68107 0.0088474883 0.0070083879         3943 
 1797000   0.53733887   -9.1256663     190.3334 0.0088264421 0.0070015262         3948 
 1798000    0.5343526   -9.1154818    190.73692 0.0088402355  0.006994665         3940 
 1799000    0.5276912   -9.1234561    190.69565 0.0088334098 0.0069878184         3933 
 1800000   0.52080735   -9.1290429    190.51955 0.0088203494 0.0069809825         3940 
 1801000   0.53309951   -9.1340244    190.65238 0.0088215983   0.00697415         3931 
 1802000   0.53417575   -9.1296916    190.58086 0.0088133951 0.0069673305         3937 
 1803000   0.53982604   -9.1151407    190.65516 0.0088119412 0.0069605228         3935 
 1804000   0.51821166    -9.129551     190.7283 0.0088104351 0.0069537237         3914 
 1805000    0.5364427   -9.1216157    190.76571  0.008807281 0.0069469276         3930 
 1806000   0.54677797   -9.1308569    190.56317 0.0087930587 0.0069401501         3945 
 1807000   0.53528325   -9.1324406    190.53863 0.0087870611 0.0069333741         3919 
 1808000   0.52308803   -9.1234672    190.36158 0.0087740403 0.0069266051         3922 
 1809000   0.52500864   -9.1379851    190.40791 0.0087713244 0.0069198471         3928 
 1810000   0.53384543   -9.1166831    190.61018 0.0087757908 0.0069130915         3933 
 1811000   0.54260344   -9.1261035    190.65862  0.008773174 0.0069063533         3928 
 1812000   0.52344872   -9.1214778    190.52149  0.008762026 0.0068996237         3935 
 1813000   0.53414044   -9.1315741    190.44311 0.0087535904 0.0068928948         3928 
 1814000   0.52890329   -9.1340598    190.52744 0.0087526385 0.0068861836         3941 
 1815000    0.5279249   -9.1040559    190.88523 0.0087642439  0.006879478         3932 
 1816000   0.52109177   -9.1341791    190.32555 0.0087337347 0.0068727809         3941 
 1817000   0.52917187   -9.1269867    190.52384 0.0087380224 0.0068660905         3919 
 1818000   0.53696476   -9.1408543    190.36078 0.0087257415 0.0068594147         3930 
 1819000   0.52423164   -9.1294855    190.60478 0.0087321229 0.0068527475         3936 
 1820000   0.53786817   -9.1285663    190.67824 0.0087306886 0.0068460899         3921 
 1821000   0.52914949   -9.1433444    190.39655 0.0087130032 0.0068394377         3935 
 1822000   0.52269022   -9.1524701    190.25052 0.0087015422 0.0068327947         3930 
 1823000   0.50941738   -9.1394375    190.37773 0.0087025841 0.0068261563         3924 
 1824000   0.52692673   -9.1350523    190.23068 0.0086910945 0.0068195267         3928 
 1825000   0.53514709   -9.1449325    190.42728 0.0086953095 0.0068129145         3932 
 1826000   0.53510961   -9.1308241    190.31689 0.0086855097 0.0068063045         3930 
 1827000   0.52645085   -9.1251924    190.26208  0.008678256 0.0067997068         3924 
 1828000   0.52897473   -9.1488998    190.42938 0.0086811353 0.0067931113         3929 
 1829000   0.52841441   -9.1446649    190.16821 0.0086644891 0.0067865313         3953 
 1830000   0.53808108   -9.1515712     190.5781 0.0086784201 0.0067799557         3941 
 1831000   0.52713303   -9.1420951    190.57395 0.0086734911 0.0067733857         3934 
 1832000   0.52156985    -9.131241    190.53519 0.0086669935 0.0067668251         3931 
 1833000   0.51666326    -9.145226    190.64527   0.00866727 0.0067602721         3936 
 1834000   0.52314855   -9.1350216    189.97764 0.0086322083 0.0067537353         3947 
 1835000   0.51459594   -9.1450986    190.43907 0.0086484592 0.0067472058         3937 
 1836000   0.51430095   -9.1536994    190.40927 0.0086423958 0.0067406814         3940 
 1837000   0.51151367    -9.156773    190.22975 0.0086295479 0.0067341637         3940 
 1838000   0.53475934      -9.1428    190.41002 0.0086330261 0.0067276547         3930 
 1839000   0.52701327   -9.1485701    190.70588 0.0086417382 0.0067211572         3942 
 1840000   0.53038236   -9.1545763    190.23034 0.0086155046 0.0067146642         3920 
 1841000   0.50868189   -9.1476924     190.5982 0.0086274761  0.006708182         3937 
 1842000   0.51799187    -9.146752    190.36848 0.0086123995 0.0067017073         3940 
 1843000   0.51563711   -9.1443315    190.26565 0.0086030771  0.006695246         3933 
 1844000   0.51649264    -9.150203    190.13901 0.0085926882 0.0066887883         3930 
 1845000   0.51782061   -9.1451947    190.48947 0.0086038603 0.0066823398         3935 
 1846000    0.5140749   -9.1481525      190.498 0.0085995846 0.0066758956         3935 
 1847000   0.50953543   -9.1358327    190.37263 0.0085892722 0.0066694657         3927 
 1848000   0.50375073   -9.1503085    190.52424  0.008591461 0.0066630443         3931 
 1849000   0.50955122   -9.1561663    190.53288 0.0085872038 0.0066566333         3936 
 1850000   0.51788748   -9.1631399    190.41935 0.0085774481 0.0066502296         3932 
 1851000   0.51952908   -9.1559133    190.53226 0.0085778975 0.0066438359         3935 
 1852000   0.51290774   -9.1483599    190.33561 0.0085644174 0.0066374483         3939 
 1853000   0.52356351   -9.1590916    190.41333 0.0085632907 0.0066310668         3936 
 1854000   0.51731784    -9.153584     190.2578 0.0085516812 0.0066246962         3946 
 1855000   0.51771571   -9.1593234    190.32034 0.0085498807 0.0066183307         3924 
 1856000   0.51260299   -9.1584337    190.19046 0.0085394423 0.0066119774         3937 
 1857000   0.51789554   -9.1745082    190.22219 0.0085362677 0.0066056292         3920 
 1858000   0.51147412   -9.1382238    190.34897 0.0085373598 0.0065992945         3933 
 1859000   0.50410824   -9.1659267    190.23898 0.0085278366 0.0065929632         3942 
 1860000   0.50478013   -9.1620855    190.51431 0.0085355876  0.006586641         3937 
 1861000   0.51485947   -9.1566885    190.46068 0.0085285994 0.0065803236         3938 
 1862000   0.51064923   -9.1707933    190.37489 0.0085201797 0.0065740165         3931 
 1863000   0.50806573   -9.1597885    190.35555  0.008514741  0.006567727         3928 
 1864000   0.50585834   -9.1510604    190.43939 0.0085139211 0.0065614343         3937 
 1865000   0.51406298   -9.1757318    190.31618 0.0085038509 0.0065551529         3948 
 1866000   0.51500644   -9.1759611    190.19115 0.0084937097 0.0065488802         3949 
 1867000   0.52364368   -9.1566272    190.32666  0.008495209 0.0065426144         3932 
 1868000   0.50919954   -9.1615596    190.44653 0.0084960085 0.0065363599         3937 
 1869000   0.50377493   -9.1620016    190.58916 0.0084978221 0.0065301102         3942 
 1870000   0.50076614    -9.152164    190.34346 0.0084823289 0.0065238684         3943 
 1871000   0.51910009   -9.1465718    190.52059 0.0084856847 0.0065176303         3907 
 1872000    0.5076097   -9.1682518    190.28653 0.0084707321 0.0065114098         3931 
 1873000    0.4925377   -9.1481328    190.46523 0.0084741605 0.0065051929         3927 
 1874000   0.51313576   -9.1739315    190.28646 0.0084616891 0.0064989838         3934 
 1875000   0.51194212   -9.1523282    190.18054 0.0084524684 0.0064927788         3936 
 1876000   0.50120671   -9.1731978    190.07799 0.0084434076 0.0064865841         3937 
 1877000    0.5129444   -9.1688697     190.0136 0.0084360502 0.0064804016         3935 
 1878000   0.50508462   -9.1607343     190.0103  0.008431412 0.0064742258         3941 
 1879000   0.50630031    -9.167067    190.25758 0.0084378918 0.0064680514         3949 
 1880000    0.5043567   -9.1805553    190.19806 0.0084307651   0.00646189         3942 
 1881000   0.49442684     -9.17306    190.01116 0.0084180026  0.006455735         3938 
 1882000    0.5003607   -9.1766609    190.43122 0.0084321297 0.0064495844         3933 
 1883000    0.5061233   -9.1805016    190.21095 0.0084179036 0.0064434427         3939 
 1884000   0.50792264   -9.1740764    190.02761 0.0084053261 0.0064373128         3936 
 1885000   0.50537479   -9.1637634    190.18136 0.0084076639 0.0064311916         3924 
 1886000     0.503626   -9.1713958    189.99039  0.008394768 0.0064250827         3930 
 1887000   0.50124028   -9.1586057    190.07995 0.0083942746 0.0064189741         3931 
 1888000   0.49773119    -9.176989    190.27849 0.0083985914 0.0064128704         3936 
 1889000   0.50601708   -9.1692642    190.05236 0.0083841699 0.0064067817         3926 
 1890000   0.50149331   -9.1812054     190.1179 0.0083826236 0.0064006996         3937 
 1891000   0.48672491   -9.1782193    190.09204 0.0083770508 0.0063946249         3933 
 1892000     0.495551   -9.1739835    190.16972 0.0083760447 0.0063885569         3923 
 1893000   0.50864141   -9.1795342     190.1479 0.0083706595  0.006382498         3925 
 1894000   0.50301392   -9.1690368    190.07945 0.0083632282 0.0063764457         3935 
 1895000   0.49290603   -9.1836883    189.70963  0.008342552  0.006370399         3933 
 1896000   0.49484812   -9.1914493    190.05184 0.0083531927 0.0063643601         3923 
 1897000   0.49498426   -9.1737976    189.98497 0.0083458519 0.0063583268         3925 
 1898000   0.50509821   -9.1724074    189.90162 0.0083377949 0.0063523046         3943 
 1899000   0.48994389   -9.1747349    190.20807 0.0083468524 0.0063462847         3940 
 1900000   0.48586499   -9.1678127    190.08269 0.0083369603 0.0063402756         3934 
 1901000   0.49592451   -9.1950952    190.27001 0.0083407862 0.0063342734         3941 
 1902000   0.49568975   -9.1797848    190.07213  0.008327731 0.0063282804         3925 
 1903000   0.49386899   -9.1782996    190.07838 0.0083236286 0.0063222928         3931 
 1904000   0.48982707    -9.206316    189.84143 0.0083088862 0.0063163169         3946 
 1905000   0.49787853   -9.1712712     190.0255 0.0083125765 0.0063103464         3946 
 1906000   0.48461565   -9.1925753    189.88974 0.0083022797 0.0063043819         3916 
 1907000   0.49644963    -9.188713    189.91178 0.0082988891 0.0062984286         3937 
 1908000   0.49139424   -9.1901147    189.89296 0.0082937176 0.0062924818         3950 
 1909000   0.49203224   -9.1767646    189.97776 0.0082930748 0.0062865408         3932 
 1910000   0.50254559   -9.1819288     190.1183 0.0082948646 0.0062806046         3928 
 1911000    0.4885177   -9.1820502    190.14506  0.008291691 0.0062746818         3934 
 1912000   0.49344951   -9.1811672    190.27367   0.00829296 0.0062687637         3927 
 1913000   0.49244024   -9.1993527    190.06227 0.0082794158 0.0062628529         3942 
 1914000   0.49557337   -9.1966375    190.14715 0.0082787857  0.006256955         3945 
 1915000   0.48629586   -9.1837374    189.97789 0.0082670971 0.0062510582         3941 
 1916000   0.48755499   -9.1916794    189.90003 0.0082593957 0.0062451723         3925 
 1917000   0.49856974   -9.1956354    189.83275 0.0082521628 0.0062392932         3949 
 1918000   0.48241341   -9.1871594    189.80887 0.0082468227 0.0062334193         3925 
 1919000   0.49421384   -9.1953034    189.97251 0.0082496311 0.0062275576         3933 
 1920000   0.48875785   -9.1848876      189.945 0.0082441408 0.0062216969         3934 
 1921000   0.49139719   -9.1936159    189.79361 0.0082332816 0.0062158445         3949 
 1922000   0.49228975   -9.1906245      189.916 0.0082343044 0.0062100015         3932 
 1923000   0.47829827   -9.2044916    190.07946 0.0082371062 0.0062041649         3920 
 1924000   0.48139342   -9.2046836    190.00207 0.0082294728  0.006198337         3945 
 1925000   0.48817157   -9.1853447    190.04662 0.0082271265 0.0061925198         3927 
 1926000   0.47780867   -9.2204922    189.74598 0.0082098466 0.0061867078         3947 
 1927000   0.48355579    -9.207223    189.74802 0.0082056748 0.0061808986         3945 
 1928000   0.47777842   -9.1964482    189.90015  0.008207994 0.0061750972         3939 
 1929000   0.48026898   -9.1942653    190.02699 0.0082092184 0.0061693031         3933 
 1930000   0.47785532   -9.1855285    189.93633 0.0082010507 0.0061635163         3946 
 1931000    0.4856691   -9.2070515    189.81844  0.008191716 0.0061577415         3936 
 1932000   0.48345467   -9.1928059    189.61952 0.0081788959 0.0061519717         3944 
 1933000   0.47086514   -9.1952297     189.7864 0.0081818589 0.0061462116         3921 
 1934000   0.48054683   -9.1992181    189.90546 0.0081827587 0.0061404564         3944 
 1935000   0.47904856   -9.2111373    190.10894 0.0081872927 0.0061347102         3915 
 1936000   0.48323208   -9.2024396    189.75698 0.0081679142 0.0061289702         3935 
 1937000   0.46693417   -9.1956576      189.853 0.0081678283 0.0061232349         3939 
 1938000   0.48401623   -9.2062506    190.15669 0.0081766722 0.0061175108         3950 
 1939000   0.47680812   -9.1959918    189.61325 0.0081490996 0.0061117945         3946 
 1940000   0.48224991   -9.2070765    189.61967 0.0081451746 0.0061060861         3940 
 1941000   0.48343378   -9.2123585    189.69617 0.0081442629  0.006100383         3938 
 1942000   0.47908881   -9.2126048    190.12749 0.0081585776 0.0060946857         3951 
 1943000   0.46976344   -9.1878018    189.77374 0.0081392064 0.0060889955         3947 
 1944000   0.47923632    -9.208718    189.82924 0.0081373987 0.0060833132         3941 
 1945000   0.48522617   -9.2070091    189.89291 0.0081359428 0.0060776411         3932 
 1946000   0.47494918   -9.2062479    189.62883 0.0081204533  0.006071976         3948 
 1947000   0.47657387   -9.1935945    189.90109 0.0081279356 0.0060663164         3931 
 1948000   0.49363319   -9.2127585    189.69482 0.0081149393  0.006060663         3947 
 1949000    0.4770162   -9.2001997    189.96908 0.0081225022 0.0060550175         3958 
 1950000   0.47508464   -9.1934793    189.80723 0.0081114202 0.0060493792         3931 
 1951000   0.45932206   -9.2038603    189.88023 0.0081103807 0.0060437468         3952 
 1952000   0.46598372   -9.2229048    189.49726 0.0080898762 0.0060381185         3920 
 1953000   0.47851428   -9.2037572    189.69229 0.0080940556 0.0060324958         3931 
 1954000   0.47256498   -9.2172352    189.88908  0.008098306 0.0060268808         3940 
 1955000   0.47519073   -9.2224628    189.54494 0.0080794944 0.0060212718         3943 
 1956000    0.4737793   -9.2174939    189.88705 0.0080899389 0.0060156783         3943 
 1957000   0.47935196   -9.2109049    189.77228 0.0080809183 0.0060100878         3944 
 1958000    0.4673085   -9.2195334    189.81979 0.0080788128  0.006004503         3927 
 1959000   0.46950636   -9.2177393    189.94269 0.0080799169 0.0059989264         3948 
 1960000    0.4771604    -9.235657    189.75341 0.0080677469 0.0059933535         3945 
 1961000   0.45691051   -9.2190501     189.7355 0.0080628718 0.0059877915         3935 
 1962000   0.46530821   -9.2110263    189.76275 0.0080599198 0.0059822385         3947 
 1963000   0.47192217   -9.2085075    189.68226 0.0080523967 0.0059766944         3948 
 1964000   0.46619806   -9.2200702    189.84871 0.0080553594 0.0059711513         3934 
 1965000   0.46720083   -9.2247804    189.73656 0.0080465039 0.0059656154         3919 
 1966000   0.46307065   -9.2290934    190.01608 0.0080542589 0.0059600872         3941 
 1967000   0.45750997   -9.2262063    189.77864 0.0080401053 0.0059545628         3956 
 1968000   0.47118313   -9.2112391    189.31556 0.0080164108 0.0059490475         3945 
 1969000   0.46351284   -9.2242836    189.57793 0.0080234438 0.0059435442         3934 
 1970000    0.4612606   -9.2303688    189.65389 0.0080225843 0.0059380448         3930 
 1971000   0.46992023   -9.2284844    189.63707 0.0080178028 0.0059325514         3943 
 1972000   0.45850797   -9.2156801    189.63546  0.008013669  0.005927067         3932 
 1973000   0.47089893   -9.2125746    189.59258 0.0080077963 0.0059215869         3944 
 1974000   0.46338188   -9.2276455    189.71625   0.00800896  0.005916119         3940 
 1975000   0.46440186   -9.2330622    189.62511 0.0080010596  0.005910652         3940 
 1976000   0.47232696   -9.2180725    189.64894 0.0079980155 0.0059051915         3942 
 1977000   0.47113686   -9.2360999    189.38151 0.0079826972 0.0058997367         3945 
 1978000   0.47144676   -9.2219061    189.64524 0.0079897727 0.0058942979         3950 
 1979000   0.46614299   -9.2228829    189.63916 0.0079854791 0.0058888596         3943 
 1980000   0.46183028   -9.2284353    189.60809 0.0079801386 0.0058834273         3940 
 1981000   0.45992162   -9.2293085    189.62618 0.0079768712 0.0058780021         3934 
 1982000   0.45907822   -9.2427681    189.57379 0.0079706438 0.0058725833         3940 
 1983000   0.46876975   -9.2258353    189.75763   0.00797435   0.00586717         3939 
 1984000   0.45825359    -9.223477    189.71695 0.0079686217 0.0058617639         3939 
 1985000   0.46554911   -9.2312346    189.31199 0.0079476068 0.0058563635         3941 
 1986000    0.4569029   -9.2333562    189.63354 0.0079570971 0.0058509741         3932 
 1987000   0.45982766   -9.2490468    189.66198 0.0079542854 0.0058455896         3938 
 1988000   0.44539798   -9.2303475    189.48479 0.0079428565 0.0058402098         3942 
 1989000    0.4536553   -9.2255648    189.26237 0.0079295446 0.0058348392         3949 
 1990000   0.45842542   -9.2185218    189.69293 0.0079435899 0.0058294761         3942 
 1991000   0.46854292   -9.2342482    189.68795 0.0079393919 0.0058241157         3936 
 1992000   0.45169923   -9.2375401    189.28436 0.0079185223 0.0058187621         3937 
 1993000   0.46099656   -9.2306356    189.71377 0.0079325042 0.0058134173         3954 
 1994000   0.46289069   -9.2539727    189.84051 0.0079338227  0.005808079         3946 
 1995000   0.45719922    -9.229842     189.4165 0.0079121346 0.0058027503         3937 
 1996000   0.45956718   -9.2569528    189.38774 0.0079069697 0.0057974214         3949 
 1997000   0.45286717   -9.2273655    189.56591 0.0079104451  0.005792102         3936 
 1998000   0.45734485   -9.2440264    189.83056 0.0079175244 0.0057867868         3954 
 1999000   0.45156676   -9.2487737    189.60325 0.0079040874 0.0057814829         3945 
 2000000   0.45382429   -9.2363564    189.91026 0.0079129273 0.0057761857         3950 
 2001000   0.44984973   -9.2387587    189.50472  0.007892084  0.005770893         3933 
 2002000   0.45063122     -9.23503    189.55811 0.0078903642  0.005765608         3939 
 2003000   0.45727087   -9.2313044    189.72759 0.0078934762 0.0057603282         3946 
 2004000   0.45436058   -9.2420504    189.27414 0.0078706812 0.0057550579         3937 
 2005000   0.45212831   -9.2295083    189.51515 0.0078767728 0.0057497894         3933 
 2006000   0.45467815   -9.2350555    189.48077  0.007871418 0.0057445295         3935 
 2007000   0.44863662   -9.2477209     189.4505 0.0078662389  0.005739276         3953 
 2008000   0.45553814   -9.2337811      189.498 0.0078642928 0.0057340279         3940 
 2009000   0.45399988   -9.2371894    189.42754 0.0078574555 0.0057287859         3934 
 2010000   0.44063011   -9.2439459    189.46085 0.0078549273 0.0057235547         3945 
 2011000   0.44659372   -9.2475578    189.61749 0.0078575126 0.0057183254         3948 
 2012000    0.4431653    -9.250993     189.7192 0.0078578199 0.0057131048         3946 
Loop time of 5260.91 on 48 procs for 2000000 steps with 4000 atoms

Performance: 65692.113 tau/day, 380.163 timesteps/s
99.4% CPU use with 48 MPI tasks x no OpenMP threads

MPI task timing breakdown:
Section |  min time  |  avg time  |  max time  |%varavg| %total
---------------------------------------------------------------
Pair    | 385.77     | 435.86     | 488.56     | 122.0 |  8.28
Neigh   | 37.27      | 39.281     | 42.874     |  16.3 |  0.75
Comm    | 330.1      | 381.63     | 436.82     | 129.6 |  7.25
Output  | 5.8547     | 5.8566     | 5.9007     |   0.3 |  0.11
Modify  | 4330.2     | 4349.2     | 4367.3     |  13.1 | 82.67
Other   |            | 49.13      |            |       |  0.93

Nlocal:        83.3333 ave          89 max          78 min
Histogram: 4 3 5 3 9 11 5 2 3 3
Nghost:        2456.08 ave        2478 max        2436 min
Histogram: 2 5 5 6 10 3 7 6 3 1
Neighs:        17137.1 ave       19773 max       14736 min
Histogram: 2 5 9 3 6 7 5 7 3 1
FullNghs:      34275.1 ave       36849 max       31788 min
Histogram: 2 4 3 5 8 13 5 4 1 3

Total # of neighbors = 1645203
Ave neighs/atom = 411.30075
Neighbor list builds = 106407
Dangerous builds = 0

#clear
#
#next RN
#
#jump SELF
Total wall time: 1:27:44
