
units lj                  # Use reduced LJ style units
atom_style atomic         # Uncharged point particles
atom_modify map hash      # Needed for indexing of clusters etc
                          # Used to be able to find where atoms are in relation to each other.

lattice fcc 1.0 spacing 1 1 1
Lattice spacing in x,y,z = 1.5874011 1.5874011 1.5874011
region box block 0 10 0 10 0 10 units lattice
create_box 2 box
Created orthogonal box = (0.0000000 0.0000000 0.0000000) to (15.874011 15.874011 15.874011)
  3 by 4 by 4 MPI processor grid
create_atoms 1 box
Created 4000 atoms
  using lattice units in orthogonal box = (0.0000000 0.0000000 0.0000000) to (15.874011 15.874011 15.874011)
  create_atoms CPU = 0.003 seconds
set type 1 type/fraction 2 0.16 78393
Setting atom values ...
  677 settings made for type/fraction
mass 1 1.0
mass 2 1.0
pair_style lj/cut  3.5
pair_modify tail  yes
pair_coeff 1  1  1.0  1.0   # Intearaction between 1 and 1 set with epsilon = 1 and sigma = 1
pair_coeff 1  2  1.5  0.8
pair_coeff 2  2  0.5  0.88

write_data data.0
System init for write_data ...
Neighbor list info ...
  update every 1 steps, delay 10 steps, check yes
  max neighbors/atom: 2000, page size: 100000
  master list distance cutoff = 3.8
  ghost atom cutoff = 3.8
  binsize = 1.9, bins = 9 9 9
  1 neighbor lists, perpetual/occasional/extra = 1 0 0
  (1) pair lj/cut, perpetual
      attributes: half, newton on
      pair build: half/bin/atomonly/newton
      stencil: half/bin/3d
      bin: standard
WARNING: Not all mixed pair coeffs generated from mixing. Use write_data with 'pair ij' option to store all pair coeffs. (../write_data.cpp:312)


#############################
#   M E L T   S Y S T E M   #
#############################

velocity all create 2.4 2750902 mom yes dist gaussian # Assign velocities
                                                    # Temperature 2.4, random number seed, zero linear momentum
                                                                                # Gaussian distribution

timestep 0.002   # simulation timestep
thermo 1000       # output thermodynamic data every 1000 steps bf 100

# Define a fix  in this case with index 1 applied to all
# particles in the simulation. This fix is for simulations
# in the anisotropic NPT ensemble. Note that we use the MTK
# correction.
fix 1 all npt temp 2.4 2.4 0.1 iso 5.68 5.68 0.5 mtk yes tchain 5 pchain 5 # Use NPT ensemble
                                                                         # Set temperature and pressure and damping
                                                                         # Numbers of thermostats in chain and in barostat
run 10000          # run for 10000 steps
Per MPI rank memory allocation (min/avg/max) = 3.642 | 3.644 | 3.648 Mbytes
Step Temp E_pair E_mol TotEng Press Volume 
       0          2.4   -7.2871769            0   -3.6880769   -3.4159639         4000 
    1000    2.4198031    -4.674264            0   -1.0454669    6.0114064    4619.9202 
    2000    2.4101732   -4.7118102            0   -1.0974542    5.8368854    4614.4306 
    3000    2.3767131   -4.7857564            0    -1.221578    5.5088781    4605.0953 
    4000    2.4136711   -4.7616501            0   -1.1420486    5.4079287    4634.8722 
    5000    2.3772598   -4.7655772            0   -1.2005789    5.5259074    4616.9915 
    6000    2.4167255   -4.7752392            0   -1.1510572    5.5966443    4604.4499 
    7000    2.3728468   -4.7322294            0   -1.1738491    5.8317805     4598.073 
    8000    2.3373967   -4.6962566            0   -1.1910381    5.9696273    4609.7698 
    9000    2.4444241   -4.7037032            0   -1.0379838    6.1148329     4590.279 
   10000    2.4203877   -4.7649645            0   -1.1352906    5.6012352    4618.7828 
Loop time of 2.21814 on 48 procs for 10000 steps with 4000 atoms

Performance: 779029.888 tau/day, 4508.275 timesteps/s
99.6% CPU use with 48 MPI tasks x no OpenMP threads

MPI task timing breakdown:
Section |  min time  |  avg time  |  max time  |%varavg| %total
---------------------------------------------------------------
Pair    | 0.92456    | 1.0029     | 1.109      |   3.4 | 45.21
Neigh   | 0.19345    | 0.20188    | 0.22293    |   1.2 |  9.10
Comm    | 0.64122    | 0.76826    | 0.87049    |   4.7 | 34.64
Output  | 0.00023657 | 0.00024242 | 0.00030087 |   0.0 |  0.01
Modify  | 0.19968    | 0.23054    | 0.26482    |   3.7 | 10.39
Other   |            | 0.01433    |            |       |  0.65

Nlocal:        83.3333 ave          92 max          77 min
Histogram: 4 1 11 5 9 7 4 4 2 1
Nghost:        1494.94 ave        1512 max        1464 min
Histogram: 1 0 2 1 6 11 7 6 8 6
Neighs:        8246.73 ave        9107 max        7449 min
Histogram: 1 4 6 6 11 4 10 2 1 3

Total # of neighbors = 395843
Ave neighs/atom = 98.960750
Neighbor list builds = 908
Dangerous builds = 223

# Equilibrate just above the melting temperature to avoid step fn in T

fix 1 all npt temp 1.25 1.25 0.1 iso 5.68 5.68 0.5 mtk yes tchain 5 pchain 5
run 2000
Per MPI rank memory allocation (min/avg/max) = 3.642 | 3.644 | 3.648 Mbytes
Step Temp E_pair E_mol TotEng Press Volume 
   10000    2.4203877   -4.7649645            0   -1.1352906    5.6012352    4618.7828 
   11000    1.2749199    -6.443038            0   -4.5311362    5.7127382    3768.5021 
   12000    1.2596015   -6.4360931            0   -4.5471632    5.7944736    3759.4239 
Loop time of 0.532768 on 48 procs for 2000 steps with 4000 atoms

Performance: 648688.189 tau/day, 3753.983 timesteps/s
99.4% CPU use with 48 MPI tasks x no OpenMP threads

MPI task timing breakdown:
Section |  min time  |  avg time  |  max time  |%varavg| %total
---------------------------------------------------------------
Pair    | 0.21171    | 0.23481    | 0.25787    |   1.7 | 44.07
Neigh   | 0.031489   | 0.033513   | 0.035574   |   0.5 |  6.29
Comm    | 0.15644    | 0.18197    | 0.20639    |   2.8 | 34.16
Output  | 5.0669e-05 | 8.2957e-05 | 0.0015237  |   0.0 |  0.02
Modify  | 0.061356   | 0.076532   | 0.090866   |   2.6 | 14.37
Other   |            | 0.005856   |            |       |  1.10

Nlocal:        83.3333 ave          90 max          76 min
Histogram: 2 1 6 5 4 13 4 9 0 4
Nghost:        1717.38 ave        1741 max        1692 min
Histogram: 3 2 2 5 9 11 6 6 2 2
Neighs:        10145.8 ave       11425 max        8920 min
Histogram: 2 2 7 3 10 7 9 5 2 1

Total # of neighbors = 486996
Ave neighs/atom = 121.74900
Neighbor list builds = 142
Dangerous builds = 8

#############################
# L I N E A R  Q U E N C H  #
#############################

# Define solid atoms. This closely follows ten Wolde  Ruiz-Montero and Frenkel  Faraday Discuss  1996  104  93-110
# Compute components of the per-atom q6 vector
compute q6 all orientorder/atom degrees 1 6 components 6 nnn NULL cutoff 1.3 # compute the Q6 parameter.
                                                                             # Use all neighbours within 1.3 unit cell.

# get number of connections
compute coord_number all coord/atom orientorder q6 0.5

# An atom is solid if it has 8 or more connections (of a possible 14)
variable is_solid atom c_coord_number>=8
group solid dynamic all var is_solid    # Must be dynamic to update
dynamic group solid defined

# do clustering
compute cluster solid cluster/atom 1.3 # Create a cluster where all atoms within are solid and max 1.3 units from another member

# define chunks one chunk per cluster
compute clus_chunks solid chunk/atom c_cluster nchunk every compress yes  # Says which atoms are in which chunk

# count the size of each chunk
compute size_chunks solid property/chunk clus_chunks count


# Find the maximum entry in the vector of chunk sizes
variable max_n equal max(c_size_chunks)


# Thermo style which includes this variable
# thermo_style custom step temp pe vol v_max_n

thermo ${N}  # Print the thermo information every 100 steps
thermo 1000  

# Reset the npt fix at a lower temperature (below freezing)
fix 1  all npt temp  ${temp} ${temp}  0.1  iso  5.68  5.68  0.5  mtk yes tchain  5  pchain  5
fix 1  all npt temp  0.45 ${temp}  0.1  iso  5.68  5.68  0.5  mtk yes tchain  5  pchain  5
fix 1  all npt temp  0.45 0.45  0.1  iso  5.68  5.68  0.5  mtk yes tchain  5  pchain  5

dump dmp2 all dcd ${N} traj.dcd
dump dmp2 all dcd 1000 traj.dcd


compute msd all msd com yes
variable twopoint equal c_msd[4]/6/(step*dt+1.0e-6)
fix 9 all vector 10 c_msd[4]
variable fit equal slope(f_9)/6/(10*dt)
thermo_style custom step temp pe c_msd[4] v_twopoint v_fit v_max_n

fix 1 all npt temp 1.25 ${temp} 0.1 iso 5.68 5.68 0.5 mtk yes tchain 5 pchain 5
fix 1 all npt temp 1.25 0.45 0.1 iso 5.68 5.68 0.5 mtk yes tchain 5 pchain 5
run 500000 # 5000000  # Run for this many steps
Neighbor list info ...
  update every 1 steps, delay 10 steps, check yes
  max neighbors/atom: 2000, page size: 100000
  master list distance cutoff = 3.8
  ghost atom cutoff = 3.8
  binsize = 1.9, bins = 9 9 9
  4 neighbor lists, perpetual/occasional/extra = 1 3 0
  (1) pair lj/cut, perpetual
      attributes: half, newton on
      pair build: half/bin/atomonly/newton
      stencil: half/bin/3d
      bin: standard
  (2) compute orientorder/atom, occasional
      attributes: full, newton on
      pair build: full/bin/atomonly
      stencil: full/bin/3d
      bin: standard
  (3) compute coord/atom, occasional
      attributes: full, newton on
      pair build: full/bin/atomonly
      stencil: full/bin/3d
      bin: standard
  (4) compute cluster/atom, occasional
      attributes: full, newton on
      pair build: full/bin/atomonly
      stencil: full/bin/3d
      bin: standard
Per MPI rank memory allocation (min/avg/max) = 9.766 | 9.772 | 9.776 Mbytes
Step Temp PotEng c_msd[4] v_twopoint v_fit v_max_n 
   12000    1.2596015   -6.4360931 2.0595186e-30 1.4302212e-32 8.3333333e+20            3 
   13000    1.2471857   -6.4301091   0.55838166 0.0035793695  0.045931763            2 
   14000     1.227975   -6.3923674    1.0981918 0.0065368554  0.044743215            1 
   15000    1.2701896   -6.4379559    1.6825087   0.00934727  0.046192984            2 
   16000    1.2320709   -6.4635569    2.1669794  0.011286351  0.045990518            1 
   17000    1.2455492   -6.4218824    2.7105134   0.01328683  0.045310065            2 
   18000    1.2189839   -6.4493659    3.1615728  0.014636911  0.044556283            2 
   19000    1.2413982    -6.424592    3.6933893  0.016199075    0.0437226            3 
   20000    1.2184968   -6.4493937    4.1751108  0.017396295  0.043310167            2 
   21000    1.2231208   -6.4645919    4.7249397   0.01874976  0.043185825            2 
   22000    1.2109583   -6.4854429    5.2487116  0.019881483  0.043220195            3 
   23000    1.2077965   -6.4531818    5.7897621  0.020977398  0.043248208            3 
   24000    1.2383395   -6.4512563     6.256514  0.021724007  0.043168132            3 
   25000    1.2352762   -6.4581701    6.7517083  0.022505694  0.043010276            1 
   26000    1.2212418   -6.4867583    7.3204704  0.023463046  0.042976238            3 
   27000    1.2393696   -6.4855981    7.8278328  0.024159977  0.043022349            2 
   28000    1.2010492   -6.4511295    8.2402124  0.024524441  0.042906142            2 
   29000    1.2267864   -6.4267437    8.7710581   0.02520419  0.042746261            2 
   30000    1.2106943   -6.4992962    9.2094951   0.02558193  0.042669037            2 
   31000    1.2550192   -6.4301311    9.7454008  0.026197314     0.042535            2 
   32000    1.2478607   -6.4401829    10.219594  0.026613527   0.04243409            1 
   33000    1.1979631   -6.5194784    10.674859  0.026956714  0.042319483            2 
   34000    1.2061452   -6.4879457    11.129037  0.027277051   0.04216974            4 
   35000    1.1996475   -6.5015402    11.544793  0.027487602  0.041994575            2 
   36000     1.213219   -6.5133251    11.951053  0.027664474  0.041780367            2 
   37000    1.2316557    -6.510025    12.427647  0.027990195  0.041529885            2 
   38000     1.224708   -6.4838327     12.89547  0.028279539  0.041343858            2 
   39000     1.215776   -6.4897554    13.387018  0.028604739  0.041176398            2 
   40000    1.2291347   -6.4857303    14.095602  0.029365836  0.041131577            2 
   41000    1.1726315   -6.4882132    14.621393  0.029718278  0.041156235            6 
   42000    1.1935605   -6.5090083    15.063007  0.029886918  0.041178492            4 
   43000    1.1826525   -6.4767852    15.466898  0.029974608   0.04115234            3 
   44000    1.1999519    -6.516392    15.927213  0.030165175  0.041110474            4 
   45000    1.2060771   -6.4895789    16.451629  0.030465979  0.041052606            1 
   46000    1.1882873   -6.5479252    16.892207  0.030601824  0.040995318            3 
   47000    1.1892313   -6.5528671    17.415443  0.030878445  0.040963132            1 
   48000    1.1798388   -6.4990776    17.918232  0.031108041  0.040946586            1 
   49000    1.1858156   -6.5100368    18.493187  0.031450998  0.040960162            6 
   50000    1.1736903   -6.5096122    18.864584  0.031440973  0.040959644            2 
   51000    1.2052649   -6.5139435    19.487374  0.031842114   0.04095018            2 
   52000    1.1788996   -6.5660473    19.715593  0.031595501  0.040931274            2 
   53000    1.2001764   -6.5765319    20.179498  0.031728771  0.040875549            3 
   54000    1.1939439   -6.5372104     20.64366  0.031857499  0.040820016            3 
   55000    1.1952114   -6.5284841    20.953865   0.03174828  0.040736065            2 
   56000    1.1680227   -6.5364948    21.446236  0.031914041  0.040649268            2 
   57000     1.184841   -6.5468938    21.807228  0.031881912  0.040550118            1 
   58000    1.1677121   -6.5360105    22.252555  0.031972062  0.040448643            2 
   59000    1.1976422   -6.5873373    22.424366  0.031672834  0.040315242            1 
   60000     1.186677   -6.5928468    22.937799  0.031858054  0.040186139            2 
   61000    1.1716999   -6.6028226    23.584181  0.032218826  0.040087603            3 
   62000    1.1537101   -6.5815667    24.012595  0.032274993  0.040003276            1 
   63000    1.1768287   -6.5737975    24.391338  0.032263674  0.039910291            3 
   64000    1.1777307   -6.6191355    24.920998  0.032449216  0.039819084            2 
   65000    1.1904076   -6.5852156    25.329112  0.032473221  0.039749906            2 
   66000    1.1464371   -6.5386003    25.773355  0.032542115  0.039665665            2 
   67000    1.1774476   -6.6032684    26.133707   0.03250461  0.039582016            2 
   68000    1.1565035   -6.6027591    26.834755  0.032885728  0.039515227            3 
   69000    1.1592923   -6.5794796    27.282501   0.03294988  0.039472301            3 
   70000    1.1654008   -6.6088462    27.658264  0.032926504  0.039418131            2 
   71000    1.1576036   -6.6237485    28.099544  0.032980685   0.03937831            2 
   72000    1.1582305   -6.5963877    28.602987  0.033105309   0.03933035            1 
   73000    1.1440733   -6.6062001    28.935204  0.033031054   0.03928558            1 
   74000    1.1366991   -6.6368347    29.205012  0.032888527   0.03922583            3 
   75000    1.1354465   -6.6227565    29.676666  0.032974073  0.039149025            2 
   76000     1.169661   -6.5724489    30.000159  0.032894911  0.039069425            1 
   77000    1.1456412   -6.5922086    30.452295  0.032957029  0.038992207            2 
   78000    1.1448433   -6.6321393    30.788073  0.032893241  0.038908636            5 
   79000    1.1411674   -6.6351891    31.109331   0.03281575  0.038827079            6 
   80000     1.168352   -6.6529605    31.589351  0.032905574  0.038745134            1 
   81000    1.1551147   -6.6260682    31.989588  0.032911099  0.038669055            3 
   82000    1.1345451   -6.6002171    32.441557  0.032969061  0.038592424            4 
   83000    1.1272864   -6.6560431    32.649641  0.032780763  0.038504249            3 
   84000    1.1524712   -6.6986092    33.024892  0.032762789   0.03841319            3 
   85000    1.1646118   -6.6286877    33.421006  0.032765692  0.038323114            1 
   86000    1.1476278   -6.6454627    33.849843  0.032800236  0.038230041            1 
   87000    1.0978549   -6.6464894    34.365416  0.032917065  0.038142217            1 
   88000    1.1601877   -6.6293133    34.608039  0.032772764  0.038058897            4 
   89000    1.1124427   -6.6619413    35.198274  0.032957185  0.037973766            2 
   90000    1.1532978   -6.6241293    35.788618  0.033137609  0.037906796            1 
   91000    1.1246456   -6.6805217    36.082823  0.033042878  0.037842601            2 
   92000    1.1142456   -6.6852226    36.331672  0.032909123  0.037778945            2 
   93000    1.1087922   -6.6632077    36.761053  0.032940012  0.037702455            1 
   94000    1.1226232   -6.6739144    36.980215  0.032783878  0.037624778            1 
   95000    1.0948007   -6.6848589    37.393594  0.032801398  0.037542544            1 
   96000    1.1265277   -6.6934744    37.677571  0.032706224  0.037460309            2 
   97000    1.1050237   -6.6749061    38.070418  0.032706545  0.037376373            2 
   98000    1.1121193   -6.6587942    38.560977  0.032789946   0.03729303            3 
   99000     1.088845   -6.6775217    38.893936  0.032739003  0.037207378            2 
  100000    1.1041501   -6.6626565    39.260171  0.032716809  0.037124943            2 
  101000    1.1090917   -6.6793517    39.764686  0.032809146   0.03704758            2 
  102000    1.0945544   -6.7301932    39.866979  0.032571061  0.036971203            4 
  103000    1.1071222   -6.6715105    40.278262   0.03258759  0.036892165            2 
  104000     1.102333   -6.6934998    40.579946  0.032515982  0.036809885            1 
  105000    1.1080452    -6.736386    40.827963  0.032403145  0.036726296            2 
  106000    1.0963413   -6.7599849    41.169581  0.032366023  0.036637325            3 
  107000    1.1061746   -6.7263967    41.493277  0.032315636  0.036547656            4 
  108000    1.1024833   -6.7288514    41.970364   0.03238454  0.036463589            2 
  109000    1.0858345   -6.7391873    42.337427  0.032368063   0.03637995            3 
  110000    1.0734975   -6.7572626    42.367169   0.03209634   0.03629196            3 
  111000    1.0832289   -6.7483671    42.814936  0.032143345  0.036197089            3 
  112000      1.06051    -6.730932    43.196162  0.032140001  0.036108585            3 
  113000    1.0726856   -6.7277795    43.385097  0.031994909  0.036022474            3 
  114000    1.0940526   -6.7478958    43.896231  0.032087888  0.035936045            2 
  115000    1.0864685   -6.7542498    44.289387  0.032093759  0.035851611            2 
  116000    1.0958332   -6.7522694    44.773028  0.032164532  0.035774167            2 
  117000    1.0621149   -6.7506914    45.038187  0.032078481  0.035696833            3 
  118000    1.0527698   -6.7361275    45.261234  0.031964148  0.035619753            1 
  119000    1.0990728   -6.7740421    45.632813  0.031955751  0.035541452            2 
  120000    1.0873077   -6.7669197    46.213825  0.032092934  0.035468566            3 
  121000    1.0624051   -6.7455103    46.359579  0.031928085  0.035394977            7 
  122000    1.0473186   -6.7740371    47.076848  0.032156317  0.035324912            3 
  123000    1.0692761   -6.7585954    47.280473  0.032032841  0.035255061            2 
  124000    1.0641947   -6.7477691    47.613208  0.031998124  0.035190134            2 
  125000    1.0749219   -6.7894443    48.164583  0.032109722  0.035128151            3 
  126000    1.0699196   -6.7585856    48.483389  0.032065733  0.035070233            2 
  127000    1.0635929    -6.755668    48.792216   0.03201589  0.035007945            2 
  128000     1.101871   -6.7693008    49.121006  0.031979822  0.034945078            3 
  129000      1.05268   -6.7639779    49.443031  0.031939942  0.034881566            2 
  130000    1.0742116   -6.7864634    49.718261   0.03187068  0.034814498            2 
  131000    1.0442279   -6.7860885    49.933699  0.031764439  0.034746393            2 
  132000    1.0539527   -6.8260664    50.281155  0.031743153  0.034677597            2 
  133000    1.0397152   -6.7915964    50.656228  0.031739491  0.034610703            2 
  134000    1.0580162   -6.7908016    51.024073  0.031731389  0.034546051            4 
  135000    1.0358561   -6.8003545    51.065837  0.031522122   0.03447789            5 
  136000    1.0455406   -6.7958483    51.276047  0.031419146   0.03440373            2 
  137000    1.0342852   -6.7844401      51.4037  0.031267457   0.03432687            3 
  138000    1.0549149   -6.8186044    51.674996  0.031204708  0.034248102            5 
  139000    1.0574734   -6.7907027    51.944747  0.031141934   0.03417051            3 
  140000    1.0558699   -6.7598805    52.337631  0.031153352  0.034091092            3 
  141000    1.0405734    -6.824034    52.659415  0.031122585  0.034012437            2 
  142000    1.0656468   -6.8250147    53.238548  0.031243279  0.033940745            2 
  143000    1.0207191   -6.8373662     53.63818  0.031257681  0.033872573            5 
  144000    1.0405676   -6.8209505     54.00081  0.031250468  0.033805582            2 
  145000    1.0293276   -6.8495305    54.162674  0.031127973  0.033740948            2 
  146000    1.0467849   -6.8349566    54.455488  0.031081899  0.033671308            2 
  147000    1.0385941   -6.8125205    54.671824  0.030993097    0.0336021            6 
  148000    1.0349038   -6.8664687    54.640807   0.03076622  0.033529446            2 
  149000    1.0483285   -6.8609689    54.991373  0.030755802  0.033452857            2 
  150000    1.0373707   -6.8259912    55.081062   0.03060059   0.03337421            5 
  151000    1.0289441   -6.8696281    55.517916  0.030639026  0.033295748            4 
  152000     1.027658   -6.8510636     55.66276  0.030516864   0.03321898            2 
  153000     1.022815   -6.8536111    56.159871  0.030588165  0.033141068            1 
  154000    1.0229919   -6.8477575    56.435655  0.030538774  0.033064238            3 
  155000    1.0147436   -6.8626783    56.727322   0.03049856  0.032989009            3 
  156000    1.0247663   -6.9162276    57.110678  0.030507841  0.032917069            3 
  157000    1.0406268   -6.8678209     57.68065  0.030616056  0.032846692            4 
  158000    1.0251809   -6.8686069    57.521407  0.030338295  0.032775979            3 
  159000    1.0208645   -6.8959084    58.016313  0.030406872  0.032705124            4 
  160000    1.0085745   -6.8794287    58.370046  0.030401065  0.032637592            2 
  161000     1.025355   -6.8671221    58.508512  0.030283909   0.03257003            3 
  162000      1.01754   -6.8675819    58.996712  0.030348103  0.032500534            3 
  163000    1.0194466   -6.8754859    59.159119  0.030244948  0.032432871            1 
  164000   0.99883624   -6.9260557    59.258531  0.030111042   0.03236455            2 
  165000    1.0074263    -6.890405     59.46933  0.030035015  0.032291593            1 
  166000   0.99644593   -6.8832126    59.641972  0.029940749  0.032218028            4 
  167000    1.0315406   -6.9320601    60.054185  0.029967158  0.032145247            3 
  168000   0.97146759   -6.8798389    60.028202  0.029775894  0.032070748            6 
  169000    1.0044482   -6.8802347    60.316323  0.029741777   0.03199673            4 
  170000    1.0014861   -6.9269714    60.555001  0.029683824  0.031922594            2 
  171000   0.99674155   -6.9770841    60.710519  0.029586023  0.031848157            6 
  172000   0.99284423   -6.9212527    61.062948  0.029584761  0.031774829            4 
  173000   0.98061315    -6.934867     61.52484  0.029636243  0.031703405            4 
  174000    1.0037548   -6.9088097    61.775219  0.029585833   0.03163299            5 
  175000    1.0100706   -6.9330209    61.839658  0.029447456  0.031560955            3 
  176000   0.97255566   -6.9508294    62.090175  0.029398757   0.03148746            5 
  177000   0.98703816   -6.9079866     62.39521  0.029376276   0.03141426            2 
  178000   0.98717221   -6.9285359    62.296897  0.029165214  0.031340195            2 
  179000   0.99828292   -6.9771993    62.528821  0.029110252  0.031263769            4 
  180000   0.98716034    -6.974958    62.883832  0.029112885  0.031189627            3 
  181000   0.99185772   -6.9316338    63.125813   0.02906345  0.031117367            3 
  182000   0.97571593   -6.9880565    63.238372  0.028955299  0.031042554            4 
  183000   0.98277926   -6.9841706    63.632086   0.02897636  0.030968574            2 
  184000   0.97910665   -6.9500051      63.8969  0.028938813  0.030895091            4 
  185000    0.9939486   -6.9389604    64.124511  0.028884915  0.030822401            5 
  186000   0.97182681   -6.9618602    64.279125  0.028798891  0.030749988            3 
  187000    0.9646488   -6.9546559    64.538647  0.028760538  0.030676155            3 
  188000   0.98209935   -6.9981851     64.74176  0.028697589  0.030601599            2 
  189000   0.94766237   -6.9844425    64.931838  0.028629558  0.030526754            2 
  190000   0.96972644    -7.013366    65.030813  0.028522286  0.030451117            6 
  191000   0.94623569   -6.9692509    65.244853  0.028466341   0.03037777            6 
  192000   0.95672528   -6.9922685    65.735854  0.028531187  0.030304609            2 
  193000   0.96888782   -7.0029019    65.679321  0.028358947  0.030231407            5 
  194000   0.95697221   -6.9989578    65.767768  0.028250759  0.030155266            9 
  195000   0.96561513    -7.002984    66.189914  0.028286288  0.030079647            3 
  196000   0.96697938   -6.9604822    66.243632   0.02816481   0.03000389            5 
  197000   0.97456247   -6.9822763    66.427528  0.028099631  0.029928483            2 
  198000   0.94831026   -6.9888749    66.735099  0.028087163  0.029853912            4 
  199000   0.97869497   -7.0028184    66.879123  0.028006333   0.02978049            4 
  200000   0.95530912   -7.0349243    67.064157  0.027943399  0.029705987            1 
  201000   0.93869193   -7.0260767    67.233098  0.027874419  0.029630446            5 
  202000   0.94537114   -7.0033428    67.296201  0.027762459  0.029554923            2 
  203000   0.93464976   -7.0423513    67.472928  0.027698246  0.029480365            3 
  204000   0.93147552   -7.0387095    67.725276  0.027665554   0.02940539            5 
  205000   0.93980801   -7.0191952    68.245362  0.027742017  0.029331363            6 
  206000   0.93263921   -7.0086106     68.22626   0.02759962  0.029258392            3 
  207000   0.92045667   -7.0356093    68.192442  0.027452674  0.029183371           11 
  208000   0.95623262   -7.0326817    68.507003  0.027446716  0.029109411            3 
  209000   0.95202939   -7.0602132    68.569003  0.027340113  0.029035146            3 
  210000   0.93220424   -7.0506049    68.630186  0.027234201  0.028959765            2 
  211000   0.92169164   -7.0538074     69.07427  0.027280517  0.028884128            2 
  212000   0.92550129   -7.0390094     69.23867  0.027216458  0.028808723            5 
  213000   0.92774895   -7.0225179    69.369917   0.02714003  0.028732882            2 
  214000   0.90449074   -7.0750002    69.313322  0.026991169   0.02865682            3 
  215000   0.93232533   -7.0567892    69.480408  0.026930391  0.028581667            2 
  216000    0.8902457   -7.0626055    69.774921  0.026919337  0.028505335            6 
  217000   0.92219428   -7.0749626    69.663402  0.026752458  0.028428506            3 
  218000   0.91641996   -7.0813033    69.850398  0.026701223  0.028351635            5 
  219000   0.92521023   -7.0567042    69.866198  0.026585311  0.028273463            3 
  220000   0.91515214   -7.0727891    70.250453   0.02661002  0.028195481            4 
  221000   0.92126891   -7.0792107    70.313193   0.02651327  0.028118315            6 
  222000   0.91923128   -7.0801247    70.338902  0.026403492  0.028039792            6 
  223000   0.92460603   -7.1255764    70.702944   0.02642113  0.027961565            3 
  224000    0.9000263   -7.1041715    70.518839  0.026234687    0.0278838            9 
  225000   0.91209176   -7.1382431    70.574557  0.026138725   0.02780458            4 
  226000    0.9046796   -7.1234354    70.766971  0.026094016  0.027725413            4 
  227000   0.89977945   -7.1205696    71.072719  0.026091307  0.027645159            2 
  228000   0.90079871   -7.0918885    71.059882  0.025972179  0.027565443            5 
  229000   0.91266654   -7.1233728    71.179504  0.025902294  0.027485524            2 
  230000   0.88896483   -7.1408248    71.327798  0.025843405  0.027405373            6 
  231000   0.89297188   -7.1037078    71.508388  0.025796677  0.027325685            4 
  232000   0.88187547   -7.1453219    71.640704  0.025733011  0.027247631            5 
  233000   0.91746241   -7.1128203    71.832765  0.025691261  0.027168513            8 
  234000    0.8913858   -7.1595273    71.597849   0.02549781  0.027089825            2 
  235000   0.88899469   -7.0995072    72.098076  0.025566693  0.027011031            4 
  236000   0.89183514   -7.1305565    72.244038    0.0255099  0.026932325            4 
  237000   0.88327217   -7.1253813     72.58128  0.025520844   0.02685484            3 
  238000   0.90097294    -7.133069    72.388605   0.02534615  0.026777633            3 
  239000   0.89388917   -7.1495621    72.646746  0.025330107  0.026700861            7 
  240000   0.87680479   -7.1777737     72.94074  0.025326646  0.026624146            4 
  241000   0.88037382   -7.1432676    72.895353  0.025205862  0.026548799            4 
  242000   0.88962595   -7.1619841     73.02342  0.025145806  0.026472674            4 
  243000   0.88230679   -7.2041519    73.095019  0.025066879  0.026395854            4 
  244000   0.86234375   -7.1680662    73.265162  0.025022255  0.026318915            5 
  245000   0.88105183   -7.1518629    73.523992  0.025008161  0.026242903            3 
  246000   0.88029169   -7.1934197    73.356297  0.024849694  0.026167218            3 
  247000   0.89401478   -7.1803103     73.77704  0.024891039  0.026092315            4 
  248000   0.87344919    -7.179518    74.149336  0.024915771  0.026018629            7 
  249000   0.86386095   -7.2131236     73.86161  0.024719414  0.025945483           10 
  250000   0.85801566   -7.1978754    74.302393  0.024767464  0.025871833            3 
  251000   0.86528459   -7.1922528    74.238345  0.024647525  0.025797558            4 
  252000   0.88396162   -7.2073405    74.334624  0.024581555  0.025723969            4 
  253000   0.84869671   -7.2153343    74.498819  0.024538478  0.025650936            3 
  254000   0.87835573   -7.2058945    74.575147  0.024466912  0.025578444            4 
  255000   0.86627854   -7.2086087    74.822429  0.024451774  0.025507087            3 
  256000     0.843625   -7.1708574    74.943691  0.024395733  0.025435968            6 
  257000   0.84672879    -7.179873    75.347304  0.024431681  0.025365132            4 
  258000    0.8341672   -7.2000703    75.420556  0.024360645  0.025295684            5 
  259000    0.8538511   -7.1879763    75.596485  0.024323193  0.025227777            3 
  260000   0.87495921   -7.2236393    75.745667  0.024277457  0.025159572            4 
  261000   0.86686826   -7.2588853    75.776638  0.024194329  0.025091436            4 
  262000   0.83583608   -7.2461743     76.00839  0.024175697  0.025023438            7 
  263000   0.86815542   -7.2217708    76.045288  0.024095465  0.024954923            5 
  264000   0.84157226   -7.2304736    75.901574   0.02395883  0.024885788            5 
  265000    0.8295677   -7.2098915     76.20002   0.02396227  0.024816246            5 
  266000    0.8254793   -7.2610029    76.170279  0.023862869  0.024746792            5 
  267000   0.85102749   -7.2631024    76.080631  0.023745515  0.024676993            8 
  268000   0.83522307   -7.2233544    76.411013  0.023759643  0.024607316            5 
  269000   0.83228274   -7.2734634    76.516508  0.023703999    0.0245385            5 
  270000   0.84849634   -7.2197831     76.84057  0.023716225   0.02447038            3 
  271000   0.83483263   -7.2650072    76.845748  0.023630304  0.024402559            4 
  272000   0.83151772   -7.2893569    76.855322  0.023546361  0.024334043            3 
  273000   0.83562249   -7.2519012    76.834964  0.023453896  0.024265335            4 
  274000   0.83265637   -7.2887976    76.715855  0.023332073  0.024196816            7 
  275000   0.84762171   -7.2757668    76.983198  0.023328242  0.024128237            3 
  276000   0.82908858   -7.2952637    77.035464    0.0232595  0.024059467            4 
  277000   0.82085041   -7.2398922    77.286222  0.023250969  0.023991472            6 
  278000   0.83892171   -7.2821639    77.255824  0.023158221  0.023923081            3 
  279000   0.85282793     -7.26063    77.753828  0.023223963  0.023855554            4 
  280000   0.83160075   -7.2705643    77.523156  0.023072368  0.023788562            7 
  281000   0.82879185    -7.265867    77.779596  0.023066309  0.023721819            2 
  282000   0.81778485   -7.3175243    77.639001  0.022942967  0.023655181            9 
  283000   0.80937864   -7.3213428    77.870916  0.022930187  0.023588531            7 
  284000   0.78994656   -7.3044854    77.862224  0.022846897  0.023521396            5 
  285000   0.81583894   -7.2986042    77.919883  0.022783591   0.02345397            7 
  286000   0.81883807    -7.318256    78.185662   0.02278137  0.023387486            2 
  287000   0.82004261    -7.314579    78.043717  0.022660777  0.023320848            5 
  288000   0.82008026    -7.322069    78.114567  0.022602594  0.023254414            5 
  289000   0.79048276   -7.2964967    78.234722  0.022559032  0.023188718            4 
  290000   0.80725972   -7.3202118    78.461824  0.022546501  0.023122387            5 
  291000   0.79584441   -7.3363518    78.370523  0.022442876  0.023056892            5 
  292000   0.80485212   -7.3352082      78.5198  0.022408619  0.022991249            4 
  293000   0.80934801   -7.3373573    78.741084  0.022395075  0.022925868            4 
  294000   0.80472642   -7.3218909    78.721275  0.022313286  0.022861407            2 
  295000   0.80036596   -7.3126845    79.011793  0.022319716  0.022797444            8 
  296000   0.80173267   -7.3000926    79.179838  0.022291621  0.022734012           11 
  297000   0.79060928    -7.326566    79.221532  0.022228264  0.022671176           10 
  298000   0.79902158   -7.3360041    79.248685  0.022161265  0.022608185            5 
  299000   0.79642386   -7.3482755    79.332429  0.022110488  0.022545097           16 
  300000   0.79269796   -7.3474404    79.544048  0.022095569   0.02248229           14 
  301000   0.79476309   -7.3467423    79.514484  0.022013977  0.022419522            5 
  302000   0.77964982   -7.3543438    79.559392  0.021953474  0.022356228            6 
  303000   0.77456979     -7.38491    79.536763  0.021874797  0.022293481            5 
  304000   0.78083402   -7.3470387    79.482927  0.021788083  0.022230623            4 
  305000   0.79206654   -7.3822957    79.632505  0.021757515  0.022167815            4 
  306000   0.78873239   -7.3612013    79.815947  0.021736369  0.022104866            9 
  307000    0.7813255   -7.3825278    79.604592  0.021608195  0.022042415            8 
  308000   0.77380195   -7.3858907     79.75947  0.021579943  0.021979425            6 
  309000   0.78659368   -7.4235473    79.696985  0.021493254   0.02191567            6 
  310000    0.7713535   -7.4252835    79.609205  0.021400324   0.02185173            7 
  311000   0.79433151   -7.3855444    79.861267  0.021399053  0.021788073            5 
  312000   0.77034423   -7.4150401    79.836649  0.021323891  0.021724776            5 
  313000   0.76724461   -7.4490294    79.821526  0.021251737  0.021661005            3 
  314000   0.75036138    -7.421703    79.916248  0.021209195  0.021597907            8 
  315000   0.76272644   -7.4287826    80.237104  0.021226747  0.021535874            5 
  316000   0.75641636   -7.4042045    80.198945  0.021149511  0.021473733            4 
  317000   0.76528989   -7.4185119    80.305013  0.021110676  0.021411741            5 
  318000   0.77400627   -7.4349204    80.148223  0.021003203  0.021349884            2 
  319000   0.77240149   -7.4134236    80.300497  0.020977141  0.021288515            5 
  320000   0.74850609   -7.4325385    80.474091  0.020956795  0.021226914            6 
  321000   0.75910537   -7.4085558    80.824801  0.020982555   0.02116634            5 
  322000   0.75331887   -7.4697252    80.660945  0.020874986  0.021105474            8 
  323000   0.74511455   -7.4187644    80.425458  0.020749602  0.021043936           12 
  324000   0.74180004   -7.4446549    80.815563  0.020785896  0.020982576           10 
  325000   0.75381464   -7.4741797    80.612518  0.020669876  0.020921719            7 
  326000   0.75939064   -7.4507766    80.875384  0.020673667  0.020861032            8 
  327000   0.74078521   -7.4825445    80.700167  0.020565792  0.020800109            8 
  328000   0.73631149   -7.4881726    80.741495  0.020513591  0.020739284           10 
  329000    0.7366608   -7.4769455    80.617783  0.020419905  0.020678835           10 
  330000   0.75678036   -7.4532361    80.885407  0.020425608  0.020618447            6 
  331000   0.73223465   -7.4566681    80.875162   0.02036132  0.020558973            6 
  332000   0.73419583   -7.4437375    81.154103  0.020370006  0.020499749            6 
  333000   0.72486039   -7.4835808    81.386891   0.02036709  0.020441006            6 
  334000   0.75084918   -7.4774325    81.247964  0.020271448  0.020382014            4 
  335000   0.71861929   -7.5010436    81.442607  0.020259355  0.020323363            5 
  336000   0.72411588    -7.478238    81.340017  0.020173615  0.020264454            6 
  337000   0.71968509   -7.4959426    81.414041  0.020132058  0.020205488            5 
  338000   0.72963047   -7.5053872    81.342077  0.020054753  0.020146597            3 
  339000   0.72716004   -7.4997056    81.280263  0.019980399  0.020087498            5 
  340000   0.72959889   -7.5112484    81.388005   0.01994804  0.020028645            8 
  341000   0.70895723   -7.5212628    81.292559  0.019866217  0.019969339            8 
  342000   0.71547099   -7.5155603    81.263822  0.019801126  0.019910187            4 
  343000   0.71597955   -7.5275317    81.472401  0.019794072  0.019851409            7 
  344000   0.70761812   -7.5311003     81.58982  0.019764976  0.019793188            6 
  345000   0.71927263   -7.5283083    81.553215  0.019698844    0.0197349            9 
  346000   0.70246752   -7.5530109    81.397042  0.019604297  0.019676708           21 
  347000    0.7013294    -7.522519    81.545263  0.019583397  0.019618578            7 
  348000   0.71741113   -7.5343064    81.504512  0.019517364  0.019560503           21 
  349000   0.68734472    -7.534519    81.532637  0.019468156  0.019502472           33 
  350000   0.71586352   -7.5265309    81.401751  0.019381369  0.019444578            5 
  351000   0.70048404   -7.5431003    81.695191  0.019395819  0.019386832            8 
  352000   0.69287598   -7.5278494    81.614045  0.019321507  0.019329198            9 
  353000   0.72084724   -7.5240375    81.741832  0.019296939  0.019271379            9 
  354000   0.70697803   -7.5457281     81.59184  0.019207119  0.019213741            4 
  355000   0.69410512   -7.5428767    81.569287   0.01914772  0.019155736            5 
  356000   0.68328956   -7.5428336    81.482308  0.019073574  0.019098015            7 
  357000   0.69612573   -7.5671314    81.337703  0.018986392   0.01904017            8 
  358000   0.71770946   -7.5520291    81.762649  0.019032274  0.018982518            6 
  359000   0.67581432   -7.5846376    81.717305  0.018968734  0.018924957           10 
  360000   0.68094364   -7.5682719    81.516913  0.018869656  0.018867593            5 
  361000   0.69984689   -7.5783451    81.796984  0.018882037  0.018810329           14 
  362000   0.68250745   -7.5688365    81.678853  0.018802682  0.018753329            5 
  363000   0.67969233   -7.5932634    81.582003  0.018728651  0.018696376            8 
  364000   0.69414145   -7.5899817    81.852927  0.018739223  0.018639614            8 
  365000   0.69312056    -7.584825    81.621343   0.01863501  0.018582902            6 
  366000   0.67059102   -7.6177939    81.560851  0.018570321  0.018526307           12 
  367000   0.66880309   -7.5963858    81.733077  0.018558828  0.018469899            4 
  368000   0.67633389   -7.6276051    81.747241  0.018511603  0.018413507            3 
  369000   0.67469578   -7.6150458    81.845576  0.018483644  0.018357413            4 
  370000   0.66804073   -7.6018982    81.948687  0.018456912  0.018301456            7 
  371000   0.66282189    -7.599731    81.746765  0.018361807  0.018245851            7 
  372000   0.67247135   -7.6162186    81.960361  0.018360296  0.018190195            5 
  373000   0.67879041   -7.5921073    81.945191  0.018307683  0.018135014            7 
  374000   0.67370027   -7.5979095    82.119403   0.01829755  0.018080028            8 
  375000   0.65396744   -7.6038851    81.949593  0.018211021  0.018025313            6 
  376000   0.65872505   -7.6179857     82.19662  0.018217336  0.017970544           12 
  377000   0.66686779   -7.6191522    82.124076  0.018152979  0.017915748           10 
  378000   0.67297799   -7.6290593    81.953871  0.018067432  0.017861175            7 
  379000   0.64775391   -7.6461554    81.816475   0.01798955  0.017806296           14 
  380000   0.66598003   -7.6207008    82.025678  0.017988087  0.017751584           17 
  381000   0.65961173   -7.6498679    81.844328  0.017901209  0.017696829            7 
  382000   0.65796228   -7.6226426    81.898026  0.017866062  0.017642137            6 
  383000   0.66498014   -7.6418642    81.798339  0.017797724  0.017587723            9 
  384000   0.64887175   -7.6378792    81.875827  0.017768192  0.017533296            3 
  385000   0.65540198   -7.6512462    81.912554   0.01772999  0.017478939            4 
  386000   0.65986375   -7.6688225    81.887106  0.017678563  0.017424719           19 
  387000   0.66572789   -7.6829464    81.859376  0.017626911  0.017370553           14 
  388000   0.64143894   -7.6824493    81.804443  0.017569683  0.017316674           16 
  389000   0.64803887   -7.6763792    81.843915  0.017532972  0.017262784           11 
  390000   0.65011023   -7.6940313    82.113804  0.017545684   0.01720913           15 
  391000   0.64041572   -7.6863232    81.879076  0.017450784  0.017155617           16 
  392000   0.64891639   -7.7007507    81.697135  0.017367588  0.017102171           14 
  393000   0.64949354   -7.6793376    81.991625  0.017385841  0.017049181           13 
  394000   0.63662758   -7.7038771    81.915723   0.01732566  0.016996012           12 
  395000   0.63684933   -7.6903407    81.947502  0.017288503  0.016943075           19 
  396000   0.62287239   -7.7003886    82.138028  0.017284938  0.016890363            9 
  397000    0.6513373   -7.6828803    82.051372   0.01722321  0.016837927           16 
  398000   0.62212172   -7.7123679    82.039482  0.017177446   0.01678569           14 
  399000   0.63581471   -7.6945083    81.909678  0.017107285   0.01673368            7 
  400000   0.63654293   -7.6968943    82.099568  0.017104077  0.016681878           13 
  401000   0.61944692   -7.6973269    81.994252  0.017039537  0.016630386           18 
  402000   0.63365483    -7.723786     82.16561  0.017032672  0.016579098           15 
  403000   0.62235547   -7.7034469    82.120243  0.016981026  0.016528133           20 
  404000   0.62123949   -7.7244769    81.947645  0.016903392  0.016477105            5 
  405000   0.63097249   -7.7093102    82.154398  0.016904197  0.016426317            9 
  406000   0.62075095    -7.700068    82.152383  0.016862147   0.01637572           12 
  407000   0.61498715   -7.7220294    82.122993    0.0168147  0.016325149           14 
  408000   0.60175816   -7.7353582    82.174048  0.016783915  0.016274694           11 
  409000   0.61526635    -7.720525    82.239484  0.016756211  0.016224459           16 
  410000   0.61288964   -7.7651007    82.082329    0.0166834  0.016174207           14 
  411000   0.61839685    -7.763768    82.144003  0.016655313  0.016124004            7 
  412000   0.60865089   -7.7346562    82.138935  0.016613862  0.016074011            6 
  413000   0.61248665   -7.7547756    82.126334  0.016571092   0.01602426           16 
  414000   0.60409805   -7.7205987    82.021164  0.016509896  0.015974427            8 
  415000   0.60811049   -7.7408069    82.166688  0.016499335  0.015924745           16 
  416000   0.60943054   -7.7550983    81.994187  0.016425118  0.015875219           10 
  417000   0.60747928   -7.7357063    82.198128  0.016426484  0.015825963           12 
  418000   0.60424757    -7.760332    82.007384  0.016349159  0.015776971            9 
  419000   0.58971117   -7.7483073    82.213793  0.016351192  0.015727954           14 
  420000    0.5941991   -7.7757262    82.111723  0.016292009  0.015679149            5 
  421000    0.5744984    -7.761259    82.042193  0.016239547  0.015630493           10 
  422000   0.59412941   -7.7773557    82.148233  0.016222005  0.015582053            6 
  423000   0.58972718   -7.7796782    82.092988  0.016172772  0.015533769            7 
  424000   0.59948615   -7.7766728    82.115776  0.016139107  0.015485632            4 
  425000   0.58786894   -7.7807311    82.205236  0.016118674  0.015437572            9 
  426000   0.58537871   -7.8016786    82.052635  0.016050985  0.015389753            6 
  427000   0.59091006   -7.7788518    82.109935  0.016024577  0.015342122           10 
  428000   0.58531223   -7.7842468    82.048935   0.01597526  0.015294702           14 
  429000   0.58046759   -7.7921251    81.940438  0.015916946  0.015247443           16 
  430000    0.5790933   -7.8018167    82.190439   0.01592838  0.015200314           12 
  431000   0.58167912   -7.8047819    82.295276  0.015911693  0.015153531            9 
  432000    0.5815591   -7.7964194    82.201419  0.015856755  0.015106792           14 
  433000   0.57325786   -7.8020322     82.20258  0.015820358  0.015060233           15 
  434000    0.5775397   -7.8184747    82.200405  0.015783488  0.015013813           16 
  435000   0.57389607   -7.8262432    82.134571  0.015734592  0.014967607           15 
  436000    0.5641878   -7.8258073    82.146182  0.015700723  0.014921548           20 
  437000   0.58026585   -7.8239747    82.150919  0.015665698  0.014875377           11 
  438000   0.56868021   -7.8209682    82.031361  0.015607184  0.014829374           11 
  439000   0.56613976   -7.8276665    82.148205  0.015593813  0.014783387           16 
  440000   0.57347751   -7.8298322    82.011776  0.015532533  0.014737523            7 
  441000   0.55543335   -7.8381123    82.039265  0.015502507  0.014691805           10 
  442000   0.55917908     -7.84097    82.092957  0.015477556  0.014646309           15 
  443000   0.55991612   -7.8375513    82.054395  0.015435364  0.014601049           13 
  444000   0.54983665   -7.8460498    82.006398  0.015391591   0.01455583            9 
  445000   0.56946567   -7.8482885    82.152204  0.015384308  0.014510723            7 
  446000   0.55745447   -7.8579308     81.94342  0.015310803  0.014465803            9 
  447000   0.55193171   -7.8489556    81.989921   0.01528522  0.014420953           15 
  448000   0.56213353   -7.8730366     82.04446  0.015261246  0.014376345           13 
  449000   0.55184627   -7.8517265    81.963464  0.015212224  0.014331798           24 
  450000   0.54393212   -7.8430992     81.89827  0.015166346  0.014287335           15 
  451000   0.55014892   -7.8443244    81.840874  0.015122113  0.014243017           24 
  452000    0.5465501   -7.8668586    82.007221  0.015119325  0.014198893           13 
  453000   0.53951786   -7.8646965    81.913605  0.015068728  0.014154882           17 
  454000   0.52815484    -7.859772    81.918175  0.015036376  0.014111091           10 
  455000   0.53912389   -7.8651028    81.973371  0.015013438  0.014067345           16 
  456000   0.53640124   -7.8743925    81.878635  0.014963201   0.01402378           14 
  457000   0.53100423   -7.8818942     81.98699  0.014950217  0.013980356           17 
  458000   0.54711972   -7.8927061    81.951851  0.014911181  0.013937079           16 
  459000    0.5355906   -7.8835693    81.875683  0.014864866  0.013894006           15 
  460000   0.52884546   -7.8916225    81.772503  0.014813859  0.013850955           31 
  461000   0.53602545   -7.8813324     81.80083  0.014786846  0.013808003           15 
  462000   0.51541351   -7.8943467    81.725265  0.014741209  0.013765175           17 
  463000   0.53269862   -7.8998795    81.706121  0.014705925  0.013722375           18 
  464000    0.5212556   -7.9151814    81.910817  0.014710994  0.013679803           13 
  465000   0.52343443   -7.9023891    81.876885  0.014673277  0.013637516           14 
  466000   0.52570373    -7.905881    81.790513  0.014626344  0.013595273           21 
  467000   0.53068557   -7.8999717    81.767879  0.014590985   0.01355315           14 
  468000   0.52229444   -7.9329072    81.788496  0.014563479  0.013511171           17 
  469000   0.51566814   -7.8998769    81.761672   0.01452766  0.013469353           21 
  470000   0.50798177   -7.9159343    81.762835  0.014496957  0.013427683           19 
  471000   0.51590616   -7.9242684    81.705309  0.014455999  0.013386293           22 
  472000   0.51316746   -7.9159949    81.779807  0.014438525  0.013344933           14 
  473000   0.51532345    -7.922281    81.895864  0.014428447  0.013303773           16 
  474000    0.5180087   -7.9398777    81.748859  0.014372162  0.013262706           12 
  475000   0.49303546   -7.9442065    81.762269  0.014344258  0.013221849           15 
  476000   0.49589306    -7.930187     81.82532  0.014325161  0.013181087           25 
  477000   0.50493759   -7.9387406    81.630807  0.014261147  0.013140553           14 
  478000   0.51583943    -7.931848    81.725969  0.014247903  0.013100126           19 
  479000   0.50559305   -7.9556677    81.782743  0.014228035   0.01305977           17 
  480000   0.49784318   -7.9364325    81.591903  0.014165261  0.013019553           21 
  481000   0.49645889   -7.9416536    81.600091   0.01413723  0.012979468           16 
  482000    0.4960623   -7.9492206    81.655619    0.0141175  0.012939415           29 
  483000   0.49129183    -7.939067    81.656962  0.014088503  0.012899531           28 
  484000   0.49125918   -7.9443159    81.598818  0.014049383  0.012859816           21 
  485000   0.48324213   -7.9452999    81.682001  0.014034708  0.012820208           19 
  486000   0.49873402   -7.9630763    81.696321  0.014008286  0.012780756           20 
  487000   0.49739609   -7.9712718     81.62294  0.013966964   0.01274144           25 
  488000   0.49795635   -7.9510545    81.606138  0.013935474  0.012702281            8 
  489000   0.48527776    -7.972773     81.65216  0.013914819  0.012663159           18 
  490000   0.48660458   -7.9657376    81.540849  0.013867491  0.012624189           11 
  491000   0.48088706   -7.9836894    81.535345  0.013838314  0.012585346           11 
  492000   0.48286061   -7.9764456     81.50678  0.013805349  0.012546708           16 
  493000   0.47374391    -7.986848    81.611466  0.013795042  0.012508182           15 
  494000   0.46520019   -7.9861755    81.572533  0.013760549   0.01246972           18 
  495000   0.47894807   -7.9765244    81.490405  0.013718923  0.012431489           22 
  496000   0.46529135   -7.9930556    81.432374  0.013681514  0.012393343           18 
  497000   0.47876427   -8.0142481    81.555758  0.013674674  0.012355323           17 
  498000   0.46924158   -7.9984529    81.536831  0.013644048  0.012317431           13 
  499000   0.47064254   -7.9873952    81.523158  0.013614422  0.012279756           11 
  500000   0.45359689   -8.0052481    81.537619  0.013589603   0.01224218           18 
  501000   0.46377596   -7.9905048    81.444499  0.013546989  0.012204795           15 
  502000   0.46958663   -8.0019544    81.445682    0.0135202  0.012167424           19 
  503000    0.4592942   -8.0054136    81.436765  0.013491843  0.012130295           18 
  504000   0.47075327   -8.0129849    81.438677   0.01346539   0.01209325           29 
  505000   0.46554656   -8.0168906    81.442417  0.013439343  0.012056315           15 
  506000   0.45640421   -8.0198795    81.472288  0.013417702  0.012019561            7 
  507000    0.4613316   -8.0148971    81.314067  0.013365231  0.011982897           16 
  508000   0.45213244   -8.0283119    81.493035   0.01336828  0.011946383           19 
  509000   0.45962771   -8.0146184    81.416496  0.013329485  0.011909998           17 
  510000   0.45074536   -8.0257475    81.291831  0.013282979  0.011873831           16 
  511000   0.45807114   -8.0281202    81.334623  0.013263963   0.01183775           16 
  512000   0.45015676   -8.0203818    81.310322  0.013234102  0.011801754           12 
Loop time of 1124.49 on 48 procs for 500000 steps with 4000 atoms

Performance: 76834.634 tau/day, 444.645 timesteps/s
99.4% CPU use with 48 MPI tasks x no OpenMP threads

MPI task timing breakdown:
Section |  min time  |  avg time  |  max time  |%varavg| %total
---------------------------------------------------------------
Pair    | 68.631     | 73.228     | 79.549     |  23.0 |  6.51
Neigh   | 7.0728     | 7.3402     | 7.5826     |   4.4 |  0.65
Comm    | 62.485     | 71.493     | 76.92      |  32.2 |  6.36
Output  | 0.84619    | 0.84664    | 0.85473    |   0.1 |  0.08
Modify  | 954.61     | 959.5      | 965.4      |   7.6 | 85.33
Other   |            | 12.09      |            |       |  1.07

Nlocal:        83.3333 ave          92 max          77 min
Histogram: 3 2 8 4 15 5 8 0 2 1
Nghost:        1879.62 ave        1899 max        1861 min
Histogram: 2 2 5 6 8 11 7 5 1 1
Neighs:        11777.9 ave       13517 max       10610 min
Histogram: 2 7 9 8 6 8 5 2 0 1
FullNghs:      23554.2 ave       25950 max       21467 min
Histogram: 3 2 5 7 11 6 9 2 1 2

Total # of neighbors = 1130600
Ave neighs/atom = 282.65000
Neighbor list builds = 26904
Dangerous builds = 0

#clear
#
#next RN
#
#jump SELF
Total wall time: 0:18:47
