
units lj                  # Use reduced LJ style units
atom_style atomic         # Uncharged point particles
atom_modify map hash      # Needed for indexing of clusters etc
                          # Used to be able to find where atoms are in relation to each other.

lattice fcc 1.0 spacing 1 1 1
Lattice spacing in x,y,z = 1.5874011 1.5874011 1.5874011
region box block 0 10 0 10 0 10 units lattice
create_box 2 box
Created orthogonal box = (0.0000000 0.0000000 0.0000000) to (15.874011 15.874011 15.874011)
  3 by 4 by 4 MPI processor grid
create_atoms 1 box
Created 4000 atoms
  using lattice units in orthogonal box = (0.0000000 0.0000000 0.0000000) to (15.874011 15.874011 15.874011)
  create_atoms CPU = 0.003 seconds
set type 1 type/fraction 2 0.97 78393
Setting atom values ...
  3879 settings made for type/fraction
mass 1 1.0
mass 2 1.0
pair_style lj/cut  3.5
pair_modify tail  yes
pair_coeff 1  1  1.0  1.0   # Intearaction between 1 and 1 set with epsilon = 1 and sigma = 1
pair_coeff 1  2  1.5  0.8
pair_coeff 2  2  0.5  0.88

write_data data.0
System init for write_data ...
Neighbor list info ...
  update every 1 steps, delay 10 steps, check yes
  max neighbors/atom: 2000, page size: 100000
  master list distance cutoff = 3.8
  ghost atom cutoff = 3.8
  binsize = 1.9, bins = 9 9 9
  1 neighbor lists, perpetual/occasional/extra = 1 0 0
  (1) pair lj/cut, perpetual
      attributes: half, newton on
      pair build: half/bin/atomonly/newton
      stencil: half/bin/3d
      bin: standard
WARNING: Not all mixed pair coeffs generated from mixing. Use write_data with 'pair ij' option to store all pair coeffs. (../write_data.cpp:312)


#############################
#   M E L T   S Y S T E M   #
#############################

velocity all create 2.4 9622624 mom yes dist gaussian # Assign velocities
                                                    # Temperature 2.4, random number seed, zero linear momentum
                                                                                # Gaussian distribution

timestep 0.002   # simulation timestep
thermo 1000       # output thermodynamic data every 1000 steps bf 100

# Define a fix  in this case with index 1 applied to all
# particles in the simulation. This fix is for simulations
# in the anisotropic NPT ensemble. Note that we use the MTK
# correction.
fix 1 all npt temp 2.4 2.4 0.1 iso 5.68 5.68 0.5 mtk yes tchain 5 pchain 5 # Use NPT ensemble
                                                                         # Set temperature and pressure and damping
                                                                         # Numbers of thermostats in chain and in barostat
run 10000          # run for 10000 steps
Per MPI rank memory allocation (min/avg/max) = 3.642 | 3.644 | 3.648 Mbytes
Step Temp E_pair E_mol TotEng Press Volume 
       0          2.4   -2.8451072            0   0.75399283    -1.976462         4000 
    1000    2.3345656   -1.6583643            0    1.8426087    5.7446039    4159.2444 
    2000    2.3888069   -1.7186423            0    1.8636722    5.4970332    4162.0448 
    3000    2.3653783   -1.6842131            0    1.8629673    5.6413557     4160.745 
    4000    2.4252978   -1.6918929            0    1.9451444    5.5356858    4200.7835 
    5000    2.4325789   -1.6694954            0    1.9784608    5.5577002    4221.2622 
    6000    2.3380491   -1.6729271            0    1.8332698    5.4324868     4213.956 
    7000    2.3866214   -1.6936082            0    1.8854289    5.7017873    4149.1377 
    8000    2.3795416   -1.6800218            0    1.8883983    5.6920701    4170.6123 
    9000    2.4086457   -1.6727231            0    1.9393422    5.7619283    4166.2744 
   10000    2.3894279   -1.6354513            0    1.9477946     5.564452      4231.88 
Loop time of 2.40155 on 48 procs for 10000 steps with 4000 atoms

Performance: 719535.337 tau/day, 4163.978 timesteps/s
99.6% CPU use with 48 MPI tasks x no OpenMP threads

MPI task timing breakdown:
Section |  min time  |  avg time  |  max time  |%varavg| %total
---------------------------------------------------------------
Pair    | 1.0223     | 1.1131     | 1.1959     |   2.7 | 46.35
Neigh   | 0.20362    | 0.21134    | 0.22109    |   0.6 |  8.80
Comm    | 0.72049    | 0.82477    | 0.9298     |   3.8 | 34.34
Output  | 0.00023973 | 0.00024525 | 0.00030603 |   0.0 |  0.01
Modify  | 0.21697    | 0.23717    | 0.2529     |   2.2 |  9.88
Other   |            | 0.01491    |            |       |  0.62

Nlocal:        83.3333 ave          94 max          77 min
Histogram: 8 4 10 3 8 6 4 4 0 1
Nghost:        1574.44 ave        1604 max        1550 min
Histogram: 4 6 3 10 6 7 3 3 2 4
Neighs:        9023.81 ave       10507 max        8021 min
Histogram: 3 9 5 5 10 8 5 0 2 1

Total # of neighbors = 433143
Ave neighs/atom = 108.28575
Neighbor list builds = 907
Dangerous builds = 221

# Equilibrate just above the melting temperature to avoid step fn in T

fix 1 all npt temp 1.25 1.25 0.1 iso 5.68 5.68 0.5 mtk yes tchain 5 pchain 5
run 2000
Per MPI rank memory allocation (min/avg/max) = 3.643 | 3.645 | 3.649 Mbytes
Step Temp E_pair E_mol TotEng Press Volume 
   10000    2.3894279   -1.6354513            0    1.9477946     5.564452      4231.88 
   11000    1.2544643   -2.5285866            0  -0.64736053    5.7096144    3274.7411 
   12000     1.276508   -2.5623966            0  -0.64811328    5.6137719    3264.1016 
Loop time of 0.582555 on 48 procs for 2000 steps with 4000 atoms

Performance: 593248.263 tau/day, 3433.150 timesteps/s
99.7% CPU use with 48 MPI tasks x no OpenMP threads

MPI task timing breakdown:
Section |  min time  |  avg time  |  max time  |%varavg| %total
---------------------------------------------------------------
Pair    | 0.25151    | 0.27982    | 0.29685    |   1.7 | 48.03
Neigh   | 0.038969   | 0.041267   | 0.045316   |   0.5 |  7.08
Comm    | 0.19098    | 0.21192    | 0.24028    |   2.2 | 36.38
Output  | 5.2264e-05 | 5.3434e-05 | 6.7959e-05 |   0.0 |  0.01
Modify  | 0.039693   | 0.044895   | 0.049819   |   1.3 |  7.71
Other   |            | 0.004604   |            |       |  0.79

Nlocal:        83.3333 ave          91 max          77 min
Histogram: 3 2 9 4 9 7 9 3 1 1
Nghost:        1885.96 ave        1913 max        1861 min
Histogram: 5 4 5 3 8 4 9 3 3 4
Neighs:        11696.2 ave       12953 max        9961 min
Histogram: 1 1 2 6 9 7 8 6 3 5

Total # of neighbors = 561419
Ave neighs/atom = 140.35475
Neighbor list builds = 146
Dangerous builds = 18

#############################
# L I N E A R  Q U E N C H  #
#############################

# Define solid atoms. This closely follows ten Wolde  Ruiz-Montero and Frenkel  Faraday Discuss  1996  104  93-110
# Compute components of the per-atom q6 vector
compute q6 all orientorder/atom degrees 1 6 components 6 nnn NULL cutoff 1.3 # compute the Q6 parameter.
                                                                             # Use all neighbours within 1.3 unit cell.

# get number of connections
compute coord_number all coord/atom orientorder q6 0.5

# An atom is solid if it has 8 or more connections (of a possible 14)
variable is_solid atom c_coord_number>=8
group solid dynamic all var is_solid    # Must be dynamic to update
dynamic group solid defined

# do clustering
compute cluster solid cluster/atom 1.3 # Create a cluster where all atoms within are solid and max 1.3 units from another member

# define chunks one chunk per cluster
compute clus_chunks solid chunk/atom c_cluster nchunk every compress yes  # Says which atoms are in which chunk

# count the size of each chunk
compute size_chunks solid property/chunk clus_chunks count


# Find the maximum entry in the vector of chunk sizes
variable max_n equal max(c_size_chunks)


# Thermo style which includes this variable
# thermo_style custom step temp pe vol v_max_n

thermo ${N}  # Print the thermo information every 100 steps
thermo 1000  

# Reset the npt fix at a lower temperature (below freezing)
fix 1  all npt temp  ${temp} ${temp}  0.1  iso  5.68  5.68  0.5  mtk yes tchain  5  pchain  5
fix 1  all npt temp  0.45 ${temp}  0.1  iso  5.68  5.68  0.5  mtk yes tchain  5  pchain  5
fix 1  all npt temp  0.45 0.45  0.1  iso  5.68  5.68  0.5  mtk yes tchain  5  pchain  5

dump dmp2 all dcd ${N} traj.dcd
dump dmp2 all dcd 1000 traj.dcd


compute msd all msd com yes
variable twopoint equal c_msd[4]/6/(step*dt+1.0e-6)
fix 9 all vector 10 c_msd[4]
variable fit equal slope(f_9)/6/(10*dt)
thermo_style custom step temp pe c_msd[4] v_twopoint v_fit v_max_n

fix 1 all npt temp 1.25 ${temp} 0.1 iso 5.68 5.68 0.5 mtk yes tchain 5 pchain 5
fix 1 all npt temp 1.25 0.45 0.1 iso 5.68 5.68 0.5 mtk yes tchain 5 pchain 5
run 500000 # 5000000  # Run for this many steps
Neighbor list info ...
  update every 1 steps, delay 10 steps, check yes
  max neighbors/atom: 2000, page size: 100000
  master list distance cutoff = 3.8
  ghost atom cutoff = 3.8
  binsize = 1.9, bins = 8 8 8
  4 neighbor lists, perpetual/occasional/extra = 1 3 0
  (1) pair lj/cut, perpetual
      attributes: half, newton on
      pair build: half/bin/atomonly/newton
      stencil: half/bin/3d
      bin: standard
  (2) compute orientorder/atom, occasional
      attributes: full, newton on
      pair build: full/bin/atomonly
      stencil: full/bin/3d
      bin: standard
  (3) compute coord/atom, occasional
      attributes: full, newton on
      pair build: full/bin/atomonly
      stencil: full/bin/3d
      bin: standard
  (4) compute cluster/atom, occasional
      attributes: full, newton on
      pair build: full/bin/atomonly
      stencil: full/bin/3d
      bin: standard
Per MPI rank memory allocation (min/avg/max) = 9.813 | 9.821 | 9.827 Mbytes
Step Temp PotEng c_msd[4] v_twopoint v_fit v_max_n 
   12000     1.276508   -2.5623966 1.9129877e-30 1.3284636e-32 8.3333333e+20            1 
   13000     1.274974   -2.5589739    1.1104749 0.0071184289  0.094090344            2 
   14000    1.2482643   -2.5410635    2.3521393  0.014000829  0.098994428            3 
   15000    1.2542192   -2.5317273    3.6068274   0.02003793   0.10180024            1 
   16000    1.2427352   -2.5445903    4.8728821  0.025379594    0.1029644            1 
   17000    1.2296728   -2.5573886     6.129285  0.030045514   0.10384874            1 
   18000    1.2223522   -2.5427731    7.4138122  0.034323204   0.10403111            1 
   19000    1.2446818   -2.5572441     8.720924  0.038249666   0.10471169            2 
   20000    1.2531238    -2.568141    10.000506  0.041668772   0.10515796            2 
   21000      1.22528    -2.574139    11.172576  0.044335619   0.10518881            1 
   22000    1.2267198    -2.572208    12.343972  0.046757467   0.10476534            1 
   23000    1.2362004   -2.5613923    13.500514  0.048914903   0.10429999            2 
   24000    1.2064587   -2.5878953    14.546661  0.050509239   0.10366491            2 
   25000    1.2233473   -2.5704555    15.911331   0.05303777   0.10287864            1 
   26000    1.2332149   -2.5887962    17.242704  0.055265075   0.10262524            2 
   27000    1.2575344    -2.554516    18.559721  0.057283087   0.10278861            3 
   28000    1.2185292   -2.5759813    19.846085  0.059065729   0.10294608            1 
   29000    1.2189569   -2.5588019      21.1972  0.060911492   0.10317595            1 
   30000    1.2240441   -2.5629125    22.439706  0.062332516   0.10350066            2 
   31000    1.2235399   -2.5860903    23.731097  0.063793271   0.10382912            2 
   32000    1.2133917   -2.5855686    25.089912  0.065338312   0.10413424            2 
   33000    1.2146553   -2.5709227    26.256201  0.066303537   0.10428879            2 
   34000    1.2279231    -2.598015    27.686835  0.067859889   0.10448867            1 
   35000    1.2197715    -2.584101    28.755305   0.06846501   0.10460388            2 
   36000    1.2273376    -2.569345    29.982312  0.069403499   0.10455611            1 
   37000    1.1939993   -2.5955549    31.377668  0.070670423   0.10465592            2 
   38000    1.2018507   -2.5704933     32.68938  0.071687236   0.10474258            1 
   39000    1.2269269   -2.5915025    33.812565  0.072249069   0.10490032            2 
   40000    1.1939483   -2.5867619    35.115221  0.073156709   0.10497299            2 
   41000    1.1832426   -2.5635559    36.228147  0.073634444   0.10500124            2 
   42000    1.1578216   -2.6067252    37.473861  0.074352897   0.10498814            1 
   43000    1.1768309   -2.5827761    38.580761  0.074768915   0.10488709            1 
   44000    1.1844745   -2.5677846    39.493871  0.074798997   0.10468502            2 
   45000    1.2025151   -2.6138208    40.577176  0.075142917   0.10444817            1 
   46000    1.1732796   -2.5951548    41.536572  0.075247412   0.10416859            1 
   47000    1.1729345     -2.63822    42.349533  0.075087824   0.10376978            2 
   48000    1.2041936   -2.5931541    43.494463  0.075511219   0.10333587            1 
   49000    1.1782802   -2.6095788    44.579647  0.075815726   0.10297298            3 
   50000    1.1764469   -2.6107549    45.758829  0.076264714   0.10259665            2 
   51000    1.2055486   -2.5963882    47.071039  0.076913461   0.10223469            1 
   52000    1.1760168   -2.6039421    48.120072  0.077115499   0.10191125            2 
   53000     1.193168   -2.6055077    49.453735  0.077757444   0.10161383            2 
   54000    1.1896773   -2.6216465    50.777332  0.078360079   0.10138439            2 
   55000    1.1801987   -2.6482834    51.791279  0.078471634   0.10123044            2 
   56000    1.1806198   -2.6030784    52.949011   0.07879317   0.10103656            1 
   57000    1.1939724   -2.6033672    54.182101  0.079213597   0.10083277            2 
   58000    1.1887084   -2.6176001    55.241625   0.07937015   0.10064932            1 
   59000    1.1798178   -2.6153788    56.582841  0.079919266   0.10052317            1 
   60000    1.1740118   -2.6286833    58.190151  0.080819653   0.10043359            1 
   61000    1.1869658   -2.6439149    58.935864  0.080513474   0.10034716            2 
   62000    1.1603312   -2.6356958    60.183353  0.080891602   0.10025208            4 
   63000    1.1668073   -2.6487612    61.605117  0.081488249   0.10017773            6 
   64000    1.1658725   -2.6180163     62.50521  0.081386991   0.10008749            1 
   65000    1.1692605   -2.6361788    63.306051  0.081161603  0.099974644            1 
   66000    1.1644134   -2.6467754     64.50135  0.081441097  0.099821551            1 
   67000    1.1603932   -2.6467003    65.489338    0.0814544   0.09966781            2 
   68000    1.1366246   -2.6294407    66.608573  0.081628153  0.099524963            2 
   69000    1.1733152   -2.6338319    67.373977  0.081369537  0.099360595            2 
   70000    1.1428655    -2.661629    68.576217  0.081638353  0.099192984            2 
   71000     1.162005   -2.6030542     69.14888  0.081160657  0.098979974            2 
   72000    1.1634361   -2.6448331    69.933695  0.080941775  0.098718247            2 
   73000    1.1578194   -2.6522406    71.033396  0.081088351  0.098435671            2 
   74000    1.1580337   -2.6440976    72.240576     0.081352  0.098197214            1 
   75000    1.1704153   -2.6333779    73.216712  0.081351902   0.09797638            2 
   76000    1.1423028   -2.6731905    74.812202  0.082030923  0.097763771            1 
   77000    1.1590084   -2.6382641    75.506821  0.081717339  0.097579665            1 
   78000    1.1579421   -2.6459485     76.66911  0.081911442  0.097395499            1 
   79000    1.1413468   -2.6641718     77.79057  0.082057563  0.097201701            2 
   80000    1.1498379   -2.6717097     78.21327  0.081472155  0.097015953            2 
   81000    1.1559415    -2.679527    79.735518  0.082032426  0.096823845            2 
   82000    1.1156962   -2.6910823    81.009559  0.082326787  0.096633224            1 
   83000    1.1236475   -2.6852836    82.151813  0.082481739   0.09646701            2 
   84000    1.1311108   -2.6752226    83.241385  0.082580738  0.096318229            2 
   85000    1.1344249   -2.6794193    84.077654  0.082429073  0.096169613            2 
   86000    1.1361052   -2.6777709    85.122937  0.082483466  0.096000672            2 
   87000    1.1398755   -2.6527714    86.251737  0.082616606  0.095848281            1 
   88000    1.1398653   -2.6860374    87.340067  0.082708396  0.095708723            1 
   89000    1.1043802   -2.6858473    88.255275  0.082636025  0.095583276            2 
   90000    1.1505561   -2.6995572    89.263764  0.082651633  0.095446001            2 
   91000      1.11941   -2.6833239    90.850314  0.083196257  0.095321657            2 
   92000    1.1368428   -2.6960044    91.916212  0.083257438  0.095202384            2 
   93000    1.0984902   -2.6861675     92.37184  0.082770465  0.095081657            2 
   94000    1.1247013   -2.6943991    93.257721  0.082675284  0.094938256            2 
   95000    1.1145094   -2.6946733    94.561459  0.082948648  0.094785807            3 
   96000    1.1125606   -2.6841739    95.000869  0.082466031  0.094625752            1 
   97000    1.1369755   -2.7226353    95.672317  0.082192712  0.094475052            2 
   98000    1.0949282   -2.6861027    97.084818  0.082555117  0.094326562            2 
   99000    1.0816371   -2.7023568    98.280083  0.082727342  0.094184278            1 
  100000    1.1021366   -2.6852267    99.393798  0.082828165  0.094046033            2 
  101000    1.1225195   -2.6882151    100.55089  0.082962784  0.093913111            2 
  102000    1.0812346   -2.6883701     101.0842  0.082585131  0.093787259            2 
  103000    1.1175186   -2.7271061     102.0904  0.082597412  0.093648864            2 
  104000    1.0962342   -2.7089314    102.58973   0.08220331  0.093499999            2 
  105000    1.0820758   -2.7206457    104.25911  0.082745323  0.093347941            2 
  106000    1.1187531   -2.7093613     104.4751  0.082134515  0.093193179            2 
  107000    1.0865529   -2.7011772    105.38774  0.082077681  0.093023283            2 
  108000    1.0923397   -2.6987613    106.11677  0.081880225  0.092851622            2 
  109000    1.0944227   -2.7039269    107.72038  0.082355032  0.092694108            3 
  110000    1.1095264   -2.7410659    108.59799  0.082271208  0.092545135            2 
  111000    1.0749415    -2.722401    109.64028  0.082312525  0.092386937            1 
  112000    1.0717277   -2.7348589    110.06198  0.081891351  0.092217336            2 
  113000     1.117811   -2.7271088    110.76671  0.081686366  0.092051323            1 
  114000    1.0836336   -2.7300565    112.15045  0.081981325  0.091895837            2 
  115000     1.102198   -2.7291161    113.51157  0.082254758  0.091741687            2 
  116000    1.1003898   -2.7432639    114.66273  0.082372654  0.091600833            3 
  117000    1.0592691   -2.7220584    116.05835  0.082662643  0.091478925            1 
  118000     1.086717   -2.7427471     116.4881  0.082265607  0.091354916            2 
  119000    1.0843366   -2.7250673    116.97935  0.081918313  0.091220209            3 
  120000     1.099892    -2.731832    118.38359  0.082210824  0.091080038            3 
  121000    1.0579143   -2.7408399     118.7984  0.081817076  0.090949423            1 
  122000    1.0582626   -2.7310868    120.30709  0.082176976  0.090822335            4 
  123000    1.0643575   -2.7586593    122.26562  0.082835783  0.090705159            1 
  124000    1.0902078   -2.7299938    122.55854  0.082364607  0.090595885            2 
  125000    1.0561634   -2.7528266      123.491  0.082327331  0.090494035            1 
  126000    1.0570893   -2.7450162    124.69907  0.082472933  0.090387162            4 
  127000    1.0887564   -2.7514889    126.27574  0.082858094  0.090293175            1 
  128000    1.0606003   -2.7432359     126.5934   0.08241758  0.090191979            3 
  129000    1.0651556    -2.748444    126.98943  0.082034515  0.090071983            1 
  130000    1.0352315   -2.7879928    126.75794   0.08125509  0.089938413            1 
  131000    1.0644536   -2.7431294    128.17337  0.081535222  0.089786727            4 
  132000    1.0393176   -2.7640527    129.34488   0.08165712  0.089639354            5 
  133000    1.0735669   -2.7756759    129.85491  0.081362722  0.089496902            2 
  134000    1.0515725   -2.7643039    130.77487  0.081327656  0.089366447            2 
  135000    1.0328125   -2.7502953    131.93742   0.08144285  0.089233529            2 
  136000    1.0225537   -2.7644149    132.54079  0.081213718  0.089102454            2 
  137000    1.0420499   -2.7612274    133.55626  0.081238602  0.088972779            3 
  138000     1.043402   -2.7847367    134.57798  0.081266896   0.08884566            4 
  139000    1.0473129   -2.7767851    135.42997  0.081193028   0.08871931            2 
  140000    1.0215649   -2.7744348    136.83198  0.081447604  0.088597772            3 
  141000    1.0526985   -2.7930051    136.99796  0.080968062  0.088481757            3 
  142000    1.0351922   -2.7756852    139.14218  0.081656207  0.088366092            2 
  143000    1.0117336   -2.7731553    139.36003   0.08121214  0.088248839            4 
  144000    1.0412108   -2.7678728    139.85941  0.080937157  0.088122323            1 
  145000    1.0494183    -2.806675    140.51644  0.080756574  0.087994041            2 
  146000    1.0437667   -2.7560117    141.60376  0.080824061    0.0878657            3 
  147000    1.0105284   -2.7953504    142.02654  0.080513909  0.087733855            4 
  148000    1.0567875   -2.7793918    142.91433  0.080469781  0.087600534            3 
  149000    1.0281774   -2.7910041    144.46088  0.080794676  0.087465149            4 
  150000     1.023322   -2.7730908    145.49623  0.080831236   0.08733537            4 
  151000    1.0178514   -2.7995615    145.44314  0.080266632  0.087203433            2 
  152000    1.0206902   -2.8007544    146.42837  0.080278713  0.087067293            3 
  153000    1.0294623   -2.8034646    147.79147  0.080496443  0.086940324            3 
  154000    1.0394727   -2.8101837    147.55953  0.079848228  0.086814017            2 
  155000    1.0362155   -2.7957793    149.09725   0.08015981   0.08668632            1 
  156000    1.0194828    -2.816492    150.41618  0.080350525  0.086557985            1 
  157000    1.0152419   -2.8050099    151.01504  0.080156603  0.086425479            4 
  158000    1.0168169   -2.8228896    151.12061  0.079704965  0.086293164            3 
  159000    1.0129888   -2.8090081    152.64474  0.080002482  0.086172593            2 
  160000   0.99341987   -2.8362688     153.8347  0.080122237   0.08605258            2 
  161000     1.013826   -2.8379728    154.00789  0.079714229  0.085934447            2 
  162000    1.0105467   -2.8326176    155.85897  0.080174369  0.085811147            2 
  163000     1.041555   -2.8183018    155.86685   0.07968653  0.085693245            2 
  164000    1.0208913   -2.8282041    156.30809  0.079424844  0.085571313            3 
  165000    1.0189523   -2.8074801    157.12686     0.079357   0.08544928            2 
  166000   0.98432114    -2.814801    158.54359  0.079590153  0.085328223            2 
  167000   0.97504814   -2.8272355    158.81021  0.079246609  0.085204423            3 
  168000   0.98904018   -2.8138896    160.07485  0.079402206  0.085078915            2 
  169000    1.0023188   -2.8397415    159.63643   0.07871619  0.084955508            2 
  170000    0.9856018   -2.8112639    160.39845  0.078626692  0.084824468            7 
  171000    1.0014642   -2.8230804    160.78382  0.078354687   0.08469121            5 
  172000   0.97761775    -2.833208    162.56618  0.078762685  0.084551382            4 
  173000   0.99129158   -2.8307423      163.234  0.078629095  0.084417855            2 
  174000    1.0206098   -2.8186526     164.6046   0.07883362  0.084284719            3 
  175000   0.99069398   -2.8253807    164.77666  0.078465074  0.084148379            4 
  176000   0.98147058   -2.8116467    166.09477  0.078643358  0.084014049            2 
  177000   0.98710366   -2.8454316    166.48569  0.078383091  0.083882634            1 
  178000   0.99657807   -2.8406078    166.91189   0.07814227  0.083743831            2 
  179000   0.98432877   -2.8400218    167.79029   0.07811466  0.083607935            4 
  180000   0.97559533   -2.8392922    168.26575  0.077900811  0.083472764            2 
  181000     1.002184   -2.8454975    169.62712  0.078097202  0.083337225            3 
  182000   0.97665292   -2.8674251     169.9447  0.077813509  0.083210746            2 
  183000   0.96751479   -2.8583191    170.13284   0.07747397  0.083078467            2 
  184000   0.97778568   -2.8698779    171.35928  0.077608368  0.082945109            2 
  185000   0.97130352   -2.8455712    172.38676  0.077651692  0.082810599            3 
  186000   0.96873906    -2.857974    173.11163  0.077558973  0.082675904            2 
  187000   0.97774572   -2.8801865    172.54461  0.076891536  0.082537381            2 
  188000   0.95490366   -2.8661351     173.4456  0.076881914  0.082395226            5 
  189000   0.96423884    -2.864447    174.53974  0.076957559  0.082249621            2 
  190000   0.95201755     -2.88363    174.64015  0.076596559  0.082107102            2 
  191000   0.97047773   -2.8737278    175.19539  0.076437777  0.081962877            2 
  192000   0.96934294    -2.879811    176.16089  0.076458721  0.081820587            3 
  193000   0.97025445   -2.8393938    177.13699   0.07648402   0.08168286            2 
  194000   0.95162746   -2.8889002    177.56405  0.076273218  0.081538618            2 
  195000   0.97832064   -2.8953486    177.68004  0.075931639  0.081392285            2 
  196000   0.95086995   -2.8745165    178.43552   0.07586544  0.081245665            1 
  197000   0.95707481    -2.900126    179.96717  0.076128243  0.081098723            2 
  198000   0.96901644   -2.8611956    180.08199  0.075792083  0.080951947            2 
  199000   0.94637617   -2.9166743    179.60293  0.075210607  0.080801738            6 
  200000   0.93872883   -2.8856648    181.25515  0.075522977  0.080652203            2 
  201000   0.93174086   -2.9268694    181.95833  0.075438776  0.080508228            4 
  202000   0.96051247   -2.9049998    183.12147  0.075545161  0.080365219            2 
  203000   0.93426904   -2.8944387    184.52266  0.075748217  0.080227308            2 
  204000   0.93395332    -2.902446    183.94247  0.075139898   0.08008726            1 
  205000   0.93428768   -2.9113913    184.94321  0.075180166  0.079944894            2 
  206000    0.9185483   -2.9033956    186.07323  0.075272343  0.079800918            5 
  207000   0.94600315   -2.9132539    184.59587  0.074313956  0.079650593            4 
  208000   0.93181445   -2.9131034    185.77971  0.074430973  0.079497939            3 
  209000    0.9285283   -2.9029225    186.42786  0.074333279  0.079345169            4 
  210000   0.93133085   -2.9274604    186.69919  0.074086979   0.07919117            4 
  211000   0.94872535    -2.903921    187.35241  0.073993842  0.079040717            2 
  212000   0.94792993   -2.9026543    187.57572  0.073732595  0.078883797            2 
  213000   0.92616033   -2.9408825    188.16963   0.07361879  0.078729874            2 
  214000   0.93779482   -2.9376167    189.50746  0.073795741  0.078579635            2 
  215000   0.93058394   -2.9181595    190.32206   0.07376824  0.078429814            2 
  216000   0.92343462    -2.906831    191.27486  0.073794314  0.078288351            4 
  217000   0.91552014   -2.9086748    191.61572  0.073585144  0.078142657            2 
  218000     0.926228   -2.9223379    193.06637   0.07380213   0.07799618            3 
  219000   0.91486805   -2.9322449    193.45495  0.073612996  0.077855302            1 
  220000   0.92649694   -2.9208434    194.30059  0.073598708  0.077715497            1 
  221000   0.91282962   -2.9119417     194.3753  0.073293852  0.077579811            2 
  222000   0.91905995   -2.9467736    195.89177  0.073532945   0.07744334            2 
  223000   0.91952078   -2.9363488    196.29952  0.073355574   0.07730655            2 
  224000   0.92794537   -2.9329311     196.7883  0.073209933  0.077172416            4 
  225000   0.91060703    -2.938007    196.97069  0.072952106  0.077037859            2 
  226000   0.90541376   -2.9535461    197.57047  0.072850469  0.076899381            3 
  227000    0.9025232   -2.9374795     198.3014   0.07279787  0.076763592            1 
  228000   0.90227779   -2.9635197    199.38249  0.072873718   0.07662748            2 
  229000   0.90861385   -2.9587639    198.61895  0.072277639  0.076490022            7 
  230000   0.87112021   -2.9554343    199.58336   0.07231281  0.076350405            5 
  231000    0.8882576   -2.9461215    200.07184  0.072175989  0.076210412            4 
  232000   0.88749213    -2.971581    200.72484  0.072099439  0.076073029            2 
  233000   0.88776681   -2.9736539    201.02936  0.071898911  0.075933882            2 
  234000   0.89175509   -2.9769247    201.74525  0.071846598  0.075794855            5 
  235000   0.89277405   -2.9442141    202.24187  0.071716976  0.075658243            4 
  236000   0.89190445   -2.9829508    203.38297  0.071816022  0.075519825            2 
  237000   0.88679611   -2.9311626    203.87576  0.071686272  0.075379508            2 
  238000   0.89676777   -2.9781185    204.73152  0.071684706  0.075245863            3 
  239000   0.87537518   -2.9721789    205.03518  0.071490649  0.075110768            4 
  240000    0.8962248   -2.9802814    204.32323  0.070945564  0.074974815            9 
  241000    0.8993271   -2.9791296    205.70774  0.071129925  0.074838123            4 
  242000   0.88873094   -2.9783981    206.51086  0.071112556  0.074699902            5 
  243000   0.87945631   -2.9907131    205.93556  0.070622619  0.074560576            2 
  244000   0.88294183   -2.9758337    207.14937  0.070747737  0.074419646            3 
  245000   0.87817748   -2.9774228    208.20973  0.070819635  0.074279311            3 
  246000   0.87650334   -2.9995132    208.28138  0.070556023  0.074141886            4 
  247000    0.8779798   -2.9660151    208.89595  0.070477717  0.074005548            3 
  248000    0.8747047   -2.9977034    209.01448  0.070233359  0.073869968            2 
  249000    0.8609878   -2.9992442    209.63806  0.070159993  0.073733476            4 
  250000   0.85824565   -2.9925833    211.34484  0.070448279  0.073598103            4 
  251000   0.88313971    -3.009138    210.71504  0.069958511  0.073463211            4 
  252000   0.88652906   -2.9932814    211.71796  0.070012551  0.073326981            4 
  253000   0.87087525    -2.996516    212.48114    0.0699872  0.073193443            5 
  254000   0.85938126   -2.9961917    213.19644  0.069946338  0.073062382            2 
  255000   0.86385745   -2.9971489    213.62114  0.069810828  0.072928856            3 
  256000   0.87091297   -3.0335221    214.22554  0.069734877  0.072798504            3 
  257000   0.87304105   -3.0123205    213.67318  0.069284428  0.072664716            3 
  258000   0.84985151     -3.02497    213.97413   0.06911309  0.072529809            3 
  259000   0.84942427   -3.0091235    214.40981  0.068986426  0.072394259            5 
  260000   0.86936887   -3.0139533     215.0495  0.068926121   0.07225249            3 
  261000   0.86819864   -3.0260334    215.14855  0.068693664  0.072110407            3 
  262000   0.85080912   -3.0110792    214.94103  0.068365466  0.071968837            3 
  263000   0.84089924   -3.0354907    215.56914  0.068304544  0.071828284           10 
  264000   0.86281829   -3.0359803    215.82317  0.068126001  0.071688104            5 
  265000   0.84627423    -3.044527    216.63311  0.068123618  0.071548118            6 
  266000   0.85850345   -3.0146109      217.899  0.068264098  0.071407974            8 
  267000   0.83293475   -3.0094047    218.20732  0.068104658  0.071269845            2 
  268000   0.84074867   -3.0443446    218.50835  0.067944139  0.071132915            4 
  269000   0.83206723   -3.0530994    218.14911  0.067580271   0.07099509            6 
  270000   0.84335398   -3.0396217    220.29831  0.067993306   0.07085847            2 
  271000   0.82698489   -3.0290365     220.1808  0.067706272  0.070723643            3 
  272000   0.84320796   -3.0298986    220.96914  0.067698879  0.070590172            2 
  273000   0.84052085   -3.0450517    220.68164  0.067363138  0.070455267            3 
  274000   0.83395668   -3.0491593    221.03595  0.067225045  0.070321599            4 
  275000   0.82328284   -3.0534194    221.94519  0.067256118  0.070187932            2 
  276000   0.82526644   -3.0954865    221.46863  0.066868549  0.070054276            4 
  277000   0.82012524   -3.0677317    222.41583  0.066912103  0.069919629            4 
  278000   0.82007826   -3.0406926    223.73814  0.067067789   0.06978483            2 
  279000   0.85361051   -3.0580249    223.50452  0.066757622  0.069652157            2 
  280000   0.80737763   -3.0345199    224.60103  0.066845546  0.069521629            2 
  281000   0.80470017    -3.040646     224.8762  0.066689264  0.069393317            5 
  282000   0.80444462    -3.070979     226.1026  0.066815189  0.069265067            5 
  283000   0.80777841    -3.082697    226.86396  0.066803287  0.069136862            4 
  284000   0.80270369   -3.0696859    227.42745  0.066733407    0.0690132            3 
  285000   0.80578797   -3.0771235    228.20603  0.066726909  0.068890768            5 
  286000   0.81155675   -3.0900769    228.20322   0.06649278  0.068766891            4 
  287000   0.81458928   -3.0622152    227.52522  0.066064234  0.068642969            8 
  288000   0.81672778   -3.0838209    228.09242  0.065998963   0.06851729            3 
  289000   0.81668338   -3.1058852    228.87071  0.065995015  0.068389782            1 
  290000   0.79909837   -3.1126802    229.12506  0.065840535  0.068262805            3 
  291000   0.79368572   -3.0656601    229.10244  0.065607801  0.068133145            7 
  292000    0.8004001   -3.0910455    230.26226  0.065714116  0.068003655            4 
  293000   0.81567933   -3.0970853    230.42911   0.06553729  0.067875278            3 
  294000   0.81414491   -3.0938219    229.98777  0.065189277  0.067745898            4 
  295000   0.80249625   -3.0906203    230.28021  0.065050908  0.067614481            3 
  296000   0.81078111   -3.1116173    230.45999  0.064881753  0.067484665            2 
  297000   0.79068738    -3.107867    230.91126  0.064789915  0.067354954            2 
  298000   0.77954716   -3.1125625    232.52987   0.06502513  0.067225668            6 
  299000   0.79871851   -3.1193708    231.97226  0.064652245  0.067098071            4 
  300000   0.78113789   -3.0907135    232.60862  0.064613506  0.066972141            3 
  301000   0.78109209   -3.1172909    233.18249  0.064557721  0.066846233            4 
  302000   0.77797365   -3.1055622    234.03019  0.064577867  0.066719993            4 
  303000   0.80108303   -3.1087307    234.02322  0.064362822  0.066594791            4 
  304000   0.78831333   -3.1073916    235.12337  0.064452679  0.066470135            6 
  305000    0.7927258   -3.1377761    234.70978  0.064128356  0.066346886            7 
  306000    0.7870717   -3.1263317    234.57923  0.063883234  0.066218936            6 
  307000   0.78054935   -3.1313313    235.17753  0.063837548  0.066091472            3 
  308000    0.7695034   -3.1409133    235.54034  0.063728447  0.065964131           11 
  309000   0.76980172   -3.1532613    235.87535  0.063612554  0.065835224            3 
  310000   0.76934674   -3.1375864    235.65414  0.063347887  0.065708681            4 
  311000   0.77066332    -3.149687     237.3405  0.063596062  0.065581509            3 
  312000   0.76325438   -3.1459066    238.05573  0.063583261  0.065455168            4 
  313000      0.76578   -3.1231728    237.80049  0.063312165  0.065330452            5 
  314000   0.77223467   -3.1490868    238.18522  0.063212638  0.065206371            6 
  315000   0.75703561   -3.1525466    238.31492  0.063046276  0.065083194            4 
  316000   0.76372587   -3.1295856    240.17926  0.063338412  0.064959161            6 
  317000   0.75839247   -3.1444044    238.87016  0.062794468  0.064835301            6 
  318000    0.7566123   -3.1481962    239.48502  0.062758129    0.0647097            5 
  319000   0.76410367   -3.1429508    239.88835  0.062666757  0.064584124            4 
  320000     0.763441    -3.153325     239.7727  0.062440807  0.064458715            6 
  321000   0.75212318   -3.1740875    239.78361  0.062249121  0.064331961            5 
  322000   0.74878574   -3.1356373     240.5026  0.062241875  0.064205774            6 
  323000   0.76048214    -3.137607     241.9374   0.06241935  0.064079971            6 
  324000   0.75342266   -3.1833479    241.16866  0.062028976  0.063955943            3 
  325000    0.7444034   -3.1605886    242.15665  0.062091449  0.063831467            5 
  326000   0.76875864    -3.182446    242.25441  0.061925975  0.063708745            7 
  327000   0.75350013   -3.1835879    243.25322  0.061991137  0.063586423            5 
  328000   0.74301894   -3.1630807    242.59003  0.061633645  0.063465157            6 
  329000   0.73874605   -3.1835364    243.71354  0.061730887  0.063345393            2 
  330000   0.75026589   -3.1454717    244.97513  0.061862406  0.063229393            5 
  331000   0.74920258   -3.1735997    245.11934  0.061711817  0.063113258            6 
  332000   0.74624862   -3.1698086    246.50832  0.061874578  0.062998566            4 
  333000   0.74340151   -3.1716266    245.53492  0.061445175  0.062883014            3 
  334000   0.73128362   -3.1843771    245.40292  0.061228272  0.062767676            9 
  335000   0.73449761   -3.1968601    246.11872  0.061223561  0.062651034            2 
  336000   0.73110499   -3.1861326    247.32663  0.061340931  0.062534649            3 
  337000   0.72215253   -3.1849843    247.43309  0.061185234  0.062418611            3 
  338000   0.72101139   -3.1761101    247.96197  0.061134607  0.062302651            5 
  339000   0.73571689   -3.2078227    246.42065  0.060575382  0.062185735            7 
  340000   0.72980406   -3.2216661     248.2167  0.060837427  0.062068808            4 
  341000   0.72674026   -3.2016699    247.88386  0.060577678  0.061951929            4 
  342000    0.7215331   -3.2001574    248.16425  0.060468873  0.061836065            4 
  343000   0.72955017   -3.1912357    249.17213  0.060537446   0.06172174            5 
  344000   0.71077422   -3.2075083    249.57958   0.06046017  0.061607425            4 
  345000   0.72069465   -3.2249111    249.95805   0.06037634  0.061493282            4 
  346000   0.70858632    -3.184994    249.95205  0.060200397  0.061377678            5 
  347000   0.71220391   -3.2134834    249.59808  0.059941901  0.061262233            4 
  348000   0.71748555   -3.2191337    249.61395  0.059773455  0.061144685           12 
  349000   0.69944355    -3.215333     250.5656  0.059829418  0.061026964            3 
  350000    0.7064424   -3.2428676     249.8066  0.059477761  0.060908149            5 
  351000   0.71106654   -3.2416544    249.71746  0.059287147  0.060790691            4 
  352000   0.70647231    -3.244081    250.76524  0.059366771  0.060674042            5 
  353000   0.70912999   -3.2456418     249.5485  0.058911355   0.06055394            4 
  354000   0.67248578   -3.2233407    250.60922  0.058994638  0.060433917            4 
  355000   0.69556175   -3.2516197    250.81074  0.058875761  0.060313796            7 
  356000    0.6993969   -3.2243258    249.99619  0.058519708  0.060192247            5 
  357000   0.69973511   -3.2590428    251.53171  0.058714219   0.06007123            4 
  358000   0.69454728   -3.2455122    251.56119  0.058557073  0.059950138            6 
  359000   0.69683627   -3.2449753     252.0504   0.05850752  0.059828405            7 
  360000   0.69518887   -3.2389289    251.63169  0.058248076  0.059708208            5 
  361000   0.69650287   -3.2520493     251.8678  0.058141229   0.05958625            6 
  362000    0.6859316   -3.2821764    252.35855  0.058093589  0.059465523            6 
  363000   0.68914158   -3.2694731    252.90512  0.058059027  0.059346138            3 
  364000   0.69553527   -3.2859833    253.73332   0.05808913  0.059228127            8 
  365000   0.70118188   -3.2570929     253.4459  0.057864362  0.059110357            4 
  366000   0.66523903   -3.2544084     253.7593  0.057777617  0.058993329            6 
  367000   0.68170701   -3.2779258    254.50436  0.057789365  0.058876456            6 
  368000   0.68370446   -3.2712715     254.1387  0.057549525  0.058759066            9 
  369000   0.69204131   -3.3002117    253.98678  0.057359255  0.058641319            4 
  370000   0.68493669   -3.2651939    255.51179  0.057547701  0.058524175            5 
  371000   0.66615318   -3.2766957    255.15718  0.057312934  0.058407983            7 
  372000   0.68525645   -3.2845897     255.3674   0.05720596  0.058292585            9 
  373000   0.67647628   -3.2854609    255.66093  0.057118171  0.058176202            3 
  374000   0.67107851   -3.3169261    255.68281  0.056970322  0.058059972            3 
  375000   0.67359885    -3.277625    256.67641  0.057039202  0.057943311            9 
  376000   0.67543577   -3.2738148    256.40739  0.056827879  0.057827235            5 
  377000   0.66976527   -3.2918287    257.05264  0.056819769  0.057711584           11 
  378000   0.65212534   -3.3165994    256.76795  0.056606691  0.057595544            5 
  379000   0.65281813   -3.2866335    256.79253  0.056462738   0.05747941           15 
  380000   0.66602649    -3.318142    257.71556  0.056516571  0.057364477            8 
  381000   0.66251709   -3.3092269    258.22993  0.056480737  0.057250387            7 
  382000   0.66501537   -3.3000911     258.7906  0.056455192  0.057135198            4 
  383000   0.64112476   -3.3179718    258.46116   0.05623611  0.057020581            6 
  384000   0.66442266   -3.3164048    258.14783  0.056021664   0.05690586            9 
  385000   0.65999439   -3.3191378    257.73931   0.05578773  0.056791188           10 
  386000   0.65817822   -3.3359756    258.38896  0.055783453   0.05667617            9 
  387000   0.64080757   -3.3132341    258.83746  0.055735887  0.056561326           11 
  388000   0.63806314   -3.3222847    258.90464  0.055606666  0.056446175            9 
  389000    0.6324473    -3.325558    259.19893  0.055526763  0.056332768            4 
  390000   0.65693726   -3.3221842    258.47991   0.05523075  0.056218849            5 
  391000   0.64448403   -3.3178926    260.08521   0.05543163  0.056106169            7 
  392000   0.62920574   -3.3346447    259.92356  0.055255858  0.055993511            7 
  393000   0.63817372   -3.3451376    259.95976  0.055122935   0.05588081            6 
  394000   0.63338712   -3.3326846    260.50938  0.055099277  0.055768239            8 
  395000   0.63326921   -3.3293896     260.9272  0.055047932  0.055656226            7 
  396000   0.63270754   -3.3495243    260.97945  0.054919918  0.055544582            4 
  397000   0.63660072   -3.3422834    261.74473  0.054942219  0.055432922           11 
  398000   0.61196694   -3.3362576    261.21123  0.054692469  0.055321162            5 
  399000   0.63489486   -3.3471313    261.44146  0.054603478  0.055210354           17 
  400000    0.6432187   -3.3542657    261.57923  0.054495673  0.055099197            6 
  401000   0.63345312    -3.352898    262.20986  0.054490826  0.054988411            4 
  402000   0.62253028   -3.3651446    262.46421  0.054408004  0.054877411            8 
  403000   0.62579683   -3.3592377    262.72546  0.054327019  0.054767401            5 
  404000   0.61157198   -3.3657505    261.98969  0.054040777  0.054655927            5 
  405000   0.62234167   -3.3755426    261.58362   0.05382379  0.054544916            5 
  406000   0.62146668   -3.3535507    261.71666  0.053718527  0.054433019           11 
  407000   0.63678602   -3.3618797    262.20932  0.053687413  0.054320712           10 
  408000   0.61207431   -3.3815191     262.2941  0.053573141  0.054207981            5 
  409000   0.60731888   -3.3900406    262.48658  0.053481374  0.054095295           15 
  410000   0.60776119   -3.3825883    262.57592  0.053369089  0.053982494            6 
  411000   0.61597862   -3.3774957    263.01893  0.053329062  0.053870017            6 
  412000   0.61358593   -3.3792374    263.09568  0.053215145  0.053758485            5 
  413000   0.61738773   -3.3808058    262.72008  0.053010509     0.053647            8 
  414000   0.61881393   -3.3731091     263.0955  0.052958031  0.053535427            7 
  415000   0.60540725    -3.395138    264.25345  0.053062941   0.05342461           18 
  416000   0.60694852   -3.3984116    263.69844  0.052824206  0.053314206            6 
  417000   0.60537332   -3.4051361     263.5946  0.052676778  0.053203394            8 
  418000   0.59996523   -3.4071763    264.70537  0.052772203    0.0530928           12 
  419000   0.60250223   -3.4062335    263.99242  0.052504459   0.05298236            6 
  420000   0.59986641   -3.4043889    264.81611  0.052542879   0.05287232            6 
  421000   0.60387274   -3.4184034     264.9011  0.052434898  0.052761971            6 
  422000   0.60134795   -3.4212971    264.03023  0.052138671  0.052652202           30 
  423000    0.5990151   -3.4261768    263.82338  0.051974662  0.052542542            9 
  424000   0.58763029    -3.417565    264.67975  0.052020391  0.052431691           12 
  425000   0.57535014   -3.4103637    265.14009  0.051988252  0.052321637           13 
  426000   0.56414738   -3.4240462    264.78749   0.05179724   0.05221109            4 
  427000   0.58416663   -3.4180382    264.08951  0.051539717  0.052100601           10 
  428000   0.57666777   -3.4275268    264.65808      0.05153  0.051989446           17 
  429000   0.57580238   -3.4299177     265.2862  0.051531895  0.051878333           14 
  430000   0.58238384   -3.4306796    264.84874  0.051327276  0.051767581           26 
  431000   0.56766982   -3.4201558    265.39638  0.051314072   0.05165635            7 
  432000    0.5733672   -3.4430816      265.344  0.051185185  0.051545932           17 
  433000   0.57317553   -3.4539926    265.39101  0.051076022  0.051434786            5 
  434000   0.56662887   -3.4356751    264.85784   0.05085596  0.051323348            4 
  435000   0.58972261   -3.4465607    265.43493  0.050849603  0.051212224           16 
  436000     0.578836   -3.4696839    265.42055  0.050730227  0.051101208           16 
  437000   0.56958107   -3.4613693    265.57099  0.050642829  0.050990348            5 
  438000   0.57279674   -3.4401366    265.51369  0.050516303  0.050880117            6 
  439000    0.5695909   -3.4545271    265.48381   0.05039556  0.050769627           18 
  440000   0.55555783     -3.45319    265.13434  0.050214837  0.050658468           12 
  441000   0.56472172   -3.4413637    265.57595   0.05018442  0.050548059            4 
  442000   0.56334198    -3.464573    265.69995   0.05009426  0.050437252           10 
  443000   0.57067421   -3.4863902    265.38538  0.049922006  0.050327218           13 
  444000    0.5600339   -3.4739236    265.66074  0.049861249  0.050216996           17 
  445000   0.55214629   -3.4740005    266.37401  0.049882773   0.05010792           10 
  446000   0.55296123   -3.4680646    266.23146  0.049744294  0.049998774           11 
  447000   0.55176763   -3.4914992    265.59262  0.049513912   0.04988958           15 
  448000   0.54358384   -3.5042554    265.74825  0.049432338  0.049779899           13 
  449000   0.55628565   -3.5037898    265.53402  0.049282483  0.049669775           10 
  450000   0.55170726     -3.48019     266.3676  0.049327334  0.049560143           14 
  451000   0.55178132   -3.5019567    265.85348  0.049122963  0.049449797           11 
  452000   0.55276726   -3.4794286    266.59104  0.049150265   0.04934012           10 
  453000   0.55027947   -3.4892186    266.04865  0.048941988  0.049230265           15 
  454000   0.55206137   -3.5148492    266.12713  0.048848592  0.049120173           12 
  455000   0.54038212    -3.508436    265.57473  0.048640061  0.049010092           12 
  456000   0.53776939   -3.5165007    266.01035  0.048613003   0.04889978            7 
  457000   0.51763404   -3.4999797    266.37467  0.048573062  0.048790224           14 
  458000   0.53894312   -3.5239568    266.55328  0.048499504  0.048680855           14 
  459000   0.53591329   -3.5175548    266.16393  0.048323153  0.048571504            7 
  460000   0.52673818   -3.5134623    267.08615  0.048385173  0.048462688            7 
  461000   0.52510153   -3.5042763    267.17664  0.048296573  0.048355253            6 
  462000    0.5192725   -3.5148591    266.78739  0.048121824  0.048247458            8 
  463000   0.53029882   -3.5349815    267.69367  0.048181006  0.048140229           15 
  464000   0.51638344   -3.5282819    267.21988  0.047992076  0.048033614           17 
  465000   0.52774544    -3.540149    267.28724   0.04790094  0.047926725           26 
  466000    0.5255105   -3.5529402    268.18954  0.047959503  0.047819867           15 
  467000   0.51808842   -3.5501147    266.85712  0.047619043  0.047712029            8 
  468000   0.53278108   -3.5160447    267.19703  0.047577819  0.047604556            8 
  469000   0.51897263   -3.5476799    266.74819  0.047396623   0.04749752           12 
  470000   0.52125983   -3.5551224      267.232  0.047381559  0.047390719           17 
  471000   0.51916524   -3.5477418     267.1257  0.047262155  0.047283803           15 
  472000   0.52453459   -3.5651423    266.44078  0.047041098  0.047176463           12 
  473000   0.51278227   -3.5485226    267.23587  0.047081724  0.047068924           11 
  474000   0.51834414   -3.5740609    266.56944  0.046865233  0.046961439           11 
  475000   0.50784751   -3.5511559    267.24717  0.046885468   0.04685396            5 
  476000   0.51228811   -3.5592008    267.43853   0.04682047   0.04674715           15 
  477000   0.50942542   -3.5649561    267.06244  0.046656611  0.046640352            8 
  478000   0.49394689   -3.5575925    267.38058  0.046614466  0.046533208           37 
  479000   0.49755219   -3.5753569    266.94437  0.046441262  0.046426623           24 
  480000   0.51055559   -3.5917225    268.00529  0.046528697  0.046320015            7 
  481000   0.49723128   -3.5893041    267.43361   0.04633292  0.046214004           43 
  482000   0.49062204   -3.5671562    266.89847  0.046144272  0.046107441           22 
  483000   0.50223906   -3.5735671    266.36456  0.045956619  0.046001307           36 
  484000   0.50606201    -3.580618    267.37582  0.046035782  0.045894992           19 
  485000   0.48414318   -3.5747022    267.13321  0.045899176  0.045788802            7 
  486000   0.48945786   -3.5867477    267.00893  0.045783424  0.045683148           13 
  487000   0.50487357   -3.5878918    266.68871  0.045634618  0.045577063           18 
  488000    0.4827775   -3.5989348    267.00658  0.045595387   0.04547128           86 
  489000   0.50099358   -3.6121081    266.88774  0.045481892  0.045365338           12 
  490000   0.48018614    -3.593489      266.689  0.045355272  0.045259517           12 
  491000   0.48016243   -3.6114072    266.97641  0.045311678  0.045153687           11 
  492000   0.47271719   -3.5944422    266.77834  0.045186032   0.04504783           10 
  493000   0.48465818   -3.6056898     266.9774  0.045128026   0.04494261            8 
  494000   0.46904218   -3.6112182    266.54083  0.044963029  0.044837026           11 
  495000   0.48087299   -3.6223164     267.1336  0.044971987  0.044731461           15 
  496000   0.47442284   -3.6309451    266.35239  0.044750066  0.044626111            8 
  497000   0.46101156   -3.6211017    266.48451  0.044682178  0.044520883           13 
  498000   0.47312162   -3.6121987    266.46008  0.044588367  0.044415915            9 
  499000   0.47165214   -3.6191693    266.94353  0.044579748  0.044310676           21 
  500000   0.46274377   -3.6035766    267.11928  0.044519881  0.044205897           14 
  501000   0.46700231    -3.618732    266.84334   0.04438512  0.044101282            8 
  502000   0.46666536   -3.6456283    267.21506   0.04435841  0.043996809           28 
  503000   0.45747927   -3.6229854    266.78169  0.044198425  0.043892561           16 
  504000   0.46545051   -3.6277353    266.55594  0.044073402  0.043788639           13 
  505000   0.46551778   -3.6219241    266.73247  0.044015259  0.043684954            8 
  506000   0.45560729     -3.64227     266.4607  0.043883514  0.043581683           28 
  507000   0.46658678   -3.6426595    267.02771  0.043890156  0.043478544           24 
  508000   0.44965613   -3.6479532    266.44194  0.043707668  0.043375607           21 
  509000   0.46303756    -3.677212    266.20129  0.043582399  0.043272631           29 
  510000   0.45291504   -3.6627645    266.46891  0.043540672  0.043169715           13 
  511000   0.45473042   -3.6654553    266.41014  0.043445881  0.043066698           13 
  512000   0.45541825   -3.6578625    266.52466  0.043379665   0.04296431           16 
Loop time of 1200.32 on 48 procs for 500000 steps with 4000 atoms

Performance: 71980.621 tau/day, 416.555 timesteps/s
99.4% CPU use with 48 MPI tasks x no OpenMP threads

MPI task timing breakdown:
Section |  min time  |  avg time  |  max time  |%varavg| %total
---------------------------------------------------------------
Pair    | 79.087     | 83.781     | 88.591     |  27.4 |  6.98
Neigh   | 8.1449     | 8.4392     | 8.7437     |   5.9 |  0.70
Comm    | 77.693     | 82.735     | 87.874     |  29.3 |  6.89
Output  | 0.82944    | 0.82991    | 0.83901    |   0.1 |  0.07
Modify  | 1010.3     | 1013.7     | 1016.4     |   4.4 | 84.45
Other   |            | 10.88      |            |       |  0.91

Nlocal:        83.3333 ave          89 max          73 min
Histogram: 1 0 0 3 2 10 17 5 7 3
Nghost:        2183.77 ave        2202 max        2161 min
Histogram: 2 0 3 5 9 9 10 4 4 2
Neighs:        14502.6 ave       16055 max       12367 min
Histogram: 1 0 2 5 7 12 10 5 4 2
FullNghs:      29005.0 ave       31065 max       25364 min
Histogram: 1 0 1 2 4 11 12 8 6 3

Total # of neighbors = 1392240
Ave neighs/atom = 348.06000
Neighbor list builds = 27130
Dangerous builds = 0

#clear
#
#next RN
#
#jump SELF
Total wall time: 0:20:03
