
units lj                  # Use reduced LJ style units
atom_style atomic         # Uncharged point particles
atom_modify map hash      # Needed for indexing of clusters etc
                          # Used to be able to find where atoms are in relation to each other.

lattice fcc 1.0 spacing 1 1 1
Lattice spacing in x,y,z = 1.5874011 1.5874011 1.5874011
region box block 0 10 0 10 0 10 units lattice
create_box 2 box
Created orthogonal box = (0.0000000 0.0000000 0.0000000) to (15.874011 15.874011 15.874011)
  3 by 4 by 4 MPI processor grid
create_atoms 1 box
Created 4000 atoms
  using lattice units in orthogonal box = (0.0000000 0.0000000 0.0000000) to (15.874011 15.874011 15.874011)
  create_atoms CPU = 0.002 seconds
set type 1 type/fraction 2 0.65 78393
Setting atom values ...
  2613 settings made for type/fraction
mass 1 1.0
mass 2 1.0
pair_style lj/cut  3.5
pair_modify tail  yes
pair_coeff 1  1  1.0  1.0   # Intearaction between 1 and 1 set with epsilon = 1 and sigma = 1
pair_coeff 1  2  1.5  0.8
pair_coeff 2  2  0.5  0.88

write_data data.0
System init for write_data ...
Neighbor list info ...
  update every 1 steps, delay 10 steps, check yes
  max neighbors/atom: 2000, page size: 100000
  master list distance cutoff = 3.8
  ghost atom cutoff = 3.8
  binsize = 1.9, bins = 9 9 9
  1 neighbor lists, perpetual/occasional/extra = 1 0 0
  (1) pair lj/cut, perpetual
      attributes: half, newton on
      pair build: half/bin/atomonly/newton
      stencil: half/bin/3d
      bin: standard
WARNING: Not all mixed pair coeffs generated from mixing. Use write_data with 'pair ij' option to store all pair coeffs. (../write_data.cpp:312)


#############################
#   M E L T   S Y S T E M   #
#############################

velocity all create 2.4 8172548 mom yes dist gaussian # Assign velocities
                                                    # Temperature 2.4, random number seed, zero linear momentum
                                                                                # Gaussian distribution

timestep 0.002   # simulation timestep
thermo 1000       # output thermodynamic data every 1000 steps bf 100

# Define a fix  in this case with index 1 applied to all
# particles in the simulation. This fix is for simulations
# in the anisotropic NPT ensemble. Note that we use the MTK
# correction.
fix 1 all npt temp 2.4 2.4 0.1 iso 5.68 5.68 0.5 mtk yes tchain 5 pchain 5 # Use NPT ensemble
                                                                         # Set temperature and pressure and damping
                                                                         # Numbers of thermostats in chain and in barostat
run 10000          # run for 10000 steps
Per MPI rank memory allocation (min/avg/max) = 3.642 | 3.644 | 3.648 Mbytes
Step Temp E_pair E_mol TotEng Press Volume 
       0          2.4   -4.4517567            0  -0.85265669   -3.9326408         4000 
    1000    2.4196289   -4.1010989            0  -0.47256292    5.7920201    3645.3022 
    2000    2.4085077   -4.1466893            0  -0.53483086    5.3666587    3657.2638 
    3000     2.405367   -4.1242119            0  -0.51706349    5.5133936    3656.9607 
    4000    2.3921203   -4.1019629            0  -0.51467953    6.0230843    3619.3779 
    5000    2.4316178   -4.1715906            0  -0.52507574     5.554805    3623.6176 
    6000     2.380725   -4.1728145            0  -0.60261981    5.6621086    3623.4858 
    7000    2.4478425   -4.2133204            0   -0.5424746    5.6943902    3604.4732 
    8000    2.3942321   -4.2322607            0  -0.64181031    5.4903869    3586.1985 
    9000    2.4401162   -4.1691079            0  -0.50984869    5.6094104    3625.9626 
   10000    2.4110904   -4.1608357            0  -0.54510425    5.5664966    3643.4265 
Loop time of 2.61409 on 48 procs for 10000 steps with 4000 atoms

Performance: 661033.890 tau/day, 3825.428 timesteps/s
99.6% CPU use with 48 MPI tasks x no OpenMP threads

MPI task timing breakdown:
Section |  min time  |  avg time  |  max time  |%varavg| %total
---------------------------------------------------------------
Pair    | 1.2122     | 1.266      | 1.3259     |   2.5 | 48.43
Neigh   | 0.21791    | 0.22327    | 0.22903    |   0.6 |  8.54
Comm    | 0.8191     | 0.87162    | 0.92811    |   3.1 | 33.34
Output  | 0.00024482 | 0.00025164 | 0.00032891 |   0.0 |  0.01
Modify  | 0.21545    | 0.23749    | 0.25501    |   2.3 |  9.08
Other   |            | 0.01545    |            |       |  0.59

Nlocal:        83.3333 ave          96 max          75 min
Histogram: 3 6 10 9 5 6 6 0 1 2
Nghost:        1747.46 ave        1774 max        1719 min
Histogram: 2 3 3 9 9 3 8 3 3 5
Neighs:        10476.9 ave       13130 max        9304 min
Histogram: 5 8 16 7 5 4 0 2 0 1

Total # of neighbors = 502889
Ave neighs/atom = 125.72225
Neighbor list builds = 907
Dangerous builds = 218

# Equilibrate just above the melting temperature to avoid step fn in T

fix 1 all npt temp 1.25 1.25 0.1 iso 5.68 5.68 0.5 mtk yes tchain 5 pchain 5
run 2000
Per MPI rank memory allocation (min/avg/max) = 3.644 | 3.646 | 3.650 Mbytes
Step Temp E_pair E_mol TotEng Press Volume 
   10000    2.4110904   -4.1608357            0  -0.54510425    5.5664966    3643.4265 
   11000    1.2435186   -6.1213569            0   -4.2565453    5.7603408    2765.8957 
   12000    1.2739547    -6.168967            0   -4.2585127    5.7201518    2751.0052 
Loop time of 0.673639 on 48 procs for 2000 steps with 4000 atoms

Performance: 513034.406 tau/day, 2968.949 timesteps/s
99.6% CPU use with 48 MPI tasks x no OpenMP threads

MPI task timing breakdown:
Section |  min time  |  avg time  |  max time  |%varavg| %total
---------------------------------------------------------------
Pair    | 0.2908     | 0.32607    | 0.37077    |   2.7 | 48.40
Neigh   | 0.041205   | 0.043552   | 0.048145   |   0.7 |  6.47
Comm    | 0.20964    | 0.25386    | 0.28956    |   3.3 | 37.68
Output  | 5.0416e-05 | 5.2135e-05 | 7.0424e-05 |   0.0 |  0.01
Modify  | 0.039302   | 0.045227   | 0.050595   |   1.6 |  6.71
Other   |            | 0.004877   |            |       |  0.72

Nlocal:        83.3333 ave          90 max          76 min
Histogram: 3 1 4 7 6 6 7 9 4 1
Nghost:        2119.69 ave        2146 max        2097 min
Histogram: 6 2 6 9 4 3 5 9 3 1
Neighs:        13868.4 ave       15501 max       12132 min
Histogram: 2 3 4 8 5 6 7 7 4 2

Total # of neighbors = 665685
Ave neighs/atom = 166.42125
Neighbor list builds = 143
Dangerous builds = 22

#############################
# L I N E A R  Q U E N C H  #
#############################

# Define solid atoms. This closely follows ten Wolde  Ruiz-Montero and Frenkel  Faraday Discuss  1996  104  93-110
# Compute components of the per-atom q6 vector
compute q6 all orientorder/atom degrees 1 6 components 6 nnn NULL cutoff 1.3 # compute the Q6 parameter.
                                                                             # Use all neighbours within 1.3 unit cell.

# get number of connections
compute coord_number all coord/atom orientorder q6 0.5

# An atom is solid if it has 8 or more connections (of a possible 14)
variable is_solid atom c_coord_number>=8
group solid dynamic all var is_solid    # Must be dynamic to update
dynamic group solid defined

# do clustering
compute cluster solid cluster/atom 1.3 # Create a cluster where all atoms within are solid and max 1.3 units from another member

# define chunks one chunk per cluster
compute clus_chunks solid chunk/atom c_cluster nchunk every compress yes  # Says which atoms are in which chunk

# count the size of each chunk
compute size_chunks solid property/chunk clus_chunks count


# Find the maximum entry in the vector of chunk sizes
variable max_n equal max(c_size_chunks)


# Thermo style which includes this variable
# thermo_style custom step temp pe vol v_max_n

thermo ${N}  # Print the thermo information every 100 steps
thermo 1000  

# Reset the npt fix at a lower temperature (below freezing)
fix 1  all npt temp  ${temp} ${temp}  0.1  iso  5.68  5.68  0.5  mtk yes tchain  5  pchain  5
fix 1  all npt temp  0.45 ${temp}  0.1  iso  5.68  5.68  0.5  mtk yes tchain  5  pchain  5
fix 1  all npt temp  0.45 0.45  0.1  iso  5.68  5.68  0.5  mtk yes tchain  5  pchain  5

dump dmp2 all dcd ${N} traj.dcd
dump dmp2 all dcd 1000 traj.dcd


compute msd all msd com yes
variable twopoint equal c_msd[4]/6/(step*dt+1.0e-6)
fix 9 all vector 10 c_msd[4]
variable fit equal slope(f_9)/6/(10*dt)
thermo_style custom step temp pe c_msd[4] v_twopoint v_fit v_max_n

fix 1 all npt temp 1.25 ${temp} 0.1 iso 5.68 5.68 0.5 mtk yes tchain 5 pchain 5
fix 1 all npt temp 1.25 0.45 0.1 iso 5.68 5.68 0.5 mtk yes tchain 5 pchain 5
run 500000 # 5000000  # Run for this many steps
Neighbor list info ...
  update every 1 steps, delay 10 steps, check yes
  max neighbors/atom: 2000, page size: 100000
  master list distance cutoff = 3.8
  ghost atom cutoff = 3.8
  binsize = 1.9, bins = 8 8 8
  4 neighbor lists, perpetual/occasional/extra = 1 3 0
  (1) pair lj/cut, perpetual
      attributes: half, newton on
      pair build: half/bin/atomonly/newton
      stencil: half/bin/3d
      bin: standard
  (2) compute orientorder/atom, occasional
      attributes: full, newton on
      pair build: full/bin/atomonly
      stencil: full/bin/3d
      bin: standard
  (3) compute coord/atom, occasional
      attributes: full, newton on
      pair build: full/bin/atomonly
      stencil: full/bin/3d
      bin: standard
  (4) compute cluster/atom, occasional
      attributes: full, newton on
      pair build: full/bin/atomonly
      stencil: full/bin/3d
      bin: standard
Per MPI rank memory allocation (min/avg/max) = 9.845 | 9.853 | 9.861 Mbytes
Step Temp PotEng c_msd[4] v_twopoint v_fit v_max_n 
   12000    1.2739547    -6.168967 8.3205104e-31 5.778132e-33 8.3333333e+20            2 
   13000    1.2572155   -6.1561647   0.52061738 0.0033372908  0.043127668            2 
   14000    1.2639809   -6.2124192    1.0351713 0.0061617336  0.041818319            2 
   15000    1.2649858   -6.2297823    1.5506445 0.0086146911  0.042473503            3 
   16000    1.2316924   -6.1958548    2.0326043   0.01058648   0.04230279            3 
   17000    1.2402268   -6.2434162    2.4881461  0.012196794  0.041642143            2 
   18000    1.2369248    -6.180589     2.919665  0.013516967  0.040804789            3 
   19000    1.2247134   -6.1846561    3.3912567  0.014873933  0.040004588            3 
   20000    1.2311001   -6.1949164    3.8506984  0.016044576   0.03962724            2 
   21000    1.2448015   -6.2436153    4.3017767  0.017070542  0.039334388            2 
   22000    1.2275767     -6.25601    4.8301186  0.018295903  0.039353376            3 
   23000    1.2390112    -6.170105     5.374276  0.019472014  0.039580052            2 
   24000    1.2336585   -6.2473818     5.761674  0.020005812  0.039599328            2 
   25000    1.2316027   -6.2474066    6.2410556  0.020803518  0.039554052            1 
   26000    1.2219981   -6.2710454    6.6756225  0.021396226  0.039492969            5 
   27000    1.2309521   -6.2417771    7.2178942  0.022277451  0.039536453            2 
   28000    1.2374319   -6.2819595     7.735272  0.023021642  0.039581888            1 
   29000    1.2191331   -6.2523695    8.2992276  0.023848355  0.039750288            1 
   30000    1.2321928   -6.3023287    8.7081412  0.024189281  0.039923031            2 
   31000    1.2161551   -6.3012938    9.2139491   0.02476868  0.040029643            8 
   32000    1.2283733    -6.278152    9.6059037  0.025015374  0.040040229            2 
   33000    1.2293411   -6.2738669    10.089327  0.025478098   0.03994763            2 
   34000    1.2125157   -6.3164124    10.422824  0.025546137   0.03982063            3 
   35000    1.2141619   -6.2564017    10.856925  0.025849821  0.039656253            2 
   36000    1.2203815   -6.3003919    11.265674   0.02607795  0.039482525            2 
   37000    1.1918959   -6.2881618    11.713141  0.026380948  0.039323361            1 
   38000    1.2169049   -6.3302564    12.203576  0.026762228  0.039173843            2 
   39000    1.2184813    -6.344386    12.659119  0.027049399  0.039068453            2 
   40000    1.2111002    -6.276956     13.27411  0.027654396  0.039034069            2 
   41000     1.223526   -6.2656002     13.69214  0.027829552  0.039039499            2 
   42000    1.1908082   -6.2718492    14.194408  0.028163507  0.039034241            3 
   43000    1.2247552   -6.2926444    14.591127  0.028277378  0.039013994            2 
   44000    1.2104289   -6.3172703    15.081182  0.028562845  0.038989396            4 
   45000    1.1807711   -6.3314367    15.502448  0.028708238  0.038952196            4 
   46000    1.1928031   -6.3224535    15.897551  0.028799911  0.038907814            2 
   47000    1.2159398   -6.3266733    16.309846  0.028918166  0.038861021            3 
   48000    1.1555679    -6.344339    16.753543  0.029086011  0.038802061            9 
   49000    1.2146814   -6.2885804    17.380891  0.029559339  0.038785512            2 
   50000    1.1993001   -6.3750586    17.691004  0.029485007  0.038771508            5 
   51000    1.1776657   -6.3383672    18.090773  0.029560086  0.038711608            3 
   52000    1.1621518    -6.369744    18.618642  0.029837567  0.038670991            5 
   53000    1.1676179   -6.3753415    19.161671  0.030128413  0.038659689            6 
   54000    1.1864165   -6.3530692    19.667816  0.030351567  0.038650395            3 
   55000    1.1596742   -6.3354603    20.073662  0.030414639  0.038637563            2 
   56000    1.1906019   -6.3580321    20.391979  0.030345207  0.038601871            3 
   57000    1.2186691   -6.3802859    20.619786  0.030145886  0.038524574            5 
   58000     1.178032   -6.3827406    21.044458   0.03023629  0.038425532            2 
   59000    1.1925802   -6.3590461    21.501793  0.030369764  0.038346062            2 
   60000     1.171746   -6.3638998    21.778413  0.030247796  0.038254035            2 
   61000    1.1536821    -6.379998    22.153446  0.030264271  0.038141192            6 
   62000    1.1902722   -6.3584459    22.553521  0.030313872  0.038017335            2 
   63000    1.1736594   -6.3665836    22.984278  0.030402484  0.037906959            4 
   64000    1.1436866   -6.4055364    23.232339  0.030250441  0.037793026            4 
   65000    1.1756974   -6.3539464    23.685424  0.030365928  0.037671768            2 
   66000    1.1514726   -6.3767275    24.088838  0.030415199  0.037544415            3 
   67000    1.1888245   -6.4307037    24.347658  0.030283156  0.037429606            2 
   68000    1.1893764   -6.3834914    24.903552  0.030519059  0.037317237            6 
   69000    1.1360786   -6.4061832    25.218315  0.030456902  0.037199471            1 
   70000    1.1443733   -6.3922668    25.391327   0.03022777  0.037075453            4 
   71000    1.1545233   -6.3925603    25.818147  0.030302989  0.036945804            3 
   72000    1.1581823   -6.4224687    26.133621  0.030247247  0.036810713            2 
   73000    1.1557871   -6.4022921     26.44591  0.030189394  0.036680927            2 
   74000    1.1397807   -6.4153481    27.018148  0.030425842  0.036564422            5 
   75000    1.1396354   -6.4347797    27.421527  0.030468363  0.036451478            3 
   76000     1.167851   -6.4392528    27.677515  0.030348152  0.036345214            5 
   77000    1.1184682   -6.4387375    28.082488  0.030392303  0.036235777            4 
   78000    1.1321226   -6.4806399    28.541745  0.030493317  0.036135189            4 
   79000    1.1384409   -6.4551033    28.886202  0.030470677  0.036041411            4 
   80000    1.1290295   -6.4351139    29.342883  0.030565503  0.035949242            3 
   81000    1.1638857   -6.4628409     29.53746  0.030388333  0.035857205            3 
   82000    1.1468732   -6.4342669    30.063082  0.030551912  0.035766235            2 
   83000    1.1572605   -6.5117868      30.1984  0.030319678  0.035668847            3 
   84000    1.1423951   -6.4711885    30.653325  0.030410045  0.035567544            2 
   85000    1.1074516   -6.4548896    31.152436  0.030541604  0.035473815            3 
   86000    1.1184481   -6.4372994    31.506627  0.030529677  0.035388168            3 
   87000    1.1643559   -6.4807049    31.736046  0.030398512  0.035300269            4 
   88000    1.1293351   -6.4801956    32.002993  0.030305865  0.035207546            4 
   89000    1.1194463   -6.4835775    32.212084  0.030161127  0.035102656            6 
   90000    1.1295813   -6.5206619    32.682283  0.030261373  0.034998687            4 
   91000    1.1303842   -6.5031988    33.116685  0.030326634  0.034907571            3 
   92000    1.1133103   -6.5076874    33.525427  0.030367235  0.034816743            3 
   93000     1.143727   -6.5043631    33.835181  0.030318263  0.034731151            3 
   94000    1.1194378   -6.5653437    34.122725  0.030250643  0.034643269            2 
   95000    1.1135924   -6.5558219    34.350912  0.030132379  0.034552765            2 
   96000    1.1107524   -6.5371966    34.781943  0.030192659  0.034458755            3 
   97000    1.0898101   -6.4756736     35.20542  0.030245206  0.034376208            2 
   98000    1.0961478   -6.5178508     35.35868  0.030066905  0.034296133            3 
   99000    1.1119865   -6.5415581    35.884476  0.030205788  0.034213243            5 
  100000    1.1173347   -6.5289711    36.291321  0.030242767  0.034138025            3 
  101000    1.1018311   -6.5284616    36.517427   0.03012989    0.0340643            2 
  102000    1.0993099   -6.5265062    36.918228  0.030161951   0.03398872            2 
  103000     1.099157   -6.5801804    37.202024  0.030098725  0.033914905            3 
  104000    1.0937761   -6.5559433     37.37053  0.029944335  0.033833809            3 
  105000    1.0989767   -6.5487697    37.773881   0.02997927  0.033748862            7 
  106000    1.0721045    -6.532305    38.021696   0.02989127  0.033666861            9 
  107000    1.1020783   -6.5869207    38.166063  0.029724348  0.033580719            4 
  108000     1.112519   -6.5405008    38.285186  0.029541039  0.033487323            2 
  109000    1.0972417   -6.6159479    38.654748  0.029552559  0.033384702            3 
  110000    1.0849374   -6.5548684    38.862012  0.029440918  0.033283638            2 
  111000    1.1024436   -6.5751119     39.30055  0.029504917  0.033184895            5 
  112000    1.1005421   -6.5492989    39.510341  0.029397575  0.033086758            3 
  113000    1.0792513   -6.6240908    39.648044   0.02923897  0.032988907            4 
  114000    1.0789569   -6.5817037    39.985695  0.029229309  0.032887178            2 
  115000     1.093162   -6.6346411    40.132073  0.029081212   0.03278366            8 
  116000    1.0876635   -6.5411072    40.592274  0.029161116  0.032680694            2 
  117000    1.0621443   -6.5918127    40.755051  0.029027814  0.032579874            5 
  118000    1.0793984   -6.6288309    40.952171  0.028921025  0.032481262            4 
  119000     1.088234   -6.5690227    41.530489  0.029082975  0.032383733            4 
  120000    1.0732779   -6.6024105    41.622806  0.028904726  0.032289809            5 
  121000    1.0893868   -6.6425598    41.998423  0.028924534  0.032192303            3 
  122000    1.0715139   -6.5975631    42.079684  0.028742954   0.03209092           15 
  123000      1.07835   -6.6423391    42.273349   0.02864048  0.031990323            3 
  124000    1.0798684   -6.6640513    42.597821  0.028627568  0.031890358            3 
  125000    1.0789056   -6.6592733    42.789609  0.028526406  0.031787531            6 
  126000    1.0728851   -6.6900799    42.983008  0.028427915  0.031687747            1 
  127000    1.0598603   -6.6742323    43.391423  0.028472062  0.031588031            5 
  128000    1.0738782   -6.6122445    43.794413  0.028511987  0.031490165            8 
  129000    1.0571425   -6.6601189    44.115847  0.028498609  0.031395468            4 
  130000    1.0645937    -6.713012    44.182285  0.028321978  0.031302755            6 
  131000    1.0666616   -6.6708126    44.654312   0.02840605  0.031211863            2 
  132000    1.0433684   -6.6822161     45.03549  0.028431496    0.0311254            4 
  133000    1.0483681   -6.7077711    45.191478  0.028315463  0.031037781            3 
  134000    1.0469717     -6.68745    45.423308  0.028248326  0.030950205            2 
  135000    1.0294348   -6.6897831    45.642933   0.02817465  0.030865334            3 
  136000    1.0501695     -6.70494    46.130949  0.028266513  0.030781278            1 
  137000    1.0582505   -6.6923802    46.286922  0.028155062  0.030697313            3 
  138000     1.044658   -6.7253715    46.302123  0.027960219  0.030612395            4 
  139000    1.0561217   -6.7056908    46.719021  0.028009005   0.03052469            2 
  140000    1.0672279   -6.6936707    47.149334  0.028065079  0.030440342            5 
  141000    1.0382758   -6.6819266    47.492455  0.028068827  0.030359107            7 
  142000    1.0500752   -6.6985198    47.522772   0.02788895  0.030280654            3 
  143000    1.0488952   -6.7381925    47.975574  0.027957794  0.030204201            5 
  144000    1.0330913    -6.695439    48.186353  0.027885621  0.030128115            4 
  145000     1.048163   -6.6804123    48.228332  0.027717432  0.030049127            6 
  146000    1.0239595   -6.7014052    48.504091  0.027684983  0.029970013            6 
  147000    1.0041558   -6.7511318    48.535008  0.027514177  0.029888755            3 
  148000    1.0329062   -6.7674649    48.817348  0.027487245  0.029804727            1 
  149000     1.027824   -6.8026663    48.907194  0.027353017  0.029721526            3 
  150000    1.0135742   -6.7877034    49.262712  0.027368173  0.029638022            7 
  151000    1.0232305   -6.7461603    49.532215  0.027335659  0.029554385            4 
  152000    1.0261805   -6.7785754    49.799783  0.027302512  0.029470612            4 
  153000    1.0430547   -6.7715105    50.053146  0.027262062   0.02938977            2 
  154000    1.0070341   -6.7944573     50.36917  0.027256044  0.029313448            3 
  155000    1.0191455   -6.7551922    50.912439  0.027372279  0.029239519            4 
  156000   0.99696148   -6.7687094    50.978742  0.027232234  0.029165441            3 
  157000    1.0245527   -6.7866465    50.889019  0.027011157  0.029087716            4 
  158000    1.0442381   -6.8052995    51.344225  0.027080287  0.029009395            4 
  159000    1.0226123    -6.802186    51.495515  0.026989264  0.028935956            6 
  160000    1.0273406   -6.7973947    51.700336  0.026927258  0.028859337            3 
  161000    1.0255657   -6.8072444     51.81693  0.026820357  0.028781839            3 
  162000    1.0208981   -6.8417357    52.179996  0.026841561  0.028706029            5 
  163000    1.0145122   -6.7732186    52.456662  0.026818334  0.028632407            5 
  164000    1.0163767   -6.7818934    52.481932  0.026667648  0.028556365            8 
  165000    0.9922336   -6.8252384    52.829588   0.02668161  0.028479691            5 
  166000   0.99274346   -6.8027572    52.823629  0.026517886  0.028401787            3 
  167000    0.9987144   -6.7994023    52.916712  0.026405545  0.028321712            3 
  168000    1.0008743   -6.8121889    53.058159  0.026318531  0.028240531            4 
  169000    1.0092986   -6.8627614    53.089954  0.026178478  0.028158099           13 
  170000   0.98731303   -6.8634577    53.288215  0.026121674  0.028072843            2 
  171000   0.99688121   -6.8284589    53.681273  0.026160464  0.027988692            5 
  172000   0.97026549   -6.8457263    53.767891  0.026050335  0.027906855            4 
  173000   0.98808755   -6.8742568    53.938339  0.025981859  0.027824199            6 
  174000   0.98350012   -6.8610884    54.224083  0.025969389  0.027741909            4 
  175000    1.0034677   -6.8711294     54.60842   0.02600401    0.0276616            2 
  176000   0.97747116    -6.847077    54.769474  0.025932516  0.027583898            5 
  177000   0.99221996   -6.8462018    54.798377  0.025799612   0.02750547            4 
  178000    1.0065108   -6.8466921    55.170045  0.025828673  0.027425552            4 
  179000   0.99861279   -6.8740444    55.231156  0.025712828  0.027345655            4 
  180000   0.95962858   -6.8595983    55.355542  0.025627566  0.027266676            7 
  181000   0.98520015    -6.880045    55.477454  0.025542106  0.027187322            6 
  182000   0.95875423     -6.87713    55.809535  0.025553816  0.027109331           10 
  183000   0.95949833   -6.8893332    56.041547   0.02551983  0.027033092            3 
  184000    0.9662867   -6.9092865    56.221983  0.025462855  0.026957045            3 
  185000   0.97099116   -6.8906028     56.41075  0.025410248  0.026880236            5 
  186000   0.96201234   -6.9506542    56.334814  0.025239612  0.026802991           10 
  187000   0.94972451   -6.9154693    56.400068   0.02513372  0.026724411            9 
  188000    1.0015814   -6.9272429    56.619443  0.025097271  0.026644461            3 
  189000   0.95887812   -6.9264086    56.565125  0.024940531   0.02656476            3 
  190000   0.97434737   -6.9414295    56.731772  0.024882356  0.026484742            7 
  191000   0.95860462   -6.9312133    57.211832  0.024961532  0.026404869            5 
  192000    0.9490088   -6.9283078    57.223203   0.02483646  0.026327193            4 
  193000   0.95553682   -6.9644037    57.197213  0.024696551  0.026247304            9 
  194000   0.98761814   -6.9313672    57.595987  0.024740544  0.026166479            3 
  195000   0.93201407   -6.9390955    57.607453  0.024618569  0.026087087            5 
  196000   0.95938542   -6.9144703    58.098704   0.02470183  0.026008859            4 
  197000   0.95064596    -6.953308    58.283268  0.024654512  0.025933393            6 
  198000    0.9369477   -6.9568951    58.452038  0.024601026  0.025859778            5 
  199000   0.94730739   -6.9393108    58.467313  0.024483799  0.025785302            3 
  200000   0.95083298   -6.9702577    58.804656   0.02450194  0.025711096            6 
  201000   0.93992816   -6.9758304    58.999599  0.024460862  0.025638328            4 
  202000   0.95498073   -6.9501647    58.906637  0.024301418  0.025563257            4 
  203000   0.92628008   -7.0237011    58.975888  0.024210135  0.025487928            6 
  204000   0.94239987   -6.9940529    59.276362    0.0242142  0.025411784            7 
  205000   0.92894616   -6.9872482    59.156808  0.024047483  0.025334743            6 
  206000   0.93007061    -6.963297      59.5513  0.024090332  0.025259023            5 
  207000   0.93801543   -6.9623274    59.698656  0.024033275   0.02518504            5 
  208000   0.91995979   -6.9886125    59.548702  0.023857653  0.025109846            4 
  209000   0.93696332   -6.9908878    59.814355  0.023849424  0.025034663            5 
  210000   0.92008093    -6.987769    59.899292   0.02376956  0.024958101            3 
  211000   0.92865554   -7.0433147    60.013484  0.023702008  0.024882086            6 
  212000   0.93667849    -7.041264    60.121974  0.023632851   0.02480641            4 
  213000   0.92018333    -7.043428    60.260148  0.023575958  0.024731354            5 
  214000   0.91754839   -7.0140385    60.405575   0.02352242  0.024656028            4 
  215000   0.90793483    -7.027708    60.618472  0.023495532   0.02458136            4 
  216000   0.90845861   -7.0220446    60.754236  0.023439134  0.024506906            4 
  217000   0.90133603   -7.0445546    60.923763  0.023396222  0.024433275            5 
  218000   0.92622075   -7.0292381    60.935048  0.023293214  0.024358745            5 
  219000   0.90244939   -7.0266459    60.986053  0.023206261  0.024283557            5 
  220000   0.93266826   -7.0233345    61.118575  0.023150975   0.02420892            6 
  221000   0.91781136   -7.0443729    61.147434  0.023057102  0.024134687            4 
  222000   0.91091864   -7.0523999    61.262405  0.022996398  0.024060327            8 
  223000     0.915227   -7.0850596    61.291366  0.022904098  0.023984782            4 
  224000   0.91887561   -7.0766753    61.461932  0.022865302  0.023909956            6 
  225000   0.90264704   -7.0643846     61.53591  0.022791078   0.02383534            5 
  226000   0.91532052   -7.1195377    61.624119  0.022722758  0.023759824            9 
  227000   0.90625835   -7.0439991    61.885583  0.022718643  0.023685644            5 
  228000   0.91556607   -7.0662987    62.211901  0.022738268  0.023612863            9 
  229000     0.900565   -7.0974363    62.152622  0.022617402  0.023541423            6 
  230000   0.92562977   -7.0476718    62.358059    0.0225935  0.023469645            2 
  231000   0.90826748   -7.1018091    62.519351  0.022553878   0.02339734            6 
  232000   0.89335715   -7.0939452    62.474664  0.022440612  0.023325551            7 
  233000   0.88469429   -7.1055656    62.681614  0.022418317   0.02325376            5 
  234000   0.89563818   -7.1345715    62.906642   0.02240265  0.023184297            9 
  235000   0.90247651   -7.1287107    63.325058  0.022455694  0.023115764            7 
  236000    0.8949043   -7.1461618    63.025057   0.02225461  0.023047062           13 
  237000   0.89076631   -7.1189578    63.522452  0.022335602  0.022979069            3 
  238000     0.909474   -7.1261931    63.593918  0.022266778  0.022911696            9 
  239000   0.89236671   -7.1535481    63.692677  0.022208046  0.022844099           11 
  240000    0.9016563   -7.1707434    63.587565  0.022079016  0.022776131            6 
  241000   0.87413444   -7.1490585    63.595897  0.021990283  0.022707737            7 
  242000   0.88443727   -7.1922387    63.733334   0.02194674  0.022640676           15 
  243000   0.88589834   -7.1852921    63.907566  0.021916175  0.022573289            6 
  244000   0.89345355   -7.1929971    64.002086  0.021858636  0.022504852            5 
  245000   0.89793811   -7.1624499     63.95786  0.021754374  0.022436131            3 
  246000   0.86175938    -7.195171    63.649361  0.021561437  0.022365623           12 
  247000   0.87368365   -7.2107016    63.922583  0.021566324  0.022294877            7 
  248000   0.89382928   -7.2057251    63.859861  0.021458287  0.022224838            4 
  249000   0.87402598   -7.2093233    64.218898  0.021492268  0.022154286            9 
  250000   0.86348626   -7.2150819    64.287837  0.021429279   0.02208508            6 
  251000   0.85735694    -7.173151    64.318499  0.021354083  0.022015963            7 
  252000   0.86115725   -7.2107969    64.386764  0.021291919  0.021946627            5 
  253000   0.86493741     -7.23888    64.440322  0.021225402    0.0218772           12 
  254000   0.84791783   -7.2308092    64.564115  0.021182452  0.021808565            7 
  255000   0.86589098   -7.2254999    64.622731   0.02111854   0.02174024           13 
  256000   0.87384347   -7.2484396    64.789987  0.021090491  0.021671713            4 
  257000   0.86731683   -7.2374186    64.679613  0.020972637  0.021602874           14 
  258000   0.86875576   -7.2308141    64.776001  0.020922481  0.021533949            7 
  259000   0.84645728    -7.212733     64.73874   0.02082971  0.021464813           12 
  260000   0.86241599   -7.2039993    64.827638  0.020778089  0.021395023           15 
  261000   0.85846764   -7.2320727    64.986458  0.020749188  0.021325717            4 
  262000   0.84084695   -7.2739742    64.937794  0.020654515  0.021256343           15 
  263000   0.84550362   -7.2961182    64.816626  0.020537587  0.021185792            9 
  264000   0.84057597   -7.2955481    64.933661  0.020496736  0.021115269           14 
  265000   0.82882797   -7.2831706     65.12341   0.02047906  0.021046053           11 
  266000   0.86730526   -7.2845861    65.187786  0.020422239  0.020976982           11 
  267000   0.84418707   -7.2856304    65.127476  0.020326928  0.020907204           19 
  268000   0.85204347   -7.3055755     65.27193  0.020295998  0.020837859           18 
  269000   0.83968199   -7.3072629    65.180876  0.020192341  0.020768486           11 
  270000   0.82627323    -7.289729    65.335185   0.02016518  0.020699586            9 
  271000   0.81410916    -7.348023    65.183766  0.020044208   0.02063026            9 
  272000   0.84254052   -7.3317413    65.164986  0.019964763  0.020560541           12 
  273000    0.8376573   -7.3089245    65.453252  0.019979625  0.020491783           15 
  274000   0.82660752   -7.3211677    65.432293  0.019900332  0.020422905           15 
  275000   0.82098886   -7.2995285    65.706367   0.01991102  0.020354148            6 
  276000   0.83202128   -7.3188857    65.622533  0.019813567  0.020285608           10 
  277000   0.83136514   -7.2952535    65.723767  0.019772493  0.020217414           10 
  278000   0.82304774   -7.3266042    65.632843  0.019674114  0.020149189           17 
  279000   0.82533217   -7.3577807     65.77682  0.019646601  0.020081245            5 
  280000   0.81848674    -7.352538    65.868957  0.019603856  0.020013403           30 
  281000   0.82057766   -7.3587256    65.836348  0.019524421  0.019945601           12 
  282000   0.82395043   -7.3873951    65.756659  0.019431637  0.019877848           20 
  283000   0.81602555   -7.3717101    65.821484  0.019382062  0.019809931           15 
  284000   0.80074423   -7.3759184     65.93796  0.019347993  0.019742721           20 
  285000   0.81095283   -7.4105319    65.665585  0.019200463  0.019675377           18 
  286000   0.79014802   -7.3803744    65.840146  0.019184192  0.019608361           14 
  287000   0.79728664   -7.3715389    66.132642  0.019202277  0.019541456           17 
  288000   0.80703112   -7.3775277    66.207875  0.019157371  0.019475031           15 
  289000   0.79551583   -7.3803968    66.154013  0.019075552  0.019408108           13 
  290000   0.82560875   -7.4191888     66.00141  0.018965922  0.019341277           10 
  291000    0.7948391   -7.4055954    66.347652    0.0189999  0.019275155           11 
  292000   0.79634501   -7.3988084    66.220485   0.01889854   0.01920925            8 
  293000   0.82462656    -7.435435     66.04493   0.01878411  0.019142617            8 
  294000   0.80686476    -7.428897    66.268223   0.01878351  0.019076957           27 
  295000   0.81451156   -7.4264686    66.341332  0.018740489  0.019011428           15 
  296000    0.8037306   -7.4136488    66.528337  0.018729825  0.018946854           18 
  297000   0.79025971   -7.4380858    66.578533  0.018680845   0.01888241           14 
  298000   0.78210234   -7.4009112    66.483311   0.01859153   0.01881804            7 
  299000    0.8006779   -7.4301431    66.516178  0.018538511   0.01875358           17 
  300000    0.7881762   -7.4454999     66.52978  0.018480494  0.018689373           17 
  301000   0.78959213   -7.4454841    66.588785  0.018435433  0.018625108           15 
  302000   0.80785862   -7.4573453    66.724046  0.018411712  0.018561081           11 
  303000   0.78925325   -7.4642498    66.581532  0.018311752  0.018497383            5 
  304000   0.80201909   -7.4514469     66.72869  0.018291856  0.018434063           10 
  305000   0.78444087   -7.4235909    66.742836  0.018235747  0.018370916            9 
  306000   0.78145878   -7.4614911    66.743788  0.018176413  0.018307922           11 
  307000   0.78021796   -7.4933506    66.761726  0.018122076   0.01824508           17 
  308000   0.77596111   -7.4677638    66.748686  0.018059709  0.018182292           16 
  309000   0.77992816   -7.4680258    67.003402  0.018069957   0.01812014            4 
  310000   0.78172072    -7.453473    66.985664  0.018006899   0.01805814           11 
  311000   0.76189946    -7.439489    66.938807  0.017936443  0.017996016           17 
  312000    0.7698377   -7.4671014    66.986021  0.017891566  0.017934442           13 
  313000   0.78601799   -7.4898323    66.956379  0.017826512   0.01787323           19 
  314000   0.75966316   -7.4941688    66.985646  0.017777507  0.017811769           20 
  315000   0.76275425   -7.5003771    66.967026  0.017716144  0.017749981           32 
  316000    0.7711525   -7.5032867    66.872869   0.01763525  0.017688196           14 
  317000   0.77828283   -7.5053232    66.841822  0.017571457  0.017626454           13 
  318000   0.76392481   -7.5009918    66.843922  0.017516751  0.017564841           11 
  319000   0.76077548   -7.5018553    66.997035  0.017501838  0.017503774           11 
  320000    0.7650216   -7.5169516     66.82871   0.01740331  0.017442589           15 
  321000   0.75112546   -7.5182629    67.189758  0.017442824  0.017381956           19 
  322000   0.75121072   -7.5395105    67.061897  0.017355563  0.017321627           16 
  323000   0.73655652   -7.5545885    66.971165  0.017278422  0.017261204           35 
  324000   0.74849235   -7.5227417    67.153988  0.017272116  0.017201109           36 
  325000   0.74281792   -7.5405908    67.089505  0.017202437  0.017141371           14 
  326000   0.75672772    -7.548154    67.366346  0.017220436  0.017081806            9 
  327000   0.74358886   -7.5637555    67.267753  0.017142649  0.017022874           16 
  328000   0.73100039   -7.5822248    67.168408  0.017065144  0.016963587           55 
  329000   0.74701362   -7.5713957    67.215026  0.017025082  0.016904726           17 
  330000   0.73840752   -7.5786803    67.191127  0.016967456  0.016845936           10 
  331000   0.74171972   -7.5798942     67.20792  0.016920423  0.016787249           14 
  332000   0.75454285   -7.5716398    67.379522  0.016912531  0.016728531           10 
  333000    0.7287221   -7.5856116      67.2741   0.01683536  0.016670219           21 
  334000   0.72992253   -7.6048291    67.262028  0.016781943  0.016611897           19 
  335000   0.73280216   -7.6010744    67.470802  0.016783782  0.016553773           28 
  336000   0.73746413    -7.648372    67.251508  0.016679441  0.016496155           13 
  337000   0.73203239   -7.6238239    67.435546  0.016675457  0.016438656           20 
  338000   0.72286177   -7.6187364    67.306664  0.016594345  0.016381448           22 
  339000    0.7188249   -7.6294359    67.325336  0.016549984  0.016324202           19 
  340000   0.72278212   -7.6668657    67.230955  0.016478175   0.01626695           12 
  341000   0.74193302    -7.656702     67.28001   0.01644184  0.016209835           16 
  342000   0.71601238   -7.6477566    67.211974  0.016377187  0.016152814           18 
  343000   0.72544779   -7.6843127    67.216974  0.016330654  0.016095641           28 
  344000    0.7133316   -7.6763817     67.15226  0.016267505  0.016038344           10 
  345000   0.71446614   -7.6801707    67.084725   0.01620404  0.015981251           14 
  346000   0.70956234   -7.6944095    67.183296  0.016180948  0.015924203           16 
  347000   0.71766838   -7.6817111    67.347033  0.016173639  0.015867511           22 
  348000    0.7053363   -7.7211476    67.020684  0.016049014  0.015810628           24 
  349000   0.72645565   -7.7087963    67.151323  0.016034222   0.01575404           19 
  350000   0.70267555   -7.6926872     67.28642  0.016020576  0.015697873           20 
  351000   0.68743892   -7.6871065    67.319085  0.015982689  0.015641932           28 
  352000   0.70961703   -7.7287893    67.296726   0.01593199  0.015585908           23 
  353000   0.68952041   -7.7039932    67.235752  0.015872463  0.015530305           27 
  354000   0.69791939   -7.7373737     67.17489  0.015813298  0.015474727           25 
  355000   0.70233642    -7.732399    67.145408  0.015761833  0.015419399           22 
  356000   0.70564618   -7.7332531    67.230267  0.015737422  0.015364462           23 
  357000   0.70234498   -7.7626264     67.16767  0.015678728  0.015309655           32 
  358000   0.68040751   -7.7376628    67.215314  0.015646023  0.015254928           45 
  359000    0.6974911   -7.7575148    67.206155  0.015600315  0.015200471           29 
  360000   0.69766414   -7.7444052    67.218382  0.015559811  0.015145894           51 
  361000   0.69566258   -7.7626181    67.301102  0.015535804   0.01509149           80 
  362000     0.700865   -7.7770338    67.101629  0.015446968  0.015037434           75 
  363000   0.69945743   -7.7815684    67.181574  0.015422767   0.01498334           82 
  364000   0.69070649   -7.7462026    67.205613    0.0153859  0.014929718           35 
  365000   0.69543817   -7.7666424    67.177693  0.015337373  0.014876129           66 
  366000    0.6666788   -7.7638249    67.041069   0.01526436   0.01482287           31 
  367000    0.6764889   -7.7679088    67.238707  0.015267645  0.014769465           83 
  368000   0.67087042   -7.7765081    67.017639  0.015176096  0.014716209           80 
  369000   0.66879394   -7.7806754    66.923173  0.015113634  0.014663084           18 
  370000    0.6841214   -7.7654472    67.138969  0.015121389  0.014610181           80 
  371000   0.67929657   -7.7995044    67.095515   0.01507087  0.014557615           23 
  372000   0.68843862   -7.7860752    67.049997  0.015020161  0.014505234           31 
  373000   0.67528496   -7.7781266    67.075561  0.014985603  0.014453005           56 
  374000   0.65254872    -7.812049    66.887851   0.01490371  0.014400963          105 
  375000   0.66918811   -7.7837002    66.999108  0.014888691  0.014348995           76 
  376000   0.67251633   -7.8174709    66.994535   0.01484808  0.014297362           84 
  377000   0.65839541   -7.8002924    67.044166  0.014819665  0.014245828           33 
  378000   0.66710844   -7.7885044     67.13181  0.014799782   0.01419466           26 
  379000   0.65327977   -7.8106012    67.064067  0.014745837  0.014143612           59 
  380000   0.67582097   -7.8158194    66.977042  0.014687948  0.014092674           59 
  381000   0.66027071   -7.8338536    67.015541  0.014657817  0.014041855           29 
  382000   0.65919953    -7.828902    66.918018  0.014598171  0.013991359           80 
  383000   0.65440121   -7.8258143    66.976504  0.014572782  0.013941111           53 
  384000   0.64919585   -7.8089279    67.051604  0.014551129  0.013891072           33 
  385000   0.65376712   -7.8412002    67.062615  0.014515718  0.013841147           54 
  386000   0.64873838    -7.853965    67.030125  0.014471098  0.013791407           18 
  387000   0.65490878   -7.8555234    66.942499  0.014414836  0.013741685           52 
  388000   0.64377352   -7.8392703    66.888301  0.014366044   0.01369215           86 
  389000   0.65607689   -7.8788333    66.954684  0.014343334  0.013642559           70 
  390000   0.63094273   -7.8596314      66.8012  0.014273761  0.013593228           87 
  391000   0.65110574   -7.8402457    66.854855   0.01424869  0.013544168           45 
  392000   0.64710006   -7.8458198    66.898497  0.014221619  0.013495283          126 
  393000   0.64594908   -7.8785028    66.858589   0.01417697  0.013446337           71 
  394000   0.64480343   -7.8609486    66.942558  0.014158748  0.013397657           75 
  395000   0.62905063   -7.8693931    66.822766   0.01409763  0.013349161          121 
  396000   0.64578756   -7.8878553    66.821472  0.014061758  0.013300805           47 
  397000   0.63080475   -7.8706266    66.916024  0.014046185  0.013252714           82 
  398000   0.62604299   -7.8850039    66.884755  0.014004346  0.013204847           61 
  399000   0.62161413   -7.8625758    66.949982   0.01398287  0.013157049          132 
  400000   0.62945683   -7.8958627    66.975219  0.013953171  0.013109342           92 
  401000   0.61655493   -7.8884459    66.808023  0.013883629  0.013061847          117 
  402000   0.63614445    -7.889565    66.755784  0.013838264  0.013014577          106 
  403000    0.6150692   -7.8713971    66.781585  0.013809261   0.01296749           74 
  404000   0.63269323   -7.9106903    66.696957  0.013757623  0.012920522           77 
  405000   0.63113151     -7.89762    66.787576    0.0137423  0.012873901           80 
  406000   0.62325806    -7.918727    66.816592  0.013714407   0.01282734          100 
  407000   0.61633673   -7.9206647    66.825053  0.013682443  0.012780876           64 
  408000   0.60678234   -7.9102829    66.804176  0.013644644  0.012734837          103 
  409000   0.63047196   -7.9088881    66.628787  0.013575547  0.012688799           65 
  410000   0.60999662    -7.912363    66.867149  0.013590884  0.012643001           54 
  411000   0.62453524   -7.9318996    66.659329  0.013515679  0.012597325           81 
  412000   0.60945448   -7.9263068    66.665751  0.013484173  0.012551705           72 
  413000   0.61684393   -7.9379937    66.599862  0.013438229  0.012506293           97 
  414000   0.60309919   -7.9248243    66.625114  0.013410852  0.012461096           88 
  415000    0.6122125   -7.9517148    66.644896  0.013382509   0.01241609           82 
  416000   0.59934479   -7.9283021    66.642573  0.013349874   0.01237116           94 
  417000   0.59491202   -7.9442729    66.544457  0.013298253  0.012326319           68 
  418000   0.59005757    -7.941314    66.587085  0.013274937  0.012281733           83 
  419000   0.59948963   -7.9486231    66.579108  0.013241668  0.012237441           63 
  420000   0.60101288   -7.9597163    66.572499  0.013208829  0.012193115           78 
  421000   0.60212333   -7.9626678    66.459797  0.013155146   0.01214895          112 
  422000   0.60751115   -7.9605085    66.726554   0.01317665  0.012105053           79 
  423000   0.59643901   -7.9730391    66.516527  0.013104123  0.012061308          164 
  424000   0.60238915   -7.9749584    66.501168  0.013070198  0.012017848           71 
  425000   0.59774819   -7.9898105    66.446772  0.013028779  0.011974464           82 
  426000   0.58807521   -7.9637891    66.516602  0.013011855  0.011931335           46 
  427000   0.58248842   -7.9760988    66.547981  0.012987506  0.011888367           82 
  428000   0.58361704    -7.993565    66.450043  0.012938092  0.011845551          129 
  429000   0.57697718   -8.0001871    66.368362  0.012892067  0.011802999           93 
  430000   0.59047693   -7.9891139    66.617686  0.012910404  0.011760608           51 
  431000   0.57324314   -7.9838941    66.426028  0.012843393  0.011718315          177 
  432000   0.58191692   -8.0030129    66.342203  0.012797493  0.011676197          116 
  433000   0.57835947   -8.0231351    66.384759  0.012776128  0.011634171          106 
  434000   0.56019404   -8.0044021    66.388665  0.012747439  0.011592263           99 
  435000   0.57281019   -8.0006027    66.292593   0.01269973  0.011550559          130 
  436000   0.57753199   -8.0200921    66.264976  0.012665324  0.011509024          172 
  437000   0.56500113   -8.0096261    66.420262  0.012665954  0.011467746          203 
  438000   0.56356636   -8.0075454    66.521098  0.012656221   0.01142674          183 
  439000   0.56736774   -8.0233923    66.337587  0.012592556  0.011385812          148 
  440000   0.57817306   -8.0293897    66.332944  0.012563058  0.011345035          154 
  441000   0.56807443   -8.0117404    66.421414  0.012551288  0.011304579           94 
  442000   0.56540149   -8.0378031    66.263584  0.012493134   0.01126425           56 
  443000    0.5552042    -8.035593    66.357837  0.012482663   0.01122419           93 
  444000   0.55358944   -8.0301513    66.324913   0.01244837  0.011184238          137 
  445000   0.54960306   -8.0417779    66.346371  0.012424414  0.011144399          156 
  446000   0.55003732   -8.0261146     66.36555   0.01240014  0.011104721          147 
  447000   0.55760924     -8.05673     66.24238  0.012349437  0.011065241          127 
  448000   0.55299918   -8.0459962    66.196147  0.012313271  0.011025881          104 
  449000   0.54554818   -8.0494487    66.392547  0.012322299  0.010986733           87 
  450000   0.55221976   -8.0498744    66.348503   0.01228676  0.010947807           65 
  451000   0.54857167   -8.0430477    66.301397  0.012250812  0.010909174          129 
  452000   0.53776372   -8.0563578    66.420291  0.012245629  0.010870668          113 
  453000   0.55230001   -8.0591125    66.240792  0.012185576  0.010832362           61 
  454000   0.54584006   -8.0752015    66.380551  0.012184389  0.010794227           95 
  455000   0.53497822   -8.0658239    66.304998  0.012143773  0.010756127           69 
  456000     0.534184   -8.0790465     66.20764  0.012099349  0.010718226          146 
  457000    0.5355995   -8.0720947    66.134478  0.012059533  0.010680417          131 
  458000   0.52900363   -8.0854433    66.125748  0.012031613  0.010642851          115 
  459000   0.52801394   -8.0949461     66.28999   0.01203522  0.010605413           68 
  460000   0.52473755   -8.0824173    66.240393  0.012000071   0.01056826           93 
  461000   0.53816352   -8.0772051    66.265522  0.011978583  0.010531218           62 
  462000   0.53146318   -8.1018475    66.259307  0.011951534   0.01049432          110 
  463000   0.51765601   -8.0949076    66.098647  0.011896805   0.01045758           65 
  464000   0.52970868   -8.0831891    66.083438  0.011868434  0.010420992           55 
  465000   0.52536316    -8.105544    66.224439  0.011868179   0.01038456           59 
  466000    0.5166142   -8.1019007    66.309003  0.011857833  0.010348313           54 
  467000   0.52415519   -8.1039595    66.098509   0.01179488  0.010312183          101 
  468000   0.52241476    -8.132067    66.288595  0.011803525  0.010276215           92 
  469000   0.50929357   -8.1181385    66.197186  0.011762116  0.010240357          104 
  470000   0.51584811   -8.1218401    66.218602  0.011740887  0.010204726           88 
  471000    0.5198185    -8.121501    66.190494  0.011710986  0.010169255          145 
  472000   0.50529756    -8.131515    66.029519  0.011657754  0.010133934          127 
  473000   0.50632355    -8.116319    66.078972   0.01164182  0.010098744          161 
  474000   0.51006713   -8.1322339    66.115474  0.011623677  0.010063742          172 
  475000   0.49022636   -8.1173258    66.084402  0.011593755  0.010028875           60 
  476000    0.5027373    -8.117209    66.036451  0.011561003 0.0099941677          136 
  477000   0.50315923   -8.1341602    66.127214  0.011552623 0.0099596411          164 
  478000   0.50822409   -8.1434696    66.126979  0.011528413 0.0099252662          195 
  479000   0.50246896   -8.1303388    66.108924  0.011501205 0.0098910788           74 
  480000   0.50732618   -8.1265464    66.141737   0.01148294 0.0098569896          128 
  481000   0.49020324   -8.1394628    66.146442  0.011459882  0.009822981          147 
  482000   0.49879249   -8.1473352    66.138415  0.011434719 0.0097891147          183 
  483000   0.49432643    -8.138425    66.021374  0.011390851 0.0097553824          169 
  484000   0.50164985   -8.1421687    66.046077   0.01137157 0.0097218293           46 
  485000   0.49629567   -8.1529258    65.922967   0.01132697 0.0096884698           89 
  486000    0.4821257   -8.1400616    66.070642  0.011328985 0.0096552119          267 
  487000   0.49055166   -8.1585371     66.08483   0.01130815 0.0096220996           77 
  488000   0.49441754   -8.1582657    65.997944  0.011270141 0.0095891856          147 
  489000   0.47907343   -8.1444087    65.988775  0.011245531 0.0095563744           84 
  490000   0.47495301    -8.168821     65.93668  0.011213721 0.0095237287          191 
  491000    0.4867943   -8.1658685    65.971233  0.011196747 0.0094911921          151 
  492000   0.48528469   -8.1595873    65.922634  0.011165758 0.0094588146          137 
  493000   0.47630301    -8.151051    65.929479  0.011144266 0.0094265349          200 
  494000   0.49072069   -8.1552157    65.947928  0.011124819  0.009394378           78 
  495000   0.47869767   -8.1827971    65.919147  0.011097499 0.0093624188           92 
  496000   0.47029469   -8.1801402    65.993379  0.011087597 0.0093305824          140 
  497000   0.47799347   -8.1802891    66.044129  0.011073798 0.0092989233          131 
  498000   0.47323623    -8.182664    66.006112  0.011045199 0.0092673736          147 
  499000   0.46942224   -8.1895974    66.011062  0.011023891 0.0092359885           54 
  500000   0.47018238   -8.1892369    65.950161  0.010991694 0.0092047174           67 
  501000   0.46463325    -8.188872    65.956361  0.010970785 0.0091736175          199 
  502000   0.46555348   -8.1886454    65.951952  0.010948199 0.0091426546           85 
  503000   0.46472967   -8.1879815     65.91931  0.010921026 0.0091118144          144 
  504000   0.46303271    -8.204422       65.897  0.010895668 0.0090811621          220 
  505000   0.46480397   -8.1929644    65.864175  0.010868676 0.0090506301          137 
  506000     0.457199   -8.2183671    65.916798  0.010855863 0.0090201967          102 
  507000   0.46323284   -8.2099988    65.933285  0.010837161 0.0089899255          152 
  508000   0.44933496   -8.2074028    65.864008  0.010804463  0.008959781          135 
  509000   0.45996196   -8.2195715    65.894497  0.010788228 0.0089297444          168 
  510000   0.45458335   -8.2128283    65.752069  0.010743802 0.0088998044          191 
  511000   0.45914852    -8.213964    65.811771  0.010732513 0.0088700356           98 
  512000   0.45706456   -8.2129595    65.854246  0.010718464 0.0088403362          200 
Loop time of 1310.99 on 48 procs for 500000 steps with 4000 atoms

Performance: 65904.213 tau/day, 381.390 timesteps/s
99.4% CPU use with 48 MPI tasks x no OpenMP threads

MPI task timing breakdown:
Section |  min time  |  avg time  |  max time  |%varavg| %total
---------------------------------------------------------------
Pair    | 94.718     | 102.18     | 111.58     |  42.2 |  7.79
Neigh   | 9.1275     | 9.5018     | 9.9091     |   5.6 |  0.72
Comm    | 85.06      | 93.777     | 101.02     |  41.1 |  7.15
Output  | 0.98877    | 0.98961    | 1.0152     |   0.4 |  0.08
Modify  | 1085.7     | 1091.5     | 1095.7     |   7.6 | 83.26
Other   |            | 13.06      |            |       |  1.00

Nlocal:        83.3333 ave          90 max          77 min
Histogram: 3 0 3 14 6 8 5 4 3 2
Nghost:        2425.73 ave        2445 max        2409 min
Histogram: 4 2 6 10 5 7 7 2 4 1
Neighs:        16764.9 ave       18757 max       14795 min
Histogram: 3 5 8 2 3 7 7 7 3 3
FullNghs:      33529.5 ave       36286 max       30803 min
Histogram: 3 0 4 9 9 10 4 4 4 1

Total # of neighbors = 1609417
Ave neighs/atom = 402.35425
Neighbor list builds = 26665
Dangerous builds = 0

#clear
#
#next RN
#
#jump SELF
Total wall time: 0:21:54
