
units lj                  # Use reduced LJ style units
atom_style atomic         # Uncharged point particles
atom_modify map hash      # Needed for indexing of clusters etc
                          # Used to be able to find where atoms are in relation to each other.

lattice fcc 1.0 spacing 1 1 1
Lattice spacing in x,y,z = 1.5874011 1.5874011 1.5874011
region box block 0 10 0 10 0 10 units lattice
create_box 2 box
Created orthogonal box = (0.0000000 0.0000000 0.0000000) to (15.874011 15.874011 15.874011)
  3 by 4 by 4 MPI processor grid
create_atoms 1 box
Created 4000 atoms
  using lattice units in orthogonal box = (0.0000000 0.0000000 0.0000000) to (15.874011 15.874011 15.874011)
  create_atoms CPU = 0.002 seconds
set type 1 type/fraction 2 0.9 78393
Setting atom values ...
  3586 settings made for type/fraction
mass 1 1.0
mass 2 1.0
pair_style lj/cut  3.5
pair_modify tail  yes
pair_coeff 1  1  1.0  1.0   # Intearaction between 1 and 1 set with epsilon = 1 and sigma = 1
pair_coeff 1  2  1.5  0.8
pair_coeff 2  2  0.5  0.88

write_data data.0
System init for write_data ...
Neighbor list info ...
  update every 1 steps, delay 10 steps, check yes
  max neighbors/atom: 2000, page size: 100000
  master list distance cutoff = 3.8
  ghost atom cutoff = 3.8
  binsize = 1.9, bins = 9 9 9
  1 neighbor lists, perpetual/occasional/extra = 1 0 0
  (1) pair lj/cut, perpetual
      attributes: half, newton on
      pair build: half/bin/atomonly/newton
      stencil: half/bin/3d
      bin: standard
WARNING: Not all mixed pair coeffs generated from mixing. Use write_data with 'pair ij' option to store all pair coeffs. (../write_data.cpp:312)


#############################
#   M E L T   S Y S T E M   #
#############################

velocity all create 2.4 9622624 mom yes dist gaussian # Assign velocities
                                                    # Temperature 2.4, random number seed, zero linear momentum
                                                                                # Gaussian distribution

timestep 0.002   # simulation timestep
thermo 1000       # output thermodynamic data every 1000 steps bf 100

# Define a fix  in this case with index 1 applied to all
# particles in the simulation. This fix is for simulations
# in the anisotropic NPT ensemble. Note that we use the MTK
# correction.
fix 1 all npt temp 2.4 2.4 0.1 iso 5.68 5.68 0.5 mtk yes tchain 5 pchain 5 # Use NPT ensemble
                                                                         # Set temperature and pressure and damping
                                                                         # Numbers of thermostats in chain and in barostat
run 10000          # run for 10000 steps
Per MPI rank memory allocation (min/avg/max) = 3.642 | 3.644 | 3.648 Mbytes
Step Temp E_pair E_mol TotEng Press Volume 
       0          2.4   -3.1995671            0   0.39953293    -2.596694         4000 
    1000     2.454984   -2.2273171            0    1.4542382    5.5701002    4042.3002 
    2000    2.3917585   -2.2189891            0    1.3677517    5.8215327    3996.6494 
    3000    2.3737447   -2.2355087            0    1.3242183    5.6670671    4001.6091 
    4000    2.4047416    -2.256406            0    1.3498046    5.5205885    4026.6205 
    5000    2.4081211   -2.2142325            0    1.3970461    5.8276886    4003.6049 
    6000     2.436119   -2.2709885            0    1.3822764    5.6919505    3991.5206 
    7000    2.3977783   -2.2411389            0    1.3546294    5.6197123     4024.092 
    8000    2.3788185   -2.2681106            0    1.2992251    5.8413471    3966.3288 
    9000    2.4029483   -2.2817554            0     1.321766    5.4538499    4005.4069 
   10000    2.4176236   -2.2747311            0    1.3507976    5.4661255    4017.7537 
Loop time of 2.55601 on 48 procs for 10000 steps with 4000 atoms

Performance: 676052.717 tau/day, 3912.342 timesteps/s
99.6% CPU use with 48 MPI tasks x no OpenMP threads

MPI task timing breakdown:
Section |  min time  |  avg time  |  max time  |%varavg| %total
---------------------------------------------------------------
Pair    | 1.0844     | 1.1554     | 1.3474     |   4.5 | 45.21
Neigh   | 0.20586    | 0.21562    | 0.24238    |   1.6 |  8.44
Comm    | 0.74813    | 0.88827    | 1.0024     |   6.7 | 34.75
Output  | 0.00023851 | 0.00024536 | 0.00037882 |   0.0 |  0.01
Modify  | 0.20295    | 0.28151    | 0.36781    |  10.1 | 11.01
Other   |            | 0.01492    |            |       |  0.58

Nlocal:        83.3333 ave          90 max          74 min
Histogram: 1 2 2 8 2 8 10 4 7 4
Nghost:        1632.98 ave        1666 max        1606 min
Histogram: 4 3 7 8 6 7 4 2 5 2
Neighs:        9503.04 ave       10746 max        8178 min
Histogram: 2 3 2 8 6 10 9 3 4 1

Total # of neighbors = 456146
Ave neighs/atom = 114.03650
Neighbor list builds = 909
Dangerous builds = 215

# Equilibrate just above the melting temperature to avoid step fn in T

fix 1 all npt temp 1.25 1.25 0.1 iso 5.68 5.68 0.5 mtk yes tchain 5 pchain 5
run 2000
Per MPI rank memory allocation (min/avg/max) = 3.643 | 3.645 | 3.649 Mbytes
Step Temp E_pair E_mol TotEng Press Volume 
   10000    2.4176236   -2.2747311            0    1.3507976    5.4661255    4017.7537 
   11000    1.2783822   -3.3649499            0   -1.4478561    5.6611584     3101.583 
   12000     1.245909   -3.3787801            0   -1.5103838    5.7226375    3084.3178 
Loop time of 0.607151 on 48 procs for 2000 steps with 4000 atoms

Performance: 569215.748 tau/day, 3294.073 timesteps/s
99.7% CPU use with 48 MPI tasks x no OpenMP threads

MPI task timing breakdown:
Section |  min time  |  avg time  |  max time  |%varavg| %total
---------------------------------------------------------------
Pair    | 0.27286    | 0.29183    | 0.31376    |   1.8 | 48.07
Neigh   | 0.039414   | 0.041289   | 0.046301   |   0.6 |  6.80
Comm    | 0.19944    | 0.22452    | 0.24488    |   2.2 | 36.98
Output  | 4.9227e-05 | 5.0756e-05 | 6.4281e-05 |   0.0 |  0.01
Modify  | 0.04112    | 0.044738   | 0.048345   |   1.0 |  7.37
Other   |            | 0.004717   |            |       |  0.78

Nlocal:        83.3333 ave          91 max          75 min
Histogram: 1 3 2 7 6 11 9 5 3 1
Nghost:        1961.52 ave        1986 max        1936 min
Histogram: 1 2 6 5 9 7 8 5 3 2
Neighs:        12400.8 ave       13825 max       10581 min
Histogram: 1 1 3 2 9 10 11 7 3 1

Total # of neighbors = 595240
Ave neighs/atom = 148.81000
Neighbor list builds = 143
Dangerous builds = 15

#############################
# L I N E A R  Q U E N C H  #
#############################

# Define solid atoms. This closely follows ten Wolde  Ruiz-Montero and Frenkel  Faraday Discuss  1996  104  93-110
# Compute components of the per-atom q6 vector
compute q6 all orientorder/atom degrees 1 6 components 6 nnn NULL cutoff 1.3 # compute the Q6 parameter.
                                                                             # Use all neighbours within 1.3 unit cell.

# get number of connections
compute coord_number all coord/atom orientorder q6 0.5

# An atom is solid if it has 8 or more connections (of a possible 14)
variable is_solid atom c_coord_number>=8
group solid dynamic all var is_solid    # Must be dynamic to update
dynamic group solid defined

# do clustering
compute cluster solid cluster/atom 1.3 # Create a cluster where all atoms within are solid and max 1.3 units from another member

# define chunks one chunk per cluster
compute clus_chunks solid chunk/atom c_cluster nchunk every compress yes  # Says which atoms are in which chunk

# count the size of each chunk
compute size_chunks solid property/chunk clus_chunks count


# Find the maximum entry in the vector of chunk sizes
variable max_n equal max(c_size_chunks)


# Thermo style which includes this variable
# thermo_style custom step temp pe vol v_max_n

thermo ${N}  # Print the thermo information every 100 steps
thermo 1000  

# Reset the npt fix at a lower temperature (below freezing)
fix 1  all npt temp  ${temp} ${temp}  0.1  iso  5.68  5.68  0.5  mtk yes tchain  5  pchain  5
fix 1  all npt temp  0.45 ${temp}  0.1  iso  5.68  5.68  0.5  mtk yes tchain  5  pchain  5
fix 1  all npt temp  0.45 0.45  0.1  iso  5.68  5.68  0.5  mtk yes tchain  5  pchain  5

dump dmp2 all dcd ${N} traj.dcd
dump dmp2 all dcd 1000 traj.dcd


compute msd all msd com yes
variable twopoint equal c_msd[4]/6/(step*dt+1.0e-6)
fix 9 all vector 10 c_msd[4]
variable fit equal slope(f_9)/6/(10*dt)
thermo_style custom step temp pe c_msd[4] v_twopoint v_fit v_max_n

fix 1 all npt temp 1.25 ${temp} 0.1 iso 5.68 5.68 0.5 mtk yes tchain 5 pchain 5
fix 1 all npt temp 1.25 0.45 0.1 iso 5.68 5.68 0.5 mtk yes tchain 5 pchain 5
run 500000 # 5000000  # Run for this many steps
Neighbor list info ...
  update every 1 steps, delay 10 steps, check yes
  max neighbors/atom: 2000, page size: 100000
  master list distance cutoff = 3.8
  ghost atom cutoff = 3.8
  binsize = 1.9, bins = 8 8 8
  4 neighbor lists, perpetual/occasional/extra = 1 3 0
  (1) pair lj/cut, perpetual
      attributes: half, newton on
      pair build: half/bin/atomonly/newton
      stencil: half/bin/3d
      bin: standard
  (2) compute orientorder/atom, occasional
      attributes: full, newton on
      pair build: full/bin/atomonly
      stencil: full/bin/3d
      bin: standard
  (3) compute coord/atom, occasional
      attributes: full, newton on
      pair build: full/bin/atomonly
      stencil: full/bin/3d
      bin: standard
  (4) compute cluster/atom, occasional
      attributes: full, newton on
      pair build: full/bin/atomonly
      stencil: full/bin/3d
      bin: standard
Per MPI rank memory allocation (min/avg/max) = 9.822 | 9.830 | 9.834 Mbytes
Step Temp PotEng c_msd[4] v_twopoint v_fit v_max_n 
   12000     1.245909   -3.3787801 1.8768973e-30 1.3034009e-32 8.3333333e+20            1 
   13000    1.2727917   -3.3671584    1.0066758 0.0064530497  0.085522442            4 
   14000     1.251781   -3.3653575    2.0878631  0.012427756  0.088471864            1 
   15000    1.2484974   -3.3572132    3.2189999  0.017883332  0.090579942            2 
   16000    1.2243169   -3.3632427    4.3173238  0.022486061  0.091723966            1 
   17000    1.2161378   -3.3272216     5.377269  0.026359161  0.091464964            1 
   18000    1.2263685   -3.3763084    6.4004054  0.029631506  0.090567295            2 
   19000    1.2154469    -3.387029    7.4296511  0.032586188  0.089998434            1 
   20000    1.2376343   -3.3725258     8.382879  0.034928661  0.089083784            3 
   21000    1.2310637   -3.3672254    9.4357963  0.037443635  0.088216857            1 
   22000    1.2277194   -3.3989501    10.478471  0.039691176  0.087619017            1 
   23000    1.2518613   -3.3535186    11.471041  0.041561742   0.08721029            1 
   24000    1.2146534    -3.353398    12.594461  0.043730765  0.086987843            2 
   25000    1.2256555   -3.3900109    13.674683  0.045582275  0.087011694            2 
   26000    1.2182691   -3.4168385    14.711849   0.04715336   0.08717315            2 
   27000    1.2253045   -3.3981739    15.927605  0.049159274  0.087450728            3 
   28000    1.2152087   -3.3635126    17.083767  0.050844544  0.087847384            2 
   29000    1.2341862   -3.3994424    18.285698  0.052545109  0.088223472            1 
   30000    1.1722796   -3.3570273    19.288503  0.053579175  0.088534787            3 
   31000    1.2295761   -3.4197762    20.343237   0.05468612  0.088719182            2 
   32000    1.2168368   -3.4231498    21.462066  0.055890795  0.088963248            1 
   33000     1.213497   -3.3617932    22.694528  0.057309412   0.08931625            2 
   34000    1.2051485   -3.4223414    23.739288  0.058184528  0.089620886            2 
   35000    1.1978772   -3.4290396    24.714135  0.058843178  0.089777782            2 
   36000    1.2057172   -3.4064956    25.819795  0.059768044  0.089782588            1 
   37000    1.2179692   -3.4060287    26.675568  0.060080107    0.0897488            2 
   38000    1.2508313   -3.4317637    27.558863  0.060436103  0.089546135            3 
   39000     1.201519    -3.404289    28.520194  0.060940585   0.08932948            2 
   40000    1.2046106   -3.3930228    29.526908  0.061514391  0.089085926            3 
   41000    1.2209485   -3.4576458     30.08379  0.061145915  0.088767505            2 
   42000    1.1983127   -3.4152366    31.282118  0.062067693  0.088450505            1 
   43000    1.2161037   -3.4379221    32.224054  0.062449716  0.088159845            1 
   44000    1.1998644   -3.4369484    33.180613   0.06284207  0.087869632            4 
   45000    1.1927965   -3.4280235    34.179404  0.063295191  0.087599768            2 
   46000    1.1978212   -3.4417104    35.185724  0.063742254  0.087273926            3 
   47000    1.1990972   -3.4050345    36.004031  0.063836933  0.086956848            2 
   48000    1.2199049    -3.394954    37.175354  0.064540544  0.086672352            3 
   49000    1.1408405   -3.4403716    37.857573  0.064383628  0.086424454            2 
   50000    1.1589245   -3.4310723    38.977526  0.064962543  0.086152734            3 
   51000    1.1984095   -3.4156623    40.067867  0.065470371  0.085949425            1 
   52000    1.1946552   -3.4541084    41.090616  0.065850346  0.085812125            2 
   53000    1.1911988   -3.4436104     42.08577  0.066172594  0.085676131            3 
   54000    1.2101154   -3.4409286     43.04122  0.066421635  0.085533721            3 
   55000    1.1637751   -3.4371729    44.117756  0.066845083  0.085380356            6 
   56000     1.167041   -3.4256732    44.770045   0.06662209  0.085226068            2 
   57000    1.1863441   -3.4290778    45.734796  0.066863737  0.085077853            3 
   58000    1.1854729   -3.4717057    46.441732  0.066726627  0.084900356            2 
   59000     1.187775   -3.4682048    47.358174  0.066890076  0.084694441            4 
   60000    1.1511997   -3.4385479    48.525536  0.067396577  0.084508485           11 
   61000    1.1893568   -3.4599539    49.355072  0.067424962  0.084344237            2 
   62000    1.1732078   -3.4541686    50.439995  0.067795692  0.084205068            2 
   63000    1.1474167   -3.4355761    51.378697  0.067961239  0.084059453            3 
   64000    1.1630458   -3.4697238     52.40086  0.068230285  0.083913216            3 
   65000    1.2004892   -3.4709015    52.994145   0.06794121  0.083755922            3 
   66000    1.1581504   -3.4485978    53.831961  0.067969648  0.083583018            1 
   67000    1.1640336   -3.4534188    54.900282  0.068283932  0.083397548            2 
   68000    1.1564508   -3.4607315    55.654694  0.068204281  0.083213438            2 
   69000     1.156699    -3.509332    56.157785  0.067823411  0.082987007            3 
   70000    1.1612206   -3.5051614    56.944875  0.067791518  0.082784757            3 
   71000    1.1583619   -3.4882622    58.124779  0.068221571  0.082573286            2 
   72000    1.1496098    -3.477536    58.720025  0.067962992  0.082367932            2 
   73000    1.1897859   -3.4560855    59.955509  0.068442362   0.08217405            1 
   74000    1.1437903   -3.5035544     60.69518  0.068350428  0.081971595            1 
   75000    1.1506015   -3.4797641    61.398364  0.068220404  0.081772761            3 
   76000     1.152269   -3.4928346     62.51551  0.068547708  0.081608966            6 
   77000    1.1558667   -3.4605014    63.449672  0.068668476  0.081426612            1 
   78000    1.1594242   -3.5100028    63.802055  0.068164588  0.081251703            4 
   79000    1.1567341   -3.4906573    65.077134  0.068646766  0.081067122            2 
   80000    1.1319184   -3.4885837     66.01533  0.068765969  0.080902035            4 
   81000    1.1672719   -3.5226627    67.165724  0.069100539   0.08075497            1 
   82000    1.1504377   -3.5216046    67.791313  0.068893611  0.080616891            2 
   83000    1.1472014    -3.480611    68.801516  0.069077827  0.080477271            1 
   84000    1.1215364   -3.5143285    69.281937   0.06873208  0.080323475            4 
   85000    1.1364538   -3.4971964    70.104244   0.06872965  0.080170631            4 
   86000    1.1306503   -3.5295873    71.117168  0.068911984  0.080021857            2 
   87000    1.1210056     -3.50297    71.927408  0.068895984   0.07986948            6 
   88000    1.1206051   -3.5051848    72.653823  0.068800968   0.07971356            2 
   89000    1.1312425   -3.5076771    73.396203  0.068723037  0.079551493            2 
   90000    1.1436827   -3.4970409    74.646422  0.069117057  0.079396298            5 
   91000    1.1137947   -3.5213198    75.464878  0.069107031  0.079230717            3 
   92000    1.1189754   -3.5473453    75.419926   0.06831515  0.079049834            5 
   93000    1.1042651    -3.500604    76.949181  0.068950879  0.078884042            2 
   94000    1.1179157   -3.5296114    77.297938   0.06852654  0.078714274            3 
   95000    1.1189935   -3.5150161    77.843168  0.068283481  0.078530411            5 
   96000    1.1131004   -3.5592843    78.537681   0.06817507  0.078342068            3 
   97000    1.1000472    -3.559796    79.656371  0.068433308  0.078167069            3 
   98000    1.1188768   -3.5293624    80.383279  0.068353128  0.077994927            2 
   99000    1.1029613   -3.5364878    81.101143  0.068266955  0.077835826            2 
  100000    1.1083264    -3.520944    82.364672  0.068637227  0.077679956            2 
  101000    1.1065679   -3.5563889     82.65772  0.068199439  0.077527386            2 
  102000    1.1407893    -3.550544    83.659077  0.068348919  0.077368335            1 
  103000    1.1024957   -3.5601452    84.442947  0.068319536  0.077210793            3 
  104000    1.0999456   -3.5461505    85.302995  0.068351758  0.077076008            2 
  105000    1.1123817   -3.5392856    86.873392  0.068947136  0.076954989            3 
  106000    1.0991876   -3.5781416    87.328264  0.068654295  0.076837198            2 
  107000     1.102844   -3.5831988    87.634852  0.068251442  0.076712983            3 
  108000     1.066994    -3.574267    88.648919  0.068401944  0.076583763            1 
  109000    1.0785555   -3.5882397    89.753931  0.068619213  0.076460114            3 
  110000    1.1177239   -3.5709366    90.797351  0.068785871  0.076345914            2 
  111000    1.0812181   -3.5410446    91.806041  0.068923454  0.076246416            2 
  112000    1.0732535   -3.5474128    92.589159  0.068890743  0.076144415            3 
  113000    1.0745036   -3.5709475     93.19162  0.068725383  0.076033372            3 
  114000    1.0919779   -3.5532263    94.091307  0.068780195  0.075942629            2 
  115000    1.0859726   -3.5886261    95.133229  0.068937122  0.075865817            3 
  116000    1.0718442   -3.6047863     96.10828  0.069043304  0.075779144            5 
  117000    1.0553735   -3.5679317    96.756983   0.06891523  0.075708033            4 
  118000    1.0933124   -3.5701741    98.174309  0.069332139  0.075637874            3 
  119000    1.0930049   -3.6126151    98.504269   0.06898058  0.075567613            1 
  120000    1.0753996   -3.5934096    99.181901   0.06887632  0.075496056            3 
  121000    1.0739113   -3.6028612    100.47734  0.069199266  0.075423844            2 
  122000     1.055357   -3.6007114    101.00835  0.068994773  0.075355141            3 
  123000    1.0536924   -3.5994526    101.48601  0.068757461  0.075280884            5 
  124000    1.0662306   -3.6089979    101.99562  0.068545444  0.075195555            2 
  125000    1.0877326   -3.5986536    103.06972  0.068713144  0.075099126            1 
  126000    1.0375883   -3.6340449    103.10918    0.0681939  0.074998652            4 
  127000    1.0629953   -3.6003771    103.84334  0.068138672  0.074890266            3 
  128000    1.0516602   -3.6245276    105.28032  0.068541872  0.074782095            2 
  129000     1.042635   -3.6077993    105.78414  0.068336005  0.074680471            1 
  130000    1.0399921   -3.5914752    106.70223  0.068398866  0.074577872            4 
  131000    1.0659812   -3.6333326    107.21477  0.068202782  0.074476145            1 
  132000     1.057203   -3.6330027    108.13824  0.068269091  0.074372363            2 
  133000    1.0832074   -3.5859966      108.635  0.068067041  0.074275526            2 
  134000    1.0477328   -3.6544166     109.2068  0.067914675  0.074176393            4 
  135000     1.039712   -3.6352069    110.09145  0.067957685  0.074065707            2 
  136000    1.0746393   -3.6512037    110.50506  0.067711434  0.073955786            2 
  137000    1.0682823   -3.6126935    111.54582  0.067850258  0.073838659            6 
  138000    1.0504204   -3.6216118    111.77377  0.067496237  0.073716404            2 
  139000    1.0388279   -3.6353024    112.88505  0.067676888  0.073599468            3 
  140000    1.0474874   -3.6191359     113.2989  0.067439823  0.073477287            3 
  141000     1.060619   -3.6162586    113.76006  0.067234078  0.073351747            3 
  142000     1.033021   -3.6326341    114.35635  0.067110533  0.073226544            5 
  143000    1.0277539   -3.6418606    115.41935  0.067260693  0.073110381            7 
  144000    1.0290555   -3.5972509    116.37479  0.067346523  0.072994757            3 
  145000    1.0493231   -3.6299337    116.46125  0.066931751  0.072875881            1 
  146000     1.019974   -3.6417678    117.25999   0.06692922  0.072752438            4 
  147000     1.027454   -3.6444302    117.75789  0.066756173  0.072630977            4 
  148000    1.0264585   -3.6296863    119.13794  0.067082176   0.07251269            2 
  149000    1.0133644   -3.6655641    119.84501  0.067027408  0.072393527            5 
  150000    1.0454799   -3.6621331    120.58664  0.066992579  0.072280573            2 
  151000    1.0120141   -3.7041965    120.77228  0.066651367  0.072163482            5 
  152000    1.0352478   -3.6652865    121.68092  0.066711033  0.072047566            2 
  153000   0.98980066   -3.6515933    122.54192  0.066743967  0.071932658            3 
  154000    1.0363386   -3.6786381    123.15998   0.06664501  0.071818809            3 
  155000    1.0356679   -3.6947171    123.01516  0.066137185  0.071700558            3 
  156000    1.0085404   -3.6724196    124.15797  0.066323702  0.071585342            1 
  157000    1.0119283   -3.7015269    124.86615  0.066277147  0.071473608            3 
  158000    1.0084647   -3.6849412    125.98038  0.066445347  0.071357967            3 
  159000    1.0107672   -3.6733075    126.24289  0.066165035  0.071242916            3 
  160000    1.0318703   -3.6497916     127.5823  0.066449115  0.071129425            2 
  161000   0.99349649   -3.6826688    127.37705  0.065930148  0.071009006            2 
  162000    1.0229044   -3.6504863    127.54929  0.065611775   0.07088039            2 
  163000    1.0195229   -3.6964869    128.19795  0.065540872   0.07075222            2 
  164000    1.0084736   -3.6972603    128.95677  0.065526816  0.070623128            2 
  165000    1.0113796   -3.7143902    128.75464  0.065027594  0.070487611            4 
  166000    1.0289915   -3.6733492    129.84205  0.065181754  0.070357972            2 
  167000    0.9960681   -3.7176151    130.42324  0.065081459  0.070225274            4 
  168000   0.99573047   -3.6806842     131.6952     0.065325  0.070101871            3 
  169000   0.98191587   -3.7326506    131.93582  0.065057111  0.069979759            2 
  170000   0.99332425   -3.7112545    133.08812  0.065239276  0.069856358            1 
  171000    1.0029677   -3.7285929    133.11577  0.064871234  0.069735501            2 
  172000    1.0028585   -3.6970941    134.12215  0.064981663  0.069612104            4 
  173000    1.0075321   -3.7300854    134.34346   0.06471265  0.069489077            4 
  174000   0.98271595    -3.690293    135.09003  0.064698289  0.069362269            2 
  175000   0.99652539   -3.6928321    135.91044  0.064719258  0.069236898            2 
  176000   0.97983142   -3.7632261    135.46659  0.064141379  0.069106672            4 
  177000    1.0143357   -3.7184467    136.39153  0.064214466  0.068973408            3 
  178000   0.99803211   -3.7331108    136.84089  0.064064087  0.068841286            3 
  179000    1.0034857   -3.7391232    137.01663  0.063788004  0.068706231            2 
  180000   0.96370702   -3.7200736    137.31089  0.063569857   0.06856705            2 
  181000   0.98035639   -3.7910096    137.59905   0.06335131  0.068423604            3 
  182000   0.98191486   -3.7555686    138.11661  0.063240205  0.068278198            1 
  183000   0.97870569   -3.7359633    138.50176  0.063070017  0.068135662            2 
  184000   0.97329055   -3.7366309     138.8849  0.062900768   0.06799171            2 
  185000    0.9708211   -3.7159163    140.30522  0.063200549  0.067847122            3 
  186000   0.99270184    -3.766136    141.00198   0.06317293   0.06770614            8 
  187000    0.9788425   -3.7096102    141.81034  0.063195336  0.067571087            7 
  188000   0.95456402   -3.7566055    142.45009  0.063142771  0.067440452            7 
  189000    0.9690581   -3.7434207    143.35028  0.063205589  0.067308372            4 
  190000   0.97597536   -3.7839976    143.30808  0.062854422  0.067178247            2 
  191000    0.9737136   -3.7247017    144.32393  0.062968558  0.067052355            3 
  192000   0.96924071   -3.7725498     144.6422  0.062778734  0.066927965            1 
  193000   0.97497957   -3.7558431    145.69687  0.062908839  0.066804074            6 
  194000   0.96035344   -3.7607033    146.00868  0.062718506  0.066681206            3 
  195000   0.96272754   -3.7831581    146.61104  0.062654289  0.066555346            3 
  196000   0.93889648   -3.7663482    146.57882  0.062320927  0.066427795            2 
  197000   0.95013432   -3.8031835    147.10002  0.062225049  0.066294902            3 
  198000   0.94847932   -3.7869765    147.43081  0.062050004  0.066166269            3 
  199000   0.92798795   -3.7667605     148.0643  0.062003477  0.066038234            3 
  200000   0.97619291   -3.7596067    148.39315  0.061830479  0.065909453            3 
  201000   0.94179902   -3.8114934    148.26658  0.061470389  0.065775169            2 
  202000    0.9468508   -3.8015254    149.86804   0.06182675  0.065646093            1 
  203000   0.94734447   -3.8024852    151.09361   0.06202529  0.065521449            2 
  204000   0.93449003   -3.7967075    150.89027   0.06163818  0.065397825            4 
  205000   0.94146409   -3.7965932    150.87167  0.061329947  0.065272899            2 
  206000   0.93776195   -3.7979318    152.05217  0.061509776  0.065148383            5 
  207000   0.96263189   -3.7989143    152.42063   0.06136096  0.065022773            3 
  208000   0.93136364   -3.7975953    152.40298  0.061058888  0.064896576            3 
  209000   0.95094229   -3.8134736    153.77985  0.061315731  0.064775343            2 
  210000   0.92222999   -3.8280874    153.53285  0.060925734  0.064654409            3 
  211000   0.93309781   -3.7925602    155.21963  0.061303172  0.064536267            3 
  212000   0.92875325    -3.788143    156.30791   0.06144179  0.064424685            4 
  213000   0.92828828    -3.811965    157.27662  0.061532324  0.064316078            4 
  214000   0.94548788    -3.815589    157.99367  0.061524014  0.064208757            4 
  215000   0.92179752   -3.8173737    157.58056  0.061077738  0.064101332            7 
  216000   0.91908531   -3.8228663    157.34226  0.060703034   0.06399331            2 
  217000   0.92995583   -3.8473726    158.36949  0.060817775   0.06388365            4 
  218000   0.91704721   -3.8122653    158.75252  0.060685213   0.06377416            6 
  219000   0.89197656   -3.8387752    159.99359  0.060880363  0.063665952            3 
  220000   0.90833955   -3.8084219    160.12974  0.060655203  0.063557068            3 
  221000   0.91588892   -3.8300303    160.74357  0.060612205  0.063448563            3 
  222000   0.92456589   -3.8411495    160.78582  0.060355036   0.06334029            2 
  223000    0.9220097   -3.8274923     161.6779  0.060417749  0.063230828            4 
  224000   0.89897325   -3.8116197    161.86342  0.060217044   0.06312113            5 
  225000   0.89878051   -3.8314981    162.40331  0.060149374  0.063011909           10 
  226000   0.90319951     -3.84504    162.59601   0.05995428  0.062902133            2 
  227000   0.91685496   -3.8469017    163.42356  0.059993966  0.062794178            2 
  228000   0.89067631   -3.8476386     164.2197  0.060021822  0.062683947            2 
  229000   0.89436471   -3.8658947    163.91672  0.059649462  0.062572971            2 
  230000   0.86995191   -3.8444536    165.09525  0.059817118  0.062461244            5 
  231000   0.90622713   -3.8464301    165.65523  0.059760184  0.062352602            2 
  232000   0.89515524    -3.862488    165.82487   0.05956353  0.062243439            3 
  233000    0.8799454   -3.8611331    166.35839  0.059498709  0.062137916            5 
  234000   0.89736572    -3.869679    166.55209  0.059313421  0.062029351            2 
  235000   0.88170957   -3.8665794    166.54755  0.059059415  0.061918831            2 
  236000    0.8822543   -3.8744882    167.07681   0.05899605  0.061805041            3 
  237000   0.88020057   -3.8800414    167.42147  0.058868308  0.061691048            4 
  238000   0.86759045   -3.8695328    167.40873  0.058616501  0.061574875            3 
  239000   0.89379805   -3.8917121    167.67509  0.058464116  0.061456746            4 
  240000   0.88557142   -3.8925634    168.89139  0.058642844  0.061341008            3 
  241000    0.9014538   -3.8873148    169.78715  0.058709249   0.06122681            2 
  242000   0.88641284   -3.8931711     169.6095  0.058405476  0.061113044            3 
  243000   0.87014079   -3.8744326    171.17683  0.058702616  0.061001234            2 
  244000    0.8844877   -3.9043397    170.64059  0.058278889  0.060892212            6 
  245000   0.87956581   -3.9139836    170.80648  0.058097441  0.060781856            4 
  246000    0.8555766   -3.9193506    171.32582  0.058037201  0.060668583            4 
  247000   0.87469568    -3.937303    171.70691  0.057930807  0.060554938            6 
  248000   0.86546613   -3.9070857     172.8655  0.058086526  0.060441164            7 
  249000   0.86537332   -3.8665427    173.02104  0.057905301  0.060329373            8 
  250000   0.84346836   -3.9406732    173.26948  0.057756495  0.060216855            4 
  251000   0.86626135   -3.8939412    173.63763  0.057648614  0.060101086            4 
  252000   0.85979076   -3.9292407    172.92122  0.057182942  0.059984297            2 
  253000   0.86264851   -3.9346486    173.84876  0.057262436  0.059867938            6 
  254000   0.87577359   -3.9350605    174.23186  0.057162684  0.059752279            5 
  255000   0.85427726    -3.953281    174.33667  0.056972767  0.059635195            5 
  256000   0.83954673   -3.9180645    174.77331  0.056892355  0.059518718            5 
  257000   0.84794579   -3.9304274    175.62387   0.05694678  0.059401171            3 
  258000   0.85268029   -3.9303409    175.35075  0.056637839  0.059286061            2 
  259000    0.8620608   -3.9335907    175.89823  0.056595311  0.059169669            7 
  260000   0.85371621   -3.9472503    176.47337  0.056561977  0.059055097            6 
  261000   0.86236288    -3.941409    177.22524  0.056585326  0.058940292            3 
  262000   0.85459404   -3.9623145    177.86445  0.056572662  0.058825776            2 
  263000    0.8313755   -3.9529524    178.17034  0.056454479  0.058714939            4 
  264000   0.86143359   -3.9528712    178.72571  0.056415944  0.058603078            7 
  265000   0.83771389   -3.9434958    179.25438  0.056369303   0.05849124            4 
  266000   0.84450898   -3.9730826    179.93534   0.05637072   0.05838202            3 
  267000   0.84848151   -3.9428859    180.72949  0.056407455  0.058274884            8 
  268000   0.82490981   -3.9603064     180.9584  0.056268158  0.058168725            4 
  269000   0.84772087   -3.9474057    181.89405  0.056348838  0.058063095            7 
  270000   0.82121371   -3.9697839    181.46902  0.056008958  0.057957415            3 
  271000    0.8281958   -3.9608496     182.2333    0.0560373  0.057853486            5 
  272000   0.82877242   -3.9820144    182.58198  0.055938105  0.057750219            2 
  273000   0.82196642   -3.9626122    183.20932    0.0559247  0.057647321           10 
  274000   0.83028056   -3.9649104    184.03658  0.055972196  0.057544509            4 
  275000   0.82319209   -3.9776281    183.64593  0.055650282  0.057442156            3 
  276000    0.8228755   -4.0018479    185.01271  0.055861326  0.057340033            2 
  277000   0.82223872   -3.9848378    184.31432  0.055449556  0.057238528            4 
  278000   0.79984453   -4.0018057    184.61058  0.055338902    0.0571353            3 
  279000   0.83024186   -3.9844146    184.95209  0.055242559  0.057030881           10 
  280000   0.82673609   -3.9921111    185.47542  0.055201019  0.056924972            4 
  281000   0.82179257   -4.0032648    185.81185  0.055104345  0.056821463           10 
  282000    0.8155944   -4.0086201    186.14921  0.055008632  0.056717065            1 
  283000   0.80045082   -4.0201168    186.32455  0.054865887  0.056610944            3 
  284000   0.82056317   -4.0115559    186.14945  0.054621316  0.056504135            4 
  285000   0.80270273    -4.013924    186.90287  0.054649961  0.056397803            4 
  286000   0.79470135   -4.0280153    186.98476  0.054482738   0.05629203            3 
  287000   0.79680111    -4.020767    187.46093  0.054431165  0.056185542            6 
  288000   0.80657723   -3.9994781    188.25192  0.054471041  0.056079631            3 
  289000   0.80997769   -4.0441942    188.30348  0.054297428  0.055974206           11 
  290000   0.81306259   -4.0258279    188.34167  0.054121169  0.055868259            4 
  291000   0.80397569   -4.0352666    188.49316  0.053978567  0.055762551            5 
  292000   0.77935181   -4.0026854    190.09789  0.054251681  0.055657968            8 
  293000   0.79033175   -4.0258091    189.57398  0.053917514  0.055553222            2 
  294000   0.79159278   -4.0189477    189.53702  0.053723645  0.055450261            3 
  295000   0.80058076   -4.0464667    189.85038  0.053630052   0.05534404            3 
  296000   0.79434701   -4.0371022    190.11423  0.053523151  0.055236957            5 
  297000   0.78762154   -4.0377321    190.57642  0.053472619    0.0551295            4 
  298000   0.80431106   -4.0342292    190.69426  0.053326136  0.055021755            3 
  299000   0.78717038   -4.0350764    190.91582  0.053209536  0.054915756            5 
  300000   0.78976259    -4.025501    190.99712  0.053054754  0.054810389            4 
  301000   0.77926558   -4.0421422    191.43171  0.052998812  0.054704478            6 
  302000   0.80218664   -4.0615269    191.84356  0.052936965  0.054600094            5 
  303000   0.76895607   -4.0584221     192.6349  0.052979896  0.054495638            7 
  304000   0.77836895   -4.0531006     192.8414  0.052862225  0.054391179            2 
  305000   0.79997079   -4.0614723    193.30286  0.052814988  0.054286875            6 
  306000   0.77704713   -4.0621787    192.62509  0.052457812  0.054183206            2 
  307000   0.76728735   -4.0788846    193.78149  0.052600839  0.054077504            2 
  308000   0.77789328   -4.0803836    193.73911  0.052418591  0.053972231            4 
  309000   0.75795333   -4.0617604     193.6443  0.052223381  0.053867618            6 
  310000   0.78530847   -4.0739672    194.50412  0.052286055  0.053762492            7 
  311000   0.76797229   -4.0602851    195.30928  0.052333676  0.053658638            4 
  312000   0.76954198   -4.0614173    195.24946  0.052149962  0.053553244            5 
  313000   0.75774415   -4.0732901    194.91296   0.05189376  0.053445905            5 
  314000   0.77568296   -4.0959423    194.94597  0.051737252  0.053337449           11 
  315000   0.76375719   -4.0866028     194.8781  0.051555053  0.053228646            4 
  316000   0.77679782     -4.11604     195.0038  0.051425053  0.053119235            6 
  317000   0.75787591   -4.1315062    194.75775  0.051198148  0.053009125            6 
  318000   0.76566441   -4.1076636    195.25875  0.051168436  0.052899222            5 
  319000   0.74265253   -4.0785979    196.00422  0.051202774  0.052789246            5 
  320000   0.75873555   -4.0963184    195.91478  0.051019474  0.052678597            5 
  321000   0.75650226   -4.1268718    196.05526  0.050897004  0.052568942            4 
  322000    0.7527751   -4.1080337    196.40385  0.050829153  0.052458404            3 
  323000    0.7411292   -4.1359223    196.41797  0.050675432  0.052347808            8 
  324000    0.7579591   -4.1108032    196.87507  0.050636591  0.052236652            3 
  325000   0.75374062   -4.0988241    196.49242  0.050382671  0.052125643            7 
  326000   0.74462241   -4.1194795    196.78551  0.050303045  0.052014561            5 
  327000   0.71777872   -4.1184454    197.13067  0.050237173  0.051903631            6 
  328000   0.74560216    -4.134623    197.71085  0.050231416  0.051791513            4 
  329000   0.73062434   -4.1539391     197.5597  0.050040452  0.051680077            6 
  330000   0.74799813   -4.1200755     198.2484  0.050062728  0.051569625            4 
  331000   0.73767202   -4.1368388    198.63277   0.05000825  0.051459923            4 
  332000   0.72920282   -4.1253298    199.01727  0.049954134  0.051350666           11 
  333000   0.74366307    -4.166966    198.51757  0.049679073  0.051241624            3 
  334000   0.73933731   -4.1477835    198.80663  0.049602452  0.051131559            5 
  335000   0.74427215   -4.1334842    199.63824  0.049661254   0.05102206            4 
  336000   0.72582885   -4.1507961    199.11334   0.04938327  0.050911086            8 
  337000   0.72576104   -4.1620658    199.19242  0.049256287  0.050799885            6 
  338000   0.72261879   -4.1685112    199.27932  0.049131982  0.050690555            4 
  339000   0.70776791   -4.1467447    199.81548  0.049118849  0.050581172            3 
  340000    0.7277228   -4.1526845    200.48667   0.04913889  0.050472845            3 
  341000   0.71884962   -4.1737848    200.00083  0.048876057  0.050363973            3 
  342000   0.71045068   -4.1804513    200.39653  0.048829564  0.050256034            9 
  343000   0.72079575   -4.1539428    200.78007  0.048780386  0.050147821           10 
  344000   0.70364071   -4.1829708     200.8709  0.048660585  0.050041027            4 
  345000   0.71065221   -4.1602873     201.0707  0.048567801  0.049933707            5 
  346000   0.72821229   -4.1859311     200.8822  0.048382034  0.049824709           12 
  347000   0.71153365    -4.176939    201.48718  0.048387892  0.049716786            5 
  348000   0.70738673   -4.1908778    201.00542  0.048133483  0.049608242            3 
  349000   0.70361357   -4.2114945    202.44942  0.048340358  0.049501293           16 
  350000   0.70624437   -4.2116194    202.16904  0.048135485  0.049394415            9 
  351000   0.72389414   -4.1880673    201.81841  0.047915103  0.049288055            6 
  352000    0.6993587   -4.1980269    202.88873  0.048032371  0.049182055           13 
  353000    0.7018206   -4.1990468    203.26393  0.047984875  0.049077373            6 
  354000   0.69529893   -4.2080893    203.56066  0.047919176  0.048970978           14 
  355000   0.70235491    -4.207307    204.06551  0.047902703  0.048865269            4 
  356000   0.70902379   -4.2234845    203.13843   0.04755113  0.048759374            8 
  357000   0.71022791   -4.1969865    203.98038  0.047614467   0.04865361            5 
  358000   0.71359865    -4.205746    203.70724  0.047417887  0.048547466           11 
  359000   0.68518221   -4.1775228    204.49004  0.047467512  0.048442299            7 
  360000   0.69774365   -4.2177163    203.97321  0.047216021  0.048336585           10 
  361000   0.70543518   -4.2164668    204.07561  0.047108867    0.0482296            9 
  362000   0.68014214   -4.2180701    204.17546  0.047001717  0.048123088            6 
  363000   0.68182315   -4.2156724    204.52442  0.046952345  0.048017106            7 
  364000   0.67132587    -4.210588    204.79745  0.046885862  0.047911409            6 
  365000   0.66016453   -4.2422422    204.72158  0.046740086  0.047805085            8 
  366000   0.68298096   -4.2375594    204.92511  0.046658722  0.047698061            5 
  367000    0.6875603   -4.2044096    205.43254  0.046646808  0.047593584            6 
  368000   0.67671996    -4.229911     205.0309  0.046429098  0.047488125            6 
  369000   0.68878381   -4.2295068    205.12766  0.046325126  0.047381061           10 
  370000   0.67557698   -4.2345219    205.40295  0.046261925  0.047275311           11 
  371000   0.67291777   -4.2531276    205.49109  0.046157027  0.047169665           18 
  372000    0.6650034   -4.2761953    204.63968  0.045842222  0.047062906           12 
  373000   0.68412721   -4.2315705    205.60029  0.045933935  0.046956439           10 
  374000   0.66960093   -4.2614616    205.44698  0.045776956  0.046849895           11 
  375000   0.67058504   -4.2629974    205.61663  0.045692585    0.0467434            9 
  376000   0.68349282   -4.2675241    205.70531  0.045590716  0.046638258            4 
  377000   0.66693305   -4.2942511    206.02053  0.045539463   0.04653291           10 
  378000   0.67403405   -4.2747543    206.23775  0.045466877  0.046427573            7 
  379000   0.66158133   -4.2620556    205.78917  0.045248278  0.046322416           13 
  380000   0.66775562   -4.2930076     206.3634  0.045255131  0.046217028           10 
  381000    0.6583387   -4.2835706    206.42307  0.045149403  0.046111357            8 
  382000   0.65199747   -4.2750525    207.37236  0.045238299  0.046005977            5 
  383000   0.67525049   -4.2969839    207.01173  0.045041717  0.045901904            6 
  384000   0.66009268   -4.2768013    207.97526  0.045133521  0.045798798            7 
  385000   0.64831496   -4.2769954    208.02932  0.045027992  0.045695409            5 
  386000   0.66595712   -4.2907234    207.81312  0.044864664  0.045592162            4 
  387000   0.65276392   -4.2949187    207.47683  0.044676319  0.045489679            8 
  388000   0.66236207   -4.3000696    208.03712  0.044681511  0.045387812            8 
  389000   0.64592646   -4.3020671    207.96803  0.044551848  0.045286208            6 
  390000   0.63379908   -4.2786745    209.09592  0.044678614  0.045185388            5 
  391000   0.64525032   -4.3188442    208.73318  0.044487038  0.045084966           14 
  392000   0.65519173   -4.2951058    208.91257  0.044411686  0.044985214            9 
  393000    0.6461787   -4.3138088    209.24849  0.044369909  0.044885173            9 
  394000    0.6395241   -4.3147864    209.39375  0.044288019   0.04478466            4 
  395000   0.63805092   -4.3415973    208.60229  0.044008921  0.044683943            9 
  396000   0.61704664   -4.3465737    209.04219  0.043990361  0.044583362            9 
  397000   0.63125747   -4.3369727     209.5633  0.043988938  0.044483111            9 
  398000   0.63307258   -4.3392825    209.64401  0.043895312   0.04438306            7 
  399000   0.62380492   -4.3306466     209.6472  0.043785965  0.044283058           15 
  400000   0.62989026   -4.3341521    210.48155  0.043850324  0.044183885           11 
  401000   0.61916829   -4.3325597    210.52682  0.043750378  0.044084711            6 
  402000   0.63145345   -4.3550181    209.83703  0.043498555  0.043985734            8 
  403000   0.61715438   -4.3430036    210.40756  0.043508594  0.043886614           25 
  404000   0.61708041   -4.3349733    210.32174  0.043383197  0.043787891            6 
  405000   0.61079028   -4.3483021    210.20388  0.043251826  0.043688981            9 
  406000   0.61505604   -4.3779974    209.71626   0.04304521  0.043589633           10 
  407000   0.61185908   -4.3625736    210.34378  0.043067933  0.043490449            8 
  408000   0.61895175   -4.3540109      209.755  0.042842116  0.043391724           16 
  409000   0.60530914   -4.3865684    209.82649  0.042751934  0.043291994            9 
  410000   0.62995357   -4.3515635    210.34375  0.042752795  0.043193336            8 
  411000   0.59274712   -4.3587969    210.09642  0.042598626  0.043094209           10 
  412000   0.61047885   -4.3736651    210.39767  0.042556162  0.042995102           13 
  413000   0.60957187   -4.3817873    210.53566  0.042480963  0.042895657           11 
  414000   0.61176052   -4.3802865    210.05402  0.042281405  0.042796197            9 
  415000    0.6180482    -4.367761    210.75212  0.042319702  0.042696585           15 
  416000   0.59587117   -4.3771724    210.52888  0.042173254  0.042597554           21 
  417000   0.59914077   -4.3963947    210.50344  0.042067034  0.042498275            8 
  418000   0.61530982   -4.4074428    210.41858  0.041949477  0.042398643           11 
  419000   0.60488547   -4.4022788    210.70022  0.041905373  0.042299461            3 
  420000   0.59418469   -4.3926035    211.05448   0.04187589  0.042200481            8 
  421000   0.59303781   -4.4311755    211.25758  0.041816623  0.042101152            6 
  422000    0.5896617   -4.4160937     211.1802   0.04170225  0.042002389            7 
  423000    0.5787519   -4.4107165    210.68412  0.041505935  0.041904349           12 
  424000   0.59364928   -4.4231493    210.86673  0.041443933  0.041805848           10 
  425000   0.58092591   -4.4160583    211.21668  0.041415035  0.041707332           11 
  426000   0.59490964   -4.4207539    210.47566   0.04117286  0.041608857            7 
  427000   0.59112805   -4.4366431     211.0594  0.041190358  0.041510468            8 
  428000   0.57863291   -4.4067099     211.1144  0.041104828  0.041412591           12 
  429000    0.5892124   -4.4418681    211.69151  0.041121116  0.041314654            8 
  430000   0.59238958   -4.4244583    211.32177  0.040953831  0.041216877           18 
  431000   0.57763285   -4.4295752    211.88535  0.040967778  0.041119592           15 
  432000   0.58913663   -4.4219927    211.35292  0.040770239  0.041022829           13 
  433000    0.5700664   -4.4522943    211.45112  0.040694981  0.040926109            9 
  434000   0.57328926   -4.4572838    211.50114  0.040610817  0.040829581           20 
  435000   0.57813338   -4.4498359    211.50247  0.040517714  0.040732867           11 
  436000    0.5734988   -4.4799735    211.27265  0.040380859  0.040635245            9 
  437000   0.56938302    -4.450257    211.28671  0.040291135  0.040537673            7 
  438000   0.56702641   -4.4637399    211.78174   0.04029333  0.040440421           11 
  439000   0.56199774   -4.4632558    211.78142  0.040201484  0.040343662            7 
  440000    0.5628751   -4.4747843    211.87645  0.040128115  0.040247167            7 
  441000   0.56826659   -4.4743193    211.80697  0.040023993  0.040151024           14 
  442000   0.56574678   -4.4690735    211.90661  0.039952226  0.040054956           10 
  443000   0.56726352   -4.4567824    211.93552   0.03986748  0.039958931           13 
  444000   0.56913368   -4.4646402    211.36948  0.039671449  0.039863082            8 
  445000   0.55713307   -4.4598817    211.66909  0.039638406  0.039766843           13 
  446000    0.5520213   -4.4891127    211.86007  0.039585214   0.03967067            9 
  447000   0.55220667   -4.5045898    211.67003  0.039461228  0.039574046            5 
  448000   0.56256821   -4.5019436     211.4227  0.039327139  0.039477298           14 
  449000   0.55779153   -4.5043979    211.89385  0.039326995  0.039381145           20 
  450000   0.55547244   -4.4990858    211.45223   0.03915782  0.039284938           10 
  451000     0.550104   -4.5161115    212.35548  0.039237894  0.039189393           19 
  452000   0.54866644   -4.4911854    212.32927  0.039146251  0.039094505           13 
  453000    0.5622802   -4.5169804    211.53275   0.03891331  0.038999604           12 
  454000   0.55135209   -4.5103236    211.72978  0.038863762  0.038904717            7 
  455000    0.5534983   -4.5048057    212.36801  0.038895241  0.038810432           11 
  456000     0.528215    -4.508302    211.91483  0.038727125  0.038716069           18 
  457000   0.54512097   -4.5115941    212.07933  0.038672379  0.038621723           17 
  458000    0.5405585   -4.5415643    211.58446    0.0384979  0.038527091            9 
  459000   0.53308306   -4.5173314    212.13132  0.038513311   0.03843235            8 
  460000   0.53162391   -4.5257481    211.86243  0.038380875  0.038337861           19 
  461000   0.53292641   -4.5178558    211.50165  0.038232402  0.038243089           12 
  462000   0.53898352   -4.5633188    212.03591  0.038246015  0.038148502           37 
  463000   0.52020334   -4.5402429    211.99593  0.038156215  0.038054668           17 
  464000   0.52443145   -4.5340136    212.12077  0.038096403  0.037961206           12 
  465000   0.52707976   -4.5482148    212.10684  0.038011978  0.037867391           16 
  466000   0.52913459   -4.5516881    211.95055  0.037902459  0.037773826            9 
  467000   0.52903702   -4.5487199    212.30719  0.037884938  0.037680333           16 
  468000   0.52465166   -4.5662837    212.13575   0.03777346  0.037587292           46 
  469000   0.51752187   -4.5578545    212.05417  0.037678424  0.037494256           36 
  470000   0.51146652   -4.5408464     212.2466  0.037632376  0.037401169           23 
  471000   0.51704666   -4.5603326    211.90002  0.037491156  0.037308199           24 
  472000   0.52265567   -4.5659693     212.1791     0.037461  0.037215163           21 
  473000   0.51459125   -4.5708352     211.2498  0.037218076    0.0371221           23 
  474000   0.50739413   -4.5845002    211.21961  0.037134249  0.037028892           50 
  475000    0.5060635   -4.5696602    211.67025  0.037135131  0.036935928           20 
  476000   0.51270771   -4.5639194    211.48938  0.037025451  0.036842983           22 
  477000   0.50971458   -4.5957827    211.50437  0.036950448  0.036750328           33 
  478000   0.50277123   -4.5922459     211.3459  0.036845519  0.036657213           19 
  479000   0.49828158     -4.60064    211.15734  0.036735793  0.036564351           26 
  480000   0.50355163   -4.5963556    211.79135  0.036769331  0.036471938           19 
  481000   0.49722363   -4.6000796    210.98314  0.036552866  0.036379275           30 
  482000   0.49996705    -4.591716     211.8838  0.036632746   0.03628704           34 
  483000   0.49830559   -4.5862653    211.77141   0.03653751   0.03619544           14 
  484000   0.49574646   -4.5840572    211.29827  0.036380555  0.036103937           18 
  485000   0.49081193   -4.6123625     211.2461  0.036296581  0.036012065           34 
  486000   0.49223477   -4.6169255    211.74665  0.036307725  0.035920492           11 
  487000    0.4921282    -4.632122    211.10271  0.036122982  0.035829241           13 
  488000    0.4775688   -4.6038443    211.75082  0.036159634   0.03573815           27 
  489000   0.48168229   -4.6245137    211.33755   0.03601526  0.035646925           25 
  490000   0.48400971   -4.6295813    211.58285  0.035983477  0.035556206           14 
  491000   0.47969597    -4.615775    210.82877  0.035782208   0.03546544           36 
  492000   0.47619731   -4.6191888    211.20929   0.03577393  0.035374946           18 
  493000   0.48049166   -4.6266417    211.31734  0.035719632   0.03528453           26 
  494000   0.47902903   -4.6437694    210.93627  0.035583041  0.035194195           13 
  495000   0.47103883    -4.630013    211.35179   0.03558111  0.035103725           19 
  496000   0.47177261   -4.6388535    211.17361  0.035479438  0.035013663           25 
  497000   0.48496306   -4.6420127    210.78355  0.035342647  0.034923975           14 
  498000    0.4901469   -4.6331619      211.018   0.03531091  0.034834479           22 
  499000   0.47416013   -4.6467815    210.75904    0.0351969  0.034744803           36 
  500000   0.46445368   -4.6565475    210.99776  0.035166293  0.034655091           46 
  501000   0.46772234   -4.6525727    210.35656  0.034989448  0.034565238           52 
  502000    0.4669236   -4.6674194     211.1005  0.035043243  0.034475748           34 
  503000    0.4713465   -4.6688363    210.44437  0.034864872  0.034386355           42 
  504000   0.46026468   -4.6629384    210.58387  0.034818762  0.034297208           16 
  505000   0.45429285   -4.6613984    210.89475  0.034801113  0.034208305           15 
  506000   0.45540731   -4.6692774    210.66811  0.034695012  0.034120039           11 
  507000   0.44854535   -4.6840582     210.6934  0.034630736  0.034031615           16 
  508000   0.44939867   -4.7028635    210.25712  0.034490998  0.033943159           24 
  509000   0.44598315   -4.6849793    210.97882  0.034541392  0.033854814           75 
  510000   0.45990138   -4.6817601    210.73637  0.034434048  0.033766783           36 
  511000   0.45551895    -4.702041    210.61351  0.034346625  0.033678663           20 
  512000   0.43959558   -4.6940759    209.99421  0.034178745  0.033590755           42 
Loop time of 1236.21 on 48 procs for 500000 steps with 4000 atoms

Performance: 69891.195 tau/day, 404.463 timesteps/s
99.4% CPU use with 48 MPI tasks x no OpenMP threads

MPI task timing breakdown:
Section |  min time  |  avg time  |  max time  |%varavg| %total
---------------------------------------------------------------
Pair    | 81.972     | 87.459     | 93.642     |  32.8 |  7.07
Neigh   | 8.3501     | 8.6986     | 9.1386     |   6.8 |  0.70
Comm    | 78.11      | 85.853     | 92.371     |  35.2 |  6.94
Output  | 0.85011    | 0.85102    | 0.88218    |   0.5 |  0.07
Modify  | 1039.8     | 1042.2     | 1044.8     |   3.7 | 84.31
Other   |            | 11.16      |            |       |  0.90

Nlocal:        83.3333 ave          94 max          75 min
Histogram: 2 3 3 13 11 6 5 4 0 1
Nghost:        2264.71 ave        2281 max        2237 min
Histogram: 2 0 3 1 8 5 6 9 8 6
Neighs:        15233.7 ave       17844 max       13416 min
Histogram: 3 3 8 7 14 7 2 1 2 1
FullNghs:      30466.5 ave       34465 max       27467 min
Histogram: 3 3 3 14 9 6 5 2 2 1

Total # of neighbors = 1462393
Ave neighs/atom = 365.59825
Neighbor list builds = 27028
Dangerous builds = 0

#clear
#
#next RN
#
#jump SELF
Total wall time: 0:20:39
