
units lj                  # Use reduced LJ style units
atom_style atomic         # Uncharged point particles
atom_modify map hash      # Needed for indexing of clusters etc
                          # Used to be able to find where atoms are in relation to each other.

lattice fcc 1.0 spacing 1 1 1
Lattice spacing in x,y,z = 1.5874011 1.5874011 1.5874011
region box block 0 10 0 10 0 10 units lattice
create_box 2 box
Created orthogonal box = (0.0000000 0.0000000 0.0000000) to (15.874011 15.874011 15.874011)
  3 by 4 by 4 MPI processor grid
create_atoms 1 box
Created 4000 atoms
  using lattice units in orthogonal box = (0.0000000 0.0000000 0.0000000) to (15.874011 15.874011 15.874011)
  create_atoms CPU = 0.008 seconds
set type 1 type/fraction 2 0.82 78393
Setting atom values ...
  3266 settings made for type/fraction
mass 1 1.0
mass 2 1.0
pair_style lj/cut  3.5
pair_modify tail  yes
pair_coeff 1  1  1.0  1.0   # Intearaction between 1 and 1 set with epsilon = 1 and sigma = 1
pair_coeff 1  2  1.5  0.8
pair_coeff 2  2  0.5  0.88

write_data data.0
System init for write_data ...
Neighbor list info ...
  update every 1 steps, delay 10 steps, check yes
  max neighbors/atom: 2000, page size: 100000
  master list distance cutoff = 3.8
  ghost atom cutoff = 3.8
  binsize = 1.9, bins = 9 9 9
  1 neighbor lists, perpetual/occasional/extra = 1 0 0
  (1) pair lj/cut, perpetual
      attributes: half, newton on
      pair build: half/bin/atomonly/newton
      stencil: half/bin/3d
      bin: standard
WARNING: Not all mixed pair coeffs generated from mixing. Use write_data with 'pair ij' option to store all pair coeffs. (../write_data.cpp:312)


#############################
#   M E L T   S Y S T E M   #
#############################

velocity all create 2.4 6229865 mom yes dist gaussian # Assign velocities
                                                    # Temperature 2.4, random number seed, zero linear momentum
                                                                                # Gaussian distribution

timestep 0.002   # simulation timestep
thermo 1000       # output thermodynamic data every 1000 steps bf 100

# Define a fix  in this case with index 1 applied to all
# particles in the simulation. This fix is for simulations
# in the anisotropic NPT ensemble. Note that we use the MTK
# correction.
fix 1 all npt temp 2.4 2.4 0.1 iso 5.68 5.68 0.5 mtk yes tchain 5 pchain 5 # Use NPT ensemble
                                                                         # Set temperature and pressure and damping
                                                                         # Numbers of thermostats in chain and in barostat
run 10000          # run for 10000 steps
Per MPI rank memory allocation (min/avg/max) = 3.642 | 3.644 | 3.648 Mbytes
Step Temp E_pair E_mol TotEng Press Volume 
       0          2.4    -3.598932            0 0.00016796869   -3.1561227         4000 
    1000    2.4252053   -2.8910969            0   0.74580154    5.7864045    3823.3383 
    2000    2.4293187   -2.9086869            0   0.73438008    5.9357038    3812.0546 
    3000    2.4551573   -2.8667026            0   0.81511271    5.9934767    3810.8998 
    4000    2.4192776   -2.8731328            0   0.75487637    5.7636073    3844.1449 
    5000     2.413223   -2.8880999            0   0.73082962     5.673119    3837.3189 
    6000    2.4288336   -2.8922705            0   0.75006908    5.7040858     3824.277 
    7000    2.3814468   -2.8794636            0   0.69181359    5.5482718    3866.7538 
    8000    2.3768939   -2.9470116            0   0.61743793    5.6234498    3807.2228 
    9000    2.4438298   -2.9070146            0   0.75781368    5.6345546     3826.218 
   10000    2.3766185   -2.8529871            0   0.71104937    5.9793015     3821.899 
Loop time of 2.52031 on 48 procs for 10000 steps with 4000 atoms

Performance: 685631.001 tau/day, 3967.772 timesteps/s
99.7% CPU use with 48 MPI tasks x no OpenMP threads

MPI task timing breakdown:
Section |  min time  |  avg time  |  max time  |%varavg| %total
---------------------------------------------------------------
Pair    | 1.1215     | 1.1974     | 1.2962     |   2.9 | 47.51
Neigh   | 0.2103     | 0.21896    | 0.22902    |   0.8 |  8.69
Comm    | 0.77337    | 0.85091    | 0.96525    |   3.7 | 33.76
Output  | 0.00023946 | 0.0002455  | 0.00031274 |   0.0 |  0.01
Modify  | 0.20365    | 0.23784    | 0.26034    |   3.2 |  9.44
Other   |            | 0.01495    |            |       |  0.59

Nlocal:        83.3333 ave          95 max          75 min
Histogram: 4 5 5 6 6 9 8 2 2 1
Nghost:        1693.40 ave        1735 max        1658 min
Histogram: 3 4 4 10 7 8 3 5 2 2
Neighs:        9989.81 ave       12102 max        8541 min
Histogram: 2 7 7 8 8 8 6 0 1 1

Total # of neighbors = 479511
Ave neighs/atom = 119.87775
Neighbor list builds = 910
Dangerous builds = 220

# Equilibrate just above the melting temperature to avoid step fn in T

fix 1 all npt temp 1.25 1.25 0.1 iso 5.68 5.68 0.5 mtk yes tchain 5 pchain 5
run 2000
Per MPI rank memory allocation (min/avg/max) = 3.643 | 3.645 | 3.649 Mbytes
Step Temp E_pair E_mol TotEng Press Volume 
   10000    2.3766185   -2.8529871            0   0.71104937    5.9793015     3821.899 
   11000    1.2641614   -4.3021161            0   -2.4063481    5.6885799    2938.7333 
   12000    1.2708606   -4.3029784            0    -2.397164    5.4676981    2951.9796 
Loop time of 0.617517 on 48 procs for 2000 steps with 4000 atoms

Performance: 559660.259 tau/day, 3238.775 timesteps/s
99.7% CPU use with 48 MPI tasks x no OpenMP threads

MPI task timing breakdown:
Section |  min time  |  avg time  |  max time  |%varavg| %total
---------------------------------------------------------------
Pair    | 0.27826    | 0.3033     | 0.33894    |   2.3 | 49.12
Neigh   | 0.039079   | 0.042482   | 0.047553   |   0.7 |  6.88
Comm    | 0.18656    | 0.2262     | 0.25625    |   3.1 | 36.63
Output  | 4.8011e-05 | 5.0892e-05 | 0.00015372 |   0.0 |  0.01
Modify  | 0.037798   | 0.040829   | 0.043493   |   0.8 |  6.61
Other   |            | 0.004655   |            |       |  0.75

Nlocal:        83.3333 ave          94 max          74 min
Histogram: 1 0 7 7 15 5 5 5 1 2
Nghost:        2018.35 ave        2045 max        1992 min
Histogram: 3 1 2 8 10 9 9 4 0 2
Neighs:        12957.7 ave       15474 max       11189 min
Histogram: 1 4 8 13 10 5 3 3 0 1

Total # of neighbors = 621968
Ave neighs/atom = 155.49200
Neighbor list builds = 144
Dangerous builds = 13

#############################
# L I N E A R  Q U E N C H  #
#############################

# Define solid atoms. This closely follows ten Wolde  Ruiz-Montero and Frenkel  Faraday Discuss  1996  104  93-110
# Compute components of the per-atom q6 vector
compute q6 all orientorder/atom degrees 1 6 components 6 nnn NULL cutoff 1.3 # compute the Q6 parameter.
                                                                             # Use all neighbours within 1.3 unit cell.

# get number of connections
compute coord_number all coord/atom orientorder q6 0.5

# An atom is solid if it has 8 or more connections (of a possible 14)
variable is_solid atom c_coord_number>=8
group solid dynamic all var is_solid    # Must be dynamic to update
dynamic group solid defined

# do clustering
compute cluster solid cluster/atom 1.3 # Create a cluster where all atoms within are solid and max 1.3 units from another member

# define chunks one chunk per cluster
compute clus_chunks solid chunk/atom c_cluster nchunk every compress yes  # Says which atoms are in which chunk

# count the size of each chunk
compute size_chunks solid property/chunk clus_chunks count


# Find the maximum entry in the vector of chunk sizes
variable max_n equal max(c_size_chunks)


# Thermo style which includes this variable
# thermo_style custom step temp pe vol v_max_n

thermo ${N}  # Print the thermo information every 100 steps
thermo 1000  

# Reset the npt fix at a lower temperature (below freezing)
fix 1  all npt temp  ${temp} ${temp}  0.1  iso  5.68  5.68  0.5  mtk yes tchain  5  pchain  5
fix 1  all npt temp  0.45 ${temp}  0.1  iso  5.68  5.68  0.5  mtk yes tchain  5  pchain  5
fix 1  all npt temp  0.45 0.45  0.1  iso  5.68  5.68  0.5  mtk yes tchain  5  pchain  5

dump dmp2 all dcd ${N} traj.dcd
dump dmp2 all dcd 1000 traj.dcd


compute msd all msd com yes
variable twopoint equal c_msd[4]/6/(step*dt+1.0e-6)
fix 9 all vector 10 c_msd[4]
variable fit equal slope(f_9)/6/(10*dt)
thermo_style custom step temp pe c_msd[4] v_twopoint v_fit v_max_n

fix 1 all npt temp 1.25 ${temp} 0.1 iso 5.68 5.68 0.5 mtk yes tchain 5 pchain 5
fix 1 all npt temp 1.25 0.45 0.1 iso 5.68 5.68 0.5 mtk yes tchain 5 pchain 5
run 2000000 # 5000000  # Run for this many steps
Neighbor list info ...
  update every 1 steps, delay 10 steps, check yes
  max neighbors/atom: 2000, page size: 100000
  master list distance cutoff = 3.8
  ghost atom cutoff = 3.8
  binsize = 1.9, bins = 8 8 8
  4 neighbor lists, perpetual/occasional/extra = 1 3 0
  (1) pair lj/cut, perpetual
      attributes: half, newton on
      pair build: half/bin/atomonly/newton
      stencil: half/bin/3d
      bin: standard
  (2) compute orientorder/atom, occasional
      attributes: full, newton on
      pair build: full/bin/atomonly
      stencil: full/bin/3d
      bin: standard
  (3) compute coord/atom, occasional
      attributes: full, newton on
      pair build: full/bin/atomonly
      stencil: full/bin/3d
      bin: standard
  (4) compute cluster/atom, occasional
      attributes: full, newton on
      pair build: full/bin/atomonly
      stencil: full/bin/3d
      bin: standard
Per MPI rank memory allocation (min/avg/max) = 9.830 | 9.838 | 9.843 Mbytes
Step Temp PotEng c_msd[4] v_twopoint v_fit v_max_n 
   12000    1.2708606   -4.3029784 1.8392292e-30 1.2772424e-32 8.3333333e+20            3 
   13000    1.2458212   -4.2954662    0.8453709  0.005419044  0.070897336            3 
   14000    1.2621412   -4.3271091    1.7203706  0.010240301  0.072302848            2 
   15000    1.2645147   -4.3181729    2.5295465  0.014053036  0.070696452            1 
   16000    1.2497271   -4.2882967    3.3613622  0.017507094  0.070904381            3 
   17000    1.2305078   -4.3030181    4.2272177  0.020721655  0.070421325            1 
   18000    1.2373303   -4.2976469    5.1561372  0.023871005  0.070585853            2 
   19000     1.240709   -4.3048834    6.0347063  0.026468009  0.071326796            2 
   20000    1.2259283   -4.2969413    6.9127026  0.028802927   0.07175205            1 
   21000    1.2446651   -4.3027829    7.7357223   0.03069731  0.071946831            2 
   22000    1.2161301   -4.3148555    8.5178481  0.032264575  0.071657877            3 
   23000    1.2766478   -4.2983707    9.3253926  0.033787654  0.071280068            1 
   24000    1.2247465    -4.341599    10.250585  0.035592308  0.071222326            1 
   25000    1.2239148   -4.2836152    10.971819   0.03657273  0.070958673            4 
   26000    1.2555392   -4.2773481    11.955859  0.038320061  0.070795086            2 
   27000    1.2504878   -4.3162999     12.73555  0.039307254  0.070829862            3 
   28000    1.2361579   -4.2949865    13.602002  0.040482149  0.070902161            2 
   29000    1.2341651   -4.3199387    14.389613  0.041349463  0.070938416            2 
   30000     1.256576   -4.3047578     15.30903  0.042525082  0.070950685            4 
   31000    1.2536614   -4.3014789    16.149217  0.043411874  0.070918288            2 
   32000    1.2266636   -4.2983511    16.872602  0.043939066  0.070781144            2 
   33000    1.2289471   -4.3221118    17.716521   0.04473869  0.070642435            2 
   34000    1.2570435   -4.3189347    18.787471  0.046047723  0.070707603            1 
   35000    1.2469003    -4.312757    19.559397  0.046569993  0.070802412            2 
   36000    1.2311206   -4.3100028    20.537834  0.047541283  0.070919724            2 
   37000    1.2434256   -4.3294589    21.354443  0.048095591  0.071034377            2 
   38000    1.2066262   -4.3228682    22.121326  0.048511679  0.071050497            2 
   39000    1.2479212   -4.3244452    22.982972  0.049108914  0.071060047            3 
   40000    1.2274266   -4.2915864     24.00371  0.050007729  0.071067284            1 
   41000    1.2574935   -4.3147387    24.737055  0.050278567   0.07112317            2 
   42000    1.2512823   -4.3015446    25.668065  0.050928701  0.071161513            2 
   43000    1.2317777   -4.3283742    26.315627  0.050999276  0.071166784            2 
   44000    1.2430619   -4.3353375    27.204835  0.051524309  0.071140673            2 
   45000    1.2379411    -4.297689    28.286319  0.052382072   0.07113486            2 
   46000    1.2349573   -4.2964832    29.182578  0.052866989  0.071201532            1 
   47000    1.2636809   -4.3168301    30.132444  0.053426318  0.071298365            1 
   48000    1.2272972   -4.3274471    31.197903  0.054163026  0.071413429            1 
   49000    1.2596953   -4.2839443    32.146954   0.05467169  0.071549458            1 
   50000    1.2394788   -4.3365375    32.769281  0.054615468  0.071648125            1 
   51000    1.2220364   -4.2962908    33.512723  0.054759351  0.071676041            1 
   52000    1.2327354   -4.3482442    34.264056  0.054910345  0.071700434            2 
   53000    1.2641023   -4.3174188    35.260997  0.055441819  0.071708154            3 
   54000    1.2107157   -4.3335904     35.94684  0.055473518  0.071686537            2 
   55000    1.2342328   -4.3158475    36.782344  0.055730823  0.071651766            1 
   56000    1.2383077   -4.3663825    37.450632  0.055730106  0.071601509            4 
   57000    1.2131176   -4.3048086    38.774319  0.056687601  0.071583637            2 
   58000    1.2389198    -4.344058    39.267506  0.056418829   0.07158345            4 
   59000    1.2635772   -4.3356586      40.3005   0.05692161  0.071557584            2 
   60000    1.2520851    -4.362501    41.195154  0.057215491  0.071582054            1 
   61000    1.2223981   -4.2944714    41.974953  0.057342832  0.071597673            3 
   62000    1.2099987   -4.3149961    42.929154  0.057700475  0.071576506            2 
   63000    1.2384201    -4.330688    43.808076   0.05794719  0.071551062            1 
   64000    1.2313161   -4.3251081    44.692175  0.058192936  0.071552862            2 
   65000    1.2226031   -4.3022133    45.565489  0.058417293  0.071553392            3 
   66000    1.2456152   -4.3152268    46.400871  0.058586958  0.071569326            1 
   67000    1.2273769   -4.3658683    47.035666  0.058502071  0.071554466            2 
   68000    1.2242624   -4.3019856    48.003649     0.058828  0.071544565            1 
   69000    1.2285447    -4.351585    49.149264  0.059359014  0.071561397            2 
   70000    1.2181777   -4.3460539    50.192096  0.059752495  0.071626437            4 
   71000    1.2515368   -4.3282921     51.27332  0.060179952  0.071689439            2 
   72000     1.218878   -4.3259982    51.737666  0.059881557  0.071749379            2 
   73000    1.2517611    -4.312233    52.954232  0.060450036  0.071811459            2 
   74000     1.233557   -4.3371871    53.770088    0.0605519  0.071861192            1 
   75000    1.2124862    -4.372492    54.491225  0.060545805  0.071899622            4 
   76000    1.2378333   -4.3172095     55.05976  0.060372544  0.071917296            1 
   77000    1.2452714   -4.3313244    55.894572  0.060491961  0.071922297            1 
   78000    1.2319415   -4.3103644    56.901805  0.060792527  0.071938665            2 
   79000    1.1972683   -4.3485327    57.724315  0.060890628  0.071964843            1 
   80000    1.2557752   -4.3245118    59.169163  0.061634544  0.072010675            2 
   81000    1.2374542   -4.3474622    59.930289  0.061656676  0.072063665            3 
   82000    1.2259748    -4.305454    61.183211  0.062178059  0.072132526            2 
   83000    1.2219863   -4.3459731    61.753364  0.062001369  0.072186198            2 
   84000    1.2237621   -4.3254245    62.827459  0.062328828   0.07225458            1 
   85000    1.1890813   -4.3440415    63.606893  0.062359699  0.072285011            3 
   86000    1.2244809     -4.35344    63.904835   0.06192329  0.072307447            3 
   87000    1.1964786   -4.3144278    65.409862  0.062653124  0.072330026            2 
   88000    1.2137689    -4.371594    66.242045  0.062729209  0.072362134            3 
   89000    1.2100839   -4.3654862    66.804589  0.062551113  0.072405315            2 
   90000    1.1924758    -4.351489    68.024806  0.062985931  0.072426121            2 
   91000     1.178937   -4.3552371    68.465759  0.062697581  0.072438925            2 
   92000    1.2415355   -4.3383296    69.298823  0.062770673  0.072445906            1 
   93000    1.2293721   -4.3459555    69.889868  0.062625329  0.072432917            2 
   94000    1.1854146   -4.3864066    70.642744  0.062626545  0.072411877            1 
   95000     1.235137   -4.3349363    71.576772  0.062786642  0.072394052            2 
   96000    1.2144246   -4.3475643    72.326481  0.062783403  0.072368847            1 
   97000    1.2010549   -4.3673111     73.10449  0.062804544  0.072334994            2 
   98000    1.2042441   -4.3640751    73.859836  0.062805983  0.072300188            2 
   99000    1.2113131   -4.3483775    74.616796   0.06280875  0.072256673            2 
  100000    1.2080283   -4.3675896    75.124884  0.062604069  0.072205424            1 
  101000    1.1989106   -4.3581423    75.995203  0.062702312  0.072152085            2 
  102000    1.2068615   -4.3520746    77.063628   0.06296048  0.072111582            2 
  103000    1.2254742   -4.3616514    78.100633  0.063188214  0.072063391            2 
  104000     1.218537   -4.3812148    78.738435  0.063091695  0.072028287            1 
  105000    1.2070952   -4.3773771    79.527539  0.063117094  0.071995719            1 
  106000    1.2124794   -4.3844057     80.64344  0.063398931  0.071975818            1 
  107000    1.2173572   -4.3483438    81.401413  0.063396739  0.071948558            4 
  108000    1.1923322   -4.3793244     82.41693   0.06359331  0.071923765            3 
  109000    1.2392263   -4.3442509     83.06924  0.063508593  0.071888834            4 
  110000    1.1955598   -4.3771508    83.825299  0.063504014    0.0718476            4 
  111000    1.2090317   -4.3504065     84.70917  0.063595473  0.071807098            2 
  112000    1.1906886   -4.3384852     85.38004  0.063526815  0.071767804            1 
  113000    1.2002838   -4.3672087    85.951262  0.063385886  0.071735318            1 
  114000     1.186101   -4.3501237    86.455462  0.063198437  0.071684525            1 
  115000     1.201088   -4.3618745    87.274885   0.06324267    0.0716339            2 
  116000    1.2062801   -4.3722517     88.21327  0.063371602  0.071584741            2 
  117000     1.165021    -4.340846    89.075463  0.063444061   0.07152439            1 
  118000    1.2013654   -4.3755712    89.661124  0.063320002  0.071469311            4 
  119000    1.2118017   -4.3910839    90.397953  0.063303888  0.071417546            2 
  120000    1.1842653   -4.3802331    90.849566  0.063089976  0.071355443            1 
  121000    1.2033188   -4.3515444    92.064252  0.063405132  0.071293041            2 
  122000    1.2127648   -4.3841383    92.037101  0.062866872  0.071224361            2 
  123000    1.2058067   -4.3560173    93.411108  0.063286658  0.071160805            1 
  124000    1.1970309   -4.3559879    94.330629   0.06339424  0.071094061            4 
  125000    1.2204885    -4.369084    94.502953  0.063001969  0.071026938            2 
  126000    1.2097122   -4.3558736    95.222582  0.062977898  0.070948907            6 
  127000    1.2120747   -4.3688272    96.227292  0.063141268  0.070861495            4 
  128000     1.224294   -4.3680865    97.226649  0.063298599  0.070787733            3 
  129000    1.1836567   -4.4123935    97.957828  0.063280251  0.070720112            2 
  130000    1.2216476     -4.39496     98.94884  0.063428743  0.070660964            2 
  131000    1.1849516   -4.3700652    99.813277  0.063494451  0.070601331            2 
  132000    1.1806077   -4.3992104    100.29755  0.063319158  0.070545656            3 
  133000    1.2162083   -4.3935184    101.21997  0.063421033  0.070489341            3 
  134000    1.2005911   -4.3794574    102.18712  0.063549203  0.070436347            4 
  135000    1.2006051   -4.3762252    103.18685  0.063695585  0.070389298            4 
  136000    1.2117833   -4.3850415    104.39171  0.063965506  0.070346707            2 
  137000    1.1921508   -4.3889642    104.37575  0.063488899  0.070300899            2 
  138000    1.2155391   -4.3596895    105.22405   0.06354109  0.070253158            1 
  139000    1.2007982   -4.3724327    106.15106  0.063639722  0.070202571            1 
  140000    1.2001618   -4.3875906    106.77027  0.063553731  0.070166119            4 
  141000    1.2044559   -4.3882861    107.92265  0.063784072  0.070119525            2 
  142000    1.2038916   -4.3524974    109.46478  0.064239893   0.07007752            1 
  143000    1.2340076   -4.4040066    109.11664  0.063587784   0.07003649            4 
  144000    1.1888912   -4.3683017    109.87946  0.063587648  0.069991989            2 
  145000    1.1816126   -4.3897826    110.64753  0.063590537  0.069945266            3 
  146000    1.1738873   -4.4089969    111.73679  0.063776707   0.06990144            3 
  147000    1.1985777   -4.4353347    112.27433  0.063647577  0.069858662            3 
  148000     1.181169   -4.3851262    112.85448  0.063544189  0.069807465            3 
  149000    1.2047968   -4.3900075    113.77905  0.063634813  0.069765441            5 
  150000    1.2009706    -4.384162    114.14215  0.063412303  0.069719671            2 
  151000    1.1985761   -4.3838719    115.27354  0.063616745  0.069673462            2 
  152000    1.1850123   -4.4135441    116.16703  0.063688066  0.069631729            4 
  153000    1.1983018   -4.3855279    117.21641   0.06384336  0.069591675            4 
  154000    1.1847543      -4.3831    118.52372  0.064136213  0.069552367            6 
  155000    1.1963214   -4.3902387    118.84112  0.063893074  0.069508742            4 
  156000    1.1757264   -4.4016423    119.21975  0.063685766  0.069473007            2 
  157000    1.1651869   -4.3918994    120.27655  0.063841055  0.069433993            3 
  158000    1.1833758    -4.369083    121.22284  0.063936097  0.069393743            2 
  159000    1.1892138   -4.4218481    122.37532  0.064138008   0.06935885            3 
  160000    1.2201251   -4.4050521    122.54973  0.063827985   0.06932254            2 
  161000    1.1753328   -4.3952063    123.99756  0.064180932  0.069285801            1 
  162000    1.1929311   -4.4031007    124.38158  0.063982295  0.069259449            2 
  163000    1.2148412   -4.4205619    125.53303  0.064178441  0.069229564            5 
  164000    1.1957837   -4.3821178    126.12535  0.064088086  0.069202389            3 
  165000     1.203847   -4.4125163    126.85168  0.064066506   0.06917454            3 
  166000    1.1798265   -4.3842736    128.10051  0.064307486   0.06914744            3 
  167000      1.20211   -4.4101136     128.5109  0.064127198  0.069121879            4 
  168000    1.1571745   -4.3774282    129.23385  0.064104091  0.069091042            2 
  169000    1.1885057    -4.395037    130.15571  0.064179346  0.069065401            5 
  170000    1.1982948   -4.3972726    130.75656  0.064096353  0.069039899            2 
  171000     1.163304   -4.3699488    131.38453   0.06402755  0.069013984            2 
  172000    1.2062408   -4.3994744    132.46342  0.064178015  0.068985046            2 
  173000    1.1575895   -4.4043359    132.38021   0.06376696  0.068955954           10 
  174000    1.1984941   -4.4056955    133.94532  0.064150059  0.068927538            4 
  175000    1.2032555   -4.4031607    134.30906  0.063956694  0.068893076            1 
  176000    1.1731344   -4.4502543    134.71543  0.063785717  0.068858205            3 
  177000    1.1864878   -4.4354004    136.22357  0.064135391   0.06882561            5 
  178000    1.2017484   -4.3861309    136.72469  0.064009685  0.068789434            3 
  179000    1.1517683    -4.402048    136.69656  0.063638993  0.068751247            3 
  180000    1.1923831   -4.3968342    138.18187  0.063973087  0.068714976            2 
  181000    1.1784636   -4.4169536    139.27277  0.064121901  0.068684433            2 
  182000    1.1736545   -4.4274667     139.4944  0.063871061  0.068654133            3 
  183000    1.1849319   -4.4294557    140.50622  0.063982796  0.068622146            2 
  184000    1.1890842   -4.4390916    141.11234  0.063909573  0.068587525            2 
  185000    1.1872287   -4.4074983    141.80441  0.063875862  0.068552847            1 
  186000    1.1821276   -4.4054964    142.96943  0.064054404  0.068518104            2 
  187000     1.173692   -4.4068465    143.56734  0.063978315  0.068485683            4 
  188000    1.1890119   -4.3803145    144.99849  0.064272379  0.068452054            5 
  189000    1.1770974   -4.4245436    144.82592  0.063856224  0.068416857            3 
  190000    1.1425167   -4.4419779    145.31131   0.06373303  0.068379206            3 
  191000    1.1823014   -4.4217098    145.90715  0.063659313  0.068333946            1 
  192000    1.1675509   -4.4274994    146.01281  0.063373615  0.068290666            2 
  193000    1.1917912   -4.4052734    147.84247  0.063835264  0.068248446            2 
  194000    1.1572912    -4.396449    148.09578  0.063615027  0.068207664            4 
  195000    1.1703308    -4.412822    148.90055  0.063632714  0.068164317            2 
  196000    1.1763958   -4.4059529    149.33522  0.063492867  0.068120814            2 
  197000    1.1895137     -4.40189    150.55454  0.063686354  0.068078274            6 
  198000    1.1834133   -4.4239048    150.32156   0.06326665  0.068035433            1 
  199000    1.1795818   -4.3743057    152.36988  0.063806481  0.067991204            2 
  200000    1.1792916   -4.4695988    152.27858  0.063449408  0.067950728            3 
  201000    1.1858159   -4.4365622    153.02459  0.063443029  0.067908691            4 
  202000    1.1661391    -4.435015     154.5178  0.063744967  0.067871561            2 
  203000    1.1988365   -4.4496934     153.8893  0.063172946  0.067831076            5 
  204000    1.1680175   -4.4174731    155.47656  0.063511668  0.067788211            2 
  205000    1.1644664   -4.4570464    155.53477  0.063225518  0.067746566            2 
  206000    1.1638695   -4.4245201    156.87763  0.063461826  0.067708635            2 
  207000    1.1856858   -4.4162723    159.12693  0.064060762  0.067673441            2 
  208000    1.1899909   -4.4488949    158.54555  0.063519851   0.06764253            2 
  209000    1.1693146   -4.4230511    159.84308  0.063733287  0.067606952            3 
  210000    1.1695736   -4.4032125    160.53245  0.063703355  0.067568573            3 
  211000    1.1662572   -4.3777558    160.58724   0.06342308  0.067534086            2 
  212000    1.1754604    -4.420905     161.3536  0.063425155  0.067493016            1 
  213000    1.1572693   -4.4124128     161.8678  0.063328562  0.067455312            2 
  214000     1.183789   -4.4495354    162.63439  0.063331149  0.067414745            3 
  215000    1.1504757   -4.4198323    163.63501  0.063424421    0.0673746            4 
  216000    1.1501954   -4.4394413     164.2614  0.063372452  0.067337686            1 
  217000    1.1622239   -4.4656697    164.18988  0.063052947   0.06729741            2 
  218000    1.1778334   -4.4312672    164.78936  0.062992873  0.067248723            3 
  219000    1.1618894   -4.4369461    165.53528   0.06298907  0.067205089            2 
  220000    1.1885811   -4.4404546    166.79943  0.063181602  0.067156339            2 
  221000    1.1523184   -4.4480902    166.47212  0.062772293  0.067110897            2 
  222000    1.1522133    -4.425884    167.94245  0.063041458   0.06706181            1 
  223000    1.1626905   -4.4546156    167.71779  0.062674809  0.067014763            8 
  224000    1.1422733   -4.4260012    169.20154     0.062947  0.066968519            4 
  225000    1.1408999    -4.465754    168.98162  0.062585785  0.066920342            1 
  226000    1.1618063   -4.4821409    170.64831  0.062923419  0.066869287            1 
  227000    1.1765172   -4.4217383    171.21377  0.062853808  0.066823551            2 
  228000    1.1664744   -4.4333294    171.10763   0.06253934  0.066777581            2 
  229000    1.1657314   -4.4221153    172.67839  0.062837843   0.06672942            3 
  230000    1.1475273   -4.4666499    172.95451  0.062664677  0.066683595            4 
  231000    1.1542583   -4.4395172    173.32918  0.062528564  0.066630588            2 
  232000    1.1753758   -4.4109092     173.9547  0.062483729  0.066578569            4 
  233000    1.1275065   -4.4699075    174.38162  0.062368248   0.06652837            2 
  234000    1.1821386   -4.4489637    175.79608  0.062605441  0.066474658            1 
  235000    1.1634234    -4.427231    176.18797  0.062478003  0.066424947            5 
  236000    1.1614991   -4.3946523    176.86549  0.062452504  0.066376862            2 
  237000    1.1584501   -4.4567549    177.66454   0.06246995   0.06632544            2 
  238000    1.1470044    -4.451093    178.39072  0.062461737  0.066279725            2 
  239000    1.1710861   -4.4336488    179.50024  0.062587251  0.066235373            4 
  240000    1.1709968   -4.4786325    180.17785  0.062561755  0.066191178            4 
  241000    1.1522249    -4.460984    180.74095   0.06249687  0.066148647            4 
  242000     1.138889   -4.4353938    182.32654   0.06278462  0.066109401            3 
  243000    1.1472488     -4.45199     182.5766  0.062612002  0.066074182            3 
  244000    1.1836212   -4.4303731    183.37373  0.062627642  0.066040231            4 
  245000    1.1620711   -4.4330211    183.99276   0.06258257  0.066003029            1 
  246000    1.1537612   -4.4265472    184.88392  0.062630054  0.065966071            4 
  247000    1.1544052   -4.4573469    184.74009  0.062327967  0.065927939            2 
  248000    1.1507866   -4.4446974    185.88647  0.062461851  0.065886627            3 
  249000    1.1587547   -4.4693286    186.09317  0.062280176  0.065841953            2 
  250000    1.1539838   -4.4935143    186.49303  0.062164342  0.065798633            1 
  251000    1.1331113   -4.4615543    187.52556  0.062259482  0.065757501            2 
  252000     1.181937    -4.471371    188.73222   0.06241145  0.065716358            7 
  253000    1.1297282   -4.4407098    189.73606  0.062495408  0.065672422            4 
  254000    1.1517755   -4.4749844    188.61276  0.061880826  0.065629316            5 
  255000    1.1512176   -4.4065509    190.56701  0.062276801  0.065586304            3 
  256000    1.1470406   -4.4398509    191.51245  0.062341291  0.065546038            2 
  257000    1.1513494   -4.4337869    192.39753  0.062385711  0.065507886            2 
  258000    1.1535803   -4.4565907      193.724  0.062572351  0.065470015            4 
  259000    1.1582687   -4.4794945    193.79451  0.062353444  0.065436497            1 
  260000    1.1603103   -4.4450229    195.89754  0.062787672  0.065405636            2 
  261000    1.1465553   -4.5000287    196.26802  0.062665396  0.065376084            2 
  262000    1.1723438   -4.4993544    196.60875  0.062534589  0.065348991            8 
  263000    1.1474555    -4.474007    197.26933  0.062506125  0.065319347            2 
  264000    1.1587936   -4.4666956    196.93497  0.062163815  0.065286196            3 
  265000    1.1660143   -4.4563049    198.42821  0.062398809   0.06525261            2 
  266000    1.1618528   -4.4743202    198.36454   0.06214428  0.065219156            3 
  267000    1.1481856   -4.4925626    199.37058  0.062225525  0.065184616            2 
  268000    1.1412961   -4.4466906    200.47182  0.062335765  0.065153791            2 
  269000    1.1363594   -4.5043928      200.315  0.062055451  0.065118566            3 
  270000     1.166587   -4.4664889    201.16371  0.062087565  0.065082077            2 
  271000    1.1553626    -4.463058    201.88727  0.062080957  0.065046287            2 
  272000    1.1428502   -4.4535911    202.56736  0.062061078   0.06500777            3 
  273000    1.1424912   -4.4822403      203.463  0.062107142  0.064975234            4 
  274000     1.151683   -4.4872171    203.79669  0.061981963  0.064940211            2 
  275000    1.1599399   -4.4741046    204.22376  0.061885987  0.064906042            2 
  276000    1.1567005   -4.4687163    205.79549  0.062136319   0.06487395            3 
  277000     1.127667   -4.4620235    206.94813  0.062258765  0.064842597            2 
  278000    1.1481374   -4.4617087    207.46982  0.062191192  0.064811338            1 
  279000    1.1677464   -4.4507632    208.22229  0.062193036  0.064780862            1 
  280000    1.1542394   -4.4352927     208.7953  0.062141458  0.064749457            2 
  281000    1.1457395   -4.4678166    209.25184  0.062055707  0.064718668            1 
  282000    1.1169598   -4.4708821    209.23767  0.061831463  0.064687809            1 
  283000    1.1505745   -4.4804431    211.47468  0.062271696  0.064656355            3 
  284000    1.1375488   -4.4489547    212.10623  0.062237742  0.064626742            1 
  285000    1.1465616   -4.4649288    212.04533  0.062001557  0.064595459            4 
  286000    1.1544135   -4.4946522    212.22484  0.061837074  0.064566161            3 
  287000    1.1411628   -4.4931987     213.7372  0.062060742  0.064537048            2 
  288000    1.1567632   -4.4722256    214.79025  0.062149956   0.06450759            2 
  289000    1.1399396   -4.4901466    215.09265  0.062022103  0.064477539            1 
  290000    1.1149016   -4.4866523    215.56652  0.061944404  0.064447031            3 
  291000    1.1085449   -4.4931752    216.26685  0.061932087  0.064418987            3 
  292000    1.1588967   -4.4686817    216.60454  0.061816364  0.064388698            2 
  293000    1.1177705   -4.4691627      217.506  0.061861774  0.064357191            3 
  294000     1.139203    -4.471862    218.59897  0.061961161  0.064328582            4 
  295000    1.1466047   -4.5163773    219.11535  0.061896992  0.064300142            2 
  296000     1.146171   -4.5355237    219.40737  0.061770093   0.06427228            2 
  297000    1.1332107   -4.5135001    220.37748   0.06183431  0.064242143            3 
  298000    1.1316932   -4.4627099    222.58915  0.062245287  0.064216499            2 
  299000    1.1192421   -4.4981106    222.80726  0.062097898  0.064189734            2 
  300000    1.1368261   -4.5434314    222.65512  0.061848645  0.064165449            2 
  301000    1.1344454   -4.5220606    224.24089  0.062082196  0.064138174            3 
  302000    1.1347442   -4.5209998    224.65708  0.061991469  0.064112895            2 
  303000    1.1280988   -4.4870709    225.23972  0.061947118  0.064086661            2 
  304000    1.1318661   -4.4810286    224.92171  0.061656171  0.064061106            1 
  305000    1.1448045   -4.5157024    225.50148  0.061612426  0.064031247            3 
  306000    1.1055053   -4.5151266    226.16669  0.061592235  0.064002238            2 
  307000    1.1222026   -4.4954915     227.1456  0.061657328  0.063974713            2 
  308000    1.1319349   -4.4722209    230.02923  0.062237345  0.063945517            3 
  309000     1.125818   -4.4921511    228.82616  0.061711478  0.063915188            3 
  310000    1.1596705   -4.5080838    227.57087  0.061174964   0.06388325            2 
  311000    1.1621921   -4.4602718    229.76762  0.061566885  0.063850618            5 
  312000    1.1558623    -4.500481    229.08868  0.061188215  0.063815792            2 
  313000    1.1374324   -4.4853133     230.2862  0.061311554  0.063779237            5 
  314000    1.1249489   -4.4774539    230.70621  0.061227762  0.063744526            2 
  315000    1.1329377   -4.4993159    231.42792  0.061224317   0.06370787            2 
  316000    1.1142355    -4.522741    230.85977   0.06088074  0.063669464            2 
  317000    1.1184943    -4.512928    232.15142  0.061028239  0.063630414            2 
  318000    1.1234059   -4.4710364    233.59055  0.061213456  0.063594493            1 
  319000    1.1422218   -4.5264562    233.69771  0.061049558  0.063560521            2 
  320000    1.1304805   -4.5303957    233.22436  0.060735511  0.063525343            7 
  321000    1.1121709   -4.4926637    234.23255  0.060808035  0.063489849            7 
  322000     1.125197   -4.5002724    236.27212  0.061147029  0.063454916            3 
  323000    1.1467252   -4.5080952    236.78808  0.061090836   0.06342078            2 
  324000    1.1177417   -4.4924178    237.57591  0.061104916  0.063388296            4 
  325000    1.0872144   -4.5024902    239.07901  0.061302309  0.063356975            3 
  326000    1.1176896   -4.5286228    239.00529  0.061095422  0.063325053            5 
  327000    1.1298061    -4.502785    239.20411  0.060959254  0.063290504            8 
  328000    1.1250697   -4.5227678    239.34408  0.060808963  0.063256686            2 
  329000    1.1482685   -4.5250392    240.57118  0.060934949  0.063221293            3 
  330000    1.1318929   -4.5144893     241.2754  0.060928131  0.063186683            2 
  331000    1.1484733   -4.5364971     241.7885  0.060873238   0.06315507            5 
  332000    1.1225394   -4.5199126    243.62265  0.061150264  0.063123845            2 
  333000    1.1360745   -4.4910353    244.08368  0.061082001  0.063095897            2 
  334000    1.1095749   -4.4900799    244.33696  0.060962315  0.063065946            3 
  335000    1.1184989   -4.5638597    244.02991  0.060703958   0.06303572            3 
  336000    1.1198657   -4.5102939    246.30318  0.061087099  0.063006583            4 
  337000    1.1240938   -4.4635565    247.56573  0.061218034  0.062977677            3 
  338000    1.1336909   -4.5073525    247.02638  0.060903939  0.062950814            2 
  339000    1.1341885   -4.5287596    247.36796   0.06080825  0.062921511            3 
  340000    1.1046892    -4.524262    248.26365  0.060848934  0.062892303            1 
  341000    1.1434687    -4.529642    247.87129  0.060574606  0.062862479            2 
  342000    1.1120202   -4.5331855    249.95291  0.060904704  0.062833255            4 
  343000    1.1082189   -4.5278206    251.37343  0.061072263  0.062805961            5 
  344000    1.1200524   -4.5226311     252.3598  0.061133673  0.062780364            3 
  345000    1.1235828   -4.5251277    252.03316  0.060877576  0.062754223            5 
  346000    1.1136902   -4.5156099    251.94156  0.060679567  0.062725988            4 
  347000    1.1180868    -4.519204    252.89736  0.060734235   0.06269894            2 
  348000    1.1366031   -4.5368288    252.21078  0.060395301  0.062669244            2 
  349000     1.116507   -4.5262063    253.98667  0.060646291  0.062639982            4 
  350000    1.1225092    -4.513766    255.47835  0.060828178  0.062609429            4 
  351000    1.0915232   -4.4787871    256.60519  0.060922409  0.062579683            2 
  352000    1.1117572   -4.5173327    256.16499   0.06064512  0.062552215            3 
  353000    1.1273065   -4.4963049    256.80589  0.060624619  0.062524086            2 
  354000    1.1055841   -4.5404043    256.34621  0.060345152   0.06249262            2 
  355000    1.1095194   -4.5137621    257.52214  0.060451208  0.062460442            4 
  356000    1.1233734   -4.5074861    257.47228  0.060269729  0.062428589            2 
  357000    1.0979684   -4.5298315    257.91678  0.060204663  0.062393597            2 
  358000    1.1053729   -4.5092831    258.96341  0.060280123  0.062359935            1 
  359000    1.1375114   -4.4980874    260.44901   0.06045706  0.062327858            6 
  360000    1.1143434    -4.544882    259.57563  0.060086951  0.062293946            1 
  361000    1.0841506   -4.5174139    260.39739  0.060110201  0.062258366            3 
  362000    1.0991643   -4.5186503    261.69272  0.060242338  0.062224941            2 
  363000    1.1264338   -4.5689982    262.69148  0.060305666  0.062193295            2 
  364000     1.118937    -4.522098    262.91345  0.060190808  0.062162158            3 
  365000    1.0880299   -4.5303917    263.42007  0.060141568  0.062130147            5 
  366000    1.1245333   -4.5157839    264.75044  0.060280154  0.062099349            2 
  367000    1.0954063   -4.5195662    264.71855  0.060108663  0.062070162            2 
  368000    1.1198561   -4.5058428    266.10359  0.060258966  0.062040035            2 
  369000    1.0941855   -4.5281609    266.86527  0.060267677  0.062011664            3 
  370000    1.1093019   -4.5328423    267.27673  0.060197461  0.061982407            3 
  371000    1.0915996   -4.5344226    268.10004  0.060220135  0.061954335            2 
  372000    1.1136139   -4.5145489    268.59374  0.060168849  0.061923728            4 
  373000    1.1146619   -4.5481536     269.0853   0.06011736  0.061894007            3 
  374000    1.1169486    -4.511999    270.02636  0.060166302  0.061861672            2 
  375000    1.0987314   -4.5626662     269.7112  0.059935823  0.061830346            2 
  376000    1.0922089   -4.5385035    269.82835  0.059802383  0.061797552            5 
  377000    1.1076833   -4.5540892    270.96126  0.059894179   0.06176609            2 
  378000    1.0918082   -4.5484086    271.82196  0.059925475   0.06173434            2 
  379000    1.1207317   -4.5510945    272.26001  0.059863679  0.061704247            3 
  380000    1.1049374    -4.522477    273.30137   0.05993451  0.061674604            3 
  381000    1.0911927   -4.5249133    273.31184  0.059779492  0.061644328            2 
  382000    1.0862427   -4.5425848    274.37354  0.059854612  0.061614528            2 
  383000    1.1037673   -4.5380668    274.83442  0.059798613  0.061585409            3 
  384000    1.1082251   -4.5448103    275.56355  0.059801117   0.06155543            4 
  385000    1.1095215   -4.5441324    275.40316  0.059611073  0.061525753            2 
  386000    1.0841032   -4.5575016    276.64906  0.059725618  0.061494202            2 
  387000    1.1033926   -4.5403602    277.72589  0.059803162  0.061464018            2 
  388000    1.1106664   -4.5364706    278.58735  0.059834053  0.061434005            2 
  389000     1.094718   -4.5552368    279.52111  0.059880272  0.061405471            4 
  390000    1.0965047   -4.5576757    279.10028  0.059636812  0.061375749            1 
  391000     1.123356    -4.532543    280.97933  0.059884768  0.061348136            1 
  392000    1.1112287    -4.551489     280.7293  0.059678847  0.061319748            3 
  393000    1.1027942   -4.5670753     281.1489  0.059615966  0.061289269            3 
  394000    1.0971787   -4.5491925    282.28669  0.059705307  0.061259017            4 
  395000    1.0793645    -4.544241     281.8537  0.059462807  0.061229752            3 
  396000    1.0937615   -4.5580413    283.29337  0.059615607  0.061199857            3 
  397000    1.0909529   -4.5454466    283.22491  0.059451072  0.061170807            3 
  398000    1.0934044   -4.5553529    282.82529  0.059218026  0.061141821            2 
  399000    1.1054091   -4.5628955    285.00977  0.059525851  0.061112616            3 
  400000    1.1083386   -4.5371885    286.24953   0.05963532   0.06108264            1 
  401000    1.1060631   -4.5664562    285.02948  0.059233059  0.061051226            4 
  402000    1.0986754   -4.6022153    285.14352  0.059109353  0.061018829            4 
  403000    1.1181135   -4.5541099    287.28259  0.059405003  0.060986893            4 
  404000    1.0938472   -4.5767882    287.58702  0.059320754  0.060955962            1 
  405000    1.0951935   -4.5453715    288.16962  0.059294161  0.060924689            5 
  406000    1.0971949   -4.5777769    288.45066    0.0592058    0.0608928            5 
  407000    1.1106625   -4.5528406    290.00958  0.059379521  0.060862759            2 
  408000    1.0644995   -4.6071893    289.40878  0.059111271  0.060832749            3 
  409000    1.0942821   -4.5611035    291.35041  0.059362348  0.060802255            5 
  410000    1.0992836   -4.5763355    289.84652  0.058911894  0.060772377            5 
  411000    1.1286363   -4.5984573    290.92177  0.058986572  0.060743099            2 
  412000    1.0973825   -4.5629487    291.58206  0.058976955  0.060713088            2 
  413000    1.0788941   -4.5831201    291.93899  0.058906173  0.060683847            5 
  414000    1.1000355   -4.5598526    293.65347  0.059108992  0.060653454            3 
  415000    1.1030943   -4.5873649    293.43572  0.058922835   0.06062322            2 
  416000    1.0845228   -4.5844513    292.96127  0.058686153  0.060592117            3 
  417000    1.0935392   -4.5406693    295.05688  0.058964204  0.060559189            2 
  418000     1.075615   -4.5811124    294.70418  0.058752828  0.060526443            3 
  419000    1.0848874    -4.587641    296.03111  0.058876514  0.060495929            2 
  420000    1.0930065   -4.5639062    296.53383  0.058836076  0.060467431            4 
  421000    1.0924479   -4.5526872    297.43181  0.058874072  0.060435561            2 
  422000    1.0809233   -4.5635373    298.13677   0.05887377  0.060403552            5 
  423000    1.0665077   -4.5800487    297.22815  0.058555586  0.060371764            3 
  424000    1.1078591   -4.5617901    298.60124   0.05868735  0.060339851            3 
  425000    1.0976802    -4.567387    299.73145  0.058770873  0.060308574            5 
  426000    1.0970032   -4.5953791    298.91729  0.058473648  0.060276372            5 
  427000    1.0879431   -4.5933457    300.50769   0.05864709  0.060244978            1 
  428000     1.101971   -4.5901681    300.67125  0.058541909  0.060213073            3 
  429000    1.0860423   -4.5748848    300.55667  0.058383191  0.060181629            5 
  430000    1.0627448   -4.5611264    301.86125  0.058500241  0.060149092            3 
  431000    1.0869757   -4.5793517    302.25826  0.058441273  0.060116134            2 
  432000    1.0744639   -4.5759544    302.56469  0.058365103  0.060081382            2 
  433000    1.0886932   -4.5805166    302.69941  0.058256238  0.060047677            3 
  434000    1.1011883   -4.5889128    303.15886  0.058210226  0.060013608            1 
  435000     1.079238   -4.5930296    303.55533  0.058152362  0.059980127            3 
  436000    1.0698913   -4.5590873    305.47918  0.058386693  0.059946616            1 
  437000    1.0708372   -4.5584232     305.1609   0.05819239  0.059912365            3 
  438000     1.072862    -4.578852    306.10064  0.058238325  0.059878125            6 
  439000    1.0697386   -4.5969949    305.50121  0.057991877  0.059844346            3 
  440000    1.0821607   -4.5691731    307.07862   0.05815883  0.059810887            3 
  441000    1.0697207   -4.6221836    306.78333  0.057971151  0.059776324            3 
  442000    1.0693635   -4.6107682    307.71597  0.058015832  0.059742243            2 
  443000    1.0720041   -4.6313604    308.87254  0.058102435  0.059711444            4 
  444000    1.0913126   -4.5828904    309.41273  0.058072961  0.059679516            2 
  445000    1.0757705   -4.5771625    310.04135  0.058060178  0.059647013            3 
  446000    1.0545522    -4.565497    310.27836  0.057974282  0.059615115            5 
  447000    1.0738737    -4.605892    310.28929  0.057846625  0.059583086            2 
  448000    1.0685797   -4.5871191    311.86911  0.058011366   0.05955216            2 
  449000    1.0760117   -4.5673751    312.01614  0.057909455  0.059520275            5 
  450000    1.0573766   -4.6150137    312.72225  0.057911528  0.059489229            2 
  451000     1.087824   -4.6427344     313.2341  0.057877698  0.059457887            4 
  452000    1.0666931   -4.5905184    314.71351  0.058022402  0.059427439            2 
  453000    1.0605871   -4.5762713    315.37084  0.058015239  0.059396279            2 
  454000    1.0504135   -4.5860739    315.18579  0.057853485  0.059364983            3 
  455000    1.0764063     -4.58331    316.32852  0.057935626  0.059334058            2 
  456000    1.0467202   -4.6005434    316.21529  0.057787883  0.059302242            4 
  457000    1.0701444   -4.6113215    315.56949  0.057543671  0.059272012            3 
  458000    1.0649774   -4.5991415    317.37427   0.05774641   0.05924095            4 
  459000    1.0971945   -4.6077768    316.40488  0.057444603  0.059209368            4 
  460000    1.0734108   -4.6247175    317.08746  0.057443381  0.059177558            3 
  461000    1.0454207   -4.5933664    320.36374  0.057911016  0.059145086            4 
  462000    1.0745729   -4.5771968    320.51676  0.057813268  0.059115352            1 
  463000     1.052874   -4.6552646    318.34871  0.057298185  0.059083919            3 
  464000    1.0680942   -4.6083393    321.00539   0.05765183  0.059052475            4 
  465000    1.0554247   -4.6205414    321.20477  0.057563579  0.059022349            2 
  466000    1.0774738   -4.5792692    322.29042  0.057634195  0.058992078            3 
  467000    1.0655058   -4.6119886    323.34329   0.05769866  0.058962788            3 
  468000    1.0756526   -4.6101266    323.47979  0.057599678  0.058932391            2 
  469000    1.0666085   -4.6006071    322.87272  0.057368997  0.058900966            3 
  470000    1.0877607   -4.6014103    323.87681  0.057424967   0.05887008            3 
  471000    1.0637203   -4.6223216    325.74082  0.057632841  0.058839373            2 
  472000    1.0812831   -4.6188219    326.12263  0.057578148  0.058809969            3 
  473000    1.0715261   -4.5953534    326.98509  0.057608367  0.058780476            7 
  474000    1.0485371   -4.6136428    327.87803  0.057643816  0.058752483            2 
  475000      1.07862   -4.6402958    327.76992  0.057503495  0.058724103            5 
  476000    1.0842772   -4.6088272     328.9499  0.057589268  0.058696201            4 
  477000    1.0392344   -4.6212037    328.69926  0.057424748   0.05866777            2 
  478000    1.0411256   -4.6298575    329.07649  0.057370379  0.058639497            3 
  479000    1.0554414   -4.6204689    329.85114  0.057385375  0.058611605            7 
  480000    1.0735173   -4.6473271    329.90697  0.057275515  0.058582756            3 
  481000    1.0559857   -4.6228828    331.66726  0.057461411  0.058554035            4 
  482000    1.0687764   -4.6436678    331.18602  0.057258993  0.058524389            3 
  483000    1.0460657   -4.5794771    331.96028  0.057274031  0.058495656            3 
  484000    1.0852362    -4.617702    331.51379   0.05707882  0.058467252            4 
  485000    1.0695058   -4.5585796    333.10006  0.057233688   0.05843889            4 
  486000    1.0435908   -4.6477249    333.49908  0.057184342  0.058409911            6 
  487000    1.0712653   -4.6141932    333.96801  0.057147161  0.058380875            6 
  488000    1.0573506   -4.6136204     333.9264  0.057022951  0.058352605            3 
  489000    1.0665681   -4.6198122    335.44043  0.057164354  0.058323662            1 
  490000    1.0597519   -4.6261491    335.36807  0.057035385  0.058294786            2 
  491000    1.0604697   -4.6171985    335.37673  0.056920694  0.058265777            2 
  492000    1.0568501   -4.6259323    335.80713  0.056877901  0.058235033            9 
  493000    1.0429447   -4.6351409     336.7709  0.056925439  0.058205307            4 
  494000    1.0646675   -4.6448337     337.1923  0.056881293  0.058174797            6 
  495000    1.0596746   -4.6720868      337.568  0.056829629  0.058144107            2 
  496000     1.087453     -4.60973     339.3079  0.057007375  0.058114681            2 
  497000    1.0589807     -4.59761    339.66771  0.056953004  0.058086328            6 
  498000    1.0602923   -4.6181838    340.30412  0.056945135   0.05805771            6 
  499000    1.0450567   -4.6139137    339.87931  0.056760072  0.058028742            1 
  500000    1.0538357   -4.6154242    341.29479  0.056882465  0.057999593            3 
  501000    1.0673865   -4.6624452    340.91874  0.056706377  0.057970597            6 
  502000    1.0383327   -4.6742769    341.80138  0.056739937  0.057940286            2 
  503000    1.0348494   -4.6420273    342.42956  0.056731206  0.057911888            3 
  504000    1.0514424   -4.6609924     341.5239  0.056468899  0.057883431            6 
  505000    1.0614062   -4.6366355    344.17016  0.056793755  0.057855935            3 
  506000    1.0737519   -4.6575385    344.84719  0.056793015  0.057829374            3 
  507000    1.0491014   -4.6352208    346.13047  0.056891925  0.057802795            2 
  508000    1.0513772    -4.649704    346.58408  0.056854344  0.057776588            2 
  509000    1.0545436   -4.6379352    348.19182  0.057005864  0.057751288            1 
  510000    1.0439833   -4.6010951    347.85177  0.056838524  0.057725425            2 
  511000    1.0544281   -4.6401998    348.32268   0.05680409  0.057700184            2 
  512000     1.072091   -4.6356288    348.90438  0.056787823  0.057673661            3 
  513000    1.0565107    -4.661105    349.87699  0.056835119  0.057647148            3 
  514000     1.047125   -4.6488761    350.77386  0.056869951  0.057620959            2 
  515000    1.0556056   -4.6558478    349.93593  0.056623936  0.057594323            1 
  516000    1.0685664   -4.6496083    351.25448  0.056727145  0.057568916            1 
  517000    1.0414989   -4.6408184    352.33113  0.056790962  0.057543453            2 
  518000    1.0470694   -4.6149546    352.55845  0.056717898  0.057518685            3 
  519000    1.0367371   -4.6319105    353.33334  0.056733034  0.057493196            4 
  520000    1.0463014   -4.6296896    353.18903  0.056600806  0.057468856            5 
  521000    1.0242967   -4.6028643     354.3135  0.056672025  0.057443704            2 
  522000     1.040165   -4.6176795    354.66974  0.056620328  0.057418513            2 
  523000    1.0544993   -4.6615608    353.93169  0.056394469  0.057392494            4 
  524000    1.0480804   -4.6273485    355.39499   0.05651956   0.05736627            2 
  525000    1.0401942   -4.6318966    355.15525  0.056373849  0.057340293            2 
  526000    1.0252138   -4.6207496    357.10562  0.056575669  0.057314518            2 
  527000    1.0189731   -4.6712904    357.23438  0.056488675   0.05728948            2 
  528000    1.0380809   -4.6437649    357.50329   0.05642413  0.057263469            4 
  529000    1.0542657   -4.6674298     357.0495  0.056245983  0.057237279            4 
  530000    1.0366288   -4.6584423    357.96005  0.056283026  0.057211101            3 
  531000    1.0748947   -4.6473001    359.35546  0.056396024  0.057185314            4 
  532000    1.0395689   -4.6641317    359.59618  0.056327722  0.057159671            2 
  533000    1.0601971   -4.6585554    360.80867  0.056411612  0.057134599            5 
  534000    1.0431317   -4.6775426    359.62439   0.05612116  0.057108302            3 
  535000    1.0560096   -4.6856356    360.26248  0.056115651  0.057082053            3 
  536000    1.0249039   -4.6842588    361.57176  0.056214514  0.057056373            2 
  537000     1.047119   -4.6668525    362.35035  0.056230657  0.057029566            5 
  538000    1.0345824   -4.6514141     361.4785  0.055991094  0.057002618            3 
  539000    1.0450109   -4.6497344    363.09878  0.056137721   0.05697545            2 
  540000    1.0439293   -4.6039795    364.64508  0.056272388   0.05694908            2 
  541000    1.0393816   -4.6769642    364.05914  0.056078118  0.056922914            2 
  542000    1.0523665   -4.6715719    364.02165  0.055968888  0.056896729            2 
  543000    1.0641151   -4.6604666    365.07805  0.056027939  0.056870337            2 
  544000    1.0391218   -4.6751416    364.61239  0.055853614   0.05684375            3 
  545000    1.0224449   -4.6657218    365.97965  0.055960191  0.056815926            4 
  546000    1.0347258   -4.6841035    365.60379  0.055800334  0.056789175            2 
  547000    1.0289107    -4.687033    366.05982  0.055767797  0.056761414           10 
  548000    1.0282971   -4.6666523    367.95132  0.055953668  0.056733881            2 
  549000    1.0321376    -4.643056    368.23431  0.055894704  0.056707011            2 
  550000    1.0287409   -4.6558611    368.99028  0.055907619  0.056680231            4 
  551000    1.0560698     -4.65102    369.31932  0.055855916  0.056653546            4 
  552000    1.0105254   -4.6947938    368.55768  0.055639747  0.056626972            3 
  553000    1.0472197    -4.634016    371.44989  0.055974969   0.05659971            2 
  554000    1.0579468   -4.6775023    370.92027  0.055794264  0.056573823            4 
  555000    1.0149603   -4.6780894    370.27767  0.055597247  0.056547568            3 
  556000    1.0620088   -4.6829247     373.3428  0.055956655  0.056521288            4 
  557000    1.0271428   -4.6767981    372.04338  0.055661787  0.056494722            4 
  558000    1.0247941    -4.688999    371.93962  0.055546538  0.056467245            7 
  559000    1.0300891   -4.6559069    374.07878  0.055766067  0.056440175            2 
  560000     1.061396   -4.6893594     372.1139  0.055374092   0.05641368            3 
  561000   0.99790757     -4.66317    375.00675  0.055705102  0.056387451            6 
  562000    1.0401288    -4.699856    375.26888  0.055644852  0.056361627            3 
  563000    1.0263089   -4.6783899     375.7158  0.055612167  0.056335073            3 
  564000    1.0229033   -4.6940093     374.4086   0.05532042   0.05630845            2 
  565000    1.0389473   -4.7039429    374.80126  0.055280422  0.056280604            3 
  566000    1.0379905   -4.6725039    375.29249  0.055255078  0.056253625            1 
  567000    1.0288271   -4.6959406     375.6711  0.055213271  0.056226918            2 
  568000    1.0241739   -4.6997055    378.60953  0.055547173   0.05619972            3 
  569000    1.0384586   -4.6890734    377.23445  0.055248162   0.05617342            2 
  570000    1.0240662   -4.6457984     378.8176  0.055382691  0.056147264            3 
  571000    1.0185577   -4.6631335    379.37013  0.055366335  0.056121631            5 
  572000    1.0376886   -4.6855143    379.24239  0.055250932  0.056096773            2 
  573000     1.020192   -4.6793309    382.57054  0.055638532  0.056071982            2 
  574000    1.0335457   -4.7122989     381.8566   0.05543795  0.056047329            3 
  575000    1.0332703   -4.6913874    382.36826   0.05541569  0.056022396            3 
  576000    1.0123294   -4.6579028    383.96045  0.055549834  0.055997546            3 
  577000    1.0272524   -4.6976968    382.62714  0.055260997  0.055972026            4 
  578000    1.0212313   -4.6995071      384.001  0.055363466  0.055946464            4 
  579000    1.0581774   -4.6880299    382.63633  0.055071435  0.055921106            4 
  580000    1.0258606   -4.7104853    382.66397  0.054980456  0.055894858            4 
  581000     1.017246   -4.6865409    384.38705  0.055132967  0.055868869            3 
  582000    1.0014152    -4.686287    384.53433  0.055059325    0.0558419            2 
  583000    1.0067942   -4.6649642    386.36691  0.055226831  0.055814884            5 
  584000     1.001653   -4.6932023    385.43735  0.054999622  0.055788111            6 
  585000    1.0300779   -4.7025414    385.04222   0.05484932  0.055761149            3 
  586000   0.99854408   -4.6952203    385.30398  0.054792943  0.055734831            3 
  587000    1.0077222   -4.7068574    386.11431  0.054814637  0.055707274            3 
  588000    1.0225042   -4.7048063    385.75881  0.054671034  0.055678379            3 
  589000    1.0256521    -4.691866    387.43708  0.054815659  0.055650365            2 
  590000    1.0159546   -4.7294697    384.69319  0.054335196  0.055621798            1 
  591000    1.0319601   -4.6984797    386.80619  0.054541199  0.055593919            2 
  592000    1.0203478   -4.7249116    387.29474  0.054517841  0.055565898            5 
  593000    1.0004244   -4.6849717      389.395  0.054721051  0.055537526            4 
  594000    1.0535446   -4.6839255     387.9378  0.054424495  0.055509298            2 
  595000    1.0437512    -4.723106    387.21851  0.054232285   0.05547934            2 
  596000     1.027006   -4.7035044    388.84183  0.054368265  0.055449661            3 
  597000   0.99418722   -4.7132185     388.3658  0.054210748  0.055418484            3 
  598000   0.99685042   -4.6859828    390.51628  0.054419772  0.055388402            2 
  599000   0.99265601   -4.7020482    389.47937  0.054184665  0.055358542            3 
  600000   0.99491309   -4.7137353    390.67483  0.054260393  0.055328523            3 
  601000    1.0206104   -4.7224152    390.91427   0.05420331  0.055298125            6 
  602000    1.0394802   -4.7259626     390.0044   0.05398732  0.055267672            4 
  603000    1.0075025   -4.6700751    393.25963  0.054347655   0.05523739            5 
  604000   0.99248294   -4.6922849    392.41298  0.054140863  0.055207521            5 
  605000    1.0265135   -4.7033187    389.57896  0.053661014   0.05517739            4 
  606000   0.99598228   -4.6928094    393.57276  0.054121667  0.055146607            3 
  607000    1.0174049   -4.7021145    391.75162  0.053782485  0.055117041            3 
  608000    1.0346071   -4.7089298    394.22637  0.054033219   0.05508742            2 
  609000    1.0207216   -4.6965056    394.23819  0.053946113  0.055057881            5 
  610000    1.0162263   -4.7539315    394.65709  0.053914903  0.055028058            2 
  611000      1.00339   -4.6879394    396.43186   0.05406872  0.054998579            2 
  612000    1.0336446   -4.7000581    395.97407  0.053918038  0.054969574            3 
  613000    1.0288141   -4.7167641    398.28219  0.054143855  0.054940783            2 
  614000    1.0032152   -4.7018761    399.39494  0.054206697  0.054912684            2 
  615000    1.0023792   -4.7204024    399.67268  0.054156189  0.054884911            2 
  616000    1.0071811   -4.7013335    399.06978  0.053986712  0.054857099            3 
  617000   0.99416658   -4.6971036     402.0488  0.054301567  0.054829598            3 
  618000    1.0107461   -4.7324664    400.64234  0.054024048  0.054802126            2 
  619000   0.96487621   -4.6857568    402.20387  0.054146994  0.054773944            3 
  620000    1.0048943   -4.6906372    402.16567  0.054054525  0.054746474            8 
  621000    1.0006701   -4.7197832    400.54603  0.053750138  0.054719267            5 
  622000   0.99697434   -4.7320016    402.48232  0.053923141  0.054692196            3 
  623000    1.0204894   -4.7146427    404.26647  0.054075237  0.054665389            3 
  624000    1.0074588   -4.7288015    405.17105  0.054109382  0.054638573            3 
  625000    1.0069413   -4.7605729     403.1725  0.053756333  0.054610993            4 
  626000   0.98235075   -4.7251433    404.47964  0.053844467  0.054583211            5 
  627000   0.98243366   -4.7278792    404.40826  0.053749104   0.05455584            2 
  628000    1.0159517   -4.7228841    406.08975  0.053886645  0.054528452            2 
  629000   0.99833313    -4.728722     406.6787  0.053879001  0.054501931            3 
  630000   0.98929909   -4.7246365    406.06186  0.053711886  0.054474865            8 
  631000    1.0086484   -4.7249265    406.04683   0.05362478  0.054448099            3 
  632000   0.98995153    -4.755987    406.07379  0.053543485  0.054421629            5 
  633000   0.97357685   -4.7243693    408.15291   0.05373261  0.054395215            4 
  634000     1.021307   -4.6993588    410.20115  0.053917081  0.054369889            1 
  635000    1.0275757   -4.7459759    408.58983  0.053620712  0.054344194            5 
  636000    1.0029437   -4.7000753    409.76305  0.053690127  0.054317849            2 
  637000   0.98863643    -4.738747    409.87708  0.053620759  0.054291519            2 
  638000   0.98079615   -4.8004448    409.97105  0.053548988  0.054266305            4 
  639000    1.0109454   -4.7232317    412.40261  0.053782291  0.054241102            2 
  640000   0.99192974   -4.7176318    413.29805   0.05381485  0.054216508            3 
  641000   0.97594741   -4.7087748    413.45352  0.053751107  0.054191566            2 
  642000   0.98892738   -4.7151558    414.39159  0.053789147  0.054166337            9 
  643000   0.98390502   -4.6984525    414.21442  0.053682533  0.054141507            4 
  644000     1.002996   -4.7495373    414.22532  0.053600585   0.05411656            2 
  645000    1.0190042   -4.7155091    416.14675  0.053765729  0.054091449            3 
  646000    1.0207338    -4.717798    413.91417    0.0533945  0.054066548            2 
  647000    1.0007352   -4.7557256    416.97535  0.053706254  0.054041344            4 
  648000   0.99874984   -4.7413039    415.48532  0.053431754   0.05401577            4 
  649000   0.98789574   -4.7396309    416.22207  0.053444025   0.05398995            4 
  650000   0.98385733   -4.7210181    416.43564  0.053389185  0.053964588            4 
  651000   0.98359947   -4.7413675    417.30788  0.053418828  0.053938804            5 
  652000   0.99043266   -4.7648753    416.34893  0.053214331  0.053912863            5 
  653000   0.99724441   -4.7426218    418.16211   0.05336423  0.053888076            4 
  654000   0.97825693   -4.7494996    418.49754  0.053325375  0.053863608            3 
  655000    1.0171368   -4.7537821    421.11415  0.053576864  0.053838835            3 
  656000   0.98681865   -4.7540747    419.73737  0.053320296  0.053814267            2 
  657000   0.99995377   -4.7587763    419.13328  0.053162517  0.053789273            2 
  658000   0.97942093   -4.7923913    419.86119   0.05317391  0.053764352            5 
  659000    1.0071714   -4.7763718    420.50748  0.053174947  0.053739638            3 
  660000   0.99095833   -4.7513951    421.60438  0.053232877  0.053714858            2 
  661000    0.9833669   -4.7480911    423.95216  0.053448331  0.053690285            2 
  662000    1.0371942   -4.7251796    423.86778  0.053356971   0.05366668            2 
  663000   0.99837644   -4.7763991    422.63027  0.053120949  0.053642636            4 
  664000   0.99205977   -4.7281338    423.78074  0.053185334  0.053617984            3 
  665000   0.99434556    -4.755241    424.91641  0.053247671  0.053593629            3 
  666000   0.99804488   -4.7417241    426.62446  0.053381439  0.053569356            6 
  667000   0.97842894   -4.7920324     423.2636   0.05288151  0.053544458            3 
  668000   0.99261898   -4.7451803    426.04798  0.053149698  0.053519819            3 
  669000   0.97981715   -4.7596918    425.39179  0.052988514  0.053495718            2 
  670000   0.99025329    -4.739273    427.18011  0.053131854  0.053471415            3 
  671000   0.99077781   -4.7379534    427.86955  0.053138295  0.053446922            4 
  672000    0.9761685   -4.7428549    427.66222  0.053033509  0.053422878            3 
  673000   0.99193379   -4.7713613    426.97933  0.052870149  0.053398389            4 
  674000   0.99195972   -4.7743019    428.24965   0.05294877  0.053374698            4 
  675000   0.97475121   -4.7897529    429.31638  0.053002022  0.053350101            6 
  676000   0.99733824   -4.7596937    430.18155   0.05303027  0.053326103            2 
  677000   0.99987378   -4.7269808    430.93793  0.053045043  0.053302524            3 
  678000   0.97831838    -4.749833    431.07709  0.052983909  0.053280048            6 
  679000   0.96645425   -4.7661264    432.29083   0.05305484  0.053256547            2 
  680000   0.98837716   -4.7557085    433.08216  0.053073794   0.05323307            4 
  681000    1.0021942   -4.7553101    432.56735  0.052932862  0.053209183            3 
  682000   0.99366768   -4.7603247    433.03278  0.052912119  0.053185938            4 
  683000   0.95508918   -4.7772399    431.52983  0.052651272  0.053162256            3 
  684000   0.99617883   -4.7455295     434.5981  0.052948112  0.053138297            2 
  685000   0.97845378   -4.7818823    432.37604  0.052600491   0.05311422            4 
  686000   0.97711339   -4.7591961    433.75679  0.052691544  0.053089913            3 
  687000    1.0033836   -4.7817704    434.89659  0.052753104  0.053065787            3 
  688000   0.97946096   -4.7809454    434.17125  0.052588572  0.053040862            3 
  689000   0.99747136   -4.7659547    433.37412  0.052415835  0.053016089            3 
  690000   0.97780633   -4.7950435    435.26711  0.052568492  0.052991983            2 
  691000   0.98068523   -4.7448194    438.44274   0.05287539  0.052967305            2 
  692000   0.96025932   -4.7922708    435.34715  0.052426198  0.052942642            4 
  693000   0.98174343   -4.7773433    435.22207  0.052335507  0.052917824            4 
  694000   0.97770892    -4.775168    436.57577  0.052422643  0.052892853            5 
  695000   0.98056219   -4.7818589    436.92074  0.052388578  0.052868729            2 
  696000   0.97114243   -4.7785279     438.0914  0.052453472  0.052844256            4 
  697000   0.96530109   -4.7797599    438.20519  0.052391821  0.052819971            3 
  698000   0.95337368   -4.7903543    439.04466  0.052416984  0.052795889            4 
  699000   0.97083864   -4.7609338    438.78049  0.052310502  0.052772169            2 
  700000   0.98538204   -4.7565119    440.31246   0.05241815  0.052747977            5 
  701000   0.95728683   -4.7754895    440.86657  0.052409245  0.052724419            3 
  702000   0.97283607   -4.7618512    442.72968  0.052555755  0.052701095            2 
  703000   0.96705351   -4.7960643    441.67309  0.052355748   0.05267733            4 
  704000   0.95868289   -4.7729533    442.25901  0.052350735  0.052654132            6 
  705000   0.97118228   -4.8080252    443.57161  0.052431633  0.052631056            3 
  706000   0.97456346   -4.7694552    443.20667  0.052314291  0.052607977            5 
  707000   0.97477718   -4.7798783    442.85922  0.052199342  0.052585217            3 
  708000   0.96611589   -4.7873105    444.25135  0.052289471  0.052561618            2 
  709000   0.98998938   -4.8133548    444.86121  0.052287401  0.052537789            2 
  710000   0.97973925   -4.7547025    445.91145  0.052337025   0.05251402            2 
  711000   0.97171413   -4.7765986    444.14782  0.052056706  0.052489885            2 
  712000   0.96731567   -4.7778299    445.51799  0.052143959  0.052465922            3 
  713000   0.96288913   -4.7764534    446.73851  0.052213477  0.052441563            6 
  714000   0.97429354    -4.793311    446.06634  0.052061898  0.052417972            4 
  715000        0.964   -4.7803811    446.14725  0.051998514  0.052394312            4 
  716000   0.95386824   -4.7919581    447.62736  0.052098156  0.052370911            3 
  717000    0.9760975   -4.8012551    448.25057  0.052097927  0.052347604            3 
  718000   0.97893081   -4.8128353    447.59148  0.051948872  0.052323849            7 
  719000    0.9841925   -4.7622046    448.26009  0.051954114  0.052299674            7 
  720000   0.96759162   -4.7660535    449.13151  0.051982813  0.052276175            6 
  721000   0.96889672   -4.8220382    447.68651  0.051743702  0.052251949            3 
  722000   0.96548872   -4.8052554    449.77134  0.051912666  0.052227513            3 
  723000   0.95254988   -4.8351345    450.39106  0.051912294  0.052203654            4 
  724000    0.9811199   -4.7856982    450.79757  0.051887382   0.05217994            4 
  725000   0.96581732   -4.7604335    452.18788  0.051975618  0.052155949            3 
  726000   0.97628611    -4.766533    451.37003   0.05181015  0.052132231            3 
  727000   0.96206673   -4.7776535    452.82529  0.051905696  0.052108313            5 
  728000   0.97012341   -4.7929752    452.96703  0.051850622  0.052084713            2 
  729000   0.94769003   -4.7571085    453.23063  0.051809628  0.052060479            2 
  730000   0.95925184   -4.7919312    451.91633  0.051588622  0.052036244            6 
  731000   0.95408694   -4.8159668     452.4875  0.051583163  0.052011318            2 
  732000   0.96792015    -4.809318    455.36941   0.05184078  0.051987074            3 
  733000   0.94460301    -4.786689    455.41015  0.051774687  0.051963313            4 
  734000   0.95544819   -4.7662204    456.74492   0.05185569  0.051940409            3 
  735000   0.95706658   -4.8159545    455.73246  0.051670347  0.051916956            7 
  736000   0.97118623   -4.8083649    456.39405   0.05167505  0.051893451            1 
  737000   0.95970454   -4.8064618    456.88317  0.051660241  0.051869837            5 
  738000   0.96281362   -4.7988821    457.58881   0.05166992   0.05184631            2 
  739000    0.9691134   -4.8029139    456.88629  0.051520782  0.051822744            3 
  740000   0.94653305   -4.8096642    457.42409  0.051511722  0.051799356            6 
  741000   0.97097955    -4.798674    459.67538  0.051695387  0.051776105            2 
  742000   0.94130005    -4.770139     459.8821  0.051648933   0.05175302            4 
  743000   0.93991713   -4.7991483    459.71583  0.051560771   0.05173055            5 
  744000   0.96193254   -4.8186521    458.34358  0.051337767  0.051707663            3 
  745000   0.97490729   -4.8004682    460.62708  0.051524282  0.051684084            4 
  746000   0.96670119   -4.8294503    459.56828  0.051336939  0.051660533            2 
  747000   0.96901883   -4.8287516    459.41845    0.0512515  0.051637469            3 
  748000   0.96191868   -4.7864943    462.14944  0.051487238  0.051614878            1 
  749000   0.95409084     -4.79365      463.078  0.051521807    0.0515918            2 
  750000   0.93683903   -4.8486398    461.39232  0.051265814  0.051568005            2 
  751000   0.93814639   -4.8520207    462.75657  0.051348932  0.051544031            4 
  752000   0.93416218   -4.8302239    462.35315  0.051235943  0.051520532            4 
  753000   0.95290593   -4.8312505    462.94013  0.051232861  0.051496681            5 
  754000   0.95109394   -4.8262314    462.38145  0.051103166  0.051472737            5 
  755000   0.95908081   -4.8307305    463.47018  0.051155649   0.05144908            2 
  756000   0.93706794   -4.8515219    463.42438  0.051082935  0.051425392            7 
  757000   0.93569967   -4.8380302    464.44098  0.051127364  0.051401631            2 
  758000   0.93909638   -4.8138654    465.36184  0.051161152  0.051378069            3 
  759000   0.96893803    -4.824479    466.23769  0.051189909  0.051354932            5 
  760000   0.92251567   -4.8362641    466.43156  0.051143811  0.051331799            9 
  761000   0.95622466   -4.8504398    466.10979   0.05104137  0.051308551            4 
  762000   0.95197198   -4.8461336    464.71886  0.050822272  0.051285228            3 
  763000   0.95190926   -4.8276148    466.49225   0.05094935  0.051261468            4 
  764000   0.94296522   -4.8069825    469.92923  0.051257552  0.051237692            4 
  765000   0.95253307   -4.8271482    468.72277  0.051059125  0.051214798            3 
  766000   0.93061983   -4.8232065    469.07859  0.051031178  0.051192438            6 
  767000   0.93822121   -4.8161842    469.61781   0.05102323  0.051169034            3 
  768000   0.95015847   -4.8221752    470.30851   0.05103174  0.051145972            5 
  769000   0.94001442   -4.8213245    470.43906  0.050979525  0.051122714            2 
  770000   0.93991849   -4.8283897    471.20414  0.050996119  0.051099411            5 
  771000   0.95949332    -4.831889    470.29855  0.050832096  0.051076376            3 
  772000   0.94785933   -4.8409635    469.97169  0.050730969  0.051053056            3 
  773000   0.94256378   -4.8327093    471.97379  0.050881176  0.051029449            5 
  774000   0.94501649   -4.8620189    469.30207  0.050527786  0.051005745            4 
  775000   0.94773247   -4.8328128    471.92043  0.050744133  0.050981985            3 
  776000   0.94537728   -4.8393775     472.3479  0.050724646  0.050958189            4 
  777000   0.96918865   -4.8436847    471.96293  0.050618075   0.05093438            2 
  778000   0.96136901   -4.8299691    474.03302  0.050774745   0.05091103            3 
  779000   0.96275179   -4.8309839    473.56853  0.050659877  0.050887365            4 
  780000   0.94049278   -4.8232328    474.77106  0.050723403  0.050863968            6 
  781000   0.93879147   -4.8053042    474.96726  0.050679392  0.050840206            6 
  782000   0.93759203   -4.8632079    473.99068  0.050510515  0.050816392            6 
  783000   0.93523983   -4.8427037    475.41252   0.05059733  0.050791912            3 
  784000   0.95174837   -4.8699627    474.99357  0.050488262  0.050767769            2 
  785000   0.95211767   -4.8534491    474.59906  0.050382066  0.050743993            3 
  786000   0.95271511   -4.8728621     475.9542  0.050461641  0.050720068            3 
  787000   0.91998091   -4.8621149    476.47853  0.050453042  0.050696496            3 
  788000   0.95209034   -4.8505051    478.23477  0.050574743  0.050672942            6 
  789000   0.94435006   -4.8592141    476.79003  0.050358051  0.050649125            3 
  790000   0.93920041   -4.8532544    476.32069  0.050244798  0.050625298            4 
  791000   0.93448716    -4.869522    478.75081  0.050437296  0.050601347            2 
  792000   0.93578544    -4.844742    478.61781  0.050359618  0.050578028            6 
  793000   0.96408208   -4.8435355    478.24705  0.050257151  0.050554197            7 
  794000   0.91988462   -4.8326118    478.33874  0.050203479  0.050530582            5 
  795000   0.91535952   -4.8298406    482.13362  0.050538115  0.050507105            5 
  796000   0.90252399   -4.8375221    482.47678   0.05051055  0.050483759            7 
  797000   0.94041981    -4.865677    478.99073  0.050082678  0.050459592            6 
  798000   0.93020254    -4.837203    480.65743  0.050193967  0.050435539            5 
  799000   0.93648368   -4.8565356    482.29765  0.050302216  0.050412324            5 
  800000   0.93697328   -4.8557097    480.76286  0.050079465  0.050389092            6 
  801000   0.94072075   -4.8371609    482.39047  0.050186274  0.050364876            3 
  802000   0.92826825   -4.8540013    481.43403  0.050024318  0.050341073            3 
  803000    0.9217554   -4.8548767    482.94978  0.050119321  0.050316835            5 
  804000   0.90919966   -4.8507164    482.94854  0.050056855  0.050292958            8 
  805000   0.93005505   -4.8838887    481.24415  0.049818235  0.050268524            2 
  806000   0.92973363   -4.8763163    481.96017  0.049830456  0.050243851            4 
  807000   0.93794186   -4.8204415    485.05627  0.050088422  0.050219582            4 
  808000   0.91927639     -4.86047    484.02158  0.049919718   0.05019539            5 
  809000   0.94276522   -4.8551066     484.8171  0.049939957  0.050171199            5 
  810000   0.90753242   -4.8680782    483.80428  0.049774103  0.050147416            5 
  811000   0.95484112   -4.8787221    485.88554  0.049926587  0.050123238            2 
  812000   0.91740803    -4.873808    484.95057  0.049769147  0.050099138            7 
  813000   0.96325652    -4.854559    486.30757  0.049847024  0.050075135            5 
  814000   0.93949562   -4.8772188    487.29392  0.049886765  0.050051547            3 
  815000    0.9223163   -4.8455248    487.63243  0.049860167   0.05002756            4 
  816000   0.92295897   -4.8767648    487.86879  0.049823202  0.050003878            3 
  817000   0.92939073   -4.8621258    486.58556   0.04963133  0.049980286            2 
  818000   0.94224047   -4.8817724    487.71128  0.049685338  0.049956712            2 
  819000   0.91611844   -4.8732379    488.70847  0.049726136  0.049932952            4 
  820000   0.94047448   -4.8595095    488.95561  0.049690611  0.049909208            3 
  821000    0.9130308   -4.8726834    487.06237  0.049437918  0.049884728            3 
  822000   0.92891802   -4.8509078    488.55843  0.049529444  0.049860539            4 
  823000    0.9276462   -4.8674577    489.32794  0.049547179   0.04983633            3 
  824000   0.91590475   -4.8391624    488.49773  0.049403088  0.049811862            4 
  825000   0.94205432   -4.8742876    488.94302  0.049388184  0.049787775            6 
  826000   0.90566541   -4.8953075      489.231  0.049357446  0.049763783            7 
  827000   0.91698769   -4.8830321    490.39891  0.049415448  0.049739166            3 
  828000   0.92086503   -4.8501225    490.55146  0.049371121  0.049714807            4 
  829000   0.92064932   -4.8643272    493.10609  0.049568365  0.049690842            4 
  830000   0.91233955   -4.8811238    490.78605  0.049275707  0.049666548            3 
  831000   0.91621941   -4.8762209    493.25503  0.049464002  0.049642709           10 
  832000   0.93868944   -4.9065981    492.42811  0.049321726  0.049618971            3 
  833000   0.91118072   -4.8638116    493.85152  0.049404914  0.049595444            5 
  834000   0.93641229   -4.8622191    493.34651  0.049295214  0.049571648            5 
  835000   0.92034001   -4.9040325    494.46385  0.049347689  0.049547858            2 
  836000   0.93752713   -4.8486065    496.42209   0.04948386  0.049523872            3 
  837000   0.91832586   -4.8651151     495.2953  0.049312554  0.049499835            4 
  838000   0.91975284   -4.8758373     493.4571  0.049070913  0.049475755            5 
  839000   0.91905221   -4.8751945    493.64884   0.04903147  0.049450951            4 
  840000   0.92330037   -4.8958896    494.68066  0.049075463  0.049425942            5 
  841000   0.92819878   -4.9019635    495.10149  0.049058808   0.04940142            3 
  842000   0.92164189   -4.8931817    496.13018  0.049102354  0.049376771            4 
  843000    0.9190218    -4.876314    498.26661    0.0492553  0.049352072            4 
  844000   0.91947202   -4.8920748    497.09792  0.049081548  0.049328201            3 
  845000   0.91063096   -4.8837345    496.69954  0.048984175  0.049303355            9 
  846000    0.8935241   -4.8960195    497.63858  0.049018772  0.049278805            6 
  847000   0.93880331   -4.9023362    497.74249  0.048971122   0.04925472            6 
  848000   0.92101349   -4.8711406    498.70021  0.049007489  0.049230578            6 
  849000    0.9127924   -4.8899112    498.86884  0.048966317  0.049206589            5 
  850000   0.90784119   -4.9158494    499.15264  0.048936533  0.049182047            3 
  851000   0.89688545   -4.8832304    500.72075  0.049032584  0.049158009            5 
  852000   0.90854917   -4.8883261    500.41648  0.048945274  0.049134249            8 
  853000   0.90380909   -4.8918101    499.51217  0.048799548  0.049109777            5 
  854000   0.91154791   -4.9174836    500.66963  0.048855351  0.049085323            5 
  855000   0.92814656    -4.864017    500.91326  0.048821955  0.049061141            5 
  856000   0.91089668   -4.8970363    502.85322  0.048953779  0.049036774            3 
  857000    0.8887411   -4.8839902     502.2703  0.048839975  0.049012603            3 
  858000   0.92540722   -4.9109195    500.93759  0.048653612  0.048988712            3 
  859000   0.91653652   -4.8963685    503.02722  0.048799691  0.048964726            2 
  860000   0.90127209   -4.9147027    500.32842  0.048481436  0.048940785            4 
  861000   0.90384461   -4.8922584     502.6679  0.048651559  0.048917141           11 
  862000   0.91197849   -4.9412565    502.21849  0.048551672  0.048892845            2 
  863000   0.92336019   -4.9109587    503.22839  0.048592931   0.04886837           11 
  864000   0.89130478   -4.8780497    505.56478  0.048762035  0.048844551            4 
  865000    0.8962466   -4.9165474    503.60267  0.048516634  0.048821053            3 
  866000   0.91541933   -4.9148579    505.23293  0.048617487   0.04879706            2 
  867000   0.90230797   -4.8842689    505.81977  0.048617817  0.048772865            4 
  868000   0.91729462   -4.8753858    507.42144  0.048715576   0.04874917            5 
  869000   0.90681335   -4.8972671    505.87078  0.048510815  0.048725607            7 
  870000   0.91515951    -4.928873    507.14674  0.048577274  0.048701838            2 
  871000    0.9131031   -4.9077426    509.69697  0.048765497  0.048678708            5 
  872000   0.91275725   -4.8829671    508.16298  0.048562976  0.048655658            3 
  873000   0.89341673   -4.9033105    508.47931  0.048537544  0.048632231            2 
  874000   0.91293984   -4.8986831    508.50947  0.048484885   0.04860899            3 
  875000   0.91631336   -4.9417144    507.42792  0.048326469   0.04858529            6 
  876000   0.88199873   -4.9232744    508.46051  0.048369531  0.048561464            5 
  877000   0.90925492   -4.8838256    509.67177  0.048429473  0.048537247            8 
  878000    0.8876137   -4.9451523    507.85271  0.048201662  0.048513379            8 
  879000   0.91634836   -4.8983675    509.14233  0.048269087  0.048489486            3 
  880000   0.90314399    -4.920956    509.59381   0.04825699  0.048466123            5 
  881000   0.90112931   -4.9002489    514.33902  0.048651061   0.04844289            3 
  882000    0.8913045   -4.9075816     512.5015  0.048422288  0.048420241            4 
  883000   0.89645293   -4.9026381     513.1467   0.04842834  0.048397485            5 
  884000    0.9250876   -4.9246006    513.92104  0.048446554  0.048375273            3 
  885000   0.90848168   -4.9380906     510.9752  0.048114426  0.048352669            4 
  886000   0.89549715    -4.895938    512.52128  0.048205538  0.048330349            4 
  887000   0.89312349   -4.9026391    513.91581  0.048282207  0.048307652            6 
  888000    0.9150088   -4.9503699    515.28805  0.048356611  0.048284764            5 
  889000   0.91476629   -4.9216167    514.70921  0.048247957  0.048261842            5 
  890000    0.9079127   -4.9440131    514.92364  0.048213824  0.048239394            3 
  891000   0.90019254   -4.9138135    513.93322   0.04806708  0.048216815            7 
  892000   0.89135034   -4.9315451    514.81182  0.048095275  0.048193989            5 
  893000   0.88486182   -4.9183944    514.61459  0.048023011  0.048171365            3 
  894000   0.88504049   -4.9536491    515.31973  0.048035023  0.048148511            5 
  895000   0.87155852   -4.9222831    514.32111  0.047888371  0.048125484            5 
  896000   0.90268466   -4.9200124    517.16728  0.048099636  0.048102765            3 
  897000   0.90896299   -4.8962431    517.51646  0.048078452  0.048079811            5 
  898000   0.89336051   -4.9233711    515.91382   0.04787619  0.048057104            6 
  899000    0.9075334   -4.9346385    518.33053  0.048046953  0.048033801            3 
  900000   0.87783622    -4.944948     517.8361  0.047947787  0.048010598            3 
  901000   0.90961934    -4.910485    519.14232  0.048015383  0.047987313            6 
  902000   0.91860216   -4.9242009     517.5851  0.047818283  0.047963863            4 
  903000   0.90242605   -4.9361804    518.53137  0.047852655  0.047940509           13 
  904000   0.86112806   -4.9326583    517.30882  0.047687023  0.047916481            3 
  905000   0.89221588   -4.9425519    520.35786  0.047915088  0.047892405            3 
  906000   0.88424351   -4.9505095    519.50829  0.047784059  0.047868496            4 
  907000   0.88966347   -4.9729034     518.7862  0.047665031   0.04784505            5 
  908000   0.89618138   -4.9424342    518.15138  0.047554275  0.047821041            3 
  909000   0.87978875    -4.959486    520.80365  0.047745109  0.047797576            3 
  910000   0.89046182   -4.9360124    520.24586  0.047641562  0.047773885            7 
  911000   0.88640244   -4.9246263    521.55988  0.047709465  0.047750535            4 
  912000   0.90765922   -4.9378439    520.41639  0.047552667  0.047726978            5 
  913000   0.89026007   -4.9671939    520.30563  0.047490474  0.047703505           11 
  914000   0.89817215   -4.9299466    519.49673  0.047364764   0.04767941            3 
  915000   0.89673086   -4.9581895    519.26435  0.047291835   0.04765499            3 
  916000   0.87319565   -4.9550957    520.66053  0.047367224  0.047630715            5 
  917000   0.89647735   -4.9477322    523.00079  0.047528243  0.047606321            3 
  918000   0.88316039   -4.9538107    521.20745  0.047313675  0.047582045            3 
  919000   0.86482302   -4.9894802    521.06507  0.047249281   0.04755776            4 
  920000   0.88932969   -4.9406057    521.07153  0.047198508  0.047533063            8 
  921000    0.8862676   -4.9719697    519.86483  0.047038077  0.047508126            7 
  922000   0.89176803   -4.9694564    520.66887  0.047059731  0.047483031            7 
  923000   0.87846889   -4.9554968    522.71627  0.047193596  0.047457864            3 
  924000   0.87025795   -4.9740535    520.65992  0.046957063  0.047432669            5 
  925000   0.88857843   -4.9341283    523.38883  0.047152147  0.047407919            5 
  926000   0.89183857   -4.9692786    522.67495  0.047036983  0.047383267            2 
  927000    0.8819067    -4.908379    524.16879  0.047120532  0.047358953            4 
  928000   0.88326553   -4.9687456    525.86701  0.047222253  0.047334767            3 
  929000   0.86435129   -4.9528669     522.7964  0.046895981  0.047310079            4 
  930000   0.88851612   -4.9996868    523.49023  0.046907727  0.047285247            7 
  931000   0.88129878   -4.9402948    523.10553  0.046822908  0.047260052            8 
  932000   0.88071031   -4.9901294    522.22799  0.046694205  0.047234646            3 
  933000   0.87554053   -4.9922237    523.25972   0.04673631  0.047209342            6 
  934000   0.88488668   -4.9749886    523.50902  0.046708513  0.047183901            6 
  935000   0.87559537   -4.9849926    524.47776  0.046744899  0.047158466            6 
  936000   0.85960032   -4.9486736    524.08622  0.046660098  0.047132825            4 
  937000   0.87980806   -4.9864198    526.41215   0.04681716  0.047108021           11 
  938000   0.91075057   -4.9365226    525.78088  0.046711166  0.047083003            4 
  939000   0.86092781   -4.9303408    528.02576  0.046860646  0.047058454            8 
  940000   0.89676129   -4.9618437    526.86393  0.046707795  0.047033942            8 
  941000   0.89658864   -4.9600175    527.44311   0.04670945  0.047009409            4 
  942000   0.85015657   -4.9674862    528.11928  0.046719682  0.046984996            4 
  943000   0.87018743    -4.932122    529.36281  0.046780029  0.046960975            9 
  944000   0.86081911   -4.9795615    530.21492  0.046805695  0.046936789            5 
  945000   0.86403662    -4.972786    530.36864  0.046769721  0.046912923            7 
  946000   0.85566798   -4.9616104    528.40089  0.046546943  0.046888981            5 
  947000   0.86690116   -4.9772428    530.09442  0.046646816  0.046864974            5 
  948000     0.884736   -4.9684191    529.81489  0.046573039  0.046841483            4 
  949000    0.8764624    -4.940639    531.41314  0.046664308  0.046817992           15 
  950000    0.8833058   -4.9646495    531.50708  0.046623428  0.046794519            6 
  951000   0.87233744   -4.9854228    533.91331  0.046785253  0.046770976           12 
  952000   0.87943575   -4.9527449    533.90807  0.046735651  0.046747726            4 
  953000   0.87562725   -4.9801281    532.46578  0.046560491  0.046724119            3 
  954000   0.87812279   -4.9634386     533.4688  0.046599301  0.046700582            5 
  955000    0.8697265   -4.9819704     533.7169  0.046572156  0.046676817            4 
  956000   0.87923411   -4.9818455    533.39838  0.046495675  0.046653011           11 
  957000   0.87682892   -4.9450194    534.47551  0.046540884  0.046629602           10 
  958000   0.85928845   -4.9791279    534.98301  0.046536448  0.046606103           10 
  959000   0.88994646    -4.977621    535.26338  0.046512286  0.046582836            3 
  960000   0.87028781   -4.9679496    535.99684  0.046527503   0.04655928            6 
  961000   0.86493269   -4.9393694    537.09063  0.046573936  0.046535847            4 
  962000   0.88404865    -4.998865    535.13999  0.046356548  0.046512714            3 
  963000   0.88470279   -4.9792817     537.6595  0.046526436  0.046489283            4 
  964000   0.87197778    -4.953488     535.3122  0.046275259  0.046465323            5 
  965000    0.9032408   -4.9582876    535.06483  0.046205944  0.046441174            4 
  966000   0.85301372   -5.0000857    536.37381  0.046271033  0.046417174            4 
  967000   0.84872401   -4.9930389    534.95831  0.046101198  0.046393063            4 
  968000   0.86863167    -4.978301    537.77084  0.046295699  0.046368829            6 
  969000   0.86739289   -5.0040283    535.77789   0.04607653  0.046344683            4 
  970000    0.8794441    -4.970557    535.84514  0.046034806  0.046320497            3 
  971000   0.84290466    -4.975348    538.30038   0.04619811  0.046296208            4 
  972000   0.84321944   -4.9817097    538.55554  0.046172457  0.046271997            6 
  973000   0.86883431   -4.9668942    537.43624   0.04602914  0.046247854            5 
  974000   0.85018459   -5.0088316    537.01252   0.04594563  0.046223586            4 
  975000   0.86884256   -4.9912142    537.98605  0.045981714  0.046199586            6 
  976000   0.87933329   -5.0046401    537.68647  0.045909022   0.04617529            4 
  977000   0.86420306   -4.9819551     536.2513   0.04573962  0.046151038            3 
  978000   0.86492269   -4.9787909    538.70512  0.045901936  0.046127037            3 
  979000   0.85485931   -4.9890196    539.94046  0.045960202  0.046103027            3 
  980000   0.85514986   -5.0085689    539.17545  0.045848252  0.046078738            2 
  981000   0.87993539   -5.0052935    538.22406  0.045720699   0.04605412            4 
  982000   0.87201061   -5.0056243    540.42538  0.045860945  0.046029422            3 
  983000   0.85218523   -5.0010105    538.72079  0.045669785  0.046005096            6 
  984000   0.86384647   -4.9837831    540.21799  0.045750169  0.045980754            8 
  985000    0.8579261   -4.9918121    541.51904  0.045813793  0.045956622            3 
  986000   0.88443235   -4.9930534    540.18101  0.045654243  0.045932462            4 
  987000     0.863527   -4.9998672     540.7204   0.04565353  0.045908075            7 
  988000   0.87226828   -5.0157536    540.57409   0.04559498  0.045883611            3 
  989000   0.85041797   -4.9836691    542.22407  0.045687906  0.045859191            3 
  990000   0.85586817   -4.9594613    543.54086  0.045752598   0.04583488            4 
  991000   0.86197127   -5.0164708    541.45941    0.0455314  0.045810462            7 
  992000   0.86552158   -5.0095969     540.8494  0.045434258  0.045786097            4 
  993000   0.85488348   -5.0124919    543.82591  0.045638294  0.045761984            3 
  994000   0.84566231   -4.9774504    544.86163  0.045679211  0.045738101            4 
  995000   0.84935427   -5.0051633     545.8134  0.045713015  0.045714231            4 
  996000   0.85994999   -4.9776814    543.12969  0.045442578  0.045690544            6 
  997000   0.85581968   -4.9627811    545.82661  0.045622418  0.045666745            4 
  998000   0.86535924   -5.0338668    542.19896  0.045273795  0.045642603            5 
  999000   0.87809906   -5.0113727    545.63978  0.045515497  0.045618455            9 
 1000000    0.8516154   -4.9952324    546.93721  0.045578101  0.045594667            6 
 1001000   0.84828154   -5.0212423    545.77745  0.045436018  0.045570988            5 
 1002000   0.86321715   -5.0240116    546.40676   0.04544301  0.045547235           10 
 1003000   0.84738971   -5.0028516    545.66834  0.045336353  0.045523089            5 
 1004000   0.85524706   -5.0096263    546.49659  0.045359943   0.04549919            4 
 1005000   0.86233277   -5.0251985    545.67546  0.045246722  0.045474954            2 
 1006000   0.83956659   -4.9979206    547.76833   0.04537511  0.045451075            4 
 1007000   0.86558452    -5.033649     547.1754  0.045280983   0.04542703            3 
 1008000   0.86931536   -5.0102361    546.92485  0.045215348  0.045403288            5 
 1009000   0.85295554   -5.0186422    548.19869  0.045275742  0.045379655            6 
 1010000   0.86236568   -5.0158552    549.04303   0.04530058  0.045355843            3 
 1011000   0.85202369   -5.0614484    546.62434  0.045056408  0.045331844            3 
 1012000   0.87340407   -5.0168969    549.27036  0.045229773  0.045307801           10 
 1013000   0.84183764    -5.020571    548.74856  0.045142198  0.045284044            4 
 1014000   0.83549373    -5.033423    547.55112   0.04499927  0.045259846            7 
 1015000   0.84013103   -5.0150156    547.74772  0.044971077  0.045235796            5 
 1016000   0.86641848   -5.0319041    549.78054  0.045093548  0.045211948            4 
 1017000   0.83370403   -5.0203683    547.79143   0.04488622  0.045187778            4 
 1018000   0.84505788   -5.0369326     550.3075  0.045048093  0.045163765            8 
 1019000   0.83717018   -5.0169174    549.55004   0.04494194   0.04513986            6 
 1020000   0.85685398   -5.0292826    550.36211  0.044964225  0.045115675            7 
 1021000   0.86000364   -5.0141868    550.11877  0.044900324  0.045091443            6 
 1022000   0.86585288   -5.0207229    548.35084  0.044712234  0.045067165            4 
 1023000   0.84194285   -5.0310329    550.43116  0.044837989  0.045042829            6 
 1024000   0.82680531   -5.0338414    550.92874  0.044834696  0.045018371            7 
 1025000   0.84256479   -5.0326521    551.24867  0.044816965  0.044994109            3 
 1026000   0.84386604    -5.049148    548.65562  0.044562672   0.04496969            3 
 1027000   0.85130863   -5.0327604    551.45997  0.044746833  0.044945292            6 
 1028000   0.85770253   -5.0490825    551.72414   0.04472472  0.044920801            3 
 1029000   0.84476173   -5.0147276    552.98395  0.044783281  0.044896619            6 
 1030000   0.84325994    -5.050455    551.75486  0.044640361  0.044872255            8 
 1031000   0.85744353   -5.0194043    552.30069  0.044641181  0.044848107            3 
 1032000   0.83944065   -5.0217546    553.18013  0.044668938  0.044823575            3 
 1033000   0.82497705   -5.0644848    552.74469  0.044590569  0.044799271            3 
 1034000   0.84462004   -5.0154735     555.1437  0.044740788  0.044774958            9 
 1035000   0.82814253   -5.0325607    555.00935  0.044686743  0.044750556            6 
 1036000   0.83675884   -5.0559057    552.83598  0.044468789  0.044726414            6 
 1037000   0.83551967   -5.0764618     553.8001  0.044503383  0.044702451            6 
 1038000   0.82193832   -5.0275967    555.27143  0.044578631  0.044678332            4 
 1039000   0.83090672   -5.0486102    555.49566   0.04455371  0.044654319            6 
 1040000   0.84085616   -5.0607211    554.66348  0.044444189  0.044630633            4 
 1041000   0.84121931   -5.0236061    555.90237   0.04450067  0.044606835            3 
 1042000   0.83839014   -5.0300839    556.54261  0.044509166  0.044582805            8 
 1043000   0.82636018   -5.0416752    556.94553  0.044498684   0.04455931            6 
 1044000    0.8352956   -5.0502846    555.65228  0.044352832  0.044535547            6 
 1045000   0.83588882   -5.0375538    554.72716  0.044236615  0.044511397            8 
 1046000   0.84701557   -5.0371487      556.581  0.044342017  0.044487078           13 
 1047000   0.82600793    -5.056573    556.03927  0.044256548  0.044463019            5 
 1048000   0.83736906   -5.0605114    554.93868  0.044126803  0.044438466            4 
 1049000   0.84128565   -5.0223947     555.6609  0.044142111  0.044414187            3 
 1050000    0.8257934   -5.0439819    557.50396  0.044246346  0.044389831            2 
 1051000   0.83164233   -5.0653685    555.93717  0.044080017  0.044365039            3 
 1052000   0.84218568   -5.0464927    556.30071  0.044066913  0.044340415           10 
 1053000   0.83389611   -5.0604375     557.0303  0.044082803  0.044315851           14 
 1054000    0.8452685   -5.0564343    556.66579   0.04401216  0.044291429            5 
 1055000   0.82759296   -5.0439498     558.4872  0.044114313  0.044267147            3 
 1056000   0.83123405   -5.0675331     558.6876  0.044088353  0.044242848            5 
 1057000   0.83080262   -5.0513685    557.25754  0.043933896  0.044218433            3 
 1058000   0.83249874   -5.0509526    560.18528  0.044122974  0.044194238            3 
 1059000    0.8235657   -5.1053792    559.28965  0.044010831  0.044170284            9 
 1060000   0.83311266   -5.0302512    560.58911  0.044071471  0.044146498            8 
 1061000    0.8191149   -5.0640856    559.41603  0.043937797   0.04412257            6 
 1062000   0.82561515   -5.0742781    560.66408  0.043994357  0.044098421            5 
 1063000   0.81601967   -5.0646438     559.7471  0.043881084  0.044074209            3 
 1064000   0.82739295    -5.099098    559.18019  0.043795441  0.044050243            6 
 1065000   0.83497618   -5.0692257    562.15273  0.043986912  0.044026177            6 
 1066000   0.82905488   -5.0727266    562.16308  0.043946457   0.04400274            2 
 1067000   0.83885085    -4.997661    562.17996  0.043906589  0.043979219            4 
 1068000   0.82633311   -5.0837262    561.97384  0.043849395  0.043955729           10 
 1069000   0.82317917   -5.0737603    563.18167  0.043902531  0.043931984            4 
 1070000   0.83156864   -5.1020769    563.38892  0.043877642  0.043908436            8 
 1071000   0.81940372    -5.059716    563.50278  0.043845532  0.043884616           10 
 1072000   0.82608616   -5.0796957    564.20288  0.043859055  0.043860885            6 
 1073000   0.80716958   -5.0608791    564.42412  0.043835362   0.04383715            8 
 1074000   0.82565494   -5.0910147     563.8177  0.043747494  0.043813767            5 
 1075000   0.83098405   -5.0832969    564.03485  0.043723632  0.043790257            4 
 1076000   0.82597103   -5.0501731    565.72453  0.043813858  0.043766758            4 
 1077000   0.82519973    -5.074041    564.18185  0.043653811   0.04374286            8 
 1078000   0.82274659   -5.0877817    564.57614  0.043643796  0.043719295            5 
 1079000   0.83135281   -5.1069954    564.40059  0.043589789  0.043695268            3 
 1080000   0.83331738   -5.0719143    564.61464  0.043565944   0.04367142            3 
 1081000   0.82386225   -5.0533869    564.26593  0.043498761  0.043647576            5 
 1082000    0.8123336   -5.0832641    564.96679  0.043512538  0.043623722            5 
 1083000   0.80703946   -5.0570997    567.26688  0.043649345  0.043600419            4 
 1084000   0.81121217    -5.079442    566.54115  0.043553286  0.043577066            4 
 1085000   0.80287691   -5.0926861    567.75366  0.043606272  0.043553624            6 
 1086000   0.81907964   -5.0772708    565.86349  0.043421078  0.043530027            6 
 1087000   0.81180453   -5.1046666    566.57494  0.043435674  0.043506338           14 
 1088000   0.83526383    -5.092356    567.12455  0.043437849  0.043482854            7 
 1089000   0.84114437   -5.0748687    567.45975  0.043423611  0.043459212            5 
 1090000   0.80732831   -5.0961306    567.39086  0.043378506   0.04343585            4 
 1091000   0.81354689   -5.0715008    565.99584  0.043232191  0.043412334            6 
 1092000   0.82210086   -5.1121689    568.65231  0.043395323  0.043388969           10 
 1093000   0.80712277   -5.1113878    566.20097  0.043168723  0.043365252            6 
 1094000   0.80272363   -5.0830917    568.94504  0.043338288  0.043341772            3 
 1095000   0.81810081   -5.0578515    569.36066  0.043330339  0.043318077            5 
 1096000   0.82513512    -5.097655    568.14675  0.043198506  0.043294334            3 
 1097000   0.82283827   -5.0779089    569.28683  0.043245733  0.043270953            7 
 1098000   0.81328192   -5.1206164    568.66673  0.043159285  0.043247495            5 
 1099000   0.83463015   -5.1011495    568.72471  0.043124409  0.043224043            7 
 1100000   0.82870551   -5.0860672    569.40655   0.04313686  0.043200251            8 
 1101000   0.77535435   -5.1066623    568.89025  0.043058602  0.043176344            5 
 1102000   0.81302594   -5.0882205    570.30808  0.043126745  0.043152752            2 
 1103000   0.79039969   -5.1091195    569.55441  0.043030705  0.043129051            6 
 1104000   0.80577216    -5.081373    569.85256  0.043014233  0.043105101            7 
 1105000   0.80610003   -5.1138271    569.59374  0.042955787  0.043081305            7 
 1106000   0.79585998   -5.0826274    570.72533   0.04300221  0.043057479            5 
 1107000   0.81760683   -5.0997371    570.34645  0.042934843  0.043033478            5 
 1108000    0.8211459   -5.1202732    570.12115  0.042879148  0.043009386            6 
 1109000   0.81454022   -5.1024209    572.53892  0.043022161  0.042985583            6 
 1110000   0.81358355   -5.0956607      569.821  0.042779355  0.042961368            5 
 1111000   0.81978347   -5.0927922    571.46537  0.042864189   0.04293759            6 
 1112000   0.80579306   -5.1209965    571.71885  0.042844638   0.04291413            6 
 1113000   0.80585111    -5.099892    571.59537  0.042796898  0.042890269            3 
 1114000   0.81019599    -5.126362    569.74106  0.042619768  0.042866416            6 
 1115000   0.80236581   -5.0858298     573.3109  0.042848348  0.042842588            5 
 1116000    0.8277396    -5.102187    572.48705  0.042748435  0.042818963            4 
 1117000   0.79518007   -5.1206024    573.24913  0.042767019  0.042795116            7 
 1118000   0.80669373   -5.1142091    573.31548  0.042733712  0.042771339            8 
 1119000   0.79717994   -5.1211545    572.94857  0.042668199  0.042747725           14 
 1120000   0.79728592   -5.1233595    574.47199  0.042743452  0.042724158            4 
 1121000   0.80122492   -5.0975816    575.01943  0.042746018   0.04270071            9 
 1122000   0.80244388   -5.0899923    575.04935  0.042710142  0.042677553            3 
 1123000   0.81989624   -5.0967524    575.55898  0.042709927  0.042654374            5 
 1124000    0.7849729    -5.109793    574.73562  0.042610885  0.042631073            5 
 1125000   0.80632805   -5.1028366    576.59157  0.042710487  0.042607661            4 
 1126000   0.82322399   -5.1079209    575.89888   0.04262129  0.042584237            2 
 1127000   0.80039399   -5.1146853    572.65191  0.042343383  0.042560877            6 
 1128000   0.79519682    -5.114079    575.41146  0.042509712  0.042537315            7 
 1129000   0.80630064   -5.1434972     575.3364  0.042466519  0.042514008            8 
 1130000   0.81089605   -5.1059027    575.76219  0.042460339  0.042490324            6 
 1131000   0.82216873   -5.1210678    576.71378  0.042492911  0.042466718            4 
 1132000   0.81058354    -5.118967    577.29438  0.042498114  0.042443319            5 
 1133000   0.79791269   -5.1302999    576.27937  0.042385949  0.042419783            7 
 1134000    0.8013987   -5.1318683     575.7695  0.042311104  0.042396222            5 
 1135000   0.79467142   -5.1483164    576.16042  0.042302527  0.042372357            6 
 1136000   0.79929009   -5.1474341     577.4621  0.042360776   0.04234865           16 
 1137000   0.79790625   -5.1340336    576.48908  0.042252205  0.042325079            6 
 1138000   0.79982899   -5.1430553    576.56715  0.042220793  0.042301372            6 
 1139000   0.79306269   -5.1204196    579.37158  0.042388907  0.042277745            6 
 1140000    0.7980341   -5.1437155     577.8349  0.042239393   0.04225395            6 
 1141000   0.79347996   -5.1448616    579.37644  0.042314961  0.042230428           10 
 1142000   0.80574112   -5.1301405    577.70309    0.0421558  0.042206828            5 
 1143000   0.79332814   -5.1615874    577.07431  0.042073076  0.042183178            5 
 1144000   0.79970546   -5.1266464    577.49942  0.042067266  0.042159551           12 
 1145000    0.7921712   -5.1387727    579.01187  0.042140602  0.042135929           10 
 1146000   0.79033188   -5.1123517    579.81795  0.042162445  0.042112467            9 
 1147000   0.79637019   -5.1301489    579.07525  0.042071727  0.042089012            4 
 1148000   0.78419764   -5.1449149    578.06397  0.041961671  0.042065646            5 
 1149000   0.79710046      -5.1507    580.95884  0.042135106  0.042042076            6 
 1150000   0.79888425    -5.186461    579.08815  0.041962909   0.04201851            5 
 1151000   0.80030852   -5.1659756    578.05379  0.041851563  0.041995079            5 
 1152000   0.79387022   -5.1486947    579.01641  0.041884867  0.041971628           11 
 1153000   0.79313927    -5.156362    578.97671  0.041845672  0.041948223            3 
 1154000   0.78370131   -5.1531375    579.64875   0.04185794  0.041924733            5 
 1155000   0.79011041   -5.1120636    579.88784   0.04183895  0.041901109           12 
 1156000   0.78889793   -5.1233927    578.97135  0.041736689  0.041877534            5 
 1157000    0.7856531   -5.1499677    579.36118  0.041728693  0.041853704           14 
 1158000   0.78793444   -5.1588409    578.52511  0.041632492  0.041829983            6 
 1159000    0.7918319   -5.1330227    580.97358  0.041772619  0.041806451           22 
 1160000   0.79980678     -5.13596    581.86693  0.041800785  0.041782761            4 
 1161000   0.79711874   -5.1411957    581.96623  0.041771908    0.0417589           11 
 1162000   0.76467026   -5.1502314    579.95132   0.04159146  0.041734981            9 
 1163000   0.80658192   -5.1549269    580.47954  0.041593547  0.041711075           11 
 1164000   0.79355646   -5.1626255    581.49137  0.041630252  0.041687242           10 
 1165000   0.80122193   -5.1590063    581.14217   0.04156954  0.041663469            5 
 1166000   0.77996778   -5.1352494    582.04244   0.04159823  0.041639748            5 
 1167000   0.78268411    -5.190789    580.25506  0.041434951  0.041615943            3 
 1168000   0.78704543   -5.1452241    580.13919  0.041391209  0.041591982            7 
 1169000   0.78779513   -5.1368526    581.97652  0.041486778  0.041568199            5 
 1170000   0.77842131   -5.1695512    582.53988  0.041491444  0.041544606            4 
 1171000    0.7867524   -5.1401977    584.61739  0.041603857  0.041521059            5 
 1172000   0.78544419    -5.178322    582.42505  0.041412475  0.041497525            5 
 1173000   0.79129308    -5.156216    582.70106  0.041396779  0.041473719            6 
 1174000   0.78272891   -5.1547198     584.3136  0.041475979  0.041450157            8 
 1175000    0.7854083   -5.1654479    583.42197  0.041377445  0.041426743            4 
 1176000   0.77628201   -5.1813702    582.28601  0.041261764  0.041402952           11 
 1177000   0.78562524   -5.1510712    582.85346  0.041266883  0.041378916            4 
 1178000   0.79723859   -5.1695619    583.17034  0.041254268  0.041354796           11 
 1179000   0.78728503   -5.1342642    583.33047  0.041230596  0.041330819            4 
 1180000   0.79077863   -5.1550079    585.42655  0.041343683  0.041306945            8 
 1181000   0.76914911   -5.1593406    585.19744  0.041292509  0.041283343            5 
 1182000   0.76936306   -5.1449562    584.32871  0.041196327  0.041259672            5 
 1183000     0.786727   -5.1659009    583.67195   0.04111524  0.041236169            3 
 1184000   0.78061276   -5.1659143     586.0479  0.041247741  0.041212487           11 
 1185000   0.77755051   -5.1773591    585.05787   0.04114331  0.041188597           10 
 1186000   0.78004486    -5.154512    585.76823  0.041158532  0.041164878            7 
 1187000   0.79521976   -5.1846839    584.09956  0.041006709  0.041140875            6 
 1188000   0.76892834   -5.2060067    582.39772  0.040852814  0.041116962            8 
 1189000   0.76432227    -5.179316    584.37921  0.040957332  0.041093051            8 
 1190000   0.78998448    -5.171433    585.48102  0.041000071  0.041069026            4 
 1191000   0.78897725   -5.1947869    584.24582   0.04087922  0.041044869            8 
 1192000   0.78970632   -5.1907707    587.06577   0.04104207  0.041021234            7 
 1193000   0.77413097   -5.1670705    585.90231  0.040926398  0.040997481            7 
 1194000   0.77719652   -5.1976007    585.54298  0.040867042  0.040973669            6 
 1195000   0.78784627   -5.1467278    587.78053  0.040988879  0.040950209            4 
 1196000   0.78393126   -5.1626501    587.51685  0.040936235  0.040926589           10 
 1197000   0.78574919   -5.2000908    586.36794  0.040822051  0.040903059            4 
 1198000    0.7809099   -5.1715227    587.59482  0.040873318  0.040879476            6 
 1199000   0.77319741   -5.1715147    587.52019  0.040834041  0.040855888            6 
 1200000   0.77319269   -5.2153576    585.72512  0.040675356  0.040832175            3 
 1201000    0.7803731   -5.1689428    589.78266  0.040923027  0.040808584            5 
 1202000    0.7772634   -5.1485625    590.95835   0.04097049  0.040785541            6 
 1203000   0.77479719   -5.1849632    587.95092  0.040728105  0.040762342            5 
 1204000   0.76839302   -5.1928729    589.59836  0.040808303  0.040739021            4 
 1205000   0.77143747   -5.1772625     590.4141  0.040830851  0.040715825            7 
 1206000   0.76998141   -5.2019081    587.38581  0.040587743  0.040692374            3 
 1207000   0.77369789   -5.1895524    588.25632  0.040614217  0.040669218            4 
 1208000    0.7745281   -5.1934496    591.73561  0.040820613  0.040645952            5 
 1209000   0.76728909   -5.1819378     590.7073  0.040715971  0.040622832            6 
 1210000   0.75750154    -5.201778    588.40496  0.040523758  0.040599768            7 
 1211000   0.75542765   -5.1994714     590.8487  0.040658457  0.040576687            9 
 1212000    0.7685343   -5.2093495    590.56911  0.040605687    0.0405537            9 
 1213000   0.76910139   -5.1867801    592.15138  0.040680914  0.040530879            5 
 1214000   0.76296952   -5.2059419    590.82313  0.040556228  0.040507775            7 
 1215000   0.74971204   -5.1509965    591.76253  0.040587279  0.040484787            7 
 1216000   0.75733134   -5.2035739    591.89268  0.040562821  0.040461729            9 
 1217000   0.76198839   -5.1850562     591.1179  0.040476438  0.040438638            6 
 1218000   0.74749555   -5.2074234    590.81861  0.040422729  0.040415435            8 
 1219000    0.7638765   -5.2049241     592.0056  0.040470714  0.040392349            6 
 1220000   0.77712638   -5.2064965    593.35711  0.040529857  0.040369016            9 
 1221000   0.77620385   -5.2023919    591.89551  0.040396909  0.040345872           11 
 1222000   0.75526225   -5.2116914    593.75174  0.040490435  0.040322855            9 
 1223000   0.76534375   -5.2008108    592.87437  0.040397545  0.040299829            8 
 1224000   0.77608378   -5.1785061     594.0615  0.040445363  0.040276916            8 
 1225000   0.76956862    -5.221339    590.93021  0.040199334  0.040253683            5 
 1226000    0.7735179   -5.2020268    594.20412  0.040389079  0.040230487            4 
 1227000   0.75829407   -5.2260091    592.90319  0.040267807  0.040207451            4 
 1228000   0.76753189   -5.2146403    592.06427  0.040178086  0.040184385            6 
 1229000   0.76405722   -5.1834851    594.66149  0.040321501  0.040161346           11 
 1230000   0.75448621   -5.2003452    592.85539  0.040166354  0.040138198            6 
 1231000   0.76477833   -5.1920291    594.75795   0.04026252  0.040115038            4 
 1232000   0.76131531   -5.1940123    594.90835  0.040240013  0.040091945            5 
 1233000   0.76486416    -5.210312    593.23144  0.040094042  0.040068626            7 
 1234000   0.77740365   -5.2013408    592.92532  0.040040878  0.040045217            3 
 1235000   0.77033082   -5.2179738    594.63257  0.040123655  0.040021843            8 
 1236000   0.76335076   -5.2149922    593.62143   0.04002302   0.03999834            4 
 1237000   0.75236835   -5.2539757    592.10978  0.039888829  0.039974866           11 
 1238000   0.76485176   -5.2166578    592.67224  0.039894469  0.039951212            7 
 1239000   0.75398114   -5.2095368     595.2563  0.040036071  0.039927826            4 
 1240000   0.75913131   -5.2379918    592.84142  0.039841493  0.039904265           26 
 1241000   0.75730445   -5.2098892    594.45426  0.039917691  0.039880741           10 
 1242000   0.78099362   -5.2230594    595.62252  0.039963937  0.039857399            5 
 1243000   0.75902887   -5.2223552     595.4764   0.03992199  0.039834356            9 
 1244000   0.74260066   -5.2147391    597.26472  0.040009694  0.039811401            5 
 1245000   0.75216051   -5.2294792    594.97604  0.039824367  0.039788087            8 
 1246000   0.74180127   -5.2242548    595.31283   0.03981493  0.039764844           12 
 1247000   0.77878172    -5.231817    596.65556  0.039872732  0.039741707            4 
 1248000    0.7647307   -5.2111614    597.00743  0.039864278  0.039718801            4 
 1249000    0.7593568   -5.2351632    595.79775  0.039751651  0.039695538            7 
 1250000   0.75898268   -5.2345279    597.72994  0.039848663  0.039672703           11 
 1251000   0.75832672   -5.2408509    594.60236   0.03960847  0.039649703            9 
 1252000   0.77765249   -5.2370233    597.23581  0.039752118   0.03962656            6 
 1253000   0.74772562    -5.249581    596.15528  0.039648529  0.039603448           10 
 1254000   0.74574272   -5.2370511    597.73883  0.039722144  0.039580377           10 
 1255000   0.76251864   -5.2405983    596.82255  0.039629651  0.039557535            5 
 1256000   0.75683145   -5.2190527    598.46716  0.039707216  0.039534867            4 
 1257000   0.77631311    -5.230049    597.90417  0.039638304  0.039512213            8 
 1258000   0.75002206   -5.1828849    600.25808  0.039762724  0.039489553            7 
 1259000    0.7529663   -5.2333742    597.94716  0.039578181  0.039466956            7 
 1260000   0.74520763   -5.2485191    597.71072  0.039531132  0.039444273            5 
 1261000   0.73332393   -5.2098581    600.18388  0.039663222  0.039421468           13 
 1262000   0.74391788   -5.2206817    601.03552   0.03968803    0.0393987            5 
 1263000   0.75215325   -5.2308496    598.09011  0.039462267  0.039375893            4 
 1264000   0.75831279   -5.2450681    597.73675   0.03940775  0.039352907            8 
 1265000    0.7576225   -5.2496101    598.13485  0.039402823  0.039329822            7 
 1266000   0.76971456   -5.2368076    599.82558   0.03948299  0.039307013            6 
 1267000    0.7387158   -5.2443917    598.57326  0.039369459  0.039284132           18 
 1268000    0.7308294   -5.2132453    599.97537  0.039430558  0.039261256            4 
 1269000   0.74969323   -5.2680704    599.40933  0.039362315  0.039238308            7 
 1270000   0.75211325   -5.2234861    599.76968  0.039354966  0.039215294           16 
 1271000   0.74590785   -5.2319972    599.63157  0.039314947   0.03919251            9 
 1272000   0.72751888   -5.2337447    599.32016  0.039263637  0.039169535           15 
 1273000   0.74472652    -5.234203     600.1994  0.039290351  0.039146646           10 
 1274000   0.74372211   -5.2287485    599.54615  0.039216781  0.039123805            9 
 1275000   0.75735628   -5.2461824    600.85099  0.039271306  0.039101044            6 
 1276000   0.73899279   -5.2302782    600.61457   0.03922509  0.039078251            9 
 1277000   0.74815185   -5.2593288    601.56185   0.03925619  0.039055655            5 
 1278000   0.73919307   -5.2744652    601.04549  0.039191803  0.039032767           14 
 1279000   0.73458364   -5.2498105    600.31202  0.039113371  0.039010041            9 
 1280000   0.73056731   -5.2627969    601.38312  0.039152547  0.038987251           10 
 1281000    0.7539388   -5.2507812    600.34954  0.039054745  0.038964391           20 
 1282000   0.73902579   -5.2501303    600.68609  0.039046157  0.038941658            7 
 1283000   0.73976247   -5.2573802    601.60431  0.039075364  0.038918791            5 
 1284000   0.74479758   -5.2592057    600.10113  0.038947373  0.038896124            5 
 1285000   0.75708034     -5.22845    602.00224  0.039040353  0.038873327            9 
 1286000   0.75676613   -5.2452016     602.1978  0.039022667  0.038850618            8 
 1287000   0.73197886   -5.2559862    601.51753  0.038948299  0.038827949            7 
 1288000   0.72916521    -5.274039    600.35974  0.038843151  0.038805163            6 
 1289000   0.75416604   -5.2595214    602.42033  0.038946233  0.038782153            7 
 1290000   0.74197195   -5.2414996    602.65296   0.03893107  0.038759272            5 
 1291000   0.73978733   -5.2240478    604.24116  0.039003431  0.038736396            6 
 1292000   0.73485441   -5.2220057    603.00286  0.038893374   0.03871378           12 
 1293000   0.72053884   -5.2685609    600.08716  0.038675378  0.038691017            7 
 1294000    0.7357328   -5.2366845    602.80672  0.038820628  0.038668013            7 
 1295000   0.73372333   -5.2607095    602.89064  0.038796052  0.038645012            7 
 1296000   0.72143982   -5.2373981    601.49126  0.038676136  0.038622003            5 
 1297000   0.72019131   -5.2602977    601.48879  0.038646157  0.038598844           15 
 1298000   0.73780355   -5.2699598    602.33586  0.038670766  0.038575796            7 
 1299000   0.74260396   -5.2710415    602.23212  0.038634342  0.038552569            6 
 1300000   0.74508173   -5.2589399    603.34598  0.038676024  0.038529291            5 
 1301000    0.7318268   -5.2532471    602.34421   0.03858213  0.038506026            4 
 1302000   0.72675177    -5.242085    602.71996  0.038576546  0.038482864           11 
 1303000   0.71951613    -5.250284    601.74951  0.038484875  0.038459713            9 
 1304000   0.73264644     -5.26326    602.24918  0.038487294  0.038436548            7 
 1305000   0.73244891   -5.2689915     604.2863  0.038587887  0.038413472           10 
 1306000   0.72246402    -5.265065    604.24902  0.038555961  0.038390432            5 
 1307000   0.72780835   -5.2924621    602.90235  0.038440599  0.038367259            9 
 1308000   0.73188508   -5.2688657    603.20435  0.038430451  0.038344162           11 
 1309000   0.74426079   -5.2699381    603.30571  0.038407545  0.038321215            5 
 1310000   0.72441348   -5.2636535     602.5027  0.038327144  0.038297946            7 
 1311000   0.73238055   -5.2710307    605.68358  0.038500101  0.038274888           11 
 1312000   0.72197076   -5.2847252    602.73358  0.038283383    0.0382516           14 
 1313000   0.72031053   -5.2904052    603.20949  0.038284431  0.038228184            4 
 1314000   0.74430203   -5.2961532    603.71982   0.03828766  0.038204785            4 
 1315000   0.73843047   -5.2772167    604.96321  0.038337339  0.038181592            6 
 1316000   0.73854731    -5.281402    602.74869  0.038167977  0.038158202            5 
 1317000   0.71246774   -5.2926184    602.73568  0.038138172  0.038134659            2 
 1318000   0.72411251   -5.2668972    602.61316  0.038101489  0.038111186           14 
 1319000   0.73268404   -5.2348765    603.30222  0.038116137  0.038087886           10 
 1320000    0.7224367   -5.2806883    602.60563  0.038043285   0.03806472           11 
 1321000   0.73050049   -5.2850797    603.17207  0.038050219  0.038041335            7 
 1322000   0.72876509   -5.2793725    604.62461  0.038112998  0.038018064            6 
 1323000   0.72993555   -5.2967083    604.99752   0.03810768  0.037994744           13 
 1324000   0.73614275   -5.2936944    604.31035  0.038035647  0.037971442           20 
 1325000   0.72397799   -5.2869628    604.39842  0.038012479  0.037948002            5 
 1326000   0.73870954   -5.2966531    604.66748  0.038000721  0.037924747            7 
 1327000   0.74201804   -5.2995899    603.22978    0.0378818  0.037901469            8 
 1328000   0.73183419   -5.3089196    604.15997  0.037911645   0.03787816            7 
 1329000    0.7325011   -5.2835294    604.86431  0.037927283    0.0378547            7 
 1330000   0.72234736   -5.2779562    605.03785   0.03790964  0.037831427            4 
 1331000   0.72688736    -5.293841    604.54784  0.037850478  0.037808087            5 
 1332000   0.71089356   -5.3298489    605.48223   0.03788052  0.037784862           13 
 1333000   0.70981706   -5.2979759    606.36627  0.037907369  0.037761642            7 
 1334000   0.70428464   -5.2898793    605.50066  0.037824879  0.037738492            5 
 1335000   0.70919678   -5.2973831    607.37794  0.037913729  0.037715404            8 
 1336000   0.71868239   -5.3051325    605.09184  0.037742754  0.037692447            8 
 1337000   0.71253693   -5.3033448    605.23128  0.037723216  0.037669559            5 
 1338000    0.7158014   -5.2987562    607.40578  0.037830455   0.03764648            9 
 1339000   0.74304176   -5.3022626    605.67039  0.037694199  0.037623176            6 
 1340000    0.7104159   -5.2998442    604.63179  0.037601479  0.037600039            6 
 1341000   0.69835473   -5.3039703    606.77183  0.037706427  0.037576967            9 
 1342000   0.71801501    -5.315154    605.50288  0.037599533  0.037553708            5 
 1343000   0.71706248   -5.3077376    606.55341  0.037636722  0.037530643            4 
 1344000    0.7206634   -5.2696791    607.10469    0.0376429  0.037507634            4 
 1345000   0.69930415   -5.3221296    605.38242  0.037508204  0.037484391            9 
 1346000   0.70866335   -5.2862311    605.69208   0.03749951  0.037461283            7 
 1347000   0.71475546    -5.320083    605.15206  0.037438261  0.037438086            6 
 1348000    0.7060884   -5.2839256     607.2904  0.037542681   0.03741483            8 
 1349000   0.72157491   -5.2835888    608.04156  0.037561253  0.037391794            8 
 1350000   0.70725673   -5.3137644    606.83793  0.037459131  0.037368784            5 
 1351000   0.72226583   -5.2863222    607.76535   0.03748861  0.037345766            6 
 1352000   0.71445121   -5.3178402    607.78502  0.037462095   0.03732266            8 
 1353000   0.72489602   -5.3311499    606.81192  0.037374472  0.037299601           13 
 1354000   0.71463671   -5.3119408    605.90015  0.037290753  0.037276435           11 
 1355000    0.7088387   -5.3148475    606.66619  0.037310344  0.037253183            6 
 1356000   0.71205373   -5.2882292    607.85508  0.037355892  0.037230136            8 
 1357000   0.69440289   -5.3171729    608.44054  0.037364317  0.037207166            7 
 1358000   0.70745591   -5.2917173    609.62884  0.037409723  0.037184209           15 
 1359000   0.69952827   -5.3123527    608.42401  0.037308316  0.037161506            7 
 1360000   0.69816509   -5.3166536      607.132  0.037201715  0.037138329            6 
 1361000   0.70585893   -5.2916086    608.64833  0.037267226  0.037115198            4 
 1362000   0.72613911   -5.3120748    607.57143  0.037173974  0.037091884            8 
 1363000    0.7195759   -5.3020797    608.26417  0.037189054  0.037068749            6 
 1364000   0.70942966   -5.3153033      607.229  0.037098546  0.037045591            5 
 1365000   0.71810186   -5.3040944    607.82452  0.037107724  0.037022276           10 
 1366000   0.69591954   -5.3216858    608.49214  0.037121287  0.036999092            5 
 1367000   0.70656199   -5.3050529     606.8581   0.03699452  0.036975802            7 
 1368000   0.70523439   -5.3047228     609.4177  0.037123398  0.036952554            8 
 1369000   0.70039709    -5.290756    609.20336  0.037083233  0.036929481           15 
 1370000   0.69987664    -5.341629    608.34907  0.037004201  0.036906385            8 
 1371000   0.70771296    -5.324892    609.27164  0.037033287  0.036883397            9 
 1372000   0.70980071   -5.3195271    608.85917  0.036981242  0.036860504            7 
 1373000   0.69653963   -5.3452136    608.29469  0.036920047  0.036837439           11 
 1374000   0.70676676   -5.3441175    608.54926  0.036908616  0.036814361            9 
 1375000   0.70254788   -5.3284672    608.15883  0.036858111  0.036791134            9 
 1376000   0.71041459   -5.3210428    609.30873  0.036900965  0.036768141            8 
 1377000   0.71353927   -5.3318283    606.74515  0.036719024  0.036744999            9 
 1378000   0.68862523   -5.3125208    607.91848  0.036763333  0.036721954            8 
 1379000   0.70639375   -5.3307928    608.68328  0.036782891  0.036698765           26 
 1380000   0.72171556   -5.3477395    607.68026  0.036695668  0.036675543           13 
 1381000   0.71139725   -5.3312169    610.13688  0.036817335   0.03665244            8 
 1382000   0.70457448   -5.3486703    608.18887  0.036673232  0.036629232            9 
 1383000   0.69496988   -5.3305517    608.52423  0.036666922  0.036606169            8 
 1384000   0.70741733   -5.3280647    610.62708  0.036767045  0.036583071            7 
 1385000   0.69693105   -5.3312697    610.06451  0.036706649  0.036560143           12 
 1386000   0.70137075   -5.3675977    609.89098  0.036669732  0.036537184           19 
 1387000   0.69788699    -5.336595    609.44027  0.036616214  0.036513983           10 
 1388000   0.69538634   -5.3445182    609.90157   0.03661753  0.036491148           16 
 1389000   0.69830215   -5.3464746    610.17439  0.036607535  0.036468201            7 
 1390000   0.69976244    -5.354478    609.01877  0.036511916  0.036445298            9 
 1391000   0.70420562   -5.3378796    608.72851  0.036468279  0.036422308            9 
 1392000   0.68832304   -5.3411437    609.21786  0.036471375  0.036399363            8 
 1393000   0.69116277    -5.348884    610.25683  0.036507348  0.036376403            6 
 1394000   0.69143888   -5.3360319    610.28036  0.036482566  0.036353323            9 
 1395000   0.70570118   -5.3559508    609.15855    0.0363894  0.036330351            7 
 1396000    0.7053383   -5.3480257    610.98841  0.036472565  0.036307401            7 
 1397000   0.70961137   -5.3417747    611.00993  0.036447741   0.03628468           11 
 1398000   0.70492783   -5.3698244    609.76041  0.036347187  0.036261836            7 
 1399000   0.70227218   -5.3402692    612.06046  0.036458212  0.036239046           15 
 1400000   0.71195499   -5.3549659      611.808  0.036417143  0.036216234           10 
 1401000   0.68778963   -5.3756333    612.13051  0.036410332  0.036193433            8 
 1402000   0.69414289    -5.357613    612.17778  0.036387172  0.036170578           12 
 1403000   0.70039885   -5.3606052    611.19031  0.036302584  0.036147839            8 
 1404000   0.69518413    -5.349809    612.01364  0.036325596  0.036125025           12 
 1405000   0.69692997   -5.3684874    610.69347  0.036221439  0.036102197            7 
 1406000   0.69566568   -5.3601064     612.1108  0.036279682  0.036079432           20 
 1407000   0.68540842   -5.3778843    610.72635  0.036171899  0.036056512           10 
 1408000   0.69159741   -5.3746286    610.72479  0.036146117  0.036033635           11 
 1409000    0.6763998    -5.381887    609.82844   0.03606745  0.036010635           10 
 1410000   0.67497958    -5.362682    611.82023  0.036159588   0.03598779            9 
 1411000     0.697531   -5.3581723    611.69284  0.036126438  0.035964956            6 
 1412000   0.69116217   -5.3499178     613.2713   0.03619401   0.03594225           12 
 1413000   0.68407929   -5.3640062    612.33963  0.036113448  0.035919687            9 
 1414000   0.68130958   -5.3421737    612.28053  0.036084425  0.035897051            8 
 1415000   0.67966353   -5.3533945    613.86018  0.036151954  0.035874482            6 
 1416000   0.68826006   -5.3836183    611.89274  0.036010637  0.035851983            6 
 1417000   0.69582586   -5.3939886    612.62349  0.036028199  0.035829437           12 
 1418000   0.69008161   -5.3696119    612.94414  0.036021635  0.035806786           10 
 1419000   0.70722011   -5.3711562    612.68267  0.035980894  0.035784249            6 
 1420000   0.67441809   -5.3793508     612.5292  0.035946549  0.035761761           10 
 1421000   0.69544263   -5.3600584    613.64555   0.03598672  0.035739069            4 
 1422000   0.67549561    -5.406988    611.72474  0.035848848  0.035716378            9 
 1423000   0.69710373   -5.3594543    612.71377  0.035881575  0.035693718            9 
 1424000   0.67485642   -5.3862602    611.83899  0.035805185  0.035671067           18 
 1425000   0.68960863   -5.3723577    613.30535   0.03586581    0.0356485            7 
 1426000     0.681441   -5.3740064    613.04678  0.035825548  0.035625816           10 
 1427000   0.70546155   -5.3553247     614.5768  0.035889792  0.035603195            9 
 1428000   0.68826343    -5.361412    614.41719  0.035855345  0.035580651            9 
 1429000   0.66971368    -5.402999    612.41431  0.035713454  0.035557958           10 
 1430000   0.68641144   -5.4000057    612.97959  0.035721421  0.035535215            5 
 1431000   0.67786772   -5.3687746    614.47372  0.035783468  0.035512491            8 
 1432000   0.68120493   -5.3876922    612.92335  0.035668258  0.035489692           14 
 1433000    0.6749539   -5.3788308    611.95203  0.035586882  0.035466836           15 
 1434000   0.68345934   -5.4027108    611.43201  0.035531846   0.03544405           10 
 1435000   0.66727454   -5.3882095    614.23686  0.035669969  0.035421378            6 
 1436000   0.66468982   -5.3662256    614.82891  0.035679487   0.03539868            9 
 1437000     0.677553    -5.364933    613.37943    0.0355706  0.035375974           16 
 1438000   0.67485059    -5.384353    614.28001  0.035598053  0.035353228           14 
 1439000   0.66222948   -5.3767267    614.39584  0.035580023   0.03533057            9 
 1440000   0.67768382    -5.405976    613.93881  0.035528866  0.035307976            8 
 1441000   0.68278235   -5.3794745    614.11003  0.035514112  0.035285301           10 
 1442000   0.68494917   -5.4075369    614.00067  0.035483164  0.035262549            6 
 1443000   0.67702257   -5.4036919    614.28797  0.035475166  0.035239776            8 
 1444000   0.67923801   -5.4142243     614.4748   0.03546138  0.035217204            6 
 1445000    0.6827944     -5.41497    615.28242  0.035483415  0.035194492            6 
 1446000   0.68702952   -5.4336703     612.5818  0.035303239  0.035171837           16 
 1447000   0.68454044   -5.4157559    613.21827  0.035315496  0.035149153            7 
 1448000   0.68197208   -5.4025202    615.43359    0.0354186  0.035126577           17 
 1449000   0.67060193   -5.3785543    615.83317  0.035417137  0.035104164            6 
 1450000   0.67953092   -5.3796163    615.34619  0.035364724  0.035081777            7 
 1451000   0.67110023   -5.4043982    615.65418  0.035358039  0.035059505           13 
 1452000   0.67006314   -5.4060419    614.24275  0.035252683  0.035037294            6 
 1453000   0.65413415   -5.3781955    615.99283  0.035328793  0.035015035            5 
 1454000   0.67997925   -5.4041856    614.75675  0.035233651  0.034992689           21 
 1455000   0.68004541   -5.3819467    615.67164  0.035261835  0.034970338           19 
 1456000   0.67810994   -5.3973211    614.93473   0.03519544  0.034947975           13 
 1457000   0.68071349    -5.394407    617.21515  0.035301713  0.034925678           11 
 1458000   0.67315037   -5.3987714     616.1706  0.035217798  0.034903389           17 
 1459000   0.65833799   -5.4005638    615.97002  0.035182203  0.034881061           11 
 1460000   0.67380953   -5.4226407    615.10851  0.035108933  0.034858714           11 
 1461000   0.66312751   -5.3935965    616.21715  0.035148137  0.034836375           14 
 1462000   0.67193661   -5.4056468    617.29682  0.035185637  0.034813993           11 
 1463000    0.6547709   -5.3931965    616.26922  0.035103054  0.034791924           10 
 1464000   0.67883683   -5.4298796    616.02411  0.035065125  0.034769701           12 
 1465000   0.68027208   -5.4163658    615.76905  0.035026681  0.034747298           13 
 1466000   0.67510676    -5.400529     616.5004  0.035044361  0.034725189           14 
 1467000   0.65872822   -5.4218636     614.9894   0.03493464  0.034703034           13 
 1468000     0.668498   -5.3906454    616.98314   0.03502402   0.03468078            9 
 1469000   0.67160211   -5.4179567     617.4137  0.035024603    0.0346586           12 
 1470000    0.6776003   -5.4020659    616.53588  0.034951014  0.034636384           11 
 1471000   0.67857271   -5.4114516    615.91127  0.034891869  0.034614107            4 
 1472000   0.67071387   -5.4416097    616.12684  0.034880369  0.034591735            7 
 1473000   0.66118068   -5.4147392     615.2929   0.03480951    0.0345694           12 
 1474000   0.65004612   -5.4110975    617.73916  0.034924195  0.034547086            9 
 1475000   0.66403879   -5.4223179    615.09977  0.034751399  0.034524886            8 
 1476000   0.65200428   -5.4195925    615.43938  0.034747029  0.034502726            7 
 1477000   0.65400009    -5.439557    614.66018  0.034679541  0.034480428            8 
 1478000   0.65539201   -5.4221599    617.71131  0.034828107  0.034458193            9 
 1479000   0.66502204   -5.4229523    617.56447  0.034796285  0.034435962           12 
 1480000   0.66715212   -5.3945226    618.34999  0.034817004  0.034414033           19 
 1481000   0.65693921   -5.3956522     616.9679  0.034715727  0.034392004            7 
 1482000   0.66304299   -5.4151331    617.46455  0.034720229  0.034369988           11 
 1483000   0.65891532   -5.4350095    617.98063  0.034725816  0.034347987            7 
 1484000   0.65884105   -5.4371245    618.75914  0.034746133  0.034325935           10 
 1485000   0.64121841    -5.441846    617.57941  0.034656533  0.034303756           17 
 1486000    0.6576979   -5.4387599     617.4108  0.034623755   0.03428162            7 
 1487000   0.66917186   -5.4333505    618.41564  0.034656783   0.03425959           11 
 1488000   0.65961488   -5.4523503    618.00655  0.034610582  0.034237543            9 
 1489000   0.64832239   -5.4351134    617.55456  0.034562041  0.034215516           12 
 1490000   0.66191443   -5.4486084    618.05391  0.034566774  0.034193407           11 
 1491000   0.65522627    -5.428895    618.82726  0.034586813  0.034171556           11 
 1492000   0.66598874   -5.4320812    618.12471  0.034524392  0.034149634           14 
 1493000   0.65912881   -5.4357532    617.67255   0.03447603  0.034127739           12 
 1494000   0.65718656   -5.4289263     619.5338  0.034556771  0.034105979           17 
 1495000   0.66273679   -5.4167297    621.63376  0.034650711  0.034084417            8 
 1496000   0.67018166   -5.4452887    618.05801  0.034428365  0.034062812            7 
 1497000   0.66487069   -5.4548901     618.6273  0.034437057  0.034041041           26 
 1498000   0.67007257    -5.451777    618.48144  0.034405955   0.03401924            9 
 1499000   0.64792511   -5.4156506    620.58717  0.034500065  0.033997534            6 
 1500000   0.63211193   -5.4323323    619.45964  0.034414424  0.033975835           11 
 1501000   0.65227745   -5.4459782    619.62264  0.034400547  0.033954071           11 
 1502000   0.66644282   -5.4422623    619.76102  0.034385321  0.033932306            8 
 1503000   0.64722155   -5.4255117    619.99206  0.034375253  0.033910692           10 
 1504000   0.65865261    -5.461551    618.26928  0.034256941  0.033889064            8 
 1505000   0.64698959   -5.4571873    618.99133   0.03427416  0.033867302            7 
 1506000   0.65315016   -5.4607589     619.5454  0.034282061  0.033845527            8 
 1507000   0.65959671   -5.4493946    619.62001  0.034263438  0.033823796           16 
 1508000   0.67059803   -5.4742966    618.00522  0.034151482  0.033802067           21 
 1509000   0.65439943   -5.4508277    619.78235  0.034226991  0.033780282           15 
 1510000   0.65572158   -5.4451197    620.22813  0.034228925  0.033758571           27 
 1511000     0.649531   -5.4577922    619.77821  0.034181459  0.033736792           20 
 1512000   0.64749295   -5.4663764    618.07239  0.034064836  0.033714922           18 
 1513000   0.63102117   -5.4660517    619.66556   0.03413007  0.033693062            6 
 1514000   0.64913562   -5.4599203    618.59003  0.034048329  0.033671277            8 
 1515000   0.64132276   -5.4603822    620.07282  0.034107416  0.033649527            5 
 1516000   0.65556038   -5.4784768     619.1853  0.034036131  0.033627763            8 
 1517000   0.66121216   -5.4579128    619.30671  0.034020364  0.033606062            6 
 1518000     0.656093    -5.447153    620.99879  0.034090843  0.033584476           13 
 1519000   0.62831286   -5.4500597    621.88016  0.034116752  0.033562877           12 
 1520000   0.65529753   -5.4577453    619.76506  0.033978348  0.033541179           12 
 1521000     0.650063   -5.4686304    619.59683  0.033946791  0.033519488           10 
 1522000   0.63653387   -5.4864315    618.77866   0.03387969   0.03349774            9 
 1523000   0.64101653   -5.4740305     620.2174  0.033936168  0.033475992           21 
 1524000   0.66269787   -5.4896046    618.89492  0.033841585  0.033454257            8 
 1525000   0.64803727   -5.4687797    619.74961  0.033866099  0.033432633            7 
 1526000   0.64517139   -5.4661018    620.71176  0.033896448   0.03341092           10 
 1527000   0.64319545   -5.4697463    620.48102  0.033861658  0.033389262           10 
 1528000   0.65909583   -5.4761395     618.8514  0.033750622  0.033367628           20 
 1529000   0.64218853    -5.451488    619.88697  0.033784989  0.033345981           25 
 1530000   0.63346699   -5.4512055    621.50791  0.033851194  0.033324367           13 
 1531000   0.63567259   -5.4720626    619.72954  0.033732285  0.033302778            6 
 1532000   0.64306583   -5.4828878    617.88813  0.033610103  0.033280947           14 
 1533000   0.65107627   -5.4805152    619.17702  0.033658242  0.033259159            9 
 1534000   0.64490921   -5.4629061    620.50636  0.033708516  0.033237403            8 
 1535000   0.64550944   -5.4753255     620.2261  0.033671341  0.033215774            8 
 1536000   0.64049836   -5.4654544    620.64819  0.033672319  0.033194076            7 
 1537000   0.63438159   -5.4872508    619.77633  0.033603141  0.033172382           14 
 1538000   0.64275807   -5.4610969    620.70294  0.033631499  0.033150702            8 
 1539000   0.63487318   -5.4930599    620.75058  0.033612225  0.033129136           10 
 1540000   0.64382529   -5.4554284    620.60816  0.033582693  0.033107573           12 
 1541000   0.64309617   -5.4994778    620.17784  0.033537629  0.033086014           11 
 1542000   0.63000428   -5.4698658    621.57595  0.033591437  0.033064484            7 
 1543000   0.63125886   -5.4818365    621.17823  0.033548187  0.033042946            9 
 1544000   0.63635651   -5.5031497    619.33165  0.033426794  0.033021381           11 
 1545000   0.62574077   -5.4556638    621.89861  0.033543614  0.032999882            8 
 1546000   0.64732115   -5.4697353    621.03511  0.033475373  0.032978513           23 
 1547000   0.64825644   -5.4750955    622.45398  0.033530165  0.032957106           10 
 1548000   0.63169847   -5.4735124    622.08915  0.033488865  0.032935826           15 
 1549000   0.63732601   -5.4870978    621.11614  0.033414899  0.032914436           12 
 1550000   0.63083668   -5.4817385    620.28358   0.03334858  0.032892978           14 
 1551000   0.63205623   -5.4654284    620.41679  0.033334235  0.032871636           10 
 1552000   0.63396968   -5.4693436    621.88034  0.033391341  0.032850237            8 
 1553000   0.64208193   -5.4886784    619.71752  0.033253784  0.032828882           10 
 1554000   0.62142269    -5.477454    622.05479  0.033357721  0.032807503            5 
 1555000   0.62879625   -5.4522181    622.25514  0.033347006  0.032786226           10 
 1556000   0.64185812   -5.4736171    622.26727  0.033326225  0.032764959           11 
 1557000   0.64200653   -5.4813283    622.04977   0.03329318   0.03274364            9 
 1558000   0.65475498   -5.4943079    621.77446  0.033257085  0.032722287           14 
 1559000   0.64401519   -5.4870438    622.42475  0.033270513  0.032701002            8 
 1560000   0.63713267   -5.4976049    621.99573  0.033226268  0.032679602           13 
 1561000   0.64081189   -5.5006702    622.04548  0.033207638   0.03265827            7 
 1562000    0.6313868   -5.5055539    622.20236  0.033194748  0.032636928           13 
 1563000   0.63508113   -5.5040504     620.8172  0.033099659  0.032615473           20 
 1564000   0.63536735   -5.4772962    621.33518  0.033106094  0.032593986           10 
 1565000   0.61843247   -5.4956143    622.57225  0.033150812  0.032572675            6 
 1566000   0.63986527    -5.491136    622.07381  0.033103119  0.032551276            6 
 1567000    0.6188454   -5.5058762    621.13416  0.033032023  0.032529953           11 
 1568000   0.62457924   -5.5103666    620.76162  0.032991158  0.032508535           15 
 1569000   0.62190067   -5.5199578    620.05724  0.032932719  0.032487103           48 
 1570000   0.61732075   -5.4901258    622.06467  0.033018295  0.032465702           22 
 1571000   0.62435421   -5.4996236    620.76553  0.032928365  0.032444193           11 
 1572000   0.63450026   -5.5094787    620.71693  0.032904841  0.032422761           12 
 1573000   0.62318215   -5.5029727    622.15726  0.032960228  0.032401363           10 
 1574000   0.61792459   -5.4824528    620.55152  0.032854274  0.032380028           15 
 1575000   0.62638341   -5.5151088    620.45603  0.032828361  0.032358553           38 
 1576000   0.63030366   -5.5109682    622.28932  0.032904469  0.032337201           25 
 1577000   0.61663339   -5.5112964     620.7226  0.032800814  0.032315885           28 
 1578000   0.62048602   -5.5126975    622.42907  0.032870145  0.032294522           18 
 1579000   0.62814714   -5.5100981    621.79529   0.03281588  0.032273205           13 
 1580000    0.6298188   -5.5269512    620.93715   0.03274985   0.03225184           12 
 1581000   0.61621877   -5.5192883    622.55697  0.032814515  0.032230489           14 
 1582000   0.62028523   -5.5292641    622.95496  0.032814737  0.032209094           10 
 1583000   0.62834275   -5.5389218     620.3729  0.032658081  0.032187778           13 
 1584000   0.62891043   -5.5153005    621.82391    0.0327138   0.03216644           17 
 1585000   0.62667671   -5.5102472    620.54116  0.032625718  0.032145135           14 
 1586000   0.61503535   -5.5223927    621.07981   0.03263345  0.032123802           25 
 1587000   0.62358686   -5.5262386    621.54981  0.032637566   0.03210255           18 
 1588000   0.60463753   -5.5143098    622.05771  0.032643667   0.03208136           22 
 1589000   0.62198257   -5.5308056    622.68106  0.032655814  0.032060149           20 
 1590000    0.6138888   -5.5156683    622.48417  0.032624956  0.032038905           11 
 1591000   0.61814412   -5.5008253    622.62343  0.032611745  0.032017775           13 
 1592000   0.60975942   -5.5305904    622.15476  0.032566728  0.031996554           13 
 1593000     0.604064   -5.5241092    619.96813  0.032431897  0.031975369           16 
 1594000   0.62681092   -5.5383498    622.69295  0.032554002  0.031954081           19 
 1595000   0.62913433   -5.5176195    620.75354  0.032432265  0.031932848           25 
 1596000   0.60931435    -5.521017    621.58603  0.032455411  0.031911642           11 
 1597000   0.60239526   -5.5248573    621.38286  0.032424486  0.031890519           10 
 1598000   0.60952611   -5.5286821    621.88584  0.032430426  0.031869365           27 
 1599000   0.61049982   -5.5243293    621.46295  0.032388105  0.031848298           19 
 1600000   0.60640826   -5.5391967    621.67738   0.03237903  0.031827133            9 
 1601000   0.60174263   -5.5293134     621.1055  0.032329039  0.031805963           12 
 1602000   0.60992665   -5.5378425    621.92795  0.032351641  0.031784811           10 
 1603000   0.62062982   -5.5317053    621.49101  0.032308744  0.031763616           13 
 1604000   0.62370987   -5.5665974    621.20008  0.032273487  0.031742565           15 
 1605000   0.62573276   -5.5439258    622.32201  0.032311631  0.031721418           12 
 1606000   0.61990064   -5.5425071    622.18006  0.032284146  0.031700437            6 
 1607000   0.60528882    -5.554959    622.85398  0.032299003  0.031679446           16 
 1608000   0.62328386   -5.5299093    623.39221   0.03230681   0.03165842           15 
 1609000   0.58989319   -5.5283266    622.05468  0.032217458  0.031637422           11 
 1610000   0.61968566    -5.560559    621.74506  0.032181421  0.031616344           20 
 1611000   0.60931909   -5.5462465     622.0938  0.032179485  0.031595309            9 
 1612000   0.60791731   -5.5353094    622.75035  0.032193463  0.031574183           16 
 1613000   0.61097393   -5.5458561    623.12096  0.032192652  0.031553087            8 
 1614000   0.61946487   -5.5557302    621.47767   0.03208786   0.03153209           20 
 1615000   0.60785101    -5.555975    620.94052  0.032040275  0.031510944           10 
 1616000   0.61069272   -5.5383308    621.77854  0.032063662  0.031489888            7 
 1617000   0.61179693   -5.5447706    621.63469   0.03203642  0.031468882           16 
 1618000    0.6179194   -5.5475863    622.83491  0.032078436  0.031447936           25 
 1619000   0.60792192   -5.5531958     622.1843  0.032025134  0.031426984           14 
 1620000   0.61075557   -5.5302832    622.33307  0.032013018  0.031406052            9 
 1621000   0.60157185   -5.5773143    621.57242  0.031954165  0.031385136           13 
 1622000    0.5936045   -5.5763088     621.2674  0.031918793  0.031364064           20 
 1623000   0.58904468   -5.5664785    621.59087  0.031915736  0.031342984           26 
 1624000   0.59702207   -5.5476296    621.13757  0.031872823  0.031321932           12 
 1625000   0.60860667   -5.5652025    622.43516  0.031919752   0.03130096           33 
 1626000   0.59754258   -5.5543671    623.00952  0.031929557  0.031279965           11 
 1627000   0.61064676   -5.5683693    621.94944  0.031855636  0.031259007           13 
 1628000   0.60400547   -5.5607456    622.34794  0.031856467  0.031238002           20 
 1629000   0.59298534   -5.5555647    621.81717  0.031809759  0.031217065           19 
 1630000   0.59792781   -5.5382536    622.13103   0.03180629  0.031196265           16 
 1631000   0.59683112   -5.5727235    623.66802  0.031865319  0.031175479           13 
 1632000   0.59526352   -5.5614927    623.51438  0.031837948  0.031154668           10 
 1633000   0.60416561   -5.5693736    620.67241  0.031673424  0.031133783           19 
 1634000   0.60258919   -5.5803683    622.43843  0.031744106  0.031112912           25 
 1635000   0.60575596   -5.5530869    621.68679  0.031686381  0.031092078           10 
 1636000   0.59993697    -5.571528    622.62249  0.031714675   0.03107118           16 
 1637000    0.6039905   -5.5712056    621.57225  0.031641837  0.031050265            8 
 1638000   0.60396561   -5.5931107    620.81534  0.031584012  0.031029338           10 
 1639000   0.60055378   -5.5714376    622.33355  0.031641934  0.031008412            8 
 1640000   0.60229786   -5.5528382    622.61882  0.031637135  0.030987557           21 
 1641000   0.60043629   -5.5421648    622.47632  0.031610619  0.030966901           13 
 1642000   0.59567477   -5.5772792    619.84753  0.031457954  0.030946126           17 
 1643000   0.58584661   -5.5901481    621.19997  0.031507404  0.030925285           16 
 1644000   0.59108925    -5.564158    621.05778  0.031481031  0.030904434           17 
 1645000   0.58439586   -5.5606243     622.7911  0.031549701  0.030883528           16 
 1646000   0.61321146   -5.5814689    622.20711  0.031500967  0.030862607           14 
 1647000   0.58764901   -5.5856681     622.1332  0.031478102  0.030841763           23 
 1648000   0.60094422   -5.5582439    622.47938  0.031476506  0.030820977           17 
 1649000   0.60330677   -5.5803623    619.72775  0.031318362  0.030800128           21 
 1650000   0.59257742   -5.5605714    622.11253  0.031419824  0.030779251           23 
 1651000   0.58695021   -5.5787893    621.93397  0.031391781  0.030758304           26 
 1652000   0.58799683    -5.590183    622.20167  0.031386283  0.030737371           29 
 1653000   0.57977539   -5.5788127     621.1214  0.031312835   0.03071644           11 
 1654000   0.59369628   -5.5808397    622.44769  0.031360726  0.030695481           11 
 1655000   0.60381911    -5.590203    620.68841  0.031253193  0.030674489           15 
 1656000   0.59374614   -5.5973415    621.13678  0.031256883  0.030653502           13 
 1657000   0.58442248   -5.5770873    621.86203  0.031274493  0.030632596            9 
 1658000     0.592463   -5.5866389    619.95448  0.031159755   0.03061167           36 
 1659000   0.59719772   -5.5847742    620.80634  0.031183762  0.030590699           16 
 1660000    0.5884005   -5.5817265    619.86744  0.031117843  0.030569688            9 
 1661000   0.57457263   -5.6156335    620.79408  0.031145599  0.030548744           28 
 1662000   0.60085009   -5.5856176    620.66766  0.031120521  0.030527785           19 
 1663000   0.59545862   -5.5947328    620.64443  0.031100643  0.030506881           40 
 1664000   0.58535659   -5.6021619    620.98019  0.031098768  0.030486032           10 
 1665000   0.57592235   -5.5890253     621.6913  0.031115681  0.030465236           16 
 1666000   0.60051483   -5.5888593    621.45057  0.031084963  0.030444452           16 
 1667000   0.59108851   -5.5885629    621.20593  0.031054086  0.030423612           32 
 1668000   0.58802096   -5.6314651    621.29409  0.031039872  0.030402697           13 
 1669000   0.59175124   -5.6124945    620.22499  0.030967894  0.030381783           20 
 1670000   0.58747109   -5.5876298    621.74818  0.031025358  0.030360983           32 
 1671000   0.59507571   -5.5956924    620.66881  0.030952963  0.030340202           14 
 1672000   0.58550999    -5.595302    619.95002  0.030898625   0.03031947           32 
 1673000   0.57574808    -5.592753     621.8329  0.030973944  0.030298734           66 
 1674000   0.59626593   -5.5958281    621.93837  0.030960691  0.030278101           17 
 1675000   0.58585358   -5.6008782    623.08813  0.030999409  0.030257469           28 
 1676000   0.58671073   -5.6097303    621.50699  0.030902297  0.030236796           19 
 1677000   0.59141182   -5.6198811    620.81801  0.030849633    0.0302161           33 
 1678000   0.58307486   -5.6339314    621.36506  0.030858416  0.030195377           28 
 1679000   0.59774295   -5.5962784    621.71635  0.030857472  0.030174637           11 
 1680000   0.58302507   -5.5900718    621.97455  0.030851912  0.030153998           41 
 1681000   0.57576268   -5.5963136    623.17667  0.030893152  0.030133422           12 
 1682000   0.57691089   -5.6014463    621.97093  0.030815048  0.030112739           10 
 1683000   0.57599729   -5.6253234    620.61474  0.030729587  0.030092048           15 
 1684000   0.57303725   -5.6093234    620.34119  0.030697803  0.030071406           15 
 1685000   0.57678373   -5.6038528    621.23581  0.030723829  0.030050747           15 
 1686000   0.58464494   -5.6193376    621.94406  0.030740612  0.030030131           10 
 1687000   0.57190061   -5.6093994    621.84478  0.030717485  0.030009577           15 
 1688000   0.57370901   -5.6016899    621.90773  0.030702396  0.029989042           14 
 1689000    0.6036396     -5.60865    621.92333  0.030684987  0.029968507           31 
 1690000   0.57092444   -5.6066182    621.47315  0.030644633   0.02994793           17 
 1691000   0.57211389   -5.6070947    621.82882  0.030644038  0.029927347           14 
 1692000   0.57770614   -5.6086086     620.5653  0.030563697  0.029906801           30 
 1693000   0.58297057   -5.5956973    622.50277   0.03064101  0.029886253           17 
 1694000   0.57961047   -5.5928551    622.35628  0.030615716  0.029865735           14 
 1695000   0.56440807   -5.6031473    621.30625   0.03054603  0.029845187           18 
 1696000   0.57694439   -5.6078188    620.06855  0.030467205  0.029824755           10 
 1697000   0.56821604   -5.6156479    621.93964  0.030541133  0.029804273            7 
 1698000   0.58196888    -5.614363      621.838  0.030518158  0.029783852           32 
 1699000   0.57835784   -5.6318466    622.20661  0.030518276  0.029763412           27 
 1700000   0.57129657   -5.6314263    620.56503  0.030419854  0.029742919           10 
 1701000   0.58750882   -5.6359467    622.80668  0.030511791  0.029722448           22 
 1702000   0.57365613   -5.6174308    619.96315  0.030354639  0.029701961           19 
 1703000   0.57045155    -5.643813    622.55921  0.030463849  0.029681524           11 
 1704000   0.56862719   -5.6276222    621.00892  0.030370154  0.029661035           16 
 1705000   0.58042248    -5.624812    621.79226  0.030390628  0.029640606           29 
 1706000   0.57625729   -5.6255305    623.11914  0.030437629  0.029620223            5 
 1707000   0.56876196   -5.6325677    621.21242  0.030326714  0.029599869           21 
 1708000   0.58205677   -5.6377229    622.13338  0.030353892  0.029579493           13 
 1709000   0.56416939   -5.6317731     620.0581  0.030234937  0.029558996           12 
 1710000   0.57822355   -5.6364012    622.19126  0.030321211  0.029538529           14 
 1711000   0.56271914   -5.6421629    621.76644    0.0302828  0.029518093           11 
 1712000   0.56998053   -5.6219576    620.22618  0.030190137  0.029497659           19 
 1713000   0.56175251    -5.648569    622.00055  0.030258832  0.029477215           26 
 1714000   0.57024193   -5.6479246    621.89141  0.030235872  0.029456777           12 
 1715000   0.56095624   -5.6574662    621.28824  0.030188933  0.029436332           22 
 1716000   0.56672368   -5.6452695    621.21963  0.030168008  0.029415821           19 
 1717000   0.57275443   -5.6358935    622.18852  0.030197463  0.029395454           39 
 1718000   0.55808773   -5.6379712    622.54481  0.030197168  0.029375132           26 
 1719000   0.57163206   -5.6350294    623.19931   0.03021133  0.029354833           34 
 1720000   0.55994725   -5.6402832     620.9048  0.030082597  0.029334575           24 
 1721000   0.56556707   -5.6208953    622.02388  0.030119305  0.029314311           15 
 1722000   0.55942658   -5.6600463    622.06626  0.030103865  0.029294086           11 
 1723000   0.57163315   -5.6515101    621.01062  0.030035337  0.029273807           17 
 1724000   0.55803639    -5.646969    621.41314  0.030037371  0.029253563           44 
 1725000   0.56047465   -5.6313915    621.32937  0.030015912  0.029233356           24 
 1726000   0.56187111   -5.6442813    621.69112  0.030015987  0.029213134           23 
 1727000   0.56642624   -5.6262602    621.19752  0.029974789  0.029192958           22 
 1728000   0.58188113   -5.6363236    621.38601  0.029966532  0.029172772           33 
 1729000   0.56474124   -5.6439708    621.89426  0.029973697  0.029152618           16 
 1730000   0.56257466   -5.6536816    620.30356  0.029879747  0.029132455           13 
 1731000   0.55292156   -5.6351297    621.83399  0.029936164  0.029112307           21 
 1732000   0.57068643    -5.655022    620.70058  0.029864347  0.029092116           28 
 1733000   0.54414205   -5.6428165    620.77614  0.029850747  0.029071972           11 
 1734000   0.56802942   -5.6579564    621.71356  0.029878583  0.029051771           13 
 1735000   0.55768442    -5.657895     621.5392  0.029852987  0.029031559           24 
 1736000    0.5605165   -5.6445549    620.95982  0.029807979  0.029011384           25 
 1737000   0.56178382   -5.6548391    622.69706  0.029874163  0.028991213           25 
 1738000   0.57020435   -5.6533397    620.47379  0.029750373  0.028971112           13 
 1739000   0.54335106   -5.6747567    620.27136  0.029723565  0.028950994           18 
 1740000    0.5599449   -5.6475627    620.31305  0.029708479  0.028930843           20 
 1741000   0.56853264   -5.6430232    620.83723  0.029716506  0.028910697           19 
 1742000   0.56210513   -5.6604771    621.89247  0.029749927  0.028890581           22 
 1743000   0.54591177    -5.659271    620.87284   0.02968411  0.028870477           29 
 1744000   0.57422994    -5.661671    621.43805  0.029694096  0.028850411           36 
 1745000   0.55637808   -5.6667292    620.36566  0.029625867   0.02883041           25 
 1746000   0.56629278   -5.6626964    620.80968  0.029630092  0.028810316           28 
 1747000   0.55112703   -5.6682363     620.7625  0.029610881   0.02879021           27 
 1748000   0.55804583   -5.6606802    620.20568  0.029567395  0.028770105           19 
 1749000   0.54403384   -5.6553336    620.70956  0.029574498  0.028750148           40 
 1750000   0.55335184   -5.6613039    621.64804  0.029602288  0.028730191           24 
 1751000   0.55229387   -5.6760467    621.53427  0.029579967  0.028710269           38 
 1752000   0.56169265    -5.659642    622.74573  0.029620707  0.028690371           21 
 1753000   0.54336539   -5.6758887    620.94808  0.029518353  0.028670494           21 
 1754000   0.55063193   -5.6904126     621.8332  0.029543576  0.028650589           12 
 1755000    0.5566389   -5.6741982    621.43882  0.029508016  0.028630639           13 
 1756000   0.54870427   -5.6615454    621.85442  0.029510935  0.028610703           16 
 1757000   0.55468932   -5.6549967    621.12913  0.029459738  0.028590863           18 
 1758000    0.5541401   -5.6713654    620.05231  0.029391937  0.028571021           16 
 1759000   0.57029566   -5.6782063    622.14296  0.029474273  0.028551163           11 
 1760000   0.53656175   -5.6955408    621.13576  0.029409837  0.028531344           33 
 1761000     0.540382   -5.6996102     620.0878  0.029343545  0.028511456            8 
 1762000   0.54354965   -5.6914071    622.14426  0.029424152  0.028491613           16 
 1763000   0.55161071   -5.6905655      622.423  0.029420637  0.028471762           15 
 1764000   0.54812581    -5.677473    621.88621    0.0293786  0.028451922           28 
 1765000   0.55240708   -5.6892499    621.78739   0.02935729  0.028432113           36 
 1766000   0.55704244   -5.6966086    620.23362  0.029267347   0.02841234           18 
 1767000   0.54141832   -5.6819089    620.89195  0.029281831  0.028392582           41 
 1768000   0.55014773   -5.6809211    622.59083  0.029345344  0.028372854           53 
 1769000   0.55829955    -5.692445    620.70412  0.029239877   0.02835315           25 
 1770000   0.54226864   -5.6970246    620.81399   0.02922853  0.028333414           19 
 1771000   0.55176099   -5.6968548    620.80753  0.029211723  0.028313656           14 
 1772000   0.54945593   -5.6957067    620.68465  0.029189459  0.028293918           22 
 1773000   0.55623606   -5.6705592    621.48994  0.029210845  0.028274232           15 
 1774000   0.53454463   -5.6635666    621.16475  0.029179103  0.028254544           28 
 1775000   0.53685049   -5.6899786    619.64377  0.029091257  0.028234814           29 
 1776000   0.53487965    -5.683964    620.26672  0.029104107  0.028215139           14 
 1777000   0.55431264    -5.701214    621.02548  0.029123311  0.028195451           14 
 1778000   0.55277078    -5.703143    619.21124  0.029021899  0.028175685           16 
 1779000   0.55143531   -5.7059585    620.01173  0.029043083   0.02815596           13 
 1780000   0.53746896   -5.6990904    621.04213  0.029075006  0.028136219           11 
 1781000   0.55667373   -5.7056062    621.03895  0.029058532  0.028116571           13 
 1782000   0.54437244   -5.6873786    621.76007  0.029075948  0.028096929           18 
 1783000   0.53398817   -5.6930611    621.34946   0.02904045  0.028077311           17 
 1784000   0.53169226   -5.6882692    619.74806  0.028949367  0.028057702           20 
 1785000   0.55447905   -5.7085667    619.52637    0.0289228  0.028038063           18 
 1786000   0.52983872   -5.7090066    620.17041  0.028936656  0.028018457           19 
 1787000   0.53598851   -5.6998014    619.59892  0.028893813  0.027998842           14 
 1788000   0.55406494   -5.7092927    620.38403  0.028914245  0.027979304           41 
 1789000   0.53389809    -5.724104    620.64069  0.028910038   0.02795972           42 
 1790000   0.54405415   -5.7101194    622.17926  0.028965515  0.027940194           19 
 1791000    0.5318107   -5.6887824    621.74673  0.028929217  0.027920683           23 
 1792000   0.55614575   -5.7120679    621.81654   0.02891632  0.027901176           17 
 1793000   0.53129969   -5.7090678    621.23831  0.028873318  0.027881681           16 
 1794000   0.53423007   -5.7206917    620.07261  0.028803076  0.027862171           35 
 1795000   0.54075206    -5.709821    621.41489  0.028849345  0.027842669           32 
 1796000   0.53635276   -5.7329415    620.14495  0.028774357  0.027823152           33 
 1797000   0.54583956   -5.7120974    623.08795  0.028894822  0.027803634           38 
 1798000   0.54151084    -5.718197    621.70256  0.028814542  0.027784173           34 
 1799000   0.53591894   -5.7055664    621.07325  0.028769374  0.027764758           35 
 1800000   0.53353795   -5.7385408    620.07205  0.028707039  0.027745258           17 
 1801000   0.53629276   -5.7383406    619.39739  0.028659883  0.027725789           17 
 1802000   0.53358047   -5.7126743    620.37263  0.028689079  0.027706371           16 
 1803000   0.51949318   -5.7380182    619.83992  0.028648545  0.027686864           46 
 1804000   0.53553103   -5.7341756    618.86466  0.028587614  0.027667352           15 
 1805000   0.53611473   -5.7191112    620.22738   0.02863469  0.027647937           33 
 1806000   0.52713707   -5.7333931     620.3053   0.02862243  0.027628517           33 
 1807000   0.53096545   -5.7178171    620.72282  0.028625845  0.027609115           75 
 1808000   0.54719118   -5.7266432    620.78496  0.028612876  0.027589719           33 
 1809000   0.53295493   -5.7401704    621.03868  0.028608747  0.027570323           21 
 1810000   0.53985841   -5.7168185    619.78264  0.028535112  0.027550918           54 
 1811000    0.5283713   -5.7308983    620.45649  0.028550363  0.027531485           88 
 1812000   0.52639948   -5.7256943    619.81098   0.02850492  0.027512067           83 
 1813000   0.53111851   -5.7211306    620.75072  0.028532392  0.027492693           73 
 1814000   0.53082168   -5.7481083    619.62731  0.028465055  0.027473371           70 
 1815000   0.52964602   -5.7306182    619.34869  0.028436579  0.027454089           84 
 1816000   0.51566075   -5.7316467    620.10073   0.02845543  0.027434798          102 
 1817000   0.52909831   -5.7372904     619.6287   0.02841812  0.027415538           50 
 1818000   0.51903667   -5.7401857    620.58216  0.028446194  0.027396263           65 
 1819000   0.52244536   -5.7389608    619.58133  0.028384704  0.027377015          119 
 1820000    0.5355062    -5.737116    621.28284  0.028447016  0.027357803           49 
 1821000   0.52808352   -5.7255344    620.69418  0.028404456  0.027338597           75 
 1822000   0.53897864   -5.7566328    619.80027  0.028347981  0.027319351           64 
 1823000   0.52228949   -5.7291951    619.19353  0.028304696  0.027300077           41 
 1824000   0.51599175   -5.7415151    618.71319  0.028267233  0.027280777           49 
 1825000   0.52943198   -5.7466677    619.02809  0.028266123  0.027261531           84 
 1826000   0.54318215   -5.7609136    620.66828  0.028325496  0.027242295          101 
 1827000   0.51794108   -5.7581056    619.38839  0.028251614  0.027223041           93 
 1828000   0.51967014   -5.7308549    620.68851  0.028295428  0.027203889          129 
 1829000   0.51734518   -5.7445561    619.27684  0.028215639  0.027184784          142 
 1830000   0.51258754   -5.7240986     621.0169  0.028279458  0.027165655          130 
 1831000   0.52851715   -5.7444184    620.47861  0.028239514  0.027146579          144 
 1832000   0.51969789   -5.7413893    620.15771  0.028209503  0.027127523          159 
 1833000   0.52383371   -5.7431236    620.68613  0.028218136  0.027108462           95 
 1834000   0.51803775   -5.7553885    619.87481  0.028165886  0.027089453           82 
 1835000   0.51804457   -5.7451366    619.65305  0.028140466   0.02707049           91 
 1836000   0.51508804   -5.7438405    619.39665  0.028113501  0.027051511           82 
 1837000   0.51502778   -5.7460315    620.86476  0.028164796  0.027032521           83 
 1838000   0.51361912   -5.7681351    619.74658  0.028098775  0.027013526           72 
 1839000   0.51074437   -5.7446742    620.14987   0.02810177   0.02699452           33 
 1840000   0.52620904   -5.7639211    621.18542  0.028133398  0.026975516           59 
 1841000   0.52287614   -5.7389496    620.42512  0.028083701  0.026956583           32 
 1842000   0.51166393   -5.7561837    620.32007  0.028063702  0.026937665           58 
 1843000   0.52727335   -5.7309916    619.20027  0.027997842  0.026918735           38 
 1844000   0.52997846   -5.7832411    618.26984  0.027940611  0.026899794           38 
 1845000   0.51638757   -5.7638469    620.50649   0.02802649  0.026880805           83 
 1846000   0.51685752    -5.766334    619.66842  0.027973475  0.026861863           51 
 1847000   0.51413871   -5.7660392     618.4166   0.02790185  0.026842871          167 
 1848000   0.51227537     -5.75071     620.5706  0.027983884  0.026823894          104 
 1849000   0.51403767   -5.7739876     619.0393  0.027899734  0.026804904          102 
 1850000   0.51404604   -5.7873348    619.68616  0.027913791  0.026785921           74 
 1851000    0.5148467   -5.7724198    619.31072  0.027881808  0.026766934           94 
 1852000   0.50610541    -5.759116    619.29314  0.027865962  0.026747958           61 
 1853000   0.51215519   -5.7795821    620.36475  0.027899116  0.026729033           87 
 1854000    0.5101607   -5.7671529    620.61469  0.027895302  0.026710122           55 
 1855000   0.52273855   -5.7756859    618.82379  0.027799811  0.026691218           87 
 1856000    0.4948445   -5.7906988    618.39285  0.027765484  0.026672311           90 
 1857000   0.51304893   -5.7809034    618.13371  0.027738903  0.026653367          127 
 1858000   0.50968317    -5.799705    617.71492   0.02770519  0.026634461          224 
 1859000   0.52321716    -5.784278    619.21921   0.02775772  0.026615584          206 
 1860000   0.50415252   -5.7895217    617.29326  0.027656508  0.026596736           66 
 1861000   0.50790166   -5.7750286    619.27838  0.027730538  0.026577901          163 
 1862000   0.51185693     -5.78659     617.9758  0.027657349  0.026559063          118 
 1863000   0.52079076   -5.7872071    619.82908  0.027725401  0.026540219           77 
 1864000   0.50473151   -5.7982433    618.20954  0.027638123  0.026521393          119 
 1865000   0.50466096    -5.783911    618.03571  0.027615537   0.02650257          102 
 1866000   0.50090873   -5.7965557    618.49864  0.027621411  0.026483791           61 
 1867000   0.51878031   -5.7687389    620.04692  0.027675724  0.026465047           72 
 1868000     0.510448    -5.775318    619.17129  0.027621846  0.026446327           74 
 1869000    0.5127572   -5.7766986    619.87956  0.027638646   0.02642759           39 
 1870000   0.49371257   -5.8061531     619.2521  0.027595905  0.026408902           30 
 1871000   0.51037653   -5.7716863    619.44301  0.027589659   0.02639026           61 
 1872000   0.50279677    -5.803717    619.29986  0.027568548  0.026371628           51 
 1873000   0.49968811   -5.7993383    618.55122  0.027520521  0.026352957          106 
 1874000   0.51870836   -5.7962379    619.64979  0.027554687  0.026334296           89 
 1875000   0.50266538   -5.7905154    618.18004  0.027474668  0.026315662           37 
 1876000   0.51010956   -5.7829377    617.15299  0.027414401  0.026297065          103 
 1877000   0.51005727   -5.7902966    619.36299  0.027497913  0.026278447           83 
 1878000   0.50069792   -5.8003027    619.82427  0.027503739  0.026259824           50 
 1879000   0.50483605   -5.7894183    618.91886  0.027448947  0.026241188          106 
 1880000   0.50722546    -5.805291    618.49815  0.027415698   0.02622255          118 
 1881000   0.50630079   -5.8180349     617.9861  0.027378438   0.02620393           42 
 1882000   0.50974693   -5.8112283    618.42946  0.027383522  0.026185281          110 
 1883000   0.50806181   -5.7796189    619.84799  0.027431757  0.026166675          105 
 1884000   0.49808127   -5.7805717    619.78832  0.027414558  0.026148145          142 
 1885000   0.49940804   -5.8241689    618.67469  0.027350782   0.02612958          142 
 1886000   0.50296755   -5.7978114    619.67726  0.027380579  0.026110989          156 
 1887000    0.4995807   -5.8036414    618.20043  0.027300849  0.026092407           87 
 1888000   0.49681519   -5.8147683    617.68677  0.027263717  0.026073817          143 
 1889000   0.49486424   -5.7956723    617.38224  0.027235849  0.026055222           67 
 1890000   0.49578956   -5.8226772    617.82094  0.027240782  0.026036648          115 
 1891000   0.50260672   -5.8192885    618.42049  0.027252798  0.026018094           89 
 1892000    0.5008693   -5.8133714    617.34695   0.02719111   0.02599954          130 
 1893000   0.49686698   -5.8074355    618.96378  0.027247921  0.025980969           69 
 1894000   0.48725151   -5.8088847     618.3613  0.027207027  0.025962464           66 
 1895000   0.49303821    -5.820907    617.77462   0.02716687  0.025943949          158 
 1896000   0.49546244   -5.8239584    617.74551  0.027151262  0.025925418           77 
 1897000    0.5053834   -5.8294321    617.73687   0.02713657  0.025906907           59 
 1898000   0.50086989   -5.8430599    616.86165  0.027083845  0.025888401           69 
 1899000   0.49050372   -5.8132267    617.55492  0.027100005  0.025869877           75 
 1900000   0.49427251    -5.828682    617.05875   0.02706398  0.025851343           65 
 1901000   0.49775337   -5.8452314    617.25126  0.027058183  0.025832854          103 
 1902000   0.49101085   -5.8175954    616.85815  0.027026733  0.025814366           59 
 1903000   0.49608777   -5.8331521    616.99467  0.027018509  0.025795903          101 
 1904000   0.48706427   -5.8206201    616.89751  0.027000066   0.02577744           99 
 1905000   0.49861374   -5.8370043    617.26454  0.027001948  0.025758996           78 
 1906000   0.49128627   -5.8409925    616.41703  0.026950727  0.025740545          101 
 1907000   0.47964339   -5.8220188    617.03348  0.026963533  0.025722143          178 
 1908000   0.48704528    -5.836236    617.04578  0.026949938  0.025703785          107 
 1909000    0.4985796   -5.8042199    617.83506  0.026970275  0.025685447          178 
 1910000   0.49785543   -5.8089903    617.87576   0.02695793  0.025667111           88 
 1911000   0.49418223   -5.8176301    617.37168  0.026921842  0.025648797           99 
 1912000   0.48389007   -5.8211341    617.25691  0.026902759  0.025630484           94 
 1913000   0.50110207   -5.8239461    616.99498  0.026877286  0.025612203           99 
 1914000   0.49205523   -5.8185377    616.75671   0.02685287  0.025593944          117 
 1915000   0.48495765   -5.8407512     617.3282  0.026863716  0.025575699          116 
 1916000   0.49068837   -5.8271788    618.58905  0.026904534  0.025557444          149 
 1917000   0.48907285   -5.8280041    617.22639  0.026831264  0.025539212          123 
 1918000   0.48921699     -5.82751    617.61195  0.026834027  0.025520963           86 
 1919000   0.47568486   -5.8162076    618.46595  0.026857128  0.025502735           86 
 1920000   0.47148399   -5.8374917    617.20939  0.026788602  0.025484518          119 
 1921000   0.50593672   -5.8398846    616.13786  0.026728174  0.025466361          101 
 1922000   0.48560741   -5.8434562    616.38754  0.026725093  0.025448206           89 
 1923000   0.48287555   -5.8455645    617.94342   0.02677862   0.02543008           83 
 1924000   0.49952442   -5.8283203    617.65186  0.026752073   0.02541194           57 
 1925000   0.49312847   -5.8514089    616.36892  0.026682637  0.025393782           87 
 1926000   0.48975922   -5.8402811    616.63915  0.026680476  0.025375626           60 
 1927000   0.48996405   -5.8495752    617.54336  0.026705732  0.025357556           68 
 1928000   0.48926206   -5.8403713    616.72387   0.02665646  0.025339485           67 
 1929000   0.49756321   -5.8606374    616.24409  0.026621915  0.025321372          104 
 1930000   0.48100543   -5.8587331    616.68833  0.026627303  0.025303268           97 
 1931000    0.4777304   -5.8488232    615.98209  0.026583035  0.025285199           88 
 1932000   0.48126463   -5.8408499    617.46077  0.026633056  0.025267138           91 
 1933000   0.47838851   -5.8435257    617.76052  0.026632201  0.025249102           85 
 1934000   0.48259395    -5.848905    617.58045  0.026610671  0.025231087           54 
 1935000   0.47794597   -5.8458704    618.14576  0.026621264  0.025213115           50 
 1936000   0.47430018   -5.8548892    617.31571  0.026571785  0.025195123           66 
 1937000   0.48708463   -5.8381087    616.75597  0.026533986  0.025177131          107 
 1938000   0.47219848   -5.8393688    617.78521  0.026564551  0.025159161          137 
 1939000   0.47993706    -5.860159    616.64516  0.026501855  0.025141148           69 
 1940000   0.47468188   -5.8596057    617.41959   0.02652146  0.025123171          107 
 1941000   0.47359382   -5.8480359    616.76937   0.02647988  0.025105146           85 
 1942000   0.47708083   -5.8638865    617.41689  0.026494031  0.025087142          108 
 1943000   0.47689107   -5.8624451    617.72542  0.026493627  0.025069172          115 
 1944000   0.48184186   -5.8618796    616.93306  0.026446033  0.025051219          130 
 1945000   0.47519928   -5.8651107    616.89644  0.026430867  0.025033283           85 
 1946000   0.47568684   -5.8652498    615.91198  0.026375128  0.025015324           82 
 1947000    0.4804738    -5.861673     615.5036  0.026344102  0.024997377           86 
 1948000    0.4699651   -5.8530509    616.78763  0.026385508  0.024979442          102 
 1949000   0.48041172   -5.8716385    615.79901    0.0263297  0.024961488          110 
 1950000   0.46203844   -5.8538766    615.32038  0.026295743  0.024943537          121 
 1951000   0.47863815   -5.8704568    616.09065  0.026315165   0.02492563           91 
 1952000   0.47805253    -5.851633     616.3971  0.026314767   0.02490774          134 
 1953000   0.45937661   -5.8663133    615.26943  0.026253176  0.024889875          151 
 1954000    0.4642235   -5.8648112    616.42663  0.026289092  0.024872027           82 
 1955000   0.47411204   -5.8668801    615.92056  0.026254073  0.024854145           70 
 1956000   0.47343122   -5.8723492    614.36953  0.026174571  0.024836275           72 
 1957000   0.47921134   -5.8731179    615.50802  0.026209676  0.024818437          103 
 1958000   0.47775088   -5.8888881    616.27721  0.026229027  0.024800572          130 
 1959000   0.47122025   -5.8642705    615.47123  0.026181352  0.024782728          171 
 1960000   0.47308321   -5.8744592    616.20277  0.026199097  0.024764897           48 
 1961000   0.46348496   -5.8734831    615.56362  0.026158577  0.024747096           87 
 1962000   0.47430991   -5.8800822    614.59486  0.026104097  0.024729313           66 
 1963000   0.46729181   -5.8764147    615.38329  0.026124269  0.024711518           75 
 1964000   0.45963009   -5.8865602    614.93813  0.026092079  0.024693787          100 
 1965000   0.45586028   -5.8826648    616.85677  0.026160168  0.024676019           71 
 1966000   0.46827103   -5.8947796    614.96729  0.026066772    0.0246583          104 
 1967000   0.45378272   -5.8808276    614.36102  0.026027835  0.024640537           46 
 1968000   0.47404971   -5.8971144    615.58615  0.026066487  0.024622805           74 
 1969000   0.47161716   -5.8892256    615.94364  0.026068378   0.02460507           67 
 1970000     0.455485   -5.8796623    614.70334  0.026002679  0.024587357           80 
 1971000   0.46031023   -5.8816604    614.86039  0.025996127  0.024569615           83 
 1972000   0.45841246   -5.8850943    614.71646  0.025976862  0.024551903          102 
 1973000   0.46083694   -5.8897782    614.43985  0.025952013   0.02453419          140 
 1974000   0.46487626    -5.902297    615.41803   0.02598016  0.024516506          111 
 1975000   0.46035572    -5.920124    615.04041  0.025951072  0.024498856           76 
 1976000   0.47497406   -5.8801584    614.41458  0.025911546  0.024481205          132 
 1977000   0.46905802   -5.8894592    614.72447  0.025911502  0.024463567          173 
 1978000   0.46621475     -5.88526    613.48458  0.025846165  0.024445933          114 
 1979000   0.46742115   -5.8890273    614.80524  0.025888716  0.024428318          129 
 1980000   0.45973507   -5.8958762    614.84144  0.025877165   0.02441072           95 
 1981000    0.4590328   -5.9044217    614.81947  0.025863178  0.024393167          123 
 1982000    0.4555507   -5.9077858    614.86157  0.025851899  0.024375617          109 
 1983000   0.45623925   -5.8991243    614.73126  0.025833386  0.024358067          189 
 1984000   0.45805991   -5.8734453     614.2153  0.025798694  0.024340511          217 
 1985000   0.46093308   -5.8937102    615.21361  0.025827608  0.024322977          136 
 1986000    0.4604989   -5.9030503    614.75608  0.025795404  0.024305452          183 
 1987000   0.47294113   -5.8985112    615.39165  0.025809078   0.02428796           90 
 1988000   0.45402127    -5.893205     613.1109   0.02570049   0.02427046          168 
 1989000   0.44828837   -5.9027259    613.74539  0.025714152  0.024252979          110 
 1990000   0.45472604   -5.8846179    615.24825  0.025764164  0.024235506          124 
 1991000   0.46205154   -5.8877873    614.97765  0.025739898  0.024218077          163 
 1992000   0.45271381   -5.8997132    615.22924  0.025737501  0.024200674          174 
 1993000   0.45432162   -5.9108425    614.33435   0.02568717  0.024183252          140 
 1994000   0.46180539   -5.8894402    612.97747  0.025617581  0.024165833          109 
 1995000    0.4511171   -5.9075062    614.88798  0.025684544  0.024148453          102 
 1996000   0.46166274   -5.9083136    616.03318  0.025719488  0.024131081          137 
 1997000   0.45001968   -5.8920989    614.47381  0.025641538  0.024113741          103 
 1998000   0.45102412   -5.8961098    614.04239   0.02561071  0.024096393           96 
 1999000   0.46703701   -5.8899335    613.64506  0.025581335  0.024079047           91 
 2000000   0.45255404   -5.9227738    614.08204  0.025586752  0.024061726          109 
 2001000   0.45501984   -5.9029733    614.61029  0.025595964  0.024044411          132 
 2002000   0.45747097   -5.8923258     614.1007  0.025561967  0.024027125          132 
 2003000   0.45410677   -5.9098868    614.34742   0.02555947  0.024009823          106 
 2004000   0.46669323   -5.9099283    614.24447  0.025542435  0.023992524          117 
 2005000    0.4613934   -5.9184212    613.65573  0.025505226  0.023975235          130 
 2006000   0.44591584    -5.899907     614.3277  0.025520426  0.023957966          111 
 2007000   0.44931866   -5.9256275     613.6832   0.02548095  0.023940709          144 
 2008000   0.44762378   -5.9242995    614.03544  0.025482879   0.02392342          120 
 2009000   0.45583719    -5.917475    615.05936  0.025512666  0.023906161          175 
 2010000   0.43734012    -5.915342    612.85881   0.02540874  0.023888915           94 
 2011000   0.44820744   -5.9131152    612.99875  0.025401904  0.023871671          118 
 2012000   0.45908248   -5.9120814    614.05112  0.025432866  0.023854464          236 
Loop time of 5073.81 on 48 procs for 2000000 steps with 4000 atoms

Performance: 68114.435 tau/day, 394.181 timesteps/s
99.4% CPU use with 48 MPI tasks x no OpenMP threads

MPI task timing breakdown:
Section |  min time  |  avg time  |  max time  |%varavg| %total
---------------------------------------------------------------
Pair    | 344.72     | 378.82     | 404.22     |  73.3 |  7.47
Neigh   | 34.432     | 35.651     | 37.021     |  12.0 |  0.70
Comm    | 331.44     | 354.06     | 389.69     |  73.9 |  6.98
Output  | 4.3054     | 4.3072     | 4.338      |   0.2 |  0.08
Modify  | 4241.2     | 4253       | 4261.4     |   7.9 | 83.82
Other   |            | 47.94      |            |       |  0.94

Nlocal:        83.3333 ave          90 max          74 min
Histogram: 1 0 1 6 5 14 8 3 9 1
Nghost:        2341.85 ave        2367 max        2319 min
Histogram: 1 2 6 8 8 13 4 4 1 1
Neighs:        15994.5 ave       17406 max       14185 min
Histogram: 1 1 4 5 6 11 8 4 5 3
FullNghs:      31989.0 ave       34318 max       28267 min
Histogram: 1 0 1 6 6 10 7 5 10 2

Total # of neighbors = 1535470
Ave neighs/atom = 383.86750
Neighbor list builds = 107659
Dangerous builds = 0

#clear
#
#next RN
#
#jump SELF
Total wall time: 1:24:37
