
units lj                  # Use reduced LJ style units
atom_style atomic         # Uncharged point particles
atom_modify map hash      # Needed for indexing of clusters etc
                          # Used to be able to find where atoms are in relation to each other.

lattice fcc 1.0 spacing 1 1 1
Lattice spacing in x,y,z = 1.5874011 1.5874011 1.5874011
region box block 0 10 0 10 0 10 units lattice
create_box 2 box
Created orthogonal box = (0.0000000 0.0000000 0.0000000) to (15.874011 15.874011 15.874011)
  3 by 4 by 4 MPI processor grid
create_atoms 1 box
Created 4000 atoms
  using lattice units in orthogonal box = (0.0000000 0.0000000 0.0000000) to (15.874011 15.874011 15.874011)
  create_atoms CPU = 0.002 seconds
set type 1 type/fraction 2 0.31 78393
Setting atom values ...
  1268 settings made for type/fraction
mass 1 1.0
mass 2 1.0
pair_style lj/cut  3.5
pair_modify tail  yes
pair_coeff 1  1  1.0  1.0   # Intearaction between 1 and 1 set with epsilon = 1 and sigma = 1
pair_coeff 1  2  1.5  0.8
pair_coeff 2  2  0.5  0.88

write_data data.0
System init for write_data ...
Neighbor list info ...
  update every 1 steps, delay 10 steps, check yes
  max neighbors/atom: 2000, page size: 100000
  master list distance cutoff = 3.8
  ghost atom cutoff = 3.8
  binsize = 1.9, bins = 9 9 9
  1 neighbor lists, perpetual/occasional/extra = 1 0 0
  (1) pair lj/cut, perpetual
      attributes: half, newton on
      pair build: half/bin/atomonly/newton
      stencil: half/bin/3d
      bin: standard
WARNING: Not all mixed pair coeffs generated from mixing. Use write_data with 'pair ij' option to store all pair coeffs. (../write_data.cpp:312)


#############################
#   M E L T   S Y S T E M   #
#############################

velocity all create 2.4 5833274 mom yes dist gaussian # Assign velocities
                                                    # Temperature 2.4, random number seed, zero linear momentum
                                                                                # Gaussian distribution

timestep 0.002   # simulation timestep
thermo 1000       # output thermodynamic data every 1000 steps bf 100

# Define a fix  in this case with index 1 applied to all
# particles in the simulation. This fix is for simulations
# in the anisotropic NPT ensemble. Note that we use the MTK
# correction.
fix 1 all npt temp 2.4 2.4 0.1 iso 5.68 5.68 0.5 mtk yes tchain 5 pchain 5 # Use NPT ensemble
                                                                         # Set temperature and pressure and damping
                                                                         # Numbers of thermostats in chain and in barostat
run 10000          # run for 10000 steps
Per MPI rank memory allocation (min/avg/max) = 3.642 | 3.644 | 3.648 Mbytes
Step Temp E_pair E_mol TotEng Press Volume 
       0          2.4   -6.3727134            0   -2.7736134   -4.0086663         4000 
    1000    2.3779082   -4.9135949            0   -1.3476243    5.8787087    4143.3385 
    2000    2.3366122   -5.0031713            0   -1.4991292    5.4382379    4139.6135 
    3000    2.3826446   -5.0504756            0   -1.4774022     5.637887    4102.6284 
    4000    2.4005383   -4.9750987            0   -1.3751915    5.7245905    4135.6649 
    5000    2.4230573   -5.0101833            0    -1.376506    5.7348172    4120.6124 
    6000    2.3783175   -4.9448908            0   -1.3783064    5.1094107    4204.7078 
    7000    2.4135213   -5.0475956            0   -1.4282187    5.5096871     4120.082 
    8000    2.4080958   -4.9988074            0   -1.3875667    5.4956296    4131.2522 
    9000    2.3830563   -4.9834248            0   -1.4097341    5.5485498    4143.2596 
   10000    2.4143389   -5.0071355            0   -1.3865326    5.4090868    4147.1317 
Loop time of 2.41943 on 48 procs for 10000 steps with 4000 atoms

Performance: 714218.077 tau/day, 4133.206 timesteps/s
99.6% CPU use with 48 MPI tasks x no OpenMP threads

MPI task timing breakdown:
Section |  min time  |  avg time  |  max time  |%varavg| %total
---------------------------------------------------------------
Pair    | 1.0461     | 1.115      | 1.19       |   3.2 | 46.08
Neigh   | 0.20406    | 0.21057    | 0.22503    |   1.0 |  8.70
Comm    | 0.72247    | 0.8084     | 0.87738    |   4.3 | 33.41
Output  | 0.0002427  | 0.00024783 | 0.00031632 |   0.0 |  0.01
Modify  | 0.22508    | 0.27026    | 0.30322    |   3.2 | 11.17
Other   |            | 0.01497    |            |       |  0.62

Nlocal:        83.3333 ave          93 max          70 min
Histogram: 1 2 1 5 6 9 13 5 3 3
Nghost:        1596.10 ave        1630 max        1563 min
Histogram: 3 0 5 8 7 9 8 5 1 2
Neighs:        9197.00 ave       10732 max        7701 min
Histogram: 4 2 2 4 10 10 10 4 0 2

Total # of neighbors = 441456
Ave neighs/atom = 110.36400
Neighbor list builds = 903
Dangerous builds = 195

# Equilibrate just above the melting temperature to avoid step fn in T

fix 1 all npt temp 1.25 1.25 0.1 iso 5.68 5.68 0.5 mtk yes tchain 5 pchain 5
run 2000
Per MPI rank memory allocation (min/avg/max) = 3.643 | 3.645 | 3.649 Mbytes
Step Temp E_pair E_mol TotEng Press Volume 
   10000    2.4143389   -5.0071355            0   -1.3865326    5.4090868    4147.1317 
   11000     1.248588   -6.8461011            0   -4.9736874     5.800632    3317.7606 
   12000    1.2300857   -6.9173892            0   -5.0727219    5.4148956    3312.0606 
Loop time of 0.580301 on 48 procs for 2000 steps with 4000 atoms

Performance: 595552.717 tau/day, 3446.486 timesteps/s
99.7% CPU use with 48 MPI tasks x no OpenMP threads

MPI task timing breakdown:
Section |  min time  |  avg time  |  max time  |%varavg| %total
---------------------------------------------------------------
Pair    | 0.24801    | 0.27364    | 0.3106     |   2.3 | 47.16
Neigh   | 0.037109   | 0.039539   | 0.043016   |   0.6 |  6.81
Comm    | 0.18227    | 0.21811    | 0.24484    |   2.8 | 37.58
Output  | 4.9692e-05 | 5.1735e-05 | 6.7496e-05 |   0.0 |  0.01
Modify  | 0.039676   | 0.04423    | 0.048751   |   1.1 |  7.62
Other   |            | 0.004731   |            |       |  0.82

Nlocal:        83.3333 ave          92 max          74 min
Histogram: 1 2 2 10 5 10 9 6 1 2
Nghost:        1866.60 ave        1896 max        1846 min
Histogram: 3 4 7 12 5 6 4 6 0 1
Neighs:        11557.6 ave       13255 max        9902 min
Histogram: 3 1 5 11 3 7 8 6 3 1

Total # of neighbors = 554766
Ave neighs/atom = 138.69150
Neighbor list builds = 142
Dangerous builds = 9

#############################
# L I N E A R  Q U E N C H  #
#############################

# Define solid atoms. This closely follows ten Wolde  Ruiz-Montero and Frenkel  Faraday Discuss  1996  104  93-110
# Compute components of the per-atom q6 vector
compute q6 all orientorder/atom degrees 1 6 components 6 nnn NULL cutoff 1.3 # compute the Q6 parameter.
                                                                             # Use all neighbours within 1.3 unit cell.

# get number of connections
compute coord_number all coord/atom orientorder q6 0.5

# An atom is solid if it has 8 or more connections (of a possible 14)
variable is_solid atom c_coord_number>=8
group solid dynamic all var is_solid    # Must be dynamic to update
dynamic group solid defined

# do clustering
compute cluster solid cluster/atom 1.3 # Create a cluster where all atoms within are solid and max 1.3 units from another member

# define chunks one chunk per cluster
compute clus_chunks solid chunk/atom c_cluster nchunk every compress yes  # Says which atoms are in which chunk

# count the size of each chunk
compute size_chunks solid property/chunk clus_chunks count


# Find the maximum entry in the vector of chunk sizes
variable max_n equal max(c_size_chunks)


# Thermo style which includes this variable
# thermo_style custom step temp pe vol v_max_n

thermo ${N}  # Print the thermo information every 100 steps
thermo 1000  

# Reset the npt fix at a lower temperature (below freezing)
fix 1  all npt temp  ${temp} ${temp}  0.1  iso  5.68  5.68  0.5  mtk yes tchain  5  pchain  5
fix 1  all npt temp  0.45 ${temp}  0.1  iso  5.68  5.68  0.5  mtk yes tchain  5  pchain  5
fix 1  all npt temp  0.45 0.45  0.1  iso  5.68  5.68  0.5  mtk yes tchain  5  pchain  5

dump dmp2 all dcd ${N} traj.dcd
dump dmp2 all dcd 1000 traj.dcd


compute msd all msd com yes
variable twopoint equal c_msd[4]/6/(step*dt+1.0e-6)
fix 9 all vector 10 c_msd[4]
variable fit equal slope(f_9)/6/(10*dt)
thermo_style custom step temp pe c_msd[4] v_twopoint v_fit v_max_n

fix 1 all npt temp 1.25 ${temp} 0.1 iso 5.68 5.68 0.5 mtk yes tchain 5 pchain 5
fix 1 all npt temp 1.25 0.45 0.1 iso 5.68 5.68 0.5 mtk yes tchain 5 pchain 5
run 500000 # 5000000  # Run for this many steps
Neighbor list info ...
  update every 1 steps, delay 10 steps, check yes
  max neighbors/atom: 2000, page size: 100000
  master list distance cutoff = 3.8
  ghost atom cutoff = 3.8
  binsize = 1.9, bins = 8 8 8
  4 neighbor lists, perpetual/occasional/extra = 1 3 0
  (1) pair lj/cut, perpetual
      attributes: half, newton on
      pair build: half/bin/atomonly/newton
      stencil: half/bin/3d
      bin: standard
  (2) compute orientorder/atom, occasional
      attributes: full, newton on
      pair build: full/bin/atomonly
      stencil: full/bin/3d
      bin: standard
  (3) compute coord/atom, occasional
      attributes: full, newton on
      pair build: full/bin/atomonly
      stencil: full/bin/3d
      bin: standard
  (4) compute cluster/atom, occasional
      attributes: full, newton on
      pair build: full/bin/atomonly
      stencil: full/bin/3d
      bin: standard
Per MPI rank memory allocation (min/avg/max) = 9.810 | 9.817 | 9.823 Mbytes
Step Temp PotEng c_msd[4] v_twopoint v_fit v_max_n 
   12000    1.2300857   -6.9173892 9.9869791e-31 6.9354018e-33 8.3333333e+20            2 
   13000    1.2578747   -6.8736523   0.51936448 0.0033292594  0.041600035            2 
   14000    1.2578678   -6.8943183   0.97205425  0.005786037  0.040822295            2 
   15000    1.2693931   -6.9006939    1.4508048 0.0080600264   0.03975522            2 
   16000    1.2505356   -6.9079942    1.8999744 0.0098956998  0.039140095            1 
   17000    1.2470384   -6.9124389    2.3099641  0.011323353  0.038432094            1 
   18000    1.2140964   -6.8961314    2.7766112  0.012854681  0.037878667            1 
   19000    1.2552137   -6.9335191    3.2220086  0.014131616  0.037608648            2 
   20000    1.2302576   -6.9107044    3.6515144  0.015214643  0.037621013            1 
   21000    1.2092585   -6.9276728     4.074679  0.016169361  0.037466524            1 
   22000     1.207947    -6.936734    4.5528244  0.017245547  0.037368619            2 
   23000    1.2225059   -6.9414867    4.9882209  0.018073264  0.037244114            1 
   24000    1.2436509    -6.922444    5.4332649  0.018865503  0.037225695            1 
   25000    1.2120643   -7.0172718    5.8035682  0.019345227  0.037066716            1 
   26000    1.2338231   -6.9396035    6.2371154  0.019990754  0.036860818       -1e+20 
   27000    1.2083057   -6.9896858    6.6850981  0.020633018  0.036701396            2 
   28000    1.2213845   -6.9349129    7.1657982   0.02132678  0.036684028            2 
   29000    1.2015986   -6.9459859    7.5815752  0.021786135  0.036679161            2 
   30000     1.214582   -6.9507726    7.9518203  0.022088389  0.036575119            2 
   31000    1.2309005   -6.9802071     8.512833  0.022883959  0.036560229            3 
   32000    1.2191572   -6.9575636    8.9408605   0.02328349  0.036628557            3 
   33000    1.2265393   -6.9826375    9.2006365   0.02323393    0.0366047            2 
   34000    1.2199584   -7.0043812    9.6235547  0.023587144  0.036432298            1 
   35000    1.2113058   -6.9737067    9.9866374  0.023777708   0.03628117            3 
   36000     1.214511   -6.9575664    10.494374  0.024292531  0.036167671            2 
   37000    1.2046315   -7.0205213    10.880804  0.024506315  0.036067224            2 
   38000    1.2129221   -6.9998156    11.295191  0.024770154  0.035966857            1 
   39000       1.2126   -6.9883162    11.744302  0.025094663   0.03590124            1 
   40000    1.1889954   -6.9989642    12.126978  0.025264538  0.035837245            1 
   41000    1.2075663   -7.0421696    12.525938  0.025459222  0.035782461            2 
   42000    1.2109821    -7.025647    12.957085  0.025708501  0.035731459            2 
   43000    1.2208869    -6.987162    13.305273  0.025785413  0.035655641            6 
   44000    1.2211784   -6.9777121    13.799052  0.026134567  0.035583336            2 
   45000    1.1779224    -6.993943    14.236516  0.026363918  0.035528484            2 
   46000    1.2099857   -7.0038099    14.571938  0.026398438  0.035486626            3 
   47000    1.1871672   -6.9716072    15.039683  0.026666104  0.035424023            2 
   48000    1.1987405    -6.982398    15.379802  0.026701045  0.035366818            1 
   49000    1.2065877   -7.0354121    15.728211  0.026748659  0.035294846            1 
   50000    1.1965336   -7.0498121    16.118305  0.026863841  0.035231024            1 
   51000    1.2088122   -7.0559191     16.50034  0.026961339  0.035166515            1 
   52000    1.1795381   -7.0004173    17.000189  0.027243892  0.035107842            1 
   53000    1.1927292   -7.0626692    17.304498  0.027208329  0.035044949            2 
   54000    1.1759849   -7.0750955     17.85009  0.027546434  0.035010039            2 
   55000    1.1678224   -7.0291176    18.367114  0.027828961  0.034997373            1 
   56000    1.2007541   -7.0376595    18.769781  0.027931222  0.034995939            3 
   57000    1.2300378   -7.0938519    18.990696  0.027764176  0.034966424            2 
   58000    1.1877653   -7.0730263    19.512096  0.028034621  0.034929083            2 
   59000    1.1582956    -7.079949    19.940793  0.028164962  0.034900138            3 
   60000    1.1653245   -7.0252941    20.287598   0.02817722  0.034877013            2 
   61000    1.1732926   -7.0717233    20.649059  0.028209096  0.034842563            2 
   62000    1.1823244   -7.0652322    20.986942  0.028208256   0.03479391            2 
   63000    1.1541094   -7.0385678    21.429031  0.028345278  0.034749678            4 
   64000     1.164009   -7.1111277    21.773108  0.028350401  0.034701747            1 
   65000    1.1611344   -7.0853669    22.243427  0.028517213  0.034665665            4 
   66000    1.1507148   -7.0891286    22.839407  0.028837635  0.034657694            2 
   67000    1.1674431    -7.031916    23.413122  0.029120798  0.034658953            3 
   68000    1.1623607   -7.0918945     23.72707  0.029077292  0.034672637            3 
   69000    1.1602075   -7.0904035    24.153135  0.029170453  0.034680684            2 
   70000    1.1514834   -7.1209958    24.444273  0.029100325  0.034685021            4 
   71000    1.1596963   -7.1315351    24.709827  0.029002145  0.034668503            3 
   72000    1.1364012   -7.1053653    25.123709  0.029078366  0.034641158            3 
   73000    1.1406559   -7.1083222     25.47674  0.029083036  0.034610385            1 
   74000    1.1715479   -7.1408616    25.891227  0.029156787  0.034587184            1 
   75000    1.1179919   -7.1306876    26.356754  0.029285282   0.03456069            1 
   76000    1.1470371   -7.1124746    26.685562  0.029260484  0.034526983            4 
   77000    1.1284128    -7.124747     26.77482  0.028977078  0.034479611            4 
   78000    1.1450381   -7.1433974    27.004343  0.028850794  0.034408864            2 
   79000    1.1617093   -7.1083722    27.326875  0.028825817  0.034331143            1 
   80000    1.1274534   -7.1282997      27.5357  0.028683021   0.03423871            2 
   81000    1.1329072   -7.0964734    27.702256  0.028500264  0.034131795            1 
   82000    1.1617941   -7.1358952    28.029203  0.028484963  0.034019523            1 
   83000    1.1369681   -7.1698214    28.362404  0.028476309  0.033908728            2 
   84000    1.1206629    -7.144728     28.72236  0.028494405  0.033804245            2 
   85000    1.1275616   -7.1515439    29.257807  0.028684124  0.033718862            1 
   86000    1.1167591   -7.1552643    29.776384  0.028853085  0.033639018            3 
   87000    1.1602214   -7.1741683    30.066355   0.02879919  0.033568196            1 
   88000    1.1360372   -7.1726534    30.318113  0.028710334  0.033487212            1 
   89000     1.124487   -7.1749274    30.463418    0.0285238  0.033398429            1 
   90000    1.1119992   -7.2167797    30.782817  0.028502608  0.033302788            3 
   91000    1.1247037   -7.1696328    31.085877   0.02846692    0.0332031            1 
   92000    1.0948674   -7.1449309    31.376449  0.028420696   0.03310734            2 
   93000    1.1080449   -7.1844304    31.582981  0.028300162  0.033008358            2 
   94000    1.1232051   -7.1907974    31.978011    0.0283493  0.032909025            1 
   95000    1.1230506    -7.186583    32.367166  0.028392251   0.03281783            2 
   96000    1.1167638    -7.174832    32.918788  0.028575337  0.032735657            3 
   97000    1.1413477   -7.1708469    33.101978  0.028438125  0.032658178            1 
   98000    1.1387284   -7.1922317    33.330169   0.02834198  0.032574225            1 
   99000    1.1167473   -7.2367032     33.60792  0.028289494  0.032484034            1 
  100000    1.1248214   -7.1977918     34.09254   0.02841045  0.032401584            1 
  101000    1.0792481   -7.2056681    34.527696  0.028488198  0.032328607            2 
  102000    1.1250585   -7.2242672    34.867184  0.028486262  0.032256455            2 
  103000    1.1078414   -7.1800747    35.324931  0.028580041  0.032192812            2 
  104000    1.1055988   -7.2432392    35.555469  0.028489959  0.032128578            1 
  105000    1.0990423   -7.2103774    35.928801  0.028514922  0.032064188            1 
  106000    1.1047012   -7.2336092    36.385036  0.028604588  0.032005593            1 
  107000    1.0937285    -7.264139    36.583378  0.028491727  0.031952892            1 
  108000    1.1240356    -7.242245    37.174669  0.028684158  0.031900702            1 
  109000    1.1096703   -7.2168075    37.547982  0.028706408  0.031852912            1 
  110000    1.1112797   -7.2395955    37.789976  0.028628769   0.03180838            3 
  111000    1.0953421   -7.2017734    38.373817  0.028809172  0.031767704            2 
  112000    1.1181733   -7.2577797     38.47032   0.02862375   0.03172351            3 
  113000    1.0941023   -7.2644105    38.730467  0.028562291  0.031675975            1 
  114000    1.0802917   -7.2918081    38.956665  0.028477094  0.031627145            2 
  115000    1.0943877   -7.2220423    39.311586  0.028486656  0.031579221            1 
  116000    1.0768065   -7.2605464    40.036739  0.028762025  0.031534326            1 
  117000    1.0838332   -7.2689916    40.180726   0.02861875  0.031492069            2 
  118000    1.0731774   -7.2754898    40.496475  0.028599205  0.031452523            2 
  119000    1.0878499    -7.252897    40.971935  0.028691831  0.031412887            2 
  120000    1.0816681   -7.3190086    41.205081   0.02861464  0.031376763            1 
  121000    1.0510455   -7.2739458    41.429573  0.028532763  0.031340495            3 
  122000    1.0744161   -7.3075975    41.705774   0.02848755  0.031298889            1 
  123000    1.0826882   -7.3203898    41.903021   0.02838958  0.031251251            2 
  124000    1.0552734    -7.308753    42.211226  0.028367759  0.031200938            2 
  125000     1.071183   -7.2970688    42.515093  0.028343395  0.031150647            1 
  126000    1.0642067   -7.2850159    42.847333  0.028338183  0.031102518            2 
  127000    1.0684956    -7.273442    43.060548  0.028254953  0.031053226            2 
  128000    1.0713606   -7.3181427     43.33865  0.028215267  0.031002177            1 
  129000    1.0822245   -7.3222178    43.652566  0.028199332  0.030948468            1 
  130000    1.0544239   -7.3380862    43.699153  0.028012278  0.030890967            2 
  131000    1.0378614   -7.3273249    43.933136  0.027947287  0.030830547            2 
  132000    1.0363029   -7.3685229    44.348087  0.027997529  0.030769047            1 
  133000    1.0633984    -7.274916    44.653579  0.027978433  0.030708909            1 
  134000    1.0395646   -7.3437521    44.759306  0.027835389  0.030650224            2 
  135000    1.0529657   -7.3386463     44.97983  0.027765327  0.030586485            2 
  136000    1.0389809   -7.2854193    45.365196  0.027797301  0.030524667            2 
  137000    1.0505053   -7.3292299    45.753522  0.027830609  0.030463433            3 
  138000    1.0510151   -7.3229349    45.909553   0.02772316  0.030402309            3 
  139000    1.0565591   -7.3110991    46.499593  0.027877454  0.030342052            1 
  140000    1.0372397   -7.3739713     46.36509  0.027598268  0.030283429            3 
  141000    1.0320525   -7.3396675    46.793588  0.027655785  0.030219498            2 
  142000    1.0412294    -7.363628    47.110321  0.027646902  0.030156949            2 
  143000    1.0410605   -7.4085626    47.143338  0.027472808  0.030095032            2 
  144000    1.0181719   -7.3263502    47.427328   0.02744637  0.030031498            1 
  145000    1.0520233   -7.3881217    47.641492  0.027380168   0.02996711            2 
  146000    1.0492476   -7.3383812    48.008996  0.027402395  0.029902868            1 
  147000    1.0173167   -7.3551322    47.988426  0.027204323  0.029836429            1 
  148000    1.0364889   -7.3675117    48.337483  0.027217051  0.029768953            2 
  149000     1.033905   -7.4078203    48.420489   0.02708081  0.029701242            2 
  150000     1.018233   -7.4061872    48.720106  0.027066726  0.029633448            1 
  151000    1.0395182   -7.3761583    49.068231  0.027079598  0.029564741            1 
  152000    1.0553108   -7.4064736    49.111789  0.026925323  0.029494918            2 
  153000    1.0483137   -7.4043372    49.602708  0.027016725  0.029425381            1 
  154000    1.0039226   -7.4209184    49.835932  0.026967495  0.029358025            1 
  155000     1.045364   -7.3693305    49.947663  0.026853582  0.029290616            1 
  156000    1.0346231   -7.3654903    50.407676  0.026927177     0.029223            3 
  157000    1.0191491   -7.4050837     50.47764  0.026792803  0.029157154            1 
  158000    1.0162815    -7.443835    50.688015  0.026734185  0.029091029            2 
  159000    1.0134013   -7.3943344    51.013766  0.026736774  0.029025743            2 
  160000   0.98551936   -7.4029028     51.52883  0.026837932  0.028963201            2 
  161000    1.0462857   -7.4547671    51.557084  0.026685861  0.028899222            1 
  162000   0.97779445   -7.4196991    51.896594  0.026695779  0.028837162            2 
  163000    1.0288534   -7.4337414    52.139693  0.026656284  0.028776141            2 
  164000   0.99889891   -7.4473194    52.331235  0.026591074  0.028713906            1 
  165000    1.0036549   -7.4062863    52.786259  0.026659727  0.028653506            1 
  166000    1.0106396   -7.4160961    53.114356  0.026663833  0.028593379            2 
  167000   0.99662875   -7.4761973    53.033836   0.02646399  0.028531072            2 
  168000      1.01242   -7.4739664    53.243431  0.026410432  0.028467054            1 
  169000   0.99677129   -7.4656665    53.466722  0.026364261   0.02840528            1 
  170000    1.0035854   -7.4675563    53.880101  0.026411814  0.028345084            2 
  171000   0.99379766   -7.4645999    54.045822   0.02633812  0.028285322            2 
  172000   0.98721019   -7.4581753    54.273495  0.026295298  0.028225154            2 
  173000   0.97281625   -7.4862705    54.330393  0.026170709  0.028163668            3 
  174000   0.97418626   -7.4691908    54.603163   0.02615094  0.028098689            2 
  175000   0.98201936   -7.4746353    54.529147  0.025966261  0.028032663            3 
  176000   0.99925946   -7.5128584    54.705744  0.025902341  0.027965056            1 
  177000   0.98548633   -7.5110531     54.93526  0.025864058  0.027900825            2 
  178000   0.99788712   -7.4917696    55.184671   0.02583552  0.027835839            1 
  179000    1.0123572   -7.4733521    55.592705  0.025881147  0.027771087            2 
  180000   0.97352932   -7.5149072    55.690425  0.025782604  0.027707673            2 
  181000   0.98438294   -7.5116529    55.850309   0.02571377  0.027642356            2 
  182000   0.95085492   -7.4651817    56.113854  0.025693157  0.027575814            1 
  183000   0.97153013   -7.5132036    56.298584  0.025636878  0.027510524            3 
  184000   0.96904673   -7.5067275    56.382236  0.025535433  0.027445096            2 
  185000    0.9879568   -7.4870778    56.702038  0.025541458  0.027378959            2 
  186000   0.96185448   -7.5273141    56.695633  0.025401269  0.027313167            1 
  187000   0.96927195   -7.5641229    56.817748  0.025319852  0.027246898            4 
  188000   0.97102501   -7.5145622    57.107161  0.025313458  0.027179903            4 
  189000   0.96908602   -7.5171914    57.482369   0.02534496  0.027112289            2 
  190000   0.96907262   -7.5318495    57.596739  0.025261728  0.027044788            2 
  191000   0.95239752    -7.531636    57.566846  0.025116425  0.026976372            4 
  192000   0.94502332   -7.5654962     57.57041  0.024987157  0.026907355            4 
  193000   0.96072452   -7.5754152    57.715548  0.024920357  0.026836591            2 
  194000   0.93920354   -7.5620531     57.97812  0.024904691  0.026764937            1 
  195000   0.95643261   -7.5457204    57.934901  0.024758505   0.02669287            1 
  196000   0.94607155   -7.5471568    58.195521  0.024742993  0.026618937            3 
  197000   0.93925541   -7.5796966    58.143022  0.024595187   0.02654418            1 
  198000   0.94167246   -7.5652701    58.319739  0.024545345  0.026468751            2 
  199000   0.95122159   -7.5356043    58.629133  0.024551563  0.026393251            2 
  200000   0.94538477   -7.5496526    58.651739  0.024438225  0.026319455            1 
  201000   0.96333053   -7.6116017    58.790097  0.024374004   0.02624676            2 
  202000   0.95141428    -7.542311    59.169051  0.024409675  0.026173921            2 
  203000   0.94339077   -7.5612729    59.251899   0.02432344  0.026101571            1 
  204000   0.93974561    -7.628465    59.106867  0.024144962  0.026029016            2 
  205000   0.94931644   -7.6263142    59.413416  0.024151795  0.025956891            2 
  206000   0.93094459    -7.577531    59.815252  0.024197108  0.025886286            1 
  207000   0.92935888   -7.5641613    59.815997  0.024080514  0.025814301            1 
  208000   0.91849726     -7.57393    60.087179  0.024073389  0.025742498            2 
  209000   0.94074259   -7.6321976    60.209225  0.024006868  0.025672108            1 
  210000   0.95708785    -7.607673    60.502242  0.024008826   0.02560269            2 
  211000   0.93158243   -7.6213908    60.489267  0.023889916  0.025532118            2 
  212000   0.92468902   -7.6338109    60.540593  0.023797403  0.025460349            2 
  213000   0.93445134   -7.6340486    60.612202  0.023713694  0.025388088            2 
  214000   0.93012425   -7.5988696    60.820482  0.023683988   0.02531537            2 
  215000   0.93044963   -7.6525366    60.902212  0.023605508  0.025242023            2 
  216000   0.90723095   -7.6283107    61.037459  0.023548402  0.025168907            2 
  217000   0.91594219   -7.6375399    61.120626  0.023471822  0.025095906            2 
  218000   0.91683925   -7.6561576    61.130358  0.023367874  0.025022543            1 
  219000   0.91604441   -7.6361692    61.297591  0.023324806  0.024949198            2 
  220000   0.90362113    -7.644728    61.442103  0.023273524   0.02487672            2 
  221000   0.89278597   -7.6614474    61.577057  0.023219101  0.024803542            3 
  222000    0.9196659   -7.6512227    61.615634  0.023128992  0.024730964            1 
  223000   0.91279535   -7.6507727    61.724032  0.023065782  0.024658714            3 
  224000    0.9074132   -7.6488866    62.067438  0.023090565   0.02458654            2 
  225000   0.94822193   -7.6518353    62.144287  0.023016402  0.024515251            3 
  226000   0.90181495   -7.6679327    61.982968  0.022855077  0.024442552            3 
  227000   0.89417509    -7.679816    62.162384  0.022820258  0.024368938            3 
  228000    0.9151648   -7.6828969    62.269369  0.022759272  0.024297097            3 
  229000   0.90426846   -7.6716612    62.756945  0.022837316  0.024225012            2 
  230000   0.90428089   -7.7130796    62.553022  0.022664138  0.024153626            2 
  231000   0.91158646   -7.6907339     62.82093  0.022662673  0.024082291            1 
  232000   0.90920389   -7.6714742    63.033981  0.022641516  0.024011806            2 
  233000   0.88589968   -7.6826347    63.145463  0.022584214   0.02394237            2 
  234000   0.85480683   -7.7176191    63.213003  0.022511753  0.023872285            2 
  235000   0.90836512   -7.7117829    63.459084  0.022503221  0.023802178            1 
  236000    0.8957675    -7.709379    63.373762  0.022377741  0.023732494            3 
  237000   0.89988975   -7.6864939     63.44343  0.022307816   0.02366208            3 
  238000   0.90155472   -7.7503035    63.373393  0.022189563  0.023591238            3 
  239000   0.87733088   -7.7344767    63.521406  0.022148328  0.023519928            4 
  240000   0.88476411   -7.7322824    63.618046  0.022089599  0.023448568            1 
  241000   0.87645397   -7.7526644    63.904958   0.02209715  0.023377043            4 
  242000     0.882965   -7.7290985     64.00211  0.022039294  0.023306782            2 
  243000   0.89214371   -7.7660433    64.036201  0.021960288  0.023235861            2 
  244000   0.88604341   -7.7572601    64.074836  0.021883482  0.023165319            1 
  245000   0.88862665   -7.7666118    64.242177  0.021851081  0.023095176            4 
  246000   0.88174419   -7.7647521    64.245754  0.021763467  0.023025912            1 
  247000   0.87296574   -7.7905984    64.456761  0.021746545  0.022956591            2 
  248000   0.85687603   -7.7440453    64.747872  0.021756677  0.022887615            2 
  249000   0.86301245   -7.7731707    64.629008  0.021629521  0.022819935            2 
  250000    0.8849575   -7.7587092    64.988058  0.021662686  0.022752388            2 
  251000   0.85849287   -7.7350191    64.974106  0.021571748  0.022686194            1 
  252000   0.85390872   -7.7724939    64.999794  0.021494641  0.022619684            3 
  253000   0.86668942   -7.8053827    65.115583  0.021447821  0.022553398            1 
  254000   0.85434395   -7.7822708     65.26858  0.021413576  0.022487045            1 
  255000   0.86198564   -7.8012419    65.476667  0.021397604   0.02241988            2 
  256000   0.86195775   -7.8156529    65.229172  0.021233455  0.022352901            3 
  257000   0.86355418   -7.8391983    65.377602  0.021198963  0.022285826            2 
  258000   0.85568045   -7.7992355    65.542648  0.021170106  0.022219182            3 
  259000   0.86454716   -7.8217684     65.55276  0.021091622  0.022152382            1 
  260000   0.84896932   -7.7875632    65.612499  0.021029647  0.022085072            2 
  261000    0.8520873    -7.823067    65.752996  0.020993932  0.022018263            3 
  262000   0.85260228   -7.8010738    65.954177  0.020977792  0.021952031            2 
  263000   0.84701866   -7.8247878    65.970214   0.02090311  0.021885699            3 
  264000   0.86684749   -7.8307594    65.884014  0.020796722  0.021818864            3 
  265000   0.85015192   -7.8221598    66.055645  0.020772215  0.021752241            1 
  266000   0.85599667   -7.8319139    65.919731  0.020651545  0.021685258            5 
  267000   0.83977842   -7.8297984    66.273534  0.020684624  0.021619035            1 
  268000   0.85031243     -7.84236    66.254651  0.020601571  0.021553189            2 
  269000   0.84872737   -7.8682193     66.16362  0.020496784  0.021487208            2 
  270000   0.83163033   -7.8381221    66.247347  0.020446712    0.0214209            1 
  271000   0.84713304   -7.8834565     66.43933  0.020430298  0.021354495            1 
  272000   0.83044846   -7.8773686    66.425286  0.020350884  0.021288002            1 
  273000   0.83206556   -7.8805292    66.515273  0.020303807   0.02122176            2 
  274000   0.85991795   -7.8653022    66.556088  0.020242119  0.021155317            3 
  275000   0.85231892   -7.8582222    66.664554   0.02020138  0.021089412            1 
  276000   0.84523313   -7.9229785    66.485572  0.020074146  0.021023449            2 
  277000   0.81606775   -7.8891303    66.742372  0.020078933  0.020957353            2 
  278000   0.83767357   -7.9247985    66.695206  0.019992568  0.020891156            1 
  279000   0.81887428    -7.909346    66.801721  0.019952724  0.020824673            2 
  280000   0.82259914   -7.9140735    66.910665  0.019913888  0.020759553            1 
  281000   0.82660709   -7.9130226    66.872381  0.019831667  0.020694806            1 
  282000   0.80037118    -7.921927    66.916237  0.019774302  0.020629304            2 
  283000   0.79341049   -7.8950664     66.98957  0.019726022  0.020563843            4 
  284000   0.82259834   -7.9034768    67.097726    0.0196883  0.020498991            4 
  285000   0.81749633   -7.9517965     67.16519  0.019638944  0.020434138            1 
  286000   0.79605685   -7.9323323    67.248831  0.019594648  0.020369489            1 
  287000   0.82111114   -7.9332587    67.329587  0.019549822  0.020305172            1 
  288000   0.80160667   -7.9001649     67.58558  0.019556013  0.020241398            5 
  289000   0.79474063    -7.954779    67.512135  0.019467167  0.020177843            1 
  290000   0.81106617   -7.9714164    67.545281  0.019409563  0.020114443            1 
  291000   0.79705416   -7.9440677    67.561741  0.019347578  0.020051047            1 
  292000   0.78426394   -7.9121307    67.570794  0.019283902  0.019987962            2 
  293000   0.78639825   -7.9235728    67.640323  0.019237862  0.019924673            3 
  294000   0.79877724   -7.9406867    67.724485  0.019196282  0.019861438            4 
  295000   0.78659259   -7.9597226    67.698937  0.019123994  0.019798441            4 
  296000   0.80576483   -7.9601866    67.930798  0.019124661  0.019735748            4 
  297000    0.7958081   -7.9529878      68.0442  0.019092088  0.019673139            1 
  298000   0.78246502   -7.9731599    67.847623  0.018973049  0.019610659            4 
  299000   0.78889821   -7.9500504    67.808655  0.018898733   0.01954804            3 
  300000     0.795855   -7.9343223    67.979421  0.018883172  0.019485966            5 
  301000   0.78620191   -7.9464432    68.170373  0.018873304  0.019424232            1 
  302000   0.78116555   -7.9841959    68.030858  0.018772312  0.019362385            1 
  303000   0.78668911   -7.9680786    68.017552  0.018706697  0.019300716            1 
  304000   0.77586985   -7.9945975    68.125433  0.018674735  0.019238703            1 
  305000    0.7815546    -7.975126    68.257459  0.018649579  0.019176481            3 
  306000   0.78476819   -7.9883665    67.984535  0.018514307  0.019114257            2 
  307000    0.7750074   -7.9854283    68.063045  0.018475311  0.019052219            3 
  308000   0.78280074   -7.9993351    68.134864  0.018434757  0.018990282            2 
  309000   0.76299167   -7.9853825    68.170051  0.018384588  0.018928908            2 
  310000   0.77721494   -8.0199534    68.322922  0.018366377  0.018868011            2 
  311000   0.76884167   -8.0359471    68.245232  0.018286504  0.018806839            4 
  312000   0.76631025    -8.018676      68.2022    0.0182164  0.018745867            3 
  313000   0.78459347   -8.0204728    68.434051  0.018219928  0.018684915            1 
  314000   0.77292862   -8.0399083     68.45663  0.018167895  0.018624661            2 
  315000   0.74061506    -8.035965     68.30976  0.018071365  0.018564237            4 
  316000   0.77298372   -8.0587066     68.27954  0.018006208  0.018503243            3 
  317000   0.74735133    -8.041233    68.512879  0.018010746  0.018442705            2 
  318000   0.77397461     -8.05452     68.59137  0.017974678  0.018382726            2 
  319000   0.75127116   -8.0417941    68.713301  0.017950183  0.018322956            2 
  320000   0.77504466     -8.05756    68.542056  0.017849494  0.018262898            2 
  321000   0.76116901   -8.0644002    68.600578   0.01780908  0.018202983            2 
  322000   0.76030076   -8.0224477    68.723299  0.017785533  0.018143365            3 
  323000   0.75348282   -8.0253471    68.792092  0.017748218  0.018084543            3 
  324000   0.75213313   -8.0779638    68.767849  0.017687204  0.018025848            4 
  325000   0.76006252   -8.0864424    68.655548  0.017603987  0.017967095            2 
  326000   0.73740665   -8.0836379    68.770923  0.017579479  0.017907992            2 
  327000   0.74386897    -8.101204    68.714198  0.017511263   0.01784894            3 
  328000   0.75024822   -8.1081722    68.884347  0.017501104  0.017790212            2 
  329000   0.73650019   -8.0634056    68.934999  0.017460739  0.017731807            1 
  330000   0.73761244   -8.0852354    68.884627  0.017395108  0.017673677            2 
  331000   0.74600911   -8.0870073    68.793677  0.017319657  0.017615766            2 
  332000   0.73873259   -8.0928429    68.845358  0.017280461    0.0175578            3 
  333000   0.72901929   -8.0592238    68.916174   0.01724629  0.017500127            2 
  334000    0.7445965   -8.1089808    68.899832  0.017190577  0.017442511            2 
  335000   0.73074003   -8.1102782    69.077934  0.017183566  0.017384973            2 
  336000   0.72442273   -8.1225927    69.070596  0.017130604  0.017327901            1 
  337000   0.73893983   -8.1066025    69.049165  0.017074472  0.017271216            3 
  338000   0.72278546   -8.1250579    68.993186  0.017010154  0.017214603            1 
  339000   0.73140712   -8.1270623    69.096675  0.016985417  0.017158099            3 
  340000    0.7451275   -8.1325031    69.086769  0.016933032    0.0171014            3 
  341000    0.7235103   -8.1337956    69.012306  0.016865177  0.017044596            2 
  342000   0.70657155   -8.1390425     69.09951  0.016837112  0.016987913            1 
  343000   0.73025461   -8.1596645    69.063857  0.016779363  0.016931584            1 
  344000   0.71657193   -8.1544401    69.079373  0.016734344  0.016875389            2 
  345000   0.71964112   -8.1608974    69.183585  0.016711011  0.016819485            2 
  346000   0.73214512    -8.160344    69.132165  0.016650329  0.016764139            1 
  347000   0.71655009   -8.1557041    69.124931  0.016600608  0.016708691            3 
  348000   0.71358473   -8.1716226    69.171393  0.016564031  0.016653373            1 
  349000    0.7178131   -8.1861742    69.066683  0.016491567  0.016598004            2 
  350000   0.70423277   -8.1597727    69.111396  0.016455094  0.016542716            1 
  351000   0.70925781   -8.1940018    69.096071  0.016404575  0.016487788            2 
  352000   0.71807293   -8.2087944    69.090905  0.016356748  0.016432636            1 
  353000   0.70734383   -8.2048113    69.179557   0.01633134  0.016377926            2 
  354000   0.69112561   -8.2103503    69.092998   0.01626483   0.01632332            3 
  355000   0.70245432   -8.2127145    69.200067  0.016244147  0.016268786            3 
  356000   0.69641846   -8.1999491    69.019869  0.016156336  0.016214203            5 
  357000   0.68769906   -8.2012461    69.142706  0.016139754  0.016159966            4 
  358000   0.69734135   -8.2178969    69.207682  0.016109796  0.016105937            3 
  359000    0.6884515   -8.2063098    69.177472  0.016057909  0.016052188            5 
  360000   0.69071661   -8.2100342    69.310489  0.016044095  0.015998566            1 
  361000   0.69307233   -8.2362566    69.327579  0.016003596  0.015945216            2 
  362000   0.69709691   -8.2434878    69.345207  0.015963445  0.015891997            3 
  363000   0.70077219   -8.2420733    69.157031   0.01587627  0.015838885            2 
  364000   0.68546993   -8.2437208    69.083992  0.015815932  0.015785899            2 
  365000   0.67399698   -8.2433243    69.086166  0.015773097  0.015732847            2 
  366000   0.68359128    -8.257595    69.245326   0.01576624  0.015680094            3 
  367000   0.67278073   -8.2538832      69.1151   0.01569371    0.0156275            5 
  368000    0.6817991   -8.2889294    69.079293  0.015642956  0.015574842            3 
  369000   0.66606067   -8.2568103    68.939555  0.015569005  0.015522124            4 
  370000   0.67935435   -8.2701074    69.126916  0.015569125  0.015469624            2 
  371000   0.66817822    -8.267152    69.231935  0.015550749  0.015417513            3 
  372000   0.66348402   -8.2794186    69.216752  0.015505545  0.015365509            2 
  373000   0.68388578    -8.267367    69.274871   0.01547696  0.015313867            1 
  374000   0.67434483    -8.298464     69.13278  0.015403917  0.015262222            2 
  375000   0.65587685   -8.2876786    69.181323  0.015373627  0.015210641            2 
  376000   0.67095844   -8.2785188    69.120291  0.015319213  0.015159161            2 
  377000   0.66539321   -8.3000308    69.073121  0.015268152  0.015107791            1 
  378000   0.66986622   -8.2722017    69.096986  0.015233022  0.015056539            2 
  379000   0.65823149   -8.2938917    69.259633  0.015228591  0.015005534            2 
  380000   0.65980154   -8.2938538    69.177304  0.015170461  0.014954691            1 
  381000   0.66193375    -8.317551    69.222182   0.01514046  0.014904018            9 
  382000   0.64619703   -8.3105159    69.310513  0.015120095  0.014853556            3 
  383000   0.66510414    -8.326013    69.184532  0.015053205   0.01480318            2 
  384000   0.63985618   -8.3053829    69.229331  0.015023726  0.014753011            1 
  385000   0.65226692    -8.317456    69.185272  0.014975167  0.014703166            2 
  386000    0.6694285   -8.3285134     69.12461  0.014923275  0.014653438            2 
  387000   0.65346134   -8.3072687      69.3879  0.014941408   0.01460403            3 
  388000   0.64113643   -8.3398075    69.142948  0.014850289  0.014554673            2 
  389000   0.65044512   -8.3195068    69.111047   0.01480528  0.014505234            5 
  390000   0.65463881   -8.3239159    69.178001  0.014781624  0.014456169            7 
  391000   0.64383153   -8.3479479    69.125977  0.014732732  0.014407089            3 
  392000   0.62940746   -8.3288097     69.29061  0.014730147  0.014358188            3 
  393000   0.62002846     -8.33884    69.225479  0.014678855   0.01430953            2 
  394000   0.63767816   -8.3280683    69.238566  0.014644367  0.014261059            3 
  395000   0.64230223   -8.3757358    69.221224  0.014603634  0.014212701            2 
  396000    0.6357356   -8.3507903    69.069324   0.01453479  0.014164352            5 
  397000   0.62775585   -8.3320455    69.286469  0.014543759  0.014116454            2 
  398000   0.62785757   -8.3606412    69.167045  0.014482212  0.014068519            2 
  399000   0.64074197   -8.3826158    69.070721  0.014425798  0.014020879            2 
  400000   0.63655042   -8.3810026    69.043635  0.014384091  0.013973045            5 
  401000   0.63725215   -8.3706155    68.910667  0.014320587  0.013925426            3 
  402000   0.63741354   -8.3796728    68.995669  0.014302585  0.013877988            2 
  403000   0.63236449   -8.3703327    69.043582  0.014277002  0.013830626            2 
  404000   0.61837626   -8.3940723    69.020989  0.014237003  0.013783484            4 
  405000   0.63128424   -8.3855479    69.004468   0.01419845  0.013736494            2 
  406000   0.60513132   -8.4010601    68.984209   0.01415932  0.013689525            1 
  407000   0.62751941   -8.3805777     68.91784  0.014110942  0.013642849            1 
  408000   0.61209259   -8.3797883    68.989563  0.014091006  0.013596391            2 
  409000   0.61844228     -8.37354    68.959927  0.014050515  0.013549985            2 
  410000    0.6082382   -8.3915386    69.061068  0.014036802  0.013503711            3 
  411000   0.62056551    -8.407396    68.940121  0.013978127  0.013457412            2 
  412000   0.60799662   -8.3975316    69.072906  0.013971057  0.013411368            5 
  413000   0.60388802   -8.4133447    68.832886  0.013888799  0.013365531            3 
  414000   0.59938988   -8.4242805    68.942294  0.013877273  0.013319838            1 
  415000   0.60657023   -8.4028971    68.901124  0.013835567  0.013274337            4 
  416000   0.61929717   -8.4204362    68.972748  0.013816656   0.01322894            2 
  417000   0.60043316   -8.4095871    68.978077  0.013784588  0.013183804            4 
  418000   0.60541514   -8.4278279    68.933402  0.013742704  0.013138754            2 
  419000   0.59601614   -8.3984949    68.978799  0.013718934  0.013094084            3 
  420000   0.58168855   -8.4340881    68.892693  0.013669185  0.013049465            3 
  421000   0.58913362   -8.4331409    68.907249  0.013639598  0.013005008            2 
  422000   0.58806335    -8.441392    68.766839   0.01357955  0.012960712            2 
  423000    0.6038701   -8.4338964    68.851406  0.013564107  0.012916656            2 
  424000   0.59552075   -8.4473807    68.854885    0.0135328  0.012872696            3 
  425000   0.57775835   -8.4292391     68.82338   0.01349478  0.012828979            2 
  426000   0.58370559   -8.4534704    68.952775  0.013488415  0.012785304            4 
  427000   0.58635454   -8.4685733    68.931504  0.013452675   0.01274188            4 
  428000   0.58663251   -8.4424731    68.749731  0.013385851  0.012698591            1 
  429000   0.58991863   -8.4473709    68.861646  0.013376388  0.012655437            3 
  430000    0.5684671   -8.4547876    68.892417  0.013351244  0.012612501            4 
  431000   0.58186814   -8.4465117    68.883868  0.013318613  0.012569664            3 
  432000   0.56932774   -8.4696472    68.749864  0.013261934  0.012527015            2 
  433000   0.57675225   -8.4645847    68.754281  0.013232156  0.012484506            1 
  434000    0.5792032   -8.4805832    68.811841  0.013212719  0.012442086            1 
  435000   0.57091959   -8.4771842    68.672202  0.013155594  0.012399833            1 
  436000   0.56588685   -8.4788994    68.934154  0.013175488  0.012357673            2 
  437000   0.56100253   -8.4952979    68.569578  0.013075816  0.012315717            2 
  438000   0.56668669   -8.4765626    68.720289  0.013074636  0.012273876            2 
  439000   0.56489309   -8.5055839    68.781709  0.013056513  0.012232227            2 
  440000    0.5640407   -8.5028332    68.681616  0.013007882  0.012190645            2 
  441000   0.55803668    -8.501443     68.61393  0.012965595   0.01214916            1 
  442000   0.54647698   -8.4773393    68.626729  0.012938674  0.012107997            6 
  443000   0.54778906    -8.486135    68.516311  0.012888697  0.012066979            2 
  444000   0.55020913   -8.4966547    68.696348  0.012893459  0.012026115            3 
  445000   0.55066096   -8.5088395    68.730806  0.012870937  0.011985415            1 
  446000   0.55914948    -8.508571    68.731158  0.012842145  0.011944936            2 
  447000   0.55533475   -8.5083947    68.610587  0.012790937  0.011904561            1 
  448000   0.57281806   -8.5241084    68.582735  0.012757205  0.011864366            1 
  449000   0.56406761   -8.5129129    68.574713  0.012727304  0.011824263            2 
  450000   0.55570923   -8.5171418    68.660004  0.012714816  0.011784281            3 
  451000   0.54741476   -8.5274564    68.685038  0.012691249  0.011744444            2 
  452000   0.53570546   -8.5267517    68.554568  0.012639116   0.01170484            1 
  453000   0.54976859   -8.5433964    68.510757  0.012603156  0.011665344            1 
  454000   0.54282541   -8.5383055    68.487964  0.012571212  0.011626022            3 
  455000   0.54255533   -8.5244692    68.549873  0.012554922  0.011586902            1 
  456000   0.55260072   -8.5311226    68.455007  0.012510052  0.011547929            1 
  457000      0.54389   -8.5512502    68.510605  0.012492816  0.011509057            4 
  458000    0.5515363   -8.5392487    68.385894  0.012442848  0.011470282            2 
  459000   0.53005808   -8.5289664    68.513487  0.012438905  0.011431629            1 
  460000   0.53496291   -8.5643807    68.522252  0.012413451  0.011393202            2 
  461000   0.53244489    -8.545624     68.51192  0.012384656  0.011354887            2 
  462000   0.53269836   -8.5373981    68.402729  0.012338155  0.011316648            2 
  463000   0.53302737   -8.5533136    68.339164  0.012300066  0.011278486            1 
  464000   0.52957391   -8.5742573    68.417345  0.012287598  0.011240485            3 
  465000   0.53348925     -8.57041    68.301771  0.012240461   0.01120277            3 
  466000   0.51755588   -8.5710185     68.52869  0.012254773  0.011165178            3 
  467000   0.52728378   -8.5694441    68.410183  0.012207385  0.011127763            2 
  468000   0.50935247   -8.5814351     68.31558  0.012164455   0.01109043            1 
  469000   0.53198423   -8.5672911    68.460883  0.012164336  0.011053226            1 
  470000   0.51832471   -8.5833661     68.33905  0.012116853  0.011016128            2 
  471000   0.51504008   -8.5734776    68.321335  0.012087993  0.010979217            2 
  472000    0.5191598   -8.5960922    68.369747   0.01207093  0.010942385            3 
  473000   0.51232953   -8.6007798    68.261925  0.012026414  0.010905708            2 
  474000   0.50938981   -8.5869191    68.353556  0.012017151  0.010869171            1 
  475000   0.51104443   -8.5828133    68.324537  0.011986761  0.010832845            2 
  476000   0.51280333   -8.5917712    68.313595  0.011959663  0.010796615            3 
  477000   0.51376531    -8.602665    68.317991  0.011935358  0.010760604            3 
  478000   0.50324472   -8.6122423    68.172472   0.01188502   0.01072476            1 
  479000   0.51228541   -8.5990549     68.33171  0.011887911  0.010689017            2 
  480000   0.50333291   -8.6177933    68.290175  0.011855933  0.010653389            2 
  481000   0.50695274   -8.5966918    68.182559   0.01181264  0.010617911            2 
  482000    0.4933672   -8.5996529    68.219658  0.011794547  0.010582535            2 
  483000   0.49561969   -8.6182689    68.326639  0.011788585  0.010547316            1 
  484000   0.49287202   -8.6161142    68.354394  0.011769007  0.010512276            3 
  485000     0.495562   -8.6090237    68.204804  0.011719038  0.010477395            4 
  486000   0.48904683   -8.6153509    68.245913  0.011701974   0.01044262            3 
  487000   0.49331368   -8.6187341    68.256832  0.011679814  0.010407951            1 
  488000   0.48731352   -8.6139885    68.249275  0.011654589  0.010373491            2 
  489000   0.48040179   -8.6278983    68.212817  0.011624543  0.010339196            3 
  490000   0.47270806   -8.6231628    68.235494  0.011604676  0.010305043            4 
  491000   0.48764875   -8.6231462    68.161876  0.011568547  0.010271099            5 
  492000   0.48282586   -8.6368895    68.229519   0.01155649  0.010237251            2 
  493000   0.47748667   -8.6450162    68.254409  0.011537256  0.010203576            2 
  494000   0.48139752   -8.6458835    68.092205  0.011486539  0.010169994            5 
  495000   0.46721049   -8.6433353    68.237812  0.011487847   0.01013658            2 
  496000   0.48589574    -8.651381    68.181088  0.011455156    0.0101033            1 
  497000   0.47954615   -8.6469408    68.099569  0.011418439  0.010070169            5 
  498000   0.47264773   -8.6366994    68.248176  0.011420378  0.010037173            1 
  499000   0.46457104   -8.6418243     68.23338   0.01139502  0.010004316            1 
  500000   0.47187901   -8.6798962    68.118502  0.011353084 0.0099715726            3 
  501000   0.46395231   -8.6563973    68.162391  0.011337723 0.0099389482            1 
  502000      0.47327   -8.6248819    68.087898  0.011302772 0.0099064504            2 
  503000   0.45821383    -8.658467    68.189124  0.011297072 0.0098741412            2 
  504000   0.45726117   -8.6598625    68.150918   0.01126834 0.0098419286            3 
  505000   0.46989747   -8.6685323    68.025173  0.011225276 0.0098098653            3 
  506000    0.4587019   -8.6534627    68.138272  0.011221718 0.0097779315            1 
  507000   0.45421404   -8.6609254    68.144189  0.011200557 0.0097461633            2 
  508000   0.45788757   -8.6728015    68.063992  0.011165353 0.0097144969            4 
  509000    0.4526213   -8.6746069      68.0223  0.011136591 0.0096829201            4 
  510000   0.45182665   -8.6855033    68.032744  0.011116462 0.0096514729            1 
  511000   0.44952361   -8.6718126    68.127514  0.011110162 0.0096201688            3 
  512000   0.45589207    -8.677507    67.893782   0.01105042 0.0095890099            5 
Loop time of 1201.27 on 48 procs for 500000 steps with 4000 atoms

Performance: 71923.633 tau/day, 416.225 timesteps/s
99.4% CPU use with 48 MPI tasks x no OpenMP threads

MPI task timing breakdown:
Section |  min time  |  avg time  |  max time  |%varavg| %total
---------------------------------------------------------------
Pair    | 73.262     | 79.913     | 85.889     |  31.5 |  6.65
Neigh   | 7.7774     | 8.2054     | 8.5692     |   6.8 |  0.68
Comm    | 76.045     | 81.528     | 89.093     |  36.2 |  6.79
Output  | 0.85864    | 0.85917    | 0.86862    |   0.1 |  0.07
Modify  | 1015.6     | 1019.4     | 1023.3     |   5.4 | 84.86
Other   |            | 11.41      |            |       |  0.95

Nlocal:        83.3333 ave          89 max          76 min
Histogram: 4 1 2 8 4 4 12 4 2 7
Nghost:        2073.12 ave        2108 max        2056 min
Histogram: 7 8 9 10 5 4 2 1 1 1
Neighs:        13486.6 ave       14773 max       12205 min
Histogram: 4 2 4 10 4 5 7 7 0 5
FullNghs:      26973.2 ave       29265 max       24316 min
Histogram: 3 2 5 3 8 7 8 4 4 4

Total # of neighbors = 1294715
Ave neighs/atom = 323.67875
Neighbor list builds = 26760
Dangerous builds = 0

#clear
#
#next RN
#
#jump SELF
Total wall time: 0:20:04
