
units lj                  # Use reduced LJ style units
atom_style atomic         # Uncharged point particles
atom_modify map hash      # Needed for indexing of clusters etc
                          # Used to be able to find where atoms are in relation to each other.

lattice fcc 1.0 spacing 1 1 1
Lattice spacing in x,y,z = 1.5874011 1.5874011 1.5874011
region box block 0 10 0 10 0 10 units lattice
create_box 2 box
Created orthogonal box = (0.0000000 0.0000000 0.0000000) to (15.874011 15.874011 15.874011)
  3 by 4 by 4 MPI processor grid
create_atoms 1 box
Created 4000 atoms
  using lattice units in orthogonal box = (0.0000000 0.0000000 0.0000000) to (15.874011 15.874011 15.874011)
  create_atoms CPU = 0.024 seconds
set type 1 type/fraction 2 0.77 78393
Setting atom values ...
  3073 settings made for type/fraction
mass 1 1.0
mass 2 1.0
pair_style lj/cut  3.5
pair_modify tail  yes
pair_coeff 1  1  1.0  1.0   # Intearaction between 1 and 1 set with epsilon = 1 and sigma = 1
pair_coeff 1  2  1.5  0.8
pair_coeff 2  2  0.5  0.88

write_data data.0
System init for write_data ...
Neighbor list info ...
  update every 1 steps, delay 10 steps, check yes
  max neighbors/atom: 2000, page size: 100000
  master list distance cutoff = 3.8
  ghost atom cutoff = 3.8
  binsize = 1.9, bins = 9 9 9
  1 neighbor lists, perpetual/occasional/extra = 1 0 0
  (1) pair lj/cut, perpetual
      attributes: half, newton on
      pair build: half/bin/atomonly/newton
      stencil: half/bin/3d
      bin: standard
WARNING: Not all mixed pair coeffs generated from mixing. Use write_data with 'pair ij' option to store all pair coeffs. (../write_data.cpp:312)


#############################
#   M E L T   S Y S T E M   #
#############################

velocity all create 2.4 9622624 mom yes dist gaussian # Assign velocities
                                                    # Temperature 2.4, random number seed, zero linear momentum
                                                                                # Gaussian distribution

timestep 0.002   # simulation timestep
thermo 1000       # output thermodynamic data every 1000 steps bf 100

# Define a fix  in this case with index 1 applied to all
# particles in the simulation. This fix is for simulations
# in the anisotropic NPT ensemble. Note that we use the MTK
# correction.
fix 1 all npt temp 2.4 2.4 0.1 iso 5.68 5.68 0.5 mtk yes tchain 5 pchain 5 # Use NPT ensemble
                                                                         # Set temperature and pressure and damping
                                                                         # Numbers of thermostats in chain and in barostat
run 10000          # run for 10000 steps
Per MPI rank memory allocation (min/avg/max) = 3.642 | 3.644 | 3.648 Mbytes
Step Temp E_pair E_mol TotEng Press Volume 
       0          2.4   -3.8453673            0  -0.24626728   -3.4249601         4000 
    1000     2.399401   -3.3007268            0   0.29747486    5.5882906    3750.2553 
    2000    2.3711209   -3.2514809            0   0.30431139    5.4677819    3792.2625 
    3000    2.3615578   -3.2706312            0   0.27081991    5.7635735    3736.0588 
    4000    2.4245326   -3.3308904            0   0.30499938    5.7508955    3712.4263 
    5000    2.4401046   -3.2689807            0   0.39026118    5.5295133    3783.8374 
    6000    2.4141815   -3.2576929            0   0.36267399    5.8661467     3752.995 
    7000    2.4239672   -3.3051869            0   0.32985495    5.5829232    3745.6725 
    8000    2.3897076   -3.3789788            0   0.20468654    5.3667925    3718.9859 
    9000    2.4107298   -3.3193538            0   0.29583682    5.5317688    3747.3282 
   10000     2.374622   -3.3110084            0   0.25003415    5.6889267     3731.619 
Loop time of 2.59563 on 48 procs for 10000 steps with 4000 atoms

Performance: 665734.269 tau/day, 3852.629 timesteps/s
99.6% CPU use with 48 MPI tasks x no OpenMP threads

MPI task timing breakdown:
Section |  min time  |  avg time  |  max time  |%varavg| %total
---------------------------------------------------------------
Pair    | 1.1695     | 1.2346     | 1.3022     |   2.7 | 47.57
Neigh   | 0.216      | 0.2245     | 0.23142    |   0.7 |  8.65
Comm    | 0.81833    | 0.87436    | 0.94582    |   3.4 | 33.69
Output  | 0.00024944 | 0.00025458 | 0.00032954 |   0.0 |  0.01
Modify  | 0.22518    | 0.24658    | 0.27343    |   2.5 |  9.50
Other   |            | 0.01529    |            |       |  0.59

Nlocal:        83.3333 ave          89 max          71 min
Histogram: 1 0 1 3 1 6 11 11 11 3
Nghost:        1718.73 ave        1743 max        1687 min
Histogram: 3 3 4 3 3 5 10 8 6 3
Neighs:        10237.7 ave       11059 max        8432 min
Histogram: 1 0 0 3 7 4 8 8 7 10

Total # of neighbors = 491408
Ave neighs/atom = 122.85200
Neighbor list builds = 914
Dangerous builds = 267

# Equilibrate just above the melting temperature to avoid step fn in T

fix 1 all npt temp 1.25 1.25 0.1 iso 5.68 5.68 0.5 mtk yes tchain 5 pchain 5
run 2000
Per MPI rank memory allocation (min/avg/max) = 3.644 | 3.646 | 3.649 Mbytes
Step Temp E_pair E_mol TotEng Press Volume 
   10000     2.374622   -3.3110084            0   0.25003415    5.6889267     3731.619 
   11000    1.2452537   -4.8739152            0   -3.0065016    5.8422406    2855.4675 
   12000    1.2273368   -4.8659378            0   -3.0253928    5.9595869    2852.0133 
Loop time of 0.646785 on 48 procs for 2000 steps with 4000 atoms

Performance: 534334.982 tau/day, 3092.216 timesteps/s
99.6% CPU use with 48 MPI tasks x no OpenMP threads

MPI task timing breakdown:
Section |  min time  |  avg time  |  max time  |%varavg| %total
---------------------------------------------------------------
Pair    | 0.28753    | 0.31914    | 0.35001    |   2.2 | 49.34
Neigh   | 0.040834   | 0.043852   | 0.046742   |   0.6 |  6.78
Comm    | 0.2017     | 0.23406    | 0.2724     |   3.0 | 36.19
Output  | 5.3817e-05 | 5.5481e-05 | 7.138e-05  |   0.0 |  0.01
Modify  | 0.040291   | 0.044661   | 0.048436   |   1.1 |  6.91
Other   |            | 0.005013   |            |       |  0.78

Nlocal:        83.3333 ave          90 max          75 min
Histogram: 1 1 2 6 12 3 9 6 6 2
Nghost:        2063.19 ave        2078 max        2046 min
Histogram: 1 2 4 2 8 14 8 5 3 1
Neighs:        13380.3 ave       14742 max       11504 min
Histogram: 1 0 4 4 8 11 7 6 3 4

Total # of neighbors = 642253
Ave neighs/atom = 160.56325
Neighbor list builds = 143
Dangerous builds = 13

#############################
# L I N E A R  Q U E N C H  #
#############################

# Define solid atoms. This closely follows ten Wolde  Ruiz-Montero and Frenkel  Faraday Discuss  1996  104  93-110
# Compute components of the per-atom q6 vector
compute q6 all orientorder/atom degrees 1 6 components 6 nnn NULL cutoff 1.3 # compute the Q6 parameter.
                                                                             # Use all neighbours within 1.3 unit cell.

# get number of connections
compute coord_number all coord/atom orientorder q6 0.5

# An atom is solid if it has 8 or more connections (of a possible 14)
variable is_solid atom c_coord_number>=8
group solid dynamic all var is_solid    # Must be dynamic to update
dynamic group solid defined

# do clustering
compute cluster solid cluster/atom 1.3 # Create a cluster where all atoms within are solid and max 1.3 units from another member

# define chunks one chunk per cluster
compute clus_chunks solid chunk/atom c_cluster nchunk every compress yes  # Says which atoms are in which chunk

# count the size of each chunk
compute size_chunks solid property/chunk clus_chunks count


# Find the maximum entry in the vector of chunk sizes
variable max_n equal max(c_size_chunks)


# Thermo style which includes this variable
# thermo_style custom step temp pe vol v_max_n

thermo ${N}  # Print the thermo information every 100 steps
thermo 1000  

# Reset the npt fix at a lower temperature (below freezing)
fix 1  all npt temp  ${temp} ${temp}  0.1  iso  5.68  5.68  0.5  mtk yes tchain  5  pchain  5
fix 1  all npt temp  0.45 ${temp}  0.1  iso  5.68  5.68  0.5  mtk yes tchain  5  pchain  5
fix 1  all npt temp  0.45 0.45  0.1  iso  5.68  5.68  0.5  mtk yes tchain  5  pchain  5

dump dmp2 all dcd ${N} traj.dcd
dump dmp2 all dcd 1000 traj.dcd


compute msd all msd com yes
variable twopoint equal c_msd[4]/6/(step*dt+1.0e-6)
fix 9 all vector 10 c_msd[4]
variable fit equal slope(f_9)/6/(10*dt)
thermo_style custom step temp pe c_msd[4] v_twopoint v_fit v_max_n

fix 1 all npt temp 1.25 ${temp} 0.1 iso 5.68 5.68 0.5 mtk yes tchain 5 pchain 5
fix 1 all npt temp 1.25 0.45 0.1 iso 5.68 5.68 0.5 mtk yes tchain 5 pchain 5
run 2000000 # 5000000  # Run for this many steps
Neighbor list info ...
  update every 1 steps, delay 10 steps, check yes
  max neighbors/atom: 2000, page size: 100000
  master list distance cutoff = 3.8
  ghost atom cutoff = 3.8
  binsize = 1.9, bins = 8 8 8
  4 neighbor lists, perpetual/occasional/extra = 1 3 0
  (1) pair lj/cut, perpetual
      attributes: half, newton on
      pair build: half/bin/atomonly/newton
      stencil: half/bin/3d
      bin: standard
  (2) compute orientorder/atom, occasional
      attributes: full, newton on
      pair build: full/bin/atomonly
      stencil: full/bin/3d
      bin: standard
  (3) compute coord/atom, occasional
      attributes: full, newton on
      pair build: full/bin/atomonly
      stencil: full/bin/3d
      bin: standard
  (4) compute cluster/atom, occasional
      attributes: full, newton on
      pair build: full/bin/atomonly
      stencil: full/bin/3d
      bin: standard
Per MPI rank memory allocation (min/avg/max) = 9.840 | 9.844 | 9.847 Mbytes
Step Temp PotEng c_msd[4] v_twopoint v_fit v_max_n 
   12000    1.2273368   -4.8659378 3.9443045e-34 2.7391003e-36 8.3333333e+20            1 
   13000     1.268822   -4.8833207   0.71120648 0.0045590157  0.059756455            2 
   14000    1.2472535   -4.9025402    1.5194242 0.0090441914  0.063558794            2 
   15000    1.2438685   -4.8450801    2.2878041  0.012710022  0.064339384            2 
   16000    1.2565705   -4.8882604    3.0378004  0.015821876  0.063687968            3 
   17000    1.2566159   -4.8460797    3.8896503  0.019066913  0.064376172            2 
   18000    1.2532634   -4.8692206     4.651407  0.021534291  0.064917178            3 
   19000    1.2403988    -4.910486    5.4403476  0.023861173  0.064987727            2 
   20000    1.2739016     -4.89658    5.9775472  0.024906446  0.064478017            1 
   21000    1.2145962   -4.9292178    6.8737567  0.027276812   0.06388772            2 
   22000    1.2380001   -4.8849951    7.7006089  0.029168972  0.063937173            2 
   23000    1.2434465   -4.8359199    8.3945704   0.03041511  0.063980405            2 
   24000    1.2550161   -4.9065752     9.160837  0.031808461  0.063801322            3 
   25000     1.232212   -4.8482885    9.8917633  0.032972544  0.063681985            4 
   26000    1.2368328   -4.9590582     10.57441  0.033892339  0.063551396            4 
   27000    1.2360736   -4.8624713     11.25643  0.034742066  0.063325538            1 
   28000     1.224253   -4.8530236    11.886414  0.035376231  0.062904846            2 
   29000    1.2832847   -4.9217838    12.534121  0.036017589  0.062392668            1 
   30000    1.2491218   -4.8509343     13.23868   0.03677411  0.061949739            1 
   31000    1.2544576   -4.9322907    13.878897  0.037308861  0.061569804            1 
   32000    1.2131828   -4.9212303    14.659196   0.03817499  0.061239734            2 
   33000    1.2173771   -4.9064792    15.339886  0.038737085  0.060994244            1 
   34000     1.227173   -4.8916837    16.108175  0.039480821  0.060781864            2 
   35000    1.2501179   -4.9075596    16.816086  0.040038299  0.060667613            2 
   36000    1.2321524   -4.9253247    17.532566  0.040584642  0.060573554            1 
   37000     1.223307   -4.8849308    18.440466   0.04153258  0.060580164            2 
   38000    1.2418585   -4.8836516     18.91861  0.041488178  0.060493109            2 
   39000     1.233117   -4.9242848    19.631834  0.041948362   0.06036873            3 
   40000     1.237224   -4.9008971    20.475394  0.042657071  0.060318575            1 
   41000    1.2471309   -4.8972358     21.16894  0.043026301  0.060236745            1 
   42000    1.2163115   -4.9100914    21.784629  0.043223469  0.060155805            3 
   43000    1.2430221   -4.9294371    22.493931  0.043592888  0.060090474            2 
   44000    1.2114699   -4.9101528    23.081393  0.043714759  0.060001884            3 
   45000    1.2450599   -4.9191775    23.872978  0.044209218  0.059888401            3 
   46000    1.2434668   -4.9095287    24.568345   0.04450787  0.059829486            3 
   47000    1.2482087   -4.9070236    25.347895  0.044943076  0.059754825            3 
   48000    1.2348182    -4.926916    26.010267  0.045156712  0.059692721            2 
   49000    1.2476801   -4.8855713    26.598506  0.045235555  0.059607365            4 
   50000    1.2248745    -4.916018    27.270226  0.045450375   0.05953047            1 
   51000    1.2371458   -4.9712441    28.133766  0.045970205  0.059502179            1 
   52000    1.2406181   -4.8914319    29.000449  0.046475077  0.059518528            2 
   53000    1.2355717   -4.9434079    29.551462  0.046464562  0.059529026            2 
   54000    1.2120571   -4.8707593    30.307146  0.046770286  0.059508648            2 
   55000    1.2426121   -4.9219643      30.9376  0.046875151  0.059491081            1 
   56000    1.1992085   -4.8927732    31.936146  0.047524026  0.059503679            2 
   57000    1.2082952   -4.9083852    32.634431  0.047711156  0.059545807            2 
   58000    1.2331707   -4.9328973     33.61401  0.048295992  0.059620341            2 
   59000    1.2333146     -4.90459    34.282139  0.048421099  0.059707161            1 
   60000    1.2417835   -4.9092255    34.879807  0.048444176  0.059750374            2 
   61000    1.2080494   -4.9243993    35.406398  0.048369396   0.05975919            1 
   62000    1.2082106   -4.9676405    36.251918  0.048725696  0.059771003            1 
   63000    1.2167629   -4.8910901    37.070802  0.049035452  0.059783755            3 
   64000      1.21246   -4.9147924    37.566339  0.048914503  0.059805355            1 
   65000    1.2535949    -4.895309    38.419543  0.049255823   0.05982237            3 
   66000    1.2216323   -4.8937978    39.440584  0.049798717  0.059868522            2 
   67000    1.2480088   -4.9414978    39.879651  0.049601556  0.059922357            1 
   68000    1.2506746   -4.9321228    40.960342  0.050196497  0.059962577            1 
   69000    1.2339569   -4.9626611    41.392448  0.049990879  0.060003112            2 
   70000    1.2087823   -4.8934649    42.183096  0.050217971  0.060039595            1 
   71000    1.2198486   -4.9120194    42.889539  0.050339835  0.060055624            5 
   72000    1.2260189    -4.976728    43.343798  0.050166432  0.060051381            4 
   73000    1.2458493   -4.9677555    43.944548  0.050165009  0.060048511            3 
   74000    1.2307769   -4.9771078    44.661761  0.050294775   0.06003989            1 
   75000    1.2398666   -4.9197417    45.681129   0.05075681  0.060027839            4 
   76000     1.212041    -4.931246    46.353124  0.050825794  0.060032445            4 
   77000    1.2084331   -4.9232743     46.75871  0.050604665  0.060019775            2 
   78000    1.2279699   -4.9393256     47.39243  0.050632938  0.059992269            3 
   79000    1.2209751   -4.9325392    48.302474  0.050951977  0.059970431            3 
   80000     1.222037    -4.940466    48.789262  0.050822148  0.059950459            1 
   81000    1.2189919   -4.9455649    49.833297  0.051268824  0.059917548            2 
   82000    1.2382054   -4.9260323    50.115141  0.050930021  0.059881613            2 
   83000    1.2139585   -4.9105513    51.178356  0.051383891  0.059845314            4 
   84000    1.2475898   -4.9563371    51.573564   0.05116425  0.059825962            2 
   85000    1.2024562   -4.9227692    52.240451  0.051216128  0.059797093            2 
   86000    1.2541219   -4.9057567    53.475405  0.051817253  0.059770556            2 
   87000     1.201952   -4.9601752    53.987009  0.051711694  0.059759804            3 
   88000    1.2253418   -4.9272823    54.388693  0.051504444  0.059740451            5 
   89000    1.2162171   -4.9239155    55.663867  0.052119725  0.059733913            2 
   90000    1.2026363   -4.9421626    56.040977  0.051889793  0.059717733            1 
   91000     1.215139   -4.9010411    56.753419  0.051971996  0.059690854            4 
   92000    1.2161525   -4.9338832    57.385818  0.051979908  0.059668994            3 
   93000    1.2274202   -4.9635515    57.972719   0.05194688  0.059644482            2 
   94000    1.2246194   -4.8747962    59.006871  0.052311056    0.0596258            1 
   95000    1.1989205   -4.9329292    59.611424  0.052290723  0.059610167            3 
   96000    1.2360178   -4.9453531    59.868124  0.051968857  0.059583814            4 
   97000    1.1961692   -4.9542622    60.488537  0.051966097  0.059540816            2 
   98000    1.2142937   -4.9717221    61.276955  0.052106254  0.059510664            2 
   99000    1.2101302   -4.9817515    61.820149  0.052037162  0.059485683            3 
  100000    1.2002063    -4.921673    63.045851  0.052538209  0.059467102            2 
  101000    1.2352136   -4.9307614    63.548637  0.052432869  0.059445268            2 
  102000    1.2081955   -4.9345418    64.126928  0.052391281  0.059409638            3 
  103000    1.2141271     -4.92859    64.703849  0.052349392  0.059376009            2 
  104000    1.1986023   -4.9447761    65.434085  0.052431158  0.059342167            2 
  105000    1.2435088   -4.9674926    65.994242  0.052376382  0.059294092            2 
  106000    1.2290894   -4.9078085    66.973309  0.052651972  0.059255095            1 
  107000    1.2068414   -4.9509088    67.680085  0.052710347  0.059227556            3 
  108000    1.1987768   -4.8954315    68.629563  0.052954909  0.059208035            3 
  109000    1.2053121    -4.942615     68.84038   0.05263026  0.059182732            2 
  110000    1.1999203   -4.9369096    69.990296  0.053022951  0.059165071            3 
  111000    1.1966219   -4.9684248    70.415058  0.052864157  0.059158574            3 
  112000    1.2237081   -4.9576776    71.507638  0.053205088  0.059151603            2 
  113000    1.1990785   -4.9357388    72.169961  0.053222685  0.059150473            3 
  114000    1.1891635   -4.9823559    72.854622  0.053256303  0.059147793            2 
  115000    1.2042607   -5.0022878    73.625001   0.05335145  0.059138197            1 
  116000    1.1955124   -4.9882417    74.168296  0.053281822  0.059139362            2 
  117000    1.1904919    -4.954253     74.96199   0.05339173   0.05913758            1 
  118000    1.2080582    -4.997224    75.446171  0.053281194   0.05913053            1 
  119000    1.2209362   -4.9584673    76.472005  0.053551824  0.059130743            2 
  120000    1.2076794   -4.9600599    77.124874   0.05355894  0.059137245            2 
  121000     1.214562   -4.9720045    78.145295  0.053819073   0.05914361            2 
  122000    1.1799662   -5.0101484    78.864152  0.053868956   0.05915709            3 
  123000    1.2214049   -4.9683831    79.720696  0.054011312  0.059167244            1 
  124000    1.2088097   -4.9892968    80.311042  0.053972474  0.059178815            2 
  125000    1.2111433   -4.9437396    81.351658  0.054234439  0.059193616            1 
  126000    1.1976668   -4.9763297    81.658054  0.054006649  0.059217143            2 
  127000    1.1791963    -4.943905    83.152892  0.054562265  0.059239782            2 
  128000    1.1985252   -4.9737141    83.460766  0.054336436  0.059265596            1 
  129000    1.2111132   -4.9815706    84.361522  0.054497107  0.059280302            2 
  130000      1.20548   -4.9702724    84.758634  0.054332457  0.059304495            2 
  131000    1.1955396   -4.9671108    85.602797  0.054454705  0.059316913            3 
  132000    1.2007026   -4.9557218    86.203013  0.054421094  0.059325733            4 
  133000    1.2220728    -4.937781    86.824753  0.054401474  0.059330434            3 
  134000    1.1718252    -4.957412    88.129798  0.054807088  0.059340888            2 
  135000    1.2033849   -4.9376489    88.873197  0.054859998   0.05935861            4 
  136000    1.2273248   -4.9450378    89.272218  0.054701114   0.05937211            5 
  137000    1.2239312   -4.9750961    89.750054   0.05459249  0.059382767            2 
  138000    1.2044658   -5.0016656    90.475226  0.054634798  0.059393824            2 
  139000    1.2091007   -4.9595164    91.563511  0.054894191  0.059404306            2 
  140000    1.2051709   -4.9955561    91.817377    0.0546532  0.059412504            3 
  141000    1.1847124   -5.0054203    92.161959  0.054469243  0.059413678            3 
  142000    1.2066107   -4.9750269    93.179843  0.054683006   0.05941992            2 
  143000    1.1963612   -4.9689679    94.099344  0.054836447  0.059427756            2 
  144000    1.1907398   -4.9941072    95.420651  0.055220284  0.059440795            3 
  145000    1.1970722   -5.0256021    95.553939  0.054916057  0.059453915            2 
  146000    1.1951378    -5.009298    96.389794  0.055017006  0.059466943            2 
  147000    1.2181894   -4.9505589    97.047061   0.05501534   0.05947574            2 
  148000    1.1793524   -5.0009182    97.379948  0.054831051  0.059482517            3 
  149000    1.2221102   -4.9850803    98.399194  0.055033106  0.059482749            3 
  150000    1.1862189   -4.9882013    98.826636  0.054903687  0.059485489            1 
  151000    1.1979841   -4.9995914     99.17883  0.054734453   0.05948625            2 
  152000    1.1957017   -4.9660668    100.05289   0.05485356  0.059480314            1 
  153000    1.2279796   -4.9724003    100.69554  0.054845065  0.059472729            4 
  154000    1.1857751   -4.9853937    101.16122  0.054740918  0.059464777            4 
  155000    1.2045486   -4.9713027    102.64634  0.055186202  0.059457256            3 
  156000    1.2143292   -4.9970621    103.00866  0.055025991  0.059458106            4 
  157000    1.1958718    -4.986421    104.01932  0.055211952  0.059461729            1 
  158000    1.1859317   -4.9797864    104.69968  0.055221351  0.059467621            1 
  159000    1.2095841   -4.9613723     105.6908  0.055393502  0.059473908            5 
  160000    1.1768432   -4.9891405    106.14419  0.055283435  0.059476998            5 
  161000    1.1999835   -5.0216533    106.46431  0.055105749  0.059473318            1 
  162000    1.1829074   -5.0231942    107.10581  0.055095582   0.05946682            6 
  163000    1.1845653    -4.985983    107.93431  0.055181141   0.05946006            3 
  164000    1.2040269   -5.0099368    108.58883   0.05517725  0.059463528            2 
  165000    1.1881001   -4.9932931    109.73284  0.055420627  0.059462268            3 
  166000    1.2041073   -5.0195675     110.6036  0.055523897  0.059464024            5 
  167000    1.1837879   -5.0032786    111.10301  0.055440624  0.059467095            2 
  168000    1.1925547   -4.9891084    111.55114  0.055332909  0.059470467            2 
  169000    1.1844456   -4.9449913    112.53465  0.055490458  0.059471316            1 
  170000    1.1724433   -5.0170375    113.06828  0.055425626  0.059473147            2 
  171000    1.1860883   -5.0141923     113.4387  0.055282018  0.059470142            3 
  172000    1.1824704   -5.0170749       113.98  0.055222868  0.059463936            4 
  173000    1.2071384   -5.0155712    114.30351  0.055059493    0.0594561            4 
  174000    1.1995794   -4.9483164    116.06213  0.055585311  0.059443345            3 
  175000    1.1703133   -5.0106954    116.43371  0.055444624  0.059434097            4 
  176000    1.1583978   -5.0145786    116.98555  0.055390883  0.059427224            4 
  177000    1.1723853   -5.0293854    117.70626  0.055417259  0.059424665            3 
  178000    1.1813027   -4.9858094    119.81905  0.056095059  0.059427566            3 
  179000    1.1685236   -4.9876991    120.08492  0.055905455   0.05943324            3 
  180000    1.1730133   -5.0212035    120.75232  0.055903853  0.059439324            4 
  181000       1.1762   -5.0340596    121.84284  0.056097073  0.059447684            2 
  182000    1.1962134   -5.0214724    122.55897  0.056116745  0.059464246            2 
  183000    1.2182654   -5.0340573     123.2011  0.056102504  0.059484683            2 
  184000    1.1836358   -5.0169064    123.98382  0.056152094  0.059497222            2 
  185000    1.1928694   -5.0118664    124.63516  0.056141965  0.059506523            7 
  186000    1.1802389   -5.0055958    125.28445  0.056131026  0.059515926            2 
  187000    1.1682376   -5.0119139    125.77679  0.056050264  0.059525913            2 
  188000    1.2038873   -5.0462626    126.08371   0.05588817  0.059530445            1 
  189000    1.1698026   -5.0471189    126.02704  0.055567479  0.059530602            1 
  190000    1.1613352   -5.0229864    127.36084  0.055860015  0.059527784            3 
  191000     1.182982   -5.0480302    127.66305  0.055699412   0.05952414            3 
  192000     1.179293   -5.0232693    128.07711  0.055589023   0.05951206            3 
  193000    1.1875628   -5.0465633    128.59132  0.055523022  0.059499652            4 
  194000    1.1613098   -5.0141459     129.2212  0.055507386  0.059482481            1 
  195000    1.1732423   -5.0593522    129.58499    0.0553782  0.059466067            4 
  196000    1.1684493   -5.0686847    130.37873  0.055433135  0.059453904            3 
  197000    1.1475176     -5.06453    131.31981  0.055549835  0.059443251            2 
  198000    1.1806581   -5.0066057    132.46987  0.055753313  0.059432924            5 
  199000    1.1506352   -5.0213478    132.87073   0.05564101  0.059426865            2 
  200000    1.1532689   -5.0214137    134.44692  0.056019549   0.05941941            7 
  201000    1.1621285   -5.0097834    134.95576  0.055951808  0.059410964            6 
  202000    1.1916732   -4.9761835    135.32147  0.055825687  0.059398952            2 
  203000    1.1556027   -5.0419788     135.5943  0.055662686  0.059385787            6 
  204000    1.1621093   -5.0218255    135.46687  0.055337775  0.059372613            3 
  205000    1.1609475    -5.016053     137.2239  0.055782073  0.059357615            7 
  206000    1.1366729    -5.024247    137.07646  0.055451642   0.05934165            3 
  207000    1.1699515   -5.0363058    138.14716    0.0556148  0.059322477            5 
  208000    1.1728375   -4.9976095    138.26226  0.055393534  0.059304533            2 
  209000    1.1605022   -5.0222548    139.31702   0.05554905  0.059284302            2 
  210000    1.1686471   -5.0413052    139.83074  0.055488388  0.059262542            4 
  211000    1.1753601   -5.0228891    139.81479  0.055219112  0.059238017            2 
  212000    1.1435786   -5.0152477    140.15176    0.0550911  0.059207619            5 
  213000     1.165556   -5.0420539    141.10524  0.055205491  0.059177741            2 
  214000    1.2002953   -5.0313066    141.11939  0.054953033  0.059147395            2 
  215000    1.1599457   -5.0256041    142.33998  0.055170536  0.059113881            4 
  216000    1.1823977   -5.0783588    142.60371  0.055016865  0.059084836            4 
  217000    1.1672634   -5.0140418    144.11293  0.055342905   0.05905447            1 
  218000    1.1690965   -5.0383035    144.47265  0.055226548  0.059031025            4 
  219000     1.164303   -5.0372853    144.75051  0.055080103  0.059002966            5 
  220000    1.1907728   -5.0446627    145.47616  0.055104606  0.058972119            3 
  221000    1.1917649   -5.0802375    145.31233  0.054793487  0.058940902            2 
  222000    1.1436759   -5.0421002    147.02799  0.055190688  0.058908818            4 
  223000     1.156778   -5.0410152    146.84743  0.054875723  0.058878044            1 
  224000     1.159963   -5.0268137    148.31206  0.055175619  0.058845787            5 
  225000    1.1665425    -5.045088    148.08362  0.054845784  0.058812476            2 
  226000    1.1790408   -5.0014234    149.29183   0.05504861  0.058778298            3 
  227000    1.1519782    -5.051403    148.95401  0.054682087  0.058744104            5 
  228000     1.150518   -5.0671609    149.13559  0.054508622  0.058704497            3 
  229000    1.1961623   -5.0239727    149.96765  0.054573379  0.058664645            2 
  230000    1.1590926   -5.0275416    151.28795  0.054814476  0.058627394            4 
  231000    1.1841119   -5.0328999    151.91601  0.054803754   0.05859105            1 
  232000    1.1533769   -5.0732758    151.86059  0.054547626  0.058551572            2 
  233000     1.145591   -5.0363061     153.2166  0.054798499  0.058512791            3 
  234000    1.1526072   -5.0741242    153.14889  0.054540201  0.058475741            3 
  235000    1.1687851   -5.0571464    153.47909   0.05442521  0.058438284            4 
  236000    1.1532248   -5.0707116    154.32953   0.05449489  0.058405991            3 
  237000     1.135325   -5.0499123    154.46187  0.054311488  0.058368622            2 
  238000    1.1384188   -5.0170052    156.76067   0.05488819  0.058330432            2 
  239000    1.1553693   -5.0102016    157.08508  0.054771645  0.058298537            2 
  240000    1.1432391   -5.0566274    157.00411  0.054515315  0.058263531            3 
  241000     1.162254   -5.0336867    157.79571  0.054562832  0.058226058            1 
  242000    1.2185641   -5.0806507    157.87449  0.054364493  0.058188212            3 
  243000    1.1762634   -5.0743571    158.41271  0.054325347  0.058147219            2 
  244000    1.1579973   -5.0479046     159.2821  0.054399625  0.058106367            2 
  245000    1.1586474   -5.0444967    160.21528  0.054494992  0.058068083            2 
  246000    1.1821152   -5.0901355    160.83755  0.054484264  0.058033166            1 
  247000    1.1637455   -5.0726032    161.17452   0.05437737  0.057998331            4 
  248000    1.1479907    -5.049268       161.88  0.054395161  0.057963152            5 
  249000    1.1586177   -5.0554421    163.08757  0.054580845  0.057929425            2 
  250000    1.1358589    -5.079702    162.84351  0.054281169   0.05789396            4 
  251000    1.1670384   -5.0904751    163.67595  0.054341284   0.05785749            2 
  252000    1.1602488   -5.0686252    164.67826  0.054457097  0.057824545            3 
  253000    1.1433518   -5.0702214    165.31745  0.054452389  0.057790044            3 
  254000      1.18176   -5.0259287    165.93791  0.054441571  0.057758908            3 
  255000    1.1373803   -5.0622236     165.9003  0.054215786  0.057724584            2 
  256000    1.1445556   -5.1010774    166.06216  0.054056693  0.057689451            2 
  257000    1.1356363   -5.0562355    167.25404  0.054232828  0.057652748            3 
  258000    1.1417412    -5.066916    168.07791  0.054288731  0.057616673            2 
  259000    1.1474473   -5.1135166    168.37803  0.054175687  0.057581685            2 
  260000    1.1308425   -5.0636037    169.76182  0.054410841  0.057546895            5 
  261000    1.1571804   -5.0648139    169.68433  0.054177627  0.057515114            7 
  262000    1.1669345   -5.0742402    169.98249  0.054065679  0.057482104            3 
  263000    1.1813296   -5.0801596    170.55263  0.054040758  0.057449665            2 
  264000    1.1383716   -5.0867322    170.89436  0.053943928  0.057413252            4 
  265000    1.1694698   -5.0548487    172.61012  0.054279912  0.057378665            4 
  266000    1.1277177   -5.0672639     172.6485  0.054087874  0.057342728            4 
  267000    1.1393666   -5.0841038    172.65654  0.053887808  0.057305133            3 
  268000     1.149424   -5.0806363    174.04413  0.054118199  0.057269717            1 
  269000    1.1376739   -5.0766746    174.47307  0.054049898  0.057234046            2 
  270000    1.1458371   -5.0635988    174.84175  0.053963504  0.057199889            4 
  271000    1.1201482   -5.0833981    175.64272  0.054010678  0.057166152            3 
  272000    1.1314764   -5.0795089    176.73843  0.054147804  0.057131382            3 
  273000    1.1600881   -5.0632102    177.54264  0.054194946  0.057098288            3 
  274000    1.1523588   -5.0732908    177.29528  0.053921922  0.057064321            2 
  275000    1.1247713   -5.1061418    177.54553  0.053801674  0.057032421            2 
  276000    1.1342572   -5.0809738    178.52285  0.053901827  0.057000962            2 
  277000    1.1340997    -5.092154    179.23133  0.053920377  0.056968452            3 
  278000    1.1338357   -5.0796882    180.40545  0.054078373  0.056936922            2 
  279000    1.1317969   -5.0698267    180.82912  0.054011087  0.056906336            2 
  280000    1.1311217   -5.0868725    181.14725  0.053912872  0.056876657            3 
  281000    1.1418374   -5.1144827    181.26117  0.053754795  0.056847504            4 
  282000    1.1321388   -5.0924761    183.30579  0.054168379  0.056819846            6 
  283000    1.1418866   -5.0921933    184.01124    0.0541847  0.056794522            2 
  284000     1.119771   -5.0883863    184.70419  0.054197237  0.056768142            3 
  285000    1.1425709   -5.0925619    184.50986  0.053950251  0.056740446            2 
  286000    1.1426243   -5.0901358    185.55908  0.054067332  0.056712146            3 
  287000    1.1204889   -5.0889868    186.08272  0.054030986  0.056684855            1 
  288000    1.1258372   -5.1137453    185.51692  0.053679665  0.056655553            2 
  289000    1.1376056    -5.084964    187.30985  0.054010915  0.056628153            3 
  290000    1.1339112   -5.0781375    187.54477  0.053892174  0.056601833            2 
  291000    1.1411408     -5.12437     187.3674  0.053656186  0.056573519            4 
  292000    1.1361019   -5.1268306    187.75413    0.0535828  0.056545313            3 
  293000    1.1306731   -5.0712997    190.26323  0.054113547  0.056516514            3 
  294000    1.1257435   -5.0955661     190.0368  0.053865307  0.056490543            2 
  295000    1.1283711   -5.1001451     190.8108  0.053901356  0.056464437            1 
  296000    1.1396608   -5.1197024    192.14199  0.054094029  0.056441033            3 
  297000    1.1558313   -5.1349512    192.80845  0.054098893  0.056419351            2 
  298000    1.1278413   -5.1209415     192.4794  0.053825335  0.056396796            3 
  299000    1.1356327   -5.1197728    193.18607   0.05384227   0.05637371            3 
  300000    1.1537344   -5.0921911    194.80585  0.054112735  0.056353008            4 
  301000    1.1216547   -5.1263102     194.4082  0.053822868  0.056331102            2 
  302000    1.1274248   -5.0809288    196.11922  0.054116783  0.056309022            4 
  303000    1.1555637   -5.1257282    195.67326  0.053815528  0.056285785            4 
  304000    1.1354024   -5.1018274    196.33927  0.053821072  0.056263738            2 
  305000    1.1326233    -5.070665    197.18026  0.053874388  0.056241302            4 
  306000    1.1528607   -5.1245923    198.17702  0.053969778  0.056219493            8 
  307000    1.1180784    -5.121262    197.99027  0.053743286  0.056197143            3 
  308000    1.1142462    -5.111478    198.88044  0.053809642  0.056175733            2 
  309000    1.1093508   -5.1280014     199.5522  0.053816667  0.056153414            1 
  310000    1.1381896   -5.0837195    200.77179   0.05397091  0.056131421            2 
  311000    1.1376375   -5.1219073    200.44729  0.053710422  0.056110027            3 
  312000    1.1197963   -5.1102872    201.36955  0.053784602  0.056086361            4 
  313000    1.1431327   -5.1225831    201.96871  0.053772287  0.056063098            4 
  314000    1.1240472   -5.1237664    202.56438  0.053759125   0.05604052            7 
  315000    1.1319134   -5.1221219    203.52046  0.053841392  0.056018192            2 
  316000    1.1205239   -5.1395693    204.47195  0.053921927  0.055997488            3 
  317000     1.123004   -5.1089161    204.98902  0.053887755  0.055977106            4 
  318000    1.1267691   -5.1054872    206.45411  0.054102231  0.055955898            2 
  319000    1.1309395   -5.0957057    206.26182  0.053882397  0.055937013            6 
  320000    1.1396912   -5.1454291    206.63522  0.053811256   0.05591573            3 
  321000    1.1415639   -5.1171205    207.60131   0.05389442  0.055893258            2 
  322000    1.1283599   -5.1419133    206.45798  0.053431154  0.055869949            4 
  323000    1.1276281   -5.1314157    207.78648  0.053608482    0.0558471            3 
  324000    1.1280982   -5.1207289    208.87629  0.053723326  0.055826066            1 
  325000    1.1049398   -5.1282289    209.02634  0.053596497  0.055805062            4 
  326000    1.1176881   -5.0749668    209.73835  0.053614097  0.055781529            2 
  327000    1.1045116   -5.1389977    209.51293  0.053392694  0.055755723            5 
  328000    1.0964929   -5.0996486    210.91856  0.053587031  0.055732291            3 
  329000    1.0968949   -5.1191415     211.7199  0.053627127  0.055707501            2 
  330000    1.1204759    -5.119522    211.60804  0.053436374   0.05568431            3 
  331000    1.1232768   -5.0981958    212.75029  0.053562509  0.055660997            3 
  332000    1.1144306   -5.1012964    213.24978  0.053526552  0.055637702            2 
  333000    1.0919741   -5.1234427    214.19518  0.053602397  0.055615536            2 
  334000    1.1368919   -5.1318726    213.97965  0.053388137  0.055591651            3 
  335000    1.1214879   -5.1290179    213.22536  0.053041134  0.055565188            4 
  336000    1.1121987   -5.1432095    214.31492  0.053153501  0.055539151            3 
  337000    1.1369998   -5.0910648    215.31851  0.053243945  0.055512482            3 
  338000    1.1047749   -5.1726459    214.49118   0.05288244  0.055484228            2 
  339000    1.1255893    -5.075904    216.83987  0.053303802  0.055455888            2 
  340000    1.1471687   -5.1359926    216.75104  0.053125255  0.055428198            3 
  341000    1.1336923   -5.1468767     216.2713  0.052852224  0.055398399            3 
  342000     1.119227   -5.1288137    217.60857  0.053023532   0.05536837            5 
  343000    1.1132717   -5.1313483    218.29406  0.053035485  0.055338481            3 
  344000    1.1004801    -5.165338    217.62088  0.052718236  0.055307819            1 
  345000    1.1279148    -5.161122    217.79361  0.052607151  0.055277293            1 
  346000      1.15297   -5.1552921    218.79743  0.052696875   0.05524577            2 
  347000    1.0950784   -5.1441773    219.78439  0.052782034  0.055212394            1 
  348000    1.1045048   -5.1374175    220.48497  0.052798125  0.055180389            2 
  349000    1.0974339   -5.1326598    219.53549  0.052420127  0.055146499            2 
  350000    1.0957538   -5.1562951    220.63469  0.052532068  0.055111487            2 
  351000    1.1316649   -5.1789453    220.73053  0.052405158  0.055077304            4 
  352000       1.1231   -5.1268544     222.4962   0.05267429  0.055042649            3 
  353000    1.1051909   -5.1475258    222.93158  0.052627851  0.055006631            2 
  354000    1.1122237   -5.1210757    221.95587  0.052249498    0.0549694            5 
  355000    1.1011964   -5.1806597    222.43726   0.05221532  0.054934254            2 
  356000    1.1256015   -5.1302347    223.97562   0.05242875  0.054898254            2 
  357000    1.1073659   -5.1283562    224.32157  0.052362644  0.054864793            4 
  358000    1.1220803   -5.1792242    223.73131  0.052078983  0.054832076            6 
  359000    1.0853103   -5.1287893     226.1757  0.052501324  0.054798782            3 
  360000    1.0905189   -5.1479364    226.21094  0.052363643  0.054763971            3 
  361000    1.0990533   -5.1649417    226.72405  0.052337039  0.054729421            3 
  362000    1.1312985   -5.1403424    227.76377  0.052431807  0.054696138            2 
  363000    1.1172968   -5.1594116    228.27093  0.052403796  0.054663942            2 
  364000    1.1273405   -5.1514939    227.96509  0.052189809  0.054632092            3 
  365000    1.0846365    -5.145248    228.77965  0.052232797   0.05459875            5 
  366000    1.1097292   -5.1511651    228.69281  0.052070311  0.054564335            1 
  367000    1.1118522   -5.1735511    228.72502  0.051935744  0.054531478            2 
  368000    1.0560075   -5.1918952    229.58761  0.051989948  0.054497572            3 
  369000    1.1061502   -5.1391032    230.73871  0.052109013  0.054462898            3 
  370000    1.1140616   -5.1766422    230.47131  0.051907952  0.054429107            4 
  371000    1.1156853   -5.1687049    231.99148  0.052109496  0.054396034            4 
  372000    1.0753057    -5.117382    232.09143  0.051991808  0.054363055            2 
  373000    1.1174773   -5.1654539    232.74371  0.051998148  0.054329849            7 
  374000    1.1069215   -5.1742188    233.13229  0.051945696  0.054296492            2 
  375000    1.1092542   -5.1502829    232.93967  0.051764371  0.054264337            4 
  376000    1.0836089   -5.1655039    233.70247  0.051795761  0.054231092            6 
  377000    1.0719217   -5.1602162    234.71204  0.051881529  0.054196839            2 
  378000    1.1136401   -5.1571988    235.40261   0.05189652  0.054163145            6 
  379000    1.1099355   -5.1693333    235.34818  0.051747622  0.054128541            3 
  380000    1.1149934   -5.1632044    235.74824  0.051699176  0.054094481            2 
  381000    1.0857594   -5.1599036    236.94147  0.051824469  0.054061132            3 
  382000     1.092703   -5.2100898    236.70993  0.051638293  0.054027656            3 
  383000    1.1240461   -5.1428165     237.9439  0.051771954  0.053991573            4 
  384000    1.1053797   -5.1827531    237.45526  0.051531089  0.053958593            2 
  385000    1.1077102   -5.1646111    239.93615  0.051934232  0.053925663            2 
  386000    1.0889609   -5.2017264    238.77459  0.051548919  0.053892662            2 
  387000    1.0669983   -5.1548955     239.8376  0.051644617  0.053858627            1 
  388000    1.0924405   -5.1498236    241.08446  0.051779308  0.053827291            4 
  389000    1.1042763   -5.1659786    240.64626  0.051552327  0.053795487            2 
  390000    1.0585218   -5.1640012    241.74224  0.051654324  0.053764095            4 
  391000    1.0612872   -5.1946894    241.38703  0.051446512   0.05373149            2 
  392000    1.1248158   -5.1768706    242.71722  0.051598049   0.05369842            2 
  393000    1.0746961   -5.1916834    242.12452  0.051341077  0.053666379            2 
  394000    1.1408458   -5.1423212    243.40975  0.051482604  0.053633834            5 
  395000     1.107054   -5.1858369    243.16757  0.051301175   0.05359991            5 
  396000    1.1143536   -5.1944273     244.8262  0.051520665  0.053566959            2 
  397000    1.1116699   -5.1621502    244.08674  0.051235671  0.053534516            3 
  398000    1.0955275   -5.1793045    245.35995  0.051373523   0.05350264            3 
  399000     1.085963   -5.1555353    245.78872   0.05133432  0.053470529            2 
  400000    1.1004229    -5.137879    246.17415  0.051286282  0.053439332            5 
  401000    1.1021572   -5.1718462    246.83623  0.051295974  0.053406466            4 
  402000     1.075125   -5.1630636    247.23163  0.051250337   0.05337298            3 
  403000    1.0951871   -5.1801514    248.19234  0.051321824  0.053339401            4 
  404000    1.0859321   -5.2064693    248.44649  0.051247214  0.053307544            5 
  405000    1.0774989   -5.1909375     247.8337  0.050994589  0.053275255            4 
  406000    1.1004887   -5.1899955    249.54572  0.051220386  0.053241867            3 
  407000    1.0994528   -5.2017776    249.27066  0.051038218  0.053208651            5 
  408000     1.082906   -5.1878591    250.48664  0.051161487  0.053174978            3 
  409000    1.0780506   -5.2181952    251.00501  0.051142014  0.053141777            2 
  410000    1.0915076   -5.1796501    251.47846  0.051113509  0.053108232            3 
  411000    1.0823871   -5.2351305    250.88915  0.050869657  0.053074098            4 
  412000    1.1183107   -5.2179056    252.03953   0.05097887  0.053039412            4 
  413000    1.0872733   -5.1984222    253.24238  0.051098139  0.053007545            2 
  414000     1.075572   -5.2099269    252.51115  0.050827525  0.052974271            3 
  415000    1.0935208   -5.1890449    253.65346   0.05093443  0.052939835            2 
  416000     1.093539   -5.1658005    253.30536   0.05074226  0.052906405            5 
  417000     1.089214   -5.1839406    254.03891  0.050767168  0.052871791            3 
  418000    1.0877932   -5.1550233    254.45185  0.050728041  0.052837098            2 
  419000    1.0875034   -5.1816965    254.18528  0.050553955   0.05280252            5 
  420000    1.0880201   -5.2073721    254.82771  0.050561053  0.052765965            6 
  421000    1.0564983   -5.2058259    255.12784  0.050500364  0.052729653            2 
  422000    1.0886093   -5.1987695     255.6683  0.050487421  0.052693648            2 
  423000    1.0790553   -5.2234274    256.73418  0.050578049   0.05265858            3 
  424000    1.1020525   -5.1907214    256.55647  0.050423834  0.052624051            2 
  425000    1.0530376   -5.1939945    257.52696  0.050495483  0.052587761            2 
  426000    1.0933272    -5.207627      257.957  0.050461073  0.052551331            2 
  427000    1.0749326    -5.230837     258.9359  0.050533938  0.052516479            3 
  428000    1.0850986   -5.1586307    259.10277  0.050448359  0.052481601            4 
  429000    1.0634494   -5.2105711    259.34726  0.050378256  0.052446163            3 
  430000    1.0752365   -5.1828158    259.91027  0.050370207  0.052411407            2 
  431000    1.0814383   -5.1807137    261.59838  0.050579734  0.052377011            1 
  432000    1.0806381   -5.2329299    260.49707  0.050250207  0.052343658            2 
  433000     1.090439   -5.1948288    261.59956  0.050346335  0.052309877            2 
  434000    1.0845197   -5.2079133    260.94841  0.050105301   0.05227464            7 
  435000    1.0817835   -5.2195492    261.45619  0.050087393  0.052238473            3 
  436000    1.0846736   -5.1984342    261.81668  0.050041414  0.052201986            3 
  437000    1.0921643   -5.2071935    262.97539  0.050147862  0.052165688            2 
  438000      1.08427   -5.1629278     263.8926  0.050207876  0.052129848            4 
  439000    1.0656594   -5.1931334    263.46782  0.050012874  0.052093693            4 
  440000    1.0603176   -5.2459109    263.60012  0.049924265  0.052057544            5 
  441000    1.0667654   -5.1869038    265.52332  0.050174475  0.052021582            4 
  442000    1.0665986   -5.2075834    265.30859  0.050020473  0.051985648            2 
  443000    1.0718754   -5.2310831    265.36956  0.049919029  0.051950632            5 
  444000    1.0902874    -5.257338    265.09411  0.049754901  0.051915404            4 
  445000    1.0859196   -5.1916999    266.05879  0.049823744  0.051878178            3 
  446000    1.0887694   -5.2415474    266.14776  0.049728655  0.051841297            1 
  447000    1.0606032   -5.1915728    267.51127  0.049871601  0.051804994            4 
  448000    1.0855991    -5.239205    267.48132   0.04975471  0.051769496            6 
  449000    1.0604492    -5.167833    269.44503  0.050008357   0.05173584            3 
  450000    1.0815426   -5.2454638    268.59843   0.04974045  0.051702126            3 
  451000    1.0842504   -5.2075326    269.33373  0.049766025  0.051669227            3 
  452000    1.0700915   -5.2530205    268.92945  0.049581388  0.051635107            3 
  453000    1.0842534   -5.2065179    270.52397  0.049765263  0.051601525            6 
  454000    1.0927448   -5.2444191     271.1652  0.049773349   0.05156708            3 
  455000    1.0735195   -5.2188394    271.54471  0.049733464  0.051533708            4 
  456000    1.0657672    -5.263485    271.21527  0.049564194  0.051501426            3 
  457000    1.0949847   -5.2337407    272.14063  0.049624476  0.051467842            5 
  458000    1.0760812    -5.222302    272.35446  0.049555033  0.051435468            2 
  459000    1.0832446   -5.2435331    273.55069  0.049664251  0.051403325            4 
  460000    1.0598438   -5.2514638    273.69383  0.049582216  0.051371982            3 
  461000    1.0499362    -5.251006      273.797  0.049493312  0.051339934            2 
  462000    1.0545763   -5.2467633    275.34036  0.049664568  0.051308889            5 
  463000    1.0632791   -5.2554354     274.4557  0.049398075  0.051275356            3 
  464000    1.0802675   -5.2064296    275.92926  0.049556262  0.051243421            2 
  465000    1.0717286   -5.2283764    276.31623  0.049519037  0.051212636            2 
  466000    1.0478218   -5.2270017    276.69331  0.049480205  0.051181702            5 
  467000    1.0685472   -5.2496142    276.64574  0.049365764  0.051149832            4 
  468000    1.0577768   -5.2655331    277.51439  0.049414955  0.051117558            3 
  469000    1.0484344   -5.2923432    277.51798  0.049310231  0.051084726            4 
  470000    1.0779808   -5.2465168    278.27751  0.049339984  0.051052285            1 
  471000    1.0543113   -5.2311751    278.16438  0.049215213  0.051020447            2 
  472000    1.0577365   -5.2448311    280.15857  0.049463024   0.05098939            5 
  473000     1.077077   -5.2160245    281.01493  0.049509325   0.05095914            3 
  474000    1.0536642   -5.2422809    280.79462  0.049366142    0.0509288            4 
  475000    1.0262869   -5.2409751    280.47723  0.049206532   0.05089728            2 
  476000     1.073387   -5.2815865    281.49535  0.049281398   0.05086582            7 
  477000    1.0385117   -5.2250827    282.06562  0.049277712  0.050835415            2 
  478000    1.0608042   -5.2394823    283.08771  0.049352809  0.050804178            4 
  479000    1.0879357   -5.2451939    283.03731  0.049241007  0.050773993            3 
  480000    1.0550711   -5.2372559    282.39864  0.049027541  0.050741889            2 
  481000    1.0801976   -5.2407616    284.25877  0.049247881  0.050710245            5 
  482000    1.0747296   -5.2583961    283.23147  0.048968097   0.05067967            7 
  483000    1.0451125   -5.2500674    285.36816  0.049235363  0.050648908            7 
  484000    1.0716222   -5.2269175    284.57694  0.048997407  0.050617058            5 
  485000    1.0485145   -5.2482997    284.38078  0.048862676  0.050584528            3 
  486000    1.0806236   -5.2621684    284.60556  0.048800679  0.050552038            4 
  487000    1.0744447   -5.2788988    284.68745  0.048714485   0.05051887            3 
  488000    1.0783903   -5.2645089    285.80563  0.048805606  0.050485141            3 
  489000    1.0826796   -5.2602604    286.04465  0.048746533  0.050451326            5 
  490000    1.0859147   -5.2430102    286.69935  0.048758392  0.050419382            5 
  491000    1.0725244   -5.2347478    286.80924  0.048677739   0.05038671            4 
  492000    1.0617282   -5.2461213    287.74254  0.048736879  0.050353501            2 
  493000     1.059474    -5.259972    287.71103  0.048632697  0.050320337            2 
  494000     1.054976   -5.2486611    288.09276  0.048598644  0.050286595            3 
  495000    1.0663714   -5.2119937    289.60409  0.048754897  0.050254721            4 
  496000    1.0558782   -5.2557022     288.7489  0.048512921  0.050222358            3 
  497000    1.0710881   -5.2800928    289.85688  0.048601086  0.050187817            3 
  498000    1.0794013   -5.2438176    290.29051  0.048576056  0.050154722            4 
  499000    1.0428002   -5.2844833    291.35671  0.048656765  0.050122403            5 
  500000    1.0758059   -5.2411395    292.65648   0.04877608   0.05009062            3 
  501000    1.0801719   -5.2540917    292.21026    0.0486045  0.050059996            5 
  502000    1.0550564   -5.2588315    292.54833  0.048563799  0.050028949            1 
  503000    1.0572463   -5.2680724    293.47415  0.048620635  0.049998089            2 
  504000    1.0626085   -5.2869271    294.50678  0.048694903  0.049967394            6 
  505000    1.0398107   -5.2565732    294.45684  0.048590237  0.049937081            4 
  506000    1.0601293   -5.2846519    295.23139   0.04862177  0.049906355            5 
  507000    1.0649214   -5.3039747    293.14599  0.048183101  0.049876419            1 
  508000    1.0463219   -5.2719067    295.92806  0.048544629  0.049846991            3 
  509000     1.065352   -5.2180016    297.08982   0.04863946  0.049817238            8 
  510000    1.0268945   -5.2606133    296.59931  0.048463939  0.049787938            4 
  511000    1.0573871   -5.2452435    296.55948  0.048362602  0.049758096            4 
  512000    1.0719639   -5.2533921    297.51294  0.048423331  0.049728848            2 
  513000    1.0397996   -5.2548587    297.71103  0.048361116  0.049698717            3 
  514000    1.0346797    -5.260373    299.14469  0.048499463  0.049668774            4 
  515000    1.0272379   -5.2182445    300.82783  0.048677643  0.049638838            2 
  516000    1.0261466   -5.2757135    298.72347  0.048243454   0.04960862            3 
  517000    1.0567544   -5.2750669     298.8944  0.048177692  0.049578166            1 
  518000    1.0506261    -5.257852    299.88944  0.048244761  0.049548096            2 
  519000   0.99642334   -5.2817161     301.2079  0.048363503  0.049517419            2 
  520000    1.0430919   -5.2990912    299.09379  0.047931697  0.049486402            4 
  521000    1.0621836   -5.2984461      299.402  0.047888996  0.049455346            3 
  522000    1.0347622   -5.2745651    301.53558  0.048137863  0.049423579            3 
  523000      1.05351   -5.2886681     301.2385  0.047998485  0.049392972            1 
  524000      1.07582   -5.3052228    301.06455  0.047879222  0.049361732            3 
  525000    1.0211332   -5.2783384    301.82354  0.047908499  0.049330101            7 
  526000     1.064856   -5.2603541    303.55454  0.048091657  0.049299164           12 
  527000     1.032857   -5.2895385     302.3813   0.04781488  0.049268097            2 
  528000    1.0358448   -5.3259817    301.72757  0.047621144   0.04923636            3 
  529000    1.0307923   -5.3027511     302.6318  0.047673567   0.04920408            5 
  530000    1.0339354   -5.3122161    303.29347  0.047687652  0.049172215            4 
  531000    1.0351512   -5.3149952    304.03513  0.047714238  0.049140144            4 
  532000    1.0389035   -5.2787772    304.74277  0.047735396  0.049108089            3 
  533000    1.0359907   -5.3100389    304.07099  0.047540805  0.049075387            2 
  534000     1.020906      -5.2737    305.47241  0.047670476  0.049043234            6 
  535000    1.0408853   -5.2664936    305.55629  0.047594437  0.049011991            6 
  536000    1.0396069   -5.3179412    305.66393  0.047522377  0.048979968            4 
  537000    1.0474653   -5.2459355    306.78596  0.047608002  0.048947304            4 
  538000    1.0489196   -5.2516417    306.68665  0.047504129  0.048915851            3 
  539000    1.0651132   -5.3195941    306.96767  0.047459443    0.0488837            3 
  540000    1.0227598   -5.2821255    306.84321  0.047352347  0.048852106            4 
  541000    1.0277248   -5.2848683     308.8004  0.047566298  0.048820103            4 
  542000     1.039037   -5.3122596    308.69896   0.04746294  0.048788557            3 
  543000    1.0563202   -5.2602395    309.15106  0.047444915  0.048756834            3 
  544000     1.056831   -5.3181561    309.37727  0.047392351  0.048725742            2 
  545000    1.0345712   -5.3074956    309.87488   0.04738148  0.048694977            3 
  546000    1.0159318   -5.2958125    310.15112  0.047336861  0.048664837            3 
  547000    1.0511529    -5.297416    311.44165  0.047446931  0.048634571            5 
  548000    1.0345878   -5.2861103    311.86628  0.047424922  0.048604425            5 
  549000    1.0159838   -5.3056049    311.76389  0.047322995  0.048574309            3 
  550000    1.0294884   -5.2764241     311.6782   0.04722397  0.048543761            5 
  551000    1.0101021   -5.2777048    312.99662  0.047337661  0.048513778            3 
  552000    1.0382241   -5.2898158    312.79671  0.047221725  0.048483826            3 
  553000     1.020841   -5.3010719    314.05091  0.047325334  0.048453119            2 
  554000    1.0816929   -5.3378908       312.73  0.047041216  0.048422469            3 
  555000    1.0501264   -5.2700369     315.0284  0.047301561  0.048392498            3 
  556000    1.0498964   -5.2902631    315.06287  0.047221654  0.048363197            3 
  557000    1.0355301   -5.2681901    315.84108  0.047253304  0.048333233            2 
  558000    1.0383348   -5.2724811    316.95053  0.047334309  0.048304429            2 
  559000    1.0385256   -5.3304122    315.74615  0.047070088  0.048275616            2 
  560000    1.0501835   -5.3677403    317.30629  0.047218198  0.048247533            5 
  561000    1.0458335   -5.3345919     316.9695  0.047084002  0.048219635            5 
  562000    1.0434717   -5.3027599    317.85547  0.047131593  0.048191349            1 
  563000    1.0170794   -5.3424053    318.24784  0.047105956  0.048163023            3 
  564000    1.0290647   -5.3003482    319.18123  0.047160348  0.048134856            3 
  565000    1.0500175   -5.3235493    319.67777  0.047150114  0.048106973            3 
  566000    1.0486372   -5.3098924    319.18525  0.046994294  0.048079381            2 
  567000    1.0301031   -5.2897377     322.4029  0.047384317  0.048052435            3 
  568000    1.0388301   -5.3187249    321.15282  0.047117492  0.048026274            4 
  569000    1.0526073   -5.2685509    322.33457  0.047207757  0.048000123            8 
  570000    1.0153902   -5.3405908    323.04195  0.047228355  0.047974909            2 
  571000    1.0294085    -5.323249    323.39712  0.047197478  0.047948968            3 
  572000    1.0327854   -5.3259962    323.77547  0.047170086  0.047923117            2 
  573000    1.0268088   -5.2958798    325.04478  0.047272364  0.047897178            1 
  574000    1.0120595   -5.3316368    324.76769  0.047149781  0.047871709            6 
  575000    1.0248781   -5.2899445    324.87668  0.047083577  0.047846394            6 
  576000    1.0155914   -5.3226307    324.42085  0.046935886  0.047820947            2 
  577000    1.0168526   -5.3224807     325.5371  0.047015756    0.0477952            2 
  578000    1.0250543    -5.325064    325.44684  0.046921401   0.04776985            2 
  579000    1.0056706    -5.298458    325.59467  0.046861639  0.047744293            3 
  580000   0.98824137   -5.3109935     326.9526  0.046975948  0.047718699            2 
  581000    1.0477278   -5.3313379    327.42885  0.046963403  0.047692389            5 
  582000    1.0525144    -5.365345    327.05035  0.046828515  0.047666298            2 
  583000    1.0369971   -5.3228033    328.68048    0.0469812   0.04764071            4 
  584000    1.0229213   -5.3359789    327.40556   0.04671883  0.047614441            5 
  585000    1.0304049   -5.3895655    327.61861  0.046669318  0.047588426            6 
  586000    1.0204281   -5.3689511    328.75017  0.046750594  0.047561918            3 
  587000    1.0147803   -5.3344499    328.93828  0.046697655  0.047535352            2 
  588000   0.99798881   -5.3373273    329.03069  0.046631333  0.047510029            2 
  589000    1.0323455   -5.3232338    330.34808  0.046738551  0.047483948            5 
  590000    1.0171064   -5.3122068    330.45176  0.046673977  0.047458585            1 
  591000     1.003138   -5.3198924    331.89917  0.046799093   0.04743237            3 
  592000    1.0115707    -5.336057    331.15146  0.046614789  0.047405398            5 
  593000    1.0399996   -5.3627713    331.55536   0.04659294  0.047378366            4 
  594000    1.0249835   -5.3488873    331.15849  0.046458823  0.047351561            3 
  595000    1.0181163   -5.3115645    331.94725  0.046491212  0.047324445            5 
  596000    1.0312791    -5.359186     332.1948  0.046447819  0.047297009            6 
  597000    1.0009757   -5.3407605    332.62243  0.046429708  0.047269429            3 
  598000    1.0140175   -5.3490277    331.19206  0.046152739  0.047241951            4 
  599000    1.0068485   -5.3495228    330.85506  0.046028807  0.047213832            5 
  600000   0.99194528   -5.3242134    333.41372  0.046307461  0.047184751            3 
  601000    1.0146669     -5.35518    333.57592  0.046252901  0.047155693            3 
  602000   0.98656317   -5.3202429    334.05405  0.046242255  0.047126948            6 
  603000    1.0008404   -5.3272684    333.03984  0.046025406  0.047097329            2 
  604000    0.9819598   -5.3424607    333.61486   0.04602854  0.047069067            3 
  605000    1.0127504   -5.3852393     333.8713  0.045987783  0.047039709            1 
  606000    1.0035627   -5.3397547    334.34885  0.045977564  0.047010032            2 
  607000   0.98597402   -5.3871125    334.09844   0.04586744  0.046980483            4 
  608000    1.0322285   -5.3276671    334.66162  0.045869192  0.046950985            2 
  609000    1.0059205   -5.3698028    333.89557  0.045689049  0.046922134            4 
  610000    1.0184088   -5.3472078    335.39111  0.045818457  0.046892511            3 
  611000   0.99302122   -5.3524882    335.95322  0.045820133  0.046863297            4 
  612000    1.0184412    -5.370651    334.82152  0.045591165  0.046833464            3 
  613000    1.0274169   -5.3532184    337.88934  0.045933842  0.046803908            5 
  614000    1.0100537   -5.3547975    336.20993  0.045631097  0.046774295            3 
  615000   0.99905822   -5.3541294    337.80633  0.045773215  0.046744385            5 
  616000    1.0193479   -5.3433474     338.0424  0.045730844   0.04671557            1 
  617000   0.98401235    -5.363779    337.39031  0.045568653  0.046686537            2 
  618000    1.0071436   -5.3686272     338.2292  0.045608036  0.046657271            7 
  619000    1.0165762   -5.3289861    339.25276  0.045672154  0.046628379            2 
  620000    1.0039541   -5.3579222    340.31097  0.045740722   0.04660006            3 
  621000    1.0035042   -5.3432003    339.58151  0.045569177  0.046570873            3 
  622000    1.0112295    -5.350992    340.30168    0.0455924   0.04654189            2 
  623000    1.0136443   -5.3617995    340.21973  0.045508257  0.046513216            3 
  624000    1.0182464   -5.3441844    341.52771  0.045610004  0.046484634            3 
  625000   0.99450471   -5.3451209    341.95253  0.045593671  0.046456519            4 
  626000    1.0086727   -5.3643198    342.70437  0.045620923  0.046428889            5 
  627000    1.0081646   -5.3985799    342.20608  0.045481935  0.046401273            3 
  628000    1.0006627    -5.367151    343.16264  0.045536444  0.046374147            3 
  629000   0.98113692    -5.395562    343.17268  0.045465379  0.046346612           13 
  630000   0.98174395   -5.3587894    344.30107   0.04554247  0.046319853            7 
  631000   0.99307459    -5.353104     345.7476  0.045661331  0.046293107            2 
  632000    1.0136463   -5.3695642    345.84353  0.045601731  0.046265687            5 
  633000    1.0048397   -5.3496523    344.10692  0.045301069  0.046238787            3 
  634000   0.97118671    -5.336355    346.82107  0.045586366  0.046211591            2 
  635000    1.0046969   -5.3867558    347.09723  0.045550817  0.046185246            6 
  636000    1.0049524   -5.3712798    346.54531  0.045406881  0.046158085            6 
  637000    1.0098637   -5.3629091    346.95998  0.045389845  0.046131489            5 
  638000    1.0027893   -5.3635152    346.77227  0.045294183  0.046104605            2 
  639000   0.99110717   -5.4120635     347.5693  0.045327242   0.04607784            2 
  640000    0.9949011   -5.3918982    347.82949  0.045290298  0.046051053            5 
  641000     1.017413    -5.396953    348.30727  0.045281757  0.046023849            3 
  642000   0.99380199   -5.3625596    349.46542  0.045361555  0.045997058            6 
  643000    1.0041642   -5.3438316    349.99336   0.04535943  0.045970973            1 
  644000    0.9849597   -5.4090851    348.25971  0.045064662  0.045944493            3 
  645000    1.0011995   -5.3805142    350.39635  0.045270846  0.045917988            3 
  646000   0.98581461   -5.3831743     350.5687  0.045223001   0.04589192            4 
  647000    1.0056751    -5.393263    351.60193  0.045286183  0.045865945            4 
  648000    1.0019874   -5.3781386    351.99235  0.045266505  0.045840295            3 
  649000   0.99280775   -5.3668511    352.19454   0.04522272  0.045814786            2 
  650000    1.0102592   -5.3744956    351.68326  0.045087598  0.045788574            8 
  651000   0.97997363   -5.3654559    351.65136  0.045014255   0.04576228            7 
  652000   0.99141921   -5.3850963    353.97844  0.045242643   0.04573638            4 
  653000   0.99663286    -5.408299    353.59069  0.045123875  0.045711105            4 
  654000   0.98955946   -5.4013385    353.30294  0.045018214  0.045686021            4 
  655000    1.0052586   -5.3830016    355.26563  0.045199189  0.045660812           10 
  656000      1.00294   -5.3984236    353.76015  0.044939044  0.045634944            5 
  657000   0.96790946   -5.4056369    354.81581  0.045004543  0.045609031            2 
  658000   0.97598278   -5.3917569    355.96618  0.045081836  0.045582946            3 
  659000    1.0288203    -5.425134    355.31588  0.044931193  0.045556754            4 
  660000    0.9806621   -5.3590818    356.02677  0.044952875  0.045531423            3 
  661000    1.0012221   -5.3907004    356.06262  0.044889387  0.045506082            3 
  662000   0.99876191   -5.4102092    355.47912  0.044748127  0.045480896            3 
  663000    0.9896982   -5.4143668     355.9551   0.04474046  0.045455045            6 
  664000   0.99335829   -5.3750389    357.33863  0.044846716   0.04542929            3 
  665000    1.0016403     -5.36748    357.93499  0.044854009  0.045403802            3 
  666000    1.0143024    -5.391027    358.46684  0.044853209  0.045378592            2 
  667000   0.98866352   -5.3688868    359.16325   0.04487297  0.045353603            6 
  668000   0.98754977    -5.406016    358.76753  0.044756429   0.04532809            3 
  669000   0.98294803   -5.3615477    360.74477   0.04493582  0.045302859            3 
  670000   0.97215694   -5.4113385    358.34901  0.044570772  0.045278066            6 
  671000   0.96824958   -5.3926575    360.00478  0.044709982   0.04525234            5 
  672000     0.983418   -5.3854698    360.62976  0.044720952  0.045227052            4 
  673000   0.98225593   -5.3928372    360.94673   0.04469375  0.045201574            2 
  674000   0.97885152   -5.4268997    360.33309  0.044551569  0.045175157            5 
  675000   0.99087377   -5.4115004    359.76878  0.044415899  0.045148961            3 
  676000   0.97267368   -5.3748697    362.86697  0.044732121  0.045123609            2 
  677000   0.98817951   -5.4150617    361.94371  0.044552401   0.04509798            6 
  678000   0.99505905   -5.3844835    362.30968  0.044531671  0.045071919            3 
  679000   0.98607919   -5.3877137    363.69107  0.044635625  0.045046569            5 
  680000   0.97914046   -5.4288384    362.55628  0.044430916  0.045021338            3 
  681000   0.97009352   -5.3943732    362.09623  0.044309377  0.044995326            3 
  682000   0.98624653   -5.4072563    362.01922  0.044234998  0.044969596            6 
  683000   0.97806396   -5.3917786    364.92546  0.044524824  0.044943998            3 
  684000   0.99894087    -5.391317    364.04116  0.044351993  0.044917962            3 
  685000   0.97342885   -5.4296979    363.91502    0.0442719  0.044891496            4 
  686000   0.99745213   -5.4156172    364.59197  0.044289598  0.044864732            5 
  687000   0.97150041    -5.449039    364.75666  0.044245107  0.044838846            5 
  688000   0.96062601   -5.4241452    365.52487  0.044273846  0.044812573            3 
  689000   0.97495826   -5.4541317    365.01176  0.044147528    0.0447868            4 
  690000   0.97401008   -5.3882503    367.54946  0.044390031  0.044761096            2 
  691000   0.98421548   -5.3986767    367.25854  0.044290707  0.044735964            2 
  692000    0.9725268   -5.4329446    366.34766  0.044117011  0.044710313            4 
  693000    0.9684648   -5.4195875    364.70626  0.043855972  0.044684019            2 
  694000   0.98813956   -5.4413016    367.56096  0.044135562  0.044657682            7 
  695000   0.98265109   -5.4391229    366.31625  0.043922811  0.044630873            3 
  696000    1.0172379   -5.4341507    365.96992  0.043818237  0.044605083            6 
  697000   0.97608218   -5.4397544    366.71613  0.043844587  0.044578528            4 
  698000   0.97565685    -5.409349    367.74354  0.043904435  0.044551315            5 
  699000   0.98302972   -5.4189242    367.97624  0.043869366  0.044524524            4 
  700000   0.96528683   -5.3992906    367.75236  0.043780043  0.044498161            3 
  701000   0.99202295   -5.4210577    368.16934  0.043767159  0.044471085            2 
  702000    0.9715979   -5.4548926    368.11403  0.043698246  0.044444096            3 
  703000   0.98285635   -5.4574407    368.50852   0.04368285   0.04441736            5 
  704000   0.94145497   -5.4653682     368.4876  0.043618323  0.044390001            5 
  705000    0.9593765   -5.4398529    369.28491  0.043650699  0.044362642            5 
  706000   0.96969044   -5.4369257    369.72492  0.043640808  0.044335499            6 
  707000   0.99823326   -5.4702046    369.27686  0.043526268  0.044308448            6 
  708000   0.95960391   -5.4410255    370.74287  0.043637343  0.044280894            4 
  709000   0.96167608   -5.4469415    370.32799  0.043527033  0.044253621            6 
  710000   0.96605868   -5.4387519    370.92378  0.043535655  0.044225932            6 
  711000   0.96110994   -5.4113195    371.23556  0.043510966  0.044198529            3 
  712000   0.97775225   -5.4365371    370.79245  0.043397992  0.044170994            5 
  713000   0.96239182   -5.4402917    372.17885  0.043499164  0.044143502            4 
  714000    0.9727351   -5.4343145    373.25403  0.043563729  0.044116428            2 
  715000   0.96640742   -5.4530213    371.95646  0.043351569  0.044088984            4 
  716000   0.98285714   -5.4362299    372.99643  0.043412061  0.044060973            4 
  717000   0.97844769   -5.4649748    371.56518  0.043185167  0.044033373            3 
  718000   0.97524244   -5.4847512     370.5493  0.043007115  0.044005377           10 
  719000    0.9740449    -5.405322    374.77833  0.043437451  0.043978504            6 
  720000   0.96789477   -5.4581089     372.9349  0.043163762  0.043950257            5 
  721000   0.95436616   -5.4962474    371.78337  0.042970801  0.043921987            4 
  722000   0.94761349   -5.4892598     371.6842  0.042899839  0.043892968            5 
  723000   0.97718714   -5.4618696    374.09753  0.043118664   0.04386448            2 
  724000   0.96915541   -5.4409619    374.63571  0.043121053  0.043836074            3 
  725000    0.9797941   -5.4379308    373.71643  0.042955911  0.043807435            2 
  726000   0.96749461    -5.465614     373.3396  0.042853489  0.043778842            8 
  727000   0.96540868   -5.4669435    374.31721  0.042906604  0.043750143            6 
  728000   0.95082211   -5.4442317    374.81516  0.042904666   0.04372127            4 
  729000    0.9649917   -5.4928995    374.53938  0.042814287  0.043692916            2 
  730000    0.9499088   -5.4574267    375.27536  0.042839653  0.043664653            7 
  731000   0.93871244   -5.4404714    375.90623  0.042852968  0.043636149            5 
  732000   0.95518426   -5.4647949    375.90208  0.042793952  0.043607238            5 
  733000   0.97143334    -5.471466     376.6425  0.042819748  0.043578781            2 
  734000   0.95470784   -5.4265415    377.18956  0.042823519  0.043550379            2 
  735000    0.9613776    -5.450151    376.64699   0.04270374  0.043522535            4 
  736000   0.96558937   -5.4451481    378.07841   0.04280779  0.043494412            4 
  737000   0.97045125   -5.4677887    378.35964  0.042781506  0.043466279            3 
  738000   0.97736125    -5.460703    378.87597  0.042781839   0.04343813            2 
  739000   0.95649756   -5.4718761    378.42183  0.042672737   0.04341054            3 
  740000   0.97365742   -5.4612791    379.79642  0.042769867  0.043382578            6 
  741000   0.97937565   -5.4608407    379.22652  0.042648057  0.043354351            7 
  742000   0.94523958   -5.4746629     379.3837  0.042608233  0.043326448            2 
  743000   0.95874565   -5.4645509    380.54478   0.04268111   0.04329837            3 
  744000   0.96838593   -5.4483963    380.46409  0.042614706   0.04327119            4 
  745000    0.9564428   -5.4585658    381.48213  0.042671379  0.043244273            3 
  746000    0.9511859     -5.45143    381.86689   0.04265716  0.043217864            2 
  747000   0.97096851   -5.4551935    383.36628  0.042767323  0.043190968            5 
  748000   0.95737992   -5.4596292    382.25057  0.042585848  0.043164404            6 
  749000   0.97119886   -5.4587502    382.67859  0.042576613  0.043137757            4 
  750000   0.95372464   -5.4566127    382.69594  0.042521771  0.043111428            3 
  751000   0.96836694   -5.4934597    382.36782  0.042428741  0.043084534            6 
  752000   0.93894653   -5.4900991    382.31156  0.042366086  0.043057473            4 
  753000   0.94107927   -5.4686057    383.71904  0.042465587  0.043030409            5 
  754000   0.93126952   -5.4869591    383.91909  0.042431376  0.043003565            4 
  755000   0.96106165   -5.4578119    383.25261  0.042301612  0.042976539            4 
  756000   0.95597225   -5.4697658    384.81238   0.04241759  0.042949416            8 
  757000   0.95907185    -5.437834    384.84358  0.042364991  0.042923031            2 
  758000    0.9447737   -5.4885974     384.3238  0.042251957  0.042896415            4 
  759000    0.9415198   -5.4581265    386.61978  0.042448373  0.042869606            6 
  760000   0.94433753   -5.4757289    385.49032  0.042268675  0.042842513            3 
  761000   0.95016178   -5.5091762    383.98302  0.042048074  0.042815368            5 
  762000   0.93770488   -5.4589083    387.06971  0.042330458  0.042788701            4 
  763000   0.97171393   -5.4885739    385.31135  0.042082934  0.042761977            7 
  764000   0.94342052   -5.4896197    387.16034  0.042229531  0.042735258            7 
  765000   0.93614833   -5.4920457    387.65197  0.042227884  0.042708923            4 
  766000   0.95342236   -5.4621415    388.49891  0.042264895  0.042682662            3 
  767000   0.94432148   -5.4909409    387.70142  0.042123144  0.042656392           15 
  768000   0.94154302   -5.4971189    388.29159  0.042132334  0.042630269            4 
  769000   0.95312393   -5.4999655    388.48603  0.042098616  0.042603758            5 
  770000   0.95730412   -5.4833839    389.66396  0.042171424  0.042577529            3 
  771000   0.93292453   -5.5369328    388.57334  0.041998847  0.042551511            5 
  772000   0.95076875   -5.4991341    389.74771  0.042071212  0.042525338            4 
  773000   0.91753997    -5.508382    389.42885  0.041982412  0.042499391            7 
  774000   0.93659956   -5.5031897    388.68542  0.041848129  0.042473521            4 
  775000   0.92840542   -5.5027652    390.99457  0.042042427  0.042448032            8 
  776000   0.94407756   -5.4808575     391.3963   0.04203139  0.042422052            4 
  777000   0.94639182   -5.4885509    391.11505  0.041947131  0.042396182            4 
  778000   0.93969643   -5.4710806    393.12497  0.042108501  0.042370388            5 
  779000   0.95341459    -5.485539    390.42062   0.04176515  0.042344878            4 
  780000   0.94099944   -5.5170591    391.63902  0.041841776  0.042318781            2 
  781000   0.92858761   -5.5087542    392.74963  0.041906704  0.042292862            5 
  782000   0.93013515   -5.4872921    392.36274  0.041811886  0.042267102            5 
  783000     0.964981   -5.5302346    392.10474  0.041731028  0.042241126           12 
  784000   0.95142565   -5.5200597    393.31744  0.041806701  0.042215433            3 
  785000   0.93249171   -5.5326328    394.33804  0.041861788  0.042189788            3 
  786000   0.94350479   -5.4921657    394.17468  0.041791209  0.042164674            4 
  787000   0.93976501    -5.468229    394.44437  0.041766663  0.042139669            2 
  788000    0.9314167   -5.4823739    394.20863   0.04168873  0.042114115            7 
  789000    0.9376885   -5.4873991    394.57463  0.041674549  0.042088695            5 
  790000   0.95229291   -5.5205596    393.40791  0.041498724  0.042062876            6 
  791000    0.9584354   -5.4768408    396.27864  0.041748698  0.042037387            2 
  792000   0.93030545   -5.4562121    396.52004  0.041721384  0.042012101            4 
  793000   0.95251933   -5.5323959     395.7352  0.041586297  0.041986572            2 
  794000   0.92171235   -5.5315265    396.29017  0.041592167  0.041960995            3 
  795000   0.92190639   -5.5423354    396.14877  0.041525029   0.04193574            8 
  796000   0.96312942   -5.4897934     397.7368  0.041639113  0.041910838            4 
  797000    0.9098979    -5.536964    396.53409  0.041461114  0.041885651            6 
  798000   0.90447167   -5.5181116    397.25796  0.041484749  0.041860342            5 
  799000     0.945151   -5.4722891    399.31253  0.041647114  0.041835559            3 
  800000   0.94108564    -5.564297    397.67762  0.041424752  0.041810623            7 
  801000   0.95119381   -5.5165885    398.70805  0.041480239  0.041785292           10 
  802000   0.94791754   -5.4988573    400.04987  0.041567942  0.041760435            5 
  803000   0.93094253   -5.5039208    398.79868   0.04138633  0.041735654            5 
  804000   0.93388818   -5.5080172    398.94252  0.041349764   0.04171069           13 
  805000   0.94451016   -5.5132443     399.4827  0.041354316   0.04168524            2 
  806000   0.93889493   -5.5160928    399.30214   0.04128434  0.041659603            6 
  807000   0.89996252   -5.5376739    399.86676  0.041291487  0.041634176            3 
  808000    0.9118007   -5.5410505    399.88317  0.041242076  0.041609102            6 
  809000   0.91303025   -5.4989654     402.2075  0.041430521  0.041583898            3 
  810000   0.92513964   -5.5203095    400.30699  0.041183847  0.041558764            3 
  811000   0.93305997   -5.5550991    400.58984  0.041162129  0.041533464            5 
  812000   0.91084174   -5.5189681     401.7741  0.041232974  0.041507978            6 
  813000   0.95177138   -5.5180047    402.88076  0.041295691  0.041483229            3 
  814000   0.92253515   -5.5190678    402.63392  0.041219689  0.041458062            3 
  815000   0.93048712   -5.5300758    403.71456  0.041279608  0.041433705            3 
  816000   0.92830052   -5.5248606    403.49776  0.041206879  0.041408881            7 
  817000   0.92803343   -5.5405651    402.68074  0.041073107   0.04138448            7 
  818000   0.92371604   -5.5494955    404.61415  0.041219861  0.041359995            4 
  819000   0.91863901   -5.5412148    403.07903  0.041013332  0.041335777            4 
  820000   0.91963546   -5.5095088    403.82894  0.041039526  0.041311089            4 
  821000   0.91680779   -5.5228772    405.53726  0.041162937  0.041286838            3 
  822000   0.91095343   -5.5113197    405.09991  0.041068523  0.041262613            3 
  823000   0.91365766   -5.5409025    405.06663  0.041015252  0.041238269            3 
  824000   0.91532619   -5.5264836    405.38359  0.040997532  0.041213788            5 
  825000   0.91298425   -5.5315787    406.14709  0.041024958  0.041189223            3 
  826000    0.9510688   -5.5275392    406.70507  0.041031585  0.041164679            6 
  827000   0.92363435   -5.5138384     407.2756  0.041039459  0.041140444            2 
  828000   0.94076709   -5.5442681    407.16673  0.040978938  0.041116131            5 
  829000    0.9321711   -5.5343063    407.17062  0.040929898  0.041091971            3 
  830000   0.91509483   -5.5408423    407.87442  0.040951247  0.041067937            4 
  831000   0.92853647   -5.5379718    407.24676  0.040839025  0.041043744            6 
  832000   0.91869158   -5.5224982    408.45221  0.040910678  0.041019749            5 
  833000   0.90717034   -5.5416482    409.62999  0.040979391  0.040995877            5 
  834000   0.92357649   -5.5647262    408.62468  0.040829805  0.040972054            5 
  835000   0.91076747   -5.5388828     408.9646  0.040814831  0.040948129           19 
  836000   0.91091706   -5.5380756    408.89432  0.040759003  0.040923779            9 
  837000   0.91997888   -5.5411875    409.24504  0.040745225  0.040899676            7 
  838000   0.92549241   -5.5699465     409.1012  0.040682299  0.040875722            4 
  839000    0.9117134   -5.5237035    410.50242  0.040772986  0.040851908            3 
  840000   0.90776811   -5.5581651    409.81967  0.040656713  0.040828097            9 
  841000   0.93114707   -5.5614023    410.40572  0.040666441  0.040804066            3 
  842000   0.91673378   -5.5236731    411.20038  0.040696792  0.040780134            3 
  843000   0.92818725   -5.5410408    411.45516  0.040673701  0.040756297            4 
  844000   0.88130832   -5.5289303    411.77428  0.040657018  0.040732871            2 
  845000   0.90334781   -5.5577544    412.83543  0.040713553  0.040709274            4 
  846000   0.92332601   -5.5690769    413.99524  0.040779673  0.040686084            5 
  847000    0.9071968   -5.5909093    413.25825  0.040659017    0.0406625            4 
  848000   0.90518827   -5.5289469    414.09846  0.040693638  0.040639329            8 
  849000   0.92646547   -5.5612785    412.77017  0.040515328  0.040616262            3 
  850000   0.91652744   -5.5601167    413.81097  0.040569703  0.040592589            6 
  851000   0.91207763   -5.5485654    414.26367  0.040566361  0.040569076            6 
  852000   0.91125382   -5.5609346    413.93878   0.04048697  0.040546397            5 
  853000    0.9098554   -5.5747743    414.66284  0.040510242   0.04052365            4 
  854000   0.91151747   -5.5582586    416.49721  0.040641804  0.040500939            4 
  855000   0.92709073   -5.5764104    415.93219    0.0405392  0.040478252            4 
  856000   0.92428154   -5.5668603    415.09054  0.040409905  0.040455414            8 
  857000   0.91812887   -5.5580824    416.07086  0.040458077  0.040432897            4 
  858000    0.9020108   -5.5577706    416.15464   0.04041906  0.040409901            4 
  859000   0.90204727   -5.5300785    417.54759  0.040507139  0.040387269            5 
  860000   0.90700569   -5.5776387    415.75754  0.040286583  0.040364386            4 
  861000   0.88547325    -5.553184    416.07749   0.04027076  0.040341368            7 
  862000   0.89469521   -5.5797856    418.07057  0.040416721  0.040318292            5 
  863000   0.90908916   -5.5821408    417.26965   0.04029255  0.040295451            2 
  864000   0.89221456   -5.5819775    416.88095  0.040208425   0.04027237            5 
  865000   0.90400078   -5.5961194    417.73421  0.040244144   0.04024889            4 
  866000   0.90392643   -5.5592378    417.93675  0.040217162  0.040225746            6 
  867000   0.91454446   -5.6015786    418.07729  0.040184284  0.040202766           11 
  868000   0.90469877   -5.5650819    419.39753   0.04026474  0.040180053            4 
  869000   0.91568465   -5.5936631    418.12968  0.040096824  0.040157289            4 
  870000   0.89883304   -5.5878344     418.3116  0.040068161  0.040134544           11 
  871000   0.91531718   -5.5708471     419.4523  0.040131295  0.040111653            5 
  872000   0.90733225   -5.5363682    421.37286  0.040268813   0.04008928            6 
  873000   0.92003215   -5.5780759    421.35199  0.040220694  0.040067265            6 
  874000   0.88401353   -5.5722032    421.67291  0.040205274  0.040044964            6 
  875000   0.90162919   -5.5757229    419.71013  0.039972393  0.040022647            3 
  876000   0.86931987   -5.6162477    419.45031  0.039902046  0.040000072            9 
  877000   0.90717299   -5.5699424    421.52575  0.040053758  0.039977229            3 
  878000   0.90402466   -5.5968317    420.92323  0.039950952   0.03995446            7 
  879000   0.91752075   -5.5949895    421.70346  0.039979471  0.039931645            7 
  880000   0.91152907   -5.5789987    422.39228  0.039999269  0.039908755            3 
  881000   0.89135316   -5.5879442    422.74902  0.039987611  0.039885961            3 
  882000   0.88545959     -5.55821    423.07987  0.039973533  0.039863193            6 
  883000   0.88705567   -5.5830391    423.84064   0.04000006  0.039840919            4 
  884000   0.91045999   -5.5847949    423.41847  0.039915014  0.039818722            5 
  885000   0.90293651   -5.6273741    421.38198  0.039678153  0.039795977           10 
  886000      0.90743    -5.598348    423.53369  0.039835749  0.039772911            7 
  887000   0.89829204     -5.59876     422.7276  0.039715107  0.039750341            3 
  888000   0.92212593   -5.5933256    422.47777  0.039646938  0.039727311           13 
  889000   0.90150622   -5.6159649    423.45555  0.039693996  0.039704489           10 
  890000    0.8754661   -5.5785709    423.99409  0.039699821  0.039681562            4 
  891000   0.89627986   -5.6175897    425.33474  0.039780653  0.039658441            7 
  892000   0.88325609   -5.6242813    423.56778  0.039570981  0.039635281            5 
  893000   0.91141467   -5.5763704    424.87755  0.039648894   0.03961181            2 
  894000   0.90061207   -5.6212398    422.95957  0.039425762  0.039588746            6 
  895000   0.90123448    -5.602486    425.57282  0.039625029  0.039565826            6 
  896000   0.88272564   -5.5841715    425.84598  0.039606211  0.039543107            5 
  897000   0.88206902   -5.5963734    426.14746  0.039590065  0.039520567            6 
  898000   0.88904298   -5.5780048    424.79494  0.039420466  0.039497935            3 
  899000   0.90861216   -5.5726814    426.87554  0.039569479  0.039475303            5 
  900000   0.88942671   -5.5955599    424.80492  0.039333788  0.039452595            3 
  901000   0.89404489   -5.5767868    425.26509  0.039332694  0.039429593            5 
  902000   0.89323363   -5.5951932    426.85231  0.039435727  0.039406539            7 
  903000   0.90228909   -5.6070746    427.68317  0.039468731  0.039383568            4 
  904000   0.87362075   -5.5821635    426.10761  0.039279832  0.039360785            6 
  905000   0.87851522   -5.6039953    428.31695  0.039439867  0.039337509            2 
  906000   0.88728687   -5.6105887    425.74694  0.039159946  0.039313949            8 
  907000   0.91117515   -5.6125998    426.30379  0.039167934  0.039290119            7 
  908000   0.90575061    -5.606459    426.00019  0.039096933  0.039266335            6 
  909000   0.90107613   -5.6234481    427.33104  0.039175929  0.039242764            4 
  910000   0.88809766   -5.5908884    427.21582  0.039122328  0.039218943            4 
  911000    0.8807789    -5.645725    427.32367  0.039089249  0.039195123            5 
  912000   0.89393364   -5.6040905    428.66076  0.039168563  0.039171253            9 
  913000   0.88547333     -5.63048    427.30008  0.039001468  0.039147574            4 
  914000   0.88288149   -5.6047515    428.15159  0.039036432  0.039124027            4 
  915000   0.90197998   -5.6179463    429.00448  0.039071447    0.0391008            6 
  916000   0.89857862   -5.6304456    428.03517  0.038940609  0.039077101            7 
  917000    0.8706502   -5.6199942    429.86405  0.039064344   0.03905366            5 
  918000   0.90179163   -5.5832808    430.67017  0.039094968  0.039030415            8 
  919000   0.87296315   -5.6237313    429.19875  0.038919002  0.039007068            3 
  920000   0.90029214    -5.627298     429.0994  0.038867699  0.038983633            6 
  921000   0.89064173   -5.6191494    429.33432  0.038846754   0.03896034            8 
  922000   0.89261461   -5.6474358    430.96394  0.038951911  0.038936724            8 
  923000    0.8983782    -5.596067    431.00592    0.0389135  0.038913419            5 
  924000   0.85896264    -5.603049     430.4338  0.038819787   0.03889019            5 
  925000   0.87540978    -5.601878    431.50184   0.03887404  0.038867068            3 
  926000   0.87423597   -5.6238609    431.97688  0.038874809  0.038843946            8 
  927000   0.88241219   -5.6487225     432.2417  0.038856679  0.038820927            3 
  928000     0.883613   -5.6445605    431.86583  0.038781055  0.038797704            7 
  929000    0.9035675   -5.6660601    432.36988  0.038784524  0.038774708           10 
  930000   0.88888558   -5.6228568    431.57521  0.038671614  0.038751317            7 
  931000    0.8760412   -5.6357444    432.69108  0.038729957   0.03872803            6 
  932000   0.89115846   -5.6100795    431.90222  0.038617866  0.038704466            3 
  933000   0.88566345   -5.6277278    432.75758  0.038652875   0.03868095            3 
  934000   0.86046186   -5.5965198    433.48413  0.038676315  0.038657668            4 
  935000   0.88993314   -5.6125992    434.01702  0.038682444  0.038634561            5 
  936000   0.87211032    -5.608029    433.72723  0.038615316  0.038611487            5 
  937000   0.87026232   -5.6212928    434.44183  0.038637658  0.038588236            5 
  938000   0.88705365   -5.6489811    433.53399  0.038515813   0.03856452            8 
  939000   0.87229577   -5.6489226    433.30051  0.038454074  0.038541188            4 
  940000   0.86306635   -5.6584481    433.41966  0.038423729  0.038517849            5 
  941000   0.89337467   -5.6792317    433.15935  0.038359844   0.03849436            7 
  942000   0.88330951   -5.6362981    435.11691  0.038492295  0.038470665            7 
  943000   0.87815531    -5.641863    434.25847  0.038375616  0.038447399            5 
  944000    0.8808281   -5.6134255    435.82402  0.038473166  0.038424072            6 
  945000    0.8684794   -5.6487865    434.13159  0.038283209   0.03840059            5 
  946000   0.88333397   -5.6477165    436.08722  0.038415013  0.038377428            7 
  947000   0.86840697   -5.6147999    436.13032   0.03837824  0.038354395            4 
  948000   0.88710055   -5.6640103    435.48463  0.038280997  0.038331159           15 
  949000    0.8808402   -5.6295066    436.73016  0.038350031  0.038307977            4 
  950000   0.88549853   -5.6534789    438.05202  0.038425616  0.038285343            2 
  951000    0.8737665   -5.6375823    436.84316  0.038279281  0.038262375            7 
  952000   0.89661645   -5.6463227    438.11102  0.038350054  0.038239493            6 
  953000   0.85511133   -5.6615491    436.40381  0.038160529  0.038216547            2 
  954000   0.87839446   -5.6550751    437.30408  0.038199169  0.038193323            6 
  955000   0.88654429   -5.6590851    439.44549  0.038346029  0.038170445            7 
  956000   0.88309126   -5.6581761    439.80341  0.038337117  0.038147661            9 
  957000   0.88998693   -5.6514233    437.82945   0.03812517  0.038124973            7 
  958000   0.87838568   -5.6477234    437.70303  0.038074376  0.038102298            5 
  959000   0.87661829   -5.6251176    439.92876  0.038228081  0.038079839            4 
  960000   0.87041267    -5.644894    438.57036  0.038070344  0.038057285            6 
  961000   0.87147608   -5.6423428    441.16768  0.038255956  0.038034823            4 
  962000   0.87450379    -5.644017    441.73981  0.038265749  0.038012719            4 
  963000   0.85765839   -5.6293238    439.85877  0.038063237  0.037989976            6 
  964000   0.85755719   -5.6376566    438.78652  0.037931062  0.037967378            8 
  965000   0.87369991   -5.6318218    440.16685  0.038010954  0.037944488           10 
  966000   0.87234909   -5.6514256    440.15189  0.037970315  0.037922027            3 
  967000   0.88587212   -5.6568008    441.03239  0.038006928  0.037899397            3 
  968000   0.85952458   -5.6476058    441.19935  0.037982037  0.037876427            6 
  969000   0.86876593   -5.5947836    443.13474  0.038109283  0.037853953            6 
  970000   0.86591059   -5.6466981    440.13779  0.037812524  0.037831392            7 
  971000   0.85306076   -5.6915805    441.94099  0.037928338  0.037808671            6 
  972000   0.85500528   -5.6469158    443.11591  0.037990047  0.037786071            6 
  973000   0.86140553    -5.623317    442.26403  0.037878043  0.037763772            5 
  974000   0.85710948   -5.6717677      441.753  0.037795431  0.037740901            5 
  975000   0.85035423   -5.7082809    440.94496  0.037687604  0.037718017            6 
  976000   0.84509376    -5.663571    442.81294  0.037808482  0.037695273            4 
  977000   0.86189267     -5.68197    442.54734  0.037747129  0.037672476            6 
  978000   0.85093312   -5.6827662    442.20624  0.037679468  0.037649283            5 
  979000   0.85899651   -5.6800226    442.95462  0.037704683  0.037626063            5 
  980000    0.8562637   -5.6710624    442.99695  0.037669809   0.03760303            9 
  981000   0.89122938   -5.6627373    443.24268  0.037652283  0.037580124            6 
  982000   0.86387764   -5.6597224    444.43106  0.037714788  0.037557363            6 
  983000   0.88215746   -5.6683018    444.27424  0.037663126  0.037534927           10 
  984000   0.86052602   -5.6369086    444.21735  0.037620033  0.037512647            7 
  985000    0.8724505   -5.6965683    443.94433  0.037558742   0.03748991            5 
  986000   0.85367554   -5.6901026    444.10843  0.037534519  0.037466862            4 
  987000   0.88412841   -5.6649233    443.87316  0.037476626  0.037443994            5 
  988000   0.84847501   -5.6983513    443.60443  0.037416028  0.037421077            6 
  989000   0.86706406   -5.6489527    445.61512  0.037547617  0.037398261            8 
  990000   0.84584104   -5.6722263     443.6358  0.037343081  0.037375786            5 
  991000   0.85299294   -5.6895861    444.93429  0.037414589  0.037352928            9 
  992000   0.86383768    -5.701729    445.53702  0.037427505  0.037330198            9 
  993000   0.86694185   -5.6582998    447.10256  0.037521195  0.037307693            5 
  994000   0.84290279   -5.6919193    446.33383     0.037419  0.037285193            3 
  995000   0.83582726   -5.6881639    447.08027  0.037443909  0.037262623            4 
  996000   0.85105223   -5.6976057    445.68764  0.037289796  0.037239772           17 
  997000   0.87614507   -5.6985742    447.15823  0.037375312  0.037216894            3 
  998000   0.84734612   -5.6620913    446.90735  0.037316913  0.037194161           12 
  999000   0.84662781   -5.6644468     447.1904   0.03730317  0.037171632            6 
 1000000   0.84878361   -5.6573956    448.39366  0.037366138  0.037148956            4 
 1001000   0.86404703   -5.6958402     446.0688  0.037135264  0.037126053            4 
 1002000    0.8498066   -5.6759712    446.53228   0.03713675  0.037102979            6 
 1003000   0.85423195   -5.6878287    448.12483   0.03723204  0.037079901            4 
 1004000   0.84849836   -5.6800866    448.60221  0.037234579  0.037057327            5 
 1005000   0.84903488   -5.6740208    447.89489   0.03713888  0.037034548            6 
 1006000   0.85091778   -5.6915064     447.6317   0.03708016  0.037011974            6 
 1007000   0.88060699   -5.7076126    446.55631  0.036954345  0.036989204            4 
 1008000   0.86587316   -5.6717724    447.81158   0.03702146  0.036966601            3 
 1009000    0.8435961   -5.7174891    448.40421  0.037033714  0.036943615           12 
 1010000   0.85830552   -5.6901925    448.97333  0.037044004  0.036921002            8 
 1011000    0.8461141    -5.717819    447.59812  0.036894009  0.036898076            5 
 1012000   0.84535115   -5.7076339    448.77966  0.036954847  0.036875359            7 
 1013000   0.82598244   -5.7008523    449.02966  0.036938932  0.036852623            8 
 1014000     0.837871   -5.6919893    450.62427  0.037033553  0.036829955            4 
 1015000   0.86218918   -5.6912565    450.34663  0.036974272  0.036807327            5 
 1016000   0.85687705   -5.6999235    450.89864  0.036983156  0.036785197            5 
 1017000   0.83449763   -5.7030991    450.96763  0.036952444  0.036763182            4 
 1018000   0.83243105   -5.7162983    450.02131   0.03683868   0.03674091            6 
 1019000   0.85546044   -5.7353073    449.80387  0.036784745  0.036718568            5 
 1020000   0.84119489    -5.707743    450.60839  0.036814411  0.036695877           14 
 1021000   0.85012063    -5.697368    449.68986  0.036703384   0.03667331            6 
 1022000   0.84335034   -5.6871349    451.16138  0.036787458  0.036651043           14 
 1023000   0.83609214   -5.7101366    452.52577   0.03686264  0.036628781            8 
 1024000   0.84099124   -5.6940684    453.62808  0.036916347  0.036606677            5 
 1025000   0.84086438   -5.7650434    451.40938   0.03669995  0.036584345            7 
 1026000   0.84490627   -5.7286799    451.15303  0.036643359  0.036561745            8 
 1027000   0.85345664    -5.721917    452.26794  0.036698145   0.03653941           11 
 1028000   0.84301126   -5.7006989    452.90791  0.036714324  0.036517124            2 
 1029000   0.85297783     -5.69642    453.55914  0.036731385  0.036494863            7 
 1030000   0.83109431   -5.7327707    452.07342  0.036575519  0.036472647            4 
 1031000   0.84581457   -5.6927439    453.77885   0.03667789  0.036450405           10 
 1032000   0.84557485    -5.716135    453.38279  0.036610368  0.036428233            7 
 1033000   0.82613367   -5.7180575    453.67561  0.036598549  0.036406188            7 
 1034000   0.83413862   -5.7265483    453.97833  0.036587551  0.036384142            7 
 1035000   0.85784618   -5.7289706    454.84528  0.036622003  0.036362132            5 
 1036000   0.85139436   -5.6943495    456.06053  0.036684405  0.036340282            4 
 1037000    0.8377149   -5.7323695    455.66515  0.036617257   0.03631843            3 
 1038000   0.84100352   -5.7199871    453.92243   0.03644207  0.036296599            5 
 1039000   0.83158967   -5.7128715    455.45865  0.036530209  0.036274764           10 
 1040000   0.82669954   -5.7728602    453.14072  0.036309353  0.036252665            6 
 1041000   0.83858749   -5.7629933    454.12386  0.036353175  0.036230493            7 
 1042000   0.84102495   -5.7204705    455.43397  0.036423062  0.036208466           10 
 1043000   0.83569458   -5.7285268    456.06544  0.036438594  0.036186747            5 
 1044000   0.83649248   -5.7267961    456.02779  0.036400686  0.036164957            3 
 1045000   0.82289142   -5.7470678    455.88412  0.036354395  0.036142787            4 
 1046000    0.8422294   -5.7348355    457.06869  0.036414013  0.036120775           17 
 1047000   0.83369285   -5.7425383    456.25653  0.036314592  0.036098815           10 
 1048000   0.84203478     -5.72753    455.79176  0.036242983   0.03607661            7 
 1049000   0.83207133   -5.7268961     456.2311  0.036243335  0.036054399            4 
 1050000   0.83911192   -5.7225253    456.89763  0.036261716  0.036032647            3 
 1051000   0.84591484   -5.7368025    457.44023  0.036270237  0.036010984           18 
 1052000   0.82603461   -5.7275545    458.79376  0.036342978  0.035989394            4 
 1053000   0.84516525   -5.7505885    456.39971  0.036119002  0.035967679            5 
 1054000    0.8430306   -5.7216766    458.75996  0.036271344  0.035946094            3 
 1055000   0.84204106   -5.7610884    458.16035  0.036189601  0.035924469            5 
 1056000   0.83108129   -5.7381606    458.28244  0.036164965  0.035902694            8 
 1057000   0.85006887   -5.7542967    458.53018  0.036150282  0.035880855            8 
 1058000    0.8413956   -5.7297218    459.48862  0.036191606  0.035859271            7 
 1059000   0.81937424    -5.740689    459.12195  0.036128576  0.035837849            7 
 1060000   0.82480145   -5.7106968    460.07586  0.036169485  0.035816454            3 
 1061000   0.84624229   -5.7217272      460.436  0.036163682  0.035794961            7 
 1062000   0.83807684   -5.7209923    460.17538  0.036109179  0.035773315            3 
 1063000   0.84415035   -5.7608954    458.59495  0.035951313  0.035751606            5 
 1064000   0.82112566   -5.7105278    460.23757  0.036046175  0.035729485            4 
 1065000    0.8421817   -5.7716432    459.18682  0.035930111  0.035707521            3 
 1066000   0.82008473    -5.723058    460.97562  0.036036243  0.035685738            3 
 1067000   0.82202179   -5.7528394    459.27238  0.035869446  0.035663724           13 
 1068000   0.83126808   -5.7650099    460.03366   0.03589526  0.035641771            3 
 1069000   0.83094116   -5.7315883    460.01303  0.035860074  0.035619894            7 
 1070000   0.82835983   -5.7513431    459.39655  0.035778548  0.035597729            6 
 1071000   0.83521586    -5.763958    460.06964  0.035797513  0.035575523            6 
 1072000   0.83706733   -5.7599915    459.69563  0.035735046  0.035553264            5 
 1073000   0.81911861   -5.7417211    459.74222  0.035705361  0.035531127            6 
 1074000   0.82282015   -5.7835102    460.47607  0.035729056  0.035508801            6 
 1075000   0.81497645   -5.7420116     460.5893  0.035704597  0.035486644            7 
 1076000   0.83347016   -5.7337278    460.81567  0.035688946  0.035464597            4 
 1077000   0.84540091   -5.7348846    460.46539  0.035628706  0.035442498            7 
 1078000   0.83499265   -5.7833617    459.28613  0.035504493  0.035420618           10 
 1079000   0.81482911   -5.7597882    461.72028  0.035659583  0.035398815            5 
 1080000   0.81950988   -5.7638327    460.42907  0.035526935   0.03537681            2 
 1081000   0.82579275   -5.7554824    460.51027   0.03550033  0.035354773            3 
 1082000   0.82955647   -5.7269734    461.87801   0.03557286  0.035333185            6 
 1083000   0.82815095   -5.7591015    463.19188  0.035641111  0.035311828            4 
 1084000   0.82401541   -5.7749447    460.97286  0.035437643  0.035290287            5 
 1085000   0.82544171   -5.7678149    462.79479  0.035544914  0.035268546            7 
 1086000   0.81481417   -5.7808398    461.94129  0.035446692   0.03524666           13 
 1087000   0.80579819   -5.7683933    464.06433  0.035576843  0.035224869            5 
 1088000   0.82659163   -5.7636263    463.95306   0.03553562  0.035203423            5 
 1089000   0.82934161    -5.761701    464.20515   0.03552228  0.035182128            2 
 1090000   0.79413511   -5.7761669    463.79192  0.035458098  0.035160473            5 
 1091000   0.82565464   -5.7928827    463.99142  0.035440836  0.035138892            5 
 1092000   0.80039547   -5.7825678    463.74456  0.035389542  0.035116979            4 
 1093000   0.82003884   -5.7734405     462.3194  0.035248505  0.035094889            3 
 1094000   0.83470792   -5.7287847    464.97662  0.035418694  0.035073231           10 
 1095000    0.7955295   -5.7910055    463.31035   0.03525954  0.035051441            8 
 1096000   0.81418547   -5.7811493    463.81347  0.035265622   0.03502945            5 
 1097000    0.8153356    -5.784421     463.4831  0.035208379  0.035007325            9 
 1098000   0.82895475   -5.7825391    463.66121  0.035189831  0.034985156            5 
 1099000   0.81478152   -5.7917475    463.80881  0.035169003  0.034963249            7 
 1100000    0.8219228   -5.7943383    464.90606  0.035220156  0.034941456            6 
 1101000    0.8063617   -5.7790955    464.51702  0.035158721   0.03491951            9 
 1102000   0.82590201   -5.7739988    463.60881  0.035058138  0.034897687            8 
 1103000   0.81886775   -5.7788665    465.26569  0.035151533  0.034875778            5 
 1104000     0.818874   -5.8007868    464.02176  0.035025797   0.03485403            9 
 1105000   0.80395687   -5.7663954     465.1175  0.035076734   0.03483218            6 
 1106000    0.8211606   -5.7952988    464.85136  0.035024967  0.034810184            6 
 1107000   0.80518448   -5.8097339    464.70699   0.03498246  0.034788357            6 
 1108000   0.83241653   -5.7989178    466.45275  0.035082186   0.03476641            7 
 1109000   0.85384975   -5.7744768     465.6146  0.034987571  0.034744787            9 
 1110000   0.81722875   -5.7854653    466.12197  0.034994142  0.034723079           14 
 1111000   0.80681492   -5.7688866    465.33521  0.034903631  0.034701408            6 
 1112000   0.81317233   -5.7888489     466.3461  0.034947999  0.034679581            7 
 1113000   0.81489887   -5.7832378    465.68232    0.0348669  0.034657994            4 
 1114000   0.80014963   -5.8052734    467.04075   0.03493722  0.034636385            8 
 1115000   0.82220434   -5.8251323    466.82573  0.034889816  0.034614779            5 
 1116000   0.82167192   -5.8299449    467.19662  0.034886247  0.034593081            5 
 1117000   0.79939922   -5.7947011    467.95225  0.034911388  0.034571414            5 
 1118000   0.80373208   -5.7991182    465.78212  0.034718405  0.034549708           10 
 1119000   0.81314045   -5.8076184    466.73677  0.034758473  0.034527804            7 
 1120000   0.79993003   -5.7696719    467.00112  0.034747107  0.034506071           10 
 1121000   0.80776934   -5.7742157    468.07873  0.034796218  0.034484291           11 
 1122000   0.82514579    -5.807737    468.15469  0.034770847  0.034462598            3 
 1123000   0.78624854   -5.8061257    467.35754  0.034680732  0.034440758           13 
 1124000   0.81484188   -5.7857262    466.99924  0.034623313  0.034419034           10 
 1125000    0.8123647   -5.7435112    468.35238  0.034692769  0.034397612           15 
 1126000   0.80471721   -5.8068219    468.26083  0.034655183  0.034376026            4 
 1127000    0.7978852   -5.8413323    467.06669  0.034536135  0.034354087            6 
 1128000   0.79160439   -5.8372573    467.14353  0.034511195  0.034331917           12 
 1129000   0.80088934   -5.8012885    468.89027  0.034609556  0.034310093            9 
 1130000   0.80322363   -5.8132592    468.24513  0.034531352    0.0342883           11 
 1131000   0.81336883   -5.8399987    468.03771  0.034485537  0.034266382            9 
 1132000   0.79768378   -5.8266578    467.80972  0.034438289  0.034244451            8 
 1133000   0.79218962   -5.8439847    466.90738  0.034341526  0.034222548           11 
 1134000   0.79920278   -5.8323044    469.20373  0.034479992  0.034200524            7 
 1135000    0.8025223   -5.8153328    468.00304  0.034361457  0.034178542            4 
 1136000    0.7975437   -5.8186243    467.69023  0.034308262   0.03415673           15 
 1137000   0.81126469   -5.8247721     469.5776  0.034416418  0.034134765            7 
 1138000   0.79864797   -5.8301329    470.66365  0.034465704  0.034113021           10 
 1139000   0.78535792   -5.8309546    469.42285  0.034344662  0.034091446            7 
 1140000   0.78458393   -5.8222754    470.57748  0.034398939  0.034069698           11 
 1141000   0.81027264   -5.8336944    468.98222   0.03425228  0.034047932            9 
 1142000   0.80783597   -5.8194637    470.18992  0.034310414  0.034026268            7 
 1143000   0.79140713   -5.8287644    469.50616  0.034230545  0.034004396            6 
 1144000   0.79515106    -5.792815    470.52434  0.034274791  0.033982506            3 
 1145000   0.79482652   -5.7948731    469.78539  0.034191076  0.033960994            6 
 1146000   0.80753794   -5.8077351    469.97086  0.034174728  0.033939191            9 
 1147000   0.79488087     -5.83307    469.32888  0.034098291  0.033917544            9 
 1148000   0.78696052   -5.7925954    471.82723  0.034249944  0.033895842            8 
 1149000   0.79024948   -5.8579425    467.17717  0.033882882  0.033873871            2 
 1150000   0.78196937   -5.8199091    469.57815  0.034027402   0.03385191            4 
 1151000    0.7969183   -5.8392275    469.91138  0.034021965   0.03382996            7 
 1152000   0.79064092   -5.8228517    469.84657  0.033987744  0.033807944            9 
 1153000   0.78580649   -5.8460534    469.54934  0.033936784   0.03378594           13 
 1154000   0.79533985   -5.8494312    469.88389  0.033931534   0.03376375            7 
 1155000   0.78350695   -5.8519132    471.17352  0.033995203   0.03374178           13 
 1156000   0.79255194   -5.8689387    470.70874  0.033932291  0.033719695            5 
 1157000   0.78757063   -5.8383293    470.02298  0.033853571  0.033697756            7 
 1158000   0.80689377   -5.8624411    471.82236  0.033953826  0.033675908           10 
 1159000   0.78704569   -5.8046994    471.74739  0.033919139  0.033654138            5 
 1160000   0.80003752    -5.821459     472.0711  0.033913154  0.033632635            3 
 1161000   0.78549016   -5.8160972      472.816   0.03393741  0.033611136            2 
 1162000   0.76955475   -5.8191123    473.77869  0.033977244  0.033589808            4 
 1163000    0.7836508   -5.8660559    471.08061  0.033754701    0.0335681            4 
 1164000   0.78677408   -5.8330127    471.65696  0.033766965  0.033546292            5 
 1165000   0.78313958   -5.8635448    473.19602   0.03384807    0.0335245            8 
 1166000   0.79047104   -5.8580492    472.71755  0.033784845  0.033502919            8 
 1167000   0.79278924   -5.8615238    472.08373  0.033710635  0.033481238            8 
 1168000   0.80547884   -5.8275318    473.59389  0.033789519  0.033459649            4 
 1169000   0.77898549   -5.8288353    474.22724  0.033805763  0.033438434            6 
 1170000   0.79717586    -5.870847     473.6815  0.033737999  0.033417093            9 
 1171000   0.78058642    -5.837671    473.49442  0.033695874  0.033395568            8 
 1172000   0.79944209   -5.8833783     471.7953   0.03354631  0.033373979            9 
 1173000   0.77359743   -5.8562871    473.03483  0.033605771  0.033352081            6 
 1174000   0.79046435   -5.8621434    473.86369   0.03363598  0.033330469           10 
 1175000   0.77543531   -5.8765117    474.13636  0.033626692  0.033308948           10 
 1176000   0.79208473   -5.8302122    474.33078  0.033611875  0.033287378            7 
 1177000   0.76716851   -5.8521222    474.54384  0.033598403  0.033265834            4 
 1178000   0.78786005   -5.8815131    472.90157  0.033453705  0.033244238            7 
 1179000   0.77989551   -5.8609976    474.44441   0.03353438  0.033222642            6 
 1180000   0.78015279   -5.8317358    474.88135  0.033536818  0.033201295           16 
 1181000   0.79321697   -5.8736874    474.44991  0.033477979  0.033179815            4 
 1182000   0.77783895   -5.8637121    473.77031  0.033401742  0.033158396            8 
 1183000   0.75452558   -5.8816051     475.7103  0.033510165  0.033136913           23 
 1184000   0.79155065   -5.8475345    476.01811  0.033503527  0.033115679            7 
 1185000   0.77698303   -5.8782569    476.78703  0.033529327  0.033094627            7 
 1186000   0.80049489   -5.8692637    475.50625  0.033411063   0.03307351            7 
 1187000   0.79530487   -5.8703757    476.05312  0.033421309  0.033052392            6 
 1188000   0.78592253   -5.8598674    475.94483   0.03338558  0.033031253            8 
 1189000   0.78733584   -5.8618292    476.22721  0.033377292  0.033009963            7 
 1190000   0.78906066   -5.8724374    476.83608  0.033391882  0.032988718           10 
 1191000    0.7664957   -5.8890822    475.92176  0.033299871  0.032967533           21 
 1192000   0.76510726   -5.8700384    475.88591  0.033269429  0.032946118            6 
 1193000   0.78755657   -5.8526761    475.75635  0.033232491   0.03292483           10 
 1194000   0.78047194   -5.8638213    477.02637  0.033293298  0.032903434            3 
 1195000   0.75790003   -5.8768287    477.71554  0.033313496  0.032882255           11 
 1196000   0.77352618   -5.8951626    476.92609  0.033230636  0.032860951           11 
 1197000   0.76602162   -5.8851572    477.08135  0.033213684  0.032839764            8 
 1198000    0.7699238   -5.8672246    477.99935  0.033249816  0.032818734            3 
 1199000   0.76633111   -5.8959384    477.88602  0.033214207  0.032797677           10 
 1200000   0.77555569   -5.8950755    476.48933  0.033089537  0.032776551            9 
 1201000   0.79156338   -5.8641211    477.95272  0.033163525   0.03275553            8 
 1202000   0.77733352   -5.8731426    477.29932  0.033090635  0.032734641            6 
 1203000   0.78620859   -5.8839375    477.01107  0.033043161   0.03271369            9 
 1204000   0.77004251   -5.8842191     477.0666   0.03301956  0.032692723            6 
 1205000    0.7620425   -5.8575313    477.97073  0.033054684  0.032671743            4 
 1206000   0.75372379   -5.8774343    478.57528  0.033069049  0.032650598            6 
 1207000   0.79689393   -5.8950606     478.4917  0.033035881  0.032629595            9 
 1208000    0.7593381   -5.8686229    479.15756  0.033054467  0.032608726            7 
 1209000   0.75553936   -5.8824775    480.54409  0.033122697  0.032587757           11 
 1210000    0.7628227   -5.8634615    480.73194   0.03310826  0.032567069           19 
 1211000   0.75690007   -5.8745708    479.82541  0.033018539  0.032546421            5 
 1212000   0.75904317   -5.8624556     480.9092  0.033065814  0.032525845           11 
 1213000   0.76246658   -5.8510547    480.63435  0.033019672  0.032505261           10 
 1214000   0.76271411   -5.8654003    480.10084  0.032955851  0.032484631            4 
 1215000   0.75594281   -5.8843878     479.4954  0.032887202  0.032463943           12 
 1216000   0.78143288   -5.8403826    480.83884  0.032952223   0.03244341            6 
 1217000   0.76166942   -5.8868212    482.03794  0.033007254  0.032423089            7 
 1218000   0.77195928   -5.9024606    480.66875  0.032886477  0.032402679            7 
 1219000   0.78373146   -5.8893613    480.36821  0.032838954  0.032382029           10 
 1220000   0.76709513   -5.8951253    480.03973  0.032789599   0.03236141           10 
 1221000   0.76954665   -5.9283512     479.9551  0.032756969  0.032340787            9 
 1222000   0.76074706   -5.9341769    479.57117  0.032703981  0.032320055            9 
 1223000   0.77334378   -5.9284266    481.19519  0.032787898   0.03229936            5 
 1224000   0.76163963   -5.9136574    481.06714  0.032752392  0.032278728            9 
 1225000   0.75737956   -5.9017263    480.82005  0.032708847  0.032258342           11 
 1226000   0.76605387   -5.9109177    481.04941  0.032697757    0.0322379            8 
 1227000   0.76990619   -5.8916661    481.97552  0.032734007  0.032217395            8 
 1228000   0.76702421   -5.9106144    481.63315  0.032684117  0.032196923           11 
 1229000   0.76687723   -5.8816096    482.89249  0.032742914  0.032176566            5 
 1230000   0.77159211   -5.8709781    481.97464  0.032654108  0.032156238            6 
 1231000   0.75945434   -5.8739816    482.92582  0.032691972  0.032135826           13 
 1232000   0.75138541   -5.9276842    482.30289  0.032623301  0.032115414           10 
 1233000    0.7745373   -5.9024925    481.73737  0.032558622  0.032094695            8 
 1234000   0.76699746   -5.9009668    482.41366  0.032577908  0.032074099           17 
 1235000   0.75467966   -5.9176015    481.97622  0.032522012  0.032053513            7 
 1236000   0.76317054   -5.8982076    483.76645    0.0326164  0.032033066            7 
 1237000   0.76811254   -5.9425949     481.6847  0.032449791   0.03201261           13 
 1238000   0.73497633   -5.9447613    480.97707  0.032375947  0.031991784           14 
 1239000   0.75268125    -5.909412    481.38773  0.032377437  0.031971075           16 
 1240000   0.75654696   -5.9150638    483.04811  0.032462911  0.031950395           11 
 1241000   0.75928149   -5.9325721    482.83072  0.032422154  0.031929782            7 
 1242000    0.7594281   -5.9429907    482.58668  0.032379675  0.031909239            5 
 1243000   0.76943995   -5.9375556    482.71648  0.032362328  0.031888668            8 
 1244000   0.75611085    -5.907278    483.51408  0.032389743  0.031868237            8 
 1245000   0.76822955   -5.9166234    482.70604  0.032309641  0.031847813            6 
 1246000   0.75361518   -5.9025231    483.14406  0.032313006  0.031827291            7 
 1247000   0.76418541   -5.9478879    481.26043  0.032161216  0.031806752            6 
 1248000   0.77908345   -5.9438188    484.05347  0.032321947  0.031786407            9 
 1249000   0.76780701   -5.9510008    483.78573  0.032278205  0.031766153            8 
 1250000    0.7728252   -5.9107784    484.36065   0.03229071  0.031745953           15 
 1251000   0.74503597   -5.9473788    483.57414  0.032212506  0.031725517           13 
 1252000   0.76541766   -5.9398238    482.47485  0.032113608  0.031705191           10 
 1253000   0.75636134   -5.9082017    483.73239  0.032171614   0.03168501           17 
 1254000    0.7452188   -5.9354958    484.04728  0.032166884  0.031664693            6 
 1255000   0.74946335   -5.9457437    484.15758  0.032148578  0.031644224            9 
 1256000   0.75844248   -5.9138792    485.31917  0.032200051  0.031623901            8 
 1257000   0.74637344   -5.9367085    483.57375  0.032058721  0.031603544            6 
 1258000   0.74130409   -5.9160711    484.28923  0.032080633  0.031583221            7 
 1259000   0.74599105   -5.9420897    485.17075  0.032113499  0.031562768            5 
 1260000   0.76003528   -5.9435546    485.31941  0.032097845  0.031542425           11 
 1261000   0.75381343   -5.9422542    484.01097  0.031985922   0.03152208            8 
 1262000   0.75065934   -5.9520465    484.48706  0.031992014  0.031501659            6 
 1263000   0.74099664   -5.9570924    485.55153  0.032036918  0.031481507           12 
 1264000   0.76144473    -5.969608    485.54611  0.032011215  0.031461211            9 
 1265000   0.74219743   -5.9530849    485.57739   0.03198797  0.031440968           12 
 1266000   0.74665516   -5.9476784    484.95391  0.031921663  0.031420811           11 
 1267000   0.75832389   -5.9505291    486.98085  0.032029785  0.031400711            4 
 1268000   0.75159514   -5.9439135    486.84439  0.031995557  0.031380598           10 
 1269000   0.75978898   -5.9648727    485.65301  0.031892108   0.03136033           10 
 1270000    0.7518488   -5.9619571    486.28036   0.03190816  0.031340221            6 
 1271000   0.74156649   -5.9648438    485.77154  0.031849694  0.031320292            4 
 1272000   0.75836249   -5.9676828     486.2566  0.031856433  0.031300192            6 
 1273000   0.73552809   -5.9446294     486.7923  0.031866477  0.031280177            5 
 1274000     0.746046   -5.9587789    486.00039  0.031789664  0.031260028           14 
 1275000   0.74195579   -5.9639127    485.92264   0.03175965  0.031239928           14 
 1276000   0.74995708   -5.9666737     488.1022  0.031877103  0.031219919            6 
 1277000   0.75693951   -5.9699184    486.81856  0.031768374  0.031199725            7 
 1278000   0.72733665   -5.9615475    486.53907  0.031725291  0.031179493           10 
 1279000   0.75285929   -5.9532475    486.00803  0.031665887   0.03115946            7 
 1280000   0.73514857   -5.9792734    486.41078  0.031667369  0.031139462           25 
 1281000   0.74601656    -5.960147    487.33183  0.031702565  0.031119409           14 
 1282000   0.74295738   -5.9411531    489.02385  0.031787822  0.031099499            8 
 1283000   0.75166552   -5.9466737    488.63318  0.031737671  0.031079811           20 
 1284000   0.73673456   -5.9645461    487.52244  0.031640865  0.031059959            5 
 1285000   0.76888029   -5.9457536    487.41265  0.031609121  0.031040079            7 
 1286000   0.73493332   -5.9408576    488.07384  0.031627388  0.031020234            6 
 1287000   0.72364849   -5.9558262    488.95626  0.031659949  0.031000463            8 
 1288000   0.71980393   -5.9565951    486.71701   0.03149049  0.030980511            7 
 1289000   0.73516258   -5.9786848    487.91545  0.031543538  0.030960659           27 
 1290000   0.74496611   -5.9418966    488.73875  0.031572271  0.030940835            5 
 1291000    0.7222216   -5.9495543    489.21106  0.031578302  0.030921082            8 
 1292000    0.7350027   -5.9461801    489.81903  0.031593075  0.030901309            5 
 1293000   0.72549466   -5.9795985    488.04748  0.031454465   0.03088145           10 
 1294000   0.73950804   -5.9596559     486.8085  0.031350367  0.030861505            7 
 1295000   0.73314129   -5.9540797    488.10667  0.031409696  0.030841487            7 
 1296000   0.72256406   -5.9855121    489.51576  0.031476065   0.03082138            8 
 1297000   0.72899806   -5.9830943    487.02252  0.031291604  0.030801371           15 
 1298000   0.73709522   -5.9927489    488.10513  0.031337001  0.030781179           15 
 1299000   0.74795109   -5.9719273    488.34028  0.031327963  0.030761188           13 
 1300000   0.72523263   -5.9611881    488.39804  0.031307567  0.030741084           10 
 1301000   0.72496602   -5.9792131    488.41774  0.031284764    0.0307211            5 
 1302000   0.73882986   -5.9807749    487.39949  0.031195564  0.030700949            5 
 1303000   0.73386573   -5.9777923    486.83531   0.03113554  0.030680754            8 
 1304000    0.7410362   -5.9775746      488.059  0.031189865  0.030660617           12 
 1305000   0.74291326   -5.9644452    488.28864  0.031180628   0.03064053            9 
 1306000   0.73067863   -5.9792651    488.75149  0.031186287  0.030620364           15 
 1307000   0.72210973   -5.9871629    489.13571  0.031186924  0.030600242           12 
 1308000   0.73378883    -5.960044    490.25081  0.031234124  0.030580312           12 
 1309000   0.73195146   -5.9639964    488.95327  0.031127659  0.030560299            9 
 1310000   0.72604639   -5.9737174    488.52128  0.031076417  0.030540263            8 
 1311000   0.74104333   -5.9584809    488.56085  0.031055228  0.030520309            8 
 1312000   0.72782056   -5.9788325    488.78778  0.031045972  0.030500268            9 
 1313000   0.72955959   -5.9880434    487.58062  0.030945711  0.030480059            7 
 1314000   0.72768872   -6.0115185    488.53121  0.030982446  0.030459847            6 
 1315000   0.73415574   -6.0171438    489.39254  0.031013469  0.030439781            7 
 1316000   0.73240028   -5.9949803     489.2938   0.03098365  0.030419646           13 
 1317000   0.71638878   -5.9537157    490.44763  0.031033133   0.03039964            5 
 1318000   0.72752536   -5.9846751    489.23381   0.03093284  0.030379693           18 
 1319000    0.7331402   -5.9829354    489.50681  0.030926637   0.03035965           13 
 1320000   0.72529173   -5.9972609     489.0429  0.030873921  0.030339546            5 
 1321000   0.73201288   -5.9945893    490.23009  0.030925441  0.030319356           18 
 1322000   0.71415252   -5.9958539    489.14907  0.030833905  0.030299162           10 
 1323000    0.7371842   -6.0021142    490.78997  0.030913957  0.030278992            6 
 1324000   0.73415497   -5.9929106    490.42947  0.030867917  0.030258899            5 
 1325000   0.72274928   -5.9969887    489.69871  0.030798661  0.030238862            6 
 1326000   0.69857932   -6.0021426    490.14732  0.030803627  0.030218851           11 
 1327000   0.72218844   -5.9857033    490.60389  0.030809086  0.030198951           11 
 1328000    0.7256867   -6.0132733    489.64142   0.03072549  0.030179031           12 
 1329000   0.73445078    -6.021188    488.20162   0.03061209  0.030158877           10 
 1330000   0.73372476   -6.0021613    490.61548  0.030740319  0.030138865           14 
 1331000    0.7267496    -5.995081     491.8453  0.030794221  0.030118902            6 
 1332000   0.72618435   -6.0080656    489.46761  0.030622348  0.030098975           13 
 1333000   0.72785255   -6.0266417    490.00035   0.03063268  0.030079052           12 
 1334000   0.72308217   -6.0038008    490.57984  0.030645917  0.030059026            8 
 1335000   0.72249328   -6.0015259    491.43443  0.030676307  0.030039127            7 
 1336000    0.7121688   -6.0021024    491.87713  0.030680958  0.030019338            9 
 1337000   0.73319506   -5.9922126    491.35271  0.030625325  0.029999521           15 
 1338000   0.72257556   -6.0259966    490.25041  0.030533783  0.029979633           23 
 1339000   0.71471213   -6.0005313    490.17894  0.030506531  0.029959586            7 
 1340000   0.71879536   -6.0241182    489.02943  0.030412278   0.02993957           15 
 1341000   0.72326973   -5.9878043    491.49597  0.030542876  0.029919555           12 
 1342000   0.71578367   -6.0226539    489.88346  0.030419986  0.029899673            5 
 1343000   0.71178303   -6.0061734    490.08731  0.030409985  0.029879672           18 
 1344000    0.7256581   -6.0020865    490.61938  0.030420348   0.02985967            9 
 1345000   0.71754919   -6.0143326    491.23936  0.030436144  0.029839695            4 
 1346000   0.71043208   -6.0361367    491.16464  0.030408905  0.029819658           11 
 1347000   0.71311447   -6.0431134    491.53117  0.030409006  0.029799627           14 
 1348000   0.71250362    -6.010338    491.26284  0.030369859  0.029779689           15 
 1349000   0.71351968   -6.0325073    491.34435  0.030352381  0.029759678           15 
 1350000   0.72433522   -6.0450534    491.42036   0.03033459  0.029739636           12 
 1351000   0.71817386   -6.0387718    490.46724  0.030253346  0.029719523            6 
 1352000   0.70881412   -6.0388473    489.95502  0.030199397  0.029699522            6 
 1353000   0.70924158    -6.053746     491.1469  0.030250487  0.029679529           20 
 1354000   0.71461775   -6.0261968     490.9694   0.03021722  0.029659501           11 
 1355000   0.70437306   -6.0518963    491.43815  0.030223748  0.029639566            8 
 1356000    0.7033771   -6.0257626    491.50771  0.030205734  0.029619613            8 
 1357000   0.70943239   -6.0456318    491.87884  0.030206266   0.02959962           11 
 1358000   0.70922231   -6.0184267    492.78072  0.030239367  0.029579755            7 
 1359000   0.71913103   -6.0411099     490.3168  0.030066029  0.029560045           38 
 1360000   0.70554939    -6.034679    491.48426  0.030115457   0.02954003           14 
 1361000   0.72281169   -6.0229733    492.20592  0.030137517  0.029520169           10 
 1362000   0.70599859   -6.0579064    492.58235  0.030138421  0.029500296           15 
 1363000   0.70045245   -6.0571098    489.98306  0.029957389  0.029480446           27 
 1364000   0.69649041   -6.0267543    492.12747  0.030066439  0.029460579           10 
 1365000   0.70995346   -6.0080956    491.12907  0.029983459  0.029440747           12 
 1366000   0.70726317   -6.0157003    492.16628  0.030024785  0.029420815            8 
 1367000   0.69360093   -6.0546784    491.03808  0.029934046  0.029400874            9 
 1368000   0.72903456   -6.0419897    491.26549  0.029926017  0.029380937            4 
 1369000    0.7043924   -6.0191244    492.90345  0.030003862  0.029360911           13 
 1370000   0.70281073   -6.0357268    492.13378  0.029935144  0.029340999            6 
 1371000   0.71158086   -6.0112563      490.868  0.029836372  0.029321076            4 
 1372000    0.6961484   -6.0605768    491.60064  0.029859125  0.029301206           12 
 1373000   0.70315482   -6.0497579    491.39594  0.029824954  0.029281217            8 
 1374000   0.71124154   -6.0804606    491.97009   0.02983807  0.029261291           13 
 1375000   0.71842957   -6.0750654     492.0165  0.029819182  0.029241471           31 
 1376000   0.70869923   -6.0513876    492.41851  0.029821858  0.029221678           23 
 1377000   0.71405026   -6.0501092    492.85354  0.029826527  0.029201866            9 
 1378000   0.70081505    -6.054319    493.42589  0.029839495  0.029182105           10 
 1379000    0.7045776   -6.0673812    492.39962  0.029755839  0.029162306           22 
 1380000    0.7119164   -6.0563676    492.23848  0.029724546  0.029142376           21 
 1381000   0.70548173   -6.0600454    493.34874  0.029770018  0.029122412           20 
 1382000   0.70520972    -6.059518    493.01919  0.029728606  0.029102584            8 
 1383000   0.70533363    -6.061182     492.4455  0.029672542  0.029082803           20 
 1384000   0.69757262   -6.0261295    493.22522   0.02969805   0.02906321           11 
 1385000   0.69195581   -6.0286331    494.08988  0.029728633  0.029043575           13 
 1386000   0.69487947   -6.0484958    493.09163  0.029647164  0.029023899            8 
 1387000   0.70392271   -6.0732136    493.48233  0.029649263  0.029004285            8 
 1388000   0.70394287   -6.0882065    492.52895  0.029570662  0.028984459           11 
 1389000   0.69426251   -6.0637972    493.15022  0.029586646  0.028964728           13 
 1390000   0.69988983   -6.0734987    493.33398  0.029576378  0.028944999            9 
 1391000   0.69519415   -6.0617329    493.78894  0.029582371  0.028925384           13 
 1392000   0.69620202   -6.0704002    493.22721  0.029527491  0.028905758            7 
 1393000   0.70229258   -6.0706755    492.87727   0.02948536  0.028886212           28 
 1394000    0.6900541   -6.0689507    494.34586     0.029552  0.028866616            8 
 1395000    0.6999656   -6.0634446    493.47669  0.029478894  0.028847159           15 
 1396000   0.69113798   -6.0695306    494.06359  0.029492812  0.028827586           11 
 1397000   0.69610694   -6.0749704    494.53272  0.029499685  0.028808101            9 
 1398000   0.68653866   -6.1252324      493.151  0.029396221  0.028788564           20 
 1399000   0.70125476   -6.0774947    494.12517  0.029433236   0.02876911           12 
 1400000   0.69801369   -6.0969104    494.26047  0.029420266  0.028749714           14 
 1401000   0.70129863   -6.0577805    494.96339  0.029441077  0.028730389            8 
 1402000   0.68051531   -6.0680691    494.40039  0.029386614  0.028711133           21 
 1403000   0.69168863   -6.0703543    494.39488  0.029365341  0.028691774           11 
 1404000   0.67495921   -6.0442597    495.47892  0.029408768  0.028672517            7 
 1405000   0.68229006   -6.0875325    495.39433  0.029382819  0.028653186           23 
 1406000    0.6888051    -6.064396    494.98623  0.029337733  0.028633879           10 
 1407000   0.68857281   -6.1099747    493.94458  0.029255187  0.028614514           10 
 1408000    0.6922858   -6.1062187    494.96736  0.029294943  0.028595202           18 
 1409000    0.6783884   -6.1034238    495.19647  0.029287703  0.028575809           17 
 1410000   0.69127636     -6.11585    494.16756  0.029206121  0.028556405           10 
 1411000   0.68963612   -6.0878438    494.43032   0.02920094   0.02853702           12 
 1412000    0.6960358   -6.0957555    494.95323  0.029211121  0.028517624           11 
 1413000   0.69295782   -6.0925806    494.50893  0.029164245  0.028498314            7 
 1414000   0.69267398   -6.0880992    497.06022  0.029293978  0.028479017           11 
 1415000   0.68098432   -6.0994925    495.17649  0.029162338  0.028459716           16 
 1416000   0.69652008   -6.1140526    495.44991  0.029157834  0.028440476           17 
 1417000   0.67902423   -6.0701861    497.10627  0.029234666  0.028421292            8 
 1418000    0.6971437    -6.102774    494.63563  0.029068855  0.028402078           27 
 1419000   0.70067384   -6.0821154     495.8205  0.029117953  0.028382747           20 
 1420000   0.69630752    -6.120963    494.64936  0.029028719  0.028363377           14 
 1421000   0.68550391   -6.0989227    496.00849  0.029087995  0.028343985           10 
 1422000   0.68732514   -6.1094917    494.10588  0.028956041   0.02832464            6 
 1423000   0.68285579   -6.0736106    496.19022  0.029057755  0.028305271           39 
 1424000   0.68577167   -6.0869198     496.6646   0.02906511  0.028286013           11 
 1425000   0.68676281   -6.0760655    496.57476   0.02903946  0.028266854           10 
 1426000   0.69030716    -6.087258     495.2013  0.028938832  0.028247619           12 
 1427000   0.67077028   -6.0739892    495.46129  0.028933736  0.028228391           22 
 1428000   0.69301624   -6.0911381    496.36337  0.028966117  0.028209183           11 
 1429000   0.70280589   -6.0822512    495.93994  0.028921154  0.028190035           14 
 1430000    0.6912186   -6.1155411    495.52261  0.028876609  0.028170901           13 
 1431000   0.69128754   -6.1116737     494.5694   0.02880092  0.028151661           21 
 1432000   0.68146404   -6.1203108    495.34995  0.028826231  0.028132283            8 
 1433000   0.67799921   -6.1044307    495.52225  0.028816134  0.028113009           13 
 1434000   0.65291443   -6.0920926    495.26619   0.02878116  0.028093786            5 
 1435000   0.66327577   -6.0992598    496.44403  0.028829502  0.028074598           13 
 1436000   0.67909636   -6.0955349    495.89301   0.02877745  0.028055387           15 
 1437000   0.67716541   -6.1149807    495.30514  0.028723332  0.028036131            6 
 1438000   0.67136762   -6.0888837     496.5385  0.028774832  0.028016936            9 
 1439000   0.67063185    -6.102161    496.09131  0.028728939  0.027997779           11 
 1440000   0.67669282   -6.1163651    495.43101  0.028670776  0.027978561           15 
 1441000   0.67673926   -6.1172439    496.23436  0.028697338  0.027959249           13 
 1442000   0.68333456     -6.13712    496.44403  0.028689553  0.027939945           20 
 1443000   0.67709441    -6.126927    496.53172  0.028674735  0.027920666            5 
 1444000   0.68776611   -6.1167529    497.07948  0.028686489  0.027901442            5 
 1445000   0.68240835    -6.131326    495.69112   0.02858657  0.027882151            7 
 1446000   0.65414119   -6.1151955      496.029  0.028586273  0.027862882           11 
 1447000   0.66823293   -6.1271138    496.18994  0.028575786  0.027843721           15 
 1448000   0.68641606   -6.1493037       495.62   0.02852325  0.027824464           15 
 1449000   0.67431445   -6.1222644     495.0959  0.028473424  0.027805172           15 
 1450000   0.68059256   -6.1431637    494.40331  0.028413984  0.027785922           19 
 1451000   0.67331744   -6.1078933    496.12496  0.028493278   0.02776674           16 
 1452000   0.67797858   -6.1294948    496.20745  0.028478389  0.027747494            9 
 1453000   0.68963721   -6.1283108    495.99048  0.028446346  0.027728302            7 
 1454000   0.68564121   -6.1111941    496.66869  0.028465651  0.027709115            8 
 1455000   0.66789876   -6.1165007     495.9289  0.028403717  0.027690013           16 
 1456000   0.68077176   -6.1024997    497.01979  0.028446645   0.02767092            9 
 1457000   0.67646919   -6.1368085    494.56062  0.028286469  0.027651738           10 
 1458000   0.66194665   -6.1172076    496.96424  0.028404449  0.027632621            8 
 1459000   0.67470959   -6.1407391    495.96677  0.028328009  0.027613518           11 
 1460000   0.66397252   -6.1620979    495.40653  0.028276628  0.027594238           12 
 1461000   0.67975543   -6.1680987    495.72224  0.028275282  0.027575049            6 
 1462000   0.67307497   -6.1483774    496.19246  0.028282744  0.027555909            6 
 1463000   0.66462939   -6.1595979    496.47975  0.028279776  0.027536676           13 
 1464000   0.68501881   -6.1444943    496.27167  0.028248615  0.027517509           13 
 1465000   0.64919823   -6.1094434    496.92781  0.028266656  0.027498385           12 
 1466000   0.66939162   -6.1392535    497.31092  0.028269152   0.02747938           28 
 1467000   0.68001707   -6.1264501     497.3665  0.028253039  0.027460371            8 
 1468000   0.67754189   -6.1586975    496.42286  0.028180226  0.027441394           15 
 1469000   0.66358681   -6.1399364    498.13686  0.028258274   0.02742241            9 
 1470000   0.66380972   -6.1510926    497.04053  0.028176901  0.027403458           11 
 1471000   0.65193342   -6.1657536    497.08707  0.028160382  0.027384504           16 
 1472000   0.66817466   -6.1297975    496.69777  0.028119212   0.02736553            8 
 1473000   0.67691401   -6.1410597    496.91106  0.028112189   0.02734656            8 
 1474000   0.64982952   -6.1524386    496.99433  0.028097825  0.027327641            9 
 1475000   0.67371355   -6.1386374    497.21206  0.028091077    0.0273087           15 
 1476000   0.66737259   -6.1440515    495.88377  0.027997051  0.027289834           12 
 1477000    0.6670168    -6.123215    498.39717  0.028119903  0.027270927           12 
 1478000   0.65573504   -6.1538925    496.67673  0.028003875  0.027252106            7 
 1479000    0.6639324   -6.1518846    497.68987  0.028042026  0.027233262           11 
 1480000   0.66011008   -6.1624905     497.8315  0.028031053  0.027214369           15 
 1481000   0.66679224   -6.1505482     497.2446  0.027979102  0.027195483           10 
 1482000   0.65994837   -6.1408227     496.8539  0.027938254  0.027176543           22 
 1483000    0.6506904   -6.1517933    498.51226  0.028012602  0.027157727           26 
 1484000   0.66040464   -6.1537155    496.70218  0.027892081  0.027138856           16 
 1485000   0.65583711   -6.1975001     496.3804  0.027855241   0.02712007           20 
 1486000   0.67160068   -6.1791567    497.10704  0.027877245  0.027101137           41 
 1487000   0.65389752   -6.1752423    497.72521  0.027893141  0.027082348           34 
 1488000   0.66968845   -6.1624983    498.13237  0.027897198   0.02706364           30 
 1489000   0.65023025   -6.1450252    497.49692  0.027842899  0.027044902            9 
 1490000    0.6768263   -6.1784572    497.70412  0.027835801  0.027026195            9 
 1491000   0.67013904   -6.1712491    498.04093  0.027835956  0.027007575           15 
 1492000    0.6593627   -6.1511343    497.36797  0.027779713  0.026988945           26 
 1493000   0.66060102   -6.1588098    498.82568  0.027842469  0.026970352           11 
 1494000   0.66304897   -6.1661339    497.01457  0.027722812  0.026951753           17 
 1495000   0.64985967   -6.1457642    498.32461  0.027777291  0.026933087            7 
 1496000   0.66975159   -6.1695563    498.56361  0.027772037   0.02691448            8 
 1497000   0.66016097   -6.1680478    497.84549   0.02771351  0.026895858           10 
 1498000   0.66600391   -6.1609541     498.9816  0.027758211  0.026877198           21 
 1499000   0.63978164   -6.1800939    498.04756  0.027687767  0.026858521           24 
 1500000   0.65274986   -6.1560436    497.69039  0.027649466  0.026839801           14 
 1501000   0.64375034   -6.1824074    497.41875  0.027615964  0.026821167           13 
 1502000     0.645665   -6.1497654    498.72798  0.027670217  0.026802595           21 
 1503000   0.64259264   -6.1761307    497.73788  0.027596911  0.026784003           12 
 1504000   0.65951933   -6.1496331    498.24815  0.027606834   0.02676543            8 
 1505000   0.63455316     -6.15382     498.6752  0.027612137  0.026746916           10 
 1506000    0.6459278   -6.1431058    497.64162   0.02753661  0.026728515           16 
 1507000   0.65312984   -6.1737107    498.73113  0.027578585  0.026710031           13 
 1508000   0.65858929   -6.1771286    498.92924  0.027571244  0.026691555           11 
 1509000   0.67157971   -6.1820896    498.83232  0.027547621  0.026673074           10 
 1510000   0.65416478   -6.1829032    498.28145  0.027498976  0.026654572           13 
 1511000   0.65200567   -6.1730526     498.7955  0.027509128   0.02663619           17 
 1512000   0.64939145   -6.1865245    498.57798  0.027478945  0.026617797            9 
 1513000   0.64610554    -6.193134    499.20842  0.027495507  0.026599354           15 
 1514000   0.64266046   -6.1953323     499.0424  0.027468208  0.026580921           14 
 1515000   0.65346314   -6.1732404    499.36591  0.027467872  0.026562536           13 
 1516000   0.64888279   -6.2027863    499.63239  0.027464401  0.026544155           12 
 1517000   0.64779512   -6.1913786    499.32042   0.02742916  0.026525682           14 
 1518000    0.6393643   -6.1997146    498.88374  0.027387118  0.026507152            7 
 1519000   0.64556793   -6.2009293    499.17424  0.027385025  0.026488738           10 
 1520000   0.64669939   -6.1903012    498.64999  0.027338267  0.026470343           13 
 1521000   0.65367762   -6.1803669    499.82514  0.027384678  0.026451875           18 
 1522000   0.64777189   -6.2047954    498.74909  0.027307769  0.026433415           17 
 1523000   0.65698414   -6.1973065    498.65597  0.027284744  0.026414867           20 
 1524000   0.63498423   -6.1967343    498.24884  0.027244578  0.026396389           20 
 1525000   0.64826856   -6.2125882    498.63287  0.027247698  0.026377886           12 
 1526000   0.63962014   -6.2080106     498.1665  0.027204374  0.026359326           34 
 1527000   0.63907766    -6.228106    497.29289  0.027138883  0.026340728           13 
 1528000   0.64485136     -6.21822    498.50094  0.027187006  0.026322161           12 
 1529000   0.64467164      -6.2201    498.24244  0.027155136  0.026303587           10 
 1530000   0.64720305   -6.1907618    499.03887  0.027180766  0.026285133           14 
 1531000   0.63877119   -6.1996127    498.79334  0.027149648  0.026266707           20 
 1532000   0.63508799   -6.1862588    497.60073  0.027067054  0.026248202           12 
 1533000   0.63637422   -6.2128814     497.3826  0.027037541  0.026229747           14 
 1534000   0.63590875    -6.180205    498.84905  0.027099579  0.026211324           12 
 1535000   0.63694057   -6.2194281    498.02895  0.027037402  0.026192877           19 
 1536000   0.64057928   -6.2080569    498.44759  0.027042513  0.026174518           20 
 1537000   0.64888371   -6.2267808    498.07244  0.027004578  0.026156233           13 
 1538000    0.6412261   -6.1971043    499.34825  0.027056147  0.026137883           15 
 1539000    0.6550643   -6.2153995    499.07401  0.027023717  0.026119488           21 
 1540000   0.65052277   -6.2221182    497.40934   0.02691609  0.026100988           25 
 1541000    0.6398516   -6.2063937    498.45675  0.026955265   0.02608252           14 
 1542000   0.63349619   -6.2059837    498.35342  0.026932199  0.026064026           30 
 1543000   0.63244679   -6.2186764    498.56719   0.02692629  0.026045512           12 
 1544000   0.64644335   -6.2347801    497.44565  0.026848319  0.026026949           39 
 1545000   0.62245133   -6.2148075    498.77344  0.026902559   0.02600848           18 
 1546000   0.64126089   -6.2032989     498.5097  0.026870941  0.025990011           12 
 1547000   0.64230626   -6.2065505    497.73536  0.026811859  0.025971511           27 
 1548000    0.6406389   -6.2142955    496.64897  0.026736055  0.025953015           40 
 1549000   0.63457363   -6.2097062    497.55638  0.026767613  0.025934528           13 
 1550000    0.6321799   -6.2350912    497.56127  0.026750606  0.025916113           22 
 1551000   0.63947929   -6.2212146    498.14157  0.026764537  0.025897694           26 
 1552000   0.64120351   -6.2319995    498.25483  0.026753374  0.025879312           14 
 1553000   0.63538232   -6.2416051    498.20341  0.026733388  0.025860884           14 
 1554000   0.63821472   -6.2448593    496.76507  0.026639054  0.025842414           25 
 1555000   0.64348728   -6.2534967    497.53666  0.026663272  0.025823854           19 
 1556000   0.62802236   -6.2408291    496.61659  0.026596861  0.025805358           17 
 1557000   0.62331963   -6.2328735    497.56513  0.026630547  0.025786896           15 
 1558000   0.61942014   -6.2457672    497.91027  0.026631914  0.025768373           44 
 1559000   0.62284958   -6.2433709    497.19502  0.026576599  0.025749904           12 
 1560000   0.63572163    -6.235269    498.86481  0.026648761  0.025731447           14 
 1561000    0.6139808   -6.2533805    498.03841  0.026587572  0.025713083           31 
 1562000   0.62392692   -6.2274679    498.97533  0.026620536  0.025694696           28 
 1563000   0.64321957   -6.2362427    499.34215  0.026623062  0.025676349           24 
 1564000   0.63124566   -6.2532704    497.89759   0.02652907  0.025658066            8 
 1565000   0.64389775   -6.2361705    497.16566  0.026473145  0.025639708           14 
 1566000   0.63443615   -6.2369287    497.85863  0.026493115  0.025621433           29 
 1567000   0.63424496   -6.2202384    498.05522  0.026486663   0.02560321           24 
 1568000   0.63370005   -6.2661032    497.80248  0.026456339   0.02558488           30 
 1569000   0.62034199   -6.2520645    498.49624  0.026476325  0.025566636           23 
 1570000   0.64352272   -6.2249799    498.16686  0.026441978  0.025548401            9 
 1571000   0.63144379   -6.2542779    498.25398  0.026429768   0.02553014           17 
 1572000   0.63220974    -6.243257    498.05314  0.026402308   0.02551194           22 
 1573000   0.62636281   -6.2400725    497.97901  0.026381596  0.025493686           29 
 1574000   0.64035202   -6.2199146    497.42821  0.026335674   0.02547545           30 
 1575000   0.62919852   -6.2333139    498.02259  0.026350401  0.025457215            9 
 1576000   0.60724985   -6.2657031    497.73819  0.026318644  0.025438951           45 
 1577000   0.60879703   -6.2453511    498.19553  0.026326122   0.02542071           32 
 1578000   0.63486017    -6.269991    498.97769  0.026350744  0.025402441           20 
 1579000   0.63989144   -6.2413643    497.81136  0.026272501  0.025384209           15 
 1580000   0.63053918   -6.2433616     498.2518  0.026279104  0.025366073           11 
 1581000   0.62687666   -6.2540657     498.1955  0.026259514  0.025347943           10 
 1582000   0.62954751   -6.2240995    497.62284   0.02621275  0.025329775           24 
 1583000   0.62117519   -6.2404873    497.88962  0.026210235  0.025311562           14 
 1584000   0.63318369   -6.2466515    497.84145  0.026191154  0.025293425           23 
 1585000   0.61333904   -6.2738425    498.57956  0.026213436  0.025275201           21 
 1586000   0.62489266   -6.2547475    497.11178  0.026119787  0.025256996           16 
 1587000   0.62501835   -6.2574867    497.28346  0.026112343  0.025238797           18 
 1588000   0.62095321   -6.2553096    498.53476  0.026161564  0.025220636           25 
 1589000   0.63487922   -6.2426213    498.89798  0.026164148  0.025202552           17 
 1590000   0.61001375   -6.2704939    497.20586  0.026059007  0.025184432           36 
 1591000   0.61419187    -6.266471    498.81246  0.026126779  0.025166396           42 
 1592000   0.62073682   -6.2547206     498.4674  0.026092305  0.025148327           21 
 1593000   0.62948228   -6.2574264    498.34572  0.026069561  0.025130256           16 
 1594000   0.61627701   -6.2707378    499.54127  0.026115708  0.025112179           20 
 1595000   0.61956092   -6.2917397    498.44815  0.026042223  0.025094115           20 
 1596000   0.61066735   -6.2619056     498.4777  0.026027449  0.025076157           11 
 1597000   0.62163681   -6.2572086    498.87453  0.026031858   0.02505815           13 
 1598000   0.62184081     -6.28065    497.54558  0.025946265  0.025040117           17 
 1599000   0.62058907   -6.2849805    498.65236   0.02598772   0.02502211           18 
 1600000   0.60624803   -6.2726003    499.07238  0.025993353   0.02500407           10 
 1601000   0.62055073   -6.2734945    498.88033  0.025967121  0.024986156           15 
 1602000   0.61917179   -6.2685752    499.40479  0.025978193  0.024968238           28 
 1603000   0.61594588   -6.2904892    498.66205  0.025923376  0.024950268           43 
 1604000   0.61688794    -6.284207    498.56243  0.025902038  0.024932286           20 
 1605000   0.62093196   -6.2589264    499.09939   0.02591378  0.024914377           32 
 1606000   0.62478684   -6.2686729    499.49389  0.025918114  0.024896497           27 
 1607000   0.61085793   -6.2771495    498.37172  0.025843794  0.024878634           26 
 1608000   0.62469313   -6.2710719    499.31097  0.025876398  0.024860763           27 
 1609000   0.60614645   -6.2918387    498.23737  0.025804712  0.024842852           69 
 1610000    0.6039833   -6.3028311    498.27747  0.025790759  0.024825049           30 
 1611000    0.6119232   -6.2680517    499.64126  0.025845296  0.024807322           14 
 1612000    0.6107471   -6.2778213    498.31746  0.025760828  0.024789579           11 
 1613000   0.61147812   -6.2704547    499.29342  0.025795279  0.024771893           12 
 1614000   0.61534128   -6.2618587    499.58145  0.025794168  0.024754193           16 
 1615000   0.61829965   -6.2860974    499.44267  0.025771036  0.024736553           34 
 1616000   0.62057851   -6.3052128    498.46332  0.025704586  0.024718904            9 
 1617000   0.60673154   -6.2706328    499.76453  0.025755748  0.024701215           31 
 1618000   0.60643971   -6.2907698    499.53314  0.025727912  0.024683503           16 
 1619000   0.60521715   -6.2882907    499.53317  0.025712022   0.02466585           47 
 1620000   0.59904347   -6.2698092    500.39924  0.025740702  0.024648233           29 
 1621000   0.60219932   -6.2858359    498.64699  0.025634741  0.024630586           25 
 1622000   0.61520938   -6.2901598    498.64208  0.025618685  0.024612862           70 
 1623000    0.6040233   -6.2938912    498.85909  0.025614042  0.024595177           56 
 1624000   0.60421034    -6.286674    498.68039    0.0255891  0.024577538           23 
 1625000   0.61113647   -6.2906757    499.59467   0.02562024  0.024559927           15 
 1626000   0.60050569   -6.2783597    499.21159   0.02558485  0.024542377           35 
 1627000   0.59851407   -6.2836976    498.89455  0.025552886  0.024524846           58 
 1628000   0.61316892   -6.2895114    499.76191  0.025581588  0.024507374           18 
 1629000   0.59977289   -6.2940075    500.31669  0.025594265  0.024489843           28 
 1630000   0.61142198   -6.3006659    499.90456  0.025557493  0.024472298           24 
 1631000   0.60469703   -6.2853249    499.48996  0.025520639  0.024454833           57 
 1632000   0.59972382   -6.2790474    499.60447  0.025510849  0.024437416           25 
 1633000   0.59332882   -6.2992771    499.78205  0.025504289  0.024419947           16 
 1634000   0.61111874   -6.3274034    499.84857  0.025492073  0.024402444           61 
 1635000   0.59564911   -6.2813406    499.98237  0.025483301  0.024384966           16 
 1636000   0.59673629   -6.2871836    500.44785  0.025491435  0.024367555           31 
 1637000   0.61121268   -6.3045809    500.15907  0.025461162  0.024350132           23 
 1638000   0.59013949   -6.3000306    500.46258  0.025461059  0.024332687           33 
 1639000    0.6082574   -6.3011747    498.54758  0.025348158  0.024315248           29 
 1640000   0.59302879   -6.3068463    499.55722  0.025384005  0.024297818           54 
 1641000   0.59941516   -6.2918065    499.81787  0.025381773  0.024280414           19 
 1642000   0.59426626   -6.3147952    500.71191  0.025411688  0.024263045           23 
 1643000   0.58974692   -6.3108311    499.16118  0.025317568   0.02424566           29 
 1644000   0.60481242   -6.3016039    499.62299  0.025325577  0.024228267           28 
 1645000   0.61552003   -6.3013241    499.95764  0.025327135  0.024210886           47 
 1646000    0.5975332   -6.3151638     500.2673  0.025327425  0.024193503           18 
 1647000   0.60913869   -6.3170214    499.70257  0.025283474  0.024176048           20 
 1648000   0.60570769   -6.3426106    498.46519  0.025205562  0.024158582           17 
 1649000   0.59475682   -6.3498739    498.19703  0.025176725  0.024141058           43 
 1650000   0.59192646   -6.3271028    499.32447  0.025218408  0.024123607           25 
 1651000    0.5900741   -6.3361423    498.80773  0.025177051  0.024106134           43 
 1652000   0.58053558   -6.3271225    497.80072  0.025111013  0.024088697           32 
 1653000   0.59529363   -6.3410055    498.67589  0.025139942  0.024071258           12 
 1654000   0.60486366    -6.315054    499.51453  0.025166996  0.024053875           27 
 1655000   0.59750632   -6.3397996    499.09577  0.025130703  0.024036499           34 
 1656000   0.59533952   -6.3196107    498.20533  0.025070719  0.024019137           23 
 1657000   0.60568965   -6.3399443    498.17868  0.025054248   0.02400174           22 
 1658000   0.58754746   -6.3472491    499.06596  0.025083733  0.023984327           25 
 1659000    0.5992003   -6.3247267    499.24162  0.025077437  0.023966935           40 
 1660000   0.58268336   -6.3189805    499.49355  0.025074977  0.023949585           19 
 1661000   0.59198915   -6.3229126    499.17408  0.025043853  0.023932203           25 
 1662000   0.59585486   -6.3480847    500.02309  0.025071354   0.02391487           30 
 1663000   0.58444759   -6.3289632    499.60347  0.025035251   0.02389751           42 
 1664000   0.57595686   -6.3448565    497.66068  0.024922911  0.023880181           48 
 1665000   0.59309524   -6.3263066    498.79136  0.024964532  0.023862839           42 
 1666000   0.59740734   -6.3357311    498.47347  0.024933647  0.023845508           26 
 1667000   0.58310021   -6.3397773    499.20903  0.024955461  0.023828175           30 
 1668000    0.5913304   -6.3243762    498.62729  0.024911436  0.023810821           31 
 1669000   0.58056416   -6.3324933     497.7161  0.024851014  0.023793544           43 
 1670000   0.59919121   -6.3515107    499.20602   0.02491048  0.023776246           22 
 1671000    0.5734583   -6.3707643     498.3238  0.024851576     0.023759           43 
 1672000   0.58527407   -6.3325912    499.48814  0.024894744  0.023741741           30 
 1673000   0.58099618   -6.3436013    497.61065  0.024786344   0.02372453           57 
 1674000    0.5904027   -6.3332193    499.80798  0.024880923  0.023707319           29 
 1675000   0.57693036   -6.3481088    499.78129  0.024864741  0.023690085           17 
 1676000   0.58586159    -6.352179    499.33405  0.024827667  0.023672866           20 
 1677000   0.58363893   -6.3624449    497.93239  0.024743212  0.023655638           30 
 1678000   0.58807946   -6.3392245     498.5559  0.024759431  0.023638441           39 
 1679000   0.56482093   -6.3607289    499.38068   0.02478562  0.023621272           54 
 1680000   0.58320385   -6.3495888     498.7058  0.024737391  0.023604056           58 
 1681000   0.56856934   -6.3726768    498.30287    0.0247027  0.023586839           44 
 1682000   0.59485969   -6.3482353    499.27005  0.024735932  0.023569655           38 
 1683000   0.57461612   -6.3390051    498.70648  0.024693329  0.023552537           43 
 1684000   0.58131768   -6.3561002    499.45819  0.024715865  0.023535406           29 
 1685000   0.58391055   -6.3745566    498.57118  0.024657328  0.023518173           30 
 1686000   0.58634398   -6.3735285    498.49975  0.024639173  0.023500983           42 
 1687000   0.57325195    -6.354948    497.74002  0.024587039  0.023483829           32 
 1688000   0.57020202   -6.3807693    498.06768  0.024588649  0.023466669           31 
 1689000   0.57711683   -6.3642372    498.68898  0.024604745   0.02344955           50 
 1690000   0.57032583   -6.3695476    498.06593  0.024559464  0.023432431          105 
 1691000   0.59374909   -6.3598892    499.30665  0.024606084  0.023415333          136 
 1692000   0.58107262   -6.3421991    498.66489  0.024559933  0.023398269           99 
 1693000   0.56083251   -6.3657733    497.69877  0.024497872  0.023381169           55 
 1694000   0.57980218   -6.3710517    497.55695  0.024476434  0.023364043           64 
 1695000   0.58759926   -6.3678178    498.46451  0.024506613   0.02334699           39 
 1696000   0.57504792   -6.3732468    497.77448  0.024458259  0.023329908           74 
 1697000   0.58159836   -6.3810497    497.60299  0.024435425  0.023312853           78 
 1698000   0.57962144    -6.371318    498.37593  0.024458968  0.023295781           54 
 1699000   0.56985972   -6.3720085    498.55253  0.024453234  0.023278739           54 
 1700000   0.56762547   -6.3709949    498.18572  0.024420869  0.023261667          101 
 1701000   0.57147436   -6.3820377    497.15618  0.024356074  0.023244576           63 
 1702000   0.57747279   -6.3855253    497.33945  0.024350737  0.023227485           61 
 1703000   0.56952926    -6.392739     497.9328  0.024365473  0.023210462           57 
 1704000   0.58084291   -6.3832381    497.91156  0.024350135  0.023193403           56 
 1705000   0.57776161   -6.3618909    498.49597  0.024364417  0.023176355           81 
 1706000   0.56698221   -6.3752237    498.32536  0.024341802  0.023159329          122 
 1707000   0.58030601   -6.3936666    498.91039  0.024356102  0.023142278           80 
 1708000   0.56838111   -6.3957406    498.24849  0.024309548  0.023125285          117 
 1709000   0.58519133   -6.3995418    497.29516  0.024248838  0.023108298           52 
 1710000    0.5653755   -6.3834851    498.65428  0.024300891  0.023091301           63 
 1711000   0.56645632   -6.3797473    498.46366  0.024277404  0.023074324           64 
 1712000   0.56138006   -6.4042979    498.44192  0.024262165  0.023057364           79 
 1713000   0.56561617   -6.3773095    499.02107  0.024276176  0.023040385          105 
 1714000   0.56610029   -6.4074992    498.07937  0.024216228  0.023023439           76 
 1715000   0.56472267   -6.3871057    497.72614  0.024184944  0.023006477          154 
 1716000   0.57823816   -6.3838508    498.47867  0.024207395  0.022989582           72 
 1717000   0.56267677   -6.4200374    498.90792  0.024214129  0.022972679           54 
 1718000   0.57087609   -6.3739807     497.9806  0.024155054  0.022955847           72 
 1719000   0.56632944   -6.4066474    498.58799  0.024170447  0.022938989           98 
 1720000   0.56381514   -6.4012349     497.6119  0.024109104  0.022922158          122 
 1721000   0.57163207   -6.4015366    498.90834   0.02415787   0.02290534           42 
 1722000   0.56896852   -6.4008209    498.08045  0.024103777  0.022888528           64 
 1723000   0.56641199   -6.3874559    498.37473  0.024104021  0.022871775           73 
 1724000   0.55413433   -6.3984642    497.21186  0.024033829  0.022854988           75 
 1725000   0.56533777   -6.4018778    497.29414  0.024023871  0.022838202           67 
 1726000   0.58178916   -6.4067859    497.27215  0.024008891  0.022821466           72 
 1727000   0.56365079   -6.4018086    497.34403  0.023998457  0.022804692          144 
 1728000   0.56984206   -6.4062932    497.71177  0.024002304  0.022787917           60 
 1729000   0.55475248   -6.4167732    497.52412  0.023979377  0.022771165           65 
 1730000     0.568333   -6.3863945    498.04088  0.023990408  0.022754387           83 
 1731000    0.5620435     -6.39661    498.52954  0.024000074  0.022737648          119 
 1732000   0.56644823   -6.3937092    497.88811  0.023955356  0.022720952           77 
 1733000    0.5697838   -6.4076042    498.18707  0.023955908  0.022704187          162 
 1734000   0.55599233   -6.4347939    497.83202   0.02392503  0.022687424          100 
 1735000   0.56203641   -6.4192868    497.87328  0.023913222   0.02267064           53 
 1736000   0.55513297   -6.4376461    497.26704  0.023870345  0.022653885           96 
 1737000   0.55526217   -6.4052252    496.94979  0.023841383  0.022637098           69 
 1738000   0.55592705   -6.4137393    498.26012  0.023890493  0.022620353           74 
 1739000   0.56606242   -6.4128605    497.51427  0.023841013  0.022603654          116 
 1740000   0.54943314   -6.4084915      497.266  0.023815421  0.022586943           61 
 1741000   0.55690166   -6.4008217    497.79606  0.023827114  0.022570272          120 
 1742000   0.54143459   -6.4063817     496.3891   0.02374613  0.022553614           94 
 1743000   0.54219101   -6.4139127    498.30675   0.02382419  0.022536982           75 
 1744000   0.56261232   -6.4355629    497.34653  0.023764647  0.022520297           96 
 1745000   0.56152917   -6.4113577    496.92564  0.023730928   0.02250355          168 
 1746000   0.55648686   -6.4481023    497.58971  0.023749032  0.022486837           97 
 1747000   0.56708619   -6.4171171    497.56089  0.023734063  0.022470192          153 
 1748000   0.54629157   -6.4468151    496.54427  0.023672019  0.022453542          197 
 1749000   0.55400264   -6.4428076    496.63509  0.023662812  0.022436821          173 
 1750000   0.55485856    -6.439509    497.30758  0.023681313  0.022420157          132 
 1751000     0.550695   -6.4255844     496.3018  0.023619922  0.022403468           56 
 1752000   0.55388548   -6.4346728    496.74438  0.023627492  0.022386838          119 
 1753000   0.54489253    -6.427586    496.96738  0.023624614  0.022370181          146 
 1754000   0.54651235   -6.4539111    496.90092  0.023607987  0.022353529          181 
 1755000   0.54863086   -6.4466656    496.48227  0.023574657  0.022336871           75 
 1756000   0.56228436   -6.4667957    496.35843  0.023555355  0.022320237          142 
 1757000   0.54623204   -6.4365543     497.1993   0.02358183  0.022303593          106 
 1758000   0.54710464   -6.4505731    497.04184  0.023560952  0.022286974          113 
 1759000   0.54728561   -6.4483026    496.56628  0.023525027  0.022270359           97 
 1760000   0.55046795   -6.4536112    497.53767  0.023557655  0.022253752           73 
 1761000     0.557526   -6.4586722    496.11699  0.023477049  0.022237155           58 
 1762000   0.54389042   -6.4483948     496.8123  0.023496609  0.022220559          133 
 1763000   0.56321944   -6.4455315    495.79199  0.023435053  0.022204011          190 
 1764000   0.54887988   -6.4351988    495.92075  0.023427851   0.02218745          157 
 1765000   0.55119626   -6.4645317     497.4113  0.023484953  0.022170926          189 
 1766000   0.55509494   -6.4531456    497.90848  0.023495115  0.022154455          106 
 1767000   0.54883428   -6.4616601    496.76922   0.02342809  0.022138019          130 
 1768000   0.55812819   -6.4561191    496.45783  0.023400162   0.02212153          105 
 1769000   0.55681046   -6.4602224    497.16733  0.023420357  0.022105079          153 
 1770000   0.54671667   -6.4480005    496.73366  0.023386707  0.022088646          189 
 1771000    0.5502388   -6.4537553    497.08357  0.023389966   0.02207224          161 
 1772000   0.54692002   -6.4563955    496.27371  0.023338681  0.022055847          152 
 1773000   0.53862813   -6.4512467    495.78796  0.023302687  0.022039445          160 
 1774000   0.55922539   -6.4562428    497.15429  0.023353734  0.022023066          176 
 1775000   0.55054295   -6.4716213    495.68502  0.023271597  0.022006703          192 
 1776000   0.54960688   -6.4740203    495.24255  0.023237732  0.021990335          114 
 1777000   0.53764149   -6.4578035    497.41129  0.023326359  0.021973987          112 
 1778000   0.53407291   -6.4537513    497.48808  0.023316839  0.021957639          132 
 1779000   0.53795478   -6.4631582      495.939  0.023231169  0.021941281          178 
 1780000   0.55115352   -6.4594077    497.62279  0.023296947  0.021924965          127 
 1781000   0.53874547   -6.4543579    497.62698  0.023284062  0.021908631          116 
 1782000   0.54919739   -6.4832064    495.80042  0.023185579  0.021892259          140 
 1783000   0.55711284   -6.4814706    496.61608  0.023210697  0.021875922          124 
 1784000    0.5395592   -6.4629305    495.78217  0.023158734  0.021859579          151 
 1785000   0.53366955   -6.4709523    495.65227  0.023139695  0.021843243          161 
 1786000   0.53613641   -6.4646624    496.77693  0.023179215  0.021826961          165 
 1787000   0.54884111   -6.4918645    495.82217   0.02312172  0.021810663          137 
 1788000    0.5335441   -6.4731725    495.62153  0.023099438  0.021794361          221 
 1789000   0.53103079   -6.4780138    495.33446  0.023073154  0.021778037          134 
 1790000   0.53684241   -6.4627755    496.34506  0.023107312  0.021761702          127 
 1791000   0.54793445   -6.4792357    495.88439  0.023072975  0.021745405          168 
 1792000   0.52920452   -6.4850201     496.1044  0.023070331   0.02172912          157 
 1793000   0.55182799   -6.4990025    495.53747  0.023031115  0.021712815          126 
 1794000   0.53476739   -6.4874627    494.33247  0.022962303  0.021696516          147 
 1795000   0.54158898   -6.4725794    495.53556  0.023005365  0.021680219          113 
 1796000   0.53057463    -6.478522    494.93159  0.022964532  0.021663944           93 
 1797000   0.53869835    -6.497626    496.34515  0.023017304   0.02164771          144 
 1798000   0.53132828   -6.4851849    496.22687  0.022999021  0.021631491          170 
 1799000   0.52001211   -6.4918745    496.01473  0.022976409  0.021615249          269 
 1800000   0.55239062   -6.4848723    495.88008  0.022957411  0.021599072          146 
 1801000   0.53486628   -6.4710612    495.96827  0.022948745   0.02158291          224 
 1802000   0.51625248   -6.5059457    495.75295  0.022926052   0.02156678          184 
 1803000   0.53033544   -6.4824637     495.1864  0.022887151  0.021550593          179 
 1804000   0.53205626   -6.4983322    496.46228  0.022933402  0.021534407          208 
 1805000   0.53233433   -6.5086195     495.7057  0.022885766  0.021518207          204 
 1806000   0.53673981   -6.4959244    495.38019  0.022858074  0.021502054          264 
 1807000   0.52855829   -6.4926692    495.32956   0.02284309  0.021485895          204 
 1808000   0.54629484   -6.5089421     494.9904  0.022814823  0.021469741          206 
 1809000   0.52602915    -6.488373    495.70588   0.02283517  0.021453595          253 
 1810000   0.53313536   -6.4921194    495.16502  0.022797653  0.021437485          359 
 1811000   0.54842498   -6.5249175    494.80884  0.022768675  0.021421387          297 
 1812000   0.52650752   -6.5111091    494.37439  0.022736129  0.021405239          290 
 1813000   0.53835476   -6.4897869    494.52198  0.022730372  0.021389092          423 
 1814000   0.52253997   -6.5022078    495.12917  0.022745736  0.021372956          254 
 1815000   0.53241985   -6.5180551    494.53345  0.022705852  0.021356852          339 
 1816000   0.54173613   -6.5100967     494.8219  0.022706585  0.021340789          401 
 1817000   0.52042937    -6.499051    495.33322  0.022717539  0.021324741          396 
 1818000   0.51899105   -6.5423224    494.75477  0.022678528  0.021308684          209 
 1819000   0.52006016   -6.5091936    495.29694  0.022690899  0.021292622          293 
 1820000   0.52676676   -6.5129383    494.45998  0.022640109  0.021276563          282 
 1821000    0.5315214    -6.520576    495.51806  0.022676096  0.021260528          397 
 1822000   0.52389608   -6.5226308    496.08093  0.022689395  0.021244523          356 
 1823000   0.51064389   -6.4957174    495.26402  0.022639606  0.021228519          301 
 1824000   0.53572321   -6.5273794    494.18391  0.022577847  0.021212541          380 
 1825000   0.52566976   -6.5118875    495.00498  0.022602967   0.02119655          338 
 1826000   0.51955406   -6.5127228    494.46131  0.022565777  0.021180576          407 
 1827000   0.52209531   -6.5170651    494.64121  0.022561632  0.021164595          331 
 1828000    0.5188637   -6.5168436    495.49772  0.022588335  0.021148634          398 
 1829000   0.52656055   -6.5530965    494.28511  0.022520736  0.021132702          434 
 1830000   0.52057003   -6.5397056    494.20108  0.022504603  0.021116743          404 
 1831000    0.5166135   -6.5333862    494.54105  0.022507785  0.021100824          435 
 1832000   0.52415309   -6.5063385    495.24406  0.022527477    0.0210849          389 
 1833000   0.52906426   -6.5277159    494.88108  0.022498685  0.021069006          343 
 1834000   0.52811014   -6.5027992    494.80344   0.02248289  0.021053098          362 
 1835000   0.52790635   -6.5067063    494.68229  0.022465136  0.021037244          332 
 1836000   0.52054483   -6.5313058    494.04691  0.022424061  0.021021365          380 
 1837000   0.52217062   -6.5116168    493.00421  0.022364553  0.021005487          452 
 1838000   0.53043145   -6.5283879    495.16933   0.02245055  0.020989613          508 
 1839000    0.5121388   -6.5262516    494.41284  0.022404062  0.020973782          425 
 1840000   0.51561392   -6.5268924    493.65873  0.022357732  0.020957949          413 
 1841000   0.52676688   -6.5181236    493.95965  0.022359209  0.020942125          533 
 1842000   0.51464495   -6.5254652    493.80042  0.022339867  0.020926327          447 
 1843000   0.52362585   -6.5299399    494.60868  0.022364292  0.020910552          440 
 1844000   0.52046606   -6.5409573     493.0616  0.022282249  0.020894766          458 
 1845000   0.51006107   -6.5348073    494.40871  0.022331017  0.020878967          437 
 1846000   0.51313573   -6.5332652    494.59959  0.022327536  0.020863186          602 
 1847000   0.50997929   -6.5193916    493.99831   0.02228832   0.02084743          588 
 1848000   0.51034348   -6.5314894    494.48583  0.022298243  0.020831689          597 
 1849000   0.51364241   -6.5399743    494.06497  0.022267215  0.020815945          598 
 1850000   0.53056067   -6.5419565    493.43953  0.022227006  0.020800164          537 
 1851000   0.51641486   -6.5341121    494.34856  0.022255923  0.020784391          618 
 1852000   0.50337384   -6.5479884    492.94275  0.022180649  0.020768635          660 
 1853000   0.51902072     -6.54614    494.17579  0.022224132  0.020752897          632 
 1854000   0.50648447   -6.5493997    492.52038  0.022137737  0.020737148          591 
 1855000    0.5137317   -6.5433504     493.5293  0.022171128  0.020721417          640 
 1856000   0.50884931   -6.5627921    493.06511   0.02213834  0.020705718          644 
 1857000   0.51323281   -6.5347175    493.50126  0.022145991  0.020690011          678 
 1858000   0.51773369    -6.552995    493.49533  0.022133805  0.020674333          631 
 1859000   0.51028154   -6.5414006    493.74034  0.022132882  0.020658656          577 
 1860000   0.49795812   -6.5496571    493.32974  0.022102587     0.020643          580 
 1861000    0.5175835   -6.5409281    493.08897  0.022079929  0.020627346          505 
 1862000   0.51529804    -6.574521    492.84196  0.022057016  0.020611715          538 
 1863000   0.51247719   -6.5395407    492.96038  0.022050473  0.020596079          571 
 1864000   0.51243663   -6.5407918    493.13708  0.022046543  0.020580461          558 
 1865000   0.51085552   -6.5581343    493.80419   0.02206453  0.020564847          623 
 1866000   0.50265801    -6.560439    493.19381  0.022025447  0.020549219          524 
 1867000   0.51299042   -6.5618798    493.16783   0.02201249  0.020533617          558 
 1868000   0.51761799   -6.5623331    492.30998  0.021962437  0.020518013          642 
 1869000   0.49375936   -6.5593092    493.30119  0.021994881  0.020502422          539 
 1870000   0.50140074    -6.554367    492.58457  0.021951184  0.020486854          633 
 1871000   0.49983082   -6.5501111    492.68298  0.021943835  0.020471288          521 
 1872000   0.50342248   -6.5638655    492.13171  0.021907572  0.020455723          570 
 1873000   0.52085221   -6.5593756    492.65266  0.021919054  0.020440175          576 
 1874000   0.51274204    -6.570846    493.20525   0.02193193  0.020424652          622 
 1875000   0.50085545    -6.567985    493.87264  0.021949895  0.020409119          510 
 1876000   0.49765284   -6.5576411    493.69453  0.021930283  0.020393604          617 
 1877000   0.49943437   -6.5735571     493.9081  0.021928081  0.020378094          596 
 1878000   0.50519332   -6.5589695    493.30561   0.02188967  0.020362607          725 
 1879000   0.49630803   -6.5562155    493.57942  0.021890164  0.020347112          456 
 1880000   0.50908625   -6.5612036    492.64658  0.021837171   0.02033163          508 
 1881000   0.50221736   -6.5754472    492.31201  0.021810739  0.020316154          618 
 1882000   0.49583397   -6.5721063    492.66353  0.021814715  0.020300689          551 
 1883000   0.49865823   -6.5809418    492.14681  0.021780262  0.020285241          556 
 1884000   0.50420805    -6.579812    492.41426  0.021780531  0.020269853          642 
 1885000    0.5098001   -6.5682148     493.3534  0.021810495  0.020254477          664 
 1886000   0.49685023   -6.5706623    493.63598  0.021811416   0.02023911          577 
 1887000   0.49974572   -6.5740889    492.96773  0.021770347  0.020223751          609 
 1888000   0.50144085   -6.5575441    492.28393  0.021728634  0.020208391          755 
 1889000   0.51187818    -6.565723    493.51572  0.021771472  0.020193078          732 
 1890000   0.50172527   -6.5879042    494.31717   0.02179529  0.020177748          738 
 1891000   0.49600389    -6.578115    492.49598  0.021703507  0.020162431          703 
 1892000   0.49906038    -6.575528    492.76821  0.021704026  0.020147138          607 
 1893000   0.50765831   -6.5950705       492.43  0.021677672  0.020131841          644 
 1894000   0.48635125   -6.5817601    492.99772  0.021691206  0.020116564          718 
 1895000   0.49516422   -6.5864504    492.18782  0.021644144  0.020101291          758 
 1896000   0.49235725   -6.5860078    493.41745  0.021686773  0.020086059          760 
 1897000   0.50540219   -6.5984417    492.03192  0.021614476  0.020070825          663 
 1898000   0.49347182   -6.5876732    492.58803  0.021627504  0.020055606          742 
 1899000    0.4871848   -6.5861734    492.49672  0.021612108  0.020040371          813 
 1900000   0.49619046    -6.602229    492.53523  0.021602422  0.020025159          662 
 1901000   0.50020648   -6.5746495    492.28473  0.021580077  0.020009964          694 
 1902000   0.49082153     -6.58704    493.19016  0.021608402  0.019994778          715 
 1903000   0.49868836   -6.5865142    493.63294  0.021616436  0.019979607          723 
 1904000   0.48959706   -6.5903226    492.39508  0.021550905   0.01996445          731 
 1905000   0.48892688   -6.5983943    491.75608  0.021511639  0.019949274          736 
 1906000   0.48884609   -6.6091422    491.42293  0.021485787  0.019934103          720 
 1907000   0.50197921   -6.5918016    491.64702  0.021484313  0.019918937          737 
 1908000   0.49379697   -6.5846348    492.42036  0.021506829  0.019903812          746 
 1909000   0.48822869   -6.5759145    492.53671  0.021500642  0.019888688          835 
 1910000   0.47728833   -6.5928932    492.01348  0.021466557  0.019873569          754 
 1911000   0.47991925   -6.6095189    491.46216  0.021431282  0.019858438          690 
 1912000   0.50078864   -6.5868958     491.2772  0.021412012  0.019843317          841 
 1913000   0.49774483   -6.6132433    492.02264  0.021433292  0.019828174          823 
 1914000   0.48293445   -6.6103099    491.92915  0.021418023  0.019813062          732 
 1915000   0.48518361   -6.6062304    491.63243  0.021393926  0.019797966          799 
 1916000    0.4886087   -6.5999336    490.89226  0.021350568  0.019782868          776 
 1917000    0.4874379   -6.5933006    492.37243  0.021403774  0.019767811          808 
 1918000   0.49584138   -6.6050696    491.60112  0.021359103  0.019752724          775 
 1919000   0.48170155   -6.6319484    491.65645  0.021350375  0.019737649          862 
 1920000   0.47879585   -6.6104977    491.04341  0.021312648   0.01972259          914 
 1921000   0.48488176    -6.619116    492.10623  0.021347659  0.019707565          806 
 1922000   0.49247061   -6.6089962    491.30939  0.021302003  0.019692538          667 
 1923000   0.49014491   -6.6084266    492.22822  0.021330743  0.019677523          813 
 1924000   0.48555822   -6.5996627    491.54198  0.021289933  0.019662551          854 
 1925000   0.49350747   -6.5975089    491.00315  0.021255548  0.019647559          859 
 1926000   0.48026215   -6.6242565    491.42409  0.021262725  0.019632569          853 
 1927000   0.49352457   -6.6196406    491.57793  0.021258343  0.019617615          757 
 1928000   0.48410923    -6.595107    491.19312  0.021230685  0.019602643          954 
 1929000   0.47765603   -6.6316384    491.33038  0.021225608  0.019587672          935 
 1930000   0.48796812    -6.622695    491.05536  0.021202736   0.01957272          890 
 1931000   0.48182702   -6.6218273    492.92534  0.021272455  0.019557787          774 
 1932000   0.48466495   -6.6262805    490.99936  0.021178371  0.019542878          760 
 1933000   0.48600496   -6.6152764    491.45748  0.021187165  0.019527977          802 
 1934000   0.48364825   -6.6292857    491.14758  0.021162857  0.019513083          815 
 1935000   0.48343714   -6.6328137     490.7139  0.021133243  0.019498188          857 
 1936000   0.47445728   -6.6286057    489.94858  0.021089384  0.019483304          913 
 1937000   0.47951853   -6.6259284    491.23195   0.02113371   0.01946844          913 
 1938000   0.47639848   -6.6208422    491.16506  0.021119929  0.019453587          793 
 1939000   0.48100348   -6.6336085     490.7018  0.021089127  0.019438752          813 
 1940000   0.47286397   -6.6414902    490.64512  0.021075821  0.019423951          845 
 1941000   0.48527348   -6.6301539      491.663  0.021108664  0.019409169          821 
 1942000   0.47131468   -6.6371081    491.30124  0.021082271  0.019394383          826 
 1943000   0.47333447   -6.6334902    491.09213  0.021062452  0.019379597          815 
 1944000   0.47848633   -6.6278754    491.08858  0.021051465  0.019364828          756 
 1945000   0.48213907   -6.6292455    491.98149  0.021078899  0.019350073          817 
 1946000   0.47357938   -6.6123806    490.77693  0.021016484  0.019335327          851 
 1947000   0.47228188   -6.6180107    490.28787  0.020984757  0.019320619          853 
 1948000   0.47029681   -6.6244277    491.33798  0.021018907   0.01930593          892 
 1949000   0.48070941   -6.6368039    490.61175  0.020977071  0.019291232          900 
 1950000   0.47588524   -6.6188889    490.55137  0.020963734  0.019276548          855 
 1951000   0.47545255   -6.6215589     490.6216  0.020955988  0.019261882          906 
 1952000   0.47316147   -6.6502462    490.90312  0.020957271  0.019247207          795 
 1953000   0.46984875   -6.6255991    490.50038  0.020929356  0.019232543          969 
 1954000   0.47809206   -6.6424244    491.08485  0.020943571  0.019217895          992 
 1955000   0.46798937   -6.6394259    490.39608  0.020903499  0.019203263          989 
 1956000   0.47730708   -6.6599664    490.87957   0.02091341  0.019188641          977 
 1957000   0.47654946    -6.639005    491.04307  0.020909686   0.01917402          944 
 1958000   0.48644478   -6.6414083     490.9451  0.020894837  0.019159407         1018 
 1959000   0.47414639   -6.6424634    490.23995  0.020854175  0.019144824          926 
 1960000   0.46456413    -6.626599    490.67014  0.020861826  0.019130261         1025 
 1961000   0.47937837   -6.6467685    490.58035  0.020847371  0.019115702          987 
 1962000   0.45938465   -6.6445134    490.06862  0.020815011   0.01910117         1058 
 1963000   0.46385079   -6.6514092    491.40971  0.020861339  0.019086626          962 
 1964000   0.47259878   -6.6371919    491.09071  0.020837182  0.019072091          981 
 1965000   0.47886135   -6.6479812    490.60295  0.020805893  0.019057565         1012 
 1966000   0.46464137    -6.641878    491.20467  0.020820815  0.019043051         1062 
 1967000   0.46735315   -6.6366445    490.52678  0.020781511  0.019028564         1081 
 1968000   0.47397253   -6.6424531    490.29913  0.020761312  0.019014077         1083 
 1969000   0.47457214   -6.6385811    490.77759  0.020771017  0.018999609         1034 
 1970000    0.4723255   -6.6319316    490.71523  0.020757835   0.01898516         1110 
 1971000   0.47747759   -6.6560381    490.52134  0.020739106  0.018970713         1074 
 1972000   0.45388265   -6.6550122     490.5299  0.020728951  0.018956273         1064 
 1973000   0.45507932   -6.6471247    489.67851  0.020682485  0.018941851         1060 
 1974000   0.46406695   -6.6432298    491.24507   0.02073814  0.018927432         1131 
 1975000    0.4642299   -6.6491137    490.34834  0.020689803   0.01891303         1085 
 1976000    0.4511788   -6.6551213    491.19345  0.020714974  0.018898629         1080 
 1977000   0.47026087   -6.6555193    490.35879  0.020669313  0.018884271         1112 
 1978000   0.46140913   -6.6498561     490.3367  0.020657933  0.018869902         1102 
 1979000   0.46428035   -6.6622188      489.635  0.020617947  0.018855546         1186 
 1980000   0.46783416    -6.643787    489.38643  0.020597072  0.018841203         1102 
 1981000   0.46817092   -6.6465417    490.68634  0.020641357  0.018826904         1169 
 1982000    0.4596185    -6.641032    489.90071  0.020597911  0.018812579         1161 
 1983000    0.4500583   -6.6600853    490.52859  0.020613909  0.018798263         1096 
 1984000   0.46374491   -6.6529497    490.84359   0.02061675  0.018783991         1144 
 1985000   0.46715817   -6.6556698    491.02398  0.020613937  0.018769727         1124 
 1986000   0.46008029   -6.6653601    491.13886  0.020608378  0.018755477         1151 
 1987000   0.46892123   -6.6614527    489.66342  0.020536127  0.018741242         1032 
 1988000   0.45904818   -6.6339839    490.51515    0.0205615  0.018727012         1084 
 1989000   0.46715506   -6.6388508     489.5031  0.020508761  0.018712811         1085 
 1990000   0.45765892   -6.6619044    489.76255  0.020509319  0.018698605         1017 
 1991000   0.44930748   -6.6463852    490.62016  0.020534914  0.018684419         1116 
 1992000   0.45406648   -6.6569497    489.70839  0.020486462  0.018670232         1051 
 1993000   0.44667999    -6.659973    489.13387  0.020452161  0.018656056         1050 
 1994000   0.44835525   -6.6531722    491.30944  0.020532825  0.018641889         1025 
 1995000   0.45123319   -6.6674863     490.2078  0.020476516  0.018627762          998 
 1996000   0.46434995    -6.638421    491.04836  0.020501351  0.018613635         1045 
 1997000   0.45328781   -6.6499498    489.38799  0.020421799  0.018599529         1010 
 1998000   0.45931144   -6.6651936    490.63053  0.020463402  0.018585427         1056 
 1999000    0.4483185   -6.6770672    489.52588  0.020407115  0.018571312         1145 
 2000000   0.45358308   -6.6547851    489.59495  0.020399789  0.018557212         1096 
 2001000   0.45010609    -6.664078     489.7752  0.020397101  0.018543129         1153 
 2002000   0.46134031   -6.6892522    490.02188  0.020397181   0.01852905         1066 
 2003000   0.45788341   -6.6736361    490.64454  0.020412903  0.018514994         1077 
 2004000   0.45315335    -6.676138     490.4287  0.020393742  0.018500941         1034 
 2005000    0.4586059   -6.6675774    489.96852  0.020364444  0.018486906         1063 
 2006000   0.45230516   -6.6802288    490.01354  0.020356162  0.018472862         1146 
 2007000   0.45264638   -6.6881101    489.34812  0.020318391  0.018458812         1148 
 2008000   0.46338845   -6.6735567    489.89475  0.020330957  0.018444791         1168 
 2009000    0.4481172    -6.665154    489.95045  0.020323148   0.01843078         1173 
 2010000   0.44855988   -6.6697994    490.42114  0.020332552  0.018416776         1061 
 2011000   0.44373049   -6.6637759    490.58622  0.020329281  0.018402797         1170 
 2012000    0.4448718   -6.6566584    489.12643  0.020258716  0.018388817         1114 
Loop time of 5150.13 on 48 procs for 2000000 steps with 4000 atoms

Performance: 67105.050 tau/day, 388.339 timesteps/s
99.4% CPU use with 48 MPI tasks x no OpenMP threads

MPI task timing breakdown:
Section |  min time  |  avg time  |  max time  |%varavg| %total
---------------------------------------------------------------
Pair    | 371.94     | 394.74     | 424.22     |  55.3 |  7.66
Neigh   | 35.36      | 36.677     | 38.234     |  13.5 |  0.71
Comm    | 324.06     | 356.36     | 381.28     |  62.2 |  6.92
Output  | 4.7692     | 4.7711     | 4.8238     |   0.4 |  0.09
Modify  | 4295.3     | 4310.1     | 4324.5     |   9.3 | 83.69
Other   |            | 47.46      |            |       |  0.92

Nlocal:        83.3333 ave          92 max          78 min
Histogram: 7 3 9 8 4 10 2 3 1 1
Nghost:        2382.35 ave        2395 max        2373 min
Histogram: 6 6 5 7 6 6 2 4 3 3
Neighs:        16457.6 ave       18293 max       13987 min
Histogram: 2 1 4 8 4 5 7 5 8 4
FullNghs:      32914.2 ave       36068 max       30654 min
Histogram: 3 7 6 9 6 9 2 2 2 2

Total # of neighbors = 1579881
Ave neighs/atom = 394.97025
Neighbor list builds = 107320
Dangerous builds = 2

#clear
#
#next RN
#
#jump SELF
Total wall time: 1:25:53
