
units lj                  # Use reduced LJ style units
atom_style atomic         # Uncharged point particles
atom_modify map hash      # Needed for indexing of clusters etc
                          # Used to be able to find where atoms are in relation to each other.

lattice fcc 1.0 spacing 1 1 1
Lattice spacing in x,y,z = 1.5874011 1.5874011 1.5874011
region box block 0 10 0 10 0 10 units lattice
create_box 2 box
Created orthogonal box = (0.0000000 0.0000000 0.0000000) to (15.874011 15.874011 15.874011)
  3 by 4 by 4 MPI processor grid
create_atoms 1 box
Created 4000 atoms
  using lattice units in orthogonal box = (0.0000000 0.0000000 0.0000000) to (15.874011 15.874011 15.874011)
  create_atoms CPU = 0.002 seconds
set type 1 type/fraction 2 0.9 78393
Setting atom values ...
  3586 settings made for type/fraction
mass 1 1.0
mass 2 1.0
pair_style lj/cut  3.5
pair_modify tail  yes
pair_coeff 1  1  1.0  1.0   # Intearaction between 1 and 1 set with epsilon = 1 and sigma = 1
pair_coeff 1  2  1.5  0.8
pair_coeff 2  2  0.5  0.88

write_data data.0
System init for write_data ...
Neighbor list info ...
  update every 1 steps, delay 10 steps, check yes
  max neighbors/atom: 2000, page size: 100000
  master list distance cutoff = 3.8
  ghost atom cutoff = 3.8
  binsize = 1.9, bins = 9 9 9
  1 neighbor lists, perpetual/occasional/extra = 1 0 0
  (1) pair lj/cut, perpetual
      attributes: half, newton on
      pair build: half/bin/atomonly/newton
      stencil: half/bin/3d
      bin: standard
WARNING: Not all mixed pair coeffs generated from mixing. Use write_data with 'pair ij' option to store all pair coeffs. (../write_data.cpp:312)


#############################
#   M E L T   S Y S T E M   #
#############################

velocity all create 2.4 5833274 mom yes dist gaussian # Assign velocities
                                                    # Temperature 2.4, random number seed, zero linear momentum
                                                                                # Gaussian distribution

timestep 0.002   # simulation timestep
thermo 1000       # output thermodynamic data every 1000 steps bf 100

# Define a fix  in this case with index 1 applied to all
# particles in the simulation. This fix is for simulations
# in the anisotropic NPT ensemble. Note that we use the MTK
# correction.
fix 1 all npt temp 2.4 2.4 0.1 iso 5.68 5.68 0.5 mtk yes tchain 5 pchain 5 # Use NPT ensemble
                                                                         # Set temperature and pressure and damping
                                                                         # Numbers of thermostats in chain and in barostat
run 10000          # run for 10000 steps
Per MPI rank memory allocation (min/avg/max) = 3.642 | 3.644 | 3.648 Mbytes
Step Temp E_pair E_mol TotEng Press Volume 
       0          2.4   -3.1995671            0   0.39953293    -2.596694         4000 
    1000    2.4445508   -2.2273772            0    1.4385323    5.9955712    3970.1771 
    2000    2.3656772   -2.2591063            0    1.2885223    5.8515105    3964.6866 
    3000    2.4417425   -2.2539937            0    1.4077045    5.8013331    3985.7711 
    4000     2.401315    -2.225629            0     1.375443      5.82248    4003.1587 
    5000    2.3696166    -2.217502            0    1.3360343    5.6763741     4023.592 
    6000    2.3890697   -2.2293004            0    1.3534083    5.6775607    4010.3369 
    7000    2.3972792   -2.2856148            0     1.309405    5.4628037     4003.047 
    8000    2.4033065   -2.2351705            0     1.368888    5.9079232    3963.3295 
    9000    2.4201601   -2.2620678            0    1.3672648    5.7319875    3988.2383 
   10000    2.4275704   -2.2624585            0    1.3779867    5.7663213     3969.548 
Loop time of 2.58993 on 48 procs for 10000 steps with 4000 atoms

Performance: 667199.308 tau/day, 3861.107 timesteps/s
99.5% CPU use with 48 MPI tasks x no OpenMP threads

MPI task timing breakdown:
Section |  min time  |  avg time  |  max time  |%varavg| %total
---------------------------------------------------------------
Pair    | 1.1045     | 1.163      | 1.2492     |   2.9 | 44.90
Neigh   | 0.20484    | 0.21535    | 0.23738    |   1.1 |  8.31
Comm    | 0.76971    | 0.86111    | 0.9288     |   4.1 | 33.25
Output  | 0.00025489 | 0.00025942 | 0.00032575 |   0.0 |  0.01
Modify  | 0.29893    | 0.3345     | 0.36519    |   2.7 | 12.92
Other   |            | 0.01573    |            |       |  0.61

Nlocal:        83.3333 ave          93 max          74 min
Histogram: 3 4 2 4 10 9 9 3 3 1
Nghost:        1649.02 ave        1676 max        1620 min
Histogram: 2 4 0 9 6 6 13 3 4 1
Neighs:        9629.27 ave       11009 max        8241 min
Histogram: 3 2 4 6 8 8 9 4 1 3

Total # of neighbors = 462205
Ave neighs/atom = 115.55125
Neighbor list builds = 898
Dangerous builds = 185

# Equilibrate just above the melting temperature to avoid step fn in T

fix 1 all npt temp 1.25 1.25 0.1 iso 5.68 5.68 0.5 mtk yes tchain 5 pchain 5
run 2000
Per MPI rank memory allocation (min/avg/max) = 3.643 | 3.645 | 3.649 Mbytes
Step Temp E_pair E_mol TotEng Press Volume 
   10000    2.4275704   -2.2624585            0    1.3779867    5.7663213     3969.548 
   11000    1.2603707   -3.3421434            0     -1.45206    5.6871084    3111.9308 
   12000    1.2465216   -3.3721635            0   -1.5028486    5.3353035    3113.4694 
Loop time of 0.608286 on 48 procs for 2000 steps with 4000 atoms

Performance: 568154.186 tau/day, 3287.929 timesteps/s
99.6% CPU use with 48 MPI tasks x no OpenMP threads

MPI task timing breakdown:
Section |  min time  |  avg time  |  max time  |%varavg| %total
---------------------------------------------------------------
Pair    | 0.27326    | 0.296      | 0.31584    |   1.9 | 48.66
Neigh   | 0.039799   | 0.04227    | 0.044338   |   0.5 |  6.95
Comm    | 0.19844    | 0.21984    | 0.24463    |   2.4 | 36.14
Output  | 5.382e-05  | 5.515e-05  | 7.2688e-05 |   0.0 |  0.01
Modify  | 0.041017   | 0.045227   | 0.048901   |   1.1 |  7.44
Other   |            | 0.004897   |            |       |  0.81

Nlocal:        83.3333 ave          93 max          76 min
Histogram: 1 6 8 6 8 9 6 3 0 1
Nghost:        1942.19 ave        1964 max        1921 min
Histogram: 5 2 2 5 12 4 9 3 5 1
Neighs:        12281.0 ave       14289 max       11015 min
Histogram: 2 8 8 9 8 6 4 0 1 2

Total # of neighbors = 589486
Ave neighs/atom = 147.37150
Neighbor list builds = 143
Dangerous builds = 9

#############################
# L I N E A R  Q U E N C H  #
#############################

# Define solid atoms. This closely follows ten Wolde  Ruiz-Montero and Frenkel  Faraday Discuss  1996  104  93-110
# Compute components of the per-atom q6 vector
compute q6 all orientorder/atom degrees 1 6 components 6 nnn NULL cutoff 1.3 # compute the Q6 parameter.
                                                                             # Use all neighbours within 1.3 unit cell.

# get number of connections
compute coord_number all coord/atom orientorder q6 0.5

# An atom is solid if it has 8 or more connections (of a possible 14)
variable is_solid atom c_coord_number>=8
group solid dynamic all var is_solid    # Must be dynamic to update
dynamic group solid defined

# do clustering
compute cluster solid cluster/atom 1.3 # Create a cluster where all atoms within are solid and max 1.3 units from another member

# define chunks one chunk per cluster
compute clus_chunks solid chunk/atom c_cluster nchunk every compress yes  # Says which atoms are in which chunk

# count the size of each chunk
compute size_chunks solid property/chunk clus_chunks count


# Find the maximum entry in the vector of chunk sizes
variable max_n equal max(c_size_chunks)


# Thermo style which includes this variable
# thermo_style custom step temp pe vol v_max_n

thermo ${N}  # Print the thermo information every 100 steps
thermo 1000  

# Reset the npt fix at a lower temperature (below freezing)
fix 1  all npt temp  ${temp} ${temp}  0.1  iso  5.68  5.68  0.5  mtk yes tchain  5  pchain  5
fix 1  all npt temp  0.45 ${temp}  0.1  iso  5.68  5.68  0.5  mtk yes tchain  5  pchain  5
fix 1  all npt temp  0.45 0.45  0.1  iso  5.68  5.68  0.5  mtk yes tchain  5  pchain  5

dump dmp2 all dcd ${N} traj.dcd
dump dmp2 all dcd 1000 traj.dcd


compute msd all msd com yes
variable twopoint equal c_msd[4]/6/(step*dt+1.0e-6)
fix 9 all vector 10 c_msd[4]
variable fit equal slope(f_9)/6/(10*dt)
thermo_style custom step temp pe c_msd[4] v_twopoint v_fit v_max_n

fix 1 all npt temp 1.25 ${temp} 0.1 iso 5.68 5.68 0.5 mtk yes tchain 5 pchain 5
fix 1 all npt temp 1.25 0.45 0.1 iso 5.68 5.68 0.5 mtk yes tchain 5 pchain 5
run 500000 # 5000000  # Run for this many steps
Neighbor list info ...
  update every 1 steps, delay 10 steps, check yes
  max neighbors/atom: 2000, page size: 100000
  master list distance cutoff = 3.8
  ghost atom cutoff = 3.8
  binsize = 1.9, bins = 8 8 8
  4 neighbor lists, perpetual/occasional/extra = 1 3 0
  (1) pair lj/cut, perpetual
      attributes: half, newton on
      pair build: half/bin/atomonly/newton
      stencil: half/bin/3d
      bin: standard
  (2) compute orientorder/atom, occasional
      attributes: full, newton on
      pair build: full/bin/atomonly
      stencil: full/bin/3d
      bin: standard
  (3) compute coord/atom, occasional
      attributes: full, newton on
      pair build: full/bin/atomonly
      stencil: full/bin/3d
      bin: standard
  (4) compute cluster/atom, occasional
      attributes: full, newton on
      pair build: full/bin/atomonly
      stencil: full/bin/3d
      bin: standard
Per MPI rank memory allocation (min/avg/max) = 9.822 | 9.828 | 9.832 Mbytes
Step Temp PotEng c_msd[4] v_twopoint v_fit v_max_n 
   12000    1.2465216   -3.3721635 2.7976952e-30 1.9428438e-32 8.3333333e+20            1 
   13000    1.2470909    -3.386164   0.98552498 0.0063174675  0.083807995            2 
   14000    1.2679608   -3.3594324    2.0787142  0.012373298   0.08689437            2 
   15000    1.2326796   -3.3563514    3.1047387  0.017248548  0.087787158            2 
   16000    1.2607288   -3.3549235    4.2693011  0.022235942  0.088976819            1 
   17000    1.2753713   -3.3707976    5.4531051  0.026730906  0.090479326            1 
   18000     1.240755   -3.3756112    6.5139049  0.030156966  0.092084786            3 
   19000    1.2332429   -3.3569722    7.5290382  0.033022097  0.091976477            2 
   20000    1.2309835   -3.3531419     8.582879  0.035761995  0.091138257            1 
   21000    1.2189823   -3.3683308    9.5923716  0.038064966  0.090511048            1 
   22000    1.2467859   -3.3816895    10.611994  0.040196947  0.089663298            2 
   23000    1.2269626   -3.4110431    11.645705  0.042194583   0.08922695            3 
   24000    1.2187306   -3.3878467    12.795551  0.044428997   0.08919304            2 
   25000    1.2252841   -3.3989925    13.666108  0.045553691  0.088841053            2 
   26000     1.240992   -3.4134495    14.622478  0.046866917  0.088315388            3 
   27000    1.2066287   -3.3896826    15.733353   0.04855973   0.08798385            1 
   28000    1.2214384   -3.4122391    16.562578  0.049293386  0.087618873            3 
   29000    1.2294719   -3.3814134    17.751062  0.051008798  0.087256713            1 
   30000    1.2453468   -3.3936949    18.794813  0.052207814  0.087134846            1 
   31000    1.2021708   -3.3980934     19.78984  0.053198495  0.086999063            1 
   32000    1.2238464   -3.3900066    20.995493  0.054675761  0.086876556            2 
   33000    1.1955285   -3.4072417    22.110916  0.055835645  0.086871657            1 
   34000    1.2097162   -3.4333142    22.917431  0.056170172  0.086918064            1 
   35000    1.1860997   -3.4016645    23.835124  0.056750295  0.086872476            1 
   36000     1.240515   -3.3956031    25.052377  0.057991613  0.086725508            3 
   37000    1.1987188   -3.4297746    25.910132  0.058356153  0.086595561            1 
   38000     1.223647   -3.3633961    26.977051  0.059160199  0.086476438            3 
   39000    1.1910007   -3.3910177     27.86821  0.059547456   0.08633813            3 
   40000    1.2165241   -3.4139144    28.970049  0.060354268  0.086182603            1 
   41000    1.1996019   -3.4344835     29.78464  0.060537886  0.086015954            3 
   42000    1.1957779   -3.4124991    30.705742  0.060924091  0.085812521            1 
   43000    1.1822675   -3.4009302    31.886391   0.06179533  0.085668435            4 
   44000    1.2284988   -3.4321649    32.976945  0.062456334  0.085645411            4 
   45000    1.1949393   -3.4467845    34.090786  0.063131085  0.085652553            1 
   46000    1.1931818   -3.4050645    35.181447  0.063734505  0.085653355            4 
   47000    1.2072834   -3.4193878    35.908502  0.063667557  0.085599528            3 
   48000    1.1716289   -3.4636448    36.763562  0.063825627  0.085527786            4 
   49000    1.1966972   -3.4117397    38.093033  0.064784069  0.085437517            3 
   50000      1.22265   -3.4400942    39.167274   0.06527879  0.085370823            3 
   51000     1.179821   -3.4435505    39.768153  0.064980641  0.085334869            2 
   52000    1.1664192   -3.4616985     40.85057  0.065465657  0.085228734            1 
   53000     1.176461   -3.4738555    41.947161  0.065954655    0.0851135            1 
   54000    1.1947649   -3.4487938     43.02149  0.066391188  0.085082167            1 
   55000    1.1839495   -3.4655691    43.861672  0.066457078  0.085042729            2 
   56000    1.1722885   -3.4385334    45.523801  0.067743751  0.085040482            2 
   57000    1.1978484   -3.4057372    46.551551  0.068057823  0.085082507            2 
   58000    1.1857563   -3.4572917    47.232755  0.067863154  0.085092582            2 
   59000    1.1725637    -3.455526    48.509886  0.068516788  0.085114956            3 
   60000    1.1713068   -3.4491464    49.267913  0.068427657  0.085088258            3 
   61000    1.1542026   -3.4284374    49.984416  0.068284721  0.085048267            1 
   62000    1.1812025   -3.4471989    50.569838  0.067970212  0.084935635            1 
   63000    1.1860601   -3.4339748     51.61304  0.068271216  0.084809707            2 
   64000    1.1462597   -3.4790978    52.389363  0.068215316   0.08468102            4 
   65000    1.1718978   -3.4582356    53.044001  0.068005129  0.084509721            2 
   66000    1.1483332   -3.4876082    54.129749  0.068345642   0.08436196            1 
   67000    1.1600143   -3.4724162    55.029998  0.068445271   0.08421234       -1e+20 
   68000    1.1974168   -3.4623111    56.045547  0.068683268  0.084049508            3 
   69000     1.135553   -3.4646716    57.285443  0.069185317  0.083903013            1 
   70000    1.1397278   -3.4918973    57.567272  0.068532466  0.083752404            1 
   71000    1.1393859   -3.4286588     58.68898  0.068883778  0.083573481            1 
   72000    1.1642591   -3.4658433    59.401811  0.068752095  0.083410602            5 
   73000    1.1455717   -3.4725782    60.569218  0.069142942  0.083240972            2 
   74000    1.1391351   -3.5249591    61.290829  0.069021203  0.083067059            2 
   75000    1.1747986   -3.4737827    62.286651  0.069207389  0.082924047            2 
   76000    1.1500559   -3.4990157    63.119384  0.069209851  0.082789929            2 
   77000    1.1590901   -3.4708322    64.171892  0.069450099   0.08266683            1 
   78000    1.1470477   -3.4517694    65.450909  0.069926185  0.082543894            1 
   79000    1.1379655   -3.5133391    66.079985  0.069704625  0.082416786            2 
   80000    1.1253942   -3.5155356    67.319251  0.070124219  0.082299539            1 
   81000     1.162388   -3.5382783    68.516151  0.070489867  0.082218521            2 
   82000    1.1374435   -3.5019769    69.454641  0.070583984  0.082156874            1 
   83000    1.1215245   -3.5092544    70.161529  0.070443302  0.082102011            2 
   84000    1.1142725   -3.4945935    71.339135  0.070772951  0.082041909            3 
   85000    1.1212072   -3.5027956    72.357653  0.070938875  0.082003427            3 
   86000    1.1167808   -3.5195438    73.563692  0.071282647  0.081939829            2 
   87000    1.1203701   -3.4929038    74.477353   0.07133846  0.081896538            3 
   88000     1.120083   -3.4900029    75.412887  0.071413718  0.081849084            1 
   89000    1.1034244   -3.5458321    75.934472  0.071099693  0.081788568            4 
   90000    1.1292696   -3.5050105    77.145033  0.071430586  0.081734165            2 
   91000    1.1349867   -3.5311205    77.898021  0.071335184  0.081678901            3 
   92000    1.1300789   -3.5028543    78.517756  0.071121155  0.081620854            1 
   93000     1.142799    -3.549915     79.57718  0.071305716  0.081557266            2 
   94000    1.1134825   -3.5206474    80.316169  0.071202278  0.081476468            2 
   95000    1.1237045   -3.5152192    80.848494  0.070919731  0.081360162            3 
   96000    1.1336965   -3.5376939    81.680639  0.070903332  0.081235024            2 
   97000    1.1090717   -3.5531678     82.19833  0.070617122  0.081118978            4 
   98000     1.110365   -3.4925125    83.033539  0.070606751  0.080996562            2 
   99000    1.1168505   -3.5709371    83.868443  0.070596332   0.08085623            2 
  100000    1.1156497   -3.5643987    84.485761    0.0704048  0.080717493            3 
  101000    1.1185839   -3.5657489      85.3682  0.070435808  0.080568583            3 
  102000    1.1339149   -3.5409071    85.782106   0.07008342  0.080421959            4 
  103000    1.1072123   -3.5281533    86.934363  0.070335245  0.080260021            1 
  104000    1.1215139    -3.562632    88.031309  0.070537907  0.080108448            2 
  105000    1.1236535   -3.5576081    88.797322  0.070474065  0.079964655            2 
  106000    1.0922892   -3.5254631    89.468521  0.070336887  0.079834502            2 
  107000    1.1177396   -3.5473021    90.088871  0.070162672  0.079687451            3 
  108000    1.0813244    -3.525943     91.26013  0.070416767   0.07955924            1 
  109000    1.0948913   -3.5908254    91.616367  0.070043094  0.079422413            3 
  110000    1.1054403   -3.5500248    92.305819   0.06992865   0.07927764            3 
  111000    1.0952734   -3.5560003    93.404654  0.070123614  0.079131227            2 
  112000    1.0779991   -3.6099178    93.991952  0.069934488  0.078986216            2 
  113000    1.0909882   -3.6056645    95.057868  0.070101672  0.078847447            3 
  114000    1.0825166    -3.537886    96.295068  0.070391132    0.0787312            1 
  115000    1.0748867   -3.5768441    96.437038  0.069881911  0.078606281            2 
  116000    1.0600005   -3.5920566    97.300066  0.069899472  0.078474862            3 
  117000    1.0794489   -3.5736958    98.453057   0.07012326  0.078353742            4 
  118000    1.0911459   -3.6156212    99.399325  0.070197263  0.078237371            2 
  119000    1.0897443   -3.5840556    100.72647  0.070536747  0.078126198            2 
  120000    1.0922818   -3.5841121    101.23264  0.070300444   0.07802102            6 
  121000    1.0681212   -3.5942127    101.86885  0.070157607   0.07791657            1 
  122000    1.0875868   -3.5727545    102.80207   0.07021999  0.077812084            1 
  123000    1.0684484   -3.5815897    103.54112  0.070149813  0.077705011            3 
  124000     1.077092   -3.5942841    103.72387  0.069706901  0.077590553            1 
  125000    1.0720569    -3.594203    105.15877  0.070105845  0.077476874            2 
  126000     1.081643   -3.6137632    105.35483  0.069679118  0.077360359            3 
  127000    1.0673966   -3.5677879    106.18549   0.06967552  0.077239229            2 
  128000    1.0772228   -3.6274116    106.73485  0.069488837  0.077113946            5 
  129000    1.0796888   -3.5856791    107.89984   0.06970274  0.076992933            2 
  130000    1.0652184   -3.6224902    108.62296  0.069630102  0.076868504            4 
  131000    1.0686439   -3.6028116    108.79767  0.069209713   0.07674355            3 
  132000    1.0527742   -3.6031328    109.99354  0.069440363  0.076616925            2 
  133000    1.0454078   -3.6118803    110.66236  0.069337319  0.076498854            3 
  134000    1.0892487   -3.6002712    111.55736  0.069376469  0.076382868            8 
  135000    1.0372172   -3.6335975    111.90728  0.069078568  0.076258207            5 
  136000    1.0586723   -3.6304567    112.93125  0.069198067  0.076130387            4 
  137000    1.0272622   -3.6386269     113.3266  0.068933456  0.076002187            2 
  138000    1.0500507   -3.6081517    114.56878  0.069184048  0.075881894            1 
  139000    1.0388006   -3.6199732    115.55074  0.069275021  0.075762971            2 
  140000    1.0423242   -3.6361939    115.66915  0.068850682   0.07564287            3 
  141000    1.0284054   -3.6337297    116.46282  0.068831456  0.075518669            2 
  142000    1.0395404   -3.6287505    117.34508  0.068864486  0.075396592            6 
  143000    1.0453599   -3.6273179    117.95909  0.068740727   0.07527395            1 
  144000    1.0194948   -3.6483891     118.4472  0.068545834  0.075139825            3 
  145000    1.0430091   -3.6264137    119.38074  0.068609619   0.07501295            4 
  146000     1.018971   -3.6414533    119.51215  0.068214699  0.074877147            3 
  147000    1.0520846   -3.7019911    119.87608  0.067956961  0.074740505            3 
  148000     1.023363    -3.672628    120.91041  0.068080187  0.074604865            1 
  149000    1.0424186    -3.675929    121.64006  0.068031353  0.074474585            1 
  150000     1.018647   -3.6802509     122.1688  0.067871557  0.074342746            4 
  151000    1.0168401   -3.6613331    123.10367  0.067938007   0.07421291            2 
  152000    1.0633547   -3.6631821    123.92158  0.067939465  0.074080163            5 
  153000    1.0310576   -3.6871272    124.53565  0.067829877  0.073947277            3 
  154000    1.0252981   -3.6506738    125.09418  0.067691656  0.073813991            3 
  155000    1.0156314   -3.6413593     126.1957  0.067847152  0.073681764            4 
  156000    1.0127845   -3.6540051    126.53972  0.067596006  0.073556522            4 
  157000    1.0284448   -3.6573454    127.28718  0.067562197  0.073433117            2 
  158000    1.0034716   -3.6798335    127.99751  0.067509237  0.073303036            1 
  159000    1.0014993   -3.6682738    128.76275  0.067485718  0.073178303            3 
  160000    1.0015673   -3.6940927    129.56544  0.067482001  0.073055702            2 
  161000    1.0120062   -3.7147051    130.03391  0.067305335  0.072929367            4 
  162000    1.0054612   -3.7044422    130.88614  0.067328259  0.072805178            2 
  163000    1.0037351   -3.6896006    131.04214  0.066994959  0.072680295            1 
  164000    1.0040526   -3.6983924    131.73299  0.066937494  0.072551564            3 
  165000    1.0175694   -3.6967661     132.7925  0.067066922  0.072428859            2 
  166000    1.0140094   -3.7197585    132.68226  0.066607562  0.072302128            2 
  167000   0.98173142   -3.6986709     133.5888   0.06666108  0.072173815            3 
  168000    1.0190414   -3.7214073     133.9074  0.066422323  0.072046908            1 
  169000   0.98332214   -3.6913342    135.92288  0.067023116  0.071924537            2 
  170000   0.99570709   -3.7053299    135.55714   0.06644958  0.071803607            2 
  171000   0.99886518   -3.7260063    136.21763  0.066382859  0.071678692            3 
  172000   0.99196709   -3.7114556    137.02785  0.066389463  0.071556417            3 
  173000    1.0032801   -3.7174212    137.29225  0.066133069  0.071432953            3 
  174000   0.96706753    -3.729145    137.93191  0.066059345  0.071301081            2 
  175000   0.96967774   -3.6983317     138.6149  0.066007097  0.071169781            2 
  176000    1.0209749   -3.7256081    138.87953  0.065757354  0.071040292            3 
  177000   0.98057708   -3.7196342    140.35324  0.066079681  0.070913384            3 
  178000   0.97386372   -3.7289262    140.10795   0.06559361  0.070783115            5 
  179000     1.007137   -3.7261132    140.83118  0.065563863  0.070651556            3 
  180000   0.99027634   -3.7318403    141.59859    0.0655549  0.070522832            2 
  181000     1.001835   -3.6894501    142.05975  0.065405043  0.070394452            3 
  182000   0.97526987   -3.7541098    143.05418  0.065500998  0.070267688            2 
  183000   0.97741331   -3.7257589    142.76837   0.06501292   0.07013682            2 
  184000    0.9682885   -3.7204957    143.76516  0.065111033  0.070003116            1 
  185000   0.97396848   -3.7456245    144.70073  0.065180509  0.069866252            4 
  186000   0.96148369    -3.752988    145.51228  0.065193672  0.069733448            5 
  187000   0.96888328   -3.7761126    145.06143   0.06464413  0.069603024            1 
  188000   0.95203488   -3.7460081    146.19288  0.064801806  0.069469499            3 
  189000   0.97238945   -3.7492551    147.14769  0.064879934  0.069339186            2 
  190000   0.98036781   -3.7552104    146.99766  0.064472659  0.069208729            2 
  191000   0.96370186   -3.7470626    147.72729  0.064453441  0.069078101            5 
  192000   0.97907397   -3.7491731    148.24937  0.064344343   0.06894863            3 
  193000   0.96054924   -3.7889751    148.69538  0.064203534   0.06882069            3 
  194000   0.96065814   -3.7935987    148.76037  0.063900501  0.068690902            2 
  195000   0.98538199   -3.7742538    149.84345  0.064035662  0.068559861            4 
  196000   0.95836505   -3.7464551    150.99568  0.064198843  0.068428866            4 
  197000   0.96153043   -3.7946415    150.82533  0.063800899  0.068297456            4 
  198000   0.95417035   -3.7680934    150.98092   0.06354416  0.068161591            2 
  199000   0.97810688   -3.7581571    151.95351  0.063632123  0.068025041            4 
  200000   0.95949165   -3.7981858    152.32897  0.063470406  0.067889002            2 
  201000   0.95999724   -3.7685002    152.64943   0.06328749    0.0677511            7 
  202000   0.94751398   -3.8143968    152.26573  0.062815895  0.067611241            4 
  203000    0.9653865   -3.7799613    153.36444  0.062957486  0.067468433            7 
  204000   0.94950178   -3.7825551    154.05844  0.062932369  0.067326435            3 
  205000   0.95263199   -3.7903864    154.27437  0.062713159   0.06718437            3 
  206000   0.94433948   -3.7996948    154.02887  0.062309412  0.067038039            3 
  207000   0.93363583   -3.7948848    154.38327  0.062151074  0.066893371            4 
  208000   0.92333941   -3.7913676    155.25986  0.062203471  0.066750613            3 
  209000    0.9286308   -3.7873192    155.77665  0.062111904  0.066607665            3 
  210000   0.93965016   -3.7915408    155.87226   0.06185407  0.066462663            3 
  211000   0.93288231   -3.8180351    156.00602  0.061613753  0.066315124           11 
  212000   0.94233837   -3.7969935    156.45115  0.061498094  0.066167556            6 
  213000   0.92877853   -3.8288378    156.96034  0.061408583  0.066015842            8 
  214000   0.94572516   -3.8208942    157.60468  0.061372541   0.06586715            6 
  215000   0.92058363   -3.7997117    158.24402   0.06133489  0.065718601            3 
  216000   0.91745511   -3.7983892    158.76768  0.061252962  0.065569233            5 
  217000   0.93955017    -3.811792    159.46938  0.061240161  0.065426211            3 
  218000   0.90620233   -3.8281193    159.80401  0.061087158  0.065283999            2 
  219000    0.9347707   -3.8290718    160.45458  0.061055774  0.065140753            3 
  220000   0.91774242   -3.8323658    161.04693  0.061002626  0.064997831            2 
  221000   0.90956088   -3.8392563    161.17628   0.06077537  0.064855163            3 
  222000   0.94903904   -3.8304189    161.37706  0.060576975  0.064710877            3 
  223000   0.91730023   -3.8181358    161.68052  0.060418729  0.064565515            2 
  224000   0.90790672   -3.8730739    162.28776  0.060374912  0.064424155            3 
  225000   0.90110935   -3.8646855    162.55171  0.060204336  0.064280758            4 
  226000    0.9133596   -3.8409622    162.92312  0.060074896  0.064139046            8 
  227000   0.91131901    -3.854402    163.60356  0.060060044  0.063996315            4 
  228000   0.90090469   -3.8575182    164.64471  0.060177161  0.063857351            2 
  229000   0.92277634   -3.8384949    164.47733  0.059853467  0.063720417            3 
  230000   0.92241191   -3.8826353    165.40712  0.059930114  0.063580793            4 
  231000   0.90617209   -3.8664143    165.71805  0.059782846  0.063441477            3 
  232000   0.89161865   -3.8852974    165.62796  0.059492802  0.063301168            4 
  233000   0.88116548   -3.8699288    166.48946  0.059545585  0.063165404            4 
  234000   0.90523386   -3.8695642    167.68132   0.05971557  0.063030973            3 
  235000   0.90319421   -3.8445511    167.81786  0.059509878  0.062899594            5 
  236000   0.88227345   -3.8943145     168.1881  0.059388455  0.062769021           10 
  237000   0.87691622   -3.8567183    169.26548  0.059516694  0.062638211            3 
  238000   0.88107229   -3.9017662    168.48555  0.058993541  0.062505349            3 
  239000   0.88767807   -3.8581073    169.75156  0.059188133  0.062373494            6 
  240000   0.87293925   -3.8891866    169.22946   0.05876023  0.062240552            3 
  241000   0.87909933   -3.8942785    170.52241  0.058963488  0.062106443            3 
  242000   0.89404303   -3.8947091     170.6513   0.05876422  0.061973513            5 
  243000   0.86375537   -3.9052385     170.8853   0.05860264  0.061837722            4 
  244000   0.87730674   -3.9029784    171.66147  0.058627551  0.061703632            4 
  245000   0.86104629   -3.9321766    171.74397  0.058416315  0.061570776            3 
  246000   0.88067344   -3.9092804    172.41598  0.058406498  0.061440188            3 
  247000   0.86166611   -3.8771518    173.57389  0.058560691  0.061310723            2 
  248000   0.87344603   -3.8839333    173.33144   0.05824309  0.061180226            2 
  249000    0.8686101   -3.9184219     172.8884   0.05786091  0.061047634            1 
  250000   0.86315679   -3.9411468    173.04863  0.057682876  0.060914063            3 
  251000    0.8824093   -3.9053803    174.05645  0.057787667  0.060781123            8 
  252000    0.8560126   -3.9174685    173.64931  0.057423714  0.060649387            9 
  253000   0.88095496   -3.9163384    174.49503  0.057475307    0.0605183            4 
  254000   0.84793559   -3.8810294    175.22422   0.05748826  0.060387688            4 
  255000   0.88532488   -3.9393445    175.46715  0.057342205  0.060256349            2 
  256000   0.87588985   -3.9531683    176.12965  0.057333869  0.060125362            3 
  257000   0.86368984   -3.9410963    175.43955  0.056887013  0.059992653            4 
  258000   0.85708446   -3.9439363    176.98882  0.057166932  0.059862039            4 
  259000   0.87264662   -3.9236426    176.30476  0.056726113  0.059729897            7 
  260000   0.84419503   -3.9466012    176.90928  0.056701692  0.059596206            2 
  261000   0.85257228     -3.95501    177.04077  0.056526426  0.059462548            3 
  262000   0.86723351   -3.9237476     177.6894  0.056516983   0.05933314            5 
  263000   0.85810914    -3.945586    178.59959  0.056590492  0.059204327            3 
  264000   0.84339075   -3.9816015    178.55791  0.056362976   0.05907867            4 
  265000   0.83649488   -3.9526116    179.09954   0.05632061  0.058953283            3 
  266000   0.83036813   -3.9435273    179.72883  0.056306023  0.058829302            6 
  267000   0.83983258   -3.9682002    179.94426  0.056162378  0.058704771            7 
  268000   0.83068154   -3.9383977    181.25054  0.056358998  0.058582849            3 
  269000   0.82074616   -3.9415517    180.97625  0.056064513  0.058459478            6 
  270000   0.83020973   -3.9763836    181.13949  0.055907251  0.058334468            3 
  271000   0.81857876   -3.9569841     181.7386  0.055885178  0.058209067            3 
  272000   0.82167433    -3.981835    181.47784  0.055599829  0.058084534            4 
  273000   0.83320182   -3.9518179    181.94771  0.055539595  0.057959119            7 
  274000   0.83459975    -3.929544    183.14345  0.055700562  0.057836119            7 
  275000   0.82260878    -3.958663    182.58604  0.055329102  0.057711413            3 
  276000    0.8355208   -3.9924251    182.62136    0.0551393  0.057584584            6 
  277000   0.82766176   -4.0071883    182.90791  0.055026448  0.057458624            3 
  278000   0.84209397   -4.0192081    183.95084   0.05514114   0.05733348            4 
  279000   0.81670958   -4.0080974    183.28165  0.054743623  0.057209711            4 
  280000   0.82494257   -3.9879432    184.32835  0.054859628  0.057088242            3 
  281000    0.8111889   -3.9926487    184.64689  0.054758865  0.056968188            3 
  282000   0.82321277   -4.0232533    185.13773   0.05470973  0.056846033            3 
  283000   0.81120871   -4.0067722    185.41397  0.054597752  0.056723407            7 
  284000   0.81500916   -3.9970468    185.40705  0.054403476  0.056599812            4 
  285000   0.80942809   -3.9892429    186.09891  0.054414886  0.056479593            4 
  286000   0.79897614   -4.0041839    185.41207  0.054024496  0.056357844            5 
  287000   0.80161841   -4.0147687    186.93792  0.054279304  0.056234138            6 
  288000   0.81304906   -4.0141362    186.65314  0.054008432  0.056112958            5 
  289000   0.81256731   -3.9984211    187.26168  0.053997024  0.055990771            4 
  290000   0.81535587   -4.0203693    186.85132  0.053692908  0.055869637            7 
  291000   0.80539058   -4.0470716    186.86642   0.05351272  0.055748341           10 
  292000    0.8052098   -3.9948974    188.25993   0.05372715  0.055627748            4 
  293000   0.80088792   -4.0114868    187.79121  0.053410468   0.05550664            4 
  294000   0.79926679   -4.0209348    188.59397  0.053456339  0.055385055            5 
  295000    0.8026795   -4.0181513    189.14932   0.05343201  0.055262158            2 
  296000   0.79441473   -3.9999925    190.10861  0.053521568  0.055141792           10 
  297000   0.79501539   -4.0445307    189.54906  0.053184359  0.055022285           13 
  298000   0.79543037   -4.0476546    189.91159  0.053107267  0.054902003            7 
  299000   0.80159883   -4.0418534    189.80818   0.05290083  0.054781389            3 
  300000   0.78001415   -4.0703557     190.2359  0.052843305  0.054661103            6 
  301000   0.80204657   -4.0687707    189.90949  0.052577379  0.054541486            7 
  302000   0.78014934   -4.0397613    190.88946  0.052673691  0.054420819            5 
  303000   0.77360274   -4.0324043    191.33243  0.052621681  0.054302507            4 
  304000   0.79779755   -4.0448054    190.58671  0.052244164  0.054182124           21 
  305000   0.77795348   -4.0591797    191.38114  0.052289928  0.054061635            5 
  306000   0.78325297   -4.0954709    191.47742  0.052145266  0.053941594            3 
  307000   0.78248712   -4.0565226    191.61359  0.052012374  0.053821774            3 
  308000   0.77808308   -4.0721875    192.06702  0.051966186  0.053702243            6 
  309000   0.77356917   -4.0666137    191.99667  0.051779036  0.053582558            6 
  310000   0.76010356   -4.0515479    192.70265  0.051801789  0.053464036            6 
  311000   0.77592655   -4.0487941    193.03016   0.05172298  0.053346957            4 
  312000   0.75373006   -4.0517146    193.23778  0.051612654  0.053230295           11 
  313000   0.75898779   -4.0791168    193.48935  0.051514737  0.053112624            4 
  314000   0.75579418   -4.0856183     193.4162  0.051331262  0.052994797            3 
  315000   0.75429469   -4.0916827    193.91237  0.051299569  0.052876618            6 
  316000    0.7476364   -4.1037463    193.96806  0.051151915  0.052758442            3 
  317000   0.75678509   -4.1026346    194.33624   0.05108734  0.052641218            4 
  318000   0.74197677   -4.0956646    194.52324  0.050975692  0.052522818            5 
  319000   0.75439681   -4.0848564    194.68141  0.050857212   0.05240635            6 
  320000   0.77246119   -4.0886167    195.30077  0.050859576  0.052289023            4 
  321000    0.7462635   -4.1309754    195.10731  0.050650911  0.052173139            4 
  322000    0.7533048   -4.1145814    196.04109  0.050735271  0.052057926            4 
  323000   0.75747823   -4.0941802    196.15762  0.050608261  0.051944191            9 
  324000   0.75774903   -4.1077273    196.75619  0.050606017  0.051830045            3 
  325000   0.74554178   -4.1415717    196.11574  0.050286087    0.0517164            3 
  326000   0.74235765   -4.1188219    197.18465  0.050405073   0.05160292            7 
  327000   0.74470649   -4.1112278    197.70722  0.050384104  0.051489971            5 
  328000    0.7479717   -4.1291461     197.5567  0.050192252  0.051378211           20 
  329000   0.73396019    -4.135955    197.57607  0.050044598  0.051264045            7 
  330000   0.74926979   -4.1403769    197.64255  0.049909735  0.051151121           12 
  331000   0.73947744   -4.1433795    198.28697   0.04992119  0.051038642            5 
  332000   0.73676462   -4.1398576    198.04227  0.049709406  0.050926952            4 
  333000   0.74009725    -4.134542    198.75602  0.049738744  0.050815752            6 
  334000    0.7392851    -4.139555    199.00888  0.049652914  0.050704983            8 
  335000   0.71959742   -4.1410069    198.84726  0.049464493  0.050593878            4 
  336000   0.74006837   -4.1501111    199.78086  0.049548824  0.050482344           10 
  337000   0.72922196   -4.1578518    199.40987  0.049310057  0.050372145            6 
  338000    0.7261518   -4.1344096    199.84588  0.049271667  0.050261274            3 
  339000   0.72152525   -4.1461641    199.02922  0.048925569  0.050150055            4 
  340000   0.73828899   -4.1350472    199.74984  0.048958294  0.050039609            7 
  341000    0.7253914   -4.1855245    199.81741  0.048831233   0.04992925            6 
  342000   0.73319274   -4.1602205    200.14312  0.048767817  0.049819219            9 
  343000   0.73437638   -4.1440311    201.24683  0.048893788  0.049710462            8 
  344000   0.71672039   -4.1708533     200.8453  0.048654384  0.049603773           13 
  345000   0.70657056   -4.1483121    201.29538  0.048622073  0.049496695            6 
  346000   0.71588967   -4.1718115    201.65676  0.048568583  0.049390182            5 
  347000   0.68970328   -4.1827935    201.46847  0.048383398  0.049282514            8 
  348000   0.70507016   -4.1877683    202.08879  0.048392911  0.049176041           16 
  349000   0.71204442   -4.1900211    201.69336  0.048159827   0.04906954            7 
  350000   0.70434206   -4.1911352    202.08313   0.04811503  0.048962968            7 
  351000   0.70323992   -4.1844515    202.71267  0.048127415  0.048856061            4 
  352000   0.69038206   -4.2048938    202.74548  0.047998456  0.048750111            5 
  353000   0.71682585   -4.1924557    203.33381  0.048001371  0.048644357            8 
  354000   0.71183176   -4.1995942    203.09974  0.047810674  0.048537965            7 
  355000   0.69630169   -4.2021165    203.00907  0.047654712  0.048431884            8 
  356000    0.7088159   -4.1954412    203.50116   0.04763604  0.048325606            4 
  357000   0.69610331   -4.2072191    203.52332  0.047507777  0.048218811            6 
  358000   0.69111759   -4.2213451    203.97326  0.047479809  0.048112578            7 
  359000   0.70149006   -4.2005152    203.98073  0.047349288   0.04800655            6 
  360000   0.69474772   -4.2169273    203.94284  0.047208991  0.047899971            6 
  361000   0.70341068   -4.2237693     203.6238   0.04700457  0.047793286            5 
  362000   0.68913951   -4.2124022    204.21308  0.047010377  0.047686387            6 
  363000   0.67799564   -4.2323209    204.05138  0.046843751  0.047579164            8 
  364000   0.68424767   -4.2150636    204.30284  0.046772628  0.047472707           17 
  365000   0.68958296   -4.2260458    204.39007    0.0466644  0.047366156            5 
  366000   0.70539185    -4.221087     204.6641  0.046599294  0.047260226           11 
  367000   0.67224473   -4.2231826    204.79488  0.046502017  0.047154478            6 
  368000   0.69171154   -4.2299723    205.53736  0.046543786  0.047048365            9 
  369000   0.67450828   -4.2478145    205.19727  0.046340847  0.046941941           10 
  370000   0.66886071    -4.250584    205.30562  0.046240005  0.046835902            6 
  371000   0.66073831   -4.2507408    205.59965  0.046181413  0.046730691            8 
  372000   0.67722292   -4.2508385    205.81994  0.046106618   0.04662596            5 
  373000   0.66929435   -4.2541462    205.37198  0.045882927  0.046521271            6 
  374000   0.68041034   -4.2491687    205.96963  0.045893411  0.046415647            5 
  375000   0.66869042   -4.2407023    205.63851  0.045697448  0.046310545            4 
  376000   0.65140563   -4.2509864    206.49036  0.045764708  0.046206837            3 
  377000   0.65009616   -4.2777537    206.60914  0.045669571   0.04610419            7 
  378000   0.67416441    -4.255332    206.84878  0.045601582  0.046001996            7 
  379000   0.65921358   -4.2628709    207.24954   0.04556938  0.045899073            5 
  380000   0.66609215   -4.2744199    206.89385  0.045371459  0.045796764            6 
  381000   0.66865912   -4.2958092    206.91275  0.045256507  0.045694359            6 
  382000   0.66897518   -4.2948837     207.4852  0.045262915  0.045591655           13 
  383000   0.67399086   -4.2973316    207.25839  0.045095384  0.045488547            7 
  384000   0.64603604   -4.2954333    207.73269  0.045080879  0.045386305            6 
  385000   0.65713574   -4.2924085    207.89564  0.044999056  0.045283922            7 
  386000   0.64342126   -4.2916803    207.36786  0.044768535  0.045181676            7 
  387000   0.66559363   -4.3108703     208.5252  0.044902068  0.045079633            8 
  388000   0.65324616   -4.3121913      208.264  0.044730241  0.044978392           11 
  389000   0.66935995   -4.2965798    208.24873  0.044611982  0.044876896            6 
  390000   0.65509283    -4.301018    208.21108  0.044489548  0.044775132           10 
  391000   0.64379618   -4.3238134    208.55003  0.044448004  0.044673108            7 
  392000   0.63294334   -4.3120687    207.69265  0.044152349  0.044571968            9 
  393000   0.64864134   -4.2933017     208.5767  0.044227461  0.044470447            4 
  394000   0.62205073   -4.3243594    208.52874  0.044105064  0.044368902           18 
  395000    0.6424878   -4.3215795    208.29769   0.04394466  0.044266076           16 
  396000    0.6417549   -4.3375422    208.41974  0.043859373  0.044163406           15 
  397000    0.6258355   -4.3171113    209.16157  0.043904612  0.044060769           10 
  398000   0.63673278   -4.3401823    208.02319  0.043555944  0.043958574           11 
  399000    0.6225259   -4.3314325     208.3066  0.043505973  0.043855792           11 
  400000   0.62827892   -4.3311073    208.54582  0.043447046  0.043752155            5 
  401000   0.63378454   -4.3207488    208.60848   0.04335172  0.043648973            4 
  402000   0.61760541   -4.3448353    208.56525  0.043234919  0.043546037           14 
  403000   0.62661234   -4.3416099    208.61611  0.043138152  0.043443269            6 
  404000   0.62228829   -4.3534954    207.99305  0.042902857  0.043339409           10 
  405000   0.62031816   -4.3611133    208.12715  0.042824516  0.043235806            7 
  406000   0.62166571   -4.3741743    208.47027  0.042789465  0.043132592           12 
  407000   0.62256831   -4.3619449    208.97102  0.042786859  0.043029272           12 
  408000   0.61485422   -4.3439289    208.52726  0.042591351  0.042926408           17 
  409000   0.63580825   -4.3659667    208.78256  0.042539234  0.042823789            6 
  410000   0.60946956    -4.355148    209.31062  0.042542809  0.042721937            4 
  411000   0.60648794   -4.3658575    209.30771  0.042438708   0.04262015            7 
  412000   0.59801888   -4.3713361     208.9068  0.042254612  0.042518612           13 
  413000   0.60721562   -4.3613873    209.43184  0.042258241  0.042417587           19 
  414000   0.60087633   -4.3840087    209.76082  0.042222388  0.042316571            6 
  415000   0.60796361   -4.3893822    209.48628  0.042065519  0.042215476           12 
  416000   0.59622952   -4.3768278    209.99911   0.04206713  0.042114413            5 
  417000   0.59870415   -4.3898907    209.34356  0.041835245  0.042014168            9 
  418000   0.60202912   -4.3852934    210.21701  0.041909293  0.041913005           29 
  419000   0.60027952   -4.4255054    209.45959  0.041658629  0.041811887            6 
  420000   0.58982413   -4.4115765     209.6279  0.041592838  0.041711395           16 
  421000   0.59727782   -4.4119881    209.68243  0.041504835  0.041610517           11 
  422000   0.58442225   -4.4343225    209.57598  0.041385462  0.041509684            8 
  423000   0.57684335   -4.4302188    210.09042  0.041388972  0.041409634            5 
  424000   0.57745531   -4.4004472    209.75485  0.041225402  0.041309561           13 
  425000   0.58532407   -4.4153198    210.34961  0.041245021  0.041209787           10 
  426000   0.61069599   -4.4192387     210.2359  0.041125959  0.041110692           27 
  427000   0.58535773   -4.4334262    209.51971  0.040889873  0.041011139           17 
  428000   0.57892292   -4.4438119    210.05404  0.040898372  0.040911858           15 
  429000   0.58667077   -4.4316884    210.80157  0.040948245   0.04081305           13 
  430000   0.57726466   -4.4297111    210.59465  0.040812916  0.040715419           13 
  431000   0.58684744   -4.4455757    210.56639  0.040712759  0.040617933            7 
  432000   0.57329648   -4.4175027    210.20201  0.040548228   0.04051973            9 
  433000   0.57790484    -4.442117    210.67535  0.040545679  0.040421992           18 
  434000   0.56543601   -4.4479899    210.68066  0.040453275  0.040324139           10 
  435000   0.57040736   -4.4728092    209.96596  0.040223365   0.04022565           17 
  436000   0.57066241   -4.4808016    210.74881  0.040280735  0.040126973           14 
  437000   0.57958365   -4.4661926    210.46455  0.040134354  0.040028686           37 
  438000   0.55899404   -4.4714707    210.97234  0.040139334   0.03993081           15 
  439000   0.55303497   -4.4655203     210.9367  0.040041135  0.039833584           17 
  440000   0.55939356   -4.4509323    211.23978  0.040007534  0.039736711           10 
  441000   0.57175815   -4.4470092    211.24133  0.039917106  0.039639708           15 
  442000   0.55648503   -4.4635677    211.16796  0.039812965   0.03954286            8 
  443000   0.55482259   -4.4985002    210.77959  0.039650036  0.039446197            9 
  444000   0.55810992   -4.4696848    210.60635  0.039528219  0.039349757           25 
  445000    0.5621448   -4.4736454    211.21316  0.039553026  0.039253431           16 
  446000   0.56412947   -4.4902784     211.6085   0.03953821  0.039157813           41 
  447000   0.56122623   -4.4831718    211.34422  0.039400488  0.039062304            7 
  448000   0.55192625   -4.4971152    211.50275   0.03934203   0.03896634           10 
  449000   0.56031903   -4.5106068    211.33095  0.039222522  0.038870876           29 
  450000   0.54313617   -4.4828901    211.29046  0.039127862  0.038775619           11 
  451000   0.54895684   -4.4874127    211.26272  0.039035979  0.038680943            8 
  452000   0.54903878    -4.505675    211.44201  0.038982671  0.038586865           11 
  453000   0.54089383   -4.4951851    211.29587  0.038869734  0.038492809           11 
  454000   0.53698629   -4.5254229    211.79771  0.038876232  0.038398932           19 
  455000    0.5183586   -4.5177339    211.39345   0.03871675  0.038305258           20 
  456000   0.54169252   -4.5172143    211.66016  0.038680584  0.038211568            8 
  457000   0.53537019   -4.5273815    211.63468  0.038591299  0.038117747           10 
  458000   0.55004226   -4.5263674    211.89535  0.038554467  0.038024422           18 
  459000   0.53691808   -4.5228017    211.51494  0.038401405  0.037930814           17 
  460000   0.53732381   -4.5301924    211.43627  0.038303673  0.037837523           20 
  461000   0.53136697   -4.5311445    211.95986  0.038315232  0.037744915           10 
  462000   0.52331496   -4.5317733     211.6745  0.038180825  0.037652129           11 
  463000   0.52504534   -4.5539562    211.77605  0.038116639  0.037559633           11 
  464000   0.53385636    -4.547503    211.88564  0.038054174  0.037467037           15 
  465000   0.52753563   -4.5403907    211.47429  0.037898618  0.037374428           11 
  466000   0.51540969   -4.5564127    211.65239  0.037849141  0.037282252           11 
  467000    0.5117673   -4.5501039    211.49733  0.037740424  0.037189687           10 
  468000   0.52026191    -4.551028    211.60207  0.037678432  0.037097628           10 
  469000   0.50894396   -4.5736683     211.6904  0.037613788  0.037005579           11 
  470000   0.51391834   -4.5652414    211.37572  0.037477964  0.036913355           14 
  471000   0.51559135   -4.5525365    211.68806  0.037453655  0.036821188           18 
  472000   0.51808697   -4.5696979    211.60637  0.037359882  0.036729346           17 
  473000   0.51186116    -4.584911    211.59824  0.037279465  0.036637119           13 
  474000   0.51945212   -4.5800411    211.49761  0.037183123   0.03654495           18 
  475000   0.51506999   -4.5777318    211.48206  0.037102116  0.036453509           15 
  476000    0.5061074   -4.5624208    211.42483  0.037014152  0.036362217           11 
  477000   0.51437163   -4.5884891    211.86267  0.037013046  0.036271173           17 
  478000   0.49918312   -4.5796136    211.54433  0.036880113  0.036180229           26 
  479000   0.50652844   -4.5867008    211.89621  0.036864337  0.036089487           18 
  480000   0.49917621   -4.6026488    211.28537  0.036681488  0.035998971           12 
  481000   0.49451304   -4.6075889    211.25866    0.0366006  0.035908678           18 
  482000   0.50672101   -4.5957458    210.94603  0.036470613  0.035818155           13 
  483000   0.49057614    -4.607716    211.27812  0.036452402  0.035727801           13 
  484000   0.49421178   -4.5987731    211.57948  0.036428973  0.035637878           12 
  485000   0.49709574   -4.6051275    211.06261  0.036265053  0.035548077           11 
  486000   0.49610057   -4.6120311    211.66914  0.036294434  0.035458182           20 
  487000   0.48263632   -4.6196867    210.92709  0.036092931   0.03536809           16 
  488000   0.48582697   -4.6245155    211.48501  0.036114243  0.035278086           13 
  489000    0.4875058    -4.624727    211.42406  0.036030003  0.035188696           12 
  490000   0.48278031   -4.6330312    210.77228  0.035845625  0.035098934           23 
  491000   0.47889397   -4.6163494    211.57198  0.035908348   0.03500962           27 
  492000   0.48410891   -4.6222948    210.88341  0.035718735  0.034920584           17 
  493000   0.49298548   -4.6221927    210.60073  0.035598501  0.034831606           13 
  494000   0.47805748   -4.6436111    211.13499  0.035616563  0.034742872           21 
  495000   0.46690157   -4.6388526    211.54371  0.035613418  0.034654469           30 
  496000   0.46941627   -4.6323511    211.05915  0.035460207  0.034566544           33 
  497000   0.47345434   -4.6396533    211.93096  0.035535037  0.034478723           21 
  498000    0.4631759   -4.6487617    211.39137  0.035373388  0.034391262           61 
  499000   0.45852806   -4.6511658    211.20275     0.035271  0.034303726           44 
  500000   0.46767809   -4.6717089    210.84854  0.035141424  0.034216089           40 
  501000   0.47471684   -4.6531652    211.47862  0.035176084  0.034128963           38 
  502000   0.46940834   -4.6650386     211.5367  0.035115655  0.034041719           15 
  503000   0.45976698   -4.6667318    211.20537   0.03499095  0.033954782           14 
  504000   0.45705076    -4.672016    211.08862  0.034902219  0.033867702           21 
  505000   0.46884644   -4.6830915    210.64744  0.034760303   0.03378101           18 
  506000   0.47162559   -4.7002036    211.34212  0.034806015  0.033694553           20 
  507000   0.45662253   -4.6916856    210.95999  0.034674554  0.033608284           37 
  508000   0.46904175   -4.6867528    210.58802  0.034545279  0.033522017           30 
  509000   0.45302536    -4.702028    210.74756   0.03450353  0.033435737           35 
  510000   0.44892841   -4.7084225    210.73007  0.034433019  0.033349539           34 
  511000   0.44844022    -4.702626    210.64337  0.034351495  0.033263253           42 
  512000   0.45497859   -4.7032771    210.21654  0.034214932  0.033177447           57 
Loop time of 1246.02 on 48 procs for 500000 steps with 4000 atoms

Performance: 69341.036 tau/day, 401.279 timesteps/s
99.4% CPU use with 48 MPI tasks x no OpenMP threads

MPI task timing breakdown:
Section |  min time  |  avg time  |  max time  |%varavg| %total
---------------------------------------------------------------
Pair    | 81.011     | 87.702     | 93.599     |  32.4 |  7.04
Neigh   | 8.3304     | 8.7267     | 9.1024     |   6.5 |  0.70
Comm    | 78.729     | 85.649     | 93.311     |  40.8 |  6.87
Output  | 1.5841     | 1.585      | 1.6103     |   0.3 |  0.13
Modify  | 1047.6     | 1050.8     | 1054.6     |   5.1 | 84.33
Other   |            | 11.6       |            |       |  0.93

Nlocal:        83.3333 ave          90 max          78 min
Histogram: 4 3 3 10 6 14 2 1 3 2
Nghost:        2270.50 ave        2282 max        2249 min
Histogram: 1 0 1 2 7 7 12 8 3 7
Neighs:        15201.5 ave       16523 max       13754 min
Histogram: 3 2 4 5 9 6 9 3 2 5
FullNghs:      30403.6 ave       32846 max       28275 min
Histogram: 2 3 6 10 6 9 6 1 1 4

Total # of neighbors = 1459374
Ave neighs/atom = 364.84350
Neighbor list builds = 27042
Dangerous builds = 0

#clear
#
#next RN
#
#jump SELF
Total wall time: 0:20:49
