
units lj                  # Use reduced LJ style units
atom_style atomic         # Uncharged point particles
atom_modify map hash      # Needed for indexing of clusters etc
                          # Used to be able to find where atoms are in relation to each other.

lattice fcc 1.0 spacing 1 1 1
Lattice spacing in x,y,z = 1.5874011 1.5874011 1.5874011
region box block 0 10 0 10 0 10 units lattice
create_box 2 box
Created orthogonal box = (0.0000000 0.0000000 0.0000000) to (15.874011 15.874011 15.874011)
  3 by 4 by 4 MPI processor grid
create_atoms 1 box
Created 4000 atoms
  using lattice units in orthogonal box = (0.0000000 0.0000000 0.0000000) to (15.874011 15.874011 15.874011)
  create_atoms CPU = 0.002 seconds
set type 1 type/fraction 2 0.66 78393
Setting atom values ...
  2654 settings made for type/fraction
mass 1 1.0
mass 2 1.0
pair_style lj/cut  3.5
pair_modify tail  yes
pair_coeff 1  1  1.0  1.0   # Intearaction between 1 and 1 set with epsilon = 1 and sigma = 1
pair_coeff 1  2  1.5  0.8
pair_coeff 2  2  0.5  0.88

write_data data.0
System init for write_data ...
Neighbor list info ...
  update every 1 steps, delay 10 steps, check yes
  max neighbors/atom: 2000, page size: 100000
  master list distance cutoff = 3.8
  ghost atom cutoff = 3.8
  binsize = 1.9, bins = 9 9 9
  1 neighbor lists, perpetual/occasional/extra = 1 0 0
  (1) pair lj/cut, perpetual
      attributes: half, newton on
      pair build: half/bin/atomonly/newton
      stencil: half/bin/3d
      bin: standard
WARNING: Not all mixed pair coeffs generated from mixing. Use write_data with 'pair ij' option to store all pair coeffs. (../write_data.cpp:312)


#############################
#   M E L T   S Y S T E M   #
#############################

velocity all create 2.4 5833274 mom yes dist gaussian # Assign velocities
                                                    # Temperature 2.4, random number seed, zero linear momentum
                                                                                # Gaussian distribution

timestep 0.002   # simulation timestep
thermo 1000       # output thermodynamic data every 1000 steps bf 100

# Define a fix  in this case with index 1 applied to all
# particles in the simulation. This fix is for simulations
# in the anisotropic NPT ensemble. Note that we use the MTK
# correction.
fix 1 all npt temp 2.4 2.4 0.1 iso 5.68 5.68 0.5 mtk yes tchain 5 pchain 5 # Use NPT ensemble
                                                                         # Set temperature and pressure and damping
                                                                         # Numbers of thermostats in chain and in barostat
run 10000          # run for 10000 steps
Per MPI rank memory allocation (min/avg/max) = 3.642 | 3.644 | 3.648 Mbytes
Step Temp E_pair E_mol TotEng Press Volume 
       0          2.4   -4.3965799            0  -0.79747995   -3.9040118         4000 
    1000    2.3585237   -4.0350763            0  -0.49817527     5.588217    3667.2748 
    2000    2.3754119   -4.0524466            0  -0.49021947    5.8071372    3630.3198 
    3000    2.4267439   -4.0954786            0  -0.45627285    5.6748267    3620.5964 
    4000      2.39134   -4.1085298            0  -0.52241651    5.9787478    3595.4184 
    5000    2.4184709   -4.1489053            0  -0.52210578     5.550355    3612.3339 
    6000    2.3927507   -4.0994639            0  -0.51123514    5.7333403    3624.3634 
    7000    2.4615696   -4.0854639            0  -0.39403256    5.9862927    3608.0632 
    8000    2.4728003   -4.0153282            0  -0.30705503    6.0683673    3636.2257 
    9000    2.4447543   -4.0637413            0  -0.39752662    5.7868641    3642.6283 
   10000    2.3726125   -4.0760394            0  -0.51801037    5.8012942    3626.4617 
Loop time of 2.60792 on 48 procs for 10000 steps with 4000 atoms

Performance: 662596.353 tau/day, 3834.470 timesteps/s
99.7% CPU use with 48 MPI tasks x no OpenMP threads

MPI task timing breakdown:
Section |  min time  |  avg time  |  max time  |%varavg| %total
---------------------------------------------------------------
Pair    | 1.1847     | 1.2647     | 1.3487     |   2.8 | 48.50
Neigh   | 0.21342    | 0.22132    | 0.23362    |   0.7 |  8.49
Comm    | 0.77811    | 0.86802    | 0.94761    |   3.7 | 33.28
Output  | 0.00024379 | 0.00025017 | 0.00041859 |   0.0 |  0.01
Modify  | 0.20743    | 0.23795    | 0.26382    |   3.1 |  9.12
Other   |            | 0.01566    |            |       |  0.60

Nlocal:        83.3333 ave          92 max          75 min
Histogram: 2 0 6 6 12 10 3 5 3 1
Nghost:        1750.10 ave        1773 max        1723 min
Histogram: 2 1 7 2 6 9 8 5 5 3
Neighs:        10534.1 ave       12234 max        9254 min
Histogram: 2 6 5 9 5 12 6 1 1 1

Total # of neighbors = 505636
Ave neighs/atom = 126.40900
Neighbor list builds = 899
Dangerous builds = 169

# Equilibrate just above the melting temperature to avoid step fn in T

fix 1 all npt temp 1.25 1.25 0.1 iso 5.68 5.68 0.5 mtk yes tchain 5 pchain 5
run 2000
Per MPI rank memory allocation (min/avg/max) = 3.644 | 3.646 | 3.650 Mbytes
Step Temp E_pair E_mol TotEng Press Volume 
   10000    2.3726125   -4.0760394            0  -0.51801037    5.8012942    3626.4617 
   11000    1.2438004   -6.0283507            0   -4.1631166    5.8105768    2761.7505 
   12000    1.2353112   -6.0844587            0   -4.2319552    5.9877265    2737.6283 
Loop time of 0.694051 on 48 procs for 2000 steps with 4000 atoms

Performance: 497946.125 tau/day, 2881.633 timesteps/s
99.5% CPU use with 48 MPI tasks x no OpenMP threads

MPI task timing breakdown:
Section |  min time  |  avg time  |  max time  |%varavg| %total
---------------------------------------------------------------
Pair    | 0.2995     | 0.32321    | 0.34637    |   1.9 | 46.57
Neigh   | 0.041205   | 0.043811   | 0.045807   |   0.5 |  6.31
Comm    | 0.22394    | 0.25076    | 0.28344    |   2.7 | 36.13
Output  | 4.975e-05  | 5.1957e-05 | 6.9549e-05 |   0.0 |  0.01
Modify  | 0.045606   | 0.07146    | 0.074776   |   1.6 | 10.30
Other   |            | 0.004765   |            |       |  0.69

Nlocal:        83.3333 ave          91 max          78 min
Histogram: 5 4 4 13 5 8 6 0 1 2
Nghost:        2128.35 ave        2156 max        2103 min
Histogram: 2 3 5 7 9 9 8 0 3 2
Neighs:        13955.9 ave       16064 max       12518 min
Histogram: 2 2 12 10 11 2 5 2 1 1

Total # of neighbors = 669883
Ave neighs/atom = 167.47075
Neighbor list builds = 144
Dangerous builds = 14

#############################
# L I N E A R  Q U E N C H  #
#############################

# Define solid atoms. This closely follows ten Wolde  Ruiz-Montero and Frenkel  Faraday Discuss  1996  104  93-110
# Compute components of the per-atom q6 vector
compute q6 all orientorder/atom degrees 1 6 components 6 nnn NULL cutoff 1.3 # compute the Q6 parameter.
                                                                             # Use all neighbours within 1.3 unit cell.

# get number of connections
compute coord_number all coord/atom orientorder q6 0.5

# An atom is solid if it has 8 or more connections (of a possible 14)
variable is_solid atom c_coord_number>=8
group solid dynamic all var is_solid    # Must be dynamic to update
dynamic group solid defined

# do clustering
compute cluster solid cluster/atom 1.3 # Create a cluster where all atoms within are solid and max 1.3 units from another member

# define chunks one chunk per cluster
compute clus_chunks solid chunk/atom c_cluster nchunk every compress yes  # Says which atoms are in which chunk

# count the size of each chunk
compute size_chunks solid property/chunk clus_chunks count


# Find the maximum entry in the vector of chunk sizes
variable max_n equal max(c_size_chunks)


# Thermo style which includes this variable
# thermo_style custom step temp pe vol v_max_n

thermo ${N}  # Print the thermo information every 100 steps
thermo 1000  

# Reset the npt fix at a lower temperature (below freezing)
fix 1  all npt temp  ${temp} ${temp}  0.1  iso  5.68  5.68  0.5  mtk yes tchain  5  pchain  5
fix 1  all npt temp  0.45 ${temp}  0.1  iso  5.68  5.68  0.5  mtk yes tchain  5  pchain  5
fix 1  all npt temp  0.45 0.45  0.1  iso  5.68  5.68  0.5  mtk yes tchain  5  pchain  5

dump dmp2 all dcd ${N} traj.dcd
dump dmp2 all dcd 1000 traj.dcd


compute msd all msd com yes
variable twopoint equal c_msd[4]/6/(step*dt+1.0e-6)
fix 9 all vector 10 c_msd[4]
variable fit equal slope(f_9)/6/(10*dt)
thermo_style custom step temp pe c_msd[4] v_twopoint v_fit v_max_n

fix 1 all npt temp 1.25 ${temp} 0.1 iso 5.68 5.68 0.5 mtk yes tchain 5 pchain 5
fix 1 all npt temp 1.25 0.45 0.1 iso 5.68 5.68 0.5 mtk yes tchain 5 pchain 5
run 5000000 # 5000000  # Run for this many steps
Neighbor list info ...
  update every 1 steps, delay 10 steps, check yes
  max neighbors/atom: 2000, page size: 100000
  master list distance cutoff = 3.8
  ghost atom cutoff = 3.8
  binsize = 1.9, bins = 8 8 8
  4 neighbor lists, perpetual/occasional/extra = 1 3 0
  (1) pair lj/cut, perpetual
      attributes: half, newton on
      pair build: half/bin/atomonly/newton
      stencil: half/bin/3d
      bin: standard
  (2) compute orientorder/atom, occasional
      attributes: full, newton on
      pair build: full/bin/atomonly
      stencil: full/bin/3d
      bin: standard
  (3) compute coord/atom, occasional
      attributes: full, newton on
      pair build: full/bin/atomonly
      stencil: full/bin/3d
      bin: standard
  (4) compute cluster/atom, occasional
      attributes: full, newton on
      pair build: full/bin/atomonly
      stencil: full/bin/3d
      bin: standard
Per MPI rank memory allocation (min/avg/max) = 9.848 | 9.853 | 9.858 Mbytes
Step Temp PotEng c_msd[4] v_twopoint v_fit v_max_n 
   12000    1.2353112   -6.0844587 9.7286271e-31 6.7559908e-33 8.3333333e+20            2 
   13000    1.2497641   -6.0601099   0.56231978 0.0036046138  0.046139462            2 
   14000    1.2321585   -6.0916978     1.093608 0.0065095712  0.045053519            3 
   15000    1.2537413    -6.102094    1.6233158  0.009018421  0.044799628            4 
   16000     1.269287   -6.1029602    2.0694181  0.010778219  0.043384996            3 
   17000    1.2714611   -6.0732025    2.6200056  0.012843164  0.042845983            2 
   18000     1.232805   -6.0515006     3.185869  0.014749393  0.043193962            2 
   19000    1.2381674   -6.0730162    3.7419242  0.016411948  0.043832613            3 
   20000    1.2330576   -6.0855475     4.266138  0.017775575  0.044128734            3 
   21000    1.2302655   -6.1004742    4.7843493  0.018985513  0.044134167            2 
   22000    1.2341739     -6.09047    5.2941556  0.020053619  0.044144781            1 
   23000    1.2576642   -6.1456989    5.8389085  0.021155465  0.044114539            2 
   24000    1.2493694   -6.0681965    6.4409471  0.022364399  0.044229509            1 
   25000    1.2527161   -6.0735905    6.8709675  0.022903224  0.044219055            1 
   26000     1.268005   -6.0923835    7.3596116  0.023588498  0.044128919            1 
   27000    1.2580969   -6.1077005     7.857352  0.024251086   0.04393472            2 
   28000    1.2216014   -6.0973651    8.4229777  0.025068385  0.043823113            2 
   29000    1.2483606   -6.1082828    8.9135473  0.025613641   0.04381061            3 
   30000    1.2495302   -6.1641948    9.4196877  0.026165799  0.043733223            1 
   31000    1.2623209   -6.1032187    10.082318  0.027103006  0.043738265            6 
   32000    1.2538845   -6.1219286    10.569056  0.027523583   0.04384713            3 
   33000    1.2236276   -6.0459846    11.132922  0.028113439  0.043853841            3 
   34000    1.2308761   -6.0918618    11.677157  0.028620483  0.043892011            6 
   35000     1.243956   -6.1551612    12.148351  0.028924644  0.043936073            3 
   36000    1.2418692   -6.1281702    12.808205  0.029648623  0.044004619            3 
   37000    1.2421882   -6.0862218    13.386892  0.030150656  0.044098999            4 
   38000    1.2190202   -6.1265751    13.886103   0.03045198  0.044181743            4 
   39000    1.2270163   -6.1228738    14.580733  0.031155412  0.044324029            4 
   40000    1.2325637   -6.0850426    15.179807  0.031624597  0.044486719            2 
   41000    1.2303294   -6.1014334    15.570844  0.031648056  0.044591419            3 
   42000    1.2608282   -6.0934593    16.116028  0.031976245  0.044638291            3 
   43000    1.2340157    -6.095888    16.700866  0.032366019  0.044685861            2 
   44000    1.2686335   -6.0954833    17.199242  0.032574322   0.04473562            1 
   45000    1.2299441   -6.1214628      17.5515  0.032502777  0.044716339            2 
   46000    1.2593919    -6.178065    17.987429  0.032585921  0.044679902            5 
   47000    1.2411259   -6.1164478     18.65173  0.033070443  0.044653937            3 
   48000    1.2348147   -6.1218668    19.269826  0.033454559  0.044656457            2 
   49000    1.2669387   -6.1253968    19.772151  0.033626107  0.044667009            3 
   50000    1.2555405   -6.1459615    20.124351  0.033540584  0.044641449            3 
   51000    1.2483083   -6.0851365    20.596441  0.033654315  0.044582863            4 
   52000    1.2479733   -6.1106092    21.185489  0.033951104  0.044517181            2 
   53000    1.2340311   -6.1133876    21.746365  0.034192397   0.04446697            2 
   54000    1.2361235    -6.092124    22.375061  0.034529415  0.044416158            3 
   55000    1.2346952   -6.1100559    22.825868  0.034584648  0.044389234            4 
   56000    1.2310942   -6.0972185    23.409271  0.034835225  0.044387801            4 
   57000    1.2689242   -6.1043808    23.896442  0.034936318  0.044369938            3 
   58000    1.2198547   -6.1183296     24.46226  0.035146925  0.044354683            1 
   59000    1.2481027   -6.1228603    25.098252  0.035449509  0.044360146            2 
   60000    1.2633457   -6.1090459    25.744658   0.03575647  0.044388377            2 
   61000    1.2238607   -6.1186886    26.093746  0.035647194  0.044410449            3 
   62000    1.2339292   -6.0977357    26.540041  0.035672098   0.04439808            4 
   63000    1.2604743   -6.0956798    27.115013   0.03586642  0.044404355            4 
   64000    1.2290284   -6.1351224    27.433517  0.035720724  0.044383412            1 
   65000    1.2279488   -6.1187241    28.050581  0.035962283  0.044348645            3 
   66000    1.2417108   -6.0890955    28.558263  0.036058412  0.044334851            1 
   67000     1.234321   -6.0760109    29.263706  0.036397645  0.044311446            3 
   68000    1.2880931   -6.1059247    29.872122  0.036607993  0.044308644            8 
   69000    1.2403699   -6.1423937    30.209627  0.036485056  0.044297616            4 
   70000    1.2677117   -6.0872888    30.875947   0.03675708  0.044293299            3 
   71000    1.2506125   -6.1112094    31.369591  0.036818769   0.04429742            4 
   72000    1.2359908   -6.1118927     31.70469  0.036695243   0.04428566            3 
   73000     1.243399   -6.1072559    32.400296  0.036986639   0.04427671            1 
   74000    1.2250564   -6.1373227    32.735017  0.036863758  0.044262031            1 
   75000    1.2343682   -6.1184274    33.171815  0.036857572  0.044238437            1 
   76000    1.2560348   -6.0864139    33.812633  0.037075255  0.044212567            3 
   77000    1.2156087   -6.1156904    34.090241    0.0368942  0.044185041            1 
   78000    1.2529253   -6.1260138    34.759377  0.037136086  0.044149091            2 
   79000    1.2178813   -6.1084051    35.120908  0.037047371  0.044107248            3 
   80000    1.2378325   -6.1453371    35.473019  0.036951061  0.044055384            2 
   81000    1.2347338    -6.109054    36.150273  0.037191639  0.044005006            1 
   82000    1.2208611    -6.145007    36.608742  0.037204006  0.043966865            2 
   83000    1.2168795   -6.1231922    37.243926    0.0373935  0.043940386            2 
   84000    1.2309842   -6.1552688    37.637439  0.037338729  0.043911378            3 
   85000    1.2401316   -6.0896594    38.200249  0.037451224  0.043876148            2 
   86000    1.2167084   -6.1358801    38.687002  0.037487405  0.043837259            4 
   87000     1.237527   -6.1193574    39.180931  0.037529627  0.043801992            2 
   88000    1.2538949   -6.0964749    39.803791  0.037692984  0.043775954            3 
   89000    1.2381454   -6.1234407    40.278994  0.037714413  0.043747592            4 
   90000    1.2752431   -6.1624962     40.58122  0.037575204   0.04371806            4 
   91000    1.2508522   -6.1902637     41.20949  0.037737628  0.043686193            2 
   92000    1.2238102   -6.1570072    41.581112  0.037664051  0.043655837            3 
   93000    1.2417229   -6.1316899    42.511214  0.038092485   0.04363351            2 
   94000    1.2272318   -6.1071426    42.735605  0.037886174  0.043614846            2 
   95000    1.2048021   -6.1438367    43.406918  0.038076243  0.043593226            5 
   96000    1.2213515   -6.0692054    43.941588   0.03814374  0.043575507            2 
   97000     1.226607   -6.0803194    44.612747  0.038327102  0.043567461            1 
   98000    1.2496453   -6.1041379     45.22017  0.038452525  0.043558924            2 
   99000    1.2649503   -6.1074068     45.90739  0.038642584  0.043560743            3 
  100000     1.215942   -6.1161956    46.068897  0.038390747  0.043563747            2 
  101000    1.2499281   -6.1314485    46.733056  0.038558627  0.043561611            1 
  102000    1.2560155   -6.1677914    47.314728  0.038655823  0.043569384            5 
  103000    1.1964636   -6.1251923     47.89319  0.038748535  0.043578317            2 
  104000    1.2482553   -6.1152913    48.315579  0.038714406  0.043574978            5 
  105000    1.2306668    -6.096288    48.819486  0.038745624  0.043577294            4 
  106000    1.2200417   -6.1821847     49.08559    0.0385893   0.04356776            2 
  107000    1.2227303   -6.1243923    49.963971   0.03891275  0.043564275            4 
  108000    1.2347491   -6.1184829      50.3963  0.038886034  0.043564358            1 
  109000    1.2293726   -6.1310404     50.90262  0.038916376  0.043562622            2 
  110000    1.2329348   -6.1287421    51.438238  0.038968362  0.043565699            3 
  111000    1.2357719   -6.1499056    52.364187  0.039312452  0.043581473            1 
  112000     1.240751   -6.1512606    52.945897  0.039394268  0.043601582            4 
  113000    1.2486362   -6.1590382    53.400171  0.039380657  0.043618115            3 
  114000    1.2280499   -6.1407343    53.995575   0.03947045  0.043632727            3 
  115000    1.2324143   -6.1097181    54.658958   0.03960794  0.043651609            1 
  116000    1.2173575   -6.0963768    55.295159  0.039723533  0.043669223            2 
  117000    1.2067712   -6.1046779    55.855835  0.039783358  0.043692587            2 
  118000    1.2747432   -6.1365461     56.41748  0.039842853  0.043714944            3 
  119000    1.2295854   -6.0962556    56.966103  0.039892229  0.043738261            3 
  120000    1.2400892   -6.0956734    57.515986  0.039941657  0.043758287            4 
  121000    1.2490827   -6.0891794     58.09575  0.040010847  0.043782928            2 
  122000    1.2538823   -6.1173937    58.664517  0.040071391  0.043811625            1 
  123000    1.2192159   -6.1436222    59.040868  0.040000588  0.043833958            5 
  124000    1.2326297   -6.1597612     59.17852  0.039770511  0.043852206            3 
  125000    1.2317199   -6.0715777    60.042316   0.04002821  0.043865708            2 
  126000    1.2184098   -6.1320631    60.535373  0.040036622  0.043876755            5 
  127000     1.234651   -6.1707734    60.932349  0.039981856  0.043891631            2 
  128000    1.2692538   -6.1105761    61.510174  0.040045686   0.04389796            4 
  129000    1.2343191   -6.1644807    62.081526  0.040104345  0.043910878            1 
  130000    1.2423706   -6.1151171    62.835257  0.040279011  0.043932638            4 
  131000    1.2582222   -6.1483625    63.418335  0.040342452  0.043952343            2 
  132000    1.2264616    -6.170714    63.454128  0.040059424  0.043964999            1 
  133000    1.2472637   -6.1493601    63.817518  0.039985913  0.043968799            3 
  134000    1.2083663   -6.1385096    64.826137  0.040314762  0.043975147            2 
  135000    1.2424232    -6.153773    65.229274  0.040264984  0.043980491            3 
  136000    1.2428895   -6.1527492    65.560982   0.04017217  0.043985522            6 
  137000    1.2242979   -6.1208814    66.130488  0.040225358  0.043991685            2 
  138000    1.2144954   -6.1695437    66.622238   0.04023082  0.043996223            1 
  139000    1.2292452   -6.1478475    66.928974  0.040125284  0.043994166            6 
  140000    1.2087937   -6.1147011    67.382401  0.040108572  0.043991075            1 
  141000    1.2357814   -6.1232017    67.956043  0.040163146  0.043983138            3 
  142000    1.2120706   -6.1184447     68.31073  0.040088456  0.043968948            2 
  143000    1.2389685   -6.1207376    68.856038  0.040125896  0.043953605            1 
  144000     1.207966   -6.1494954    69.244491  0.040072043  0.043947377            2 
  145000    1.2392377   -6.1471451    69.850597  0.040144021  0.043935328            6 
  146000    1.2667498   -6.1143303    70.210101  0.040074258  0.043922106            2 
  147000    1.2509541   -6.1396918    70.892848  0.040188689  0.043909843            7 
  148000    1.2114004   -6.1689089    71.135635  0.040053848  0.043896423            4 
  149000    1.2225345    -6.140499    72.047651  0.040295106  0.043886775            2 
  150000    1.2435186    -6.117545    72.678067  0.040376703  0.043879373            2 
  151000    1.2493362   -6.1027723    73.149644  0.040369561  0.043874794            1 
  152000    1.2240255   -6.1128723    73.606202  0.040354277  0.043870455            1 
  153000    1.2397162   -6.1099037    74.433336  0.040541033  0.043868679            2 
  154000    1.2133334   -6.1731947    74.563987  0.040348478  0.043862621            4 
  155000    1.2304581   -6.1559195    74.759181  0.040193108   0.04385475            2 
  156000    1.2164286   -6.1287863    75.046664   0.04008903  0.043843869            2 
  157000    1.2077157   -6.1176571    75.896889  0.040284973  0.043834809            2 
  158000    1.2305558   -6.1296396    76.296622  0.040240834  0.043820725            3 
  159000    1.2466681   -6.1874458    76.512337  0.040100805  0.043806085            1 
  160000    1.2420233    -6.167941    76.841676  0.040021706   0.04378854            4 
  161000     1.216562   -6.1237971    78.127432  0.040438629  0.043776234            2 
  162000    1.2539753   -6.1513753    78.412261  0.040335525  0.043765647            3 
  163000    1.2166324   -6.1695366    78.737181  0.040254183  0.043750259            4 
  164000     1.219624   -6.1384202    79.262205   0.04027551  0.043736259            2 
  165000    1.2157512   -6.1591972    79.825303  0.040315809  0.043721581            3 
  166000    1.2407894   -6.1298476    80.068432  0.040194996  0.043705812            3 
  167000    1.2270598   -6.1133369    80.415109    0.0401273  0.043684682            3 
  168000    1.2343881   -6.1454544    80.803711  0.040081206   0.04366413            5 
  169000    1.2101997   -6.1222054    81.259016  0.040068548  0.043640937            2 
  170000    1.2108158   -6.1529692     81.58255  0.039991446  0.043617882            3 
  171000    1.2311575   -6.1035315    82.513734  0.040211371  0.043593053            2 
  172000    1.2538099    -6.165756    82.902927  0.040166146  0.043570795            4 
  173000    1.2029495   -6.1273246    83.448812  0.040196923  0.043548776            2 
  174000    1.2166866   -6.1788271    83.885188  0.040174898  0.043526798            2 
  175000    1.2175904   -6.2109411    84.092601  0.040044095  0.043509303            3 
  176000    1.2263519   -6.1176339    84.479406  0.039999718  0.043487567            2 
  177000    1.2224173   -6.0995368    85.450296  0.040230836  0.043463035            1 
  178000    1.2341104   -6.1130107     85.76997   0.04015448  0.043438691            3 
  179000     1.213474   -6.1474885    85.918396  0.039999253  0.043411989            5 
  180000    1.2259168    -6.140212    85.990398  0.039810369  0.043382216            2 
  181000    1.2053174    -6.153286    86.528359  0.039838102  0.043349826            5 
  182000    1.2183141   -6.1731238    86.915398  0.039796428  0.043318825            3 
  183000    1.2251579   -6.1441533    87.523092  0.039855689  0.043288893            2 
  184000    1.1859285   -6.1601032    88.145695  0.039921057   0.04325937            2 
  185000    1.2213249   -6.1390689    88.424404  0.039830813  0.043225904            2 
  186000    1.2210394   -6.1936971    88.975506  0.039863578  0.043194602            4 
  187000    1.2259597   -6.1825669    89.772154  0.040005416  0.043170679            4 
  188000     1.234583   -6.1608769    90.337637  0.040043279  0.043146411            2 
  189000    1.2208391     -6.21897    90.425055  0.039869954  0.043125751            3 
  190000    1.2456717   -6.1849559    91.286882  0.040038106  0.043105668            4 
  191000    1.2307524   -6.1389943    91.824321  0.040062967  0.043084046            3 
  192000    1.1968852   -6.1780104    91.976679  0.039920433   0.04306227            4 
  193000    1.2271831   -6.1636814    92.756593  0.040050342  0.043038747            4 
  194000    1.2228061   -6.1150652    93.722803  0.040258936  0.043017944            2 
  195000     1.222555   -6.1440444     94.24834  0.040277068  0.043000794            2 
  196000    1.1973171   -6.1573245    94.364665  0.040121031   0.04298069            4 
  197000     1.224287   -6.1176168     94.82453  0.040111899  0.042961903            3 
  198000    1.2445265   -6.1297159    95.479909  0.040185147  0.042941382            3 
  199000    1.2188089   -6.1611486    95.912131  0.040164209  0.042922252            4 
  200000    1.2220101   -6.1547303    95.922973  0.039967905   0.04290237            1 
  201000    1.1981146   -6.1836772    96.487772  0.040003222  0.042882092            3 
  202000     1.206047   -6.1708736     96.72046   0.03990118  0.042860876            3 
  203000    1.2344716   -6.1611105    97.963326   0.04021483  0.042841914            2 
  204000    1.2122411   -6.1506843    98.702941  0.040319829  0.042824559            2 
  205000    1.2364207   -6.1714774    98.787555  0.040157542  0.042808946            2 
  206000    1.2241697   -6.1913368    99.046586  0.040067389  0.042793179            4 
  207000    1.2028777   -6.1711812       99.621  0.040105072   0.04277583            2 
  208000    1.2141268   -6.1327126    100.02365  0.040073578   0.04275869            2 
  209000    1.2170426   -6.1215067    100.98915  0.040266806  0.042741239            3 
  210000    1.2149087   -6.1310972    101.30544  0.040200571  0.042723184            4 
  211000    1.2028519   -6.1773411    101.45172  0.040067818  0.042701344            4 
  212000    1.2000776    -6.168275    101.44824  0.039877454  0.042678539            2 
  213000    1.2358002   -6.1809228    101.81128   0.03983227  0.042656557            3 
  214000    1.2255451   -6.1617986    102.77081  0.040019787  0.042635282            4 
  215000    1.2216567   -6.1681235    102.87701  0.039874811  0.042613886            3 
  216000    1.2325503   -6.2116533    103.11678  0.039782707  0.042596009            2 
  217000     1.203036   -6.1716651    104.00372  0.039939985  0.042577489            2 
  218000    1.2109279   -6.1865276    104.94874  0.040118022  0.042560356            2 
  219000    1.2328058   -6.1288909    105.42712  0.040116863  0.042543602            3 
  220000    1.2114226   -6.1863048    105.96198  0.040137113  0.042529023            1 
  221000    1.2352877   -6.2046956    106.19988  0.040045203  0.042513938            3 
  222000    1.2021141   -6.2109478    106.46303    0.0399636  0.042498809            2 
  223000    1.2090968    -6.203986    107.07555  0.040013283  0.042481842            5 
  224000    1.2204402    -6.180765    107.42235  0.039963671  0.042464819            3 
  225000    1.1910482   -6.2091018    107.49729  0.039813809  0.042445282            3 
  226000    1.2235311   -6.1868188    108.10377  0.039861272  0.042425817            4 
  227000    1.2050396   -6.2029377     108.4019  0.039795118  0.042406216            2 
  228000    1.2242076   -6.1858975    108.85988  0.039787967  0.042381929            2 
  229000    1.2350603   -6.1718031    109.55792  0.039868239  0.042358649            2 
  230000    1.2050988   -6.1554563    109.90337  0.039820061   0.04233947            3 
  231000    1.1997482   -6.1652691    109.86081  0.039632328  0.042315568            2 
  232000    1.2071167   -6.1645843    110.41664  0.039661148  0.042291175            3 
  233000    1.1850384   -6.1474506     111.1237  0.039743812  0.042266809            1 
  234000    1.2211368   -6.1803224    111.35121   0.03965499   0.04224348            4 
  235000    1.2321278   -6.1813594    111.84711  0.039662095  0.042218989            2 
  236000    1.2270038   -6.1749158    112.58901  0.039756008  0.042197845            3 
  237000    1.1830701   -6.1926426    113.01246  0.039737153  0.042175761            4 
  238000      1.22632   -6.1763762    113.59355   0.03977365  0.042156245            2 
  239000    1.2179362     -6.17904    114.53452  0.039935327  0.042136615            3 
  240000    1.1970526   -6.1714537     115.1417  0.039979757  0.042118205            2 
  241000    1.2275535   -6.1718506     115.4924  0.039935131  0.042100315            4 
  242000    1.2085201   -6.1389536    115.96366  0.039932388  0.042084648            4 
  243000    1.1684423   -6.1977402    116.21596   0.03985458  0.042069964            2 
  244000    1.2110281   -6.1658485    116.83016   0.03990101  0.042051672            4 
  245000    1.2090615   -6.1858964    117.05406  0.039814307  0.042036215            1 
  246000    1.2053881     -6.18715    117.70192  0.039871924  0.042018476            3 
  247000    1.1867444   -6.1654468    118.31286   0.03991662  0.042001591            2 
  248000    1.2204255    -6.187326    118.78969  0.039915889  0.041988602            1 
  249000    1.1936462   -6.2166493    118.91479  0.039797455  0.041973394            4 
  250000    1.2213032   -6.2112822     119.6631  0.039887702  0.041958076            1 
  251000    1.2018512   -6.1883442    120.38875  0.039969706  0.041944207            3 
  252000    1.2045546   -6.1745265    120.94228  0.039994141  0.041930649            2 
  253000    1.2001144   -6.2011521    120.92529  0.039830466  0.041915911            4 
  254000    1.2285895   -6.1555117    122.19403  0.040089905  0.041902234            3 
  255000    1.2089309   -6.1842426    122.20921  0.039937652  0.041888391            3 
  256000    1.2159049    -6.196551    122.06585  0.039734977  0.041873308            2 
  257000    1.2099877   -6.1553998    122.99895  0.039882928  0.041857528            1 
  258000    1.2158466   -6.2269832    122.70331  0.039632852  0.041838511            2 
  259000    1.2152259   -6.1550742    123.52565  0.039744419  0.041820217            2 
  260000    1.2221368   -6.1850557     124.0737   0.03976721  0.041802517            3 
  261000    1.2303298   -6.1844349    124.65899  0.039801722   0.04178497            3 
  262000    1.2190975   -6.1250984    124.91152  0.039730126  0.041765633            5 
  263000    1.2018578   -6.1970445    124.78072  0.039537617  0.041746212            3 
  264000    1.2355159   -6.1848269    126.03909  0.039785065  0.041727183            3 
  265000    1.2247511   -6.2092762    125.79693  0.039558781  0.041708558            3 
  266000    1.2163794   -6.1882878    126.28303  0.039562354  0.041690289            2 
  267000    1.1995668   -6.1739755    127.11839  0.039674902  0.041672168            3 
  268000    1.2334383   -6.1821627    127.67508  0.039699964  0.041654684            2 
  269000    1.2079864   -6.2070936    127.68617  0.039555816  0.041636673            2 
  270000     1.192765   -6.1977569    128.82282   0.03976013  0.041621631            6 
  271000     1.209857   -6.2171153     129.8633  0.039933364  0.041610443            2 
  272000    1.2179359   -6.1395525    130.60761  0.040014588  0.041601623            2 
  273000    1.1904125    -6.160519    130.88582  0.039952937  0.041592636            4 
  274000    1.1955862   -6.1817385    131.70212   0.04005539  0.041582944            2 
  275000     1.222398   -6.2090023     131.6365  0.039889849  0.041573387            2 
  276000    1.2028072   -6.1730178    132.56845  0.040026705  0.041564983            2 
  277000    1.2128259   -6.1949801    133.19502  0.040070703  0.041556763            2 
  278000    1.2101458   -6.1828917    133.22373  0.039935172  0.041547458            3 
  279000    1.2283602   -6.1898227    133.12928  0.039763823  0.041537171            3 
  280000    1.1874241   -6.1806093    134.02989  0.039889849  0.041527783            5 
  281000    1.2041328   -6.1782496    133.97049  0.039730275  0.041516618            2 
  282000     1.192141   -6.1889393    135.01608  0.039898368  0.041507089            4 
  283000    1.2251729   -6.1967801    134.92364  0.039730165  0.041497095            2 
  284000    1.2272771   -6.1747224    135.99994  0.039906085  0.041487591            2 
  285000    1.2187567   -6.2165534    135.92316  0.039743613  0.041477312            1 
  286000    1.2135406   -6.1902865    136.95764  0.039906072  0.041467168            2 
  287000    1.2280157   -6.1802209    138.00524  0.040071209  0.041457524            2 
  288000    1.2184061   -6.1698379    138.31155  0.040020703  0.041449094            2 
  289000    1.1898971   -6.2000301    138.02617  0.039799933  0.041439252            5 
  290000    1.2010884   -6.2120909    138.57687   0.03982094  0.041428719            2 
  291000    1.2007941   -6.1626624    139.25436  0.039878111  0.041418748            2 
  292000    1.2089055   -6.1943596    140.48011  0.040091356  0.041408572            1 
  293000    1.2010065    -6.193023    140.10392   0.03984753  0.041399292            4 
  294000    1.2209352     -6.15647    141.36259  0.040068761  0.041390035            2 
  295000    1.2181649   -6.2094027    141.04833  0.039844161  0.041380807            2 
  296000     1.207075   -6.1934801    141.32201  0.039786601  0.041371323            4 
  297000    1.2344247   -6.2243043     141.2939  0.039644754    0.0413606            5 
  298000    1.1970339   -6.2146447    142.03202  0.039718127  0.041347948            5 
  299000    1.2088015   -6.2261925    142.64472  0.039756053  0.041335846            7 
  300000    1.1862478   -6.2453785    142.35307   0.03954252  0.041322827            3 
  301000    1.2385038   -6.2093195    143.34466  0.039685675  0.041309517            2 
  302000    1.2258153   -6.1968971    144.04179   0.03974663   0.04129676            5 
  303000    1.2275088   -6.1899182    144.59083  0.039766454  0.041284093            2 
  304000    1.1786573   -6.1832256    145.60979  0.039914964  0.041270918            3 
  305000    1.2040504   -6.2301474    145.37374  0.039719602  0.041259909            1 
  306000    1.1794242   -6.1789144    145.44956  0.039610445  0.041245749            1 
  307000    1.1783364   -6.2120408    145.67464  0.039542519  0.041230725            2 
  308000    1.1974846   -6.1860535    146.42928  0.039618313  0.041216008            4 
  309000    1.2044944    -6.198745    147.48052  0.039773604  0.041204473            2 
  310000    1.2129571   -6.1933024    147.82585  0.039738133  0.041192584            2 
  311000    1.2085169   -6.1554718    149.03891    0.0399354  0.041181589            1 
  312000    1.1896977   -6.2095227    148.08543  0.039552731  0.041170648            2 
  313000    1.2051991   -6.1774728    148.68789  0.039586766  0.041157964            5 
  314000    1.2071854   -6.2614576    148.50169  0.039411277   0.04114422            2 
  315000    1.1967688   -6.2460018     149.4611  0.039539974  0.041129918            2 
  316000    1.1739892   -6.2157588    149.79017  0.039501628  0.041116637            4 
  317000    1.2070041   -6.1943332    150.69145  0.039613946  0.041103561            2 
  318000    1.2388251   -6.2043434    150.70841  0.039493818  0.041090308            2 
  319000    1.1871256   -6.1998976    151.30646  0.039526243  0.041076897            2 
  320000    1.1812773   -6.3053813    151.12985  0.039356732  0.041061837            5 
  321000    1.1805968   -6.2149595    152.31386  0.039541501  0.041048936            3 
  322000    1.1735916    -6.214077    153.05159  0.039609625  0.041036455            2 
  323000    1.2014907    -6.199655    153.25454  0.039539354   0.04102561            3 
  324000    1.1795342   -6.2026489    154.24976  0.039673291  0.041015943            3 
  325000    1.1848266   -6.2061476    154.83704  0.039701805  0.041006619            2 
  326000    1.2111456   -6.2233283    155.01168  0.039624662  0.040997611            4 
  327000    1.1796588   -6.2108427    155.93711  0.039739326  0.040988996            3 
  328000    1.2078839   -6.1994571    157.42715  0.039996735  0.040982379            5 
  329000     1.204438   -6.2020267    157.46617  0.039885047  0.040976679            3 
  330000    1.2000802   -6.2161749    158.08868  0.039921383   0.04097304            4 
  331000    1.2120563   -6.2159397    158.25877  0.039843596  0.040967439            3 
  332000    1.2111441   -6.2107041    158.60054  0.039809372  0.040961008            3 
  333000    1.2020234   -6.2220635    159.02401  0.039795798  0.040956565            2 
  334000    1.2018482   -6.2357124    159.68227  0.039840886  0.040951381            4 
  335000     1.202729   -6.1922707    160.23131  0.039858535  0.040944699            1 
  336000    1.1892035   -6.2069862    160.30013  0.039756976  0.040936833            3 
  337000     1.218241   -6.2457255    160.56041  0.039703365  0.040928075            4 
  338000    1.1877525   -6.1823767    162.20855  0.039992246  0.040922201            2 
  339000    1.2007743    -6.249707    161.85865  0.039788261  0.040915844            2 
  340000     1.173102   -6.1719492    163.01077  0.039953619  0.040912152            2 
  341000    1.1934433   -6.1724712    163.91956  0.040058545  0.040908207            2 
  342000    1.2058982   -6.2088489    163.86262  0.039927538  0.040904706            7 
  343000    1.1870139   -6.2154664    164.00255  0.039845128  0.040901319            2 
  344000    1.2117532   -6.2234083    165.15674  0.040008899   0.04089741            5 
  345000    1.1864991   -6.2129691    165.60015  0.040000035  0.040894074            2 
  346000    1.1742863   -6.2021172    165.64752  0.039895837  0.040890487            2 
  347000    1.2051776   -6.2165732    166.56563  0.040001351  0.040887819            3 
  348000    1.1808451    -6.182557    167.24131  0.040048207  0.040883557            2 
  349000    1.1913613   -6.1694392    167.55608  0.040008616  0.040879305            7 
  350000    1.1921581   -6.2163303    167.53739  0.039889854  0.040875133            4 
  351000    1.1940167   -6.1879453    168.27503  0.039951336  0.040868756            2 
  352000    1.2130425   -6.2154978    167.80936  0.039727595  0.040862553            3 
  353000    1.1711437   -6.2010232    168.66122  0.039816152  0.040854646            3 
  354000    1.1976719   -6.2442185    168.76405  0.039727884  0.040848071            2 
  355000    1.2060435   -6.2299585    169.16052  0.039709042  0.040840869            3 
  356000    1.1580525   -6.2333741    169.31777  0.039634309  0.040833003            2 
  357000    1.1968659   -6.2089605    170.18886  0.039726626  0.040824724            1 
  358000    1.1793203   -6.2471715    170.28131  0.039637175  0.040817788            2 
  359000    1.1903365   -6.2264327     170.1073  0.039486374  0.040809342            3 
  360000     1.177919   -6.2295805    171.33616  0.039661147  0.040801029            2 
  361000    1.1886306   -6.2174536    171.34831  0.039554088   0.04079152            2 
  362000    1.1785244   -6.2500161    171.39777   0.03945621  0.040781536            1 
  363000    1.1769093   -6.2089937    172.94347  0.039702357   0.04077201            1 
  364000    1.1857011   -6.2407898    172.60017   0.03951469  0.040761509            2 
  365000    1.1798828   -6.2255451    173.26542  0.039558316  0.040751805            2 
  366000    1.1909084   -6.2073514    174.61835  0.039758275  0.040743499            2 
  367000    1.1835565   -6.2470283    174.65683  0.039658681  0.040735292            5 
  368000    1.2019541    -6.251544    174.99839  0.039628259  0.040728287            3 
  369000    1.2118435   -6.2008613    175.17427  0.039560585   0.04072099            2 
  370000    1.1848688    -6.209292    175.58556  0.039546298  0.040712618            3 
  371000    1.2102541   -6.2248187    176.22477  0.039583282  0.040703298            6 
  372000    1.1965314   -6.2335965     176.6445    0.0395709  0.040694809            3 
  373000    1.1961174   -6.2164039     177.4359  0.039641623  0.040686155            4 
  374000     1.179458   -6.2056223    176.97258  0.039432393  0.040676834            3 
  375000    1.1963874   -6.2371171    177.50241  0.039444979  0.040667246            2 
  376000    1.2028327   -6.2392826     177.7554  0.039396144   0.04065703            1 
  377000    1.1648829   -6.2200939    178.46695  0.039448928   0.04064585            2 
  378000    1.1910193    -6.217723    177.90443  0.039220553  0.040633128            2 
  379000    1.2189202   -6.2647006    178.34161  0.039213194  0.040620781            3 
  380000    1.1927335   -6.2494969     178.5195  0.039149013  0.040609632            2 
  381000    1.1905797    -6.221533    179.58128  0.039278496  0.040597307            4 
  382000    1.1787668   -6.2292181    179.93665  0.039253196  0.040585844            2 
  383000    1.2182916   -6.2423414    180.24165  0.039217069  0.040573742            2 
  384000    1.1947353   -6.2440135    180.79964  0.039236032  0.040561586            2 
  385000    1.1771589   -6.1993466    181.93732  0.039380373  0.040548898            3 
  386000    1.1895233   -6.2311692    181.63161  0.039212351  0.040536284            4 
  387000    1.2015996   -6.2560561    181.80989  0.039149417  0.040523497            4 
  388000    1.1682919    -6.235846    182.82395  0.039266312  0.040509341            6 
  389000    1.1724082   -6.2696457    182.74777  0.039149052  0.040497753            3 
  390000    1.1668304   -6.2356935    183.62405  0.039235907  0.040486617            1 
  391000     1.196963   -6.2367686    184.71273  0.039367589  0.040475404            2 
  392000    1.1859718   -6.2262621    184.70038  0.039264537  0.040465083            2 
  393000     1.200665   -6.2643716    184.97698  0.039223279  0.040454705            8 
  394000    1.1930233   -6.2313733    185.68386  0.039273235  0.040444543            2 
  395000    1.2019014   -6.2630734    186.48153  0.039342096  0.040434651            5 
  396000    1.1636939   -6.1718695     188.0502  0.039572853  0.040425542            3 
  397000    1.2006575   -6.1770716    187.20969  0.039296745  0.040417489            1 
  398000    1.1954229   -6.2313176    187.35068  0.039227529   0.04040756            4 
  399000    1.1932976   -6.1780949     187.8307   0.03922947  0.040398525            4 
  400000    1.1961043   -6.2674307    188.15337  0.039198618  0.040388029            5 
  401000    1.1836468   -6.2615317    188.63397  0.039200743  0.040377033            1 
  402000    1.1909257   -6.2600412    188.84792  0.039147578  0.040365345            2 
  403000    1.1606698   -6.2056453    189.61588  0.039209239  0.040353614            4 
  404000    1.2080833   -6.2529486    189.26664  0.039040148  0.040342582            2 
  405000    1.1912237   -6.2263761    189.65794  0.039024268  0.040331694            3 
  406000    1.1941556   -6.2211396    191.51703  0.039309736  0.040321222            2 
  407000    1.1892274   -6.2488186    191.66793  0.039244047  0.040311216            2 
  408000    1.2063456   -6.2427424    192.23188  0.039263047  0.040301892            5 
  409000    1.1894233   -6.1749271    193.03558  0.039330803  0.040292972            4 
  410000    1.1846729   -6.2584063    192.62719  0.039151869  0.040284418            2 
  411000    1.1948056   -6.2875846    193.70242  0.039274618  0.040275038            4 
  412000    1.1654102   -6.2270837    194.91363  0.039424279  0.040267108            5 
  413000    1.1589344   -6.2530789    195.02031  0.039350345  0.040260588            3 
  414000    1.1574068   -6.2752033    195.07179  0.039265658  0.040252411            3 
  415000     1.185996    -6.253841     195.5822  0.039273534   0.04024545            2 
  416000    1.1854461   -6.2575211    196.56263  0.039375526  0.040238956            4 
  417000    1.2045415   -6.2643409    197.67748  0.039503894  0.040232213            2 
  418000    1.1923466   -6.2674266    197.42873  0.039359794   0.04022511            2 
  419000    1.1748457   -6.2756711    197.59791  0.039299505  0.040217146            3 
  420000    1.1888889   -6.2543161    197.73318  0.039232773  0.040209638            2 
  421000    1.2162367   -6.2151252     198.2653  0.039244912  0.040201964            2 
  422000    1.1994394    -6.259664    198.35276  0.039169186  0.040193974            2 
  423000    1.1775673   -6.2262082    199.22027  0.039247492  0.040185874            3 
  424000    1.1692319   -6.2204903    199.41017   0.03919225  0.040176236            2 
  425000    1.1970011   -6.2472769    199.68277  0.039153485  0.040166137            2 
  426000    1.1866968   -6.2304148    199.91018  0.039106061  0.040156285            3 
  427000    1.1834973   -6.1865401    201.06798  0.039240433  0.040146228            2 
  428000    1.1788333   -6.2426926    200.86986  0.039110176  0.040135591            3 
  429000    1.1820882   -6.2512778     201.6478  0.039170124  0.040125549            3 
  430000    1.1969186   -6.2859208    201.26116    0.0390041   0.04011574            5 
  431000    1.1804182   -6.2677906    201.52581  0.038964773  0.040105178            2 
  432000    1.1968102   -6.2581848    202.05802  0.038977242  0.040093621            2 
  433000    1.1894106   -6.2001078    203.87366  0.039236654  0.040082859            2 
  434000    1.1554673    -6.240042    202.76674  0.038933706  0.040072323            1 
  435000    1.1929063   -6.2406731    203.64818  0.039013062  0.040061282            4 
  436000    1.1818454   -6.2444274    204.00153  0.038991118  0.040050598            2 
  437000    1.1746653   -6.2952987    203.96278  0.038894504  0.040039178            2 
  438000    1.1310688   -6.2463658    204.34779  0.038878955   0.04002729            4 
  439000    1.2250312   -6.2490186    204.89372  0.038894025  0.040015282            2 
  440000    1.1834708   -6.2220813    205.39996  0.038901508  0.040003706            2 
  441000      1.18002   -6.2350992    206.73196  0.039064996  0.039992259            2 
  442000    1.1773442   -6.2422577    206.00663  0.038839863  0.039981011            2 
  443000    1.2004402    -6.275942    206.46388  0.038838203  0.039969224            1 
  444000    1.1830773   -6.2396295    207.97589  0.039034513   0.03995863            2 
  445000    1.2048919   -6.2905946     207.8144  0.038916554  0.039946751            4 
  446000    1.1868483   -6.2675786     207.4499  0.038761191   0.03993507            8 
  447000    1.1849161    -6.262938     208.5767  0.038884545  0.039924149            3 
  448000    1.2060057   -6.2568555    208.92722  0.038862951  0.039912624            1 
  449000    1.1639436   -6.2224822    209.62345  0.038905614  0.039901373            2 
  450000    1.1541895   -6.2456512    209.38252  0.038774541  0.039890552            2 
  451000    1.1905337   -6.2706149     209.2974  0.038672839  0.039878221            3 
  452000    1.2031738   -6.2464972    209.88171  0.038695006   0.03986498            4 
  453000    1.1728804   -6.2948657    209.60701  0.038559052  0.039851408            4 
  454000    1.1781061   -6.2372868    210.96032  0.038722526  0.039838752            2 
  455000    1.1839577   -6.2797333    211.13849  0.038670053  0.039826192            2 
  456000    1.1645798    -6.253512    211.86026  0.038717153  0.039813534            2 
  457000     1.179516   -6.2449916    211.98952  0.038656003  0.039801269            1 
  458000    1.1613492   -6.2767764    212.19485  0.038608961  0.039788319            3 
  459000    1.1841665   -6.2571001    213.25358  0.038717062  0.039776492            1 
  460000    1.1864353   -6.2251512    214.60232  0.038877232  0.039766268            2 
  461000    1.1767557    -6.295871     213.2389  0.038546439  0.039755142            4 
  462000    1.1888954   -6.2526771    214.24957  0.038645304  0.039743006            3 
  463000    1.1846239   -6.2580605    214.68983  0.038641078  0.039732012            2 
  464000    1.1635019   -6.2476365    215.66091  0.038732204  0.039721432            3 
  465000    1.1671827   -6.2779188     216.4063   0.03878249  0.039711101            7 
  466000    1.1902278   -6.2540122     217.5946  0.038911767  0.039700523            2 
  467000    1.1811021   -6.2455017    217.13635  0.038746671  0.039690956            1 
  468000    1.1776898   -6.2836621    216.58834    0.0385663  0.039681003            2 
  469000    1.1813068   -6.2503861    217.32691  0.038615299  0.039670371            2 
  470000    1.2093463   -6.2704158    218.38355  0.038720488  0.039658866            3 
  471000    1.1668047   -6.2842663    217.92575  0.038557281  0.039647604            4 
  472000    1.1939536   -6.2910711    218.44691  0.038567605  0.039636075            4 
  473000     1.157244   -6.2787281    218.63037  0.038518388  0.039624927            5 
  474000    1.2011878   -6.2832453    219.21791   0.03854042  0.039613526            1 
  475000    1.1360763   -6.2670189    219.43854  0.038497989  0.039601978            4 
  476000    1.1740921   -6.3081345    219.50322  0.038428436  0.039589369            4 
  477000    1.1662393   -6.2615959    220.75368  0.038566331  0.039577599            1 
  478000    1.1880037   -6.2669004    220.66739  0.038470605  0.039566035            2 
  479000    1.1787263   -6.2891915    221.40109  0.038517936   0.03955409            2 
  480000    1.1648987   -6.2771774    221.68159  0.038486387  0.039542047            3 
  481000    1.1847473   -6.2712874    222.50741  0.038549448  0.039530209            3 
  482000    1.1598026   -6.2690745    222.12835  0.038403933  0.039518466            3 
  483000    1.1667485   -6.2723731    222.30833  0.038355474  0.039506506            2 
  484000    1.1769648   -6.2566312    223.05674  0.038405086  0.039494272            2 
  485000    1.1741615   -6.2714379    224.06671  0.038499435  0.039481367            3 
  486000     1.193378   -6.2991516    224.23835  0.038449648  0.039469056            3 
  487000    1.1864589   -6.2284321    224.53421  0.038421323  0.039456359            3 
  488000    1.1306005   -6.2288672    225.33648   0.03847959  0.039444834            2 
  489000    1.1695582   -6.2601776    225.57128  0.038440914  0.039433452            2 
  490000    1.1467915   -6.3082097    225.84665  0.038409294  0.039422943            3 
  491000    1.1557214   -6.2853601    227.05907  0.038536842    0.0394127            4 
  492000    1.1696409   -6.3069121     226.8493  0.038422985  0.039402892            4 
  493000    1.1671838    -6.307335    227.39797   0.03843779  0.039393277            4 
  494000    1.1738088   -6.2948328    228.81949  0.038599778   0.03938289            4 
  495000    1.1669608   -6.2143346    229.98535  0.038718072  0.039373268            3 
  496000     1.174685   -6.2418934    229.93797  0.038632051  0.039364953            2 
  497000    1.1770412   -6.2884844    230.32401   0.03861905   0.03935668            5 
  498000    1.1833667   -6.2782584    230.05879   0.03849712  0.039347466            3 
  499000    1.1580479   -6.2570911    231.03943  0.038583739  0.039338373            5 
  500000    1.1600901   -6.2795798    232.04222  0.038673703  0.039329651            7 
  501000    1.1749054   -6.2634667    231.92135  0.038576405  0.039320794            2 
  502000    1.1593224    -6.300038    233.04561  0.038686191  0.039312594            6 
  503000     1.189277   -6.2495716    233.67117  0.038712917  0.039305432            4 
  504000    1.1586379    -6.266161    233.98314  0.038687688  0.039297604            3 
  505000    1.1855577   -6.2808347     234.2133  0.038649059  0.039289268            1 
  506000    1.1562725   -6.2872294    234.31507  0.038589439  0.039281334            2 
  507000    1.1250986   -6.2739635    235.23035  0.038663766    0.0392732            4 
  508000    1.1809484   -6.2768677    234.66268  0.038494535  0.039264744            3 
  509000    1.1297287   -6.2522299    235.93007  0.038626402  0.039255866            3 
  510000    1.1604378   -6.2854319    235.58015  0.038493489  0.039247515            4 
  511000    1.1795151   -6.2584134    236.12584   0.03850715  0.039238133            2 
  512000    1.1451926   -6.2986707    235.71763    0.0383655  0.039229124            3 
  513000    1.1644348   -6.2497422     236.1765  0.038365253  0.039219378            1 
  514000    1.1851361   -6.2755143    236.96964  0.038419203  0.039210309            5 
  515000    1.1538698   -6.3140574    237.52809  0.038434966   0.03920151            1 
  516000    1.1920725   -6.2942959    237.78953  0.038402702  0.039191858            2 
  517000    1.1688822   -6.2880488    237.66621  0.038308545  0.039181791            6 
  518000    1.1989776   -6.2456201    238.63293  0.038390111  0.039172868            7 
  519000    1.1940453   -6.2704228    239.67262  0.038483079  0.039164017            5 
  520000    1.1706256   -6.2361341    240.97292  0.038617455  0.039155519            2 
  521000    1.1728397   -6.2317098    240.72641  0.038503905  0.039147724            3 
  522000    1.1646826   -6.2947521    240.31137  0.038363884  0.039138949            2 
  523000     1.178756   -6.2784937    241.53825  0.038486018  0.039130402            2 
  524000    1.1890914   -6.2836603    241.50255  0.038406894  0.039121091            5 
  525000     1.165388   -6.2650324    242.26352  0.038454527  0.039113076            2 
  526000    1.1594528   -6.1838098    244.13941  0.038678614  0.039105161            3 
  527000    1.1855535   -6.2916115     243.5412  0.038510626  0.039097633            2 
  528000    1.1560079   -6.2707961    244.28464  0.038555025  0.039090246            4 
  529000     1.172759   -6.2970466    244.32281  0.038488156  0.039081946            4 
  530000    1.1454099   -6.3111155    245.37839  0.038581507  0.039073472            9 
  531000    1.1580423   -6.2956258    245.46571  0.038522554  0.039065994            4 
  532000    1.1712559   -6.2852106    245.61522  0.038473562  0.039058535            2 
  533000    1.1686621   -6.2891579     245.8289  0.038434788  0.039050876            2 
  534000    1.1919654   -6.3091579    246.02316  0.038393127  0.039042379            2 
  535000     1.156833   -6.2291942    247.28344   0.03851767  0.039034375            4 
  536000    1.1524832   -6.2739266    246.74076  0.038361437  0.039026533            3 
  537000    1.1806768   -6.2923927    247.25464  0.038369745  0.039018167            3 
  538000    1.1594179   -6.3021533    247.73432  0.038372726  0.039010108            4 
  539000    1.1568897   -6.2767428    248.10781  0.038359278  0.039001932            3 
  540000    1.1663327   -6.3124467    248.31288  0.038319889  0.038992932            2 
  541000    1.1496165   -6.3474727    247.86044  0.038179366  0.038983767            4 
  542000      1.18195   -6.3063147    249.12829  0.038303858  0.038974167            2 
  543000    1.1462589    -6.268361    249.31409  0.038261831  0.038966442            3 
  544000    1.1392103   -6.2861227    250.94329  0.038441068  0.038958927            2 
  545000    1.1481891   -6.3052001    250.40376  0.038288037  0.038950964            3 
  546000    1.1712442   -6.2502952    251.64432  0.038407253    0.0389431            2 
  547000    1.1632652   -6.2671539    252.36871  0.038447396  0.038935468            7 
  548000    1.1620449   -6.2670312    252.04565  0.038328109  0.038927381            3 
  549000    1.1887798   -6.2407501    253.43839  0.038469702   0.03891941            4 
  550000    1.1840923   -6.3605286    251.55131  0.038113835  0.038911226            2 
  551000    1.1690196   -6.2941011    252.74224  0.038224779  0.038902686            3 
  552000    1.1569404   -6.3276637    253.30896  0.038241087  0.038894746            2 
  553000       1.1595   -6.2991511    253.70778  0.038232035  0.038886519            3 
  554000    1.1659789   -6.2935017    254.57651  0.038293699  0.038878493            3 
  555000    1.1684426   -6.2917595    254.68211  0.038240557  0.038871011            1 
  556000    1.1748715   -6.3123204    254.64913  0.038166836  0.038863203            3 
  557000    1.1635054   -6.3091486     255.7102  0.038257061  0.038855353            3 
  558000    1.1916138   -6.2881809    256.67581  0.038332708  0.038847104            3 
  559000     1.161852   -6.3056937    256.75293   0.03827563  0.038838638            3 
  560000     1.154293   -6.2871477    256.52403  0.038173218  0.038830124            3 
  561000     1.158123   -6.3075993    257.07969  0.038187714  0.038821169            2 
  562000    1.1537597   -6.3166005    257.15893  0.038131513  0.038812865            2 
  563000    1.1486987   -6.2691623     257.4795  0.038111234  0.038804091            6 
  564000    1.1262561   -6.3053525    258.68379    0.0382216  0.038795243            4 
  565000    1.1358801   -6.2962247     257.9897  0.038051577  0.038785883            2 
  566000    1.1581016   -6.2894373    258.11167  0.038002307  0.038776323            5 
  567000    1.1608631   -6.2955472    257.65791  0.037868594  0.038766873            2 
  568000    1.1674761   -6.2891859    259.18173  0.038025488  0.038756713            5 
  569000    1.1943908   -6.2889133    259.60322  0.038020389  0.038747352            3 
  570000    1.1675137   -6.2916279    259.72843  0.037971992  0.038737581            3 
  571000    1.1515215   -6.3040864    260.38127   0.03800077  0.038728294            2 
  572000    1.1574698   -6.3302849    261.10681  0.038040037  0.038719145            4 
  573000    1.1676736   -6.2770679    262.56942  0.038186362  0.038710082            5 
  574000    1.1552547   -6.2882221    261.67551  0.037990056  0.038700688            6 
  575000    1.1645871   -6.2804181    263.52947  0.038192677  0.038691568            2 
  576000    1.1493863   -6.3407733     262.9879  0.038048019  0.038682851            3 
  577000    1.1575893   -6.2631717    264.21815  0.038159756  0.038674629            4 
  578000    1.1354824   -6.3011179    264.35516  0.038113489  0.038666338            2 
  579000    1.1384374   -6.3218416    262.93687  0.037843533  0.038657427            2 
  580000    1.1786114   -6.3110279    264.32201    0.0379773  0.038648644            5 
  581000    1.1618768   -6.2749615    264.82406  0.037983944  0.038640014            4 
  582000    1.1562837    -6.311828    265.10005  0.037958197  0.038630686            1 
  583000    1.1609152   -6.2714738    265.99608  0.038021166  0.038621641            2 
  584000    1.1475671   -6.3260373    265.76698   0.03792337  0.038612419            4 
  585000    1.1540249   -6.3067505    265.87508  0.037873943  0.038603249            2 
  586000    1.1507614   -6.3053541     267.2956   0.03801132  0.038593576            3 
  587000    1.1740661   -6.2582714    268.02883  0.038050658  0.038584285            6 
  588000    1.1694125   -6.3513362     266.6702  0.037793396  0.038574782            1 
  589000    1.1711906   -6.3168704     267.9746   0.03791378  0.038565266            4 
  590000    1.1427807   -6.3420175     268.3147  0.037897557  0.038555506            2 
  591000    1.1644876   -6.2883388    268.50931  0.037860873  0.038546206            3 
  592000    1.1287429   -6.3124212     268.6244  0.037813119   0.03853639            6 
  593000     1.154344   -6.2538043    268.83458   0.03777889  0.038526166            2 
  594000    1.1401597   -6.3166429    268.24172  0.037632116  0.038516526            2 
  595000    1.1733114   -6.3389836    268.95844  0.037669249  0.038505951            6 
  596000    1.1820053   -6.3544987    269.98168  0.037749116  0.038495867            5 
  597000    1.1386605   -6.2615584    270.97346  0.037824324  0.038486391            2 
  598000    1.1663359   -6.3175656    271.51677  0.037836785  0.038477575            2 
  599000    1.1597738    -6.278965    271.92556  0.037830489  0.038467945            3 
  600000    1.1677561   -6.3275701    270.79192  0.037609989  0.038458425            4 
  601000    1.1541555   -6.3294995    272.08306  0.037726436  0.038448695            2 
  602000    1.1663878   -6.3517804    272.39783  0.037707341   0.03843936            5 
  603000    1.1629123    -6.337327    272.61998  0.037675508  0.038429602            2 
  604000    1.1610544   -6.3060695     274.4067  0.037859644  0.038420428            2 
  605000    1.1673442   -6.3315796    273.38391  0.037656186   0.03841109            2 
  606000    1.1522099   -6.3208064    273.34532  0.037588741  0.038401416            4 
  607000    1.1686203   -6.3352267    273.78271  0.037586863  0.038392177            3 
  608000    1.1667507   -6.2973731    277.31831  0.038009637  0.038383104            2 
  609000    1.1500387   -6.2920653    275.61418  0.037714037  0.038374092            3 
  610000    1.1374763    -6.296707    276.98169  0.037839029  0.038365665            3 
  611000    1.1747599   -6.3782237    276.87973  0.037763193  0.038357717            5 
  612000    1.1547334   -6.3338943    276.90918  0.037705498  0.038348824            3 
  613000    1.1634794   -6.3170066    277.73983   0.03775691   0.03834014            2 
  614000    1.1622296   -6.2788465     278.2134   0.03775969  0.038331142            2 
  615000    1.1458015   -6.2852906    279.72485  0.037903096  0.038322489            4 
  616000     1.168397   -6.3157933    279.28282  0.037781767  0.038313608            4 
  617000    1.1926965   -6.3175562    278.72551   0.03764526  0.038304895            2 
  618000    1.1408282   -6.3505885    278.32213  0.037529952   0.03829559            2 
  619000    1.1412125   -6.3328837    279.80171  0.037668513  0.038286241            4 
  620000    1.1479822   -6.2761324    281.08335   0.03778002  0.038277836            3 
  621000    1.1296205   -6.3088853    280.98173  0.037705546  0.038269193            7 
  622000     1.174373   -6.2953181    280.12897  0.037530676  0.038259756            4 
  623000    1.1570041   -6.3212158    281.02881  0.037590799  0.038250292            2 
  624000    1.1502605   -6.2893385    283.12308   0.03781024  0.038241054            4 
  625000    1.1510403   -6.3087963    282.34357  0.037645809  0.038231913            5 
  626000     1.125164   -6.3187589    281.41985  0.037462706  0.038221957            3 
  627000    1.1518527   -6.2939559    283.22861  0.037643357  0.038211773            2 
  628000    1.1561913   -6.3428274    282.93003  0.037543794  0.038201909            4 
  629000    1.1209088    -6.353448    283.11569  0.037508703  0.038191669            5 
  630000    1.1577078   -6.3539245    283.54496  0.037505948  0.038181749            6 
  631000     1.160491   -6.3221654    283.98618  0.037504779  0.038171265            4 
  632000    1.1476898   -6.3088456    284.18217  0.037471277  0.038161691            4 
  633000    1.1512257   -6.2526843     286.4398  0.037709294  0.038152468            2 
  634000    1.1531514   -6.2926202    286.47792  0.037654827  0.038144396            2 
  635000    1.1576597   -6.3562403    286.27117  0.037568396  0.038136052            5 
  636000    1.1378385   -6.2627347    287.18899  0.037629585  0.038127752            1 
  637000    1.1558549   -6.3275376    287.37327  0.037594619  0.038119193            4 
  638000    1.1210706   -6.3475202    287.44296  0.037544797  0.038110341            3 
  639000    1.1444884   -6.3359934    287.99522  0.037558061  0.038101963            3 
  640000    1.1549057   -6.2819433    288.58094  0.037575643  0.038093052            6 
  641000    1.1421327   -6.2818578     288.8841  0.037556435  0.038084603            2 
  642000    1.1564744   -6.3138505    289.56313  0.037586075  0.038075849           10 
  643000    1.1704272    -6.335248    288.73721  0.037420582  0.038066741            2 
  644000    1.1403991   -6.3123305    287.97929  0.037264401  0.038056705            3 
  645000    1.1423614   -6.3446455    288.90885  0.037326725  0.038046476            1 
  646000    1.1329953   -6.3502333    289.92232   0.03739968  0.038036185            3 
  647000    1.1523425   -6.3686063    289.93486   0.03734349  0.038026093            2 
  648000    1.1699253   -6.3588294    290.17333   0.03731653  0.038015829            5 
  649000     1.120878   -6.3160951    290.67251  0.037323127  0.038006103            3 
  650000    1.1588695   -6.3587802    291.46727  0.037367598  0.037995775            2 
  651000    1.1427131   -6.3489152    291.45208  0.037308254  0.037985594            4 
  652000    1.1796108   -6.3438967    291.70406  0.037283239  0.037975805            2 
  653000    1.1520046   -6.3128439    292.38199  0.037312658  0.037966468            2 
  654000    1.1656114    -6.318453    293.50034  0.037398107  0.037956836            3 
  655000      1.16833   -6.3001107    292.71449  0.037241029  0.037947516            2 
  656000    1.1571515   -6.3719802    292.61261  0.037171317  0.037937897            4 
  657000    1.1646475   -6.3438558    293.46063  0.037222302  0.037927353            3 
  658000     1.129963   -6.3371542    293.60097  0.037183506  0.037917244            2 
  659000      1.14105   -6.3713265    293.28074  0.037086588  0.037907083            5 
  660000    1.1448979   -6.4296536     293.3448  0.037038485  0.037896262           11 
  661000    1.1263419   -6.3615752    294.16659  0.037086055  0.037885867            4 
  662000    1.1540759   -6.3591357    295.31324  0.037174375  0.037875687            5 
  663000    1.1338908   -6.3121664    295.40867  0.037130301  0.037865521            4 
  664000    1.1650366   -6.3430151    296.99549   0.03727353  0.037855569            3 
  665000    1.1290287   -6.3479695    297.21433  0.037244903  0.037845195            3 
  666000    1.1306434   -6.3223852    297.34898  0.037205828  0.037834875            4 
  667000     1.122939   -6.3507297    297.09789  0.037118677  0.037824899            3 
  668000    1.1418599   -6.3204737    298.30249  0.037213384  0.037814669            3 
  669000    1.1501228   -6.2952965    299.27635  0.037279067  0.037804805            3 
  670000    1.1444868   -6.3604324    297.53451  0.037006779  0.037794687            4 
  671000    1.1074061   -6.3409522    299.18159  0.037156183  0.037784729            2 
  672000    1.1420227    -6.347502    299.09385  0.037090011  0.037774431            2 
  673000    1.1494203   -6.3277259    300.18333  0.037169803  0.037764018            3 
  674000    1.1311488   -6.3463747    299.79074  0.037066115  0.037753155            2 
  675000    1.1395855   -6.3238668    300.22973  0.037065398  0.037742415            2 
  676000    1.1254537   -6.3708503    301.05401  0.037112181  0.037730947            3 
  677000    1.1470571   -6.3313085    301.04794  0.037056615  0.037720153            2 
  678000     1.137393   -6.3576877    300.76306  0.036966944  0.037709422            3 
  679000    1.1685665   -6.3308196    301.16151  0.036961403  0.037698735            2 
  680000    1.1193028   -6.3515776    301.72841  0.036976521  0.037688259            2 
  681000    1.1547239    -6.331676    302.31337  0.036993804  0.037678019            3 
  682000    1.1447507   -6.3643431    302.00463  0.036901837  0.037667693            3 
  683000    1.1545628   -6.3852981    301.99932   0.03684716   0.03765713            2 
  684000    1.1301231   -6.3364855    302.85805  0.036897911  0.037646879            2 
  685000     1.160978   -6.3504605    304.28888  0.037018112  0.037637037            3 
  686000    1.1165981   -6.3686455     304.5406  0.036994728  0.037626756            3 
  687000    1.1594924   -6.3510017    303.69492  0.036838297  0.037616246            2 
  688000     1.144162   -6.3342536    304.59669  0.036893979   0.03760634            2 
  689000     1.152239   -6.3336436    305.58202  0.036959605  0.037596183            4 
  690000    1.1447714   -6.3570685     304.8444  0.036816957  0.037585554            2 
  691000    1.1553756   -6.3328929    305.81112  0.036880261  0.037574637            2 
  692000    1.1409903   -6.3638945    305.66973  0.036809938  0.037563756           10 
  693000    1.1252503   -6.3423588    306.50868  0.036857706  0.037553025            5 
  694000    1.1397334   -6.3292587    307.37891  0.036909091  0.037542864            4 
  695000    1.1375578   -6.3359121    307.57564  0.036879574  0.037532792            2 
  696000    1.1511283     -6.34644    307.54152    0.0368225  0.037522437            1 
  697000     1.113322   -6.3535148    306.82444  0.036683936  0.037511237            3 
  698000    1.1478182   -6.3319908    308.51231  0.036832892  0.037500346            3 
  699000    1.1300586   -6.3448338    307.47589  0.036656639  0.037489398            5 
  700000    1.1201952   -6.3326891    309.42244  0.036836005  0.037478883            5 
  701000    1.1695185   -6.3342787    310.08987    0.0368628  0.037468168            5 
  702000    1.1322417    -6.352462    309.49553  0.036739736  0.037457358            4 
  703000    1.1525947   -6.3469253    310.82833  0.036845463  0.037446619            5 
  704000    1.1370234   -6.3535729    310.82267  0.036792456  0.037436209            2 
  705000    1.1446578    -6.346301    309.98985  0.036641826  0.037425269            2 
  706000    1.1383778   -6.3678715      309.726  0.036558782  0.037414112            3 
  707000    1.1519641   -6.3835218    310.31511  0.036576509  0.037402606            4 
  708000    1.1522457   -6.3620498    311.22561  0.036632016  0.037390882            2 
  709000    1.1518562   -6.3360862    312.26375  0.036702369  0.037379468            5 
  710000     1.138915   -6.3835597    311.38064  0.036547024  0.037367611            3 
  711000    1.1412563   -6.3898718    311.84598  0.036550162  0.037356294            2 
  712000    1.1398547   -6.3590072     312.0414  0.036521699  0.037344626            7 
  713000    1.1292434   -6.3432539     312.7795  0.036556744  0.037333356            2 
  714000    1.0950313   -6.3400473     314.0331  0.036651855  0.037322292            6 
  715000    1.1369384   -6.3326412    314.50477  0.036655568  0.037311445            2 
  716000    1.1372931    -6.316982    314.54507  0.036609063  0.037300353            2 
  717000     1.097403   -6.3048856    317.16137  0.036862084  0.037289508            4 
  718000    1.1632306   -6.3554393    315.85731  0.036659391  0.037279201            3 
  719000    1.1515291   -6.3585952    315.50546  0.036567624  0.037268497            3 
  720000      1.13823    -6.387444    315.23153   0.03648513  0.037257676            3 
  721000    1.1241003   -6.3629355    316.95223  0.036633407  0.037246758            4 
  722000    1.1351789   -6.3302683    317.36732  0.036630578  0.037235683            2 
  723000    1.1077713   -6.3514876    317.22558  0.036563575  0.037224136            5 
  724000    1.1420218   -6.3565336    316.95372  0.036481781  0.037213239            3 
  725000     1.147864    -6.399005    317.69911  0.036517139  0.037201674            3 
  726000    1.1252989   -6.3767417    318.26727  0.036532056  0.037190468            4 
  727000     1.134165   -6.3829173    318.81828  0.036544965  0.037179939            2 
  728000    1.1230512   -6.3678374    319.99747  0.036629747  0.037169511            3 
  729000    1.1210156   -6.4053033    318.43932  0.036401386  0.037158631            2 
  730000    1.1748282   -6.3472901    320.84656   0.03662632  0.037148084            5 
  731000     1.154101   -6.3516396    320.16818  0.036498881  0.037137659            2 
  732000     1.142102   -6.3489569    321.44288  0.036594135  0.037126959            2 
  733000     1.138842   -6.3654595    322.65986  0.036682567  0.037116959            1 
  734000    1.1204636   -6.3233611    321.58971  0.036511093  0.037107087            2 
  735000    1.1326212    -6.345816    322.03504   0.03651191   0.03709726            3 
  736000    1.1482832   -6.3925432     322.1021  0.036469893  0.037087538            5 
  737000    1.1170021   -6.3421999    323.61521  0.036591498  0.037077712            2 
  738000    1.1200616   -6.3521979    324.60027  0.036653147  0.037067599            2 
  739000    1.1473354   -6.3581533    324.12303  0.036549733  0.037058026            2 
  740000    1.1393058   -6.3530468    325.17739  0.036619076  0.037048259            2 
  741000    1.1424447   -6.3546868    324.48562   0.03649186  0.037038718            9 
  742000    1.1310284   -6.3757373    324.99057  0.036499391  0.037028575            1 
  743000    1.1293414   -6.3537181    326.07219  0.036571578  0.037018761            3 
  744000    1.1421984   -6.3755888    325.16365   0.03642066  0.037008895            3 
  745000    1.1600328   -6.3367142    326.04613  0.036470484  0.036998417            3 
  746000    1.1158221   -6.4074437    324.08531  0.036202559  0.036987872            6 
  747000    1.1302908   -6.3848487    325.89915  0.036356443  0.036977348            2 
  748000     1.129717   -6.3524946    326.96621  0.036426716  0.036966949            2 
  749000    1.1401621   -6.3619837    327.03204  0.036385407  0.036957437            5 
  750000    1.1412294   -6.3543439     328.7722  0.036530245  0.036947524            2 
  751000    1.1307225   -6.3841595     327.9347  0.036388671  0.036937781            7 
  752000    1.1278376   -6.4412802    326.95476  0.036231689  0.036927524            3 
  753000     1.127628   -6.3992186    328.03891  0.036303553  0.036917456            3 
  754000    1.1260438   -6.3550612    329.15534  0.036378795  0.036907387            1 
  755000    1.1496857   -6.3224269    328.72051  0.036282617  0.036897138            1 
  756000    1.1144793   -6.3519494    329.71006  0.036343702  0.036887112            2 
  757000    1.1419263   -6.3937021    329.88609  0.036315069  0.036876625            2 
  758000    1.0988997   -6.3726907    330.86038  0.036374272  0.036866119            4 
  759000     1.107627   -6.3837136    330.06261  0.036238759    0.0368556            3 
  760000    1.1507393   -6.3487363    330.90639  0.036283596  0.036845194            2 
  761000    1.1398333   -6.4132263    330.45346  0.036186319  0.036834408            2 
  762000    1.1430664    -6.345502     331.8085  0.036287018  0.036824089            2 
  763000    1.1315783   -6.3977507    330.56022  0.036103126  0.036813325            2 
  764000    1.1624878   -6.3803803    332.19179  0.036233834  0.036802649            4 
  765000    1.1383337   -6.3733858    332.69331  0.036241101  0.036791991            3 
  766000     1.134019   -6.3942635     332.7108  0.036195692  0.036781434            6 
  767000    1.1134312   -6.3803712    332.43019  0.036118013  0.036770868            2 
  768000    1.1518345   -6.4275255    333.45289  0.036181955  0.036760164            4 
  769000    1.1226153    -6.350506    334.65616  0.036265297  0.036749938            3 
  770000    1.1251186   -6.3805619    334.37088  0.036187324  0.036740037            4 
  771000    1.1357991   -6.3516346    334.94198  0.036202116  0.036729876            2 
  772000    1.1121229    -6.330686    336.45395  0.036318432  0.036719739            3 
  773000    1.1179475   -6.3783189    334.75772  0.036088585   0.03670945            4 
  774000    1.1250734   -6.4068728    334.43834  0.036007574  0.036699131            1 
  775000    1.1183539   -6.4186944    336.01702  0.036130862  0.036688885            4 
  776000    1.1456297   -6.3617654    337.77116  0.036272676  0.036678856            3 
  777000    1.1208755   -6.3635023    336.87644  0.036130034   0.03666902            4 
  778000    1.1449712   -6.3716271    337.60947  0.036162111  0.036658756            3 
  779000    1.1244747   -6.3842523    336.20431  0.035965374   0.03664851            3 
  780000    1.1202653   -6.3696544    337.15964  0.036021329  0.036638048            2 
  781000    1.1172566   -6.3465608    336.99436  0.035957571  0.036627619            3 
  782000    1.1180199   -6.4254014    336.87729  0.035899115  0.036616726            2 
  783000    1.1516667    -6.377975    338.50073  0.036026046  0.036605771            2 
  784000    1.1229534   -6.3879979    337.51668  0.035875497  0.036594595            1 
  785000    1.1332165      -6.3894    337.34365  0.035811428  0.036583515            4 
  786000    1.0917628   -6.3770701    338.45014  0.035883178  0.036571902            2 
  787000    1.1303278   -6.3648007    339.21707  0.035918792  0.036560665            5 
  788000    1.1196897     -6.39796    338.95836   0.03584585  0.036549051            3 
  789000     1.130861   -6.4058837    340.06756  0.035917571  0.036537655            2 
  790000    1.1404408   -6.3805491    340.73278  0.035942276  0.036526899            2 
  791000    1.1039408   -6.3275186    342.66518  0.036100419  0.036516126            4 
  792000    1.1391999   -6.3637167    342.36237  0.036022977   0.03650608            3 
  793000    1.1290003   -6.3625273    341.94721  0.035933923  0.036495371            2 
  794000     1.171525   -6.4055588    341.10349  0.035800114  0.036484639            1 
  795000    1.1316262   -6.4235952    341.27645  0.035773213  0.036473988            5 
  796000      1.11661   -6.3639036    342.94821  0.035903288  0.036463291            7 
  797000    1.1362711   -6.3866424    342.93591  0.035856954  0.036452722            1 
  798000    1.1409143    -6.363067    342.45115  0.035761398  0.036442159            4 
  799000    1.1418036   -6.4118354    343.39111  0.035814676  0.036431187            2 
  800000    1.1131018   -6.3753728    344.57223  0.035892941  0.036419641            5 
  801000    1.1224861   -6.3917122    344.05424   0.03579424  0.036408623            4 
  802000    1.1220793   -6.4140802    343.59787  0.035702189  0.036397311            2 
  803000    1.1265104   -6.3783998    344.58652  0.035760328  0.036385826            3 
  804000    1.1168545   -6.4084214     344.1268    0.0356682  0.036374516            4 
  805000    1.1434399   -6.3888508    344.93006  0.035707045  0.036363616            1 
  806000     1.135384   -6.3912962    344.91331  0.035661012  0.036352223            6 
  807000    1.1104037   -6.4023705    346.44954  0.035775459   0.03634145            2 
  808000    1.1071868    -6.431192    345.42635  0.035625655  0.036330265            4 
  809000    1.1319737   -6.3866447    346.99224  0.035742917  0.036318967            4 
  810000    1.0923759   -6.3946831    346.81577  0.035680635  0.036307815            1 
  811000    1.1298878   -6.3969133    347.07453  0.035663227  0.036297103            4 
  812000    1.1400963    -6.391429    348.26811  0.035741801  0.036286638            2 
  813000     1.117949   -6.4073684     349.1927  0.035792609  0.036275961            3 
  814000    1.1103752   -6.4339066    347.42089  0.035567249  0.036265502            3 
  815000    1.1128045   -6.3738357    349.45858  0.035731961  0.036254907            2 
  816000    1.1241729   -6.4357025    347.82359  0.035521199  0.036243809            4 
  817000    1.0969864   -6.4473416    347.32055  0.035426413  0.036232598            5 
  818000    1.1166718   -6.4377532    348.45626  0.035498804  0.036220728            6 
  819000    1.0848609   -6.4266098    348.18047  0.035427399  0.036208784            4 
  820000    1.1083801   -6.3713742     349.2607  0.035493974  0.036197199            2 
  821000    1.1143241   -6.3904108    350.66484  0.035593264  0.036186122            3 
  822000    1.1385243   -6.4132031    350.79537  0.035563197  0.036174789            5 
  823000    1.1136542   -6.4073118     351.8763  0.035629435  0.036163624            4 
  824000    1.0966477   -6.3809581    352.52727   0.03565203  0.036153134            2 
  825000    1.1062459   -6.3964977    352.20731  0.035576496  0.036143049            6 
  826000    1.1394108   -6.3808839    353.60225  0.035674157  0.036132883            8 
  827000    1.0847261   -6.3903785    352.98495  0.035568818   0.03612247            7 
  828000    1.1011444   -6.4020683    353.67978  0.035595791  0.036112195            3 
  829000    1.1037217   -6.3919907    354.08366  0.035593452  0.036102227            4 
  830000    1.1227801   -6.4117846    353.62726  0.035504744  0.036092485            3 
  831000    1.1091533   -6.3993368    355.44841  0.035644646  0.036082457            1 
  832000    1.1168878   -6.3774709    355.21938  0.035578864  0.036072248            3 
  833000    1.1238009   -6.3997075    355.70042  0.035584276  0.036062387            3 
  834000    1.1063803   -6.4114404    354.74558  0.035446201   0.03605205            3 
  835000    1.1387408   -6.4396499    356.27398  0.035556286  0.036041667            6 
  836000    1.1183251   -6.4007187    357.43607  0.035629592  0.036031141            3 
  837000    1.1206308   -6.3559474     357.8838  0.035631601  0.036021224            5 
  838000    1.1269751    -6.422412    355.78403  0.035380273  0.036010771            7 
  839000    1.1169563   -6.3775921    357.80526  0.035538862  0.036000617            3 
  840000    1.1381909   -6.4199094    357.97945  0.035513834  0.035990725            3 
  841000    1.1275607   -6.3622781    359.72988  0.035645053  0.035980816            2 
  842000    1.1077537   -6.4084669    358.49694  0.035480695   0.03597085            5 
  843000    1.1337865   -6.4173704    357.86862  0.035376495   0.03596066            3 
  844000    1.1063256   -6.4418156    358.45722  0.035392695  0.035950374            3 
  845000    1.1245929   -6.4094597    358.06151  0.035311786  0.035940154            5 
  846000     1.112913    -6.434671    360.60866  0.035520947  0.035929957            2 
  847000    1.1230075   -6.3844277     359.9761  0.035416775  0.035919779            3 
  848000     1.102773   -6.3830014    359.88726   0.03536628  0.035909709            3 
  849000    1.1313347    -6.457442    359.82633  0.035318643  0.035899411            7 
  850000    1.1208681   -6.4383395    360.43254  0.035336523  0.035889205            4 
  851000    1.1202192   -6.3893242     362.4045  0.035488102  0.035878864            2 
  852000    1.1088861   -6.3991308     361.8156  0.035388849  0.035868948            2 
  853000    1.1078629   -6.3964821    362.75792  0.035439422  0.035859263            5 
  854000    1.1215568   -6.3789827    363.74102  0.035493854  0.035849849            3 
  855000    1.0957389   -6.3788939    363.06315  0.035386272  0.035840246            3 
  856000    1.1352413   -6.4143273    363.05612  0.035344248  0.035830623            1 
  857000    1.1217483   -6.3890163    364.50386  0.035443783  0.035820604            7 
  858000    1.1153404   -6.3903133    364.50661   0.03540274  0.035810477            3 
  859000    1.1185879    -6.371746    364.94409  0.035403967  0.035800195            5 
  860000    1.0951041   -6.3842275    364.26882  0.035297366  0.035790292            3 
  861000    1.0932597   -6.3370428    365.37016  0.035362966  0.035780007            4 
  862000    1.0927253     -6.37314    364.69704  0.035256868  0.035769589            4 
  863000    1.1181283     -6.37975    365.76734  0.035319364  0.035759351            2 
  864000    1.1239994   -6.4433234    362.10359  0.034925115  0.035748542            3 
  865000    1.0825497   -6.4181953    365.17653  0.035180783  0.035737612            2 
  866000    1.1288356   -6.4010456    364.96582  0.035119882  0.035726311            4 
  867000    1.1158839   -6.4065559    365.45304  0.035126206  0.035715181            2 
  868000    1.1108734   -6.4206337    365.70175  0.035109615  0.035703908            3 
  869000    1.1377184    -6.459502    365.42768   0.03504293  0.035692535            4 
  870000    1.1102544   -6.4219266    365.96931  0.035054532  0.035681422            2 
  871000    1.0973294   -6.4375032     365.6742  0.034986051  0.035670129            4 
  872000     1.114159    -6.378379    369.43564  0.035305394  0.035659249            5 
  873000    1.1048031   -6.4162105     367.3357  0.035064499  0.035648643            7 
  874000    1.1153014   -6.4300608    368.78192  0.035162273  0.035637896            6 
  875000    1.1312166   -6.4483285    368.36297  0.035082187  0.035626646            4 
  876000    1.1285502   -6.4409042    369.58941   0.03515881  0.035615561            8 
  877000    1.0979866   -6.4025288    369.36135   0.03509705  0.035605163            2 
  878000    1.1317454   -6.4174078     369.5673  0.035076623  0.035594658            3 
  879000    1.1111431    -6.479046    368.91827  0.034975187  0.035583972            1 
  880000    1.1018278   -6.4440231    370.36967  0.035072885  0.035573397            4 
  881000    1.1354001   -6.4054776    372.09837  0.035196592   0.03556301            5 
  882000    1.1367122   -6.4346798    371.32838  0.035083936  0.035552929            2 
  883000    1.1224901   -6.3995798    372.32926  0.035138662   0.03554287            3 
  884000    1.1239067   -6.4221229    371.87663  0.035056243  0.035533015            3 
  885000    1.1334724   -6.4462507    371.51849  0.034982908  0.035522523            2 
  886000    1.1159573   -6.4309396    371.60879  0.034951917  0.035511936            3 
  887000    1.0869788    -6.414041    373.00584  0.035043766  0.035501629            5 
  888000    1.1352289   -6.4317481    373.87157  0.035085545  0.035490877            4 
  889000     1.123921   -6.4592746    373.33003  0.034995316  0.035480234            5 
  890000    1.1092731   -6.4067794    373.75595  0.034995876   0.03546979            4 
  891000    1.0824343    -6.417295    375.11216  0.035083441  0.035459771            5 
  892000    1.1014319     -6.44265    374.56312  0.034992818   0.03544964            2 
  893000     1.119047   -6.4066459    374.93365  0.034988209   0.03543982            3 
  894000    1.1304964   -6.4127396    375.55375  0.035006874  0.035430007            3 
  895000    1.1194865   -6.4057633    375.79664  0.034990377  0.035419946            2 
  896000    1.1151449   -6.4466392    375.47808  0.034921697  0.035409835            2 
  897000    1.0908004   -6.4367359    376.55384  0.034982705  0.035400018            2 
  898000     1.098664   -6.4313363    377.99167  0.035077178  0.035390136            4 
  899000    1.1205264   -6.4407671    375.61992  0.034818309  0.035379963            2 
  900000    1.0970121   -6.4712292    375.57724   0.03477567   0.03536943            1 
  901000    1.0861523   -6.4159668     378.0757  0.034968156  0.035359047            4 
  902000    1.1171762   -6.4245858    377.09442  0.034838731  0.035349072            1 
  903000     1.097145   -6.4475667    378.26124  0.034907829  0.035338688            3 
  904000    1.1119784   -6.4177163     378.8964  0.034927765  0.035328414            6 
  905000    1.1172086   -6.4149954    380.04101  0.034994568  0.035317882            4 
  906000    1.1165169   -6.4139468    379.72687  0.034927048   0.03530769            9 
  907000    1.1014847   -6.4031569    379.85538  0.034900348  0.035297522            5 
  908000    1.1210755   -6.4521229    378.76546  0.034761882  0.035287196            3 
  909000    1.0862942   -6.4224056    378.74188  0.034721478  0.035276273            1 
  910000    1.1162669   -6.4244687    378.21632  0.034635194  0.035265608            4 
  911000    1.1108862    -6.437902    380.37823  0.034794935  0.035255066            3 
  912000    1.1282348   -6.4048785     380.8885  0.034803408  0.035244554            4 
  913000    1.0945175   -6.3960086    380.87466  0.034764025  0.035233751            2 
  914000    1.1031104   -6.4746817    378.70311     0.034528  0.035222975            3 
  915000    1.1208327   -6.4345016    380.02789  0.034610919  0.035212295            5 
  916000    1.1219503   -6.4074536    381.47413  0.034704706  0.035201842            2 
  917000    1.1000055     -6.40652    382.48325  0.034758565   0.03519142            5 
  918000    1.1354958   -6.4143278    382.50507  0.034722682  0.035180989            5 
  919000    1.0896523   -6.3814473    382.39405  0.034674832  0.035170633            1 
  920000    1.0889399   -6.4328181    383.47082  0.034734676  0.035159806            2 
  921000    1.1245505   -6.4247125    383.71981   0.03471949  0.035149057            3 
  922000    1.1144478   -6.4753233    381.50856  0.034481974  0.035138153            5 
  923000    1.0927303    -6.403714    385.62478   0.03481625  0.035127114            3 
  924000    1.1205524    -6.460282    383.39814  0.034577754  0.035116057            9 
  925000    1.1211049   -6.4134019    384.21925  0.034614347  0.035105126            8 
  926000     1.111872   -6.4159542    385.30899  0.034675035  0.035094513            4 
  927000    1.1066353   -6.4435176     384.5497  0.034569372  0.035083942            3 
  928000     1.102065   -6.4259272    384.17103  0.034498117  0.035073035            5 
  929000     1.110205   -6.4085972    384.19715  0.034463325  0.035062075            3 
  930000    1.1076073    -6.471219     384.2441  0.034430475  0.035051193            2 
  931000     1.103346   -6.4686092    385.39198  0.034496238  0.035040369            3 
  932000    1.0881352   -6.4320583    387.51452  0.034649009  0.035029341            4 
  933000    1.1112937   -6.4710336    386.96327  0.034562636  0.035018726            1 
  934000    1.0933033   -6.4649136    386.24824  0.034461834  0.035007474            1 
  935000     1.093307   -6.4804476    384.72635  0.034289336  0.034996381            3 
  936000    1.0743898   -6.4253665    388.15867  0.034558286  0.034985396            4 
  937000    1.1133497   -6.4689327    388.05626  0.034512296  0.034974677            3 
  938000    1.0714007   -6.4101717    388.96187  0.034555958  0.034964033            2 
  939000    1.0802715   -6.4518432    386.96497  0.034341939  0.034953231            5 
  940000    1.0876188   -6.4733224    389.16695  0.034500616  0.034942652            4 
  941000     1.086588   -6.4282821    390.09337  0.034545994  0.034932055            6 
  942000    1.0903529   -6.4366613    390.38676  0.034535276  0.034921604            2 
  943000     1.086338    -6.433892    390.63578  0.034520659  0.034911186            9 
  944000    1.1086579   -6.4618456    390.54836  0.034476374  0.034900268            5 
  945000    1.0788374   -6.3952332    390.69542  0.034452859  0.034889705            7 
  946000    1.0927074   -6.4221755     392.8283  0.034604325  0.034879193            5 
  947000    1.0783318   -6.5039665    389.50579  0.034275413  0.034868363            3 
  948000    1.1051225   -6.4767126    390.94869  0.034366094  0.034857387            2 
  949000    1.0660381   -6.4255508    390.81859  0.034318457   0.03484653            2 
  950000    1.1124362   -6.4554266    391.05763  0.034303301  0.034835753            3 
  951000     1.103866   -6.4677774    391.15652  0.034275895  0.034824874            3 
  952000    1.1090242   -6.3989875    393.50848   0.03444577  0.034814045            2 
  953000    1.0950317   -6.4422565    392.92391  0.034358509  0.034803447            1 
  954000    1.1008613    -6.477268    393.53148  0.034375566  0.034792793            3 
  955000    1.0615432   -6.4318278     394.8189  0.034451911  0.034782376            5 
  956000    1.0890765   -6.4177341    394.88879  0.034421966  0.034771945            3 
  957000    1.0982294   -6.4229523    394.31125  0.034335706  0.034761702            3 
  958000    1.0779454   -6.4963579    394.10463  0.034281892  0.034751475            7 
  959000     1.101167   -6.4672807    393.32849  0.034178701  0.034740756            3 
  960000    1.0896832   -6.4991427    394.50334  0.034245081  0.034730444            4 
  961000    1.1070371   -6.4330103    395.97833  0.034337351  0.034720174            3 
  962000    1.0888659   -6.4545993    394.84427  0.034203419  0.034709583            2 
  963000    1.1061348   -6.4317185     396.1647  0.034282165  0.034699466            5 
  964000    1.0994256   -6.4529281    398.05877  0.034410336  0.034689428            2 
  965000     1.096718   -6.4134408     398.9935  0.034455397  0.034679671            3 
  966000    1.1071103   -6.4679244     396.1839  0.034177355  0.034669333            3 
  967000    1.0821997   -6.4475095    397.34913  0.034242427  0.034658775            2 
  968000    1.0868945   -6.5084788    396.03468  0.034093894  0.034648307            3 
  969000    1.0949599   -6.4569303    398.11144   0.03423731  0.034637783            3 
  970000    1.0850885   -6.4356418    398.86196  0.034266491   0.03462754            2 
  971000    1.0969782   -6.4717931    397.98905  0.034156286  0.034616973            2 
  972000    1.1047851   -6.4985916    398.89503  0.034198819  0.034606799            7 
  973000    1.0884872   -6.4694048    398.47232  0.034127468  0.034596745            4 
  974000    1.1185384   -6.4648729    400.09556  0.034231311  0.034586509            3 
  975000    1.1078528   -6.4942222    400.37197  0.034219826  0.034576097            2 
  976000    1.0793517   -6.4587759    399.68258  0.034125903  0.034565723            2 
  977000    1.0751542   -6.4974883    400.72162  0.034179599  0.034555673            3 
  978000    1.1233628   -6.4552436    402.84986  0.034325994  0.034545846            4 
  979000    1.1027152   -6.4874634    400.88222  0.034123444   0.03453574            4 
  980000    1.0875682   -6.4890693    401.88255  0.034173686  0.034525449            1 
  981000    1.0680072   -6.4616826    403.46073  0.034272913  0.034515315            2 
  982000    1.0989132   -6.4543089    403.57821  0.034247981  0.034505838            3 
  983000    1.1088958     -6.47117    403.05099  0.034168446  0.034495833            2 
  984000     1.090381   -6.4981836    402.45851  0.034083546  0.034485573            5 
  985000    1.1021359   -6.4768415    403.46879  0.034134415  0.034475302            3 
  986000    1.0975289   -6.4881849    402.47109  0.034015474  0.034465151            2 
  987000    1.0774305   -6.4404042    405.52778   0.03423909  0.034455149            2 
  988000    1.1050343   -6.4444899    403.98017  0.034073901  0.034444987            2 
  989000    1.0813719   -6.4952022    403.88838  0.034031714  0.034434891            3 
  990000    1.0942684   -6.4563216    405.96543  0.034172175  0.034424717            2 
  991000    1.0898262   -6.4672695    404.29116  0.033996902  0.034414547            4 
  992000     1.075177   -6.4130279    405.92004  0.034099466  0.034404367            3 
  993000    1.0935001   -6.4906095     405.3849  0.034020217  0.034393843            3 
  994000      1.07944   -6.4551197    405.46866  0.033993013  0.034383507            7 
  995000    1.0952025   -6.5036398    406.07184  0.034009367  0.034373117            4 
  996000    1.0813826   -6.4790995    405.41293  0.033920091  0.034362887            3 
  997000    1.0972051   -6.4557693    407.86404  0.034090943  0.034352811            2 
  998000     1.108805    -6.442482     406.8361   0.03397095  0.034342745            3 
  999000    1.0870555   -6.4821288    406.36746  0.033897853  0.034332525            2 
 1000000    1.1161386   -6.4607147    406.94955  0.033912462  0.034322069            2 
 1001000    1.0872673   -6.4556023    406.76377  0.033863118  0.034311527            4 
 1002000    1.0689057   -6.4549933    408.51391  0.033974876  0.034300949            2 
 1003000     1.068966   -6.4551632    407.22625  0.033834019  0.034290176            4 
 1004000    1.0716008   -6.4705582    405.61307  0.033666423  0.034279228            2 
 1005000    1.0799448   -6.5136031    405.93714  0.033659796  0.034268017            4 
 1006000    1.0880494   -6.4921601    406.65984  0.033686203  0.034256877            5 
 1007000    1.0887992   -6.4775078    406.75484  0.033660612  0.034245433            2 
 1008000    1.0690629   -6.4710633    406.80758  0.033631579  0.034234246            4 
 1009000    1.0925586   -6.4683608    408.17337  0.033711048  0.034223241            2 
 1010000    1.0942806    -6.499681    407.01061  0.033581734   0.03421202            7 
 1011000    1.0885081   -6.4737001    408.21814   0.03364805   0.03420086            4 
 1012000    1.0764119   -6.4976921    408.37586  0.033627788  0.034189393            3 
 1013000     1.101828   -6.4858772    408.98555  0.033644747  0.034178011            5 
 1014000    1.0977191   -6.4573387    410.42699  0.033730029  0.034167105            3 
 1015000    1.0784267   -6.5008845    409.21597   0.03359737  0.034156201            3 
 1016000    1.0732983   -6.4443356     411.1954  0.033726657  0.034144763            3 
 1017000    1.0918969   -6.4678653    410.45776  0.033633051  0.034133605            3 
 1018000    1.0898517   -6.4652564    410.14412  0.033574339  0.034122636            6 
 1019000    1.0917025   -6.4859982    410.71498  0.033588075  0.034111686            6 
 1020000    1.0975018   -6.5130521    409.67148  0.033469892  0.034100245            5 
 1021000     1.094354   -6.4486059    411.37472  0.033576128  0.034088822            4 
 1022000    1.0905839   -6.4581758    411.79537  0.033577574  0.034077369            3 
 1023000    1.0865357   -6.4836496    410.79437  0.033463211  0.034066042            4 
 1024000    1.0923586   -6.5085437    411.18897  0.033462644  0.034054689            5 
 1025000    1.0934366    -6.497712    412.10569  0.033504527  0.034043417            3 
 1026000    1.0971012   -6.4753536     412.1256  0.033473489  0.034032502            4 
 1027000    1.0669097   -6.5283328    413.55946  0.033557243   0.03402125            7 
 1028000    1.0888861   -6.4666208     412.5066  0.033439251  0.034010157            2 
 1029000    1.0607365   -6.4526853     416.5356  0.033733042  0.033999619            1 
 1030000    1.1124253   -6.4575663    414.98862  0.033575131  0.033989012            3 
 1031000    1.0814492   -6.4785845    416.56582  0.033670047  0.033978267            4 
 1032000    1.1010358   -6.5232691    413.26878  0.033371187   0.03396738            3 
 1033000    1.0876689   -6.4698624    417.28519  0.033662891  0.033956955           10 
 1034000    1.0882103   -6.5034289    416.59992  0.033575107  0.033946568            4 
 1035000    1.0942127   -6.4665213    416.99475  0.033574456  0.033936033            3 
 1036000    1.0836631   -6.4802204    416.46755  0.033499642  0.033925469           12 
 1037000     1.106156   -6.4970487    415.89663  0.033421458  0.033914862            2 
 1038000    1.0661614   -6.4540311    417.80066  0.033542121  0.033904381            2 
 1039000    1.1096281   -6.4987398    417.01992  0.033447219  0.033893627            3 
 1040000    1.0675757   -6.4841218     417.7139  0.033470665   0.03388293            4 
 1041000    1.1018272   -6.5052101    418.00386  0.033461724  0.033872556            4 
 1042000    1.0900731   -6.4977905    418.19628     0.033445  0.033862061            3 
 1043000    1.0970733   -6.4650171     419.9906  0.033556296  0.033851726            4 
 1044000    1.0591452   -6.4698912    419.93689  0.033519867  0.033841713            4 
 1045000     1.088889   -6.4787315    420.03169   0.03349535  0.033831754            3 
 1046000    1.0783834   -6.5132039    420.63193  0.033511148  0.033821857            2 
 1047000    1.1028894    -6.496166    420.81725  0.033493891  0.033811668            5 
 1048000     1.071073   -6.4832209    420.97737  0.033474663   0.03380149            4 
 1049000    1.0880116   -6.4849622    420.00626  0.033365607  0.033791263            3 
 1050000    1.0745834   -6.5050591     421.3762  0.033442555   0.03378102            3 
 1051000    1.0895532   -6.4649439    422.62049  0.033509395  0.033771114            3 
 1052000    1.0730973   -6.4658828    422.50918  0.033468725  0.033761247            3 
 1053000    1.0904076    -6.514353    421.55667   0.03336156  0.033751192            6 
 1054000    1.0784662   -6.5593094    420.39691  0.033238212  0.033740968            3 
 1055000    1.0962356   -6.4934268    423.43406  0.033446608  0.033731257            7 
 1056000    1.0699409   -6.4855109    423.86887  0.033449248    0.0337214            4 
 1057000     1.106955   -6.4453546    425.49675  0.033545944  0.033711522            3 
 1058000    1.0886728   -6.4812191    424.79444   0.03345892  0.033701903            4 
 1059000    1.1012061   -6.5116325    424.62722  0.033414166  0.033692102            6 
 1060000    1.0952029   -6.5072443    424.97485  0.033409972  0.033682278            2 
 1061000    1.0769179   -6.4942111    425.21481   0.03339733  0.033672132            3 
 1062000    1.0664757   -6.5057249    424.51595  0.033311044  0.033662272            5 
 1063000     1.064802   -6.4821191    425.07319  0.033323392  0.033652338            3 
 1064000    1.0614656    -6.514871    425.53403  0.033328167  0.033642113            6 
 1065000    1.0806425   -6.4949362    426.59477  0.033379872  0.033632302            4 
 1066000     1.082277   -6.5010209    424.81935  0.033209768   0.03362244            5 
 1067000    1.0880026   -6.5003066       426.02  0.033272415  0.033612601            3 
 1068000    1.0950523   -6.4937535    426.54133  0.033281939   0.03360261            4 
 1069000     1.108283   -6.4898704    427.46803  0.033323046  0.033592675            1 
 1070000    1.0799986    -6.505974    426.95529  0.033251969  0.033582622            3 
 1071000     1.088148   -6.5110558    426.95866  0.033221184  0.033572525            2 
 1072000    1.0972496   -6.5004618     428.4927  0.033309445  0.033562684            5 
 1073000    1.0654546   -6.5327834    426.86138  0.033151707  0.033552776            4 
 1074000    1.0650446   -6.4698583    428.86169  0.033276047  0.033542809            4 
 1075000    1.0890025   -6.5161441    428.93608  0.033250859  0.033532977            2 
 1076000    1.1041723   -6.5092344      428.821  0.033211044  0.033522728            7 
 1077000    1.0997859   -6.5043409    428.60851  0.033163766  0.033512556            3 
 1078000    1.0794088   -6.4585418    430.03627  0.033243373  0.033502486            3 
 1079000    1.0786199   -6.5284926    428.48914  0.033093076  0.033492412            3 
 1080000    1.1010534   -6.4818019    429.83708  0.033166441  0.033482367            5 
 1081000    1.0638843   -6.4705111    430.48447  0.033185667    0.0334721            4 
 1082000    1.1001238   -6.5209445    430.53966  0.033159247  0.033462009            4 
 1083000    1.0946642   -6.4948039    431.20286   0.03317966  0.033452037            5 
 1084000    1.0937202   -6.5468192    430.57639  0.033100891  0.033442002            3 
 1085000    1.1031709   -6.5212964    431.05806  0.033107378  0.033431911            5 
 1086000    1.0838581   -6.5140351    431.18406   0.03308656  0.033421942            3 
 1087000     1.073936   -6.5342593    432.57456  0.033162723  0.033412366            4 
 1088000    1.0788644   -6.5228033     432.2158  0.033104764  0.033402522            3 
 1089000    1.0774516   -6.5419747    432.14216   0.03306873  0.033392595            2 
 1090000    1.0942553   -6.5398362    433.34193  0.033130117  0.033382714            3 
 1091000    1.0786223   -6.5183936    433.46919   0.03310947  0.033372873            3 
 1092000    1.0843219    -6.527959    432.54249  0.033008432  0.033362897            3 
 1093000    1.0673191   -6.5182593    434.81634  0.033151596  0.033353053            5 
 1094000    1.0872645   -6.5111861    435.31076  0.033158955  0.033343388            5 
 1095000    1.0852638   -6.4753705    437.30405  0.033280369  0.033333977            3 
 1096000    1.0728888   -6.4996422    435.48871  0.033111976   0.03332428            5 
 1097000    1.0715327   -6.5365244    435.71531  0.033099005  0.033314769            4 
 1098000    1.0634741   -6.5035444    436.72235   0.03314529  0.033305346            4 
 1099000    1.0729206   -6.5494817    436.54724  0.033101853  0.033295796            3 
 1100000    1.0533994   -6.5146821    437.81822  0.033168047  0.033286373            4 
 1101000    1.0860484   -6.5083666    436.37871  0.033028967  0.033277142            4 
 1102000    1.0566082   -6.5532705    436.57836  0.033014092  0.033267825            4 
 1103000    1.0764123   -6.4949572    438.52532  0.033131257  0.033258386            3 
 1104000    1.0863213   -6.4970425    437.20666  0.033001711  0.033248866            4 
 1105000    1.0866908   -6.5007789    437.24096  0.032974431  0.033239215            4 
 1106000     1.109289   -6.5117051    438.52141  0.033041094  0.033229513            3 
 1107000    1.0849217   -6.5740034    437.91223  0.032965389  0.033219644            4 
 1108000    1.0775894   -6.5304174    436.96094   0.03286409   0.03320967            2 
 1109000    1.0667764   -6.5378979    437.39175  0.032866828  0.033199767            3 
 1110000    1.0706253   -6.4989986    439.38482  0.032986848  0.033190126            2 
 1111000    1.0622508   -6.4931019    439.10645  0.032936278  0.033180568            4 
 1112000    1.0738787   -6.4984015    439.01636  0.032899907  0.033170807            2 
 1113000    1.0735019   -6.6018595    436.26677  0.032664478  0.033160546            4 
 1114000    1.0882705   -6.5462209    439.29272  0.032861514  0.033150292            4 
 1115000    1.1120141   -6.5248456    439.59655   0.03285475  0.033140071            2 
 1116000    1.0688919   -6.5625754    439.84929  0.032844182  0.033129886            6 
 1117000    1.0902319     -6.51206    440.83538  0.032888345  0.033119746            4 
 1118000    1.0678017   -6.5434893    439.29006  0.032743743   0.03310945            4 
 1119000    1.0881802   -6.5329566     440.8603  0.032831419  0.033099088            3 
 1120000    1.0845674   -6.4763646    442.28503  0.032908112   0.03308916            4 
 1121000    1.0782866   -6.4816744    442.80462  0.032917382  0.033079288            1 
 1122000    1.0765263   -6.5030107    442.09629  0.032835435  0.033069365            2 
 1123000    1.0730037   -6.5419373    441.44242  0.032757675  0.033059248            5 
 1124000    1.0825853   -6.4724391    443.10415  0.032851731  0.033049236            8 
 1125000     1.084303    -6.542036    442.15838  0.032752472  0.033039312            3 
 1126000    1.0727945   -6.5429575    442.70804  0.032764065  0.033029297            2 
 1127000    1.0741662   -6.5059711    443.75535  0.032812433  0.033019145            4 
 1128000    1.0718313   -6.5283142    443.90902  0.032794697  0.033009336            6 
 1129000    1.0874678   -6.4797468    444.55022  0.032812978  0.032999964            5 
 1130000    1.0859251   -6.4957234    446.06413  0.032895585  0.032990709            4 
 1131000    1.0904554   -6.4834096    445.27526  0.032808375  0.032981354            2 
 1132000    1.0803682   -6.5166966    445.44978   0.03279224  0.032971832            2 
 1133000    1.0363922   -6.5096235    447.19985  0.032892016  0.032962004            4 
 1134000    1.0918894   -6.4853306    445.87751  0.032765837  0.032952576            1 
 1135000    1.0613573   -6.5004078    447.22874  0.032836178  0.032943113            4 
 1136000    1.0576037   -6.5439121    446.11059  0.032725248  0.032933691            4 
 1137000    1.0756242   -6.5485708    445.58655  0.032658058  0.032924004            6 
 1138000    1.0707704   -6.5081717    447.81504  0.032792548  0.032914682            4 
 1139000    1.0674093   -6.4924415    447.57615   0.03274628  0.032905434            3 
 1140000    1.0538461   -6.5067871    448.05324  0.032752429  0.032895998            2 
 1141000    1.0561719   -6.5216903    447.77004  0.032703041  0.032886606            4 
 1142000    1.0821391   -6.4988154    449.35024  0.032789714  0.032877306            4 
 1143000    1.0718686   -6.5119466     449.1234  0.032744489  0.032867807            3 
 1144000    1.0827183   -6.5156257    447.28509  0.032581956   0.03285806            5 
 1145000    1.0409404   -6.5227686    448.70396  0.032656765  0.032848833            3 
 1146000    1.0687929   -6.5114093    448.98735  0.032648877  0.032839325            3 
 1147000    1.0702325   -6.4929882    449.57058  0.032662786  0.032829532            4 
 1148000    1.0605358    -6.536858    449.22171  0.032609009  0.032819928            5 
 1149000    1.0607175   -6.5323211    448.93913  0.032560134  0.032810343            4 
 1150000    1.0776126   -6.5189982    451.38571   0.03270911  0.032800693            3 
 1151000    1.0738936   -6.5221274    450.70533  0.032631432   0.03279119            4 
 1152000    1.0625637   -6.5625361    449.04492  0.032482995  0.032781724            7 
 1153000     1.055878   -6.5516007    449.58353  0.032493751  0.032772188            2 
 1154000    1.0825727   -6.4927069    452.20553  0.032654934  0.032762788            5 
 1155000    1.0707043   -6.4945932    452.30792  0.032634049  0.032753226            3 
 1156000    1.0516987   -6.5587974    450.23481  0.032456373   0.03274369            2 
 1157000    1.0898441   -6.5283894    451.38698  0.032511307   0.03273396            3 
 1158000    1.0870725   -6.5258527    452.25783    0.0325459  0.032724176            3 
 1159000    1.0759466   -6.5638662    451.50662  0.032463806  0.032714493            3 
 1160000    1.0617238   -6.5121914    453.34287  0.032567735  0.032704925            2 
 1161000     1.068795   -6.5386546    452.90488  0.032508246  0.032695333            1 
 1162000    1.0514463   -6.5014677    454.04776  0.032562232  0.032685815            5 
 1163000    1.0540262   -6.5595834    452.79915  0.032444766  0.032676124            3 
 1164000    1.0519762   -6.5127932    454.38403  0.032530357   0.03266668            3 
 1165000    1.0487317   -6.5490422    454.17405  0.032487414  0.032657137            5 
 1166000    1.0640883   -6.5050605    455.10913  0.032526381  0.032647896            9 
 1167000    1.0770462   -6.5209414    455.75056  0.032544313  0.032638749            5 
 1168000    1.0985577    -6.538752    455.45261  0.032495192  0.032629393            6 
 1169000    1.0744401   -6.4756068     457.5779  0.032618898  0.032620014            4 
 1170000    1.0596488    -6.532672    454.88993  0.032399568  0.032610785            5 
 1171000    1.0754281   -6.5303276    455.24256  0.032396994  0.032601404            2 
 1172000    1.0325603   -6.5489989    456.25225  0.032441144  0.032591943            4 
 1173000    1.0768818   -6.5393858    456.61012  0.032438912  0.032582271            3 
 1174000    1.0271075   -6.5237627    456.45903  0.032400556   0.03257286            4 
 1175000    1.0583363    -6.539959    456.96438  0.032408821  0.032563603            3 
 1176000    1.0558282   -6.5488088    457.19127  0.032397341  0.032554103            3 
 1177000     1.096085   -6.4956089     458.9971  0.032497671  0.032544652            3 
 1178000    1.0510075   -6.5232469    458.41898  0.032429186  0.032535503            3 
 1179000    1.0821859   -6.5045824    458.25283  0.032389937  0.032526111            2 
 1180000      1.05192   -6.5108045    457.89204  0.032337008   0.03251705            4 
 1181000    1.0420152   -6.5954042    456.69993   0.03222551  0.032507692            3 
 1182000    1.0788317   -6.5626869    458.52173  0.032326687  0.032498252            4 
 1183000    1.0605859   -6.5403775    461.28845  0.032494255  0.032489044            4 
 1184000    1.0435383   -6.5320524     461.4558  0.032478589   0.03248007            4 
 1185000     1.083696   -6.5122383    461.48984  0.032453575   0.03247111            3 
 1186000    1.0682944    -6.567782    460.18653  0.032334636   0.03246204            2 
 1187000    1.0805833   -6.5599724    460.55288  0.032333114  0.032452958            2 
 1188000    1.0507484   -6.5957516    457.82804  0.032114761   0.03244375            5 
 1189000     1.027167   -6.5465056    460.37035  0.032265935  0.032434477            8 
 1190000    1.0454383   -6.5117881    461.36871  0.032308733  0.032425355            4 
 1191000    1.0649965   -6.5570678    460.26819  0.032204603  0.032416098            2 
 1192000    1.0637026   -6.5314853    461.88756  0.032290797  0.032406602            3 
 1193000    1.0560434   -6.5870903      460.358  0.032156887  0.032397125            1 
 1194000    1.0577623   -6.5172341    461.07236  0.032179813  0.032387635            3 
 1195000     1.065081   -6.5615358    464.11546  0.032365095  0.032378117            4 
 1196000    1.0670577   -6.5592562    462.78188  0.032245114  0.032368869            8 
 1197000    1.0691008   -6.5879022    460.65738  0.032070272  0.032359497            2 
 1198000    1.0728367   -6.5488466    462.88292  0.032198311  0.032349914            3 
 1199000    1.0545889   -6.5863556    461.72264  0.032090814  0.032340478            3 
 1200000    1.0666306   -6.5194293    463.30839  0.032174194  0.032331215            5 
 1201000    1.0574278   -6.5324685    466.03736  0.032336758  0.032322137            5 
 1202000    1.0427984   -6.5459537    464.38494  0.032195295  0.032313163            4 
 1203000    1.0651574   -6.5704825    464.15818  0.032152825  0.032304012            4 
 1204000    1.0800665   -6.5757287    462.33076  0.031999637  0.032294715            8 
 1205000    1.0598396   -6.5069779    467.86673  0.032355929  0.032285577            3 
 1206000    1.0404683   -6.5152866    464.91485  0.032125128  0.032276608            4 
 1207000    1.0770274   -6.5485583    467.87434   0.03230284  0.032267801            3 
 1208000    1.0414052   -6.5565378    466.98734   0.03221491   0.03225891            3 
 1209000    1.0443558   -6.5522295    467.23066  0.032205036  0.032250163            1 
 1210000    1.0594417   -6.5620131    468.37615  0.032257311  0.032241487            3 
 1211000    1.0780206   -6.5716745    468.14663   0.03221488  0.032232926            5 
 1212000    1.0753687   -6.5562447    466.82426  0.032097377  0.032224272            4 
 1213000     1.061381   -6.5278402    468.73762  0.032202365  0.032215382            3 
 1214000    1.0602356   -6.5223202    471.45942  0.032362673  0.032206838           13 
 1215000    1.0826223   -6.5691415    469.31666  0.032189071  0.032198268            3 
 1216000    1.0717973   -6.5897653    468.11363  0.032080155  0.032189645            3 
 1217000     1.055991   -6.5707008    469.74514  0.032165512  0.032180772            2 
 1218000    1.0436542   -6.5640792     468.3405     0.032043  0.032171979            2 
 1219000     1.038889   -6.5642328    469.06691  0.032066373  0.032163339            2 
 1220000    1.0327241   -6.6029887    470.25222  0.032121053  0.032155054            3 
 1221000    1.0605243    -6.547225    471.29796  0.032166118  0.032146434            6 
 1222000    1.0491406   -6.5978503    470.87574  0.032111002  0.032137938            4 
 1223000    1.0708021   -6.5313917    473.22969  0.032245141  0.032129326            4 
 1224000     1.056307   -6.5661669    473.27272  0.032221727  0.032120775            7 
 1225000    1.0593671   -6.5640125    472.93697  0.032172583  0.032112284            4 
 1226000    1.0612137   -6.5102566    473.91539  0.032212846  0.032103928            3 
 1227000    1.0415089   -6.5707392    471.89758   0.03204955  0.032095639            4 
 1228000    1.0524515   -6.5723594    471.90755  0.032024128  0.032087049            4 
 1229000    1.0966124   -6.5303748    473.12579  0.032080674  0.032078609            8 
 1230000    1.0609077    -6.508673    475.67261  0.032227142  0.032070242            4 
 1231000       1.0555   -6.5747552    473.35191  0.032043861  0.032061897            4 
 1232000     1.031531   -6.5544885      473.861  0.032052287  0.032053419            3 
 1233000    1.0659807   -6.5585635    474.12204  0.032043934   0.03204503            2 
 1234000     1.077449   -6.5745626    473.44561  0.031972286  0.032036427            9 
 1235000    1.0489405   -6.5479594    476.03626  0.032121205  0.032028039            7 
 1236000    1.0404049   -6.5621523    476.65924   0.03213722  0.032019748            2 
 1237000     1.048497   -6.5575349    475.25285  0.032016495  0.032011321            6 
 1238000    1.0416068   -6.5592996    475.97297  0.032039106  0.032002827            3 
 1239000    1.0497973   -6.5370601    475.14995  0.031957893  0.031994183            2 
 1240000    1.0249248   -6.5211105    478.02794  0.032125534  0.031985654            2 
 1241000    1.0436657   -6.5710269    476.61572  0.032004816  0.031977125            2 
 1242000    1.0438456   -6.6108022    474.99592  0.031870365    0.0319682            3 
 1243000    1.0493587   -6.5845794    476.51404  0.031946503  0.031959478            7 
 1244000    1.0556711   -6.5561674    477.37616  0.031978575  0.031950867            3 
 1245000    1.0394863   -6.5599049    477.17106   0.03193916  0.031942423            4 
 1246000    1.0579193   -6.5568483    477.44132  0.031931602   0.03193387            2 
 1247000    1.0330538   -6.6136118    477.12906  0.031885129  0.031925209            4 
 1248000    1.0712966   -6.5911534     477.0501  0.031854307  0.031916432            2 
 1249000     1.069488   -6.5977111    477.28524  0.031844492  0.031907705            4 
 1250000    1.0537633   -6.5676336    477.94947  0.031863298  0.031898917            4 
 1251000    1.0343868   -6.5592617    478.29725  0.031860995  0.031890191            3 
 1252000    1.0517983   -6.5828675     477.8694  0.031807069  0.031881399            3 
 1253000    1.0629025   -6.5675944    477.76019   0.03177442  0.031872448            4 
 1254000    1.0549041   -6.5477574    480.00688  0.031898384  0.031863617            5 
 1255000    1.0546288    -6.603291    478.54893  0.031776157  0.031854725            4 
 1256000    1.0564627   -6.5621098    478.83015  0.031769516  0.031845892            2 
 1257000    1.0253657   -6.5556479    479.91675  0.031816279  0.031837123            5 
 1258000     1.040678   -6.5519487    479.94734  0.031793014   0.03182829            3 
 1259000    1.0438924   -6.5812237    478.55013   0.03167528  0.031819583            5 
 1260000    1.0781666   -6.5793043    480.17598   0.03175767  0.031810868            5 
 1261000      1.05314   -6.6017092    478.47905  0.031620344  0.031801899            6 
 1262000    1.0657832   -6.6086103    479.71196  0.031676701  0.031792994            3 
 1263000    1.0749712   -6.5508104    482.54116  0.031838292  0.031784425            2 
 1264000    1.0558413   -6.6075678    480.82331  0.031699849  0.031775638            3 
 1265000    1.0577713   -6.5791509    480.06981  0.031625152  0.031766617            3 
 1266000    1.0187156   -6.5736026    482.18424  0.031739352  0.031757537            3 
 1267000    1.0261326   -6.5814404    482.81131  0.031755545  0.031748669            2 
 1268000    1.0479317   -6.5810244    482.03954   0.03167978  0.031739698            5 
 1269000    1.0589903   -6.6196364    481.90128  0.031645737  0.031730788            4 
 1270000    1.0571219   -6.5765065    481.51592  0.031595533  0.031721793            2 
 1271000    1.0550605   -6.5672337    482.39828  0.031628526  0.031712906            3 
 1272000    1.0292808   -6.6153784    481.53319  0.031546986  0.031703789            3 
 1273000    1.0532284   -6.5534491    484.18675  0.031695912  0.031694816            2 
 1274000    1.0403382   -6.6266013    482.29186  0.031547087  0.031685805            6 
 1275000    1.0455097   -6.6185946    483.47119  0.031599424  0.031676645            4 
 1276000     1.022353   -6.5605584    483.96126  0.031606666  0.031667662            5 
 1277000    1.0536923   -6.5765277     484.8373  0.031639082  0.031658765            2 
 1278000    1.0706215   -6.5699226    484.42522  0.031587456  0.031649902            3 
 1279000    1.0479336   -6.5871502    483.83952  0.031524597  0.031641107            5 
 1280000    1.0503637   -6.5961132    484.70788  0.031556502  0.031632141            6 
 1281000    1.0421473   -6.5675058    484.98852  0.031550125  0.031623275            4 
 1282000    1.0293634   -6.6372083    482.60096  0.031370317  0.031614024            3 
 1283000    1.0495188   -6.6103394    483.91374  0.031431134  0.031604929            2 
 1284000    1.0419434   -6.6079892    486.47026  0.031572576   0.03159591            9 
 1285000     1.050015   -6.5874224    486.16015  0.031527895   0.03158704            3 
 1286000    1.0390558   -6.5819807    486.20576  0.031506335  0.031578046            3 
 1287000    1.0629246   -6.6000494    484.57577  0.031376312  0.031569102            5 
 1288000    1.0297092   -6.5808945    486.41523  0.031470965  0.031560038            5 
 1289000     1.047898   -6.6380259    486.28794   0.03143832  0.031551109            5 
 1290000    1.0274313    -6.596989    486.78829  0.031446272  0.031541732            2 
 1291000    1.0447178    -6.613401    486.67445  0.031414566  0.031532731            5 
 1292000    1.0478452   -6.6005398    486.66507  0.031389646    0.0315235            2 
 1293000    1.0442959   -6.5755607    488.55678   0.03148729  0.031514098            4 
 1294000    1.0348114   -6.6081711    487.90814  0.031421183  0.031504935            5 
 1295000     1.035488   -6.6591172    487.17129  0.031349504  0.031495523            2 
 1296000    1.0395323   -6.6113325    488.74572  0.031426551  0.031485998            4 
 1297000     1.018995     -6.61014    487.92118  0.031349343  0.031476801            3 
 1298000    1.0402849   -6.6002577    488.97272  0.031392702  0.031467889            5 
 1299000    1.0414893    -6.589518    490.40439  0.031460379   0.03145876            6 
 1300000    1.0410774   -6.5775001    489.86403   0.03140154  0.031449657            9 
 1301000    1.0533482   -6.5558644    490.27227  0.031403553  0.031440643            4 
 1302000    1.0310616    -6.627671     489.2816  0.031316027  0.031431744            3 
 1303000    1.0550378   -6.6141586    489.10178  0.031280492  0.031422791            6 
 1304000    1.0581754   -6.5597234     491.2199  0.031391865  0.031413901            3 
 1305000    1.0449436   -6.6196794    488.96415  0.031223764  0.031404867            2 
 1306000    1.0362435   -6.5701505    490.59767  0.031304088  0.031395747            5 
 1307000    1.0510776   -6.5909728    490.99903  0.031305727  0.031386915            2 
 1308000    1.0396849   -6.6435627    490.77369  0.031267437  0.031377614            3 
 1309000    1.0314602   -6.6211394    490.87989  0.031250311  0.031368584            6 
 1310000    1.0242335   -6.6035691    491.97334  0.031296014  0.031359494            8 
 1311000    1.0558933   -6.5729435    492.75553  0.031321862   0.03135058            5 
 1312000    1.0293199   -6.6236782    492.19707  0.031262517  0.031341686            9 
 1313000    1.0320177   -6.6004277    490.83922  0.031152527   0.03133259            4 
 1314000    1.0349044   -6.6152319    493.33126  0.031286863   0.03132339            3 
 1315000    1.0351941   -6.6401116    491.94421  0.031175171  0.031314106            4 
 1316000    1.0254747   -6.6005981    494.20611  0.031294713  0.031304974            6 
 1317000    1.0687683   -6.6020558    492.20968  0.031144626   0.03129597            3 
 1318000    1.0566063   -6.6420649    493.41047  0.031196919  0.031286762            7 
 1319000    1.0451305   -6.5967336    493.87865  0.031202846  0.031277712            3 
 1320000    1.0402444    -6.591308     494.5123  0.031219211  0.031268744            3 
 1321000    1.0209898    -6.593904       495.41  0.031252208  0.031259618            8 
 1322000    1.0491884   -6.5930966    495.51153  0.031234968  0.031250562            2 
 1323000    1.0569577   -6.6112157    494.18293  0.031127672  0.031241561            7 
 1324000    1.0657741   -6.6007389    495.18359  0.031167144   0.03123269            4 
 1325000    1.0195487   -6.6209044    494.85914  0.031123216   0.03122367            6 
 1326000    1.0424023   -6.6164263    494.30759  0.031065082  0.031214522            2 
 1327000    1.0167143   -6.6119745    496.01852  0.031149116  0.031205473            3 
 1328000    1.0191191    -6.645619    495.10985   0.03106864  0.031196402            3 
 1329000     1.036459    -6.607804     496.2269  0.031115306  0.031187187            2 
 1330000    1.0456831   -6.6108719    495.52712  0.031048065  0.031177806            4 
 1331000    1.0514537   -6.5664559    497.93014   0.03117519  0.031168725            3 
 1332000    1.0209499   -6.5937771    497.47764  0.031123476  0.031159557            8 
 1333000    1.0365326   -6.6184596     496.1797  0.031018986  0.031150341            3 
 1334000    1.0135956   -6.6064917    498.74266  0.031155838  0.031141064            7 
 1335000    1.0282926   -6.5857262    496.92293  0.031018909  0.031131798            7 
 1336000    1.0222219   -6.6211177    495.86428  0.030929658  0.031122565            3 
 1337000    1.0467832   -6.5960909    496.49443  0.030945801  0.031113293            3 
 1338000    1.0486882    -6.604038    497.35358  0.030976182  0.031104076            4 
 1339000    1.0458974   -6.5924976    497.63131  0.030970333  0.031094767            4 
 1340000     1.047204   -6.6303701     495.9919  0.030845267  0.031085402            2 
 1341000    1.0490894   -6.6177847     496.3486  0.030844432  0.031075982            2 
 1342000    1.0230782   -6.6082786    497.51709  0.030894007  0.031066502            2 
 1343000    1.0149638   -6.5777526    500.30162  0.031043784  0.031057318            4 
 1344000    1.0289742   -6.5810129    499.74773  0.030986342   0.03104794            5 
 1345000    1.0364135   -6.6036815    499.46379  0.030945712  0.031038673            2 
 1346000    1.0452505   -6.6260476    498.09757  0.030838136  0.031029418            6 
 1347000    1.0158465   -6.6045299    497.77317  0.030795172  0.031020014            4 
 1348000    1.0553232    -6.597401     499.0078  0.030848652  0.031010687            5 
 1349000    1.0353104   -6.5983811     499.8183  0.030875853  0.031001381            4 
 1350000     1.042333   -6.5925679     500.8728  0.030918074  0.030991912            4 
 1351000    1.0427336   -6.5974258    502.35727  0.030986755  0.030982478            4 
 1352000     1.036422    -6.601841    500.07942  0.030823435  0.030973204            3 
 1353000    1.0273734    -6.578079    501.24161  0.030872235   0.03096405            6 
 1354000    1.0350628   -6.6043486     501.4649  0.030863177  0.030954777            3 
 1355000    1.0255971   -6.5703175    502.96706  0.030932783  0.030945696            4 
 1356000    1.0399836   -6.5939226    501.55041  0.030822911  0.030936601            6 
 1357000    1.0368265   -6.5926275     502.2424  0.030842692  0.030927479            4 
 1358000    1.0473329   -6.6254656    500.56516  0.030717057   0.03091852            3 
 1359000    1.0546964   -6.6242333    502.86881  0.030835713  0.030909372            4 
 1360000    1.0504933   -6.6189987    502.11276  0.030766713  0.030900384            1 
 1361000    1.0319184   -6.6676887       503.91  0.030854151  0.030891177            2 
 1362000    1.0389391   -6.6810236    503.28592  0.030793314   0.03088204            4 
 1363000    1.0204959   -6.6715093    503.37288  0.030776038   0.03087269            5 
 1364000    1.0557264   -6.6532626    502.85131   0.03072161  0.030863649            4 
 1365000   0.99710641   -6.6153098    503.88447  0.030762177   0.03085448            2 
 1366000     1.037491   -6.6413698     502.5555  0.030658584  0.030845406            2 
 1367000    1.0208607   -6.6267909    505.48439  0.030814703  0.030836301            3 
 1368000    1.0077507   -6.6521904    505.53433   0.03079522  0.030827383            3 
 1369000    1.0266963   -6.6599857    505.33084  0.030760338  0.030818348            5 
 1370000    1.0230446   -6.6346077    505.56211  0.030751953  0.030809593            8 
 1371000    1.0517649   -6.6305752    505.77919  0.030742718  0.030800801            6 
 1372000    1.0302068   -6.6232019    507.75001  0.030840015  0.030792125            4 
 1373000    1.0124499   -6.6406433    506.87789  0.030764621  0.030783396            3 
 1374000    1.0523175   -6.6332418    507.96482  0.030808153  0.030774755            2 
 1375000    1.0428309   -6.6184581    507.65753  0.030767123  0.030766192            5 
 1376000    1.0247812   -6.6277888    507.68708  0.030746553  0.030757412            4 
 1377000    1.0527209   -6.6233837    508.13436  0.030751292   0.03074881            3 
 1378000    1.0388015   -6.5897822    510.33176  0.030861863  0.030740424            3 
 1379000    1.0288164   -6.6014099    510.34645   0.03084037  0.030732046            3 
 1380000     1.023672   -6.6412025    509.20762  0.030749252  0.030723714            2 
 1381000    1.0547233   -6.5892788    511.71257  0.030878142  0.030715438            5 
 1382000    1.0425977   -6.5986966    510.61875  0.030789842  0.030707239            4 
 1383000     1.049625   -6.5958634    511.48135  0.030819556  0.030699125            5 
 1384000    1.0403979   -6.6268836    510.31809  0.030727245  0.030690583            3 
 1385000    1.0414971   -6.6371484    510.04446  0.030688596  0.030682087            5 
 1386000    1.0232092   -6.6480438    510.36312  0.030685614  0.030673395            8 
 1387000    1.0142465   -6.6204507    511.72989  0.030745607  0.030664935            1 
 1388000    1.0380815   -6.6492179    510.16422  0.030629456  0.030656454            3 
 1389000    1.0449702   -6.6211171    512.36417  0.030739391  0.030648104            3 
 1390000    1.0297267   -6.6005202     513.7705  0.030801589  0.030639625            2 
 1391000    1.0505671    -6.596605    514.07889  0.030797921  0.030631206            4 
 1392000    1.0166944   -6.6417602    511.98042  0.030650169  0.030622917            5 
 1393000    1.0191684   -6.6548362    510.16333  0.030519462  0.030614589            4 
 1394000    1.0091509   -6.6466526      512.422  0.030632592  0.030606203            2 
 1395000    1.0422127   -6.6256637    514.17387  0.030715285  0.030597652            4 
 1396000    1.0133253   -6.6415974    513.03805   0.03062548  0.030589327            5 
 1397000    1.0240141   -6.6805064    513.10654  0.030607644  0.030580959            5 
 1398000    1.0158285   -6.6426312    514.13409  0.030647001    0.0305724            3 
 1399000    1.0133329   -6.6637956    514.36478  0.030638836  0.030563896            4 
 1400000    1.0114975   -6.6431857    512.66553  0.030515806  0.030555243            3 
 1401000    1.0354279   -6.6484197    513.12867  0.030521572  0.030546611            7 
 1402000    1.0099612   -6.6290913     515.6936  0.030652259  0.030538018            2 
 1403000     1.019047   -6.6219004     515.3371  0.030609236  0.030529525            2 
 1404000    1.0428797   -6.6307573    516.51357  0.030657263  0.030521081            4 
 1405000    1.0364125   -6.6462478    514.04256  0.030488883  0.030512492            4 
 1406000    1.0461126   -6.6668387    514.15849  0.030474069  0.030503767            5 
 1407000    1.0285764   -6.6534445     516.5403  0.030593479  0.030495288            3 
 1408000    1.0195464   -6.6684568    516.12306  0.030547056  0.030486788            4 
 1409000      1.01414    -6.645364    517.08447  0.030582238  0.030478321            4 
 1410000    1.0288918   -6.6354923     517.5257  0.030586625  0.030470061            4 
 1411000    1.0282554   -6.6092437    520.36648  0.030732724  0.030461879            3 
 1412000    1.0343166   -6.6375891     517.7338  0.030555583  0.030453614            4 
 1413000    1.0277601   -6.5772445     519.8005  0.030655844  0.030445525            5 
 1414000    1.0300319   -6.6074682    519.57591  0.030620928  0.030437342            2 
 1415000    1.0384583   -6.6537984    519.48355  0.030593849  0.030429232            3 
 1416000    1.0256809   -6.6759082    517.85406  0.030476345  0.030421084            7 
 1417000     1.017054   -6.6428616     520.0597  0.030584551  0.030412908            5 
 1418000    1.0108199   -6.6464557    518.83364  0.030490928  0.030404821            4 
 1419000    1.0412732   -6.6765983    518.48546  0.030448993  0.030396481            6 
 1420000    1.0240705    -6.636405    519.40044  0.030481246  0.030388107            4 
 1421000    1.0184344   -6.6851964    518.88012  0.030429282  0.030379852            4 
 1422000    1.0242858    -6.646752    520.16103  0.030482948  0.030371561            4 
 1423000    1.0360322   -6.6418731    519.49929  0.030422774  0.030363142            6 
 1424000    1.0432187   -6.6128922    521.51588  0.030519422  0.030354746            3 
 1425000     1.023858   -6.6153672    521.13004  0.030475441  0.030346583            2 
 1426000    1.0283287   -6.6499176    519.20498  0.030341572  0.030338331            5 
 1427000    1.0376556   -6.6617945     521.1187  0.030432066  0.030329982            5 
 1428000    1.0426768   -6.7067027    522.02915  0.030463886  0.030321675            5 
 1429000    1.0178224   -6.6331118    522.37129   0.03046252  0.030313419            2 
 1430000    1.0348923    -6.646475    521.85218  0.030410966  0.030305059            3 
 1431000    1.0188754   -6.6612084    520.66775   0.03032074  0.030296849            3 
 1432000     1.070678   -6.7032295     520.1069  0.030266929  0.030288412            3 
 1433000    1.0184167   -6.6458271    520.91991  0.030293086  0.030279958            4 
 1434000    1.0068248    -6.681475    521.97373  0.030333201  0.030271395            2 
 1435000    1.0518669   -6.6678786    522.30826   0.03033149  0.030262977            9 
 1436000    1.0429451   -6.6713738    522.54627   0.03032418  0.030254669            7 
 1437000    1.0394132   -6.6704402    522.84139  0.030320192  0.030246392            2 
 1438000    1.0150786   -6.6493701    525.54323  0.030455681  0.030238112            3 
 1439000     1.030674   -6.6605739    523.25549  0.030302032  0.030229697            4 
 1440000    1.0177048   -6.6275134    524.66191  0.030362379  0.030221346            4 
 1441000    1.0475122   -6.6140695    526.23521  0.030432293  0.030213199            5 
 1442000    1.0225945   -6.6506046    525.76762  0.030384166  0.030204918            1 
 1443000    1.0166021   -6.6417478    525.80685  0.030365376  0.030196661            4 
 1444000      1.00195   -6.6964852    524.69221  0.030280021  0.030188412            9 
 1445000    1.0377224   -6.6405721    527.42921   0.03041691  0.030180231            2 
 1446000    1.0109944   -6.6474742     527.7731  0.030415693  0.030172186            7 
 1447000    1.0291705   -6.6421362    525.34391  0.030254775  0.030163983            3 
 1448000    1.0251729   -6.6446731    526.60147  0.030306254  0.030155956            1 
 1449000    1.0194305   -6.6709483    526.63422  0.030287222  0.030147881           14 
 1450000    1.0191792   -6.6822922    527.24223  0.030301278  0.030139789            3 
 1451000    1.0432031   -6.6725909    527.33677  0.030285824  0.030131739            4 
 1452000   0.99579481   -6.6503523    529.99111  0.030417304  0.030123848            4 
 1453000    1.0192111   -6.6495413    529.39243  0.030362034  0.030115857            3 
 1454000    1.0209438    -6.693534    527.91869  0.030256688   0.03010786            4 
 1455000   0.99473954   -6.6986449    526.92808  0.030179157  0.030099798            5 
 1456000    1.0207659    -6.637184    530.13384   0.03034191  0.030091848            5 
 1457000    1.0098753   -6.6776618    528.43671  0.030224017  0.030083946            5 
 1458000     1.034689   -6.6159902    529.09186  0.030240732  0.030076028            4 
 1459000   0.99753763   -6.6495173    531.05592  0.030332187  0.030068068           12 
 1460000    1.0231526   -6.6739331    531.36637  0.030329131   0.03006023           13 
 1461000    1.0292785   -6.6794916    529.23041  0.030186539  0.030052272            2 
 1462000    1.0096779   -6.6786399    530.08993  0.030214884  0.030044448            3 
 1463000   0.99542293   -6.6683317    529.85961  0.030181112  0.030036352            6 
 1464000    1.0350285   -6.6307898    531.29963  0.030242465  0.030028296            9 
 1465000     1.006446   -6.6389931    530.00939   0.03014843  0.030020141            2 
 1466000    1.0153935    -6.668792    530.77875  0.030171598  0.030011975            4 
 1467000    1.0210889   -6.6758373    530.69887  0.030146494  0.030003796            3 
 1468000    1.0033491   -6.6567506    531.90067   0.03019418  0.029995604            2 
 1469000    1.0119089   -6.6290925    531.71196   0.03016292  0.029987625            2 
 1470000     1.015581   -6.6922478    531.22338  0.030114704  0.029979451            4 
 1471000    1.0152628   -6.6731391    531.31713  0.030099543  0.029971267            6 
 1472000    1.0115479    -6.670565     531.7952   0.03010616  0.029963093            5 
 1473000    1.0324462   -6.6438575    531.95915  0.030094996  0.029955141            5 
 1474000    1.0003844   -6.6446537    530.74103  0.030005712   0.02994695            4 
 1475000    1.0115038   -6.6490737    532.40543  0.030079403  0.029938657            7 
 1476000    1.0156128   -6.7123347     531.2396  0.029993203  0.029930236            4 
 1477000    1.0179715   -6.6732651    533.75831  0.030115003  0.029921934            7 
 1478000    1.0135783   -6.6799969    530.74588  0.029924779  0.029913596            7 
 1479000    1.0208498   -6.6784854     533.3398  0.030050699  0.029905297            5 
 1480000     1.004391   -6.6799066    531.13895  0.029906473  0.029896892            4 
 1481000    1.0315041   -6.6785347    531.33216  0.029897151  0.029888482            2 
 1482000    1.0142857   -6.6491239    533.15435   0.02997944  0.029880104            5 
 1483000    1.0086649   -6.6792847    532.87713  0.029943646  0.029871711            5 
 1484000    1.0175543   -6.6486691    534.06569  0.029990212  0.029863387            4 
 1485000    1.0162061   -6.6468405    533.78846  0.029954459  0.029855114            4 
 1486000    1.0036894   -6.6897033    532.60626  0.029868005   0.02984682            6 
 1487000    1.0352244   -6.6445444    534.78237  0.029969871  0.029838448            3 
 1488000    1.0213861   -6.6982889    533.44096  0.029874606   0.02982999            4 
 1489000    0.9813823   -6.6541449    533.91328  0.029880976  0.029821581            4 
 1490000    1.0249767   -6.7066486    533.43832  0.029834358  0.029813255            5 
 1491000    1.0230568   -6.6931697    534.44012   0.02987034  0.029804589            5 
 1492000    1.0322496   -6.7366938    532.89973  0.029764284  0.029796106            3 
 1493000    1.0165565   -6.7155339    534.35859  0.029825775   0.02978765            4 
 1494000   0.99535654    -6.702595    534.09931  0.029791349  0.029779245            3 
 1495000    1.0226931   -6.6978666     535.1258   0.02982864  0.029770858            4 
 1496000    1.0180881   -6.6845021    536.57084  0.029889196  0.029762404            5 
 1497000    1.0209706   -6.6899778    535.35983  0.029801816  0.029753934            4 
 1498000    1.0027177   -6.6418675    537.14681  0.029881331  0.029745574            3 
 1499000    1.0212698   -6.6615502    536.35653  0.029817464  0.029737166            3 
 1500000     1.017767   -6.7116653    533.25571  0.029625317  0.029728651            5 
 1501000    0.9915792   -6.6236475    536.92191  0.029809122  0.029720252            4 
 1502000     1.023813   -6.7167756    534.55589  0.029658005  0.029711754            3 
 1503000    1.0241955   -6.6533486    537.63493  0.029808989  0.029703122            3 
 1504000    1.0121259   -6.6203468    539.12088  0.029871503  0.029694724            5 
 1505000    1.0372753   -6.6307398    538.10066  0.029795164  0.029686343            5 
 1506000    1.0092979    -6.663328    536.45146  0.029684123  0.029678063            4 
 1507000    1.0214706   -6.7001522    536.81866   0.02968473  0.029669351            4 
 1508000    1.0294817   -6.6978387    536.87428  0.029668119  0.029660691            3 
 1509000   0.99347768   -6.6888306    538.50774  0.029738665   0.02965197            2 
 1510000    0.9830929   -6.6571417     539.0672  0.029749845  0.029643329            3 
 1511000    1.0092339   -6.7015769    536.74028  0.029601824  0.029634685            5 
 1512000    1.0027435   -6.6444363    539.81282  0.029751588  0.029626212            6 
 1513000    1.0084831   -6.6691268    540.40252  0.029764404   0.02961804            3 
 1514000    1.0132501   -6.7238612    538.77339  0.029655074  0.029609649            5 
 1515000   0.99789982   -6.7190323    538.35832  0.029612669  0.029601271            3 
 1516000    1.0158026   -6.6773893    538.95052  0.029625688  0.029592825            3 
 1517000    1.0038774   -6.6807081    540.81199  0.029708415  0.029584729            4 
 1518000    1.0047541   -6.6818377    540.76033  0.029686009  0.029576505            3 
 1519000    1.0007549    -6.701554    541.08608  0.029684336  0.029568205            4 
 1520000   0.98994688   -6.6764471    541.97774  0.029713692   0.02955993            4 
 1521000   0.99758912   -6.6679703    540.27926  0.029601099  0.029551659            2 
 1522000    1.0075057   -6.7029318    541.59376  0.029653623  0.029543417            4 
 1523000    1.0013794   -6.6289411    544.23921  0.029778902  0.029535334            5 
 1524000    1.0002634   -6.6454554    544.19838  0.029757129  0.029527342            5 
 1525000    1.0177032   -6.7029513    542.47282  0.029643324  0.029519365            3 
 1526000    1.0001571   -6.6969955    542.04117  0.029600326  0.029511202            3 
 1527000    1.0116789   -6.6423038    543.24181  0.029646464  0.029503112            4 
 1528000     1.010225   -6.6963654    544.54285  0.029698018  0.029495127            3 
 1529000   0.99786143   -6.6972087     541.9086  0.029535023  0.029487063            5 
 1530000    1.0110457   -6.6215194     545.6011  0.029716836  0.029479048            3 
 1531000    1.0089812   -6.6727709    545.19797  0.029675483  0.029471159           10 
 1532000    1.0101104    -6.723562     544.7508  0.029631789  0.029463113            5 
 1533000   0.98542085   -6.6583617    546.46544  0.029705666  0.029455084            3 
 1534000   0.99573311   -6.6746875    545.85682  0.029653239  0.029446995            3 
 1535000   0.98163901   -6.6964488    545.88542  0.029635474  0.029439136            4 
 1536000    1.0193923    -6.658507    545.54742  0.029597842  0.029431316            4 
 1537000    1.0229072   -6.7057798     545.7008  0.029586901  0.029423513            4 
 1538000   0.99411793    -6.710278    546.33345  0.029601942  0.029415686            7 
 1539000    1.0103269   -6.6866392    546.16812  0.029573756  0.029407826            3 
 1540000   0.99074083   -6.6550238     547.1266  0.029606418  0.029399904            3 
 1541000    1.0344573   -6.7107394    547.18858  0.029590557  0.029392062            4 
 1542000    1.0186479   -6.6937839    546.90083  0.029555817  0.029384263           11 
 1543000     1.016704   -6.6729021    547.46491  0.029567126  0.029376309            5 
 1544000    1.0266135   -6.6515157    549.95691  0.029682476   0.02936848            5 
 1545000   0.99388668    -6.681083    548.96559  0.029609795  0.029360692            2 
 1546000   0.99238225   -6.6986234    548.20807   0.02954981  0.029352726            4 
 1547000    1.0217139   -6.7277312    549.54071  0.029602494  0.029344629            2 
 1548000    1.0042704   -6.7160873    546.71578  0.029431297  0.029336474            7 
 1549000    1.0173799   -6.6915418    548.67945  0.029517939  0.029328434            5 
 1550000   0.99446569   -6.7088403    549.17973  0.029525792   0.02932042            3 
 1551000    1.0148278   -6.7169624    549.58739  0.029528658   0.02931249            3 
 1552000    1.0027543   -6.6608549    551.83337  0.029630228  0.029304738            4 
 1553000    1.0068253   -6.6588881    549.54989  0.029488619  0.029296902            5 
 1554000    1.0078831   -6.6887764    549.51833   0.02946795  0.029288953            4 
 1555000   0.99581724   -6.6991868    547.48949  0.029340273  0.029280968            7 
 1556000   0.99174309   -6.6914946    549.88928   0.02944994  0.029272914            6 
 1557000   0.99836439   -6.7249685    549.27007  0.029397884  0.029265037            4 
 1558000    1.0047175   -6.6732675    551.33979  0.029489719  0.029257121            2 
 1559000   0.99026295   -6.6730327    551.35259  0.029471488  0.029249244            2 
 1560000    1.0053534   -6.6850288    551.24132  0.029446652  0.029241415            7 
 1561000   0.99746806   -6.7017612    551.85443  0.029460519  0.029233617            4 
 1562000    1.0185715   -6.7212847    552.08979  0.029454214  0.029225708            3 
 1563000   0.99942324   -6.6761407    552.50484  0.029457499  0.029217739            5 
 1564000   0.97751258   -6.7119806    551.51563  0.029385956  0.029209794            2 
 1565000   0.97754213   -6.7350892    550.57013  0.029316834  0.029201837            6 
 1566000   0.98072578   -6.7094295    552.61252  0.029406796  0.029193739            5 
 1567000    1.0023548   -6.7030751    552.58857  0.029386757  0.029185618           13 
 1568000   0.99595218   -6.6765267    551.98593  0.029335987  0.029177528            9 
 1569000   0.99079099   -6.6954539    553.21646  0.029382646  0.029169468            8 
 1570000    1.0078418   -6.6835458    554.51141  0.029432665  0.029161486            3 
 1571000   0.99586013   -6.6640541     553.7129  0.029371573  0.029153416            4 
 1572000   0.99123951   -6.6910601    552.22492   0.02927401  0.029145389            2 
 1573000    1.0020169   -6.7313111    551.63191  0.029223983   0.02913723            8 
 1574000   0.98388212   -6.6868154    554.35554  0.029349616  0.029128934            2 
 1575000    1.0019317   -6.6968481    552.29385  0.029221897  0.029120783            4 
 1576000    1.0044277   -6.7019256    551.69745  0.029171819  0.029112545            3 
 1577000    1.0133993   -6.6769952     553.8243   0.02926571  0.029104422            4 
 1578000   0.99468448   -6.6825822    553.74854  0.029243163  0.029096221            2 
 1579000    1.0076645   -6.6894441    553.89546  0.029232397  0.029088196            9 
 1580000    1.0088194    -6.726019    551.67719  0.029096898   0.02907991            3 
 1581000    1.0167346    -6.731223    551.26839  0.029056947  0.029071549            7 
 1582000    1.0047868   -6.7299211    551.24796  0.029037503  0.029063215            4 
 1583000   0.99112517    -6.727256    551.72617  0.029044334  0.029054807            7 
 1584000   0.99828787   -6.7181904    552.47539  0.029065414   0.02904632            7 
 1585000   0.98325324   -6.6979358    553.60776  0.029106612  0.029038092            5 
 1586000   0.99045891   -6.7399595     554.5074   0.02913553  0.029029697            5 
 1587000    1.0002031   -6.7324218     554.3891  0.029110959  0.029021283            5 
 1588000   0.99711866   -6.7126441     555.3301  0.029142008  0.029012899            4 
 1589000    0.9869269   -6.7581379    551.27392  0.028910946  0.029004291            3 
 1590000    1.0059138   -6.7150655     553.4904  0.029008931  0.028995739            5 
 1591000   0.99518461   -6.7138236    553.88025  0.029011117  0.028987194            5 
 1592000   0.97771569   -6.7349377    554.25189  0.029012347  0.028978793            9 
 1593000    1.0112283   -6.7545398    552.87399  0.028922054  0.028970221            5 
 1594000   0.98041024    -6.740398    554.88366  0.029008974  0.028961748            5 
 1595000     1.004547   -6.7145465    555.91689   0.02904477  0.028953237            7 
 1596000   0.96571667   -6.6855094    554.45107  0.028950035  0.028944711            7 
 1597000    0.9852778   -6.7085064    554.92139  0.028956449  0.028936346            4 
 1598000   0.99537253   -6.6682484    558.40517  0.029120003  0.028927963            5 
 1599000    1.0203179   -6.7489907    556.26525  0.028990267  0.028919676            3 
 1600000    1.0077113   -6.7855101    555.37861  0.028925969  0.028911302            5 
 1601000   0.98281314    -6.727399    556.82762  0.028983324  0.028902832            2 
 1602000    1.0040124   -6.7636425    555.92648  0.028918356  0.028894602            4 
 1603000   0.99613056   -6.6755692     559.0405  0.029062201  0.028886389            5 
 1604000   0.97796054   -6.6761619     559.6508  0.029075789  0.028878228            3 
 1605000   0.99090403   -6.7146152     557.9761  0.028970722  0.028870078            4 
 1606000    1.0092361   -6.7451692    556.33322  0.028867436  0.028861869            3 
 1607000    1.0097041   -6.7530436    555.51205  0.028806889  0.028853458            7 
 1608000   0.97235615   -6.7349945    557.82355  0.028908766  0.028844991            3 
 1609000    1.0066217   -6.7497468     558.7617  0.028939388   0.02883659            6 
 1610000   0.99828654   -6.7268309    557.87346  0.028875438   0.02882822            6 
 1611000    1.0125838   -6.7263735    559.91735   0.02896324  0.028819916            2 
 1612000    0.9911492   -6.7167375    559.70603  0.028934348  0.028811702            3 
 1613000   0.99302097   -6.7489672     558.8281  0.028871053  0.028803336            3 
 1614000    1.0115445   -6.7078361    560.21909  0.028924984  0.028795188            1 
 1615000     1.004483   -6.7073113    559.85181  0.028888122  0.028786889            3 
 1616000   0.99569049   -6.7618386    559.03966  0.028828365  0.028778516            3 
 1617000   0.99659268   -6.7074107     561.5055  0.028937616  0.028770228            6 
 1618000    0.9934818   -6.7498233    560.07567  0.028846089  0.028761982            3 
 1619000   0.97114245   -6.6722396    560.58279  0.028854375  0.028753629            6 
 1620000    1.0028196    -6.709903    560.62016  0.028838485  0.028745228            5 
 1621000    1.0067971   -6.6978052    561.52352  0.028867135  0.028736908            5 
 1622000    0.9754383   -6.7351699     560.6127  0.028802543  0.028728725            4 
 1623000   0.98996585   -6.7137173    561.11809  0.028810746  0.028720331            4 
 1624000     0.994078   -6.7115531    560.63074  0.028767998  0.028712049            5 
 1625000   0.98579637   -6.7379107    560.24297  0.028730409  0.028703619            2 
 1626000   0.99372088   -6.7349154    560.61495  0.028731804  0.028695117            3 
 1627000   0.99712698   -6.7248153    562.75387  0.028823697  0.028686651            8 
 1628000   0.98726726   -6.7385321    561.96575  0.028765651  0.028678496            7 
 1629000   0.98848701   -6.7260301    562.79022  0.028790169  0.028670092            3 
 1630000    0.9805523   -6.7437817     561.8948  0.028726728   0.02866176            5 
 1631000   0.98452054   -6.7401867    562.13028  0.028721146  0.028653298            5 
 1632000   0.98355018   -6.7309991    563.29339  0.028762939  0.028644957            4 
 1633000   0.97524695   -6.7120199    561.07999  0.028632373  0.028636509            6 
 1634000   0.97521742   -6.7212119    564.03054  0.028765327  0.028628162            5 
 1635000   0.96727939   -6.6829865    565.50361  0.028822814   0.02861993            6 
 1636000   0.98593053   -6.7284114    563.86913   0.02872194  0.028611722            3 
 1637000    0.9954568   -6.7007472      564.172  0.028719813  0.028603418            2 
 1638000   0.99605935   -6.7305577    562.98608  0.028641946   0.02859498            6 
 1639000   0.97475671   -6.7506715    563.12065  0.028631312  0.028586506            3 
 1640000    1.0037346   -6.7219859    565.23336  0.028721207   0.02857808            4 
 1641000   0.98430121   -6.7731004    564.06625  0.028644437  0.028569582            7 
 1642000   0.98301749   -6.7161302    563.61799  0.028604243  0.028561153            4 
 1643000      1.00467    -6.730108    565.69527  0.028692193  0.028552677            8 
 1644000   0.99448237    -6.718061    566.53161  0.028717134  0.028544316            4 
 1645000   0.98460663   -6.7301496    564.20256   0.02858169   0.02853601            4 
 1646000   0.99348881   -6.7672969    563.65546  0.028536627  0.028527648            4 
 1647000   0.96373131   -6.7326713    564.57447    0.0285658  0.028519181            4 
 1648000   0.99346057   -6.7318457     564.9111  0.028565488  0.028510883            4 
 1649000   0.99771779   -6.7619246    565.79183  0.028592674  0.028502521            4 
 1650000   0.96726825   -6.7261146    565.54762  0.028563011  0.028494232            7 
 1651000    0.9699027   -6.7415594    566.64519   0.02860111  0.028485943            6 
 1652000   0.96463329   -6.7326392    565.93856  0.028548152  0.028477701            5 
 1653000    0.9759237    -6.720136    565.13152  0.028490195  0.028469402            2 
 1654000   0.99175788    -6.725179    566.35059  0.028534391  0.028461112            4 
 1655000    1.0001615   -6.7486693    565.67948  0.028483358  0.028452568            4 
 1656000   0.96080426   -6.7407388     565.6683  0.028465595  0.028444154            6 
 1657000   0.96835557   -6.7100353     567.2567  0.028528299  0.028435762            4 
 1658000   0.98159153   -6.7736072    566.10347   0.02845313  0.028427295            5 
 1659000   0.97393437   -6.7754793    566.74078  0.028467992  0.028418775            4 
 1660000   0.97501316   -6.7777213    565.72626  0.028399912  0.028410261            3 
 1661000    1.0069699   -6.7256519    567.42981  0.028468283    0.0284017            7 
 1662000   0.96329164   -6.7392246    567.62621  0.028461001  0.028393253            5 
 1663000   0.99944293   -6.7300837    568.56922  0.028491142  0.028384775           13 
 1664000   0.97530513   -6.7588719    568.09193  0.028450117  0.028376473            5 
 1665000    1.0305741   -6.7541329    567.43254  0.028400027  0.028368123            7 
 1666000   0.98711297   -6.7472731    567.58359  0.028390536  0.028359798            6 
 1667000    0.9835613   -6.7762779    567.09391  0.028349026  0.028351309            5 
 1668000    0.9986312   -6.7469832    568.25997  0.028390286  0.028342757            2 
 1669000   0.99492009   -6.7595421    568.72441  0.028396465  0.028334226           10 
 1670000   0.97656037   -6.7571125    566.69621  0.028278254  0.028325681            4 
 1671000    1.0019515   -6.7651907    568.70635  0.028361577  0.028317214            7 
 1672000    0.9864291   -6.7215995    569.22277  0.028370353  0.028308681            5 
 1673000   0.99167783   -6.7796885    568.61514  0.028323129  0.028300107            3 
 1674000    0.9955398   -6.7451317    569.74717  0.028362563  0.028291607            4 
 1675000    0.9713049    -6.751206    569.15514  0.028316176   0.02828294            2 
 1676000   0.99103694   -6.7313168    570.83144  0.028382629  0.028274377            3 
 1677000   0.97407068   -6.7094133    572.39033  0.028443169  0.028265928            7 
 1678000   0.98524247   -6.7202369    570.06366  0.028310671   0.02825755            5 
 1679000   0.98768394   -6.7361273    572.33061  0.028406324  0.028249162            3 
 1680000   0.96348099   -6.7352177    571.85228  0.028365689  0.028240889            4 
 1681000   0.98603126   -6.7426678    571.83036  0.028347728  0.028232611            4 
 1682000   0.97948705   -6.7917566    570.10056  0.028245172   0.02822424            8 
 1683000   0.99780231   -6.7597249     569.7705  0.028212047  0.028215818            8 
 1684000    1.0198786   -6.7161718    573.52381  0.028381028  0.028207537            9 
 1685000    0.9490519   -6.7393903    572.56009  0.028316523  0.028199331            6 
 1686000   0.99078277   -6.7717349    571.63464  0.028253986  0.028191012            2 
 1687000    0.9867097    -6.779515    571.97264  0.028253934  0.028182766            6 
 1688000   0.96031533   -6.7605991    573.72261  0.028323588  0.028174492            2 
 1689000   0.98592263   -6.7747037    571.60583   0.02820238  0.028166251            5 
 1690000    1.0060846   -6.7330813    573.70951  0.028289424  0.028158133            5 
 1691000   0.98947635   -6.7726365     572.6629  0.028221117  0.028149981            6 
 1692000   0.97431151   -6.7618431     571.8912   0.02816643  0.028141636           10 
 1693000   0.97412494   -6.7781115    572.71823  0.028190502   0.02813331            7 
 1694000   0.96837999   -6.7473276    572.56229  0.028166189  0.028124847            5 
 1695000   0.97774702   -6.7429014    575.08378  0.028273539  0.028116475            5 
 1696000    1.0033614   -6.7531256    573.31367  0.028169894  0.028108082            6 
 1697000   0.98464535    -6.784477    573.07666  0.028141655   0.02809971            5 
 1698000    0.9756523   -6.7715982    574.47892  0.028193901  0.028091277            6 
 1699000   0.97662395   -6.8001733     573.1202  0.028110663  0.028082888            5 
 1700000   0.98965136   -6.7766018    574.73024  0.028173051  0.028074468            3 
 1701000    1.0004142   -6.7681816    576.90434  0.028262999  0.028066209            8 
 1702000   0.95623703   -6.7699801    574.43892  0.028125681  0.028057829            7 
 1703000   0.95504169    -6.783894    574.63079  0.028118555   0.02804944            3 
 1704000   0.98337192   -6.7853584     573.5391  0.028048665  0.028041093            7 
 1705000   0.99620796   -6.7505646    577.79113  0.028240036  0.028032849            7 
 1706000   0.98368372   -6.7568773    575.72931  0.028122768  0.028024515            4 
 1707000    0.9783848   -6.7473303    577.64369  0.028199751  0.028016237            4 
 1708000   0.97629269   -6.7661057    575.40742  0.028074132  0.028007812            4 
 1709000   0.98299782   -6.8389047    575.64189  0.028069138  0.027999355            5 
 1710000    0.9659816   -6.8032655     576.6316  0.028100955  0.027990902            4 
 1711000   0.98625082    -6.767701    574.60992  0.027986067  0.027982556            5 
 1712000   0.96370018   -6.7903408     576.1595  0.028045147  0.027974249            4 
 1713000    1.0045127   -6.7747656     577.3477  0.028086578  0.027965901            4 
 1714000   0.98742678   -6.7712578    578.48367  0.028125421  0.027957691            7 
 1715000   0.98313307   -6.7870783    574.88253  0.027934039  0.027949319            7 
 1716000   0.98894415    -6.762673    578.65702   0.02810106  0.027940851            6 
 1717000   0.97510378    -6.796192    578.52983   0.02807852  0.027932563            6 
 1718000   0.96646403   -6.7753565    577.22806  0.027999033  0.027924207           11 
 1719000     0.979216    -6.738849    577.30335  0.027986395  0.027915864            3 
 1720000   0.97338852   -6.7729548    578.65661  0.028035688  0.027907674            7 
 1721000   0.98800691   -6.7605265    578.41211  0.028007559  0.027899441            7 
 1722000   0.97542749    -6.777776    578.35586  0.027988573  0.027891046            5 
 1723000   0.98430835   -6.7810964    577.50156   0.02793101  0.027882651            8 
 1724000   0.97698692   -6.7633051    577.88986  0.027933578  0.027874278            6 
 1725000   0.96513903   -6.7808191    577.96965  0.027921239  0.027865987            9 
 1726000   0.97048996   -6.7888832    580.11274  0.028008533  0.027857743            2 
 1727000   0.96113857   -6.8274653    578.67558  0.027922968  0.027849494            6 
 1728000   0.97037634   -6.7750093    579.52995  0.027948011  0.027841283            2 
 1729000   0.96631212   -6.7478569    581.77375  0.028039992  0.027833206            5 
 1730000   0.98162454   -6.7307945    581.39738  0.028005654  0.027825039            1 
 1731000    0.9816005    -6.760738      579.114  0.027879549  0.027816769            7 
 1732000   0.96166246    -6.830294    577.76214  0.027798409  0.027808427            7 
 1733000   0.99825544   -6.8024758    579.74703  0.027877814  0.027800121           11 
 1734000   0.96370423   -6.8117097    578.88228  0.027820179   0.02779182            4 
 1735000   0.97132538   -6.8091699    579.87026  0.027851597  0.027783413           14 
 1736000   0.98561509    -6.802372    582.03499  0.027939468   0.02777517            4 
 1737000   0.96081374   -6.7859577    580.66689  0.027857748  0.027766983            5 
 1738000   0.98402447   -6.7597078    583.11427  0.027959066  0.027758914           10 
 1739000   0.96484861   -6.7856944    583.55137  0.027963934  0.027750967            5 
 1740000   0.99127091   -6.7960766    583.66678   0.02795339  0.027742907            9 
 1741000   0.97321896   -6.7800861    582.66007  0.027889148  0.027734869            6 
 1742000   0.98102623   -6.8259526    581.63586  0.027824142  0.027726721            3 
 1743000   0.98159624   -6.8124505    581.92554  0.027822028  0.027718635            5 
 1744000   0.97151168   -6.8214424    582.48857  0.027832978  0.027710548            5 
 1745000   0.96882027   -6.7955548    582.75551  0.027829776  0.027702383            4 
 1746000   0.95629513    -6.773734    583.56293  0.027852373  0.027694356            9 
 1747000    1.0043367   -6.7739804    583.23365  0.027820724  0.027686288            5 
 1748000   0.98208914   -6.7813395    583.98877  0.027840807  0.027678122            5 
 1749000   0.97334863   -6.7808667    586.81279  0.027959443  0.027670042            6 
 1750000     0.975864   -6.7628447    585.56922  0.027884249  0.027662139            3 
 1751000   0.99547822   -6.7836107    586.01491  0.027889535  0.027654247            5 
 1752000   0.96808207   -6.8227678    584.06732   0.02778098  0.027646173            5 
 1753000   0.97945372   -6.8280667    584.50292  0.027785839  0.027638001            6 
 1754000    0.9603182   -6.8187981    583.07252  0.027702039  0.027629834            4 
 1755000   0.97103667   -6.8254638     585.5129  0.027802132   0.02762178            3 
 1756000   0.97981075    -6.771159    585.40416  0.027781139  0.027613709            6 
 1757000   0.97075941   -6.7717259    585.31974  0.027761323  0.027605589            4 
 1758000   0.97695583   -6.8280145    582.66495  0.027619688  0.027597527            4 
 1759000   0.96237098   -6.7913996    586.77573  0.027798737  0.027589343            6 
 1760000   0.97964289   -6.8077135    584.91924   0.02769504  0.027581189            6 
 1761000   0.96178862   -6.8108269    585.50632  0.027707095   0.02757301            2 
 1762000   0.98635016   -6.8218161    586.17073  0.027722793  0.027564728            3 
 1763000   0.96247725   -6.8299753    584.85376  0.027644818  0.027556578            6 
 1764000   0.97660909   -6.8437032    585.89152  0.027678171    0.0275485           10 
 1765000   0.99263777   -6.8031429    587.00118  0.027714881  0.027540354            3 
 1766000   0.96260643   -6.8265912     585.9577  0.027649948  0.027532314            5 
 1767000     0.959678   -6.7947031    586.81893  0.027674917  0.027524177            6 
 1768000   0.98216283   -6.8178575    588.28577  0.027728402  0.027516056            3 
 1769000   0.95402363   -6.8294452    586.60904   0.02763374  0.027507946            6 
 1770000   0.96537696   -6.7873279    586.87728  0.027630757  0.027499745            5 
 1771000   0.96570939   -6.7608789    587.39379  0.027639459    0.0274916            3 
 1772000   0.95083301   -6.7618125    588.40934   0.02767162  0.027483569            7 
 1773000   0.97782327   -6.7655726    588.90479    0.0276793  0.027475498            4 
 1774000   0.96404859   -6.7606979    589.82759  0.027707046  0.027467462            8 
 1775000   0.99770698   -6.7855868    588.33418  0.027621323  0.027459467            4 
 1776000   0.99061738   -6.7921594    590.11696  0.027689422  0.027451413            9 
 1777000   0.94946366   -6.7986821    586.94531  0.027525104   0.02744329            3 
 1778000   0.97285372   -6.8263143    589.59156   0.02763365   0.02743522            5 
 1779000   0.97271622   -6.7945442    589.69037  0.027622745  0.027427112            3 
 1780000   0.96461421   -6.7969039     590.2125  0.027631672  0.027419145            6 
 1781000   0.96427508   -6.7774181    589.94394  0.027603591  0.027411208            5 
 1782000   0.95451019   -6.7862337    590.65887  0.027621533  0.027403262            5 
 1783000   0.96049701   -6.8018007    590.81772  0.027613466  0.027395322           11 
 1784000    0.9655394   -6.7916749    590.96601  0.027604915  0.027387296            3 
 1785000   0.98072434   -6.8069836    590.81035  0.027582183  0.027379389            3 
 1786000   0.95583989   -6.8333119    590.05266  0.027531386  0.027371459            5 
 1787000   0.95775443   -6.8203386     590.5525  0.027539288   0.02736335            3 
 1788000   0.97245226   -6.8299999    590.71203  0.027531321  0.027355298            3 
 1789000   0.96142859   -6.8057673    591.46494  0.027551003  0.027347281            3 
 1790000   0.98444482   -6.7760638    593.18843  0.027615849  0.027339383            3 
 1791000   0.97044303   -6.8226425    591.40726  0.027517554  0.027331487            5 
 1792000   0.99348146   -6.8509122    590.53895  0.027461819  0.027323405            7 
 1793000   0.94764281   -6.8442674    590.64533  0.027451447  0.027315325            3 
 1794000   0.98131908   -6.7819032     592.6795  0.027530634  0.027307297            3 
 1795000   0.96297935   -6.7997724     591.4094  0.027456332  0.027299296            3 
 1796000   0.98099483   -6.8168742    591.63725  0.027451617  0.027291282            4 
 1797000   0.95601124   -6.8268347    591.72266  0.027440301  0.027283311            2 
 1798000   0.96002155     -6.81382    591.54012   0.02741658  0.027275266            8 
 1799000   0.95572644   -6.7768101    592.48041  0.027444896  0.027267283            4 
 1800000   0.95857322   -6.7749698    593.80048  0.027490763  0.027259264            7 
 1801000    0.9692675   -6.8081873    594.78755  0.027521171  0.027251344            7 
 1802000   0.97606781    -6.799562    593.09918   0.02742782  0.027243482            6 
 1803000   0.96211265   -6.8369765    592.98038  0.027407117  0.027235517            6 
 1804000   0.97954911   -6.8090162    593.26315  0.027404987  0.027227598            5 
 1805000   0.96149297   -6.8063954    594.21147  0.027433586  0.027219674            3 
 1806000    0.9724924   -6.8394673    593.25477  0.027374251  0.027211666            6 
 1807000   0.96196646   -6.8206906    593.55255  0.027372835  0.027203734            5 
 1808000   0.96622915   -6.8246357    594.69417  0.027410314  0.027195711            3 
 1809000   0.96693834   -6.8246645     593.5798  0.027343827  0.027187728            4 
 1810000   0.94839383   -6.7834586    596.67206  0.027471089  0.027179861            8 
 1811000    0.9749834   -6.8251621    593.42654  0.027306577  0.027171999            4 
 1812000   0.94408953     -6.80133    594.01367   0.02731851  0.027164097            4 
 1813000   0.94841998   -6.7964226    595.25513  0.027360504  0.027156155            6 
 1814000     0.957822   -6.8285697    594.60624  0.027315612  0.027148197            4 
 1815000   0.97816756    -6.793737    595.62626  0.027347395  0.027140264            3 
 1816000   0.95434143   -6.7813917    596.73402  0.027383169  0.027132296            7 
 1817000   0.95073581   -6.8151796    594.67802  0.027273804  0.027124238            4 
 1818000   0.96178396   -6.8424504    594.36447  0.027244429  0.027116088            4 
 1819000   0.96221994   -6.8614336    595.60965  0.027286497  0.027107836            4 
 1820000   0.97014471   -6.8198019    595.02462  0.027244717  0.027099804            3 
 1821000   0.95855586   -6.8237426    594.72921  0.027216237  0.027091568            7 
 1822000   0.94331929   -6.8480098    595.53697  0.027238244  0.027083284            2 
 1823000   0.96871052   -6.8090315    596.24435  0.027255638  0.027075165            5 
 1824000   0.96418137   -6.8370273    593.83285  0.027130521  0.027067047            6 
 1825000   0.95990156   -6.8213156    593.66269  0.027107885  0.027058832            5 
 1826000   0.95288337   -6.8075412    595.04496  0.027156122  0.027050686            3 
 1827000   0.96893842   -6.8293477    594.58929  0.027120475    0.0270424            4 
 1828000   0.96778322   -6.8357073    593.93949  0.027076016   0.02703418            8 
 1829000   0.96216249   -6.8554596     595.5528  0.027134718  0.027025823           11 
 1830000   0.95514361   -6.8501086     595.6539  0.027124494  0.027017466            7 
 1831000   0.95057361    -6.777241    597.86102  0.027210132  0.027009274            3 
 1832000   0.96834906   -6.8287291    594.86936  0.027059196  0.027001032           13 
 1833000   0.94849719   -6.8460792    596.07156  0.027099089  0.026992746            7 
 1834000   0.94588762   -6.8416004    595.41624  0.027054536  0.026984486            6 
 1835000   0.95487396    -6.814677    596.79014  0.027102186  0.026976178            5 
 1836000    0.9566475   -6.8655149    596.24175  0.027062534  0.026967881            7 
 1837000   0.94738453   -6.8472887     596.3041   0.02705063  0.026959535            7 
 1838000   0.95489722   -6.8215537    597.21511  0.027077218   0.02695128           11 
 1839000   0.95599079    -6.817652    595.57045  0.026987967  0.026943009            3 
 1840000   0.94231385   -6.8235169    597.14295  0.027044518  0.026934805            7 
 1841000   0.96054364   -6.8620073    596.51404   0.02700136  0.026926564            5 
 1842000   0.95044055   -6.8418793    598.00729  0.027054257  0.026918203            5 
 1843000   0.94916268    -6.789661    598.57021   0.02706503  0.026910059            7 
 1844000   0.97104605   -6.8047187     597.3122  0.026993501  0.026901833            4 
 1845000   0.95599994   -6.8293067    599.46428  0.027076074  0.026893704            7 
 1846000   0.93809662   -6.8282232    599.08612  0.027044336  0.026885451            4 
 1847000   0.96202855   -6.8351247     597.3238  0.026950181  0.026877102            5 
 1848000   0.97174144   -6.8076957    599.24708  0.027022325   0.02686888            3 
 1849000   0.95523876   -6.7961554    600.11271  0.027046724  0.026860784            6 
 1850000   0.96287854    -6.843842    597.85224  0.026930281   0.02685257            6 
 1851000    0.9533915   -6.8561745     598.1498  0.026929129  0.026844359            6 
 1852000   0.92552039   -6.8129571    599.89785  0.026993244  0.026836011            2 
 1853000   0.94290445   -6.8617917    598.70175  0.026924885  0.026827736            3 
 1854000   0.96535353   -6.8545403    598.32188  0.026893289  0.026819355            6 
 1855000   0.96609869    -6.853105    597.49075  0.026841453  0.026810993            3 
 1856000   0.92883532    -6.850003    598.26458  0.026861736  0.026802716            4 
 1857000   0.95189013   -6.8561631    597.35553  0.026806477  0.026794336            5 
 1858000   0.95086875   -6.8465814    598.65239  0.026850215  0.026785973            9 
 1859000   0.95058508   -6.8494321    598.06469  0.026809427  0.026777629            7 
 1860000   0.96229686   -6.8868826    598.18786  0.026800532  0.026769161            5 
 1861000    0.9559505   -6.8716639    598.27087  0.026789847  0.026760726            8 
 1862000   0.96702255   -6.8689556    598.96506  0.026806528  0.026752337            6 
 1863000   0.96429021   -6.8465427    598.62043  0.026776723  0.026743866           16 
 1864000   0.95437319   -6.8169597    599.99987  0.026824029  0.026735628           14 
 1865000   0.96049596   -6.7981298    601.41241  0.026872762  0.026727446            3 
 1866000   0.95089284   -6.8416557    601.56211  0.026865046  0.026719324            6 
 1867000   0.94924963   -6.8123691    603.09505  0.026919079  0.026711216            4 
 1868000   0.95348039   -6.8640188    601.36892  0.026827664  0.026702983            2 
 1869000   0.95651876   -6.8093674     603.0238  0.026887097  0.026694784            4 
 1870000   0.95418535   -6.8548722    602.77495  0.026861629  0.026686565            4 
 1871000   0.94492923    -6.809494    602.05966  0.026815413  0.026678349            5 
 1872000   0.97656712   -6.8593438    602.21739   0.02680811  0.026670205            4 
 1873000   0.96324248   -6.8647268    601.50534  0.026762117   0.02666194            4 
 1874000   0.95879061   -6.8638985    600.11125  0.026685843  0.026653688            5 
 1875000    0.9358217   -6.8057019     604.4877   0.02686612  0.026645511            8 
 1876000   0.93768885   -6.8265973     603.4654  0.026806388  0.026637403            4 
 1877000   0.96315242   -6.8820482    601.00378  0.026682817  0.026629107            7 
 1878000   0.94171766   -6.8634399    601.19924  0.026677283  0.026620825            5 
 1879000   0.95970976   -6.8449059     602.6101  0.026725656  0.026612524            5 
 1880000   0.94158021   -6.8347504    603.49276  0.026750566  0.026604183            3 
 1881000   0.93854874    -6.793206    604.13088  0.026764615  0.026596045            4 
 1882000   0.96186519   -6.8380225    604.63805   0.02677285   0.02658786            5 
 1883000   0.92745724   -6.8480136     602.3867  0.026658997  0.026579644           10 
 1884000   0.94651751   -6.8420307    601.90332  0.026623466  0.026571432            3 
 1885000    0.9612198   -6.8639019    603.34087  0.026672894  0.026563215            9 
 1886000   0.95483624   -6.8275836    603.82832   0.02668029  0.026555002            7 
 1887000   0.95531775   -6.8911341    603.28958  0.026642359  0.026546795           12 
 1888000   0.95944372   -6.8681428    601.48778  0.026548719  0.026538469            5 
 1889000   0.95561414   -6.8491479    605.01598  0.026690312  0.026530165            9 
 1890000   0.94330512   -6.8622714    602.23112    0.0265534  0.026521849            2 
 1891000   0.93828197   -6.8297323    603.65354  0.026602042  0.026513591            2 
 1892000   0.94914414   -6.8908705    601.55621  0.026495605  0.026505318            6 
 1893000   0.92653166   -6.8734129    606.57508  0.026702548  0.026496933            4 
 1894000   0.92554632    -6.835923    603.63952  0.026559289  0.026488603            7 
 1895000    0.9334254   -6.8573351    604.09152   0.02656515   0.02648033            5 
 1896000   0.96022973   -6.7876447    605.81159   0.02662674  0.026472139            7 
 1897000   0.94409668   -6.8117289    604.08371    0.0265368  0.026463883            3 
 1898000   0.95602232   -6.8113595    606.37645  0.026623483  0.026455628           10 
 1899000   0.94478945   -6.8607368    605.06766   0.02655203  0.026447378            4 
 1900000   0.92612594   -6.8629874    604.14436   0.02649756  0.026439083            7 
 1901000   0.92988514    -6.858427    604.84051  0.026514138  0.026430738            4 
 1902000   0.92451188   -6.8789556     603.8432  0.026456502  0.026422429            7 
 1903000   0.93600255   -6.8471115     605.6729  0.026522723  0.026414123            5 
 1904000   0.95177633   -6.8229615    609.27816  0.026666586  0.026405916            4 
 1905000   0.95653542   -6.8817125    604.88173  0.026460268  0.026397781            5 
 1906000   0.92982464   -6.8529632    608.56103   0.02660725   0.02638973            8 
 1907000   0.96664633   -6.8320147    605.84659  0.026474681  0.026381532            8 
 1908000    0.9563657   -6.8385582    606.76099  0.026500742  0.026373405            2 
 1909000   0.93946247   -6.8251117    608.37483  0.026557309   0.02636523            8 
 1910000   0.92803704   -6.8734871    607.50401   0.02650541  0.026357189            6 
 1911000   0.94976593   -6.8571083     607.2681  0.026481253  0.026348983            4 
 1912000   0.95048287   -6.8959246    604.73553  0.026357023  0.026340769            3 
 1913000   0.93715467   -6.8261438    608.14731  0.026491867  0.026332615            4 
 1914000    0.9386855    -6.861922    606.88169  0.026422923  0.026324469           11 
 1915000   0.95825832   -6.8726283    606.97095  0.026413009   0.02631639            3 
 1916000    0.9471923   -6.8999459    607.00152  0.026400553  0.026308208            5 
 1917000   0.96127797   -6.8604597    607.45671  0.026406569   0.02630002            3 
 1918000   0.94609125   -6.8413874    608.26762  0.026428033  0.026291903            4 
 1919000    0.9448927   -6.8345251    608.35404  0.026418014  0.026283805            5 
 1920000    0.9399754    -6.856539    608.80909  0.026424006  0.026275666            3 
 1921000   0.97637689   -6.9089661    608.27808  0.026387215  0.026267414            2 
 1922000   0.96131728    -6.856164    608.92612  0.026401583  0.026259142            5 
 1923000   0.93060356   -6.8740421     608.9247  0.026387792  0.026251007            5 
 1924000   0.94642365   -6.8911789    608.29097  0.026346629  0.026242812           10 
 1925000   0.95206149   -6.8341419    609.34003  0.026378356  0.026234713            6 
 1926000   0.95091092   -6.8496626    610.06276  0.026395931   0.02622668           11 
 1927000   0.96579979   -6.8139079    612.37815  0.026482363    0.0262187            2 
 1928000   0.94098861   -6.8756749    610.99234  0.026408728  0.026210725            3 
 1929000   0.92861726   -6.8352877    611.38744  0.026412106  0.026202688            6 
 1930000    0.9591937   -6.9255193    608.06664  0.026255036  0.026194586            7 
 1931000   0.95532399   -6.8286955     612.1981  0.026419735  0.026186445            5 
 1932000   0.93665381    -6.859757    610.25723  0.026322344  0.026178354            7 
 1933000   0.94834721   -6.8444885    611.08721  0.026344508  0.026170287            8 
 1934000    0.9284575   -6.8568359    611.29615  0.026339889  0.026162286           11 
 1935000   0.92339793   -6.8636345    612.15852  0.026363416  0.026154245            8 
 1936000    0.9409182     -6.86467    611.41117   0.02631763  0.026146104            7 
 1937000   0.95511451   -6.8943607    610.83796  0.026279382   0.02613811            3 
 1938000   0.92889515   -6.8856221    610.22184  0.026239329  0.026129994            4 
 1939000   0.93712972   -6.8931372     610.6126  0.026242591  0.026121835            9 
 1940000   0.95004359   -6.8763018    611.71053  0.026276225   0.02611381            4 
 1941000   0.96037282   -6.8436368        612.7  0.026305169  0.026105843            2 
 1942000   0.94690897   -6.8744794    611.24831   0.02622933  0.026097844            4 
 1943000   0.94483971   -6.8483289    612.11488  0.026252997  0.026089872            3 
 1944000   0.95183733   -6.8514602    611.30701  0.026204862  0.026081925            7 
 1945000   0.92258506    -6.826793     612.9584  0.026262142  0.026074081           11 
 1946000   0.93494639    -6.828154    613.32235  0.026264232  0.026066125            7 
 1947000   0.95631308   -6.8572929    613.11178   0.02624173  0.026058222            7 
 1948000   0.92018434   -6.8927259    611.48468  0.026158653  0.026050175            9 
 1949000   0.93939916   -6.8831936    611.24331  0.026134912  0.026042125            7 
 1950000     0.942051   -6.8850306    612.86492  0.026190809   0.02603406            4 
 1951000   0.93948866   -6.8420977    613.85768  0.026219788  0.026026052            9 
 1952000   0.94595564   -6.8720981    611.88343  0.026122073  0.026017956            5 
 1953000   0.92440731   -6.8938754    613.04663   0.02615833  0.026009837            3 
 1954000   0.96083928   -6.9003019    611.42446  0.026075762  0.026001704            8 
 1955000   0.94081769   -6.8967999    611.42483  0.026062439  0.025993504            7 
 1956000   0.94004856   -6.8997551    613.94464  0.026156469  0.025985274           16 
 1957000   0.92509297     -6.90499    613.93428  0.026142662  0.025977093            4 
 1958000   0.94442716    -6.847199    613.99233  0.026131781  0.025968885            5 
 1959000   0.93726722   -6.8709052    613.25233  0.026086963  0.025960609            8 
 1960000   0.93638144   -6.8978247    614.15651  0.026112096  0.025952347            9 
 1961000   0.93384759   -6.9116392    611.76238  0.025997042    0.0259441            4 
 1962000   0.92537536   -6.9066317    611.70591  0.025981393  0.025935776           10 
 1963000   0.92875953   -6.8784681    613.23839  0.026033214  0.025927469            6 
 1964000    0.9138507   -6.8728891    614.44346  0.026071091  0.025919225            6 
 1965000   0.93803243    -6.864885    613.08075  0.026000032  0.025911055            4 
 1966000   0.92837465   -6.9219946    613.04161  0.025985148  0.025902803            5 
 1967000   0.92747107   -6.8701317    613.82294  0.026005039  0.025894587            2 
 1968000   0.96260837   -6.8642695    613.94752    0.0259971  0.025886385            6 
 1969000    0.9248472   -6.9171942    612.94772  0.025941583   0.02587822            5 
 1970000   0.94594676    -6.919555    613.95229  0.025970909  0.025869979            5 
 1971000   0.92501046   -6.9014345    615.22335  0.026011473  0.025861735            7 
 1972000   0.92244172   -6.9381827    614.51621    0.0259684  0.025853417            6 
 1973000    0.9352117   -6.9248091    613.43876   0.02590973  0.025845134            7 
 1974000   0.92555634   -6.8604674    614.29794  0.025932875  0.025836948            5 
 1975000   0.94782401    -6.899081    616.92277  0.026030497  0.025828729            7 
 1976000   0.95050391   -6.8918212    614.57228  0.025918197  0.025820653            5 
 1977000   0.93977297   -6.8984813     615.0613    0.0259257  0.025812591            3 
 1978000   0.92190407   -6.8720126    616.68515  0.025981006  0.025804541            3 
 1979000   0.93035768   -6.8803101    617.09439   0.02598511   0.02579649            4 
 1980000   0.92763655   -6.9020078    616.13519  0.025931616  0.025788522            2 
 1981000   0.93013497   -6.8566487    618.16979  0.026004114  0.025780638            8 
 1982000   0.92031117   -6.9046286    616.56621  0.025923571  0.025772649            7 
 1983000    0.9347944   -6.8955629    616.54417  0.025909572  0.025764587            5 
 1984000   0.91534386   -6.8623312    617.57407  0.025939771  0.025756604            3 
 1985000    0.9327203   -6.9124434    617.22782  0.025912167  0.025748612            4 
 1986000   0.93011044    -6.870148    618.34151  0.025945851  0.025740611            7 
 1987000   0.91326968   -6.8968346    617.78843  0.025909597  0.025732674            3 
 1988000   0.95331408   -6.8841409     617.5891  0.025888208  0.025724678            7 
 1989000   0.96084977   -6.8907538    619.40692  0.025951354  0.025716697            5 
 1990000   0.95878426   -6.8476165    620.29312  0.025975424  0.025708771           11 
 1991000   0.92880405   -6.8975476    617.79208  0.025857696  0.025700834            5 
 1992000   0.95086356   -6.9060583    616.89957  0.025807378  0.025692788            3 
 1993000   0.90800558   -6.8719427    619.54443  0.025905019  0.025684774            5 
 1994000   0.96244479   -6.8922245    619.47681  0.025889201  0.025676794            5 
 1995000   0.93137727   -6.9161068    619.46163   0.02587559  0.025668793            7 
 1996000   0.94243848   -6.8513278    621.45195  0.025945723  0.025660789           10 
 1997000   0.92763015   -6.8515042    619.63323  0.025856836  0.025652778            6 
 1998000   0.92441383   -6.9092045    618.39829  0.025792388  0.025644833           13 
 1999000   0.93399936   -6.8814087    618.99577  0.025804393  0.025636833            6 
 2000000   0.92671632   -6.8922885    619.84999  0.025827083  0.025628844            4 
 2001000   0.93310327   -6.8999079    619.20951  0.025787502  0.025620815            4 
 2002000    0.9474549   -6.8935699    618.92093  0.025762609  0.025612826            7 
 2003000   0.95245068   -6.8859359     621.9098  0.025874097  0.025604891           11 
 2004000   0.90600534   -6.9082094    619.73664  0.025770819  0.025596851            6 
 2005000   0.95715442   -6.9453791    617.92728  0.025682763  0.025588806            5 
 2006000   0.92832977   -6.9054689    621.00192  0.025797687  0.025580763            4 
 2007000   0.93823825   -6.9061792    620.88783  0.025780096  0.025572758            7 
 2008000   0.91042439   -6.9387832    619.80711  0.025722407  0.025564793            9 
 2009000   0.92150342   -6.9445205    618.58669   0.02565898  0.025556747            6 
 2010000   0.92928503   -6.8907815    622.96096  0.025827569  0.025548839            8 
 2011000   0.93199918   -6.9383367    619.78286  0.025683029  0.025540839           12 
 2012000   0.92656932    -6.938638    620.74494  0.025710112  0.025532871           14 
 2013000   0.92030453   -6.9247064     621.6787  0.025735995  0.025524928            5 
 2014000   0.92100963   -6.8896381    622.68107  0.025764692  0.025517076            9 
 2015000   0.94035082   -6.9082926    623.74434  0.025795879  0.025509132            8 
 2016000   0.92663502   -6.9189538    620.87809  0.025664603  0.025501273            5 
 2017000    0.9117387    -6.921633    620.30637  0.025628259    0.0254933            4 
 2018000   0.92769981    -6.925338    621.89457  0.025681143  0.025485302           13 
 2019000   0.90845875   -6.9403605    620.07496   0.02559332  0.025477269           11 
 2020000   0.93664684   -6.9091796    622.71996  0.025689767  0.025469282            7 
 2021000   0.92383677   -6.9077394    622.39653   0.02566372  0.025461384            9 
 2022000   0.93104419   -6.8814501    623.89455  0.025712766   0.02545348            4 
 2023000   0.94047349   -6.9273625    622.02351  0.025622982  0.025445602            5 
 2024000   0.93599924   -6.8957227    624.20521  0.025700149  0.025437715            6 
 2025000   0.93425185   -6.9160242    622.06979   0.02559958  0.025429803            6 
 2026000   0.91944856    -6.899296    625.06829  0.025710278  0.025421886            4 
 2027000   0.93045738   -6.9277998    623.71632  0.025642013    0.0254139            7 
 2028000   0.94415466   -6.9039885    624.06946   0.02564388  0.025405909            4 
 2029000     0.940797   -6.9153495    622.96936  0.025586059  0.025397914            9 
 2030000   0.92771323   -6.9381821    622.34694  0.025547904  0.025389913            8 
 2031000   0.91840522   -6.9391764    623.84171  0.025596656  0.025381899            6 
 2032000   0.93197014   -6.9063118    623.03133  0.025550826  0.025373913            4 
 2033000   0.92840725   -6.9113653     623.9573  0.025576213  0.025365989            4 
 2034000   0.92879234   -6.9196529    625.51001  0.025627254  0.025358152           16 
 2035000   0.90361183   -6.8850443    623.71129  0.025541003  0.025350252            7 
 2036000   0.92102355   -6.9194586     623.7331  0.025529351  0.025342267            3 
 2037000   0.92357845   -6.9320683     624.0036  0.025527884  0.025334293            5 
 2038000   0.92399969   -6.9610284    624.44222  0.025533293  0.025326364            4 
 2039000   0.94327018   -6.9337871    623.61446   0.02548694  0.025318352            4 
 2040000   0.90083709   -6.9570105    624.81617  0.025523536  0.025310294           10 
 2041000   0.93375429   -6.9222751    624.47411  0.025497065   0.02530232           10 
 2042000   0.92278054     -6.88652    625.32868  0.025519453  0.025294381            5 
 2043000   0.94166829   -6.9178279    625.14996  0.025499672  0.025286398           10 
 2044000   0.92792577   -6.8900008    624.93431  0.025478405   0.02527844            7 
 2045000   0.91538486   -6.8944477     624.6515  0.025454421  0.025270588            9 
 2046000   0.91802465   -6.9472588    625.07786  0.025459346  0.025262739           19 
 2047000   0.92008584   -6.9166876    625.00849  0.025444085  0.025254807            3 
 2048000    0.9302231   -6.8728258     626.5962  0.025496264  0.025246842            8 
 2049000   0.93376463   -6.9115655    625.45884  0.025437565  0.025239017           10 
 2050000   0.91065074   -6.9398688    626.09857  0.025451161  0.025231151            4 
 2051000   0.92215972   -6.9034399    624.75236  0.025384055  0.025223166            3 
 2052000   0.92042098   -6.9273284    625.23391  0.025391241  0.025215206            4 
 2053000   0.91883566   -6.9384112     625.3755   0.02538462  0.025207232            5 
 2054000   0.90019594   -6.9751706    625.55212  0.025379427  0.025199145           11 
 2055000    0.9453525   -6.9343523    626.03744  0.025386757  0.025191133            6 
 2056000   0.93325532   -6.9345679    627.58785  0.025437251  0.025183209            4 
 2057000   0.93064275   -6.9501986    625.61531  0.025344973  0.025175334            5 
 2058000    0.9346336   -6.9449662    626.91964  0.025385473  0.025167468            7 
 2059000   0.91331689   -6.9527975    627.93208   0.02541412  0.025159637            9 
 2060000   0.91756742   -6.9418846    626.53427  0.025345238  0.025151672            9 
 2061000   0.91092815   -6.8773486    626.37243  0.025326396  0.025143717            4 
 2062000   0.92534067   -6.9365426    627.66016  0.025366156  0.025135836           10 
 2063000   0.91711505   -6.9446784    626.70742  0.025315375  0.025127907            7 
 2064000   0.93118978   -6.9122016    626.78604  0.025306284  0.025119931            9 
 2065000   0.92384781   -6.9132879    628.06218  0.025345528  0.025112055            6 
 2066000    0.9202713    -6.927772    627.00208    0.0252905  0.025104155            5 
 2067000    0.9193785    -6.908783    628.81565  0.025351381  0.025096291            3 
 2068000   0.91357331   -6.9339507    627.72368  0.025295119  0.025088373            3 
 2069000   0.91747965   -6.9225003    628.91208  0.025330759  0.025080522            3 
 2070000   0.91799944   -6.9363538    627.77803  0.025272868    0.0250727            3 
 2071000   0.92687977   -6.9662857    626.77894  0.025220463  0.025064731            5 
 2072000    0.9193199   -6.9403327    629.36233  0.025312192  0.025056721            7 
 2073000   0.92317448   -6.9003204    629.00535  0.025285631  0.025048774            5 
 2074000   0.90274934    -6.937894    626.82227  0.025185723  0.025040838            2 
 2075000   0.89981691   -6.9403451    629.47825  0.025280251  0.025032956            4 
 2076000   0.91196452   -6.9394746    629.58748  0.025272458  0.025025033            4 
 2077000     0.896403   -6.9304106    629.11642  0.025241391  0.025017076           12 
 2078000   0.89211932   -6.9450414     628.8968  0.025220436  0.025009056            3 
 2079000   0.91699844   -6.9077448    628.68303  0.025199736  0.025001153            5 
 2080000   0.90822609   -6.9561474    630.01781  0.025241098  0.024993252            7 
 2081000   0.91534367   -6.9794208    627.67582  0.025135184  0.024985345            4 
 2082000   0.89607571   -6.9440045    629.13475  0.025181506   0.02497744            6 
 2083000   0.89556667   -6.9712211    629.59062  0.025187655  0.024969453            6 
 2084000   0.89717545   -6.9671977    628.47934  0.025131132  0.024961412            3 
 2085000   0.90402146   -6.9266726    630.83619  0.025213277  0.024953366            3 
 2086000   0.91169206   -6.9206885    630.73331   0.02519708  0.024945575            7 
 2087000    0.9135302   -6.9380557    630.36308  0.025170224  0.024937765            8 
 2088000   0.92436764   -6.9690486    629.52642  0.025124777  0.024929854           13 
 2089000    0.9005064    -6.943784    630.29645  0.025143468  0.024921974           10 
 2090000    0.9247685    -6.963211    630.24685   0.02512946  0.024914091            6 
 2091000   0.93539302   -6.9647046    628.83229  0.025061067  0.024906162            3 
 2092000   0.93296694   -6.9242111    631.41145  0.025151826   0.02489824           15 
 2093000   0.89324972   -6.9357234    630.75917  0.025113839  0.024890352            5 
 2094000   0.90525659   -6.9103734    632.61032  0.025175514  0.024882493            5 
 2095000   0.89278415   -6.9896823     630.7436  0.025089244   0.02487462            9 
 2096000   0.90976516   -6.9330165    629.79355  0.025039502  0.024866636            6 
 2097000   0.91781374   -6.9144459    632.10992  0.025119612  0.024858715            3 
 2098000   0.95095365   -6.9394668     631.5502  0.025085407  0.024850805            4 
 2099000   0.93998456   -6.9496575    631.17173   0.02505843  0.024842928            5 
 2100000   0.91869213    -6.925169    631.50781  0.025059834  0.024835057            7 
 2101000   0.92280147   -6.9654132    630.63008  0.025013092  0.024827143            9 
 2102000   0.93129759    -6.973282    630.21688  0.024984811  0.024819269            5 
 2103000   0.92771246   -6.9405622     631.0589  0.025006296  0.024811391            4 
 2104000   0.93701639   -6.9474954     630.5103  0.024972683  0.024803615            6 
 2105000   0.92865342   -6.9369071    633.23584  0.025068719  0.024795916            2 
 2106000    0.9323176   -6.8921292     631.2907  0.024979847  0.024788207            5 
 2107000   0.92012432   -6.9715133    632.41341  0.025012395  0.024780435            7 
 2108000   0.90518326   -6.9660999     631.3668  0.024959156  0.024772591            3 
 2109000    0.9176079   -6.9654378    632.62676  0.024997106  0.024764678           14 
 2110000     0.920589   -6.9692222    632.22885  0.024969544  0.024756775            7 
 2111000   0.91071188   -6.9194477    635.06536  0.025069689  0.024749011            3 
 2112000    0.9234359   -6.9396042    633.69758   0.02500385  0.024741278            8 
 2113000   0.92162313   -6.9803895    632.51733   0.02494547  0.024733587            8 
 2114000   0.90633276   -6.9341907    634.05693   0.02499436  0.024725838            9 
 2115000   0.91213812   -6.9410649    633.66725  0.024967189  0.024718065           18 
 2116000   0.91216762   -6.9369428    633.94174    0.0249662   0.02471031           20 
 2117000   0.90858242   -6.9430947    634.86509  0.024990753  0.024702581            6 
 2118000   0.90384168   -6.9107549    633.91723   0.02494166   0.02469473            2 
 2119000   0.90751674   -7.0089642    632.52537  0.024875152  0.024686938            8 
 2120000   0.93065662   -6.9608203    634.27509  0.024932197  0.024679066            5 
 2121000   0.91839024    -6.954031    633.64303  0.024895609  0.024671258           11 
 2122000   0.90993442   -6.9608117    633.64675  0.024884023  0.024663434            5 
 2123000   0.90100677   -6.9336516    634.50578   0.02490602  0.024655647            7 
 2124000   0.93117075   -6.9839638    632.69162  0.024823118   0.02464789            6 
 2125000    0.9043266   -6.9439409    633.22315   0.02483228  0.024640059            9 
 2126000   0.91779627   -6.9499001    634.80695  0.024882681   0.02463228            6 
 2127000   0.91903999   -6.9383892     635.3296  0.024891459  0.024624549            8 
 2128000    0.9146507   -6.9395881    635.74877  0.024896177  0.024616825            6 
 2129000   0.90977626   -6.9384438    635.57585  0.024877714   0.02460902            6 
 2130000   0.91369596   -6.9645032    634.60718  0.024828137  0.024601205            6 
 2131000   0.90393099   -6.9591222    634.83564   0.02482542  0.024593358           13 
 2132000   0.89098997   -6.9230173    636.32479  0.024871982  0.024585593            5 
 2133000   0.90938478   -6.9524083    636.38296  0.024862594  0.024577881            7 
 2134000   0.90650447   -6.9564652    637.81469  0.024906853  0.024570129            3 
 2135000   0.91367519   -6.9500058    636.94983   0.02486143  0.024562415           10 
 2136000   0.90301651   -6.9412078    636.74555  0.024841821  0.024554724            5 
 2137000   0.89424213   -6.9392317    636.74078   0.02483001   0.02454709            8 
 2138000   0.89857617   -6.9616244    636.48364  0.024808374  0.024539355            6 
 2139000   0.89553034   -6.9603367    636.19852  0.024785668  0.024531626            6 
 2140000    0.9220159   -6.9654937     635.9204  0.024763255  0.024523799            5 
 2141000   0.90668916   -6.9730577    636.04282  0.024756454  0.024515977            6 
 2142000   0.89487966   -6.9535995    636.86702  0.024776962  0.024508113            6 
 2143000   0.92106605    -6.982528    635.74141  0.024721629  0.024500301            9 
 2144000     0.907197   -6.9778232     637.6286   0.02478345  0.024492453            8 
 2145000    0.9194381   -6.9780083     637.8863  0.024781907   0.02448464            7 
 2146000   0.90439453   -6.9603754    635.72002  0.024686239    0.0244768            6 
 2147000   0.90709522   -6.9586262    637.67243  0.024750521  0.024469004            7 
 2148000   0.89238685   -6.9991313    636.68557  0.024700713  0.024461155           11 
 2149000   0.89208211   -6.9821572    637.13187  0.024706525  0.024453273            7 
 2150000   0.90744761   -7.0029946    635.85858  0.024645681  0.024445356            7 
 2151000   0.90673658   -6.9636028    636.86145  0.024673076  0.024437479           11 
 2152000    0.8913655   -6.9600993    636.82408  0.024660164  0.024429679           11 
 2153000    0.9043518   -7.0022609    635.99842  0.024616753  0.024421838            4 
 2154000   0.89655301   -7.0003309    635.96339  0.024603969  0.024413974            5 
 2155000   0.91206812   -6.9783824    638.89469  0.024705904  0.024406116            5 
 2156000   0.91630647   -6.9638139    637.45648  0.024638856  0.024398323            8 
 2157000   0.88552814    -6.988459    638.06719  0.024651027   0.02439047            5 
 2158000   0.90472943    -6.957246    636.94927  0.024596435  0.024382708            9 
 2159000    0.9153636   -6.9583791    638.18358  0.024632684   0.02437492            3 
 2160000   0.92585208   -6.9944405    636.68507  0.024563467  0.024367189            4 
 2161000    0.9033395   -6.9747813     638.5991   0.02462591  0.024359422            7 
 2162000   0.90756258   -6.9846459     637.8167  0.024584363  0.024351686            8 
 2163000   0.91302009    -7.006677    637.40929    0.0245573  0.024343906            4 
 2164000   0.89937711   -6.9892204    637.65246  0.024555316  0.024336164            7 
 2165000   0.90758777   -6.9762672    639.08398  0.024599075  0.024328449            6 
 2166000   0.92072295   -6.9627907    640.96777  0.024660194  0.024320762            5 
 2167000     0.903809   -7.0028064    640.11762  0.024616121    0.0243131            8 
 2168000   0.92152175   -6.9579927    640.25311  0.024609975  0.024305448            5 
 2169000   0.89804224    -6.965203    641.07315  0.024630135  0.024297854            9 
 2170000   0.92305674   -6.9648264    640.66278  0.024603025  0.024290246            5 
 2171000   0.91777308   -6.9543974    642.26535  0.024653207  0.024282659            7 
 2172000   0.91581443   -6.9118815    641.56863  0.024615125  0.024275118           13 
 2173000   0.89929306   -6.9790963     641.0933  0.024585569  0.024267593            6 
 2174000   0.89813813   -6.9295365    642.87375  0.024642508  0.024260039            6 
 2175000   0.91873069    -6.963018    641.49669  0.024578417  0.024252451            3 
 2176000   0.89171434   -6.9608804    641.37908  0.024562618  0.024244863            6 
 2177000   0.90894522   -6.9374727    642.31627   0.02458721  0.024237277            7 
 2178000   0.91846871   -6.9620814    640.10307  0.024491241   0.02422965            5 
 2179000   0.90862141   -6.9889668    641.33404  0.024527078   0.02422204            3 
 2180000   0.89603775   -6.9568231    642.21172  0.024549378  0.024214467           11 
 2181000   0.89533114   -7.0022009    642.41173  0.024545764  0.024206818           10 
 2182000   0.88830162   -6.9332836    643.80261  0.024587634  0.024199198            7 
 2183000   0.90109976     -6.98358    642.41577   0.02452343  0.024191595           10 
 2184000   0.89967405   -6.9741598    643.37895  0.024548953  0.024184012           10 
 2185000   0.88359261   -6.9990886    641.96664  0.024483853   0.02417637            6 
 2186000   0.87524154     -6.98717    641.78851  0.024465863  0.024168714           12 
 2187000   0.90575932    -6.976007    641.57192  0.024446423  0.024161032            4 
 2188000   0.88294761   -6.9602237     643.8305  0.024521271  0.024153436            7 
 2189000   0.90421758   -7.0077075    642.59511  0.024463039   0.02414578            3 
 2190000   0.90601707   -7.0023871    642.30824  0.024440953  0.024138203           33 
 2191000   0.89217929   -7.0145784    643.32515  0.024468475  0.024130556            7 
 2192000   0.89774517   -7.0301651    642.17656  0.024413647  0.024122929            4 
 2193000   0.92122981   -6.9710469    643.81698  0.024464849  0.024115312            5 
 2194000   0.90000275   -6.9686588    644.85035  0.024492948   0.02410773            5 
 2195000   0.92320882   -6.9876425     642.7421   0.02440175  0.024100157           13 
 2196000    0.8933136   -6.9701838    644.12263  0.024443026  0.024092597            5 
 2197000   0.89481199   -6.9679069    645.88743  0.024498841   0.02408504            4 
 2198000   0.92036683   -6.9702138    643.34761  0.024391402  0.024077555            3 
 2199000   0.91184777   -6.9980743    642.47531  0.024347253  0.024069912            5 
 2200000    0.9078709   -6.9875179    643.52864  0.024376085  0.024062359           10 
 2201000    0.9108599   -6.9600168    644.59902  0.024405536  0.024054752            5 
 2202000    0.8944492   -6.9786868    643.04116  0.024335497  0.024047236            5 
 2203000   0.88424241   -7.0181456    644.07253  0.024363464  0.024039648            5 
 2204000   0.88431851   -6.9718884    646.27631  0.024435734  0.024032038            9 
 2205000   0.90227269   -7.0148932    643.36306  0.024314552  0.024024384            8 
 2206000   0.88083376    -7.005069    644.52483  0.024347417  0.024016739           14 
 2207000   0.85693858   -7.0279554    643.83105  0.024310189  0.024009116            5 
 2208000   0.89778612   -6.9944272    643.62692  0.024291475  0.024001463            5 
 2209000   0.88366748   -7.0118266    644.21385   0.02430262  0.023993903            8 
 2210000   0.90987408   -7.0036409    644.47072  0.024301309  0.023986324            7 
 2211000   0.91795793   -7.0073472    643.04042   0.02423641  0.023978725            7 
 2212000   0.92030337   -7.0258361    644.73488  0.024289289  0.023971137            9 
 2213000   0.89233523   -6.9876435    644.28271  0.024261286  0.023963578            8 
 2214000   0.89233297   -6.9905909    645.20942  0.024285209  0.023956006            8 
 2215000   0.91251903   -7.0105789    643.64709  0.024215466  0.023948407            7 
 2216000   0.90776052   -7.0165022    645.71899  0.024282453  0.023940761            6 
 2217000   0.89545319   -7.0201143    645.58597    0.0242665  0.023933141           12 
 2218000   0.89167201   -7.0118763     644.2364  0.024204854  0.023925551           12 
 2219000   0.88856711   -7.0211496    645.49231  0.024241111   0.02391798            8 
 2220000   0.88658772   -7.0134948    644.35989  0.024187684  0.023910338            8 
 2221000   0.89454461   -7.0205451    645.62817   0.02422438  0.023902724            5 
 2222000   0.89219396    -7.043121    643.81845  0.024145606  0.023895167            4 
 2223000   0.88700949   -7.0487782    644.63792  0.024165464  0.023887537            9 
 2224000   0.91317573   -7.0029217    646.93061  0.024240506  0.023879935            4 
 2225000   0.89340658   -6.9815642    646.96165  0.024230774  0.023872375            7 
 2226000   0.87825553   -7.0160728    642.57457  0.024055652  0.023864787            7 
 2227000   0.89977982   -6.9996188    645.50166   0.02415438  0.023857136           11 
 2228000   0.87869905   -7.0396291    645.79675  0.024154576    0.0238495            9 
 2229000   0.88295219   -7.0081248    646.23899  0.024160273  0.023841825           12 
 2230000   0.90267258   -6.9796327    645.91883  0.024137475   0.02383416            8 
 2231000    0.8872378   -7.0132414    646.39022  0.024144263   0.02382652            5 
 2232000   0.89355928   -7.0284007    646.00133  0.024118927   0.02381886           16 
 2233000   0.90614343   -7.0305932    645.19931  0.024078195  0.023811259            9 
 2234000    0.8806702   -6.9778901    646.18842  0.024104313  0.023803701            6 
 2235000   0.88916118   -6.9963416    646.51305  0.024105632  0.023796145           17 
 2236000   0.87918171   -6.9502908    648.98009  0.024186795  0.023788652            9 
 2237000   0.89394702   -6.9966745    648.04058  0.024140984  0.023781209            5 
 2238000   0.87810433   -6.9876532    648.97689  0.024165061  0.023773753            8 
 2239000   0.88536285   -6.9658134    647.03531  0.024082005  0.023766295            6 
 2240000   0.89834732   -6.9963078    648.28843  0.024117873  0.023758864            9 
 2241000   0.87559925    -6.977694     648.1563  0.024102198  0.023751458           10 
 2242000   0.87843077   -7.0002614    648.07851  0.024088556   0.02374398            7 
 2243000   0.87963573   -6.9906789    647.09252  0.024041185  0.023736469            7 
 2244000   0.88845921   -6.9917341    648.97292  0.024100301  0.023728918            6 
 2245000    0.9062759   -6.9846061    648.38399  0.024067706  0.023721443            3 
 2246000   0.88521128    -6.967804    649.40031  0.024094698  0.023713924            5 
 2247000   0.91165175   -6.9884763    648.54996  0.024052439   0.02370643            3 
 2248000   0.87531451   -7.0532247    647.27721  0.023994558  0.023698845           10 
 2249000   0.87996014   -7.0322505    646.65635  0.023960884  0.023691235            9 
 2250000     0.896337   -7.0543318    646.09929  0.023929603  0.023683651           31 
 2251000   0.89077469   -7.0132376    648.03449  0.023990615  0.023676139            4 
 2252000   0.90168491   -7.0343725    648.20367  0.023986222  0.023668549            6 
 2253000    0.8825898   -7.0123555    648.02923  0.023969124  0.023661042            9 
 2254000    0.8815837   -7.0585793    645.64734  0.023870428  0.023653459            9 
 2255000   0.88398049   -7.0017713    648.77484  0.023975419  0.023645858            6 
 2256000   0.90053568   -7.0381682    646.35831  0.023875528  0.023638381            3 
 2257000   0.90020559   -7.0074477    646.02831  0.023852766  0.023630876            5 
 2258000   0.88356115   -7.0465418    648.79341   0.02394425  0.023623367            5 
 2259000   0.89547306   -7.0327689    648.51951  0.023923547  0.023615859            6 
 2260000   0.88458129   -7.0159179    649.46049  0.023947658  0.023608365            5 
 2261000   0.90346746   -6.9945747    652.54564  0.024050776  0.023600907            8 
 2262000   0.85867979   -7.0157594    648.97814  0.023908714  0.023593406            6 
 2263000   0.89696453   -7.0204069    649.01865  0.023899641  0.023585867           10 
 2264000   0.88938158   -7.0128162    649.30632  0.023899673  0.023578368           19 
 2265000   0.88722813   -7.0120058    650.03192  0.023915817  0.023570896            5 
 2266000   0.91471781   -6.9442145    652.96193  0.024013016  0.023563576            7 
 2267000   0.88491188   -6.9953836    651.90493  0.023963569  0.023556274            5 
 2268000   0.90303292   -7.0144333    649.62746  0.023869322  0.023548883            7 
 2269000   0.89610795     -7.00323    651.58867  0.023930831  0.023541489            3 
 2270000   0.89418067   -7.0534939    649.57923  0.023846521  0.023533965            5 
 2271000   0.88322279   -7.0326137    650.76165  0.023879409  0.023526386            6 
 2272000   0.89148601   -7.0310547    651.05311  0.023879589  0.023518854            4 
 2273000   0.89266997   -7.0117712     651.4094  0.023882146  0.023511338            8 
 2274000   0.89246638   -7.0369949    648.55239  0.023766945   0.02350377           13 
 2275000   0.87744164   -7.0226004    651.60734  0.023868401  0.023496224            3 
 2276000   0.89409843   -7.0317255    650.82352  0.023829215  0.023488665           11 
 2277000   0.88187766   -7.0366081    649.78213  0.023780637  0.023481158            6 
 2278000   0.87633117   -7.0316079    649.08228  0.023744596  0.023473643            6 
 2279000   0.87872696   -7.0392964    650.30656  0.023778944  0.023466095            8 
 2280000   0.88998586   -7.0400002    650.56018  0.023777784  0.023458607            3 
 2281000   0.87516874   -7.0385163    650.72489  0.023773378  0.023451068            7 
 2282000   0.89063445   -7.0361368    652.96518   0.02384477  0.023443584           10 
 2283000   0.87324942   -7.0321492     652.5208  0.023818105  0.023436103            6 
 2284000   0.89821531    -6.997541    654.06375  0.023863972  0.023428641            4 
 2285000   0.88713934   -7.0037118    654.00971  0.023851558  0.023421208            7 
 2286000   0.88873941   -6.9906276    652.95541  0.023802691   0.02341379           12 
 2287000   0.87694955   -7.0231189    652.04624  0.023759155   0.02340629            4 
 2288000   0.89641677   -7.0201786    652.78725  0.023775759  0.023398776           10 
 2289000   0.90721071   -7.0309141    650.21282  0.023671648  0.023391286            6 
 2290000   0.88570926   -7.0417683     651.4585  0.023706641  0.023383756           16 
 2291000   0.89402349   -6.9931427    654.08453  0.023791813   0.02337631            8 
 2292000   0.89167738   -7.0143889     654.1413  0.023783497  0.023368894            7 
 2293000   0.88733738   -7.0404454    651.14149  0.023664104  0.023361401            4 
 2294000   0.86773358   -7.0421507    651.07083  0.023651222  0.023353912            5 
 2295000   0.90269903   -7.0420886    651.16871   0.02364447  0.023346379           10 
 2296000   0.89194843   -7.1026003    649.86344  0.023586797  0.023338809            6 
 2297000   0.85674867   -7.0503834    652.95633  0.023688736   0.02333126            7 
 2298000   0.86421549   -7.0861597    652.72781  0.023670141  0.023323723           13 
 2299000   0.86871406   -7.0641135    652.79195   0.02366217  0.023316212            8 
 2300000   0.89467625   -6.9926624    654.35667  0.023708575  0.023308799            6 
 2301000   0.89708269   -7.0371795    652.85807  0.023643998  0.023301388            5 
 2302000   0.88266457   -7.0129506     654.4921  0.023692879  0.023293951            5 
 2303000   0.88694879   -6.9987192    653.66523  0.023652671  0.023286528            7 
 2304000   0.86651551   -7.0289852    655.01194  0.023691115  0.023279132            7 
 2305000   0.89113552   -7.0594826    654.25946  0.023653632  0.023271753            3 
 2306000   0.89006754   -6.9952487    654.60229  0.023655764   0.02326427            8 
 2307000   0.88820608      -7.0647    652.82464  0.023581298  0.023256802            4 
 2308000   0.88678182   -7.0394796     652.9087  0.023574115  0.023249301           11 
 2309000   0.87000203   -7.0198069    654.15769  0.023608982  0.023241824           10 
 2310000   0.86648722   -7.0296628    655.23021  0.023637454  0.023234373            4 
 2311000   0.88790462   -7.0548681    653.68592  0.023571539  0.023226868           15 
 2312000   0.89459251   -7.0608765    655.06681  0.023611116  0.023219352            7 
 2313000   0.87018956      -7.0653    653.10506   0.02353023  0.023211885           16 
 2314000   0.87487622   -7.0600117     656.0237  0.023625169  0.023204409            8 
 2315000   0.87599098   -7.0785669    653.17807  0.023512529  0.023196911            5 
 2316000   0.87048317   -7.0317378    653.77239  0.023523762  0.023189413            8 
 2317000   0.90057137   -7.0495358    654.98239  0.023557128  0.023181978            3 
 2318000   0.90181595   -7.0476343    656.07846   0.02358637  0.023174589           10 
 2319000   0.88234852   -7.0448534    656.45185  0.023589616   0.02316723            9 
 2320000   0.87820032   -7.0124216    656.50352  0.023581305  0.023159884            6 
 2321000   0.87680923   -7.0644132    654.88111  0.023512894  0.023152497           11 
 2322000   0.88678868   -7.0458757    655.36365  0.023520085  0.023145047            4 
 2323000    0.8811372   -7.0287253    655.69825  0.023521963  0.023137696            7 
 2324000   0.88093138   -7.0438192    659.16403  0.023636117  0.023130392            9 
 2325000   0.88059797   -7.0378522    657.92616  0.023581583  0.023123113           10 
 2326000   0.88222439   -7.0620627    656.01073   0.02350282  0.023115841           13 
 2327000   0.89410747   -7.0710992    657.17766   0.02353451  0.023108506            5 
 2328000   0.88075966   -7.0570501     656.1239   0.02348668  0.023101187            4 
 2329000   0.87177859   -7.0298442    659.00758  0.023579776  0.023093887            3 
 2330000     0.893914   -7.0489469    658.05863  0.023535716  0.023086604            9 
 2331000   0.87999567   -7.0306718    656.80805  0.023480911  0.023079317            6 
 2332000    0.8678588   -7.0189909    657.26476  0.023487163  0.023072108            6 
 2333000    0.8826698   -7.0253549    657.71803  0.023493286  0.023064862           23 
 2334000   0.86713591   -7.0610742    657.08521  0.023460626  0.023057634           12 
 2335000   0.87790845   -7.0203189    657.12116  0.023451861  0.023050378            6 
 2336000   0.88355358   -6.9731537    659.91468  0.023541477  0.023043202            6 
 2337000    0.8856209   -7.0386047    659.40478  0.023513221  0.023035978            8 
 2338000    0.8769274   -7.0668343    658.23492  0.023461467  0.023028687           11 
 2339000   0.87455435   -7.0263096    657.11216  0.023411435  0.023021449            5 
 2340000   0.88370317   -7.0591945    657.24322  0.023406097  0.023014179            5 
 2341000   0.86833917   -7.0793993    658.52515  0.023441732  0.023006875            5 
 2342000   0.87986394   -7.0686129    657.62311  0.023399627  0.022999582            7 
 2343000   0.86288438   -7.0237638    656.92126  0.023364677  0.022992335            5 
 2344000   0.88198923   -7.0044666    661.51841  0.023518146  0.022985138            6 
 2345000   0.88107708   -7.0222609    659.56571  0.023438725  0.022977988            5 
 2346000   0.87902482   -7.0721173    659.98941  0.023443784  0.022970764            5 
 2347000   0.87231013   -7.0550174    659.69778   0.02342344  0.022963629            7 
 2348000   0.88250324   -7.0312653    660.50162  0.023441994  0.022956493            4 
 2349000   0.89015822   -7.0424938     659.4045  0.023393093  0.022949342            5 
 2350000   0.89495839   -7.0774903    657.49119   0.02331529  0.022942165           12 
 2351000   0.88104116   -7.0524754     661.0578  0.023431795  0.022934994           25 
 2352000    0.8731501   -7.0444883    658.55107  0.023333017  0.022927793            5 
 2353000   0.88796847   -7.0464747    659.81998   0.02336804  0.022920625            5 
 2354000   0.84000651   -7.0593049    660.93098  0.023397443  0.022913459            9 
 2355000   0.86995542     -7.04576    661.36748  0.023402954  0.022906276            5 
 2356000   0.87785949   -7.0809104    659.30389   0.02332003  0.022899037            6 
 2357000    0.8708102   -7.0935332    659.67987  0.023323429  0.022891745            8 
 2358000    0.8799506    -7.061748     660.5486   0.02334424  0.022884539           20 
 2359000    0.8553021   -7.0740236    660.23237  0.023323173  0.022877336            9 
 2360000   0.87593143   -7.0620366    662.11198   0.02337966  0.022870133           11 
 2361000   0.86065088   -7.0661037    661.08546  0.023333526  0.022863008            4 
 2362000   0.89362338   -7.0511874    662.04399  0.023357465   0.02285586            6 
 2363000   0.87619561   -7.0877733    660.57835  0.023295893  0.022848709            3 
 2364000   0.88315678   -7.0828676    660.53219  0.023284412  0.022841612            6 
 2365000   0.88901935   -7.0531599     661.5377  0.023309996  0.022834578           15 
 2366000   0.85741495   -7.0390083    662.98175  0.023351006  0.022827559            8 
 2367000   0.87512662   -7.0661226    660.34272   0.02324823  0.022820448           10 
 2368000   0.87010397   -7.0817747    662.00124  0.023296778  0.022813374           17 
 2369000   0.87071787   -7.1237138    659.64964  0.023204223  0.022806279            4 
 2370000   0.88290168   -7.0626134    663.73908  0.023338224  0.022799147            4 
 2371000   0.86263861   -7.0611952    662.32239  0.023278588  0.022792076            4 
 2372000   0.88479528   -7.0843871    662.14979  0.023262711  0.022785027           12 
 2373000   0.87831324   -7.0589419    664.37596  0.023331084  0.022777994           17 
 2374000   0.86514522   -7.0251837     663.8588  0.023303103   0.02277103           10 
 2375000   0.87812847   -7.0616991    664.76938  0.023325241  0.022764043           11 
 2376000   0.86708201   -7.0785199    663.06413  0.023255616  0.022756983            9 
 2377000   0.87391594   -7.0917031    663.10638  0.023247314  0.022749922            3 
 2378000   0.87374109   -7.0790689    663.97333  0.023267919  0.022742955            9 
 2379000   0.86677439   -7.0566602    663.62558  0.023245957  0.022735942            9 
 2380000   0.87750146   -7.0814671     662.6245  0.023201138  0.022728964            8 
 2381000   0.87744831   -7.0834814    662.59608  0.023190399  0.022722039            4 
 2382000   0.86554035   -7.0748888    662.56933  0.023179727   0.02271507            7 
 2383000   0.86875598   -7.0567833    665.56288  0.023274685  0.022708132            6 
 2384000   0.87262565   -7.0860184    664.79883  0.023238214    0.0227012            6 
 2385000   0.87216483   -7.0152956    668.19862  0.023347261  0.022694324            5 
 2386000   0.85463974     -7.02769     667.4287  0.023310586  0.022687524            5 
 2387000   0.87585435   -7.0335442    667.24996   0.02329458  0.022680713            9 
 2388000   0.88024395   -7.0606115    665.84075  0.023235649  0.022673845           12 
 2389000    0.8785522   -7.0888326    662.93007  0.023124392  0.022666916           17 
 2390000   0.88496795   -7.0666184    663.99207  0.023151746  0.022659927            4 
 2391000   0.85328453   -7.1034072    665.54085  0.023196043  0.022652982           16 
 2392000    0.8621349   -7.1289856    664.60112  0.023153606  0.022645992           10 
 2393000   0.86352957   -7.0934366    664.93308  0.023155491  0.022639043            8 
 2394000   0.85891985   -7.0792824    665.32535  0.023159473  0.022632094            9 
 2395000   0.86438133   -7.0459518    668.04198  0.023244328  0.022625178            7 
 2396000   0.87303423   -7.0745908    665.08239  0.023131691  0.022618234            4 
 2397000   0.86953804   -7.0632472    665.31251  0.023130042  0.022611297            5 
 2398000   0.86967597   -7.0284692    667.74373  0.023204883  0.022604396            5 
 2399000   0.87153655   -7.0869625    666.37608  0.023147703  0.022597501            6 
 2400000   0.86579007   -7.0699281    667.05273  0.023161553  0.022590617           10 
 2401000    0.8665964   -7.0738357    665.76551   0.02310723  0.022583682            5 
 2402000   0.89244848   -7.1129377    664.31726  0.023047365  0.022576712            6 
 2403000   0.87232799   -7.0724386    666.33576  0.023107773  0.022569778           13 
 2404000   0.86170249   -7.0848459    666.49846  0.023103801  0.022562829            8 
 2405000    0.8760437   -7.0961045    667.66128  0.023134487  0.022555881            7 
 2406000   0.87225541   -7.0797214    666.40842  0.023081477  0.022548987            6 
 2407000   0.86955177   -7.0870157    667.08434  0.023095289  0.022542103            8 
 2408000   0.86083579   -7.0883388    666.37477  0.023061142  0.022535166            7 
 2409000     0.846854   -7.0836388    668.72473   0.02313286  0.022528252            4 
 2410000   0.86903962   -7.0976526    667.72973  0.023088857  0.022521373            5 
 2411000   0.87260888   -7.0739481    668.93949  0.023121094  0.022514494           17 
 2412000   0.86148428   -7.0700919    667.71207  0.023069101  0.022507648            7 
 2413000   0.86536543   -7.0987066    666.75589  0.023026519  0.022500796           11 
 2414000   0.85882403    -7.104176    668.56214  0.023079334  0.022493864            8 
 2415000   0.86831004   -7.0952622    668.34215  0.023062186  0.022486931            5 
 2416000   0.85540438   -7.1094775    666.39392  0.022985441  0.022479988            8 
 2417000   0.88143748   -7.0712018    669.64151  0.023087902  0.022473097           15 
 2418000    0.8795032   -7.1006492     667.5509  0.023006303  0.022466199            5 
 2419000   0.86547824   -7.1017357    667.86356  0.023007564  0.022459259           17 
 2420000   0.86321633   -7.1230404     665.1932  0.022906102  0.022452288           13 
 2421000   0.87055858   -7.1092175    667.25025  0.022967446  0.022445313            5 
 2422000   0.85665285   -7.0971243    668.66092    0.0230065  0.022438382            8 
 2423000   0.86076584   -7.0991403    667.91465  0.022971339  0.022431473           11 
 2424000   0.88721337   -7.1309723    666.94762  0.022928617   0.02242451            5 
 2425000   0.86299988   -7.1255777    666.09069  0.022889715  0.022417545            6 
 2426000    0.8604151   -7.0981203    668.66954  0.022968863  0.022410643            7 
 2427000   0.86075847   -7.1055167    667.46976  0.022918204  0.022403736           10 
 2428000   0.85142718    -7.070356    668.46901  0.022943061  0.022396879            3 
 2429000   0.86488784   -7.1104041    669.40794  0.022965827  0.022389989            5 
 2430000   0.87657376   -7.1276484    667.47589   0.02289012  0.022383062            6 
 2431000   0.86237074   -7.1115612    666.57783  0.022849919  0.022376076            9 
 2432000   0.86901856   -7.0727344    669.69332  0.022947277  0.022369137            8 
 2433000   0.85601418   -7.0941095    668.49972  0.022896963  0.022362221            7 
 2434000   0.87518176   -7.0897695    668.90176   0.02290132  0.022355326           11 
 2435000   0.87370106   -7.1085363    668.35994  0.022873372  0.022348414            5 
 2436000   0.86205105   -7.0967781    667.93562  0.022849467   0.02234148            3 
 2437000   0.86953404   -7.0848499    669.83474  0.022905032  0.022334554            7 
 2438000   0.88967605   -7.0603457    668.74044  0.022858232  0.022327622           10 
 2439000   0.82272215   -7.0934289    668.25635   0.02283232  0.022320691           11 
 2440000    0.8655272   -7.0661418    670.95593  0.022915161   0.02231378            6 
 2441000   0.86202039    -7.119702    668.75616  0.022830676  0.022306872           11 
 2442000   0.86296169   -7.0768401    669.19884  0.022836433  0.022299969            6 
 2443000   0.87428897   -7.0973366    669.46888  0.022836297  0.022293024           10 
 2444000   0.85763203     -7.07139    671.43077  0.022893848  0.022286161           10 
 2445000   0.87027645   -7.1254022     669.2553  0.022810337   0.02227928           11 
 2446000   0.86362468   -7.1016741    669.14233  0.022797163  0.022272358            6 
 2447000   0.85593576   -7.0862479    669.41849  0.022797251  0.022265484           10 
 2448000   0.85183276   -7.1012375    669.88119   0.02280369  0.022258571            6 
 2449000   0.86370699   -7.0826333    669.44988  0.022779702  0.022251685            8 
 2450000   0.85055228   -7.1034713    669.35058  0.022767027  0.022244747            9 
 2451000   0.87408789   -7.0940362    669.52236  0.022763578  0.022237878            5 
 2452000   0.86245871   -7.0888101    669.84089   0.02276512  0.022231001            5 
 2453000   0.86659553   -7.1288134    670.02111  0.022761962  0.022224054            5 
 2454000   0.87534744   -7.1443151     669.2865   0.02272774  0.022217117            3 
 2455000   0.82080627     -7.13701    670.36751  0.022755177  0.022210189            5 
 2456000   0.84828548   -7.1185586    670.63736  0.022755068  0.022203247            6 
 2457000   0.86647617   -7.0855561    671.08138  0.022760866  0.022196326            8 
 2458000   0.84232704   -7.1041655    670.20667  0.022721951  0.022189428            7 
 2459000    0.8624325   -7.1007218    670.35847  0.022717855  0.022182508            9 
 2460000   0.84861743   -7.1421248    669.25944   0.02267139  0.022175552           22 
 2461000   0.86743561   -7.1404449    668.79245  0.022646365  0.022168547            6 
 2462000   0.83834104   -7.1425336    669.91393  0.022675126  0.022161535           19 
 2463000   0.86322231   -7.1318947    671.03609  0.022703887  0.022154555            4 
 2464000   0.85665128   -7.1165013     670.6862  0.022682839  0.022147567           11 
 2465000     0.838245    -7.116523    669.95411  0.022648888  0.022140558            7 
 2466000   0.87025442   -7.1371498    670.06873  0.022643577  0.022133552            7 
 2467000   0.87783109   -7.1323779    670.03807  0.022633363  0.022126589            6 
 2468000   0.84564574   -7.1229242    669.92741  0.022620455  0.022119643           12 
 2469000    0.8635603   -7.1177074    671.73703  0.022672372  0.022112669            8 
 2470000   0.83173385    -7.124106    669.74554  0.022596003  0.022105751           14 
 2471000   0.85783514   -7.1223193    672.49577  0.022679609   0.02209883           10 
 2472000   0.84785988   -7.0969025    671.08495  0.022622874  0.022091967           14 
 2473000   0.87308428    -7.147628    670.58092  0.022596742  0.022085097            6 
 2474000   0.86555754   -7.0891202    672.72033  0.022659672  0.022078242           21 
 2475000   0.85273743   -7.0971289    672.01856  0.022626888  0.022071386           21 
 2476000   0.84864309   -7.1267826      670.207  0.022556778  0.022064428           17 
 2477000   0.85590186   -7.1010002    672.22478  0.022615556  0.022057564            7 
 2478000   0.86220309   -7.1146853    672.12271  0.022602997  0.022050695            6 
 2479000    0.8584345   -7.1157924    674.35707  0.022668989  0.022043894            3 
 2480000   0.85064576   -7.1200277    671.94119  0.022578669  0.022037035            5 
 2481000   0.84951627   -7.0994241     672.2621  0.022580347  0.022030203            9 
 2482000    0.8842791   -7.1137096    674.06643   0.02263183  0.022023355           15 
 2483000   0.85268785   -7.1115066    674.52851  0.022638224  0.022016569            6 
 2484000   0.86624392   -7.1459792    671.72119   0.02253493  0.022009695           10 
 2485000   0.85939856   -7.1220029    671.43045  0.022516112  0.022002773            6 
 2486000   0.85142519   -7.1197969    672.70399  0.022549745  0.021995882           11 
 2487000   0.86058655   -7.1418488    673.07743  0.022553191  0.021989035           13 
 2488000   0.84574398   -7.1222372    674.64628  0.022596673  0.021982186            3 
 2489000   0.87134671   -7.1437269    672.21581  0.022506221  0.021975284           10 
 2490000   0.87410168   -7.1428139    672.55329  0.022508477  0.021968384            7 
 2491000   0.85253923    -7.126627    673.20893  0.022521375  0.021961507           12 
 2492000    0.8527772   -7.1193269    675.42641   0.02258649   0.02195467            5 
 2493000   0.86155777   -7.1174071    674.89415  0.022559639   0.02194783            6 
 2494000   0.85885597    -7.130367    673.27416  0.022496464  0.021940933           10 
 2495000   0.85864492   -7.1267039    671.91669  0.022442107  0.021934045            7 
 2496000   0.84004946   -7.1442111    672.60954  0.022456248  0.021927177           10 
 2497000   0.85876238   -7.1205022    672.53299    0.0224447  0.021920282            5 
 2498000   0.84294621    -7.104621    674.06011   0.02248666  0.021913454            7 
 2499000    0.8463556   -7.1273961    675.09261  0.022512092  0.021906601           18 
 2500000   0.84845427   -7.1414058    673.64593  0.022454864  0.021899754            4 
 2501000   0.86918166   -7.1575082    672.75189  0.022416097   0.02189287            6 
 2502000   0.82101334   -7.1517414    672.41433  0.022395894  0.021885939            6 
 2503000   0.83810121   -7.1486218    674.93782  0.022470962  0.021879057           11 
 2504000   0.84953686   -7.1302677    672.51012  0.022381194  0.021872177            7 
 2505000   0.86931422   -7.1140443    674.09912  0.022425121  0.021865276           10 
 2506000   0.86657007   -7.1531959    671.44583  0.022327941  0.021858389            7 
 2507000   0.85694441    -7.150685     672.9936  0.022370483  0.021851475           12 
 2508000   0.85478755    -7.120939    674.45697  0.022410186  0.021844549            6 
 2509000   0.83185506   -7.1214614    673.39227  0.022365892  0.021837673           12 
 2510000   0.85785942   -7.1192322    674.49915   0.02239373  0.021830865            6 
 2511000   0.85021526   -7.1343196    673.80843  0.022361889   0.02182402           11 
 2512000    0.8640542    -7.133211    673.24577  0.022334321   0.02181714           22 
 2513000    0.8552884   -7.1307971    673.91716  0.022347697  0.021810301           11 
 2514000   0.84215736   -7.1429459    673.75167  0.022333323  0.021803437            8 
 2515000   0.85841437   -7.1582489    672.27608  0.022275549  0.021796576           20 
 2516000   0.85168894   -7.1265358    673.52902  0.022308195  0.021789615           12 
 2517000   0.85674028   -7.1649169    673.99255  0.022314678  0.021782747           10 
 2518000   0.85391123   -7.1429542    673.31043  0.022283242  0.021775859            5 
 2519000      0.84401   -7.1259266    674.00526  0.022297382  0.021768968            5 
 2520000   0.85992461   -7.1444956     675.0408  0.022322778  0.021762051            9 
 2521000   0.84429217   -7.1374517    673.65198  0.022268015  0.021755165            8 
 2522000   0.85347596   -7.1032834    675.18544  0.022309855  0.021748362            7 
 2523000   0.85614048    -7.114114     673.9518  0.022260266  0.021741544            5 
 2524000   0.84176504   -7.1286748    675.40122  0.022299301  0.021734705            5 
 2525000   0.86176768   -7.1733391    674.46121  0.022259446  0.021727843            5 
 2526000   0.85350686   -7.1567046    673.34811  0.022213912  0.021720965            5 
 2527000   0.83938041   -7.1631726    674.62561   0.02224725  0.021714033           15 
 2528000   0.85556909    -7.146262    675.33901  0.022261966  0.021707148           12 
 2529000   0.86034221   -7.1322208    674.17278  0.022214735  0.021700238            5 
 2530000   0.86464744   -7.1448086     673.7965   0.02219356  0.021693384            3 
 2531000   0.84347547   -7.1450218    674.77772  0.022217099  0.021686491            9 
 2532000   0.83715058   -7.1586019    676.09347  0.022251628  0.021679594            5 
 2533000   0.84448164   -7.1737266    673.32865  0.022151883  0.021672674            6 
 2534000   0.85420804   -7.1685439    675.85003   0.02222606  0.021665775            4 
 2535000   0.84639671   -7.1447523    673.39965  0.022136741  0.021658916           10 
 2536000   0.83652552   -7.1518843    674.60943  0.022167765  0.021652026            5 
 2537000   0.84857861   -7.1237275    676.00268  0.022204792  0.021645178            5 
 2538000   0.87331957   -7.1308694    675.93259  0.022193741  0.021638385            7 
 2539000   0.85309285    -7.155887     676.1643  0.022192605  0.021631586           11 
 2540000    0.8292078   -7.1345754     676.0545  0.022180266  0.021624759            8 
 2541000   0.85784963   -7.1618495    675.06295  0.022139019  0.021617918           10 
 2542000   0.86705081   -7.1311906    675.89517  0.022157591  0.021611091           11 
 2543000   0.85278576   -7.0918574      679.208  0.022257439  0.021604322            7 
 2544000   0.84352574   -7.1306258    678.49118  0.022225209  0.021597561           24 
 2545000   0.83786886   -7.1525857    676.99495  0.022167484  0.021590802            5 
 2546000   0.84528467   -7.1699759    676.62544  0.022146683  0.021583977            9 
 2547000   0.83322721    -7.159667    676.45671  0.022132467  0.021577173            7 
 2548000   0.83937377   -7.1718134     677.7758  0.022166922  0.021570436            7 
 2549000   0.85339827    -7.132578      678.876  0.022194194  0.021563617            6 
 2550000   0.84752079    -7.186518    677.31543  0.022134491   0.02155683           10 
 2551000   0.86039307   -7.1445188    679.47309  0.022196299  0.021550018            8 
 2552000   0.83933207   -7.1796519    676.66895  0.022096034  0.021543164           11 
 2553000   0.83594555   -7.1664887    675.47702  0.022048473  0.021536251           11 
 2554000   0.84663919   -7.1779082    675.78324  0.022049832  0.021529319           11 
 2555000   0.84965519   -7.1520514    677.19958  0.022087397  0.021522426            6 
 2556000   0.83954953    -7.171031    677.19383  0.022078568  0.021515581            6 
 2557000   0.83058174   -7.1717665    677.08319  0.022066327  0.021508772            8 
 2558000   0.84294685    -7.196166    675.56759  0.022008326  0.021501892            8 
 2559000   0.83069887   -7.1411851    676.52551  0.022030921  0.021495032           12 
 2560000   0.82246084   -7.1519053    677.48605  0.022053582  0.021488235            7 
 2561000   0.84974278    -7.169337    678.65222  0.022082917  0.021481447           16 
 2562000   0.85458186   -7.1575126    675.83196  0.021982564  0.021474631            7 
 2563000   0.86274407   -7.1371089    677.69327  0.022034506  0.021467845            7 
 2564000   0.83963786    -7.184251    676.57068  0.021989427  0.021461038            5 
 2565000    0.8283398   -7.1921904    677.16983  0.022000319  0.021454195            6 
 2566000   0.85233753   -7.1818181    678.51181  0.022035328  0.021447365            9 
 2567000   0.84213073   -7.1720802    676.78752  0.021970767   0.02144053            6 
 2568000   0.86173795   -7.2214484    676.60851  0.021956403  0.021433645            5 
 2569000   0.84730705   -7.2143662    677.42632  0.021974384  0.021426771           13 
 2570000   0.83544509   -7.1819058    677.07651  0.021954491   0.02141989            7 
 2571000   0.81430424   -7.1551146    678.42116  0.021989536  0.021413104           10 
 2572000    0.8275856   -7.1630611    677.44157  0.021949247  0.021406381            8 
 2573000   0.85416386   -7.1403762    678.84879  0.021986293  0.021399647            9 
 2574000   0.84103885   -7.1621766    677.94384  0.021948454  0.021392925            8 
 2575000   0.84632737   -7.1510394    679.31335  0.021984251  0.021386153            7 
 2576000   0.82269755   -7.1699309    678.95774  0.021964213  0.021379435           10 
 2577000   0.84371042   -7.1511826    679.28571  0.021966295  0.021372697            5 
 2578000    0.8366789   -7.1797255     678.7118  0.021939223  0.021365956            6 
 2579000   0.84365518   -7.1484296    678.37306  0.021919771  0.021359188           12 
 2580000   0.83882306   -7.1989299    678.14029  0.021903756  0.021352399           11 
 2581000   0.82511314   -7.1658835     678.8842  0.021919288  0.021345613            7 
 2582000   0.84945675   -7.2215433    677.17656  0.021855686   0.02133879           14 
 2583000   0.83358266   -7.1327949    678.75631   0.02189819  0.021331978            6 
 2584000   0.84931005   -7.1902303    678.73121  0.021888906  0.021325172            6 
 2585000   0.84712762   -7.1883991     679.7827  0.021914336  0.021318413           11 
 2586000   0.84027018   -7.2084605    679.23951  0.021888358  0.021311682           10 
 2587000   0.84212823   -7.1897623    677.56112  0.021825832  0.021304933            8 
 2588000   0.83108439   -7.1645834    681.30637  0.021937995   0.02129817            4 
 2589000   0.83574412    -7.151942    680.53259  0.021904615   0.02129144           12 
 2590000   0.82828943   -7.1821442    678.58738  0.021833571   0.02128468           19 
 2591000   0.82837004   -7.1367846    682.80245  0.021960712  0.021277969           11 
 2592000   0.84490263   -7.1456376    681.36996  0.021906184  0.021271266            5 
 2593000   0.84746037   -7.1618198    679.72488  0.021844867  0.021264576           15 
 2594000   0.82981878   -7.1856383    679.39862  0.021825964  0.021257872           14 
 2595000   0.83688962   -7.1937624    680.17993  0.021842644  0.021251158           11 
 2596000    0.8303741   -7.1864349    680.13554  0.021832805  0.021244386            6 
 2597000   0.82852908   -7.1897247    679.50753  0.021804246  0.021237624           29 
 2598000   0.82960472   -7.1684714    678.54643  0.021765025  0.021230864            7 
 2599000   0.85093382   -7.1562195    679.97081  0.021802322  0.021224188            5 
 2600000   0.81349576   -7.1648756    683.35736   0.02190248  0.021217501            5 
 2601000   0.84953098   -7.1370265    681.16607  0.021823852  0.021210829            9 
 2602000    0.8345441   -7.1464058    682.93164   0.02187201  0.021204154            6 
 2603000   0.84737442   -7.2134358    679.49367  0.021753543  0.021197429            5 
 2604000   0.84833474    -7.170372    681.20702   0.02180002  0.021190713            4 
 2605000    0.8274336    -7.163183    681.62901  0.021805151  0.021183986            7 
 2606000   0.85894503    -7.163224    680.26235  0.021753081  0.021177316           18 
 2607000   0.84530424   -7.2194707    680.45386  0.021750859   0.02117061            7 
 2608000   0.82837321   -7.1857104      681.654  0.021780866  0.021163862            7 
 2609000    0.8196936   -7.2337267    679.03524  0.021688873  0.021157052           16 
 2610000   0.83901594   -7.1816962    681.02643  0.021744139   0.02115027            5 
 2611000   0.84065759   -7.1991233     680.5265  0.021719855  0.021143504           12 
 2612000   0.83136685   -7.1838566    681.56037  0.021744524  0.021136768           11 
 2613000   0.81306577   -7.2392321    680.11669  0.021690161  0.021130004           10 
 2614000   0.83652965   -7.2338743    679.99977  0.021678136  0.021123232            6 
 2615000   0.83157336   -7.2006316    681.67492  0.021723229  0.021116452            9 
 2616000   0.82935178   -7.1871817     680.4465  0.021675793  0.021109677           20 
 2617000    0.8212614   -7.2161428    680.83567  0.021679903   0.02110291           11 
 2618000   0.82872408   -7.2089426    679.39969  0.021625913  0.021096154           19 
 2619000   0.82485038   -7.1939083    680.68942  0.021658694  0.021089426           21 
 2620000   0.81737127   -7.1722102    682.24076   0.02169977  0.021082693           12 
 2621000   0.82895628   -7.2097217    681.07388   0.02165439  0.021075992            8 
 2622000   0.83233022   -7.1789031    682.53529  0.021692578  0.021069313            5 
 2623000   0.82926737   -7.1944826    680.23309  0.021611167  0.021062582           13 
 2624000   0.84222449   -7.1995879    680.58894  0.021614232  0.021055861            9 
 2625000   0.83685332   -7.2268565    679.63495  0.021575713   0.02104907           14 
 2626000   0.81897001   -7.1888364    681.79046  0.021635899  0.021042322           10 
 2627000   0.81259143    -7.199229    681.26229  0.021610909  0.021035601           11 
 2628000   0.82770569   -7.1955905    682.08411  0.021628745  0.021028888           12 
 2629000    0.8327201   -7.2067052    682.26603  0.021626285  0.021022168            5 
 2630000   0.83894421   -7.2364411    681.17818  0.021583592  0.021015421            6 
 2631000   0.81562866   -7.2098861    680.89932  0.021566557  0.021008691            8 
 2632000   0.84719698   -7.1966801    681.44369  0.021575598  0.021001962            4 
 2633000   0.82108896   -7.2394574    680.11906   0.02152548    0.0209952           10 
 2634000   0.84787862   -7.1994825     681.7519  0.021568967  0.020988503           10 
 2635000   0.84265032    -7.206624    682.44938  0.021582839  0.020981788           12 
 2636000   0.84724799   -7.2143294    682.55301  0.021577928  0.020975072           16 
 2637000   0.83651654   -7.1907169     682.9792  0.021583213  0.020968381            7 
 2638000   0.83415987   -7.2295671    683.18756  0.021581614  0.020961696           11 
 2639000   0.81462122    -7.179814    682.67924  0.021557384  0.020955019           10 
 2640000   0.82792332   -7.1967632     683.6357   0.02157941  0.020948344            8 
 2641000   0.82097659     -7.23391    683.39195  0.021563548  0.020941626            9 
 2642000   0.83326652   -7.2046511     681.7374  0.021503198  0.020934906           16 
 2643000   0.85710438   -7.2189733    681.62936  0.021491656  0.020928196            4 
 2644000   0.82978635   -7.1761532    684.75781   0.02158213   0.02092148            6 
 2645000   0.84288274     -7.14421    684.43579  0.021563825  0.020914826           12 
 2646000   0.81576813   -7.1654716    684.81493  0.021567616   0.02090815            5 
 2647000   0.82829539   -7.1951636    681.83726  0.021465724  0.020901496            9 
 2648000   0.83408568   -7.1999013    682.65284  0.021483284  0.020894877           12 
 2649000   0.83109844   -7.2001877    683.16938  0.021491424  0.020888231            7 
 2650000   0.81368669    -7.215164    683.41959  0.021491182  0.020881572           12 
 2651000   0.83669814   -7.2145129    682.82618  0.021464422  0.020874896            5 
 2652000   0.81004189   -7.1854131    683.74113  0.021485078  0.020868238           11 
 2653000   0.82390318   -7.2134524    682.34846  0.021433235  0.020861569           10 
 2654000   0.83989486   -7.2270266    682.61094    0.0214334  0.020854923           13 
 2655000   0.81844273   -7.1976956     684.4496  0.021483038  0.020848317           11 
 2656000    0.8054988   -7.1981456    684.15124  0.021465589  0.020841678           23 
 2657000    0.8133349   -7.1962062      683.675  0.021442573  0.020835024           18 
 2658000   0.82122161   -7.2086394     684.3672  0.021456208  0.020828326            9 
 2659000   0.82579761   -7.2449364    683.00223   0.02140536  0.020821628           46 
 2660000   0.82491244   -7.1995123    682.32356  0.021376051  0.020814917           29 
 2661000   0.81553782   -7.2264782    682.66407  0.021378682  0.020808267           42 
 2662000   0.82219149   -7.2146251    683.58983  0.021399632  0.020801587           11 
 2663000   0.83433297   -7.2164934    684.99181  0.021435468  0.020794964           15 
 2664000   0.82283793   -7.2317446    683.43402  0.021378692  0.020788318            5 
 2665000   0.83736651   -7.1973733    684.60923  0.021407418  0.020781629           13 
 2666000   0.82337803   -7.2472268    683.98419  0.021379851  0.020774959            8 
 2667000   0.82767323   -7.2258005    683.13077  0.021345168  0.020768252            8 
 2668000   0.82477875   -7.2176382    683.96501  0.021363225  0.020761595            8 
 2669000   0.83118811   -7.2111285    685.03587  0.021388656  0.020754917            6 
 2670000   0.81886018   -7.2275508    684.89428  0.021376226  0.020748287           20 
 2671000    0.8426415   -7.2000811    685.90316  0.021399699  0.020741691            6 
 2672000   0.82938229   -7.2017257    684.79303  0.021357068  0.020735095           17 
 2673000   0.80983203   -7.2405159    682.54284  0.021278926  0.020728497           10 
 2674000   0.82240066   -7.2189951    683.40058  0.021297699    0.0207219            6 
 2675000   0.80180343   -7.2365575      684.899  0.021336417  0.020715286            9 
 2676000   0.82320766   -7.1996448    685.48254  0.021346616  0.020708603            9 
 2677000   0.84461399   -7.2382011    684.20757  0.021298953  0.020701983            9 
 2678000   0.81409516   -7.2178805    684.32179  0.021294554  0.020695346           14 
 2679000   0.80849395    -7.238778    685.17091  0.021313018   0.02068874            7 
 2680000   0.82133403   -7.2461637    684.84613  0.021294967  0.020682105            8 
 2681000   0.81572176   -7.2322928    684.49672  0.021276163  0.020675507            8 
 2682000   0.81930079    -7.246667    686.57509  0.021332808  0.020668895            5 
 2683000   0.82521055   -7.2216166    685.93299  0.021304913  0.020662326            7 
 2684000   0.82252442   -7.2219452    685.80122  0.021292884  0.020655757           22 
 2685000   0.81854395   -7.1933135    686.68703  0.021312446  0.020649192            6 
 2686000   0.81793558   -7.2128344    687.36858  0.021325657  0.020642645            6 
 2687000   0.81750668   -7.2436843     683.7771  0.021206336  0.020636084           14 
 2688000   0.83447285   -7.2037769    686.23574   0.02127467  0.020629513           14 
 2689000   0.82494354   -7.2127776    686.54289  0.021276277  0.020622996            8 
 2690000   0.83684441   -7.1874678    686.91825  0.021279995  0.020616462           16 
 2691000   0.81947829   -7.1969748     686.6409  0.021263499  0.020609963           21 
 2692000   0.81518364   -7.2472993    685.70821  0.021226728  0.020603454           16 
 2693000   0.82693484   -7.2242727    687.19322  0.021264798   0.02059691           11 
 2694000   0.81670933   -7.2045465    689.37094  0.021324268  0.020590448           16 
 2695000   0.81299247   -7.1803447    687.20453  0.021249367  0.020583984           14 
 2696000   0.82111689   -7.2129165    687.37727  0.021246825  0.020577502            8 
 2697000   0.82962523   -7.2188034    687.77628  0.021251275  0.020571044           11 
 2698000   0.80741828   -7.2115279    688.53249  0.021266756  0.020564616           15 
 2699000   0.81618315   -7.1955229     688.4626  0.021256719  0.020558218           11 
 2700000   0.81508749   -7.2159504    690.06349  0.021298256  0.020551819           18 
 2701000   0.82438453   -7.2166618    689.74709  0.021280609  0.020545386           16 
 2702000   0.83477804   -7.2100218    687.35843  0.021199063  0.020538923           19 
 2703000   0.84065357   -7.2341121    687.70594  0.021201934  0.020532458           13 
 2704000   0.79746029   -7.2215058     688.8178  0.021228359  0.020525999           11 
 2705000   0.80584396   -7.2404504     686.6556    0.0211539    0.0205195            9 
 2706000   0.81608947   -7.2524562    686.42298  0.021138919  0.020513048           19 
 2707000   0.79875013   -7.2589172     687.0715  0.021151074  0.020506573           10 
 2708000   0.81186161   -7.2535811    688.26876  0.021180107  0.020500109           17 
 2709000   0.81245177   -7.2737504    687.58068  0.021151122  0.020493672           10 
 2710000   0.83013778   -7.2667245    687.14564   0.02112994  0.020487195            9 
 2711000   0.81962879   -7.2302802    689.44479  0.021192819  0.020480713            8 
 2712000   0.80749764   -7.2528969    686.62956  0.021098499  0.020474229            5 
 2713000    0.8151213   -7.2510759    689.33232  0.021173741  0.020467737            7 
 2714000   0.81945013      -7.2427    688.72495   0.02114729  0.020461243            8 
 2715000   0.80744686    -7.240631    688.37763  0.021128841  0.020454751           14 
 2716000   0.82302323   -7.2626088    688.14147  0.021113815  0.020448281           11 
 2717000   0.80808094   -7.2385135    688.35265  0.021112521  0.020441802            9 
 2718000     0.825709   -7.2362988    690.71754  0.021177261  0.020435357           16 
 2719000   0.84129261   -7.2138455     690.0454  0.021148872  0.020428891           13 
 2720000    0.8207229   -7.2515033    689.78382  0.021133083  0.020422471            6 
 2721000   0.82549155   -7.2369352    689.64818  0.021121162  0.020416011            8 
 2722000   0.81671393    -7.265972     688.2283  0.021069933  0.020409517           24 
 2723000   0.80347723   -7.2406349    689.42401  0.021098788  0.020403011           12 
 2724000   0.82351042   -7.2751502    687.75842  0.021040089  0.020396492            7 
 2725000   0.83158514   -7.2778584    688.44639  0.021053406  0.020389981            7 
 2726000   0.78738557   -7.2446414    688.91294  0.021059946  0.020383462            6 
 2727000   0.80722794    -7.212521    690.61363  0.021104194  0.020376991            5 
 2728000   0.82865194   -7.2715803     689.1098  0.021050519   0.02037053           12 
 2729000   0.80558456   -7.2630886    687.54081  0.020994895   0.02036402           15 
 2730000   0.81341949   -7.2407359    689.07835  0.021034138   0.02035754           17 
 2731000   0.82294542   -7.2356127    690.80741  0.021079196  0.020351116           11 
 2732000   0.81721738   -7.2354571    688.75105  0.021008756  0.020344695            5 
 2733000   0.81710063   -7.2657841    688.23792  0.020985423  0.020338218           17 
 2734000   0.79365682   -7.2811132    688.03361  0.020971519  0.020331724            9 
 2735000     0.805137   -7.2754129    687.48472  0.020947127  0.020325192            9 
 2736000   0.83722612   -7.2659903     688.2665  0.020963283  0.020318699            9 
 2737000   0.82467326   -7.2517364    690.23971  0.021015702  0.020312221           12 
 2738000    0.8140589   -7.2792116    688.49864  0.020955035   0.02030577           13 
 2739000   0.81269868   -7.2338943    690.89806  0.021020386  0.020299288            5 
 2740000   0.80865081   -7.2372913    690.09599  0.020988321   0.02029283           10 
 2741000   0.80434192   -7.2405148     689.4562  0.020961213  0.020286355            8 
 2742000   0.80717599   -7.2752135    689.24459  0.020947137  0.020279898           15 
 2743000   0.83043341   -7.2477127    689.90451  0.020959549  0.020273401           11 
 2744000    0.8296645   -7.2400981    689.43049  0.020937515  0.020266899           16 
 2745000   0.80924196   -7.2610266    690.86447  0.020973421  0.020260453           16 
 2746000   0.82246426   -7.2525398    690.34732  0.020950089  0.020254034            8 
 2747000   0.82142231   -7.2307143    689.91046  0.020929209  0.020247628           14 
 2748000   0.82263797   -7.2337818    690.49571  0.020939341  0.020241212           29 
 2749000   0.82761053   -7.2498205    689.97083  0.020915813  0.020234801           21 
 2750000   0.80901338   -7.2588356    688.82351   0.02087344  0.020228371            9 
 2751000   0.81948439   -7.2733058    689.97362  0.020900691  0.020221947           16 
 2752000   0.79518279   -7.2576971    691.83518  0.020949467  0.020215556           13 
 2753000   0.80479409   -7.2874877      690.156  0.020891028  0.020209098           49 
 2754000   0.78886631   -7.2350436    692.45098  0.020952886  0.020202703           19 
 2755000   0.80701013   -7.2433949    691.50846  0.020916771  0.020196342           38 
 2756000   0.81850683   -7.2138754    693.52443  0.020970139  0.020189989            9 
 2757000   0.81287575   -7.2165962    692.60875  0.020934855  0.020183639           20 
 2758000   0.80814828   -7.2512854    690.65202  0.020868142  0.020177279           10 
 2759000   0.80506933   -7.2814501    689.30647  0.020819937  0.020170865           15 
 2760000   0.79607366   -7.2490331    691.76485   0.02088662  0.020164446           13 
 2761000    0.8076865   -7.2447672    689.98745  0.020825409  0.020158027           18 
 2762000   0.80947044   -7.2588585    691.01892   0.02084899   0.02015159           17 
 2763000   0.78910592    -7.265527     690.5452  0.020827157  0.020145172            8 
 2764000   0.80743968   -7.2553347    691.78698  0.020857061  0.020138767            8 
 2765000   0.80250404   -7.2474065    692.58888  0.020873685  0.020132386           11 
 2766000   0.81739448   -7.2667545    690.10447  0.020791289  0.020126002           15 
 2767000   0.80222461   -7.2668778    690.98171  0.020810195  0.020119593            8 
 2768000   0.80388416   -7.2599282    692.42887  0.020846245   0.02011323            6 
 2769000   0.82093021   -7.2867416    691.59184  0.020813526  0.020106837            5 
 2770000    0.8095846   -7.2512147     691.3366  0.020798333  0.020100442           15 
 2771000   0.79906624   -7.2843573    692.27823  0.020819145   0.02009401           14 
 2772000   0.81869772   -7.2496303    691.97296  0.020802458  0.020087565           32 
 2773000   0.81081133   -7.2588471    690.45175  0.020749241  0.020081121           20 
 2774000   0.80028377   -7.2958312    690.64741  0.020747639  0.020074707            9 
 2775000   0.79247383   -7.2591197    691.69667  0.020771672  0.020068281            9 
 2776000   0.79901807   -7.3120257    690.83881  0.020738437  0.020061886            5 
 2777000   0.80450824   -7.3192405    691.41212  0.020748173  0.020055477           12 
 2778000   0.81789283   -7.2980064    690.86358  0.020724249  0.020049072           12 
 2779000   0.81370493   -7.2790968    691.17373  0.020726092  0.020042673           12 
 2780000   0.81467634   -7.2833554    691.57127  0.020730554  0.020036327           18 
 2781000    0.8091402   -7.2828714    692.06633  0.020737934  0.020029921           13 
 2782000    0.8079445   -7.2904186    692.73013  0.020750363  0.020023541           12 
 2783000   0.81563054   -7.2501427    693.12839  0.020754833  0.020017177           14 
 2784000   0.80589489   -7.2636344    691.39977  0.020695635  0.020010769           13 
 2785000   0.79810248   -7.3083012    691.50582  0.020691377  0.020004348           52 
 2786000   0.80764296   -7.2762542    692.10295  0.020701811  0.019997889           22 
 2787000    0.8205288   -7.3029778    691.81581  0.020685798  0.019991479           51 
 2788000   0.79623708   -7.2974769    692.32879  0.020693711  0.019985046           39 
 2789000   0.78910558   -7.3116851    690.70706  0.020637835  0.019978642           40 
 2790000   0.79770901   -7.3122244    690.82586  0.020633986  0.019972247           41 
 2791000   0.78529129   -7.2769014    692.49241  0.020676353  0.019965858           39 
 2792000   0.81499027   -7.2632144    693.02084   0.02068472  0.019959491           46 
 2793000   0.81713872   -7.2681269    692.77836  0.020670079  0.019953127           49 
 2794000   0.79931327    -7.280802    691.80936  0.020633779   0.01994673           36 
 2795000   0.81238318   -7.2840363      691.621  0.020620781  0.019940333           38 
 2796000   0.82190771   -7.2887698     693.5539  0.020671015  0.019933918           33 
 2797000   0.80924982   -7.2975724    691.12209  0.020591172  0.019927482           62 
 2798000   0.79675164   -7.2835292    694.88146  0.020695778  0.019921072           77 
 2799000   0.81485869   -7.3053085    693.71045  0.020653521  0.019914695           22 
 2800000   0.80262812   -7.2723673    693.66906  0.020644913  0.019908323           42 
 2801000   0.79866845   -7.2996065    692.65764  0.020607451  0.019901919           30 
 2802000    0.8164351   -7.3074591    691.60022  0.020568648  0.019895532            5 
 2803000    0.8133763    -7.319031    692.86975  0.020599053  0.019889131           14 
 2804000   0.80438975   -7.2754989    693.51286   0.02061082  0.019882763            7 
 2805000   0.81121806   -7.2942062    692.66911  0.020578405  0.019876399            6 
 2806000   0.80068953   -7.3108694    691.53104  0.020537273  0.019870019            9 
 2807000   0.80805963   -7.3056462    693.85145  0.020598844  0.019863624           16 
 2808000   0.80336242   -7.2886213    691.81004  0.020530925  0.019857217            9 
 2809000   0.81699585   -7.3326874    692.66051  0.020548846  0.019850795           12 
 2810000   0.80483337   -7.2940767    691.83412  0.020517026  0.019844408           12 
 2811000   0.78885013   -7.2995676    690.67422  0.020475342  0.019838021            9 
 2812000   0.78838745   -7.2834456    694.42517  0.020579219  0.019831653            9 
 2813000   0.81965186   -7.2993772    692.25934  0.020507742   0.01982528            6 
 2814000   0.80391844   -7.2906372    692.56293  0.020509445  0.019818909           11 
 2815000   0.81686158   -7.3043225    692.15469  0.020490074  0.019812518            7 
 2816000   0.80179394   -7.3100135    693.34022   0.02051788   0.01980613            8 
 2817000   0.79787816   -7.3027931    692.05862  0.020472684   0.01979977            9 
 2818000   0.79231069    -7.279231    692.48758  0.020478104  0.019793412           11 
 2819000   0.79738353   -7.2885369    693.97888  0.020514925   0.01978705           17 
 2820000   0.79999292   -7.3057099    693.64302  0.020497725  0.019780705           13 
 2821000   0.79410651   -7.2760595     693.3826  0.020482766  0.019774353           26 
 2822000   0.80251198   -7.2807318    694.40506  0.020505701  0.019768015           11 
 2823000   0.78272447   -7.3061641    692.39112  0.020438987  0.019761656           15 
 2824000   0.78547453   -7.3002341    694.12625  0.020482951  0.019755331           13 
 2825000   0.81644591    -7.289593     693.9911  0.020471714   0.01974898           11 
 2826000   0.80671526   -7.3114289    694.49899  0.020479447  0.019742596           20 
 2827000   0.81307534   -7.3118156    691.98799  0.020398184  0.019736213           10 
 2828000   0.79725843   -7.3066224    694.06437  0.020452156   0.01972987            9 
 2829000   0.79562286   -7.3019961    692.00245  0.020384189  0.019723504           13 
 2830000   0.78977425   -7.2627063    692.82479  0.020401201  0.019717181           22 
 2831000   0.81319539   -7.2452086     695.0352   0.02045906  0.019710884           17 
 2832000    0.7989333   -7.2845847    692.76444  0.020385018  0.019704563           17 
 2833000    0.7881083   -7.3146955     695.0901  0.020446232  0.019698236            9 
 2834000   0.78963292   -7.3056312    693.94686  0.020405401  0.019691881           19 
 2835000   0.80090609   -7.2986396    694.64012  0.020418581  0.019685516           27 
 2836000   0.79539425   -7.2891097    694.90339  0.020419117  0.019679181           20 
 2837000   0.79697113   -7.2775285    693.31829  0.020365359  0.019672878           17 
 2838000   0.80227133   -7.2979782    694.36468  0.020388909   0.01966652           30 
 2839000   0.80438697   -7.2971397    694.56716  0.020387671  0.019660161           25 
 2840000   0.79237611    -7.313461    694.38078  0.020375023  0.019653844           16 
 2841000   0.80335198   -7.2622793    696.04528  0.020416675  0.019647539            6 
 2842000   0.79790172    -7.288632    695.27825     0.020387  0.019641219            9 
 2843000   0.80458039   -7.3187606    694.12776  0.020346106  0.019634913           13 
 2844000   0.79931119    -7.275369    695.18296  0.020369871  0.019628628           10 
 2845000   0.77763263   -7.3153527    693.98642  0.020327663  0.019622333           16 
 2846000   0.79452945   -7.2706365    696.52255  0.020394781  0.019616062           13 
 2847000   0.80976464   -7.2822669     694.9261  0.020340888  0.019609784            9 
 2848000   0.80184608    -7.255757    695.99965  0.020365158  0.019603534            8 
 2849000   0.79983881   -7.3003211    695.20639  0.020334807  0.019597226           17 
 2850000      0.78735   -7.3078454    694.16888  0.020297336  0.019590942           17 
 2851000   0.79759348   -7.2945352    693.53667  0.020271737  0.019584628           13 
 2852000   0.80165174     -7.30936    693.32158  0.020258344  0.019578308           18 
 2853000   0.80332727   -7.3072144    694.14974  0.020275433  0.019572038           23 
 2854000   0.78826994   -7.3160875    695.59351  0.020310485  0.019565732            9 
 2855000   0.79160881   -7.3126616    695.76314  0.020308323  0.019559445            9 
 2856000   0.80651433    -7.303348    695.36922  0.020289718  0.019553148            9 
 2857000   0.80403548   -7.2835528    694.87711  0.020268263  0.019546846           25 
 2858000   0.77040503   -7.2652119    695.91305  0.020291377  0.019540536            6 
 2859000   0.81126534   -7.3029402    695.70352  0.020278172  0.019534282           14 
 2860000   0.81200777   -7.3185015    694.35036  0.020231654   0.01952801           14 
 2861000   0.77967792   -7.2766217    694.92299  0.020241261   0.01952172           10 
 2862000    0.7796617   -7.2879601    695.81617  0.020260196  0.019515456           20 
 2863000    0.8016872   -7.2891128    696.66649   0.02027787  0.019509173           10 
 2864000   0.80687417   -7.2991673    696.14162  0.020255517  0.019502925            9 
 2865000   0.80526581    -7.329214    695.35791  0.020225652  0.019496668            6 
 2866000   0.77953705   -7.2973206    696.51264   0.02025217  0.019490365            8 
 2867000   0.78944764   -7.3193307     696.6312  0.020248552  0.019484065           12 
 2868000   0.79140428   -7.2896223    694.28589  0.020173346  0.019477795            7 
 2869000   0.79584263   -7.2706513     697.3568  0.020255513  0.019471557           10 
 2870000   0.78839134   -7.3039033     695.8861  0.020205752  0.019465314           11 
 2871000   0.79576601   -7.3186249    695.89088  0.020198853  0.019459061            8 
 2872000    0.7890611   -7.3069727    695.14813  0.020170268  0.019452768            8 
 2873000   0.79396606   -7.3012389    696.27598  0.020195962  0.019446508           11 
 2874000   0.78921471   -7.3137346    695.12708  0.020155622  0.019440266           16 
 2875000   0.79080675   -7.3135656    696.99619  0.020202788  0.019434026           10 
 2876000   0.80317209   -7.3259387    694.60941  0.020126605  0.019427748           18 
 2877000   0.76649733   -7.2966339    695.51431  0.020145821  0.019421483            8 
 2878000   0.78800426   -7.3230406    695.30364  0.020132721  0.019415193            8 
 2879000   0.77982451   -7.2751593    697.62166  0.020192823  0.019408938           11 
 2880000   0.78658031   -7.3254227    695.13006  0.020113717  0.019402663           11 
 2881000   0.79512489   -7.3417848    695.59471  0.020120176  0.019396374           13 
 2882000   0.79416628   -7.3137916    696.47047  0.020138517  0.019390074           12 
 2883000   0.78789332   -7.2782093    697.05979  0.020148566  0.019383836            7 
 2884000   0.79272607   -7.2954702     697.6991  0.020160053  0.019377582           10 
 2885000   0.77962801   -7.2956029    698.16824  0.020166616  0.019371336           11 
 2886000   0.79248288   -7.2909893     697.2072  0.020131878  0.019365077           14 
 2887000   0.78105623   -7.3366485    694.53701   0.02004783  0.019358807           13 
 2888000   0.79085742   -7.3104889     696.3603  0.020093499  0.019352512           17 
 2889000   0.77517802   -7.3182952    695.08662  0.020049804  0.019346201           21 
 2890000    0.8038356   -7.3182853    695.57412  0.020056924  0.019339905           29 
 2891000   0.77932517   -7.3026981     696.7098  0.020082722  0.019333623           13 
 2892000   0.80153951   -7.2947617    695.82246  0.020050209  0.019327336           32 
 2893000   0.79136921   -7.3068867    695.02649  0.020020351  0.019321053            7 
 2894000   0.79250078   -7.3310416    695.31296  0.020021682   0.01931476            6 
 2895000   0.78525164   -7.3235618     694.0365  0.019978023  0.019308459           14 
 2896000   0.79536979     -7.35145    696.45336   0.02004067  0.019302123           15 
 2897000   0.77881997   -7.3412913    694.17913  0.019968333  0.019295767           41 
 2898000   0.77977633    -7.361989    694.69123  0.019976168  0.019289434           56 
 2899000   0.78773504    -7.389318    693.57558  0.019937208  0.019283089           44 
 2900000   0.79004529    -7.359543     696.7468   0.02002146  0.019276746           58 
 2901000   0.78926345   -7.3198982    696.05479   0.01999468   0.01927046           48 
 2902000   0.77754249   -7.3466115    696.43914  0.019998827   0.01926415           46 
 2903000   0.78985501   -7.2858896    697.10922  0.020011173  0.019257873           47 
 2904000   0.79120066   -7.3388092    694.13618  0.019918967  0.019251607           68 
 2905000   0.78438927   -7.3135396    696.92301  0.019992054  0.019245333           75 
 2906000   0.77444408   -7.3233649    695.91957    0.0199564  0.019239054           73 
 2907000   0.78443777   -7.3270514    695.55696   0.01993914  0.019232747           93 
 2908000   0.77847228   -7.3748136    693.86065  0.019883673  0.019226413           62 
 2909000   0.79496914   -7.3419805    695.20958   0.01991548  0.019220075           49 
 2910000   0.78289224    -7.330497    695.45936  0.019915789  0.019213753           47 
 2911000   0.78423366   -7.3272143    694.89695  0.019892848  0.019207434           62 
 2912000   0.79447722   -7.3090576    695.80935  0.019912127  0.019201144           88 
 2913000   0.80508688    -7.348553    695.19856  0.019887818  0.019194846           61 
 2914000   0.78211624    -7.323884    696.20155  0.019909676  0.019188564           64 
 2915000   0.76656689   -7.3222683    696.86986  0.019921951  0.019182319           61 
 2916000   0.78423998   -7.3577701    695.94682  0.019888741  0.019176012           47 
 2917000   0.78544487   -7.3471889    694.75277  0.019847811  0.019169705           50 
 2918000   0.78117396   -7.3491936    694.51738  0.019834286  0.019163381           30 
 2919000   0.77501642   -7.3455356    695.72367   0.01986193  0.019157072           54 
 2920000   0.79046469   -7.3658476    695.90559  0.019860319   0.01915075           46 
 2921000   0.77218341   -7.3487917    695.21791  0.019833901  0.019144425           31 
 2922000   0.78241633   -7.3426657    695.83263  0.019844645  0.019138108           33 
 2923000   0.77483795   -7.3527877      695.233  0.019820761  0.019131784           22 
 2924000   0.78028108   -7.3442652     696.6232  0.019853602  0.019125494           61 
 2925000   0.77031575   -7.3214019    695.79257   0.01982315  0.019119195           84 
 2926000   0.79061451   -7.3190855    696.90874  0.019848164  0.019112933           30 
 2927000   0.79385644    -7.348146     695.8535   0.01981134  0.019106686           38 
 2928000   0.77449072    -7.316929    696.34476  0.019818555  0.019100382           15 
 2929000   0.77979283   -7.3192851    697.82837     0.019854  0.019094134           41 
 2930000    0.7722718   -7.3203984    697.05065  0.019825104  0.019087882           37 
 2931000   0.78734772   -7.3285723    698.51018  0.019859837  0.019081581           53 
 2932000   0.78061618   -7.3249002    696.83459   0.01980544  0.019075324           17 
 2933000    0.7933638   -7.3492319    697.41613   0.01981521  0.019069075          100 
 2934000   0.79841721   -7.3544408    697.43447  0.019808977  0.019062779           66 
 2935000   0.79640266   -7.3315282    693.84599  0.019700341  0.019056469           46 
 2936000    0.7802693   -7.3292945    697.26412  0.019790648  0.019050184           28 
 2937000   0.80055953   -7.3669309    695.21915  0.019725887  0.019043885           32 
 2938000   0.79435962   -7.3676753    695.53687  0.019728185  0.019037582           49 
 2939000    0.7957341   -7.3261379    697.25779  0.019770267  0.019031281           34 
 2940000   0.78416561   -7.3315764    696.87928  0.019752814  0.019025037           32 
 2941000    0.7827382   -7.3430409    695.58524  0.019709431  0.019018783           29 
 2942000   0.80482379   -7.3576323    696.33218  0.019723889  0.019012537           11 
 2943000   0.78267933   -7.3609746    696.20663  0.019713632  0.019006271           26 
 2944000    0.7787226   -7.3496127    696.88387  0.019726106  0.019000002           23 
 2945000   0.80379056   -7.3255788    696.22698   0.01970082  0.018993716           19 
 2946000   0.78750733   -7.3625156    696.08609  0.019690147  0.018987431           19 
 2947000   0.78690004   -7.3497509    696.18089  0.019686147  0.018981158           21 
 2948000   0.78158541   -7.2984293    697.49961  0.019716746  0.018974903           22 
 2949000   0.78075992   -7.3228713    699.10028  0.019755292  0.018968697            6 
 2950000   0.77886761   -7.3218221    697.63369  0.019707166  0.018962478           12 
 2951000   0.77582614   -7.3419224    697.40738  0.019694097  0.018956236           10 
 2952000   0.77755013   -7.3274468    697.49722  0.019689962  0.018950008           10 
 2953000   0.78467785    -7.346267    696.34994  0.019650918  0.018943809           20 
 2954000   0.79268487   -7.3576797    697.14002  0.019666554   0.01893757           23 
 2955000   0.79047368   -7.3438218    697.38596  0.019666835  0.018931302           17 
 2956000   0.78032015   -7.3293081     697.6481  0.019667572  0.018925071           22 
 2957000   0.80101679    -7.335152    699.63081  0.019716797   0.01891884           13 
 2958000   0.78153121    -7.375629    696.97691  0.019635365  0.018912643           10 
 2959000   0.77748759   -7.3607937    698.04834  0.019658903  0.018906418           10 
 2960000   0.77327765   -7.3662285    698.12493  0.019654418  0.018900183           12 
 2961000    0.7867635   -7.3595884    697.35449  0.019626097  0.018893936           10 
 2962000   0.78519452   -7.3890231    696.63126  0.019599124  0.018887661           21 
 2963000   0.77183522   -7.3690192    696.21263  0.019580735  0.018881405           12 
 2964000   0.78285284   -7.3553886    698.15612  0.019628771  0.018875168           16 
 2965000   0.78801922   -7.3578505    697.64893  0.019607896  0.018868969            5 
 2966000   0.77077983   -7.3349085     698.1218  0.019614571  0.018862754           13 
 2967000   0.78844655   -7.3578416    698.89248  0.019629606  0.018856574           14 
 2968000    0.7640486   -7.3616506    697.24458  0.019576723  0.018850367           19 
 2969000   0.77153556   -7.3724495    697.79419  0.019585556  0.018844144           16 
 2970000   0.77606446   -7.3386089     698.4455  0.019597236  0.018837908           10 
 2971000   0.76738287   -7.3727977    698.35418  0.019588079  0.018831715           16 
 2972000   0.78352599   -7.3564707    699.48521  0.019613201  0.018825509           17 
 2973000   0.75287919   -7.3443027    699.55199  0.019608476  0.018819338           15 
 2974000   0.77696705   -7.3503974    700.21374  0.019620425  0.018813148           12 
 2975000   0.76648299   -7.3705651     696.4943  0.019509644  0.018806946           20 
 2976000    0.7747852   -7.3630957    696.64905  0.019507422  0.018800746           11 
 2977000   0.75808961   -7.3731691    698.73805  0.019559345  0.018794528           13 
 2978000   0.76800856   -7.3395941    698.30963  0.019540789  0.018788325           10 
 2979000   0.76554371   -7.3795299    698.07162  0.019527571  0.018782149           13 
 2980000   0.77989922    -7.392622    697.67429  0.019509907  0.018775968           28 
 2981000   0.77175626   -7.3982658    696.70744  0.019476334  0.018769774           16 
 2982000   0.77995649   -7.3565801    699.17766  0.019538835  0.018763576           10 
 2983000    0.7713667   -7.4075233    698.14501  0.019503436  0.018757354           15 
 2984000   0.77569863   -7.4231142    698.33136  0.019502105  0.018751126           11 
 2985000   0.76476217   -7.3887104    697.20985  0.019464262  0.018744915           16 
 2986000   0.78482924   -7.3948701    698.74343  0.019500542  0.018738713           11 
 2987000   0.77728759   -7.3843815    699.72712  0.019521458  0.018732549           13 
 2988000   0.76375281   -7.3743548    699.32789   0.01950379  0.018726392           26 
 2989000   0.75922321    -7.366432    700.15999  0.019520464  0.018720256            8 
 2990000   0.77525067   -7.3806458    698.68798  0.019472909   0.01871412           26 
 2991000   0.76642175   -7.3946789    697.97809   0.01944662  0.018707953           22 
 2992000   0.76587449   -7.3563601     700.2473  0.019503323  0.018701806           29 
 2993000   0.76603238   -7.3571739    700.33839  0.019499342  0.018695699           18 
 2994000   0.75908593    -7.379387    700.78967  0.019505391  0.018689595           12 
 2995000   0.77801096   -7.3375899    702.11036  0.019535625  0.018683503           21 
 2996000   0.75991803   -7.3742441    699.36815   0.01945283  0.018677419           11 
 2997000   0.76757973   -7.3778859       699.91  0.019461406  0.018671346           21 
 2998000   0.77756608   -7.3560558    701.82537  0.019508155  0.018665226           17 
 2999000    0.7907913   -7.4031731    698.44529  0.019407727  0.018659127            8 
 3000000   0.76673132   -7.3862305     700.5431  0.019459531  0.018653038           13 
 3001000   0.77165605   -7.3765836    699.80425   0.01943253  0.018646974           13 
 3002000   0.77505635   -7.3884302    700.16443  0.019436055  0.018640878           25 
 3003000   0.78390163   -7.3992507    699.22823  0.019403603  0.018634774           10 
 3004000   0.75176714   -7.3864611    699.53788  0.019405734  0.018628663            7 
 3005000   0.76631356   -7.3700231    698.81313  0.019379177  0.018622554           12 
 3006000   0.78079296   -7.3768611    701.89747  0.019458235  0.018616457           14 
 3007000   0.78216135   -7.3543652    701.11402  0.019430053  0.018610366           18 
 3008000   0.75873365   -7.3878709    701.25019  0.019427366  0.018604276            8 
 3009000   0.79057956   -7.3753688    699.10563  0.019361516  0.018598217            7 
 3010000   0.76764716   -7.3570568    700.00032  0.019379854  0.018592163            5 
 3011000    0.7763064   -7.3563716    700.33045  0.019382554  0.018586129            8 
 3012000   0.77554085   -7.3579183    700.72115  0.019386929  0.018580089           13 
 3013000   0.76681333   -7.3891469    701.53725  0.019403066  0.018574055           21 
 3014000   0.76005797   -7.4004198    700.23622  0.019360656  0.018568016            7 
 3015000   0.76811319   -7.3558728    699.03562  0.019321051  0.018561991            9 
 3016000   0.76438532   -7.3810051    701.47532  0.019382055  0.018555976            9 
 3017000   0.76370486    -7.371896    701.79526  0.019384468   0.01854995           22 
 3018000    0.7753078   -7.4182212      700.373  0.019338773  0.018543911            9 
 3019000   0.77135299    -7.359401    700.28225  0.019329862  0.018537861           14 
 3020000   0.76546534   -7.3798802     700.2885  0.019323634  0.018531835            9 
 3021000   0.74578625   -7.3626653    702.82934  0.019387326  0.018525817            4 
 3022000   0.78857265   -7.3727781    701.89839  0.019355239  0.018519787            4 
 3023000   0.78173504   -7.3742678    702.45219  0.019364103  0.018513741           11 
 3024000   0.77064425   -7.3881236    699.76985  0.019283781   0.01850767            6 
 3025000    0.7694644   -7.3765113    698.85627  0.019252239  0.018501583            4 
 3026000   0.75759336   -7.4032203    699.58083   0.01926583  0.018495483           13 
 3027000   0.78371786   -7.4095193    699.32951  0.019252547  0.018489408           17 
 3028000   0.76095986   -7.4136824    700.20259  0.019270216  0.018483322           13 
 3029000   0.77772953   -7.3767231    702.07644  0.019315408  0.018477267           11 
 3030000   0.77910287   -7.3654775    703.15811  0.019338782  0.018471258           12 
 3031000   0.75808233   -7.3817796    700.00616  0.019245743  0.018465242           15 
 3032000   0.75338985   -7.3561065    702.44055  0.019306304  0.018459213            9 
 3033000   0.76556206   -7.3627817    700.89475  0.019257467  0.018453182           14 
 3034000   0.76745131   -7.4259041    700.44637  0.019238804  0.018447123            6 
 3035000   0.77116333   -7.4043795    700.35074  0.019229839  0.018441035           22 
 3036000   0.77505896   -7.4047996    698.68746  0.019177851  0.018434975           13 
 3037000   0.76914647   -7.4046868    700.53786   0.01922231  0.018428938           10 
 3038000   0.75610855   -7.3670011    702.29555  0.019264197  0.018422891           15 
 3039000   0.75842888    -7.390396    701.92636  0.019247734  0.018416852           14 
 3040000   0.76153663   -7.3712367    702.29299  0.019251453  0.018410801           17 
 3041000    0.7574506   -7.3996621    700.44362  0.019194443  0.018404754           17 
 3042000   0.76333175   -7.3740515    702.39564  0.019241607  0.018398707           13 
 3043000   0.76312055   -7.4131977    700.34877   0.01917923  0.018392659           11 
 3044000   0.76603109   -7.4145178    700.63984  0.019180898  0.018386605           12 
 3045000   0.77201672   -7.3952683     699.3065  0.019138109  0.018380543           12 
 3046000   0.75590335   -7.4072663     701.0943  0.019180737  0.018374475           16 
 3047000   0.76776925   -7.4054572    700.71497  0.019164068  0.018368405           15 
 3048000   0.75482719   -7.4050248    701.51289  0.019179596  0.018362357            8 
 3049000   0.76485346   -7.4106121    700.82385  0.019154473  0.018356331           14 
 3050000   0.76416971   -7.4259063    702.43963   0.01919234  0.018350288           36 
 3051000    0.7600148   -7.4246384    700.72872  0.019139318  0.018344237           23 
 3052000   0.76959468   -7.3971708      701.716  0.019160004  0.018338196           18 
 3053000   0.76513759   -7.4038118    702.06964  0.019163382  0.018332185           26 
 3054000   0.76220749   -7.4067949    701.17376  0.019132661  0.018326154           16 
 3055000   0.74314309     -7.40347     700.5005  0.019108033  0.018320087            7 
 3056000    0.7400669   -7.4114392    700.76605  0.019109022  0.018314041           15 
 3057000   0.75551202   -7.4210872    700.96604  0.019108223  0.018307967           17 
 3058000   0.76640029   -7.4043834    701.92795  0.019128187  0.018301911           21 
 3059000   0.75756757   -7.3966202     702.4284  0.019135567  0.018295854           32 
 3060000   0.75129534   -7.4485585    700.97669  0.019089779  0.018289785           15 
 3061000   0.77082399   -7.4126928    702.88152    0.0191354  0.018283706           12 
 3062000   0.76244628   -7.4304817    701.34375    0.0190873  0.018277629           22 
 3063000   0.75514118   -7.4474685    699.75879  0.019037947  0.018271531           21 
 3064000   0.74997772   -7.4203154    700.09716  0.019040937  0.018265432           11 
 3065000    0.7579884   -7.4479328    699.23764  0.019011355  0.018259345           27 
 3066000   0.76640444   -7.4209863    700.15651  0.019030129  0.018253223           19 
 3067000   0.76401253   -7.4487611    699.10912  0.018995466  0.018247124           22 
 3068000   0.76082338   -7.4456124    699.74621  0.019006579  0.018241006           16 
 3069000   0.75138169   -7.4462601    698.85284  0.018976128    0.0182349           30 
 3070000   0.76002901   -7.4240814    700.15513  0.019005297  0.018228762           26 
 3071000   0.75261228   -7.4301408    701.79492  0.019043605  0.018222663           23 
 3072000   0.75277229   -7.4351447    698.86548  0.018957939  0.018216569           20 
 3073000   0.76206041   -7.4400965    698.31009  0.018936709  0.018210405           18 
 3074000    0.7615212   -7.4272367    699.91292     0.018974   0.01820429           21 
 3075000   0.76644886   -7.4388146    699.79243  0.018964565  0.018198176           29 
 3076000   0.76295611    -7.441323    698.83977   0.01893259  0.018192055           54 
 3077000   0.76526978   -7.4301095    700.13019  0.018961385  0.018185937           60 
 3078000   0.76184715   -7.4431432    701.40859  0.018989836  0.018179824           54 
 3079000   0.75177139   -7.4241923    699.54277   0.01893317  0.018173731           33 
 3080000   0.75719494   -7.4549609    698.81263  0.018907268  0.018167632           30 
 3081000    0.7546146   -7.4557832    700.23257  0.018939537  0.018161514           32 
 3082000    0.7630535    -7.456943    698.99782  0.018900006  0.018155401           34 
 3083000   0.76179262   -7.4401538    701.69503  0.018966781  0.018149302           39 
 3084000   0.75454079   -7.4583812    700.17601  0.018919585  0.018143193           26 
 3085000   0.77146009   -7.4464132    699.28394  0.018889356  0.018137049           22 
 3086000   0.76488063   -7.4454417    698.58013  0.018864229   0.01813095           37 
 3087000   0.75616162   -7.4298515    700.99028   0.01892318  0.018124872           17 
 3088000    0.7409584   -7.4285439    701.41597   0.01892854  0.018118823           13 
 3089000   0.75932014   -7.4233692    700.03866  0.018885256   0.01811275           10 
 3090000   0.76371771   -7.4392772     700.5447  0.018892791  0.018106679            9 
 3091000   0.74397621   -7.4128821     700.3595  0.018881686  0.018100609           23 
 3092000    0.7573505   -7.3972233     701.4252  0.018904302  0.018094559            8 
 3093000   0.75802104   -7.4291062    700.96566  0.018885808  0.018088511            8 
 3094000   0.74684947   -7.4492074    699.24718  0.018833419  0.018082441           23 
 3095000    0.7689714   -7.4259975    701.72478  0.018894044  0.018076371           16 
 3096000   0.75628865   -7.4367398    701.22033  0.018874363  0.018070338           35 
 3097000   0.75635324   -7.4095681    703.67491  0.018934316  0.018064303           41 
 3098000   0.75019654   -7.4389077    702.49768  0.018896538  0.018058264            8 
 3099000   0.75113193   -7.4589599     700.2973  0.018831271  0.018052238           16 
 3100000   0.75944688   -7.4408099    700.48995  0.018830375  0.018046186           10 
 3101000   0.75610427   -7.4646897    700.35491  0.018820674  0.018040113            8 
 3102000   0.74700347   -7.4311387    700.41108  0.018816115  0.018034054           11 
 3103000   0.76438942   -7.4432829    700.25781  0.018805935  0.018028016           12 
 3104000   0.75137316   -7.4656468    701.22946  0.018825963  0.018021968           19 
 3105000   0.75104487   -7.4405662    700.49969  0.018800314  0.018015912           12 
 3106000   0.75644333   -7.4458427    700.98269   0.01880722  0.018009867           24 
 3107000   0.75201737   -7.4445538    699.41918  0.018759231  0.018003802           30 
 3108000   0.75518208   -7.4188153    699.51122  0.018755663   0.01799774           21 
 3109000   0.75627428    -7.432545    701.32538  0.018798257  0.017991723           20 
 3110000    0.7684438   -7.4670928    698.05504  0.018704583  0.017985649           36 
 3111000    0.7542613   -7.4664899    698.72517  0.018716521  0.017979549           31 
 3112000   0.76905391   -7.4656871    699.36516  0.018727645  0.017973474           30 
 3113000     0.767393   -7.4427428    699.60238  0.018727979  0.017967373           49 
 3114000   0.75322202   -7.4743259    698.92585   0.01870386  0.017961284           38 
 3115000   0.76186985   -7.4324402    701.73477  0.018773001  0.017955223           30 
 3116000   0.74322606   -7.4500164    701.67282  0.018765319  0.017949171           19 
 3117000   0.74670499   -7.4488358    700.13588  0.018718209  0.017943109           24 
 3118000   0.76824197   -7.4336776     701.6687  0.018753172  0.017937068           42 
 3119000   0.75137612   -7.4606136    699.50839  0.018689441  0.017931012           28 
 3120000   0.74577501   -7.4536994    702.07658  0.018752046  0.017924948           21 
 3121000   0.74164195   -7.4388885    699.64297  0.018681058  0.017918868           24 
 3122000   0.75335928   -7.4282853    699.15691    0.0186621  0.017912816           42 
 3123000   0.74826922   -7.4669159    700.24526  0.018685165  0.017906753           21 
 3124000   0.74732987   -7.4366596    700.00351  0.018672735  0.017900707           37 
 3125000   0.73290218   -7.4299811    701.69941  0.018711984  0.017894666           22 
 3126000   0.74236741   -7.4686769     699.9802  0.018660167  0.017888621           35 
 3127000   0.75185808   -7.4489518    701.39662  0.018691947  0.017882552           55 
 3128000   0.74683367   -7.4358186    701.38248  0.018685595  0.017876477           27 
 3129000   0.73590319   -7.4448524    700.88111   0.01866627  0.017870425           31 
 3130000   0.76998141   -7.4419269    698.98163  0.018609735  0.017864358           24 
 3131000   0.75632951   -7.4672102    700.73367  0.018650422  0.017858303           48 
 3132000   0.74782873   -7.4415535    701.71529  0.018670586  0.017852254           34 
 3133000    0.7304247   -7.4699641    699.86246  0.018615344  0.017846186           18 
 3134000   0.75864993   -7.4767632    700.86042   0.01863594  0.017840126           18 
 3135000   0.73952218   -7.4602543    700.62364  0.018623701  0.017834091           43 
 3136000   0.75996644   -7.4700407    700.57724   0.01861653  0.017828077           27 
 3137000   0.73251153   -7.4746946    700.28288  0.018602775  0.017822052           23 
 3138000   0.74834087   -7.4366533    700.90816  0.018613452  0.017816034           25 
 3139000   0.76127125   -7.4823574    700.14903  0.018587369  0.017810016           22 
 3140000    0.7493335   -7.4404203     701.3336  0.018612888  0.017803981           69 
 3141000   0.75974106   -7.4305309     700.9326  0.018596323   0.01779798           56 
 3142000   0.77199174   -7.4688482    701.48911  0.018605164  0.017791975           29 
 3143000   0.74939138   -7.4575327    701.25632  0.018593072  0.017785958           47 
 3144000   0.75397132    -7.451152     701.1922  0.018585459  0.017779953           34 
 3145000   0.73737165   -7.4516591    700.26902  0.018555088  0.017773928           42 
 3146000   0.76001565   -7.4306472    702.38546  0.018605252  0.017767931           25 
 3147000   0.73979257   -7.4366938    701.22511  0.018568613  0.017761956           48 
 3148000   0.75083079   -7.4612655    701.84974   0.01857925  0.017755969           30 
 3149000   0.75446355   -7.4314959    700.91236  0.018548543  0.017749997           41 
 3150000   0.74513202    -7.453145    701.46744   0.01855734  0.017744009           36 
 3151000   0.74989898   -7.4415343    699.76428  0.018506407  0.017738032           40 
 3152000   0.74164766   -7.4601926    701.44273  0.018544911  0.017732046           22 
 3153000    0.7565969   -7.4551241    702.31073  0.018561971  0.017726098           35 
 3154000   0.73440154   -7.4486915    701.33624  0.018530338  0.017720139           27 
 3155000   0.74198166   -7.4471364    701.52142  0.018529356  0.017714181           34 
 3156000   0.73511838   -7.4567737    701.38434  0.018519865  0.017708187           43 
 3157000   0.74869764   -7.4929598    703.03134  0.018557474  0.017702192           54 
 3158000   0.76256649   -7.4671014    701.06391  0.018499681  0.017696199           52 
 3159000   0.75340467   -7.4956884    700.25597  0.018472512  0.017690203           83 
 3160000   0.74585851   -7.4741678    700.12548  0.018463225  0.017684201           48 
 3161000   0.74558381      -7.4605    701.41034  0.018491257  0.017678228           38 
 3162000   0.73653871   -7.4506773    702.35773  0.018510377  0.017672278           29 
 3163000   0.75624512   -7.4747315    701.73113  0.018488016  0.017666329           37 
 3164000   0.77207768   -7.4752882    700.93803  0.018461284  0.017660368           39 
 3165000   0.75064016   -7.4601364    702.21649  0.018489112  0.017654412           84 
 3166000   0.71207551   -7.4816876    700.19967  0.018430187  0.017648423           71 
 3167000   0.74790044   -7.4406418    703.71394  0.018516839  0.017642464           65 
 3168000   0.73977399   -7.4570062    703.56235  0.018507006  0.017636521           64 
 3169000   0.75389905    -7.466627    701.31422  0.018442049  0.017630579           48 
 3170000   0.74139179   -7.4585047    701.67301  0.018445663   0.01762463           75 
 3171000   0.75958866    -7.425371    702.97611  0.018474091  0.017618692           67 
 3172000   0.75035723   -7.4853893    701.74685  0.018435972   0.01761277           73 
 3173000   0.74789778   -7.4819988    700.80297  0.018405373  0.017606817           79 
 3174000   0.73982976    -7.453041    700.65903  0.018395795   0.01760087          115 
 3175000   0.73759925   -7.4544512    701.06744   0.01840072  0.017594941           70 
 3176000   0.73592747   -7.4508021    701.86129  0.018415756  0.017588994           92 
 3177000   0.74918584   -7.4397021    701.34387  0.018396387  0.017583061           97 
 3178000   0.74952451   -7.4575495    702.70778  0.018426363  0.017577129           92 
 3179000   0.73991786    -7.452931    701.18775  0.018380721  0.017571169           76 
 3180000   0.74651199   -7.4803771    701.48669  0.018382775  0.017565203           59 
 3181000   0.73839571   -7.4617889    699.80367  0.018332906  0.017559233           60 
 3182000   0.74497051   -7.4646784    701.75501  0.018378248  0.017553259           74 
 3183000   0.73611503   -7.4660161    701.59442  0.018368269  0.017547285           65 
 3184000   0.72739132    -7.467309    701.16533   0.01835127  0.017541303           85 
 3185000   0.74695364   -7.4549221    702.70792  0.018385869  0.017535341           67 
 3186000   0.74903593   -7.4688351    700.70087  0.018327602  0.017529356           50 
 3187000   0.75028188     -7.48153    700.71079   0.01832211  0.017523365           56 
 3188000   0.75241802   -7.4893208     700.3473  0.018306862  0.017517377           50 
 3189000   0.73906504   -7.4909367    699.58966  0.018281323  0.017511403           49 
 3190000   0.73621711   -7.4643654    702.39128   0.01834878   0.01750541           38 
 3191000   0.73597698   -7.4990684    700.37206  0.018290297   0.01749942           86 
 3192000   0.73015135   -7.5194545    700.04215  0.018275954   0.01749341           89 
 3193000   0.73902082    -7.483392    700.85433  0.018291427  0.017487411           63 
 3194000   0.75158926   -7.4673653    700.08254  0.018265564  0.017481422           72 
 3195000    0.7443854   -7.4829172    701.88007  0.018306731  0.017475439          103 
 3196000   0.74712073   -7.4821817    700.85475  0.018274269  0.017469483          103 
 3197000   0.72016893   -7.4738231    702.52139  0.018311995  0.017463532          102 
 3198000   0.73058628   -7.4599956    700.94859  0.018265285  0.017457591          121 
 3199000    0.7229346    -7.500747    702.05204   0.01828832  0.017451649           88 
 3200000   0.76228148   -7.4789601    700.52079  0.018242729  0.017445689          147 
 3201000   0.74713011   -7.4723187    700.81739  0.018244751  0.017439719          110 
 3202000   0.75517572   -7.4825888    702.45666  0.018281716   0.01743377          106 
 3203000   0.73157662   -7.4787883     702.7688  0.018284129  0.017427823          152 
 3204000   0.73406081   -7.4772833    700.97327  0.018231723  0.017421862          113 
 3205000   0.74288579   -7.4889027    701.61305  0.018242669  0.017415912          128 
 3206000   0.72808433   -7.5030806    699.73539  0.018188173   0.01740995          102 
 3207000   0.75334882   -7.4984071    701.65682   0.01823243  0.017403957          168 
 3208000   0.74012924   -7.5487802    698.92805  0.018155862  0.017397983          150 
 3209000   0.74226024   -7.5233843    700.01106  0.018178328  0.017392001          197 
 3210000   0.72191919    -7.522473    701.27438  0.018205462  0.017386023          184 
 3211000   0.73346091   -7.5030565    699.65255  0.018157702  0.017380018          203 
 3212000    0.7382301   -7.5224981    698.74934  0.018128615  0.017374015          276 
 3213000   0.74244209   -7.5332661    700.41429  0.018166156  0.017368037          262 
 3214000   0.75829102   -7.5225901    700.16125  0.018153942  0.017362049          256 
 3215000   0.75965567   -7.5127992    700.02881  0.018144863  0.017356072          251 
 3216000   0.72615729   -7.5161224    701.47412  0.018176672  0.017350085          246 
 3217000   0.73413477   -7.5668373    699.80763  0.018127853  0.017344081          203 
 3218000   0.72211526   -7.5304193    700.99052  0.018152852  0.017338083          266 
 3219000   0.71656597    -7.512479    700.51289  0.018134847   0.01733209          210 
 3220000   0.72546289   -7.5459924    700.13257  0.018119373  0.017326104          174 
 3221000   0.73414253   -7.5561394     699.8495  0.018106424  0.017320087          236 
 3222000   0.73878488   -7.5430825    699.63899   0.01809536  0.017314081          243 
 3223000   0.72829248   -7.5297944    700.42438  0.018110052  0.017308105          193 
 3224000   0.74197604   -7.5385382    699.45303  0.018079328  0.017302127          222 
 3225000   0.74356236   -7.5237777     699.6791  0.018079563  0.017296164          212 
 3226000   0.75923107   -7.5182815    700.55099  0.018096482  0.017290174          233 
 3227000   0.70902709   -7.5079765    701.18232  0.018107177  0.017284201          254 
 3228000   0.72647918   -7.5203832      702.578  0.018137598  0.017278234          222 
 3229000   0.74395027   -7.5092495    699.95887  0.018064387  0.017272261          235 
 3230000    0.7419904   -7.5255387    698.92407  0.018032097  0.017266284          301 
 3231000   0.73258273   -7.5359155    699.79693  0.018049028  0.017260323          348 
 3232000   0.74562738   -7.5420371     700.6254  0.018064805  0.017254335          284 
 3233000   0.73665342   -7.5689642    700.41275  0.018053736  0.017248341          282 
 3234000   0.74607338   -7.5445157    700.05631  0.018038969   0.01724236          325 
 3235000   0.72581465   -7.5393497    699.54604  0.018020248  0.017236363          257 
 3236000   0.74198401   -7.5549256    701.02989  0.018052892  0.017230376          263 
 3237000   0.73309837   -7.5232575    699.92148   0.01801878  0.017224401          240 
 3238000   0.75265929   -7.5566317    699.82233  0.018010663  0.017218442          259 
 3239000    0.7368584   -7.5260791    699.66477  0.018001049  0.017212458          298 
 3240000   0.74541711   -7.5419061    700.75419  0.018023513  0.017206471          311 
 3241000   0.72773292   -7.5610386     699.1929  0.017977808  0.017200491          306 
 3242000   0.74731677   -7.5121578    701.00527  0.018018848  0.017194518          287 
 3243000   0.71354984   -7.5390427    699.25703  0.017968368  0.017188553          318 
 3244000   0.72909507   -7.5262969    699.32088   0.01796447  0.017182581          346 
 3245000   0.74417389   -7.5679362    699.18343  0.017955404  0.017176587          302 
 3246000    0.7177893   -7.5522015    699.72522  0.017963782  0.017170626          275 
 3247000   0.72115859   -7.5538845    698.44697  0.017925443  0.017164644          387 
 3248000   0.75626565   -7.5491629    700.70779   0.01797793  0.017158653          294 
 3249000   0.73798068   -7.5547496    698.59891  0.017918306  0.017152694          224 
 3250000   0.73706826   -7.5335582    699.75323   0.01794239  0.017146732          372 
 3251000   0.74281918    -7.545545    700.15515  0.017947174  0.017140763          330 
 3252000   0.75171019   -7.5503651    699.45406   0.01792369  0.017134779          450 
 3253000   0.72156731   -7.5865171    699.93795  0.017930576  0.017128808          447 
 3254000   0.71837473   -7.5769183    698.59273  0.017890615  0.017122792          479 
 3255000   0.72419044   -7.5687131    699.63181  0.017911721  0.017116807          559 
 3256000   0.72466532   -7.5601288    698.88556   0.01788712  0.017110821          430 
 3257000   0.73347846   -7.5560917    697.99724    0.0178589  0.017104844          469 
 3258000   0.72806245     -7.56775    699.01064  0.017879339  0.017098888          557 
 3259000   0.72468569   -7.5642832    700.92005  0.017922677  0.017092909          452 
 3260000   0.72323482   -7.5677786    700.19787  0.017898719  0.017086925          535 
 3261000   0.73249071   -7.5705865    699.84162  0.017884126  0.017080946          462 
 3262000   0.74808881   -7.5589991    699.51813  0.017870379  0.017074975          511 
 3263000   0.73389063   -7.5749628    699.39893  0.017861858  0.017069025          495 
 3264000   0.72526216   -7.5562846    699.56487  0.017860623  0.017063082          485 
 3265000   0.71475128   -7.5864417    701.02701  0.017892471  0.017057095          589 
 3266000   0.73129383   -7.5829787    700.66032  0.017877636  0.017051114          566 
 3267000   0.72783463   -7.5910308    698.83497  0.017825604  0.017045136          609 
 3268000   0.73360467   -7.5523434    701.37491  0.017884917   0.01703917          522 
 3269000   0.72951249   -7.5743048    699.16747  0.017823174   0.01703323          585 
 3270000   0.73075203   -7.5623091    698.85417  0.017809739  0.017027276          563 
 3271000   0.72208401   -7.5663233    700.96568  0.017858088  0.017021328          551 
 3272000   0.73179488    -7.598096    699.22764  0.017808365  0.017015358          632 
 3273000   0.72910469   -7.5987882     697.8286  0.017767303  0.017009358          641 
 3274000   0.72820218   -7.5886072    699.03118  0.017792486  0.017003379          667 
 3275000   0.73431313   -7.6054023     698.5219  0.017774094  0.016997397          725 
 3276000   0.72681336   -7.5890456    698.35965  0.017764541  0.016991424          688 
 3277000   0.73231755    -7.565645    699.14078  0.017778984  0.016985449          661 
 3278000   0.72792292   -7.5971665    698.08447  0.017746707  0.016979497          685 
 3279000   0.71849805   -7.5805737    699.24581  0.017770809  0.016973551          643 
 3280000    0.7167513   -7.5831068    699.81306  0.017779803  0.016967606          673 
 3281000   0.72191269   -7.5954368    699.78307  0.017773623  0.016961653          706 
 3282000   0.72647394   -7.5553448     699.2507   0.01775469  0.016955711          694 
 3283000   0.71889945   -7.5593771    699.16384  0.017747077  0.016949761          674 
 3284000   0.73720712   -7.6062628    699.28753  0.017744811  0.016943793          718 
 3285000   0.73315901   -7.6137795    698.48723  0.017719108  0.016937829          728 
 3286000    0.7241267    -7.610551    696.35651   0.01765968  0.016931864          723 
 3287000   0.74393634   -7.5951241    699.73368  0.017739927  0.016925913          693 
 3288000   0.73087486   -7.5760035    701.44199  0.017777828  0.016919953          811 
 3289000   0.72022897   -7.6062551    699.40487  0.017720808  0.016914004          790 
 3290000   0.71102882   -7.5832009    699.34251  0.017713843  0.016908046          764 
 3291000    0.7339375   -7.6099701    699.59626  0.017714886  0.016902105          702 
 3292000   0.71946793    -7.611835    698.08435  0.017671232  0.016896147          695 
 3293000   0.72601054   -7.5980584    698.67653  0.017680852  0.016890178          701 
 3294000   0.70991988   -7.5974999    699.48459  0.017695927  0.016884203          829 
 3295000   0.73292833   -7.6198345    698.43106  0.017663912  0.016878239          845 
 3296000   0.72188328   -7.6166326    698.60227  0.017662881  0.016872269          786 
 3297000   0.71637191   -7.6274196    697.57119  0.017631463  0.016866274          851 
 3298000   0.72697887   -7.6379177    697.98113  0.017636475  0.016860291          905 
 3299000   0.74490624   -7.6151785    696.38243  0.017590745  0.016854294          978 
 3300000   0.73779273   -7.6112624    698.25766  0.017632769  0.016848321          955 
 3301000   0.71859971   -7.6380814    697.02396  0.017596283  0.016842338          900 
 3302000   0.71829767   -7.6437846    697.97323  0.017614911  0.016836347          900 
 3303000   0.72006498    -7.620413    699.32454  0.017643671  0.016830387          888 
 3304000   0.71458407   -7.6078829    698.51165  0.017617828  0.016824412          814 
 3305000   0.72534026   -7.6469274    698.96678  0.017623973  0.016818437          880 
 3306000   0.71161006   -7.6365078    697.52017  0.017582178   0.01681247         1012 
 3307000   0.72544608   -7.6391511    697.15024   0.01756754  0.016806483         1008 
 3308000   0.72020557   -7.6462663    698.17381  0.017588014  0.016800513         1031 
 3309000   0.72709275   -7.6065863    699.19887  0.017608514  0.016794533          943 
 3310000   0.73908364    -7.598785    698.00718  0.017573192  0.016788573          990 
 3311000   0.72412232   -7.6480222    697.17678  0.017546984  0.016782612         1075 
 3312000   0.72262809   -7.6319496    698.04576  0.017563551  0.016776633         1024 
 3313000   0.71246763    -7.671716    697.53205  0.017545328  0.016770651         1029 
 3314000   0.71346402   -7.6555268     698.0229  0.017552376  0.016764646         1079 
 3315000   0.72529776   -7.6566242    697.44738  0.017532614  0.016758645         1182 
 3316000   0.72210181   -7.6727865    698.14463  0.017544849   0.01675263         1175 
 3317000   0.71086125    -7.660829    695.55409  0.017474477  0.016746619         1203 
 3318000   0.73130999   -7.6754887    696.05049  0.017481678  0.016740596         1152 
 3319000   0.72807679   -7.6649018    696.74718  0.017493903  0.016734574         1187 
 3320000    0.7171813   -7.6572076    698.44688  0.017531297   0.01672856         1105 
 3321000   0.72399557   -7.6668156     696.6847    0.0174818  0.016722532         1130 
 3322000   0.70671955    -7.686358    695.59953  0.017449316  0.016716499         1331 
 3323000   0.71019577   -7.6744301    694.40994  0.017414233  0.016710461         1236 
 3324000    0.7022239   -7.6679616    695.85461  0.017445212  0.016704433         1230 
 3325000   0.72641535    -7.681496     695.0987   0.01742102  0.016698401         1190 
 3326000   0.71732697   -7.6989746    695.66539  0.017429981  0.016692371         1203 
 3327000   0.72763377   -7.7165249    696.79417  0.017453015  0.016686337         1201 
 3328000   0.71377661   -7.6767109    696.97474  0.017452292  0.016680309         1210 
 3329000   0.72784371   -7.6790279    695.53248  0.017410946  0.016674315         1257 
 3330000   0.73586451   -7.6587938    695.82177  0.017412957  0.016668291         1248 
 3331000   0.72046191   -7.6622406    696.33258  0.017420509  0.016662264         1243 
 3332000   0.72655848   -7.6641557     696.6721  0.017423772  0.016656243         1193 
 3333000   0.71543851   -7.6819117    694.61512  0.017367115  0.016650216         1241 
 3334000   0.72006568   -7.6875629    696.00888  0.017396743  0.016644184         1251 
 3335000   0.70847696   -7.7159374    694.07349  0.017343166  0.016638151         1197 
 3336000   0.72604608   -7.6847349    695.60806    0.0173763  0.016632116         1212 
 3337000   0.71295765   -7.6845031    695.34465  0.017364515  0.016626091         1175 
 3338000   0.71421818   -7.7066375    695.38816  0.017360399  0.016620066         1274 
 3339000   0.71808747   -7.6952886    696.09533  0.017372849  0.016614031         1243 
 3340000   0.72355643   -7.7150808    693.53995  0.017303891  0.016607988         1289 
 3341000   0.71274023   -7.7109992    695.08022   0.01733713  0.016601926         1442 
 3342000   0.72601865   -7.6869551    695.78781  0.017349586  0.016595888         1381 
 3343000   0.71495451    -7.701288    694.26482  0.017306432   0.01658985         1345 
 3344000   0.70554534   -7.7089773    695.40378   0.01732964    0.0165838         1335 
 3345000   0.71642044   -7.6940545    694.48914  0.017301673  0.016577742         1353 
 3346000   0.72955521   -7.7114527    695.67402  0.017326012  0.016571686         1386 
 3347000   0.71022581   -7.6995534    695.66426  0.017320592  0.016565641         1442 
 3348000   0.71077417   -7.6870433    694.90334  0.017296479  0.016559594         1402 
 3349000   0.70930844   -7.6885806    694.48615  0.017280933   0.01655353         1331 
 3350000   0.71256926   -7.7222058    695.28917  0.017295751  0.016547469         1473 
 3351000   0.72339271   -7.6964139    695.27116  0.017290141  0.016541411         1464 
 3352000   0.72827298   -7.7152573    693.84472  0.017249521  0.016535354         1453 
 3353000   0.70938539    -7.717959    694.58927  0.017262881  0.016529317         1460 
 3354000   0.69412759   -7.7223366    694.17648  0.017247478   0.01652329         1565 
 3355000   0.71133867   -7.7032304    694.80664  0.017257989  0.016517242         1446 
 3356000   0.71686877    -7.738892    694.34395  0.017241358  0.016511203         1496 
 3357000   0.74127406   -7.6924069    696.48226  0.017289302  0.016505179         1381 
 3358000   0.71171213   -7.7003552    695.48083  0.017259302  0.016499156         1493 
 3359000   0.71316745   -7.7000948     695.9997  0.017267036   0.01649313         1491 
 3360000   0.70029032   -7.7475709    693.09223  0.017189788  0.016487084         1517 
 3361000   0.72158364    -7.726847    694.71689  0.017224955  0.016481037         1531 
 3362000   0.71937669   -7.7485821    693.39509  0.017187069  0.016474992         1554 
 3363000   0.71870963   -7.7208114    695.61728  0.017237023  0.016468939         1630 
 3364000   0.70706076   -7.7322024    693.66115  0.017183441  0.016462887         1639 
 3365000   0.72265193   -7.7288437    694.30914  0.017194382  0.016456853         1638 
 3366000   0.71913843   -7.7070032    694.52979  0.017194736  0.016450845         1566 
 3367000   0.72264223   -7.7116581    694.40977  0.017186659   0.01644482         1632 
 3368000   0.71945939   -7.7293944    695.53992  0.017209519  0.016438773         1661 
 3369000   0.69105731   -7.7323699    695.20278  0.017196072  0.016432727         1620 
 3370000   0.71034541   -7.7372928    695.21533  0.017191279   0.01642668         1671 
 3371000   0.70883625   -7.7489597    695.10283  0.017183398  0.016420624         1675 
 3372000   0.70673085   -7.7357853    694.00528  0.017151178  0.016414573         1634 
 3373000   0.71749946   -7.7353153    693.90327  0.017143573  0.016408521         1739 
 3374000   0.70282448   -7.7543651    693.57787  0.017130455  0.016402468         1753 
 3375000   0.72096927   -7.7354169    694.48459  0.017147768  0.016396416         1795 
 3376000   0.69877947   -7.7292361    690.81923  0.017052212  0.016390349         1860 
 3377000   0.70637591   -7.7672469    691.52604  0.017064605  0.016384278         1791 
 3378000   0.72869353     -7.73294    695.14986  0.017148951  0.016378227         1748 
 3379000   0.72414065   -7.7625375    693.27319  0.017097593  0.016372172         1849 
 3380000   0.71661701     -7.78953    693.32437  0.017093796  0.016366097         1874 
 3381000   0.72537676   -7.7587047    692.25553  0.017062396  0.016360023         1861 
 3382000   0.70492249   -7.7580943    693.66139  0.017091992  0.016353955         1850 
 3383000   0.71610276   -7.7608767    693.43581  0.017081383  0.016347896         1801 
 3384000   0.71089293   -7.7425056    693.56116  0.017079422  0.016341846         1674 
 3385000   0.72463733   -7.7527569    693.03776  0.017061491  0.016335785         1770 
 3386000   0.70865485   -7.7694465    691.14052  0.017009759  0.016329732         1812 
 3387000   0.70329535   -7.7652441    692.39546  0.017035613   0.01632365         1856 
 3388000   0.71283385   -7.7812594    693.13431  0.017048758  0.016317575         1915 
 3389000   0.70530431   -7.7627106    691.53584  0.017004422  0.016311488         1859 
 3390000   0.70215862   -7.7874363    693.12446  0.017038458  0.016305391         1902 
 3391000   0.72022713   -7.7842729    691.22647   0.01698679  0.016299296         2024 
 3392000   0.69938608   -7.8025107    692.20069  0.017005717  0.016293203         2091 
 3393000   0.71237334   -7.7343136     692.1918  0.017000486  0.016287125         1931 
 3394000   0.70924424   -7.7691452    692.90579  0.017013008  0.016281044         2020 
 3395000   0.71427304   -7.7753482    691.37603  0.016970448  0.016274967         2066 
 3396000   0.71884858   -7.7612542    693.50556  0.017017706  0.016268898         1997 
 3397000   0.72243741   -7.7759724    692.52599  0.016988666  0.016262842         2088 
 3398000   0.71538469    -7.784577    693.32459  0.017003252  0.016256777         2112 
 3399000   0.71289566   -7.7816306    693.01605  0.016990685  0.016250701         2029 
 3400000   0.69764444   -7.7890292    691.88613  0.016957993  0.016244639         2041 
 3401000   0.71752346   -7.8019746    690.19339  0.016911531  0.016238563         2138 
 3402000   0.69955761   -7.7938361    690.49765  0.016914013  0.016232487         2173 
 3403000   0.69689523   -7.8027858    690.18119  0.016901293  0.016226408         2210 
 3404000    0.7165742   -7.8015728    691.06183  0.016917887  0.016220315         2217 
 3405000   0.71503787   -7.8172789    690.13407  0.016890212  0.016214232         2129 
 3406000   0.70929651   -7.8262988    690.84745  0.016902707  0.016208135         2082 
 3407000   0.71117829   -7.8145868    691.94931  0.016924697  0.016202048         2217 
 3408000   0.69865813   -7.8202478    690.67062  0.016888464  0.016195962         2167 
 3409000   0.70113724   -7.7989188     690.2372  0.016872915  0.016189869         2084 
 3410000   0.69436349   -7.8133003    690.44066  0.016872939  0.016183775         2158 
 3411000   0.70155879   -7.8205355    690.53547  0.016870309  0.016177671         2219 
 3412000   0.70362195   -7.8356514     688.5646  0.016817228  0.016171577         2261 
 3413000   0.71237732   -7.8017921    692.00682  0.016896348  0.016165467         2177 
 3414000   0.70322866   -7.8135062    690.02245  0.016842962   0.01615938         2263 
 3415000   0.69005443   -7.8198118    691.32287  0.016869762  0.016153304         2294 
 3416000   0.69562203   -7.8230023    691.15066  0.016860623  0.016147201         2318 
 3417000   0.69488535   -7.8026721    691.79953  0.016871513  0.016141134         2214 
 3418000   0.69452977   -7.8166327    689.85939  0.016819275  0.016135071         2273 
 3419000   0.70185584   -7.8203822    689.26561  0.016799883  0.016129001         2293 
 3420000   0.69734128   -7.8145486    691.04534  0.016838337  0.016122921         2325 
 3421000   0.70562283   -7.8181697    689.95783  0.016806924  0.016116845         2314 
 3422000    0.7062431   -7.8137181    690.32322   0.01681091   0.01611075         2317 
 3423000   0.69868868   -7.8034074    690.89626   0.01681995   0.01610465         2439 
 3424000   0.70109875   -7.8223314     689.0684  0.016770551  0.016098551         2387 
 3425000   0.69655802   -7.8427337    689.28244  0.016770862  0.016092446         2313 
 3426000    0.7082678   -7.8246477    689.45432  0.016770148  0.016086342         2391 
 3427000   0.69649261    -7.831442    689.33395  0.016762327  0.016080236         2412 
 3428000   0.70557942   -7.8602352    690.07378  0.016775422  0.016074146         2375 
 3429000   0.70783984    -7.820561     689.4078  0.016754345  0.016068072         2290 
 3430000   0.70478055   -7.8259668    689.43142  0.016750035  0.016061988         2371 
 3431000    0.7096973   -7.8244603    690.57897  0.016773025  0.016055905         2309 
 3432000   0.70776015   -7.8432574    688.49065   0.01671743  0.016049815         2349 
 3433000   0.68916046   -7.8290166    690.97627  0.016772897  0.016043726         2334 
 3434000   0.70027768   -7.8325399    688.55984  0.016709373  0.016037656         2480 
 3435000   0.71849896   -7.8402943    690.84473   0.01675994  0.016031561         2414 
 3436000   0.70243362   -7.8439912     689.3394  0.016718554   0.01602549         2370 
 3437000   0.69379879    -7.806273    690.95431  0.016752844  0.016019418         2352 
 3438000   0.70239905   -7.8227871    690.29539     0.016732  0.016013341         2358 
 3439000   0.70098651    -7.844317    689.60663  0.016710445   0.01600726         2390 
 3440000   0.69976431   -7.8420498    689.65901  0.016706856  0.016001181         2377 
 3441000   0.69888368   -7.8576169    688.26311  0.016668195  0.015995098         2425 
 3442000   0.69070344   -7.8208928    690.97835  0.016729091  0.015989016         2441 
 3443000   0.70500523   -7.8380984    689.24079  0.016682176  0.015982933         2411 
 3444000   0.73282959   -7.8284823    688.59669  0.016661747  0.015976853         2382 
 3445000   0.69273262   -7.8449092    688.47423  0.016653948  0.015970769         2438 
 3446000   0.71314267   -7.8599682    688.31761  0.016645328  0.015964693         2438 
 3447000   0.68776777   -7.8729199     687.0406  0.016609627  0.015958615         2565 
 3448000   0.70228841   -7.8242588    689.30098   0.01665944  0.015952541         2465 
 3449000   0.70131251    -7.819904    690.37592  0.016680582  0.015946476         2413 
 3450000   0.70494364   -7.8732067    688.25127  0.016624427  0.015940404         2416 
 3451000   0.69164122     -7.85715    688.85135    0.0166341  0.015934331         2511 
 3452000   0.70621724   -7.8696361    689.06814  0.016634515  0.015928262         2528 
 3453000   0.69236165   -7.8393233    688.88076  0.016625175  0.015922195         2523 
 3454000   0.69820112    -7.823999    690.71012  0.016664498  0.015916136         2489 
 3455000   0.70715379   -7.8740708    688.06304  0.016595828  0.015910073         2578 
 3456000   0.68655262   -7.8552815    689.55446  0.016626988  0.015904024         2527 
 3457000   0.67078421   -7.8290618    688.28927   0.01659168  0.015897977         2462 
 3458000   0.68869722   -7.8583603    687.32453  0.016563633  0.015891916         2570 
 3459000   0.70128782   -7.8166536    689.25627  0.016605384  0.015885856         2469 
 3460000    0.6888214   -7.8424463     688.9993  0.016594396   0.01587981         2447 
 3461000   0.69420464   -7.8627783    688.30611   0.01657291  0.015873764         2494 
 3462000   0.70149264    -7.845653    689.50668  0.016597022  0.015867724         2536 
 3463000   0.71475649   -7.8575395    689.53461  0.016592901   0.01586169         2489 
 3464000   0.69426107   -7.8649143    688.95248  0.016574107   0.01585567         2524 
 3465000   0.68424628   -7.8624295    689.11828  0.016573311   0.01584962         2471 
 3466000   0.69808041   -7.8489253    688.97985  0.016565201  0.015843573         2613 
 3467000   0.69307509   -7.8707651    688.60853  0.016551498  0.015837529         2534 
 3468000   0.70403806   -7.8546408    687.69363  0.016524741  0.015831478         2478 
 3469000   0.69796113   -7.8742806    689.15363   0.01655505  0.015825428         2540 
 3470000   0.68693126   -7.8681054    689.07598  0.016548414  0.015819379         2565 
 3471000   0.69699585   -7.8666049    688.40777  0.016527604  0.015813338         2553 
 3472000   0.68662278   -7.8662604    688.32828  0.016520936  0.015807298         2523 
 3473000   0.69485839   -7.8665674    688.57829  0.016522178  0.015801261         2655 
 3474000   0.68121122   -7.8843774     687.2994  0.016486744  0.015795212         2587 
 3475000   0.67982901    -7.874274    688.03387  0.016499613  0.015789162         2680 
 3476000   0.68928728   -7.8887828    686.92622  0.016468312  0.015783111         2711 
 3477000   0.68987746   -7.8661638    689.84435  0.016533514  0.015777079         2568 
 3478000   0.69897738   -7.8705846    687.03252  0.016461389  0.015771047         2659 
 3479000   0.69667116   -7.8808918    688.41951   0.01648988  0.015765009         2680 
 3480000   0.70105332   -7.8607763    688.76905  0.016493512  0.015758987         2638 
 3481000    0.6792953   -7.8769286    688.14745  0.016473893  0.015752967         2680 
 3482000    0.6898478   -7.8835457    688.11274  0.016468331   0.01574693         2634 
 3483000   0.69954571   -7.8909828    688.04381  0.016461953  0.015740897         2632 
 3484000   0.69867602   -7.8612904    688.64621  0.016471637  0.015734875         2673 
 3485000   0.69097299   -7.8889966    687.95062  0.016450278  0.015728846         2728 
 3486000   0.69682954   -7.8809615    687.80456  0.016442067  0.015722832         2692 
 3487000   0.69418773   -7.8919428    689.37862  0.016474969   0.01571681         2724 
 3488000   0.69738529   -7.8752821     688.1289  0.016440388   0.01571079         2653 
 3489000   0.69449936   -7.8795826    688.69854  0.016449282  0.015704777         2712 
 3490000    0.6895685   -7.8732356    687.57565  0.016417757  0.015698753         2746 
 3491000   0.69639599   -7.8835469    687.78628  0.016418082  0.015692731         2707 
 3492000   0.69014712   -7.8792071    689.38171  0.016451454  0.015686708         2619 
 3493000   0.68609982   -7.8678821    687.18431   0.01639432  0.015680705         2753 
 3494000   0.69507422   -7.8839348    688.27531  0.016415649  0.015674689         2729 
 3495000   0.69547618   -7.8964883    687.14049  0.016383894  0.015668678         2710 
 3496000   0.69088275   -7.8907323    686.85268  0.016372346  0.015662676         2750 
 3497000   0.70799915     -7.87394    688.62516  0.016409903  0.015656669         2763 
 3498000   0.69411615   -7.8872929    688.61718  0.016405021  0.015650673         2761 
 3499000   0.69649202    -7.891374    686.60273  0.016352356  0.015644678         2709 
 3500000   0.68587069   -7.8792593     688.6059  0.016395379  0.015638688         2807 
 3501000   0.69778626   -7.8945876    686.23863  0.016334348  0.015632693         2730 
 3502000    0.6885402   -7.9171222     687.7801  0.016366365  0.015626692         2777 
 3503000   0.68866591   -7.8768855    687.93189  0.016365303  0.015620698         2747 
 3504000   0.69906138   -7.8920303    687.14117  0.016341828    0.0156147         2765 
 3505000   0.68536702   -7.8845107    689.02051  0.016381848  0.015608702         2701 
 3506000   0.70438068   -7.8955068    688.48004  0.016364329   0.01560271         2809 
 3507000   0.68197017   -7.8925949     687.1636  0.016328381  0.015596717         2796 
 3508000   0.69526993   -7.8942349     687.5733  0.016333459  0.015590726         2837 
 3509000   0.68750712   -7.9135569      687.386  0.016324356  0.015584737         3005 
 3510000   0.69115212   -7.8824914    687.22945  0.016315989  0.015578748         2863 
 3511000   0.70613822   -7.9282176    686.67168  0.016298103  0.015572757         2968 
 3512000   0.69236065   -7.8738207    687.37635  0.016310183  0.015566774         2990 
 3513000   0.68769465    -7.884209    687.07219  0.016298325   0.01556078         2911 
 3514000   0.68362767   -7.9226433    686.73751   0.01628575  0.015554786         2984 
 3515000   0.68355726   -7.9149433     685.5746  0.016253547  0.015548793         2951 
 3516000   0.69142043   -7.9057155    687.83273  0.016302444  0.015542813         2926 
 3517000   0.69686892   -7.9148306    686.43814  0.016264765  0.015536833         2919 
 3518000   0.68269318    -7.898553    687.29555  0.016280452  0.015530846         2927 
 3519000   0.69714803   -7.8884223     687.6257  0.016283644   0.01552487         2875 
 3520000   0.68970241   -7.9044827    687.56653  0.016277617  0.015518889         2898 
 3521000   0.69080193   -7.8985206    686.80211  0.016254902  0.015512919         2917 
 3522000   0.70391416    -7.894157    686.73898  0.016248793  0.015506943         2980 
 3523000   0.68281252   -7.9109515    685.56555  0.016216424  0.015500961         2966 
 3524000    0.6988556   -7.8895373    687.23728  0.016251355   0.01549498         2987 
 3525000   0.68374083   -7.9176597    686.91203  0.016239055  0.015489008         3064 
 3526000   0.67709689   -7.9131416    686.38748  0.016222052  0.015483033         2943 
 3527000   0.68790154   -7.8977158    688.02507  0.016256145  0.015477059         3073 
 3528000   0.68331724   -7.9202948    686.90619  0.016225108  0.015471083         3062 
 3529000   0.67489169   -7.9229555    686.31396  0.016206526  0.015465116         3089 
 3530000   0.69332102   -7.9170814    685.68751  0.016187146  0.015459139         3118 
 3531000   0.70735777    -7.921126    687.38005  0.016222507   0.01545317         3093 
 3532000   0.68306441   -7.9274482    687.21025  0.016213907  0.015447196         3129 
 3533000   0.67553683   -7.9256328    686.19799  0.016185442  0.015441211         3259 
 3534000   0.69769999   -7.9187124    685.44928  0.016163207  0.015435225         3173 
 3535000   0.68187759   -7.9093273    686.27957  0.016178208  0.015429243         3081 
 3536000    0.6928606   -7.9364993    684.97507  0.016142889  0.015423265         3182 
 3537000   0.69854015   -7.9186287    686.00908  0.016162687  0.015417293         3141 
 3538000   0.69789067   -7.9348316    685.84041  0.016154146  0.015411323         3160 
 3539000   0.68752096   -7.8794101    686.05111  0.016154542  0.015405364         3217 
 3540000   0.67903428   -7.9495746     686.0423  0.016149772  0.015399397         3200 
 3541000   0.67241393   -7.9234928    686.03053  0.016144934  0.015393436         3182 
 3542000    0.6822801   -7.9468629    686.25051  0.016145551  0.015387483         3146 
 3543000   0.70132162   -7.9396428    686.24155  0.016140783  0.015381536         3258 
 3544000   0.66810457   -7.9296468    687.03703  0.016154934  0.015375576         3291 
 3545000   0.68029058   -7.9413722    685.66848  0.016118206  0.015369613         3244 
 3546000   0.67928733   -7.9458784    686.56984  0.016134843  0.015363655         3240 
 3547000   0.69812065   -7.9568564    685.46301   0.01610429  0.015357694         3292 
 3548000   0.67546366   -7.9206521    687.19468  0.016140424  0.015351743         3245 
 3549000   0.68492347   -7.9262168    685.10214  0.016086741  0.015345788         3264 
 3550000   0.67710999    -7.947792    684.78996  0.016074882  0.015339829         3229 
 3551000   0.69114661   -7.9186375    686.06912  0.016100374  0.015333881         3237 
 3552000   0.68946664   -7.9305697    687.08063  0.016119572  0.015327928         3234 
 3553000   0.69278597   -7.9571041    685.05547  0.016067536   0.01532198         3275 
 3554000   0.68693812   -7.9517324    685.28162  0.016068318  0.015316033         3255 
 3555000   0.70462034   -7.9456298    684.40835  0.016043327   0.01531009         3200 
 3556000   0.69456399   -7.9321579    684.60595  0.016043446   0.01530415         3241 
 3557000   0.68225186   -7.9352389    684.81691  0.016043879  0.015298203         3242 
 3558000   0.68355363   -7.9260886    686.09314   0.01606926  0.015292254         3172 
 3559000   0.67909016   -7.9574552    686.30731   0.01606976  0.015286315         3175 
 3560000    0.6724635   -7.9536739    685.60083  0.016048709  0.015280376         3306 
 3561000   0.67693036   -7.9318092    684.85773  0.016026812  0.015274434         3164 
 3562000   0.66976328   -7.9593405    685.52071  0.016037823  0.015268501         3197 
 3563000   0.67751343   -7.9606897    684.52691  0.016010078  0.015262566         3191 
 3564000   0.67428028   -7.9390367    684.85276  0.016013205  0.015256634         3189 
 3565000   0.68751235   -7.9469028    685.32392  0.016019727  0.015250707         3310 
 3566000   0.67642596   -7.9454358    684.94695  0.016006425   0.01524478         3223 
 3567000   0.68233721   -7.9586112     685.6816  0.016019101  0.015238855         3165 
 3568000   0.66275817   -7.9501151     685.4842  0.016010001  0.015232941         3208 
 3569000   0.68654113   -7.9431152    685.00998  0.015994442  0.015227017         3251 
 3570000   0.68826742   -7.9430956    686.10853  0.016015605  0.015221099         3292 
 3571000   0.68845763   -7.9551383    684.82066  0.015981066  0.015215179         3239 
 3572000   0.68020835   -7.9555593    686.65154  0.016019306  0.015209268         3236 
 3573000   0.67361422   -7.9508624    686.32076  0.016007108  0.015203363         3202 
 3574000   0.68761459   -7.9696717    684.53391  0.015960966  0.015197452         3299 
 3575000   0.67403992   -7.9631119    685.06887  0.015968971  0.015191551         3303 
 3576000   0.68373095   -7.9624622    683.92437  0.015937835  0.015185648         3378 
 3577000   0.66780078   -7.9452725    684.55072  0.015947971  0.015179747         3278 
 3578000   0.68728985   -7.9617072     685.1718  0.015957979  0.015173853         3227 
 3579000   0.66173013   -7.9791866    683.93099   0.01592463  0.015167947         3351 
 3580000   0.67847493   -7.9772973    685.22159  0.015950223  0.015162051         3332 
 3581000   0.67345863   -7.9684261    686.04384  0.015964904  0.015156164         3257 
 3582000   0.66898757   -7.9478044    685.87563  0.015956533   0.01515027         3278 
 3583000   0.66719662   -7.9662813     685.2444  0.015937399   0.01514438         3240 
 3584000    0.6834847   -7.9626078    684.39122  0.015913114  0.015138487         3217 
 3585000   0.68316166   -7.9319142    685.55592  0.015935749  0.015132602         3257 
 3586000   0.67493502   -7.9627335    683.48011  0.015883066  0.015126714         3314 
 3587000   0.67907134    -7.977771    685.14483  0.015917313  0.015120834         3368 
 3588000   0.67795124   -7.9642026    685.51596  0.015921497  0.015114945         3311 
 3589000   0.68466951    -7.959833    684.86078  0.015901848  0.015109059         3339 
 3590000   0.66619657   -7.9591868    684.94607  0.015899398  0.015103192         3212 
 3591000   0.66393101   -7.9690245    685.54133  0.015908784  0.015097313         3327 
 3592000   0.67316063   -7.9591988    683.54033  0.015857933  0.015091442         3351 
 3593000   0.67923026   -7.9604135    683.50404  0.015852677  0.015085582         3298 
 3594000   0.67407447   -7.9725585    684.70942  0.015876215  0.015079716         3288 
 3595000   0.67075289   -7.9577245     684.7308  0.015872295  0.015073857         3253 
 3596000   0.68138164   -7.9564408     685.0329  0.015874882  0.015067997         3326 
 3597000    0.6703452    -7.966838    685.13445  0.015872821  0.015062138         3336 
 3598000     0.665013   -7.9883856    684.92387  0.015863532  0.015056274         3298 
 3599000   0.68243509   -7.9630546    683.54798  0.015827266  0.015050409         3258 
 3600000   0.67109232   -7.9845305    683.32182  0.015817635  0.015044548         3327 
 3601000   0.66557021   -7.9727683     684.9428  0.015850754  0.015038694         3322 
 3602000   0.69712919   -7.9690527    685.44474  0.015857966  0.015032848         3284 
 3603000   0.66691811   -8.0073814    684.67342  0.015835725  0.015026993         3387 
 3604000   0.67296991   -7.9580473    684.07963  0.015817602  0.015021135         3338 
 3605000   0.66550203   -7.9614339    685.23045  0.015839816  0.015015289         3309 
 3606000   0.68380405   -7.9707726    684.16109  0.015810711  0.015009447         3376 
 3607000   0.66800332   -7.9623118    685.96781  0.015848069  0.015003601         3355 
 3608000   0.67787612   -7.9923549    684.06608  0.015799752  0.014997758         3350 
 3609000   0.67854304   -7.9618212    684.62239   0.01580822  0.014991924         3336 
 3610000   0.68089089   -7.9719391    683.90985  0.015787393  0.014986088         3361 
 3611000   0.69567559   -7.9473087    686.60118   0.01584513  0.014980262         3305 
 3612000   0.67597112   -8.0003865    683.70017  0.015773814  0.014974433         3301 
 3613000   0.68041517   -7.9776279    682.72414  0.015746936  0.014968608         3363 
 3614000   0.66655004   -7.9659017     685.3129  0.015802271  0.014962783         3298 
 3615000   0.67569995   -7.9799575    684.18263  0.015771845   0.01495696         3371 
 3616000   0.68148414   -7.9581853    684.58299   0.01577671  0.014951145         3294 
 3617000   0.68123387   -7.9882395    682.88024  0.015733118   0.01494533         3343 
 3618000   0.67994713   -7.9887532    685.51047  0.015789351  0.014939513         3374 
 3619000   0.68819705   -7.9679509    684.17465  0.015754229    0.0149337         3338 
 3620000   0.68450273   -7.9847907    684.68528  0.015761632  0.014927888         3422 
 3621000   0.66669807   -7.9786889    684.38834  0.015750445  0.014922082         3392 
 3622000   0.67587653   -7.9797907    684.26436  0.015743244  0.014916278         3363 
 3623000   0.65629077   -7.9771369    685.56683  0.015768857  0.014910472         3391 
 3624000   0.65826575   -7.9767327    683.77418  0.015723284  0.014904666         3410 
 3625000    0.6729135   -7.9827471     683.6409  0.015715883  0.014898869         3351 
 3626000    0.6562207   -7.9814474    684.72798  0.015736532  0.014893066         3438 
 3627000   0.65206328   -7.9776837    682.24215  0.015675079  0.014887272         3308 
 3628000   0.66694345   -7.9787758    684.72879  0.015727876  0.014881481         3405 
 3629000   0.67020641   -7.9799526    684.63013  0.015721276  0.014875696         3326 
 3630000   0.66929264   -7.9960643    682.90657  0.015677378  0.014869912         3371 
 3631000    0.6675779   -7.9980561    683.82934  0.015694238  0.014864129         3335 
 3632000    0.6803713   -8.0015207    684.59812  0.015707556  0.014858349         3444 
 3633000   0.68614895   -7.9762002     684.6772  0.015705046  0.014852577         3390 
 3634000   0.64676404   -7.9660528    685.56602  0.015721107  0.014846806         3368 
 3635000   0.67303977   -7.9773562    684.14901  0.015684296  0.014841035         3351 
 3636000   0.67153999     -7.99735    683.58938  0.015667157  0.014835261         3397 
 3637000   0.67382823    -7.979191     684.9421  0.015693843  0.014829498         3428 
 3638000   0.66198136   -7.9686895    684.85477  0.015687529  0.014823726         3398 
 3639000   0.65831164   -7.9545053    684.27512  0.015669944  0.014817963         3419 
 3640000   0.66170675   -7.9805174    683.40361  0.015645687  0.014812209         3439 
 3641000   0.67234267   -7.9558847    685.19879  0.015682477  0.014806456         3389 
 3642000   0.65935311    -7.969393    685.40844  0.015682968  0.014800704         3337 
 3643000   0.66076785   -7.9909124    684.28744   0.01565302  0.014794953         3387 
 3644000   0.67037474   -8.0022469    682.22299  0.015601514  0.014789199         3453 
 3645000   0.66811734   -7.9853545     683.2782  0.015621358  0.014783456         3354 
 3646000   0.66668395   -7.9850187    684.02277  0.015634091  0.014777708         3389 
 3647000   0.65474078   -7.9767642    685.02683  0.015652747  0.014771964         3367 
 3648000   0.66918324   -7.9880824    684.81653  0.015643652  0.014766219         3422 
 3649000   0.67975622   -7.9800944    684.04993  0.015621858  0.014760485         3360 
 3650000   0.66861223   -7.9608408    684.81859  0.015635128  0.014754756         3370 
 3651000   0.66913354   -7.9741854     685.0191  0.015635422  0.014749026         3346 
 3652000   0.67812775   -7.9669553    685.50569  0.015642244  0.014743298         3333 
 3653000   0.67073486    -7.975089    684.02675  0.015604224  0.014737569         3373 
 3654000   0.65870102   -7.9767988     684.9636  0.015621319  0.014731849         3365 
 3655000   0.65898032   -8.0037155    683.67779  0.015587729  0.014726122         3422 
 3656000   0.66933749   -7.9885296    683.70824  0.015584159  0.014720407         3316 
 3657000   0.66573537   -7.9916569    683.51986  0.015575605  0.014714692         3369 
 3658000   0.66624242   -7.9899197    683.10721  0.015561947  0.014708967         3428 
 3659000   0.66898659     -7.99107    684.68162  0.015593551  0.014703248         3382 
 3660000   0.66658082   -7.9684355    685.04268  0.015597511  0.014697535         3388 
 3661000   0.67453736   -7.9896766    684.00555  0.015569643  0.014691823         3456 
 3662000   0.67333552   -8.0096906    683.74263  0.015559408  0.014686127         3483 
 3663000   0.67179986   -7.9763352    683.59149  0.015551722  0.014680419         3384 
 3664000   0.66660738   -8.0052788     683.9972  0.015556705  0.014674715         3446 
 3665000   0.66628013   -7.9852319     684.2583  0.015558397  0.014669012         3418 
 3666000   0.66091404   -8.0114893    682.86702  0.015522527  0.014663314         3389 
 3667000   0.66667974   -7.9610519    684.04433  0.015545049   0.01465762         3446 
 3668000   0.67698731    -8.011184    683.27428  0.015523316  0.014651924         3512 
 3669000    0.6708785   -7.9886082    684.52208  0.015547426  0.014646232         3461 
 3670000    0.6519481   -7.9921017    683.00477  0.015508737  0.014640534         3505 
 3671000   0.66309377   -7.9766805    683.24626  0.015509994  0.014634841         3432 
 3672000    0.6605512    -7.976011    684.22234  0.015527922  0.014629156         3403 
 3673000   0.65642297   -8.0221267    683.08831  0.015497965  0.014623464         3505 
 3674000   0.66858509    -8.017594     683.8658  0.015511382  0.014617776         3407 
 3675000   0.65545028   -7.9666758    685.11893  0.015535577  0.014612092         3406 
 3676000   0.65060363   -7.9941243    682.94535  0.015482076  0.014606412         3498 
 3677000   0.66423718   -7.9994878    682.84988  0.015475702  0.014600731         3423 
 3678000   0.66372194   -8.0140203    683.33082  0.015482391   0.01459506         3486 
 3679000   0.65498182   -7.9870878    685.51981  0.015527766  0.014589384         3474 
 3680000   0.68062813   -7.9949724    684.35797  0.015497237  0.014583717         3474 
 3681000   0.67408641   -8.0159538    684.24461   0.01549046  0.014578053         3569 
 3682000   0.67010485   -7.9904582    684.78903  0.015498575  0.014572391         3550 
 3683000   0.66566343   -7.9846104    683.97969  0.015476054  0.014566724         3479 
 3684000   0.65585142   -7.9757606    685.48026  0.015505797  0.014561066         3458 
 3685000   0.65497798   -7.9862886    683.66718  0.015460587  0.014555413         3444 
 3686000   0.65105508   -8.0003699    683.62326    0.0154554  0.014549753         3488 
 3687000   0.65510965   -7.9983697    683.69706  0.015452876  0.014544101         3474 
 3688000   0.66336966   -7.9940352    682.50179  0.015421678  0.014538447         3445 
 3689000   0.68115248   -7.9854128    684.00572  0.015451471  0.014532794         3478 
 3690000    0.6623161   -7.9761168    683.51683  0.015436243   0.01452715         3412 
 3691000   0.66936518   -8.0338039    682.84205  0.015416826  0.014521501         3527 
 3692000   0.65938433   -8.0055978    684.55392  0.015451289  0.014515858         3438 
 3693000   0.67535689   -8.0005412    683.01378  0.015412352  0.014510212         3418 
 3694000   0.65390096   -7.9996517    684.27095   0.01543654  0.014504571         3392 
 3695000   0.66428201     -8.00927    681.65527  0.015373371  0.014498927         3480 
 3696000   0.66141559   -8.0059389    683.75791   0.01541662  0.014493286         3512 
 3697000   0.66759545   -7.9897356     683.9192  0.015416085  0.014487653         3529 
 3698000   0.65012217   -8.0138313    683.42313  0.015400738  0.014482021         3440 
 3699000    0.6626872   -7.9907425    683.74136  0.015403743  0.014476395         3443 
 3700000   0.65190196   -7.9912343    683.05817  0.015384193  0.014470771         3457 
 3701000    0.6414479   -8.0360437    682.49455  0.015367346  0.014465149         3479 
 3702000   0.66250742   -8.0106854    682.70811  0.015368002  0.014459528         3521 
 3703000   0.67234577   -8.0052026    682.96995  0.015369744  0.014453905         3462 
 3704000   0.64618165   -7.9872849    682.09493  0.015345908  0.014448287         3476 
 3705000   0.65531017   -8.0039024    683.42165  0.015371607  0.014442666         3521 
 3706000    0.6610445   -8.0104388    682.14889   0.01533884  0.014437047         3491 
 3707000   0.65494369   -8.0221023    683.44566  0.015363854  0.014431428         3498 
 3708000   0.64633172   -8.0207767    683.61913  0.015363609  0.014425816         3540 
 3709000   0.65972934     -8.04363    681.50028   0.01531186  0.014420207         3531 
 3710000   0.64447459   -8.0160389    683.52297  0.015353166    0.0144146         3574 
 3711000   0.66716714   -8.0169399    683.49454  0.015348391  0.014408996         3433 
 3712000   0.65969253   -7.9739796    683.30625  0.015340029  0.014403394         3515 
 3713000   0.65269095   -8.0118306      683.165  0.015332727  0.014397795         3455 
 3714000    0.6642099   -8.0296314    682.21998  0.015307395    0.0143922         3446 
 3715000   0.64546758   -8.0012804    684.39592  0.015352084  0.014386601         3469 
 3716000   0.65697374   -8.0301924    682.43872  0.015304062  0.014381012         3530 
 3717000   0.64663117   -8.0173069    682.81077  0.015308285  0.014375417         3452 
 3718000   0.65312844   -8.0068901     683.1002  0.015310655  0.014369822         3422 
 3719000   0.64971282   -7.9992393    683.83523  0.015323009  0.014364236         3433 
 3720000   0.66653097   -8.0316375    682.63614  0.015292028  0.014358653         3505 
 3721000   0.65604151   -8.0209274    683.27101  0.015302137  0.014353059         3528 
 3722000   0.66552218    -8.019851    684.13471  0.015317363   0.01434748         3544 
 3723000   0.66207946   -8.0288179    682.18762  0.015269667  0.014341894         3506 
 3724000   0.65254486   -7.9963358    683.60049  0.015297183  0.014336316         3540 
 3725000   0.66459441   -8.0342048    680.97453  0.015234329  0.014330734         3480 
 3726000   0.65539461   -8.0104796    684.01093  0.015298151  0.014325166         3499 
 3727000   0.64747314   -8.0108818    682.28864  0.015255537  0.014319603         3469 
 3728000   0.65753866   -8.0283022    682.75137  0.015261789  0.014314041         3511 
 3729000   0.66568828   -8.0046762     683.6141  0.015276975  0.014308494         3485 
 3730000   0.65297131   -8.0415506    682.05195  0.015237979  0.014302926         3528 
 3731000   0.65969427   -8.0041985    683.93686  0.015275995  0.014297374         3563 
 3732000   0.66861257   -8.0298572    683.29255  0.015257515   0.01429182         3513 
 3733000   0.64239737   -8.0125956    683.56355  0.015259477  0.014286256         3521 
 3734000   0.66906098   -8.0165626    682.13127  0.015223426  0.014280705         3596 
 3735000   0.66870967   -8.0452061    682.59167  0.015229622  0.014275153         3566 
 3736000   0.65419808   -8.0060397    684.45116  0.015267023    0.0142696         3587 
 3737000   0.65437658   -8.0394088     682.7611   0.01522525  0.014264051         3527 
 3738000   0.66350316   -8.0384956    681.78136  0.015199335  0.014258498         3511 
 3739000   0.65140278   -8.0354869    683.05343  0.015223621  0.014252953         3459 
 3740000   0.63771724   -8.0270033    682.92513  0.015216692  0.014247412         3535 
 3741000   0.66700383   -8.0336632    682.65962   0.01520671  0.014241866         3494 
 3742000   0.66038421   -8.0407951    683.65816  0.015224883  0.014236327         3568 
 3743000   0.64148952   -8.0279099    683.90393  0.015226288  0.014230795         3491 
 3744000   0.63354008   -7.9950909    684.02589  0.015224935  0.014225261         3441 
 3745000   0.66657194   -8.0091536    682.72302  0.015191878  0.014219729         3500 
 3746000   0.66852162     -8.02701    681.78208  0.015166891  0.014214203         3457 
 3747000   0.64804403   -8.0329169    682.94596  0.015188728  0.014208674         3527 
 3748000   0.66342694    -8.007209    683.74086  0.015202349  0.014203147         3465 
 3749000   0.65566221   -8.0341652    682.89782  0.015179555  0.014197629         3456 
 3750000   0.64908451   -8.0268295    682.23118  0.015160693  0.014192112         3460 
 3751000   0.63587202   -8.0468408    681.40675  0.015138335   0.01418659         3464 
 3752000   0.65533348    -8.026726    681.98192  0.015147075  0.014181074         3398 
 3753000   0.66192361   -8.0137922    683.32179   0.01517279  0.014175559         3407 
 3754000   0.66124965   -8.0231018     682.1559  0.015142868  0.014170051         3467 
 3755000     0.656369   -8.0324881    683.01388  0.015157876  0.014164546         3425 
 3756000   0.64903278   -8.0177122    683.71344  0.015169361  0.014159044         3461 
 3757000   0.65294313   -8.0276336    681.76158  0.015122029  0.014153538         3476 
 3758000   0.65472013   -8.0411795    682.06018  0.015124627  0.014148038         3520 
 3759000    0.6635053   -8.0286163    683.47083  0.015151876  0.014142544         3477 
 3760000   0.62706291   -8.0262608    682.70606  0.015130897  0.014137051         3499 
 3761000    0.6562148   -8.0170066    682.94657  0.015132203  0.014131557         3464 
 3762000   0.63582054   -8.0146183    681.43338  0.015094661  0.014126071         3423 
 3763000   0.65308952   -8.0245702    680.93552  0.015079625  0.014120579         3478 
 3764000   0.65908111   -8.0172555     683.5409    0.0151333  0.014115102         3529 
 3765000   0.64017088   -8.0114744    683.04196  0.015118237   0.01410962         3434 
 3766000   0.64653418   -8.0359504    682.26491  0.015097028  0.014104134         3514 
 3767000   0.65356173   -8.0411458    681.98405  0.015086808  0.014098655         3552 
 3768000   0.64919235   -8.0335122    681.80528   0.01507885  0.014093165         3593 
 3769000   0.64279885   -8.0292943     682.4404  0.015088892  0.014087684         3581 
 3770000   0.64148757   -8.0176892    682.40098  0.015084018  0.014082195         3470 
 3771000   0.65482587    -8.040147    681.06686  0.015050536  0.014076714         3453 
 3772000   0.65024594   -8.0465447    681.75085  0.015061657  0.014071235         3505 
 3773000   0.65768032   -8.0399028    681.47741  0.015051626  0.014065762         3520 
 3774000   0.63446181   -8.0817264    681.48469  0.015047798  0.014060287         3555 
 3775000   0.65354648   -8.0379008    682.44853  0.015065089   0.01405482         3507 
 3776000   0.63530346   -8.0496686    681.99406  0.015051069  0.014049354         3550 
 3777000   0.64552977   -8.0112369    681.18199  0.015029168  0.014043894         3502 
 3778000   0.64694724   -8.0538744    682.94096  0.015063988  0.014038437         3507 
 3779000   0.64495918   -8.0248046    681.81629  0.015035201  0.014032984         3501 
 3780000   0.63451454   -8.0402519    679.77614  0.014986246  0.014027527         3573 
 3781000    0.6533085   -8.0307952    681.97338   0.01503071  0.014022072         3530 
 3782000   0.64825369   -8.0323053    681.83011  0.015023579  0.014016622         3525 
 3783000   0.64790192   -8.0428946    682.52361  0.015034884  0.014011177         3554 
 3784000   0.66019818   -8.0520234    681.51267  0.015008648  0.014005727         3499 
 3785000   0.65497153   -8.0172853    682.88647  0.015034929  0.014000287         3457 
 3786000   0.65273837   -8.0070748    682.68246  0.015026467  0.013994845         3541 
 3787000   0.63968053   -8.0330045    681.87535  0.015004739  0.013989404         3539 
 3788000   0.65668481   -8.0435796    681.46388  0.014991726  0.013983971         3587 
 3789000   0.64224118   -8.0593698    681.76746  0.014994446  0.013978531         3610 
 3790000   0.62822331   -8.0391635    681.71723  0.014989385  0.013973092         3529 
 3791000   0.66206966   -8.0434269    680.60354   0.01496095  0.013967667         3558 
 3792000   0.64086424   -8.0215465    682.02754  0.014988299  0.013962238         3554 
 3793000   0.63936597   -8.0228786    682.03876  0.014984593  0.013956816         3608 
 3794000   0.63356792   -8.0400472    681.93255  0.014978311  0.013951395         3615 
 3795000   0.65019935   -8.0421536    682.75303  0.014992381  0.013945971         3565 
 3796000   0.65008469   -8.0477984    680.78203  0.014945162  0.013940547         3589 
 3797000   0.64298938   -8.0452747    681.85642  0.014964806  0.013935127         3613 
 3798000   0.66001663   -8.0349126    681.29415  0.014948529  0.013929711         3506 
 3799000   0.65085708   -8.0392815     680.6415  0.014930278  0.013924296         3587 
 3800000   0.63994568   -8.0472045    680.73411   0.01492838  0.013918885         3599 
 3801000   0.64781693   -8.0650637    681.26455  0.014936082   0.01391347         3598 
 3802000   0.65342926   -8.0447285    681.69567  0.014941603  0.013908056         3589 
 3803000   0.65462427   -8.0110198    683.34117  0.014973731   0.01390265         3484 
 3804000   0.64999947   -8.0291699    682.31471  0.014947308  0.013897246         3520 
 3805000    0.6348618   -8.0543028    681.60971  0.014927939  0.013891846         3575 
 3806000   0.64789338   -8.0725731    680.33121  0.014896024  0.013886437         3579 
 3807000   0.62946308   -8.0463322    682.63214  0.014942477  0.013881035         3577 
 3808000   0.63590832   -8.0679292    680.84937   0.01489954  0.013875637         3622 
 3809000   0.65138247   -8.0647395    681.51004  0.014910082   0.01387024         3629 
 3810000   0.64115519   -8.0563254    681.70599  0.014910455  0.013864842         3551 
 3811000   0.63435123   -8.0586578    680.50502  0.014880281  0.013859448         3606 
 3812000   0.64720683   -8.0493701    680.39456  0.014873963  0.013854063         3558 
 3813000   0.64828538   -8.0554615    680.56297  0.014873743  0.013848675         3564 
 3814000   0.63870626    -8.050096    681.38331  0.014887767  0.013843284         3565 
 3815000   0.62289448   -8.0528081    681.23712  0.014880671    0.0138379         3590 
 3816000   0.64063287   -8.0534612    680.91235  0.014869679  0.013832519         3477 
 3817000    0.6293871   -8.0925459    679.61945  0.014837557  0.013827139         3602 
 3818000   0.64302369   -8.0627465    680.65962  0.014856374  0.013821765         3607 
 3819000    0.6255446   -8.0586817    681.31625  0.014866812  0.013816397         3534 
 3820000   0.63094554    -8.022413    680.89611  0.014853755  0.013811034         3548 
 3821000   0.65105167   -8.0578672    680.94128  0.014850852  0.013805662         3612 
 3822000   0.63209253   -8.0569728    680.95813  0.014847334    0.0138003         3632 
 3823000   0.64714041   -8.0572392    680.83927  0.014840859   0.01379494         3580 
 3824000   0.65062391    -8.032337    683.26263  0.014889789  0.013789577         3599 
 3825000    0.6476516   -8.0826782    681.44445  0.014846284  0.013784221         3587 
 3826000   0.63203284   -8.0542152    680.68866  0.014825942  0.013778864         3576 
 3827000   0.64405237   -8.0821328    681.93245  0.014849152  0.013773515         3638 
 3828000   0.63923853   -8.0508574    680.90835  0.014822979  0.013768162         3532 
 3829000   0.65132246   -8.0640428    680.85055   0.01481785  0.013762812         3554 
 3830000   0.62742107    -8.060886    680.63837  0.014809364  0.013757459         3580 
 3831000   0.64248417    -8.051515    681.31635  0.014820246  0.013752111         3552 
 3832000   0.63873865   -8.0496083    681.01967  0.014809927  0.013746773         3580 
 3833000   0.63662033   -8.0613902     681.5839   0.01481833  0.013741433         3592 
 3834000   0.63029935   -8.0515351    680.29038   0.01478635  0.013736095         3578 
 3835000   0.63355968    -8.069773    681.77598  0.014814776  0.013730765         3548 
 3836000   0.64021824   -8.0686168    680.07653  0.014773995  0.013725435         3607 
 3837000   0.63242718    -8.078153    681.05867  0.014791475  0.013720108         3666 
 3838000   0.63451712   -8.0714636    680.48926  0.014775257  0.013714774         3608 
 3839000    0.6408496   -8.0761102    681.44143  0.014792078  0.013709443         3626 
 3840000   0.63950772   -8.0663075    680.98214  0.014778258  0.013704123         3611 
 3841000    0.6331986   -8.0540949    681.67262  0.014789391  0.013698807         3598 
 3842000    0.6333457   -8.0713272    681.54392   0.01478275  0.013693488         3653 
 3843000   0.64053649   -8.0611373    681.01084  0.014767344  0.013688176         3584 
 3844000   0.64012581   -8.0585897    680.06842  0.014743072  0.013682862         3596 
 3845000    0.6391067   -8.0670285    680.42863  0.014747044   0.01367755         3617 
 3846000   0.62306607   -8.0708857    680.82767  0.014751856  0.013672238         3599 
 3847000    0.6304774   -8.0717486    682.26627  0.014779185  0.013666929         3649 
 3848000   0.62864682   -8.0673701    682.13821   0.01477257  0.013661624         3609 
 3849000   0.64044739   -8.0609984    681.49848  0.014754882  0.013656321         3633 
 3850000   0.63028558   -8.0697257    680.58618  0.014731303  0.013651018         3644 
 3851000   0.64217145   -8.0739743    680.24407  0.014720074  0.013645715         3656 
 3852000   0.63263516   -8.0886538    681.52308  0.014743923  0.013640421         3638 
 3853000   0.62642963   -8.0669228    681.19212  0.014732938  0.013635126         3577 
 3854000   0.62411781   -8.0717212    680.63263  0.014717018  0.013629837         3659 
 3855000    0.6293327   -8.0576381    682.31064  0.014749473  0.013624545         3624 
 3856000   0.63122096   -8.0720661     679.9402   0.01469442  0.013619255         3626 
 3857000    0.6314977   -8.0775254    681.07013  0.014715023  0.013613963         3650 
 3858000   0.63130817   -8.0697854    680.31006  0.014694791  0.013608683         3660 
 3859000   0.62342452   -8.0740023    680.97002  0.014705235  0.013603401         3673 
 3860000   0.63406053   -8.0648334    680.23849  0.014685632   0.01359812         3651 
 3861000   0.64691288   -8.0734432    680.57668  0.014689128   0.01359284         3590 
 3862000   0.63708292   -8.0875612    681.06555  0.014695873  0.013587565         3644 
 3863000   0.64103908   -8.0856515    680.57013  0.014681382  0.013582291         3604 
 3864000   0.62827606   -8.0732228     681.7739  0.014703543  0.013577025         3652 
 3865000   0.62205738   -8.0747931    680.59762  0.014674377  0.013571754         3609 
 3866000   0.64105496   -8.0941261    680.53206  0.014669168  0.013566493         3623 
 3867000   0.63487231   -8.0699453    681.23542  0.014680532  0.013561229         3623 
 3868000   0.62389369   -8.0911634    680.09489  0.014652165  0.013555967         3653 
 3869000   0.62052028    -8.099398    680.34329  0.014653728  0.013550706         3643 
 3870000   0.63324543   -8.0834763    680.15509  0.014645889  0.013545452         3717 
 3871000   0.63060791   -8.0753693    680.93141  0.014658818  0.013540202         3627 
 3872000   0.62502203   -8.0636717    680.78879  0.014651963  0.013534947         3629 
 3873000    0.6157898   -8.0780385    680.70929  0.014646469  0.013529698         3644 
 3874000    0.6246941   -8.0767515     680.5507  0.014639277  0.013524453         3686 
 3875000   0.64531511   -8.0819463    680.57237  0.014635965  0.013519209         3688 
 3876000   0.63342057   -8.1028261    679.68956  0.014613209  0.013513969         3718 
 3877000   0.63232154   -8.0737595    680.19412  0.014620285  0.013508728         3628 
 3878000   0.62057986   -8.0987799    681.32898  0.014640901  0.013503496         3673 
 3879000   0.63184785   -8.0762834    681.72347  0.014645602  0.013498262         3655 
 3880000   0.61840149   -8.1007043    679.27712  0.014589285  0.013493027         3670 
 3881000   0.63557029   -8.0518506    681.27675  0.014628462  0.013487799         3637 
 3882000   0.63204146   -8.0988571    680.17016  0.014600939   0.01348257         3666 
 3883000   0.62444074   -8.0830603    681.30166  0.014621462  0.013477339         3596 
 3884000   0.63505563   -8.0852896    682.14634  0.014635821  0.013472111         3613 
 3885000   0.61168476   -8.0657712    679.82525  0.014582266  0.013466888         3668 
 3886000   0.61945668   -8.0702918    679.98231  0.014581882  0.013461659         3572 
 3887000   0.63753875   -8.1029382    679.39513  0.014565542  0.013456443         3640 
 3888000   0.62016991   -8.1002333    680.70273  0.014589822  0.013451223         3658 
 3889000   0.63346883    -8.091945    680.02107  0.014571464  0.013446002         3658 
 3890000   0.62735119   -8.0789076      681.569  0.014600878  0.013440791         3575 
 3891000   0.61964207   -8.0897684    681.59672   0.01459772  0.013435578         3597 
 3892000   0.62113413   -8.0948454    678.66144   0.01453112  0.013430367         3627 
 3893000   0.62154939    -8.075692    680.59565  0.014568791  0.013425154         3656 
 3894000   0.63582312   -8.0825984    678.78831  0.014526372  0.013419944         3615 
 3895000   0.61201454   -8.0702709    681.13808  0.014572916  0.013414747         3609 
 3896000   0.63213591   -8.0783847    681.66002  0.014580339  0.013409547         3613 
 3897000   0.62313148   -8.0831837    680.91627  0.014560694   0.01340435         3614 
 3898000   0.63006329   -8.0986903    679.71713  0.014531322  0.013399153         3639 
 3899000   0.62511128   -8.1030361    680.28785  0.014539793  0.013393958         3637 
 3900000   0.61058712    -8.085327    679.69617  0.014523422  0.013388767         3691 
 3901000   0.62578107   -8.1100164    680.47585  0.014536355  0.013383579         3701 
 3902000   0.62310918   -8.0944342    679.20777  0.014505548  0.013378395         3672 
 3903000   0.61933978   -8.0816212    680.05097  0.014519834  0.013373213         3588 
 3904000   0.61966724   -8.1013603    679.53101  0.014505016  0.013368023         3680 
 3905000     0.628639   -8.0848105    681.56955  0.014544805  0.013362845         3640 
 3906000   0.62429056   -8.1043997    680.20969  0.014512069  0.013357673         3618 
 3907000    0.6328852   -8.0920461    680.27248  0.014509694  0.013352496         3648 
 3908000   0.62591322   -8.0977939    679.32523  0.014485782  0.013347327         3668 
 3909000   0.62324803    -8.073182    679.20799  0.014479577  0.013342158         3681 
 3910000   0.62171346   -8.0981094    678.90693  0.014469457  0.013336992         3606 
 3911000   0.62043402   -8.0937506    680.50669  0.014499844  0.013331826         3613 
 3912000   0.62370721   -8.0943604    680.09105  0.014487284   0.01332666         3674 
 3913000   0.63722104   -8.1068273    680.10048  0.014483782  0.013321496         3660 
 3914000   0.61516424    -8.112959    680.24055  0.014483064  0.013316335         3614 
 3915000   0.63715038   -8.1093604    678.91753  0.014451203  0.013311175         3679 
 3916000   0.61936585   -8.0979607      680.731  0.014486104  0.013306031         3631 
 3917000   0.63071468   -8.1032456    679.89971   0.01446472  0.013300873         3664 
 3918000   0.62615582   -8.0880259    681.02378  0.014484937  0.013295718         3638 
 3919000   0.63271493    -8.101722    681.08628   0.01448257  0.013290569         3689 
 3920000   0.62430182   -8.0784546    680.93103  0.014475575  0.013285423         3659 
 3921000   0.63870095   -8.0739408    680.92604  0.014471777  0.013280287         3708 
 3922000   0.63617445   -8.0873198    679.99053  0.014448209   0.01327515         3674 
 3923000   0.63400586    -8.102546    679.08628  0.014425318  0.013270015         3648 
 3924000   0.61024725   -8.1143984     679.6401  0.014433403   0.01326488         3702 
 3925000   0.62827109   -8.1069999    679.58373  0.014428529  0.013259749         3608 
 3926000   0.62652727   -8.1102491    679.42964  0.014421583  0.013254616         3706 
 3927000   0.61853041   -8.0977922    680.49387  0.014440495  0.013249489         3606 
 3928000   0.62655173   -8.0964197    679.98546  0.014426032  0.013244355         3671 
 3929000   0.63169139   -8.1146142    679.26675  0.014407117  0.013239224         3686 
 3930000   0.61344643   -8.0915525    680.64931  0.014432767  0.013234106         3675 
 3931000   0.62815468   -8.0969799    679.94626  0.014414192   0.01322899         3605 
 3932000   0.61920517   -8.0733081    679.25083  0.014395787  0.013223869         3666 
 3933000   0.61815915   -8.0940944    679.01034  0.014387032  0.013218754         3697 
 3934000   0.61913267   -8.1021777    677.32406  0.014347654  0.013213635         3724 
 3935000   0.62213621   -8.1015237    680.36972  0.014408507  0.013208521         3675 
 3936000   0.61556064    -8.110301    679.01462  0.014376156  0.013203411         3708 
 3937000   0.62548299   -8.0828594    680.26704  0.014399015  0.013198306         3733 
 3938000   0.62222065   -8.1046816    680.79974  0.014406631  0.013193203         3693 
 3939000   0.63149026   -8.1010082    678.54005  0.014355167    0.0131881         3685 
 3940000   0.61880599   -8.1086672    680.21369  0.014386922  0.013182995         3689 
 3941000   0.60878003   -8.1193629     678.1812  0.014340294  0.013177883         3723 
 3942000   0.62893921   -8.1213023    679.07159  0.014355479  0.013172779         3737 
 3943000   0.60599674   -8.1030425    679.31705  0.014357026  0.013167676         3706 
 3944000   0.62289832   -8.1091936    679.90272  0.014365761  0.013162579         3730 
 3945000   0.62471553   -8.0861029    680.06257  0.014365496  0.013157485         3750 
 3946000   0.62137703   -8.1163403    680.78572  0.014377127  0.013152392         3653 
 3947000   0.61836711    -8.108304     679.6473  0.014349449  0.013147301         3763 
 3948000   0.62740306   -8.1189579    679.04348  0.014333069  0.013142215         3676 
 3949000   0.62027436   -8.1010131    680.31016  0.014356169  0.013137132         3738 
 3950000   0.61763655   -8.1100877    679.08526  0.014326693  0.013132041         3734 
 3951000   0.61858154   -8.1398069    677.74047  0.014294703  0.013126955         3693 
 3952000   0.61156517   -8.1096128    678.41506  0.014305311  0.013121875         3758 
 3953000   0.61257605   -8.1317742    677.72439  0.014287132  0.013116793         3722 
 3954000   0.61269796   -8.1231221    677.98962  0.014289108  0.013111711         3730 
 3955000    0.6219388   -8.1215598    679.90514  0.014325856  0.013106632         3696 
 3956000   0.60667638   -8.1463284    677.96166  0.014281296  0.013101556         3702 
 3957000   0.61329829   -8.1134962    678.94793  0.014298457   0.01309648         3788 
 3958000   0.61010372   -8.1279031     679.0166   0.01429629  0.013091402         3705 
 3959000   0.60401915   -8.1197698    678.05092  0.014272353  0.013086326         3752 
 3960000   0.61146006   -8.1108622    679.35931  0.014296282  0.013081254         3804 
 3961000    0.6162229   -8.1420132    678.60288  0.014276758  0.013076183         3738 
 3962000   0.61301048   -8.1308719    680.11051  0.014304865  0.013071114         3716 
 3963000   0.62310985   -8.1071631    679.17715  0.014281629   0.01306605         3722 
 3964000   0.61209589   -8.1432998    678.28721  0.014259317  0.013060983         3742 
 3965000   0.62295926   -8.1257585    678.52793   0.01426078  0.013055927         3734 
 3966000    0.6211486   -8.1312247      679.111  0.014269436   0.01305086         3764 
 3967000   0.61669318   -8.1318416    678.30396  0.014248886  0.013045799         3714 
 3968000   0.62075201   -8.1473609    678.20946   0.01424331  0.013040739         3784 
 3969000   0.62475629    -8.131236    677.62637  0.014227479  0.013035689         3706 
 3970000   0.61968667   -8.1228754     678.7787  0.014248084  0.013030638         3748 
 3971000   0.61829793   -8.1335714     679.0385  0.014249947  0.013025583         3721 
 3972000   0.62941434   -8.1253348    678.83141  0.014242015  0.013020532         3708 
 3973000   0.61173689   -8.1278834    678.04347  0.014221903  0.013015493         3748 
 3974000    0.6250451   -8.1366662    679.33965  0.014245505   0.01301045         3724 
 3975000   0.60923092   -8.1374599    678.64847  0.014227431  0.013005413         3743 
 3976000   0.62431404     -8.11873    678.78601  0.014226736  0.013000379         3742 
 3977000   0.60065029   -8.1393463    678.75484  0.014222505  0.012995341         3702 
 3978000   0.61378795   -8.1349731    678.19253   0.01420715  0.012990311         3675 
 3979000   0.60392635   -8.1461273    679.43851  0.014229675  0.012985286         3741 
 3980000   0.61248905   -8.1349065    677.56575  0.014186888  0.012980258         3728 
 3981000   0.61247312   -8.1476415    677.91759  0.014190689  0.012975228         3722 
 3982000   0.61258673   -8.1339969    678.93534  0.014208424  0.012970205         3721 
 3983000    0.6278307   -8.1429962    678.23477  0.014190199  0.012965185         3725 
 3984000   0.62916977   -8.1310788    677.70123  0.014175478  0.012960164         3671 
 3985000   0.61993902   -8.1370854    677.54223  0.014168595  0.012955144         3750 
 3986000   0.62360105   -8.1264892     678.3122  0.014181138  0.012950136         3745 
 3987000   0.60276755   -8.1341174    677.31487  0.014156736  0.012945127         3767 
 3988000   0.61665595   -8.1316819    677.12744  0.014149269  0.012940119         3682 
 3989000   0.61462539   -8.1521658    677.87282  0.014161294  0.012935114         3787 
 3990000   0.61594959    -8.125536    678.42633  0.014169305  0.012930105         3724 
 3991000   0.59556815   -8.1372803    679.15584  0.014180987    0.0129251         3703 
 3992000   0.62030443    -8.136592     678.5633  0.014165066    0.0129201         3727 
 3993000   0.62647344   -8.1335345    678.93702  0.014169318  0.012915101         3748 
 3994000    0.6114876   -8.1412855    677.31748  0.014131979  0.012910104         3706 
 3995000   0.62211749    -8.126924    679.10222   0.01416567  0.012905109         3710 
 3996000   0.61666952   -8.1609196    678.57316  0.014151092  0.012900114         3792 
 3997000   0.61021818   -8.1569477    676.26996  0.014099532  0.012895126         3735 
 3998000   0.61757565   -8.1356983    678.81916   0.01414914  0.012890136         3705 
 3999000   0.61878519   -8.1519307    677.22532  0.014112389  0.012885146         3769 
 4000000   0.60452035   -8.1529537    678.37763  0.014132867  0.012880168         3707 
 4001000   0.60749869   -8.1471549    678.01304  0.014121741  0.012875181         3745 
 4002000   0.61097919     -8.14105    678.53946  0.014129174  0.012870196         3732 
 4003000   0.61174416   -8.1468023    678.19833  0.014118543   0.01286522         3676 
 4004000   0.60635913   -8.1533084    677.03986  0.014090906  0.012860243         3727 
 4005000   0.62426234   -8.1606857    678.13288  0.014110131   0.01285527         3756 
 4006000    0.6121458   -8.1431058    678.13245    0.0141066  0.012850303         3744 
 4007000   0.61289509   -8.1493988    677.31205  0.014086017  0.012845323         3729 
 4008000   0.62090444     -8.13687    677.93883  0.014095534  0.012840354         3711 
 4009000   0.60028752   -8.1621585    677.89775  0.014091165  0.012835387         3755 
 4010000   0.59857211   -8.1591442    677.20103  0.014073172   0.01283042         3707 
 4011000   0.60834551   -8.1463067    676.78566  0.014061033  0.012825458         3718 
 4012000   0.61462889   -8.1506935    678.00841  0.014082927  0.012820496         3764 
 4013000   0.60858932   -8.1339847    679.12378  0.014102579  0.012815536         3800 
 4014000   0.62360891   -8.1534197    677.75098  0.014070565  0.012810583         3830 
 4015000   0.60553781    -8.150791    676.98651  0.014051194  0.012805631         3760 
 4016000   0.60099488   -8.1389832    678.04031  0.014069561  0.012800673         3746 
 4017000    0.6110358   -8.1381736    678.45126  0.014074584   0.01279572         3751 
 4018000    0.6099283   -8.1539439    678.20036  0.014065878  0.012790777         3728 
 4019000   0.60765479   -8.1481868    678.35982  0.014065684  0.012785833         3738 
 4020000   0.61883591   -8.1561678    676.52468  0.014024144  0.012780887         3757 
 4021000   0.60935254   -8.1381452    678.25461  0.014056508  0.012775947         3762 
 4022000   0.60745497   -8.1596527    677.35483   0.01403437  0.012771006         3811 
 4023000   0.61139798   -8.1527887    676.32861  0.014009624  0.012766069         3773 
 4024000   0.59431131    -8.141171    677.94345  0.014039584  0.012761138         3727 
 4025000   0.61405201   -8.1522553    678.00786   0.01403743  0.012756205         3758 
 4026000   0.61797076   -8.1502963    678.03704  0.014034547  0.012751271         3738 
 4027000   0.61227459   -8.1476692    678.89375   0.01404879  0.012746343         3728 
 4028000   0.60644794   -8.1455431    676.99258   0.01400597  0.012741416         3716 
 4029000   0.61667444   -8.1523593    678.10416  0.014025485  0.012736491         3815 
 4030000   0.59642219   -8.1603594    676.47704  0.013988359  0.012731571         3767 
 4031000   0.61445029   -8.1484735    677.90631  0.014014436  0.012726646         3774 
 4032000   0.61367453   -8.1427023    677.35275  0.013999519  0.012721728         3747 
 4033000   0.60156299   -8.1642718    677.76449  0.014004556  0.012716817         3801 
 4034000   0.60729396   -8.1563779    677.51982   0.01399603  0.012711906         3750 
 4035000   0.61279319   -8.1459863    678.55762  0.014013995  0.012706996         3786 
 4036000   0.61623763    -8.173823     676.7292   0.01397277   0.01270209         3810 
 4037000   0.59447501   -8.1379399    678.26183  0.014000946  0.012697193         3743 
 4038000   0.60608781   -8.1537988    676.95519  0.013970513   0.01269229         3713 
 4039000   0.61788054   -8.1469729    677.82136  0.013984925   0.01268739         3779 
 4040000   0.61903943   -8.1516959    676.57196  0.013955692  0.012682496         3810 
 4041000   0.60667067    -8.159334    678.22902   0.01398641  0.012677598         3770 
 4042000   0.63737806   -8.1580328     676.5378  0.013948083   0.01267271         3800 
 4043000   0.61020951   -8.1770064     677.4103  0.013962617  0.012667817         3753 
 4044000   0.60492439   -8.1801958    677.37224  0.013958379  0.012662924         3812 
 4045000   0.59999069   -8.1579406    678.02779  0.013968434  0.012658033         3818 
 4046000   0.59637648   -8.1314467    678.81009  0.013981094  0.012653152         3732 
 4047000   0.59663266   -8.1689895    677.02879   0.01394096  0.012648274         3742 
 4048000   0.61145107   -8.1593045    677.67425  0.013950804  0.012643396         3759 
 4049000   0.60912207   -8.1751663    675.86113  0.013910042  0.012638521         3759 
 4050000   0.61129389   -8.1810083    677.11295  0.013932365  0.012633646         3739 
 4051000   0.59403196   -8.1662559    677.65129      0.01394  0.012628772         3763 
 4052000   0.61193492   -8.1664498    676.58313  0.013914592  0.012623908         3787 
 4053000   0.61544716    -8.167657    677.96309  0.013939532  0.012619037         3730 
 4054000   0.59951445    -8.153369    677.95063  0.013935838  0.012614171         3761 
 4055000   0.59520148   -8.1561737    676.33955  0.013899292  0.012609308         3777 
 4056000   0.60396763   -8.1759717    677.65829   0.01392296   0.01260445         3771 
 4057000   0.60525316    -8.162377    677.43407  0.013914922  0.012599589         3741 
 4058000   0.60579918   -8.1595971    677.70786  0.013917116  0.012594731         3756 
 4059000    0.6052566    -8.161604    677.57689  0.013910998  0.012589873         3773 
 4060000   0.60994591   -8.1420462    676.84943   0.01389264  0.012585021         3759 
 4061000   0.60813992   -8.1677161    677.86409   0.01391004   0.01258017         3769 
 4062000   0.60180695   -8.1584507    677.39352  0.013896962  0.012575318         3723 
 4063000   0.59750284   -8.1680239    676.03952  0.013865771  0.012570472         3763 
 4064000   0.59335763   -8.1625157    677.06648  0.013883417   0.01256563         3772 
 4065000   0.59305505   -8.1736647    676.76686  0.013873859  0.012560786         3778 
 4066000   0.59756497    -8.154048    677.79554   0.01389153  0.012555951         3746 
 4067000   0.60795407   -8.1567557      676.869  0.013869129  0.012551117         3749 
 4068000   0.60979637    -8.168302    676.85376  0.013865408  0.012546282         3773 
 4069000   0.59583063   -8.1610732     678.0783  0.013887079  0.012541451         3773 
 4070000   0.61159769   -8.1628816    676.84918  0.013858501  0.012536627         3751 
 4071000   0.59313104   -8.1526271    676.64644  0.013850947    0.0125318         3772 
 4072000   0.59837438   -8.1440024    677.57327  0.013866513  0.012526976         3767 
 4073000   0.59777218   -8.1647761    676.83615  0.013848027  0.012522152         3767 
 4074000   0.60114753   -8.1625036    676.98259  0.013847623  0.012517331         3805 
 4075000   0.60108651   -8.1814823    677.76049  0.013860133  0.012512509         3749 
 4076000   0.58880799   -8.1760056    676.75213  0.013836117  0.012507693         3773 
 4077000   0.59893518   -8.1583071    677.51149  0.013848244  0.012502876         3772 
 4078000    0.5982579   -8.1585799    676.38581  0.013821845  0.012498062         3760 
 4079000   0.59900056   -8.1672666    677.28219  0.013836769  0.012493255         3771 
 4080000   0.58610221   -8.1747063    677.13369  0.013830345  0.012488446         3768 
 4081000   0.59334217   -8.1789819    676.62455   0.01381656  0.012483639         3745 
 4082000   0.60080034   -8.1766195     676.3242  0.013807043  0.012478835         3780 
 4083000   0.59188122   -8.1794251    676.70576  0.013811449  0.012474038         3783 
 4084000   0.60126874    -8.173547    676.21812  0.013798117  0.012469238         3766 
 4085000   0.59955153   -8.1673319    677.22906  0.013815362  0.012464441         3773 
 4086000   0.61012068   -8.1862097    677.25628  0.013812536  0.012459647         3810 
 4087000   0.59718301   -8.1605137    677.66398   0.01381747  0.012454849         3789 
 4088000   0.60143387   -8.1588047    676.69194  0.013794275  0.012450059         3770 
 4089000   0.57703998   -8.1367977    677.99907   0.01381754  0.012445267         3793 
 4090000   0.60191594   -8.1695822    677.80868  0.013810283   0.01244048         3795 
 4091000    0.5956811   -8.1676322    677.45678  0.013799739  0.012435696         3787 
 4092000   0.58082406   -8.1829672    677.38878  0.013794982  0.012430912         3795 
 4093000   0.59689019    -8.165602     676.5377  0.013774283  0.012426129         3769 
 4094000   0.59453487   -8.1683336    677.79319  0.013796474  0.012421354         3801 
 4095000   0.59341293    -8.156213    677.98039  0.013796915  0.012416578         3776 
 4096000   0.61359385   -8.1829774    676.09308  0.013755149  0.012411806         3772 
 4097000   0.58815744   -8.1553516    676.60754  0.013762256  0.012407038         3744 
 4098000   0.59817397   -8.1695612    676.48142  0.013756333  0.012402268         3763 
 4099000   0.58759772   -8.1645221     676.4812  0.013752972    0.0123975         3781 
 4100000   0.59595447   -8.1714549    676.76407  0.013755367  0.012392736         3778 
 4101000   0.59341655   -8.1648587    677.06421  0.013758112  0.012387977         3765 
 4102000   0.58666719   -8.1706467    677.74778  0.013768645  0.012383221         3749 
 4103000   0.59900241   -8.1727216    677.09475  0.013752026  0.012378465         3756 
 4104000   0.59916839   -8.1750354    676.54553  0.013737523  0.012373711         3771 
 4105000    0.5892258   -8.1532629    676.49246  0.013733099  0.012368958         3734 
 4106000   0.59826784   -8.1451339    678.32321   0.01376691  0.012364206         3735 
 4107000   0.59922412   -8.1559324    676.34835  0.013723487  0.012359458         3784 
 4108000   0.60517687   -8.1538719    677.45876  0.013742672  0.012354714         3695 
 4109000   0.60321931   -8.1858178    676.13221  0.013712424  0.012349971         3741 
 4110000   0.58443933   -8.1697962    677.10761  0.013728865  0.012345232         3727 
 4111000   0.60025161   -8.1794216    675.30812  0.013689048  0.012340495         3774 
 4112000   0.59944064   -8.1697936    676.78362  0.013715621  0.012335766         3772 
 4113000   0.58489295   -8.1668656    676.96279  0.013715917  0.012331032         3769 
 4114000   0.59260991   -8.1711509    676.63102  0.013705863  0.012326302         3773 
 4115000   0.59867857   -8.1867734    676.30291  0.013695887  0.012321575         3781 
 4116000   0.59737649   -8.1764601    675.86039    0.0136836  0.012316851         3754 
 4117000   0.60243471   -8.1774393    676.74166  0.013698115  0.012312125         3781 
 4118000   0.60469489   -8.1749383     675.7351  0.013674419  0.012307404         3756 
 4119000   0.60022269   -8.1718654    677.69748  0.013710801  0.012302684         3776 
 4120000    0.5901266   -8.1698544      677.752  0.013708576  0.012297965         3799 
 4121000   0.57773438   -8.1703348    677.75428  0.013705296  0.012293249         3775 
 4122000    0.5900573   -8.1810045     676.7845  0.013682365  0.012288537         3736 
 4123000   0.57865938   -8.1758918    676.89684  0.013681317  0.012283827         3699 
 4124000   0.58877779   -8.1777307    677.44121     0.013689  0.012279117         3815 
 4125000   0.58411483   -8.1706637    676.97555  0.013676274  0.012274409         3763 
 4126000   0.59597951   -8.1695907    676.57337  0.013664836  0.012269708         3760 
 4127000   0.58359545   -8.1603751    675.73033  0.013644502  0.012265009         3740 
 4128000   0.58478401   -8.1996243    677.55261  0.013677984  0.012260307         3804 
 4129000    0.5992512    -8.174595    676.52489  0.013653929  0.012255609         3749 
 4130000   0.59509663   -8.1704792     677.0324  0.013660864  0.012250916         3813 
 4131000   0.58896997   -8.1968501     675.9509   0.01363574   0.01224622         3758 
 4132000   0.59370316   -8.1768119    675.97548  0.013632936  0.012241533         3778 
 4133000   0.59806767   -8.1877484    676.75119  0.013645278  0.012236842         3784 
 4134000   0.57461309   -8.1711662    677.55092  0.013658098  0.012232155         3727 
 4135000   0.59557345   -8.1623315    677.07181  0.013645139  0.012227467         3762 
 4136000   0.60022006   -8.1674241    677.50335  0.013650535  0.012222791         3730 
 4137000   0.59314295   -8.1715607    677.66163  0.013650424  0.012218114         3754 
 4138000   0.58843232   -8.1883229    675.61489  0.013605906  0.012213437         3797 
 4139000   0.60169651   -8.1874089     676.3662  0.013617746   0.01220876         3788 
 4140000   0.58611422   -8.1874065    676.83142  0.013623821  0.012204088         3759 
 4141000   0.58639847   -8.1832524    675.95228  0.013602839  0.012199415         3717 
 4142000   0.58877057   -8.1852048     676.1942  0.013604422  0.012194747         3745 
 4143000   0.57727722   -8.1734177     677.5747  0.013628906  0.012190082         3810 
 4144000    0.5819528   -8.1937186    676.74067  0.013608846  0.012185417         3807 
 4145000   0.60018321   -8.1705962    677.25183  0.013615839  0.012180757         3803 
 4146000   0.57726457   -8.2005881    677.05216  0.013608542  0.012176098         3812 
 4147000   0.57852115   -8.1951951    675.49739  0.013574017  0.012171442         3792 
 4148000    0.5923029   -8.1796027    676.30361  0.013586942  0.012166781         3730 
 4149000   0.58642595   -8.1995495     676.0508  0.013578589  0.012162128         3759 
 4150000   0.59244029   -8.1789903     677.1951  0.013598295  0.012157472         3784 
 4151000   0.58486875   -8.1904435    676.85898  0.013588271  0.012152822         3763 
 4152000   0.59170365    -8.182345    675.99307  0.013567619  0.012148174         3790 
 4153000   0.58565535   -8.1938441    676.95394  0.013583633  0.012143526         3752 
 4154000   0.58610578   -8.1545131    676.86999  0.013578679  0.012138879         3783 
 4155000   0.60440367   -8.1815047    676.35625  0.013565107  0.012134238         3780 
 4156000   0.58048654   -8.1984308    676.71513  0.013569039  0.012129597         3797 
 4157000   0.58584754   -8.2019004    676.12017  0.013553848  0.012124959         3782 
 4158000   0.59627582   -8.1928869    675.86725   0.01354552  0.012120325         3743 
 4159000    0.5856997   -8.1911502    676.24888  0.013549909  0.012115692         3774 
 4160000   0.58051927   -8.2011008    676.67298  0.013555148   0.01211106         3812 
 4161000   0.58302738   -8.1960254    675.35984  0.013525592  0.012106428         3780 
 4162000   0.60332517   -8.1998559    676.14704  0.013538103  0.012101799         3778 
 4163000   0.57292301   -8.1954136    676.02303  0.013532369  0.012097175         3710 
 4164000     0.588339    -8.170652    675.14008  0.013511449   0.01209255         3804 
 4165000   0.60302028   -8.1930159     677.5983  0.013557389  0.012087929         3756 
 4166000   0.58013229   -8.1945412    676.85406  0.013539248  0.012083314         3780 
 4167000   0.58324837   -8.2128207    675.66324  0.013512184  0.012078698         3821 
 4168000   0.57225734   -8.2116696    675.53414  0.013506361  0.012074081         3828 
 4169000   0.58375192   -8.1913438    675.85275   0.01350949  0.012069468         3777 
 4170000   0.59176817   -8.1659189     677.5116  0.013539401  0.012064863         3746 
 4171000   0.58346742   -8.1977075    676.40651  0.013514076  0.012060258         3773 
 4172000   0.57691916    -8.186232    676.42419   0.01351119  0.012055654         3756 
 4173000   0.58639482   -8.2036033    675.19252  0.013483356  0.012051051         3816 
 4174000   0.58391661   -8.2067597    676.74955  0.013511211  0.012046452         3792 
 4175000   0.57708182   -8.1914016    675.79603  0.013488943  0.012041851         3815 
 4176000   0.57922336   -8.2068462    675.80725  0.013485936  0.012037251         3801 
 4177000   0.58529874    -8.202997    676.06351   0.01348782  0.012032655         3735 
 4178000   0.58181862   -8.1846177    675.60856  0.013475518  0.012028062         3796 
 4179000   0.58389793   -8.1811604    676.87553  0.013497558  0.012023479         3758 
 4180000   0.59354267   -8.1843414    675.40996  0.013465111  0.012018888         3799 
 4181000   0.57703466   -8.2084647    676.14019  0.013476445  0.012014302         3824 
 4182000   0.57490298   -8.2072429    675.80677  0.013466578  0.012009717         3716 
 4183000    0.5716229   -8.1905522    675.24034  0.013452075  0.012005134         3779 
 4184000   0.58430022    -8.178034    676.35344  0.013471029  0.012000557         3750 
 4185000   0.57625307   -8.2071178    675.61446  0.013453095  0.011995979         3769 
 4186000   0.59335407   -8.1850653    676.35455  0.013464615  0.011991403         3780 
 4187000   0.58809035   -8.1904011    676.46732  0.013463644  0.011986829         3775 
 4188000   0.57341147    -8.203751    676.39261  0.013458942  0.011982254         3773 
 4189000   0.57665538   -8.1836818    676.11527  0.013450212  0.011977684         3772 
 4190000   0.58349689   -8.1936183    675.30937  0.013430974  0.011973111         3806 
 4191000   0.58880434   -8.2048545    675.89264  0.013439367  0.011968549         3760 
 4192000   0.59011485   -8.1835899    676.70441  0.013452298  0.011963987         3818 
 4193000   0.58873959   -8.2216793      675.119  0.013417581  0.011959432         3781 
 4194000   0.57312528   -8.1919674    675.24533  0.013416892  0.011954873         3764 
 4195000   0.56749864   -8.2155491    676.56842  0.013439976  0.011950316         3758 
 4196000   0.57682799   -8.1885812    675.82303   0.01342197  0.011945763         3776 
 4197000   0.57854842   -8.2043745    675.51906  0.013412736  0.011941207         3756 
 4198000   0.57776391   -8.1976356    676.77316  0.013434436  0.011936659         3748 
 4199000   0.57334463   -8.2115141    674.95451  0.013395144  0.011932111         3789 
 4200000   0.56699566   -8.2124488    675.72798  0.013407301  0.011927565         3794 
 4201000   0.58637958   -8.2003371    676.10163  0.013411522   0.01192302         3733 
 4202000   0.57694295   -8.1886758    676.47933   0.01341582  0.011918476         3789 
 4203000   0.57735815   -8.1878975     676.2591  0.013408262  0.011913934         3761 
 4204000   0.57527658   -8.1772214    676.71228  0.013414056    0.0119094         3754 
 4205000   0.58111368   -8.1935491    676.36958  0.013404074  0.011904865         3723 
 4206000    0.5774817    -8.192283    675.44556   0.01338258  0.011900336         3783 
 4207000   0.58776301   -8.2159683    675.75392  0.013385507  0.011895804         3799 
 4208000   0.59381364   -8.1855023    675.68183  0.013380898  0.011891279         3741 
 4209000   0.57713311   -8.1884841    675.72099  0.013378494  0.011886756         3776 
 4210000   0.57591819   -8.1874952    675.78415  0.013376567  0.011882234         3754 
 4211000   0.58537987   -8.1943397    676.22826  0.013382179   0.01187771         3801 
 4212000    0.5693133   -8.1906865    674.95838  0.013353877  0.011873188         3769 
 4213000   0.57506326   -8.1903791    675.76752  0.013366713  0.011868667         3761 
 4214000   0.58027741   -8.2126636    676.13956  0.013370898  0.011864152         3766 
 4215000   0.58355343   -8.1911221    675.22911  0.013349725  0.011859639         3763 
 4216000   0.58731021   -8.2025764    675.20195  0.013346022  0.011855129         3769 
 4217000   0.57798889   -8.2234096    675.11692  0.013341177  0.011850617         3783 
 4218000   0.58305954   -8.1913827    676.66579  0.013368614  0.011846109         3760 
 4219000   0.57256015   -8.2146567    675.68104  0.013345995  0.011841606         3771 
 4220000   0.57497674   -8.1943708    674.65204  0.013322513  0.011837105         3744 
 4221000   0.57635673    -8.219948    675.20461  0.013330266  0.011832604         3796 
 4222000    0.5895728   -8.2008131     676.7909  0.013358418  0.011828109         3787 
 4223000   0.56817303    -8.224668    675.52032  0.013330182  0.011823613         3788 
 4224000    0.5630802   -8.2048413    675.14749  0.013319671   0.01181912         3756 
 4225000   0.56580194   -8.2166692    676.36832  0.013340598  0.011814626         3785 
 4226000   0.57679313   -8.2048058    675.92755   0.01332875   0.01181014         3741 
 4227000   0.57439425     -8.19989    675.31409  0.013313502  0.011805651         3798 
 4228000    0.5791848    -8.197831    675.79352  0.013319803   0.01180117         3738 
 4229000   0.58155712   -8.2155629    675.84594  0.013317686  0.011796689         3784 
 4230000   0.58289787   -8.1902782    675.07973  0.013299443  0.011792211         3770 
 4231000   0.57038802   -8.1990333     675.5475  0.013305513  0.011787736         3785 
 4232000   0.56345792   -8.2077199     674.7304  0.013286279  0.011783264         3830 
 4233000   0.57094772   -8.1985368    675.85438  0.013305268  0.011778792         3765 
 4234000   0.56723173   -8.2049867    675.23722  0.013289978  0.011774319         3760 
 4235000   0.57610258   -8.2208464    675.44417  0.013290913  0.011769848         3734 
 4236000   0.57265978   -8.2012206    675.35498   0.01328602  0.011765381         3792 
 4237000    0.5616029   -8.2191148    675.84091  0.013292442  0.011760916         3753 
 4238000   0.58188494   -8.2058479    675.38228  0.013280287  0.011756451         3800 
 4239000   0.56903302   -8.1917967    675.34184  0.013276359   0.01175199         3823 
 4240000   0.57601453   -8.2202012    676.62286  0.013298405  0.011747529         3796 
 4241000   0.57610882   -8.2142627    675.94088  0.013281869  0.011743066         3796 
 4242000   0.56692161   -8.2230453    675.76597  0.013275302  0.011738612         3771 
 4243000   0.57626009   -8.1978466    676.56529  0.013287872  0.011734164         3786 
 4244000   0.55778029   -8.2100494    675.51674  0.013264152   0.01172971         3806 
 4245000   0.57695622   -8.2165578    675.61206  0.013262899   0.01172526         3807 
 4246000   0.56706102     -8.22594    676.20243  0.013271362  0.011720815         3787 
 4247000   0.58088554   -8.2185668    675.78566  0.013260059  0.011716371         3794 
 4248000   0.58866491   -8.2304413    675.28712  0.013247158  0.011711928         3762 
 4249000   0.58159933   -8.2066955    675.34839  0.013245242  0.011707485         3791 
 4250000   0.56268298   -8.2022684    675.13065  0.013237856  0.011703051         3797 
 4251000   0.56591981   -8.1902068    674.84187  0.013229081  0.011698615         3774 
 4252000   0.57273218   -8.2302328    675.89633  0.013246636  0.011694184         3794 
 4253000   0.57816942   -8.2060084    675.10016  0.013227921  0.011689753         3792 
 4254000   0.57716228   -8.2257696    674.21043  0.013207382  0.011685323         3789 
 4255000   0.56699763   -8.1971531    675.69003  0.013233256  0.011680897         3773 
 4256000   0.56754443   -8.2062816    676.13372  0.013238834  0.011676474         3754 
 4257000   0.58018054   -8.2234596    676.19098  0.013236845   0.01167205         3765 
 4258000   0.55853536   -8.2159749    676.42304  0.013238278  0.011667634         3785 
 4259000   0.55977284    -8.200086    675.77512  0.013222492  0.011663212         3819 
 4260000   0.56390814   -8.2221521    676.24486  0.013228577  0.011658794         3812 
 4261000   0.57644005   -8.2231085    674.10408  0.013183605  0.011654381         3820 
 4262000   0.56979435   -8.1973418    675.58673  0.013209501  0.011649966         3786 
 4263000   0.56396102   -8.2045482    676.22268  0.013218834  0.011645555         3784 
 4264000   0.57203275   -8.2372315    674.84659   0.01318884  0.011641142         3802 
 4265000   0.55864017   -8.2032391    675.42113  0.013196974  0.011636736         3711 
 4266000   0.56473648    -8.231153    674.46196  0.013175144  0.011632333         3762 
 4267000   0.57834169   -8.2186456    675.27716  0.013187977  0.011627935         3778 
 4268000   0.57045989   -8.2241991    674.92452  0.013178001  0.011623538         3792 
 4269000   0.55266541   -8.2182948    675.56925    0.0131875  0.011619144         3812 
 4270000   0.57284895   -8.2245871    675.08048  0.013174873  0.011614751         3748 
 4271000   0.55440182   -8.2102645    675.48201  0.013179622   0.01161036         3734 
 4272000   0.55865946   -8.2193597    675.23926  0.013171802  0.011605973         3816 
 4273000   0.56693324   -8.2363822    675.96899  0.013182951  0.011601584         3841 
 4274000   0.57410747   -8.2119635    675.25356  0.013165917  0.011597196         3795 
 4275000   0.56551856   -8.2258903    676.16394  0.013180584   0.01159281         3797 
 4276000    0.5606426   -8.1901112    674.93221  0.013153496  0.011588429         3745 
 4277000   0.56614675   -8.2088037    675.81012  0.013167526  0.011584051         3803 
 4278000   0.56881791   -8.2188787    675.49404  0.013158291  0.011579669         3806 
 4279000   0.57594983   -8.2285006    675.43757  0.013154116  0.011575294         3775 
 4280000   0.56823442   -8.2247904    673.95506  0.013122178  0.011570922         3778 
 4281000   0.56765471   -8.2268984     674.9251  0.013137995  0.011566551         3813 
 4282000   0.55849007     -8.21888    675.70792  0.013150162  0.011562178         3790 
 4283000   0.56347179   -8.2225243    676.27243  0.013158075  0.011557806         3811 
 4284000   0.56391465   -8.2361434    674.49021  0.013120336  0.011553438         3799 
 4285000   0.55866402   -8.2125866    675.16379  0.013130373  0.011549075         3796 
 4286000   0.57057574   -8.2188699    675.99395  0.013143451  0.011544713         3776 
 4287000   0.56416253   -8.2051637    674.71097  0.013115445  0.011540355         3772 
 4288000   0.55180289   -8.2112065    675.28237  0.013123491  0.011535997         3782 
 4289000   0.56561541   -8.2243412    674.48461  0.013104931  0.011531641         3796 
 4290000   0.55537269   -8.2077327    674.60807  0.013104275  0.011527288         3772 
 4291000    0.5789052   -8.2312163    676.25208  0.013133148  0.011522936         3800 
 4292000   0.56175684   -8.2306058    675.33917  0.013112364  0.011518584         3789 
 4293000    0.5645975    -8.219558    674.58192   0.01309461  0.011514239         3783 
 4294000   0.56117648     -8.21853     675.9779  0.013118652  0.011509892         3768 
 4295000   0.55978236   -8.2368741     676.4069  0.013123921  0.011505548         3770 
 4296000   0.55352697   -8.2122113     675.3207  0.013099796  0.011501206         3787 
 4297000   0.55781853    -8.221817    675.93142  0.013108592  0.011496867         3733 
 4298000   0.57293701   -8.2187012    675.83681  0.013103707  0.011492524         3806 
 4299000   0.56560451   -8.2350433    675.04651   0.01308534  0.011488191         3775 
 4300000   0.56611372   -8.2169474    675.22356  0.013085728  0.011483862         3775 
 4301000   0.56584866   -8.2195702    675.94524  0.013096668  0.011479532         3749 
 4302000    0.5634568   -8.2270687    674.65267  0.013068586  0.011475201         3797 
 4303000   0.54703656   -8.2415786    674.59798  0.013064489  0.011470874         3746 
 4304000   0.57022984   -8.2076788    675.87622  0.013086203   0.01146655         3787 
 4305000   0.56753463   -8.2319593    674.34958  0.013053612  0.011462231         3777 
 4306000    0.5653614   -8.2388973    675.46798  0.013072225  0.011457917         3788 
 4307000   0.56770486    -8.247553    674.23802  0.013045392  0.011453599         3817 
 4308000   0.56258463    -8.225387    674.95082  0.013056152   0.01144928         3817 
 4309000   0.56189441   -8.2072754    675.68883  0.013067394  0.011444964         3773 
 4310000   0.55792094   -8.2270015    674.96607  0.013050388  0.011440652         3799 
 4311000    0.5688716   -8.2351511    675.61684   0.01305994  0.011436346         3804 
 4312000   0.55864999    -8.217826     674.8231  0.013041572  0.011432037         3803 
 4313000   0.56079689   -8.2335527    674.64865  0.013035178  0.011427733         3776 
 4314000   0.56657336   -8.2161177     674.7046  0.013033237  0.011423431         3781 
 4315000   0.55836744   -8.2162778    674.45518  0.013025399  0.011419127         3798 
 4316000   0.55328661   -8.2375917    674.99156  0.013032738  0.011414826         3799 
 4317000   0.55014381   -8.2328849    675.99182  0.013049028   0.01141053         3821 
 4318000    0.5559489   -8.2263828    673.72597  0.013002277  0.011406232         3797 
 4319000   0.55045526    -8.211238     675.3107  0.013029843  0.011401939         3780 
 4320000   0.55730011   -8.2184795    675.35808  0.013027741  0.011397645         3838 
 4321000   0.55729842   -8.2240865    675.29829  0.013023573  0.011393355         3793 
 4322000   0.55895893   -8.2273497    674.55522  0.013006232  0.011389067         3757 
 4323000   0.57319711   -8.2434587    674.14626   0.01299534  0.011384784         3756 
 4324000   0.55267803   -8.2261987    675.00849  0.013008952  0.011380501         3795 
 4325000   0.56562913   -8.2258412    676.49038  0.013034497   0.01137622         3782 
 4326000   0.55729332   -8.2290729    674.04045   0.01298429  0.011371941         3806 
 4327000   0.56440406   -8.2030081    676.06493  0.013020278  0.011367664         3803 
 4328000   0.55504973   -8.2265655    674.67038  0.012990419  0.011363393         3769 
 4329000    0.5551142   -8.2321984    675.16172  0.012996876  0.011359118         3815 
 4330000   0.55920087   -8.2312276    675.17849  0.012994197  0.011354844         3807 
 4331000   0.57279702   -8.2253201    675.26809  0.012992921  0.011350573         3779 
 4332000   0.55041533   -8.2353613    674.63015   0.01297765  0.011346306         3798 
 4333000   0.55994189   -8.2037567    675.68715  0.012994983  0.011342042         3803 
 4334000   0.55539579   -8.2482113    672.96033  0.012939554  0.011337775         3831 
 4335000    0.5500193   -8.2232468    675.61258  0.012987554  0.011333511         3827 
 4336000   0.55750873    -8.253615    674.83293  0.012969575  0.011329251         3798 
 4337000   0.54645413   -8.2381378    674.96868  0.012969193  0.011324996         3816 
 4338000   0.55978891   -8.2375063    674.47533  0.012956726  0.011320743         3801 
 4339000   0.56691238   -8.2306711    674.43583  0.012952981  0.011316486         3807 
 4340000   0.55460839   -8.2338013    674.38254  0.012948974  0.011312234         3787 
 4341000   0.55543727   -8.2412365    674.61823  0.012950515  0.011307983         3804 
 4342000   0.56570428   -8.2485148    674.12798  0.012938123  0.011303737         3800 
 4343000   0.56155912    -8.236202    674.88397   0.01294965  0.011299492         3815 
 4344000   0.55613336   -8.2341084    673.98717  0.012929465  0.011295247         3796 
 4345000   0.56071751   -8.2553298    675.80778  0.012961407  0.011291006         3778 
 4346000   0.55483906   -8.2349889    674.41431  0.012931706  0.011286767         3792 
 4347000   0.55277749   -8.2278049    674.01123  0.012921004  0.011282526         3792 
 4348000   0.55737624   -8.2438035     674.3814  0.012925127  0.011278291         3823 
 4349000   0.54500449   -8.2393898     672.5567  0.012887191  0.011274055         3808 
 4350000   0.55502891   -8.2342271    674.01891   0.01291224   0.01126982         3821 
 4351000   0.55121498   -8.2376601    675.59473  0.012939453  0.011265586         3791 
 4352000     0.555804   -8.2381916    675.21479  0.012929205  0.011261356         3758 
 4353000   0.56123946   -8.2252473    674.02112  0.012903383  0.011257132         3824 
 4354000   0.56516361   -8.2230577    674.95684  0.012918329  0.011252909         3783 
 4355000   0.55156923     -8.24219    673.86321  0.012894436  0.011248681         3778 
 4356000   0.56177961   -8.2461322    675.02934  0.012913784  0.011244464         3826 
 4357000   0.55513621   -8.2429487     674.4767  0.012900251  0.011240242         3760 
 4358000    0.5613702   -8.2446866    672.90254   0.01286719  0.011236024         3795 
 4359000   0.55105342   -8.2490508    674.41347  0.012893123  0.011231814         3791 
 4360000   0.55576368   -8.2385308    674.99833  0.012901344  0.011227605         3810 
 4361000    0.5519941   -8.2390764    674.28413  0.012884738  0.011223398         3798 
 4362000    0.5507951   -8.2256214    673.63186  0.012869323  0.011219192         3799 
 4363000    0.5580173   -8.2383056     674.8819  0.012890249  0.011214982         3781 
 4364000    0.5445329   -8.2436459    673.68765  0.012864491  0.011210776         3802 
 4365000   0.56260104   -8.2326931    675.16458   0.01288974  0.011206574         3802 
 4366000   0.55695033   -8.2233531    675.10481  0.012885647  0.011202376         3769 
 4367000   0.56424324   -8.2485739    674.52791  0.012871688  0.011198177         3790 
 4368000   0.55526011    -8.232582    674.47911   0.01286781  0.011193981         3812 
 4369000   0.54734931   -8.2180106    675.40651  0.012882553  0.011189782         3825 
 4370000   0.54668534   -8.2483183     673.8156  0.012849268   0.01118559         3793 
 4371000   0.55313896   -8.2522289    673.50545  0.012840415  0.011181395         3778 
 4372000   0.55654131   -8.2528831     674.0595  0.012848039  0.011177202         3826 
 4373000   0.55185936   -8.2595775    674.56643  0.012854761  0.011173015         3808 
 4374000   0.55013929   -8.2511316    674.35813  0.012847853   0.01116883         3805 
 4375000   0.54833967   -8.2377793    674.53357  0.012848259  0.011164646         3762 
 4376000   0.56055304   -8.2421943    673.41145  0.012823954  0.011160464         3796 
 4377000   0.54211654   -8.2546254     673.6217  0.012825027  0.011156281         3785 
 4378000   0.54614227   -8.2455046    674.57202  0.012840186    0.0111521         3800 
 4379000   0.54067734   -8.2679687    674.25723  0.012831263  0.011147921         3853 
 4380000    0.5510215   -8.2388854    674.15641  0.012826416  0.011143746         3826 
 4381000   0.54822839   -8.2482274    675.03245  0.012840152  0.011139575         3797 
 4382000   0.54733747   -8.2607918    674.56871  0.012828402  0.011135407         3797 
 4383000   0.55279515   -8.2350003     675.0258  0.012834166  0.011131237         3833 
 4384000   0.54424282   -8.2503664    672.22274  0.012777957  0.011127071         3827 
 4385000   0.55923586   -8.2483304    675.58953  0.012839026  0.011122908         3830 
 4386000    0.5438427   -8.2509441    673.64617  0.012799175   0.01111875         3797 
 4387000   0.54997087   -8.2497886    672.76015  0.012779427  0.011114589         3776 
 4388000   0.54969968   -8.2622837    674.88935   0.01281695  0.011110429         3799 
 4389000   0.55455498   -8.2429061    674.05509   0.01279819  0.011106274         3835 
 4390000   0.55103302   -8.2523839    673.18757  0.012778807   0.01110212         3792 
 4391000   0.54427534   -8.2473868    675.36566  0.012817233   0.01109797         3803 
 4392000   0.54223515   -8.2529629    673.96022  0.012787648  0.011093817         3777 
 4393000   0.55325884   -8.2511367    675.22395   0.01280871  0.011089668         3773 
 4394000   0.54990005   -8.2517477    673.74285  0.012777705  0.011085523         3836 
 4395000   0.53783012   -8.2335828     673.7717  0.012775345  0.011081378         3816 
 4396000   0.55682327   -8.2405549    673.43139  0.012765988  0.011077233         3803 
 4397000   0.54228282   -8.2342873    674.15148  0.012776732  0.011073088         3816 
 4398000   0.55349864    -8.261484    672.83283  0.012748841  0.011068949         3826 
 4399000   0.54822274   -8.2482145    675.52804     0.012797   0.01106481         3760 
 4400000   0.55858547   -8.2567312    674.02434  0.012765612  0.011060678         3811 
 4401000   0.55531759   -8.2490965    673.86259  0.012759649  0.011056544         3821 
 4402000   0.55011672   -8.2549866    674.19415  0.012763027  0.011052414         3802 
 4403000   0.55620515   -8.2561415    673.99407  0.012756342  0.011048284         3785 
 4404000   0.55367327   -8.2682524    672.65731  0.012728151  0.011044159         3838 
 4405000   0.55510081   -8.2545105    674.63923  0.012762755  0.011040034         3801 
 4406000   0.56025711   -8.2494705    673.69793  0.012742055  0.011035911         3808 
 4407000   0.54410822   -8.2711999    674.23727  0.012749362  0.011031789         3839 
 4408000   0.55331632   -8.2542482    673.85379   0.01273922  0.011027672         3824 
 4409000   0.55810881   -8.2504054    674.85082  0.012755175  0.011023556         3797 
 4410000    0.5458051   -8.2548589    673.89181  0.012734161  0.011019439         3809 
 4411000   0.52976789   -8.2549967     672.5247  0.012705447  0.011015327         3812 
 4412000   0.55357313   -8.2600219      674.029   0.01273098  0.011011215         3777 
 4413000   0.53599972   -8.2459742    674.09089  0.012729264  0.011007104         3820 
 4414000   0.52601268   -8.2459788    673.78761  0.012720654  0.011002999         3778 
 4415000      0.55429   -8.2574339    674.06457  0.012723001  0.010998892         3802 
 4416000   0.53772425   -8.2525238    674.04331  0.012719718   0.01099479         3816 
 4417000   0.54521689   -8.2372625    673.39832   0.01270467  0.010990688         3836 
 4418000   0.53142715   -8.2460925     673.3342  0.012700585  0.010986589         3805 
 4419000   0.54375624   -8.2628191    672.84228  0.012688434   0.01098249         3826 
 4420000   0.54255167   -8.2359499    673.52688  0.012698471  0.010978393         3827 
 4421000   0.54085234   -8.2622938    673.70131  0.012698886  0.010974299         3814 
 4422000   0.54866538   -8.2465043    672.28361  0.012669298  0.010970208         3819 
 4423000   0.55308283   -8.2462815    674.66989  0.012711393  0.010966115         3809 
 4424000   0.54520369   -8.2577087    673.41824  0.012684943  0.010962026         3808 
 4425000   0.54202287   -8.2607822    672.62598  0.012667156  0.010957937         3832 
 4426000   0.54783426   -8.2455126    674.16463  0.012693264   0.01095385         3766 
 4427000   0.54344373   -8.2647251    673.13203  0.012670959  0.010949764         3820 
 4428000   0.54657389   -8.2627984    674.20359  0.012688264  0.010945686         3796 
 4429000   0.53976458   -8.2578722    673.50323  0.012672222  0.010941607         3799 
 4430000    0.5442557   -8.2566611    673.93067  0.012677402  0.010937531         3807 
 4431000   0.56447108   -8.2537298    673.64777   0.01266922  0.010933454         3792 
 4432000   0.54049099   -8.2595632     673.9999  0.012672983  0.010929386         3809 
 4433000   0.54921497   -8.2542451    673.48391  0.012660424  0.010925312         3814 
 4434000   0.52957835   -8.2541076    673.96338   0.01266658  0.010921244         3813 
 4435000   0.54134007   -8.2586804    673.19134  0.012649217  0.010917171         3804 
 4436000   0.53750001   -8.2709879    672.95293  0.012641887  0.010913105         3798 
 4437000   0.52950385   -8.2495851    673.52501  0.012649782  0.010909041         3810 
 4438000   0.55051886   -8.2504504    673.34152  0.012643487  0.010904977         3783 
 4439000   0.54154212     -8.24396    673.54345  0.012644429  0.010900918         3783 
 4440000   0.52854023   -8.2534489    673.74471  0.012645359   0.01089686         3822 
 4441000   0.54296453   -8.2740287     673.4157  0.012636338  0.010892802         3815 
 4442000   0.54090117   -8.2581544    674.53281   0.01265445   0.01088875         3793 
 4443000   0.53826855   -8.2737472    674.30959  0.012647415    0.0108847         3830 
 4444000    0.5520007   -8.2546361     673.8172  0.012635336   0.01088065         3772 
 4445000   0.54862502   -8.2544621    674.34535  0.012642395  0.010876603         3819 
 4446000   0.53141529   -8.2674397    672.87447  0.012611982   0.01087256         3815 
 4447000   0.53888039   -8.2705363    672.12108  0.012595028  0.010868514         3811 
 4448000   0.53581943   -8.2640675    673.12452  0.012610996  0.010864471         3822 
 4449000   0.52924297   -8.2723831    674.30896  0.012630347  0.010860431         3805 
 4450000   0.53622805   -8.2768114    672.42397  0.012592209  0.010856389         3783 
 4451000    0.5349855   -8.2694788    671.91225    0.0125798  0.010852347         3816 
 4452000   0.54584273   -8.2740334    673.73931  0.012611173  0.010848313         3829 
 4453000   0.53716344   -8.2687856    674.09227  0.012614946   0.01084428         3788 
 4454000    0.5449101   -8.2822125    673.12065  0.012593935  0.010840247         3803 
 4455000    0.5443434   -8.2839782    672.80325  0.012585171  0.010836218         3843 
 4456000   0.53469205   -8.2711171    673.45005  0.012594443   0.01083219         3805 
 4457000   0.53675948   -8.2676015    672.57879  0.012575327  0.010828164         3809 
 4458000   0.54155563   -8.2708739    673.04508  0.012581222   0.01082414         3787 
 4459000   0.54338255    -8.273456    673.50714  0.012587036  0.010820116         3787 
 4460000   0.55024292   -8.2630885    673.45945  0.012583323  0.010816091         3816 
 4461000   0.53850721   -8.2667282    673.36634  0.012578763  0.010812076         3807 
 4462000   0.53956689   -8.2751035    673.10662  0.012571093  0.010808056         3800 
 4463000   0.53745191   -8.2793595    674.01763  0.012585287  0.010804044         3785 
 4464000    0.5391029   -8.2728467    673.60171  0.012574703  0.010800031         3783 
 4465000   0.55290397   -8.2605188    672.16898  0.012545147   0.01079602         3792 
 4466000   0.53532491   -8.2708796    673.36543  0.012564663  0.010792013         3778 
 4467000   0.54882178   -8.2774233    672.40596  0.012543951  0.010788007         3776 
 4468000   0.53833363   -8.2551154    672.34091   0.01253993  0.010783998         3786 
 4469000   0.53550358   -8.2671388    673.52214  0.012559151  0.010779994         3811 
 4470000   0.53046568   -8.2839028    673.00426  0.012546686   0.01077599         3807 
 4471000   0.53354887   -8.2709408    673.31925  0.012549751  0.010771985         3779 
 4472000   0.51852162   -8.2764678    673.43677  0.012549135  0.010767986         3802 
 4473000    0.5505198   -8.2719771    673.10857  0.012540215   0.01076399         3820 
 4474000   0.52881112    -8.256625    674.07729  0.012555455  0.010759997         3762 
 4475000   0.53890785   -8.2551469    673.99933  0.012551198  0.010756005         3811 
 4476000   0.52958275   -8.2571767    673.11369  0.012531905  0.010752014         3792 
 4477000   0.54098859   -8.2671925    673.19446  0.012530609  0.010748023         3797 
 4478000   0.54382315   -8.2734806    673.39238  0.012531494  0.010744037         3780 
 4479000   0.52650513   -8.2908661    672.01839  0.012503133  0.010740051         3843 
 4480000   0.52359703   -8.2738033     672.1248  0.012502321  0.010736068         3845 
 4481000   0.53955408   -8.2788097    671.85262   0.01249447  0.010732084         3800 
 4482000   0.53680847   -8.2570654     673.5069   0.01252244  0.010728108         3809 
 4483000   0.54784518   -8.2640131    673.42587   0.01251814  0.010724134         3789 
 4484000   0.54841767   -8.2749149    673.52382  0.012517169   0.01072016         3798 
 4485000   0.52532433   -8.2658375    674.21366  0.012527195  0.010716186         3815 
 4486000   0.53452967    -8.275982    673.05926  0.012502958  0.010712212         3768 
 4487000   0.53538039   -8.2836894    673.21821  0.012503124  0.010708245         3811 
 4488000   0.53764042   -8.2795558     673.4573  0.012504778  0.010704282         3789 
 4489000   0.54090187   -8.2722432    672.43264   0.01248297  0.010700315         3809 
 4490000   0.52903532   -8.2686701     674.0854  0.012510865   0.01069635         3798 
 4491000   0.54173245   -8.2758346    672.24436  0.012473917  0.010692385         3793 
 4492000   0.54040927   -8.2779065    671.82139  0.012463294  0.010688427         3817 
 4493000   0.53511805   -8.2681448    672.61132  0.012475171  0.010684464         3817 
 4494000   0.54400628   -8.2825697    671.44958  0.012450853  0.010680507         3821 
 4495000   0.52791542   -8.2825755    673.00767  0.012476968   0.01067655         3831 
 4496000    0.5331075    -8.278663    671.93312  0.012454276  0.010672597         3784 
 4497000    0.5422434    -8.289608    672.14474  0.012455428  0.010668646         3821 
 4498000   0.52756467   -8.2660831    673.92058   0.01248556  0.010664696         3777 
 4499000   0.52522339   -8.2843106    674.21723   0.01248828  0.010660747         3810 
 4500000   0.53535094   -8.2821554     672.9597  0.012462217  0.010656802         3830 
 4501000   0.53631939   -8.2842586    672.19978  0.012445378   0.01065286         3819 
 4502000   0.52036862   -8.2666814    672.77021  0.012453173  0.010648922         3753 
 4503000   0.52185509   -8.2966588    672.80293  0.012451013  0.010644982         3807 
 4504000   0.52891825   -8.2750767    672.74456  0.012447168  0.010641041         3800 
 4505000   0.53100409   -8.2797118    673.83578  0.012464591  0.010637106         3842 
 4506000   0.53246409    -8.271536    673.71288  0.012459552  0.010633172         3808 
 4507000   0.52722386    -8.268314    672.55564   0.01243539   0.01062924         3814 
 4508000   0.52597885   -8.2778622    673.18777  0.012444317  0.010625311         3821 
 4509000   0.51354696   -8.2911506    672.75489  0.012433557  0.010621382         3809 
 4510000   0.55297865   -8.2765582    673.45863  0.012443803  0.010617459         3814 
 4511000   0.53456043   -8.2821287    671.74532  0.012409394  0.010613534         3818 
 4512000   0.53310228   -8.2670586    672.85005  0.012427047  0.010609611         3834 
 4513000    0.5322321    -8.284211    673.26229  0.012431906   0.01060569         3783 
 4514000   0.52336306   -8.2793954    672.36457  0.012412579   0.01060177         3842 
 4515000   0.51795356   -8.2748113    671.91272   0.01240149  0.010597854         3812 
 4516000   0.51474517   -8.2758263    673.29973  0.012424338  0.010593939         3804 
 4517000   0.53514554   -8.2792814    672.21647  0.012401603  0.010590028         3818 
 4518000   0.52979105   -8.2822144    673.32415  0.012419289  0.010586116         3802 
 4519000   0.53605346   -8.2688251    673.64289  0.012422418  0.010582211         3849 
 4520000    0.5361965   -8.2689382    672.99415  0.012407709  0.010578309         3816 
 4521000   0.54667011   -8.2822444    673.57704  0.012415709  0.010574408         3790 
 4522000   0.52391555   -8.2810236    671.73713  0.012379057  0.010570508         3785 
 4523000   0.52639055   -8.2855272     673.5687  0.012410065  0.010566605         3817 
 4524000   0.52780737   -8.2769864    672.37864  0.012385401  0.010562708         3777 
 4525000   0.53439488    -8.275506    672.70022  0.012388586  0.010558813         3765 
 4526000    0.5244905   -8.2771927    672.25809  0.012377708  0.010554917         3806 
 4527000   0.51100945   -8.3010962     672.0188  0.012370569  0.010551022         3849 
 4528000   0.51806051   -8.2858783    672.44639  0.012375707  0.010547132         3791 
 4529000   0.51750748    -8.267142    673.56674  0.012393588  0.010543243         3820 
 4530000     0.533817   -8.2772561    671.85853  0.012359429   0.01053935         3795 
 4531000   0.52476628    -8.287813    671.90965  0.012357641  0.010535465         3796 
 4532000   0.53254654   -8.2864375    672.21092  0.012360454  0.010531584         3842 
 4533000   0.51168045   -8.2898096    672.37023  0.012360656  0.010527702         3810 
 4534000   0.53936321   -8.2742705    673.71977  0.012382734  0.010523822         3806 
 4535000   0.52718182   -8.2798141    672.10672  0.012350362  0.010519941         3817 
 4536000   0.52430179    -8.297586    672.76057  0.012359652  0.010516065         3827 
 4537000   0.53241175   -8.2766781    672.86529  0.012358851  0.010512189         3838 
 4538000   0.51617814   -8.2692734    672.71655  0.012353396  0.010508313         3851 
 4539000   0.53478275   -8.2661937     673.1611  0.012358836  0.010504444         3793 
 4540000   0.52820152    -8.284698    672.41985  0.012342508  0.010500577         3803 
 4541000   0.53756762   -8.2944035    673.04293  0.012351225  0.010496708         3807 
 4542000   0.51688296   -8.2779669     673.5266  0.012357379   0.01049284         3805 
 4543000   0.51974018   -8.2862238    671.98301  0.012326345  0.010488974         3834 
 4544000   0.52731077     -8.28854    672.26365  0.012328779  0.010485109         3833 
 4545000    0.5215482   -8.2975836    672.64538  0.012333065  0.010481244         3802 
 4546000   0.51892137    -8.273071    672.83684  0.012333862  0.010477387         3788 
 4547000   0.52619907   -8.2747078     671.7865    0.0123119  0.010473526         3821 
 4548000   0.51345636    -8.282009    672.58265  0.012323781  0.010469672         3829 
 4549000   0.53363304   -8.2929227    673.21022  0.012332568  0.010465816         3784 
 4550000   0.51437865   -8.2936147    672.83123  0.012322916  0.010461964         3817 
 4551000   0.50467833   -8.2874543    672.42885  0.012312841  0.010458112         3847 
 4552000   0.52740956   -8.2872749    672.46432  0.012310785  0.010454261         3834 
 4553000   0.53117933   -8.3007078     671.0312  0.012281851  0.010450414         3802 
 4554000   0.51795822   -8.2945238    672.75787   0.01231075   0.01044657         3818 
 4555000   0.52723959   -8.3005252     672.2278   0.01229835  0.010442726         3812 
 4556000   0.52042206   -8.2977704    672.34651  0.012297822  0.010438883         3776 
 4557000   0.51637568   -8.2852046    672.13884  0.012291325  0.010435045         3802 
 4558000   0.51705664   -8.2930182    672.07076  0.012287384  0.010431204         3779 
 4559000   0.52242495   -8.2842116    672.94804  0.012300725  0.010427365         3796 
 4560000   0.51551627   -8.2975906    671.71705  0.012275531  0.010423529         3803 
 4561000   0.52496911   -8.2843678    671.93486  0.012276819  0.010419697         3819 
 4562000   0.51370231   -8.2844389    672.29517   0.01228071  0.010415868         3852 
 4563000   0.52317475   -8.2963299    672.11196  0.012274672  0.010412037         3820 
 4564000   0.52854084    -8.282724    672.32646  0.012275899   0.01040821         3811 
 4565000   0.51957447    -8.282214    672.45971  0.012275643  0.010404383         3803 
 4566000    0.5294958    -8.308051    672.29383  0.012269927   0.01040056         3817 
 4567000   0.51789717   -8.2763392    673.90152  0.012296575  0.010396737         3791 
 4568000   0.53000124   -8.2908063    673.06257  0.012278579  0.010392918         3848 
 4569000    0.5202163   -8.2807473    672.93993  0.012273654    0.0103891         3846 
 4570000   0.52575276   -8.2899347    672.58348  0.012264469  0.010385287         3796 
 4571000    0.5190491   -8.2902618    672.38436  0.012258156  0.010381475         3814 
 4572000   0.51920771   -8.3067623    672.32256  0.012254348  0.010377661         3792 
 4573000   0.51188685   -8.2961912    672.34146  0.012252013  0.010373852         3804 
 4574000   0.51059745   -8.2969947    671.09502  0.012226626  0.010370042         3812 
 4575000   0.51529085   -8.2863785    672.57215  0.012250859  0.010366236         3788 
 4576000   0.52669665   -8.2879323    671.88139  0.012235602   0.01036243         3789 
 4577000   0.51040891   -8.2950178    672.48761  0.012243966  0.010358625         3812 
 4578000   0.52610068    -8.287826    672.73461  0.012245788  0.010354825         3825 
 4579000   0.51488855   -8.2890853    672.01727  0.012230059  0.010351026         3824 
 4580000   0.51912442   -8.2989045    672.49148  0.012236017  0.010347231         3805 
 4581000   0.51718705   -8.3023853     671.5787  0.012216741  0.010343431         3799 
 4582000   0.51483174   -8.3013955    673.32891  0.012245906  0.010339634         3787 
 4583000   0.51750841   -8.2850233    671.75439  0.012214605  0.010335843         3748 
 4584000   0.52562978    -8.294185    672.59518  0.012227225   0.01033205         3778 
 4585000   0.53529456    -8.307697    672.74897  0.012227353  0.010328263         3794 
 4586000   0.51646257   -8.2938924    671.84529  0.012208266  0.010324475         3787 
 4587000   0.52078207   -8.2967849    672.02934  0.012208948  0.010320694         3802 
 4588000   0.50956531   -8.2879881    671.66031  0.012199584  0.010316909         3761 
 4589000   0.52115689    -8.288995     672.5059  0.012212281  0.010313126         3791 
 4590000   0.51201268   -8.2997045       673.15  0.012221314  0.010309345         3780 
 4591000   0.50620729   -8.3038583    672.08936    0.0121994  0.010305564         3814 
 4592000   0.51450416   -8.2910537    672.10161  0.012196966  0.010301787         3823 
 4593000   0.51907588   -8.2951011    671.52542  0.012183856  0.010298009         3791 
 4594000   0.51731507   -8.3047637    671.75996  0.012185459  0.010294236         3854 
 4595000   0.52454007   -8.2989798    672.22397  0.012191222  0.010290464         3823 
 4596000   0.52017968   -8.2939653    672.99453  0.012202541  0.010286692         3815 
 4597000   0.51055735   -8.3037024    671.22213  0.012167757  0.010282923         3781 
 4598000   0.52527071   -8.2864622    671.54404  0.012170945   0.01027916         3828 
 4599000   0.52471548   -8.3129968    671.67978  0.012170758  0.010275396         3800 
 4600000   0.51315019   -8.2746824    671.68449  0.012168197  0.010271632         3817 
 4601000   0.51011289   -8.2907624    672.37653  0.012178087  0.010267871         3820 
 4602000   0.51301814   -8.2851779    673.69128  0.012199248  0.010264111         3798 
 4603000   0.50968355   -8.2907692    672.67596  0.012178216  0.010260356         3838 
 4604000   0.53354217   -8.2974292    672.46342  0.012171724    0.0102566         3807 
 4605000   0.52264981   -8.3038467    671.54384   0.01215244  0.010252845         3836 
 4606000   0.51194208   -8.2948703    671.75417  0.012153607   0.01024909         3799 
 4607000   0.52352705   -8.2996461    672.88906  0.012171497   0.01024534         3817 
 4608000   0.50887273   -8.2840409    671.66081  0.012146644  0.010241591         3824 
 4609000   0.50861827   -8.3228318    672.26572  0.012154945  0.010237847         3842 
 4610000   0.51858787   -8.3040208    672.35779  0.012153973  0.010234097         3840 
 4611000   0.51492188   -8.3175255    671.82074  0.012141631  0.010230356         3855 
 4612000   0.52302435   -8.2985854    671.53551  0.012133845  0.010226611         3817 
 4613000   0.52437068   -8.2954086    671.41715  0.012129076   0.01022287         3813 
 4614000   0.51216766   -8.2982587    671.31526  0.012124607  0.010219131         3811 
 4615000   0.52389278   -8.2913005    671.72308  0.012129344  0.010215394         3839 
 4616000   0.51176351    -8.295187    672.68556  0.012144092  0.010211662         3841 
 4617000   0.50741757   -8.3110423    671.33294  0.012117048   0.01020793         3878 
 4618000   0.53184244   -8.3018237    671.33403  0.012114444  0.010204198         3803 
 4619000   0.52453282   -8.2860438    672.71207  0.012136683  0.010200468         3844 
 4620000   0.50901066   -8.2918753    671.75093  0.012116719   0.01019674         3828 
 4621000   0.51454567   -8.3106691    671.89037  0.012116612   0.01019302         3819 
 4622000   0.51879122   -8.3064288    672.66933  0.012128035  0.010189297         3853 
 4623000   0.50770755   -8.2978678    671.51843  0.012104666  0.010185574         3813 
 4624000    0.5072706   -8.3188478    673.57875  0.012139179  0.010181856         3797 
 4625000    0.5154351    -8.300595    672.11545  0.012110188  0.010178136         3805 
 4626000   0.52909626   -8.3038749    672.00807  0.012105636  0.010174418         3802 
 4627000   0.50547348   -8.3206225    672.41521  0.012110352  0.010170704         3789 
 4628000   0.50972156   -8.3031488    672.11698  0.012102366  0.010166993         3835 
 4629000   0.51621308   -8.3010501    671.58248  0.012090129  0.010163281         3822 
 4630000   0.51596727   -8.3055837    672.00678  0.012095154  0.010159572         3864 
 4631000   0.51419338   -8.2961731    670.90591  0.012072733  0.010155864         3818 
 4632000   0.52571864   -8.3017716    671.79067  0.012086044  0.010152159         3794 
 4633000   0.51739413   -8.3170239    671.34311  0.012075385  0.010148457         3811 
 4634000   0.50878323   -8.2981644     671.5602  0.012076683  0.010144754         3801 
 4635000   0.51382871   -8.3168162    671.31218  0.012069619  0.010141055         3796 
 4636000   0.50167441   -8.3021927    671.52999   0.01207093  0.010137358         3810 
 4637000   0.52738776   -8.3159394    672.23975  0.012081082   0.01013366         3808 
 4638000   0.52301763   -8.3043851    671.03035  0.012056748  0.010129965         3769 
 4639000   0.50061248   -8.3111687    671.45432  0.012061765  0.010126269         3827 
 4640000   0.50410825   -8.3022578    671.62591  0.012062247  0.010122577         3848 
 4641000   0.51756361   -8.3288301    670.11996  0.012032607  0.010118888         3815 
 4642000   0.51213165   -8.3173917    671.52957   0.01205532  0.010115201         3821 
 4643000   0.51710571   -8.3116355    672.75601  0.012074736  0.010111517         3828 
 4644000   0.50773588   -8.3027454     671.9235  0.012057197   0.01010783         3803 
 4645000   0.50263114   -8.3148132     672.3127  0.012061584  0.010104147         3841 
 4646000   0.50904808   -8.3155368    671.83945    0.0120505  0.010100465         3819 
 4647000   0.51595758   -8.3123242    672.49893  0.012059733  0.010096786         3797 
 4648000    0.5003792   -8.3207043    671.65949  0.012042088  0.010093109         3838 
 4649000   0.50324319   -8.3184466    671.33786  0.012033732  0.010089429         3844 
 4650000   0.52037596    -8.306851    670.65118  0.012018838  0.010085751         3831 
 4651000   0.51571872   -8.2945568    671.38505  0.012029403  0.010082075         3813 
 4652000   0.49423172   -8.3215233    671.40857  0.012027239  0.010078404         3809 
 4653000   0.50572899   -8.3113384    671.16985  0.012020378  0.010074734         3827 
 4654000   0.49312163   -8.3072768    670.78823  0.012010962  0.010071065         3815 
 4655000    0.5035684   -8.2945457    671.50997  0.012021303  0.010067396         3821 
 4656000   0.52119838   -8.3015483    672.01461  0.012027753  0.010063731         3830 
 4657000   0.50189034   -8.2982846    671.54459  0.012016759  0.010060067         3820 
 4658000   0.51100142    -8.314238    671.33958  0.012010512  0.010056403         3794 
 4659000   0.49873046   -8.3098119    671.89631  0.012017892  0.010052744         3804 
 4660000   0.49334956   -8.3041393    670.97715  0.011998876  0.010049087         3825 
 4661000   0.50083149   -8.3152918    672.11248    0.0120166   0.01004543         3827 
 4662000   0.51876756   -8.3169513     671.7459   0.01200747  0.010041776         3858 
 4663000   0.50611212   -8.3161225    672.47718  0.012017964  0.010038124         3839 
 4664000   0.50420961   -8.3096092     672.0036  0.012006925  0.010034473         3813 
 4665000   0.50174429   -8.3302783     670.9607  0.011985722  0.010030822         3821 
 4666000    0.5056975   -8.3302263    671.26691  0.011988622  0.010027172         3821 
 4667000   0.50946763   -8.3224181    670.94454  0.011980297  0.010023526         3811 
 4668000   0.51951891   -8.3136563    671.72484   0.01199166  0.010019881         3798 
 4669000   0.49673827   -8.3148231     671.1676  0.011979146   0.01001624         3839 
 4670000   0.50581085   -8.3282349    671.33151  0.011979506  0.010012598         3809 
 4671000   0.50768302   -8.3234751    671.52529  0.011980398  0.010008956         3779 
 4672000   0.49567077   -8.3056764    670.27963  0.011955615  0.010005321         3826 
 4673000   0.50602579   -8.3155974    672.16087  0.011986605  0.010001684         3796 
 4674000   0.49634603   -8.3181816    670.42856  0.011953155 0.0099980474         3761 
 4675000   0.49712528   -8.3171887     670.5959  0.011953581 0.0099944148         3817 
 4676000   0.49366609   -8.3118067    671.25938  0.011962849 0.0099907834         3782 
 4677000   0.50143065    -8.317203    672.31935  0.011979177 0.0099871521         3790 
 4678000   0.50163121   -8.3171554    671.49975  0.011962016 0.0099835247         3803 
 4679000   0.50275952   -8.3115488    671.06298  0.011951681 0.0099798976         3835 
 4680000   0.50562262   -8.3263483    671.27621  0.011952924 0.0099762737         3808 
 4681000   0.49827173   -8.3156804    671.44477  0.011953371  0.009972652         3864 
 4682000   0.50268141   -8.3196815    670.89273  0.011940993 0.0099690318         3791 
 4683000   0.51175868   -8.3161869    671.02884  0.011940865  0.009965417         3840 
 4684000   0.49909477   -8.3133702    671.12147  0.011939964 0.0099618015         3845 
 4685000    0.5007621   -8.3228935    670.31656  0.011923098 0.0099581846         3785 
 4686000   0.50128817   -8.3187553     670.6053  0.011925688  0.009954571         3849 
 4687000   0.50156816   -8.3382032    670.52595  0.011921733 0.0099509587         3873 
 4688000   0.49582697   -8.3110139    671.88712  0.011943386  0.009947347         3819 
 4689000    0.5030567   -8.3144893     670.2623  0.011911962 0.0099437397         3823 
 4690000     0.512543   -8.3052776    670.99864  0.011922506  0.009940134         3839 
 4691000   0.49964527   -8.3213382    671.02355  0.011920407 0.0099365277         3773 
 4692000   0.50282202   -8.3248818      672.043  0.011935973 0.0099329261         3846 
 4693000   0.49707755    -8.318343    671.33725  0.011920897 0.0099293239         3801 
 4694000   0.49914309   -8.3251165    670.80881  0.011908976 0.0099257246         3813 
 4695000   0.49905095   -8.3090857    670.79657  0.011906222 0.0099221285         3825 
 4696000   0.50237493   -8.3017133    671.61378  0.011918189 0.0099185341         3847 
 4697000   0.51158177   -8.3211109    672.58703  0.011932919 0.0099149379         3814 
 4698000   0.49695079   -8.3228941    671.21633  0.011906065 0.0099113454         3842 
 4699000   0.50221355   -8.3103249    670.63006  0.011893134 0.0099077556         3812 
 4700000   0.49822343   -8.3205462    670.91222  0.011895607 0.0099041675         3822 
 4701000   0.50149825   -8.3442395     671.0088  0.011894788 0.0099005803         3796 
 4702000   0.50447959   -8.3278886    671.92059  0.011908418  0.009896994         3846 
 4703000   0.49615262   -8.3147855    671.60849  0.011900356 0.0098934091         3810 
 4704000   0.50639182   -8.3214963    670.62508  0.011880405 0.0098898248         3801 
 4705000   0.49611935    -8.318801    671.51306  0.011893607 0.0098862455         3843 
 4706000    0.5010315   -8.3236411    670.72065  0.011877048 0.0098826652         3799 
 4707000   0.50374641   -8.3370944    670.48332  0.011870323 0.0098790886         3795 
 4708000   0.50325371   -8.3354695    671.23773  0.011881155 0.0098755145         3790 
 4709000   0.49459224   -8.3142275    671.58188  0.011884722 0.0098719417         3801 
 4710000   0.50135299   -8.3189164    671.18044  0.011875096 0.0098683687         3791 
 4711000   0.50964019   -8.3359789    670.87267  0.011867131 0.0098647989         3795 
 4712000   0.50489564   -8.3152284    671.09184  0.011868489 0.0098612283         3830 
 4713000   0.49908272   -8.3297526    671.06854  0.011865559 0.0098576593         3811 
 4714000   0.50507766   -8.3404477    670.36397  0.011850586 0.0098540938         3827 
 4715000   0.49956987   -8.3229987    671.36856  0.011865828 0.0098505318         3829 
 4716000   0.48916816   -8.3270348     670.9462  0.011855849 0.0098469683         3827 
 4717000    0.4918728     -8.33918    670.44224  0.011844432 0.0098434071         3837 
 4718000   0.48732453   -8.3212112    671.57163   0.01186187 0.0098398485         3793 
 4719000   0.50276247   -8.3198703    670.60069   0.01184221 0.0098362912         3800 
 4720000   0.49271832   -8.3045712    669.88831  0.011827124 0.0098327385         3806 
 4721000   0.51004013    -8.330975    670.81302  0.011840942 0.0098291872         3789 
 4722000   0.49693128   -8.3289894    670.31495  0.011829644 0.0098256338         3827 
 4723000   0.50388082    -8.326834    671.08555  0.011840736 0.0098220842         3836 
 4724000   0.50859748    -8.323655    671.06533  0.011837873 0.0098185362         3804 
 4725000   0.49107635   -8.3185431    670.74657  0.011829745 0.0098149899         3839 
 4726000       0.4888   -8.3368627    670.83727  0.011828842 0.0098114442         3812 
 4727000   0.48412421   -8.3157457    670.67743  0.011823522 0.0098079007         3761 
 4728000   0.49847693   -8.3529164    671.05378  0.011827654 0.0098043588         3824 
 4729000   0.49581705    -8.336665    671.02853  0.011824708 0.0098008214         3816 
 4730000   0.50048044   -8.3235398    671.27536  0.011826557 0.0097972829         3788 
 4731000   0.50014497    -8.335713    671.24983  0.011823607 0.0097937453         3837 
 4732000     0.492335   -8.3179711    670.65841  0.011810693 0.0097902094         3798 
 4733000   0.48631514   -8.3231885    670.60283  0.011807219 0.0097866754         3827 
 4734000   0.50046807   -8.3444192    669.52249  0.011785708 0.0097831426         3832 
 4735000   0.49191194   -8.3076065    670.99862  0.011809198 0.0097796129         3789 
 4736000    0.5071576    -8.334709    671.47312  0.011815054  0.009776087         3856 
 4737000   0.50101179   -8.3249396    671.48124  0.011812702 0.0097725617         3824 
 4738000   0.49823349   -8.3234694     670.9244  0.011800415 0.0097690376         3822 
 4739000   0.49854403   -8.3390829    670.10438  0.011783505 0.0097655162         3774 
 4740000   0.49543526   -8.3123815    671.10561  0.011798622 0.0097619973         3824 
 4741000   0.48930508    -8.318234    671.77978  0.011807983  0.009758477         3841 
 4742000   0.49028073   -8.3243687    671.24433  0.011796083 0.0097549578         3831 
 4743000   0.49544263   -8.3405669    671.95426   0.01180607 0.0097514398         3832 
 4744000   0.49536244    -8.337265    670.85213  0.011784221 0.0097479264         3827 
 4745000   0.48793283   -8.3489146    670.07138  0.011768026 0.0097444116         3860 
 4746000    0.4894197   -8.3151754    670.80687   0.01177846 0.0097409009         3852 
 4747000   0.48202136   -8.3341085    670.27967  0.011766724 0.0097373894         3804 
 4748000   0.48654359   -8.3430162    670.43922  0.011767046 0.0097338782         3816 
 4749000   0.49185108   -8.3361829    670.91712  0.011772954 0.0097303697         3827 
 4750000   0.50290534   -8.3357089    670.02683  0.011754857 0.0097268657         3867 
 4751000   0.49229735   -8.3400158    671.19867  0.011772937 0.0097233613         3813 
 4752000   0.49050946   -8.3211437    670.58338  0.011759669 0.0097198609         3847 
 4753000   0.50676972   -8.3365948    669.88283  0.011744913 0.0097163609         3801 
 4754000   0.48716572   -8.3404343     669.8646  0.011742122  0.009712864         3818 
 4755000    0.4989131   -8.3343258    670.83755  0.011756704 0.0097093684         3823 
 4756000   0.49991188   -8.3430943    670.86436  0.011754702 0.0097058727         3831 
 4757000   0.49698197   -8.3376802    671.31011   0.01176004 0.0097023813         3842 
 4758000   0.49810182    -8.336837     670.5537   0.01174432 0.0096988898         3824 
 4759000   0.49032361   -8.3207404    671.33507  0.011755535 0.0096954011         3807 
 4760000   0.48797039   -8.3208368    671.51706  0.011756251 0.0096919137         3807 
 4761000   0.50373879   -8.3357768    670.23517  0.011731344 0.0096884258         3831 
 4762000   0.48685264   -8.3531401    670.35494  0.011730977 0.0096849361         3823 
 4763000   0.48683279   -8.3625151    670.62921  0.011733313 0.0096814515         3837 
 4764000   0.48395601    -8.348432    670.80767  0.011733971 0.0096779688         3789 
 4765000   0.49705572   -8.3421481    670.68916  0.011729436 0.0096744901         3855 
 4766000   0.48843134   -8.3482351    671.33769  0.011738315 0.0096710118         3800 
 4767000   0.49051292   -8.3245417    671.00462   0.01173003 0.0096675365         3842 
 4768000   0.49020526   -8.3429525    670.23533  0.011714124 0.0096640615         3803 
 4769000   0.48900896   -8.3367409    671.47773  0.011733378 0.0096605887         3817 
 4770000   0.49468635   -8.3235228    669.83852   0.01170228 0.0096571178         3817 
 4771000   0.47757012   -8.3514523    670.06441  0.011703773 0.0096536461         3816 
 4772000   0.49298576   -8.3450014    670.95651  0.011716899 0.0096501762         3839 
 4773000   0.47893149   -8.3337127    671.90291  0.011730968 0.0096467087         3846 
 4774000    0.4866998   -8.3348169    670.66182  0.011706847 0.0096432432         3810 
 4775000   0.49100465   -8.3528601     670.4187  0.011700152 0.0096397796         3859 
 4776000   0.49388464    -8.347611    670.90823  0.011706244  0.009636318         3833 
 4777000   0.48960215   -8.3217735    671.06723  0.011706567 0.0096328568         3820 
 4778000   0.48899569   -8.3477351    670.65924  0.011697001 0.0096293994         3822 
 4779000   0.49170333   -8.3426416    670.68943   0.01169508 0.0096259438         3828 
 4780000   0.48569863   -8.3406957    669.35587  0.011669384 0.0096224879         3825 
 4781000   0.48697382   -8.3396738    669.71641  0.011673228 0.0096190349         3828 
 4782000   0.47349736   -8.3351309    671.25099  0.011697529 0.0096155825         3803 
 4783000   0.49080581   -8.3305042    670.15862  0.011676051 0.0096121302         3817 
 4784000   0.48394564   -8.3469766    670.55697  0.011680549 0.0096086813         3837 
 4785000   0.48799281   -8.3257254    670.63775  0.011679515 0.0096052342         3799 
 4786000     0.483617   -8.3514301    670.46634   0.01167409 0.0096017881         3827 
 4787000   0.47888116   -8.3515522    671.44968   0.01168877 0.0095983436         3805 
 4788000   0.49112149   -8.3465719    670.14739  0.011663662 0.0095949027         3820 
 4789000   0.49113378   -8.3488784    669.56182  0.011651037 0.0095914614         3845 
 4790000   0.49406633   -8.3599814    669.93604  0.011655116 0.0095880226         3828 
 4791000   0.48326679   -8.3368351    671.10629  0.011673038 0.0095845839         3820 
 4792000   0.48690613   -8.3518343    670.88154  0.011666694 0.0095811481         3831 
 4793000   0.47874994   -8.3551784    670.20829  0.011652554 0.0095777109         3856 
 4794000   0.48359375   -8.3550473    669.34468  0.011635111 0.0095742778         3836 
 4795000   0.48693031   -8.3509977    670.17404  0.011647098 0.0095708492         3848 
 4796000   0.47028837   -8.3445066     670.5264  0.011650792 0.0095674208         3825 
 4797000   0.49156092   -8.3474777    670.81896  0.011653446 0.0095639918         3853 
 4798000   0.47568576   -8.3481067    670.12215  0.011638915 0.0095605637         3828 
 4799000    0.4890924   -8.3562614    670.52688  0.011643517 0.0095571396         3845 
 4800000   0.47554884   -8.3448841    671.10407  0.011651112  0.009553718         3807 
 4801000   0.47744352   -8.3575565    671.18032  0.011650009 0.0095502979         3818 
 4802000   0.47927629   -8.3499344    670.21429  0.011630819 0.0095468789         3822 
 4803000   0.48742999   -8.3391889    670.37831  0.011631243 0.0095434624         3795 
 4804000      0.49952   -8.3573729    669.98392   0.01162198  0.009540047         3849 
 4805000   0.47615348   -8.3607419    671.34741  0.011643209 0.0095366315         3821 
 4806000   0.48837294   -8.3458421     670.5144  0.011626342 0.0095332158         3799 
 4807000   0.48434518   -8.3486885    670.10712  0.011616863 0.0095298043         3839 
 4808000   0.49367244   -8.3421341    670.21401  0.011616299 0.0095263948         3828 
 4809000   0.48520531   -8.3431289    670.49179  0.011618697 0.0095229874         3846 
 4810000   0.47522442   -8.3496544    669.44625  0.011598168 0.0095195774         3847 
 4811000   0.47903362   -8.3279573    670.36543  0.011611679 0.0095161728         3799 
 4812000   0.49536861     -8.34894    670.62615  0.011613781 0.0095127699         3840 
 4813000   0.47973041   -8.3364322    670.80763   0.01161451 0.0095093681         3835 
 4814000    0.4854468   -8.3380426    669.89349  0.011596273 0.0095059678         3858 
 4815000   0.47792428   -8.3539755    670.16496  0.011598563 0.0095025677         3854 
 4816000   0.47532413   -8.3572386    669.79732  0.011589793 0.0094991689         3828 
 4817000    0.4766007   -8.3529374    671.59266  0.011618446 0.0094957714         3829 
 4818000   0.47781492   -8.3488246    670.24445  0.011592716 0.0094923774         3840 
 4819000   0.48175822   -8.3540528    670.17882  0.011589175 0.0094889835         3846 
 4820000   0.46493218   -8.3424808    670.01018  0.011583855 0.0094855929         3816 
 4821000   0.48250973   -8.3477848     669.6197  0.011574703 0.0094822052         3844 
 4822000   0.49217262   -8.3494617    669.36092   0.01156783 0.0094788162         3836 
 4823000   0.48747866   -8.3606013    669.76788  0.011572463 0.0094754341         3798 
 4824000   0.47630164   -8.3420908    670.32374  0.011579667 0.0094720503         3825 
 4825000   0.48055884   -8.3537371    669.31855  0.011559906 0.0094686671         3818 
 4826000    0.4696727   -8.3621538    669.54788   0.01156147 0.0094652831         3826 
 4827000   0.48558414   -8.3511179    669.25553  0.011554028 0.0094619033         3819 
 4828000   0.48370928   -8.3550579    670.06083  0.011565535 0.0094585231         3796 
 4829000   0.47129923   -8.3569354    670.60768  0.011572577 0.0094551466         3813 
 4830000   0.48510268   -8.3528289    670.28475  0.011564609 0.0094517696         3810 
 4831000   0.47874425   -8.3478029    670.70893  0.011569532 0.0094483962         3791 
 4832000   0.48420884   -8.3613921    670.01236  0.011555125 0.0094450246         3840 
 4833000   0.47348713   -8.3585986    670.56044  0.011562184 0.0094416548         3842 
 4834000   0.48498203   -8.3678286    669.96985  0.011549611 0.0094382854         3836 
 4835000   0.48466521   -8.3432046    669.88169  0.011545703 0.0094349171         3826 
 4836000   0.48200112   -8.3563901    670.58274  0.011555396 0.0094315525         3813 
 4837000    0.4902241   -8.3484751     669.3949  0.011532542  0.009428187         3814 
 4838000   0.46973681    -8.388354    669.47207  0.011531488 0.0094248222         3835 
 4839000   0.47465651    -8.348115    669.63746  0.011531953 0.0094214583         3821 
 4840000   0.46749849   -8.3466351    669.46472  0.011526596 0.0094180988         3829 
 4841000   0.47505332   -8.3638604    669.27157   0.01152089 0.0094147404         3835 
 4842000   0.46916463   -8.3584461    670.84276  0.011545552 0.0094113843         3809 
 4843000   0.48317485   -8.3665229    670.38039  0.011535212 0.0094080304         3844 
 4844000   0.47951419   -8.3608358    669.73642  0.011521752 0.0094046772         3788 
 4845000   0.47648457   -8.3572267    670.13085  0.011526158 0.0094013256         3807 
 4846000    0.4623725   -8.3407068    670.09498  0.011523163 0.0093979756         3815 
 4847000   0.48158221   -8.3627962    670.19266  0.011522465 0.0093946271         3815 
 4848000   0.48536082   -8.3576937    669.19719  0.011502977 0.0093912806         3829 
 4849000   0.47883139   -8.3691369     669.9388   0.01151335 0.0093879375         3822 
 4850000   0.48414227   -8.3586618    669.97502  0.011511598 0.0093845943         3813 
 4851000   0.47847056   -8.3511101    670.67977  0.011521332 0.0093812542         3817 
 4852000   0.47041177   -8.3484016    669.90593  0.011505667 0.0093779124         3829 
 4853000   0.47740113   -8.3530489    669.96714  0.011504347 0.0093745737         3809 
 4854000   0.46259976   -8.3558004    669.03385  0.011485954 0.0093712346         3836 
 4855000   0.47236695   -8.3456268    669.96378   0.01149955 0.0093678959         3814 
 4856000    0.4794925   -8.3396275    669.84858  0.011495205 0.0093645628         3844 
 4857000   0.47694551   -8.3503794    668.98883  0.011478087 0.0093612292         3796 
 4858000   0.48250634   -8.3622692    669.36179  0.011482122 0.0093578982         3830 
 4859000   0.47248914   -8.3548472    669.62873  0.011484337 0.0093545702         3794 
 4860000   0.47057617     -8.35322    669.58963  0.011481304 0.0093512453         3805 
 4861000   0.47385292   -8.3454774    669.38872  0.011475498 0.0093479169         3827 
 4862000   0.48180036   -8.3727059    669.43773  0.011473977  0.009344588         3842 
 4863000   0.46929614   -8.3583045    669.44031  0.011471662 0.0093412656         3847 
 4864000   0.47675587   -8.3549281    670.00399  0.011478961 0.0093379431         3846 
 4865000   0.47260785   -8.3685427    669.59117   0.01146953 0.0093346217         3785 
 4866000   0.47058306   -8.3684944    669.82392  0.011471159 0.0093313014         3794 
 4867000   0.47353042   -8.3565849    669.63436  0.011465556 0.0093279845         3801 
 4868000   0.47260406    -8.356628    670.07392  0.011470726 0.0093246679         3813 
 4869000    0.4729197   -8.3512169     670.8316  0.011481338 0.0093213524         3851 
 4870000    0.4705987   -8.3599877    670.00449  0.011464827 0.0093180398         3828 
 4871000   0.48303782   -8.3747043    669.96439  0.011461787 0.0093147301         3835 
 4872000    0.4763615   -8.3503926    669.24024  0.011447048 0.0093114185         3808 
 4873000   0.47894256   -8.3674737    669.49142  0.011448995 0.0093081094         3835 
 4874000   0.47357398   -8.3619918    669.20897  0.011441817 0.0093048026         3818 
 4875000    0.4755963   -8.3715691    669.70707  0.011447984 0.0093014981         3798 
 4876000   0.47252201   -8.3486204    670.55009  0.011460044 0.0092981935         3826 
 4877000   0.46718393   -8.3681287    669.98329  0.011448009 0.0092948898         3806 
 4878000   0.46848103   -8.3627034    669.07863  0.011430208 0.0092915876         3842 
 4879000   0.47456017   -8.3553554    669.82022  0.011440531 0.0092882892         3831 
 4880000   0.46750679   -8.3679212    669.09908  0.011425872 0.0092849903         3838 
 4881000   0.47355098   -8.3741284    669.09898   0.01142353 0.0092816924         3827 
 4882000   0.46995681   -8.3503509    670.26751  0.011441136  0.009278397         3841 
 4883000   0.47075965   -8.3587264    669.79933  0.011430803 0.0092751041         3842 
 4884000   0.46769573   -8.3737878     670.0859  0.011433352 0.0092718114         3839 
 4885000   0.45722531   -8.3740506    669.74345   0.01142517 0.0092685187         3791 
 4886000   0.46605189   -8.3667195    669.84523  0.011424567 0.0092652294         3819 
 4887000   0.47394749   -8.3532162    669.83807  0.011422107 0.0092619409         3826 
 4888000   0.46552459   -8.3652856    669.28422  0.011410328 0.0092586543         3832 
 4889000   0.46713834   -8.3734424    668.69504  0.011397952 0.0092553674         3803 
 4890000   0.46405953   -8.3596592    669.85633  0.011415411 0.0092520848         3844 
 4891000   0.47546681   -8.3756818       669.52  0.011407347 0.0092488036         3844 
 4892000   0.47118016   -8.3704694    670.14496  0.011415661 0.0092455226         3858 
 4893000   0.46360183   -8.3672772    669.90085   0.01140917 0.0092422451         3814 
 4894000   0.46883155   -8.3722098    668.77915  0.011387739 0.0092389685         3830 
 4895000   0.46802771   -8.3634942    670.49025  0.011414543 0.0092356948         3801 
 4896000    0.4694084   -8.3690365    669.83627   0.01140108  0.009232419         3822 
 4897000   0.46865714    -8.360757    669.97624  0.011401134 0.0092291468         3820 
 4898000   0.47120655   -8.3690627    669.62562  0.011392841 0.0092258746         3821 
 4899000   0.47422619   -8.3645061    668.29201   0.01136783 0.0092226055         3834 
 4900000   0.45939895   -8.3721273    669.78077  0.011390829 0.0092193379         3816 
 4901000   0.46189087   -8.3607863     669.0769  0.011376537 0.0092160733         3810 
 4902000   0.46615991   -8.3547883    668.94588  0.011371989 0.0092128094         3797 
 4903000   0.46871698   -8.3658562    668.98524  0.011370339 0.0092095446         3820 
 4904000    0.4627978   -8.3825135    669.50193    0.0113768  0.009206286         3841 
 4905000   0.46359268   -8.3859257    668.91272   0.01136447  0.009203024         3845 
 4906000   0.46080786   -8.3866901    668.63792  0.011357486 0.0091997637         3831 
 4907000   0.46747639   -8.3737673    669.27391  0.011365972  0.009196507         3859 
 4908000    0.4642346   -8.3737002    668.72425  0.011354324 0.0091932494         3815 
 4909000   0.46180257   -8.3733167    669.66161  0.011367923 0.0091899948         3866 
 4910000   0.46536043   -8.3706766    669.14835  0.011356897 0.0091867409         3833 
 4911000   0.47278282   -8.3653115    669.43346  0.011359422 0.0091834891         3814 
 4912000   0.47296278   -8.3652871     668.8837  0.011347783   0.00918024         3875 
 4913000     0.461064   -8.3708861    669.19194  0.011350701  0.009176992         3872 
 4914000   0.45945804   -8.3636438    668.62215  0.011338729 0.0091737442         3822 
 4915000   0.46853699   -8.3690436    670.37584  0.011366155 0.0091704993         3811 
 4916000   0.45834751   -8.3648051    670.05515  0.011358407 0.0091672564         3830 
 4917000   0.46065963   -8.3569415    669.79911  0.011351758 0.0091640115         3842 
 4918000    0.4646032   -8.3689061    668.53382   0.01132801 0.0091607715         3820 
 4919000   0.47542187   -8.3819162    668.43185  0.011323979 0.0091575327         3832 
 4920000   0.47283412   -8.3864567     668.6607  0.011325554 0.0091542947         3828 
 4921000   0.46391959   -8.3783867    669.69271  0.011340729 0.0091510607         3860 
 4922000   0.47465468   -8.3605604    669.25066   0.01133094 0.0091478262         3852 
 4923000   0.47717275   -8.3737563    668.54662  0.011316721 0.0091445937         3869 
 4924000   0.45584647   -8.3670657    668.88136  0.011320088 0.0091413612         3839 
 4925000   0.46615195   -8.3681789    668.41832  0.011309955 0.0091381323         3834 
 4926000   0.46213109   -8.3606302    668.40399  0.011307416 0.0091349046         3826 
 4927000   0.46618954   -8.3775095    668.80289  0.011311868 0.0091316772         3827 
 4928000    0.4695728   -8.3801751    669.49814  0.011321329 0.0091284519         3824 
 4929000   0.46031401   -8.3657803    669.43795  0.011318015 0.0091252294         3830 
 4930000   0.46581349    -8.362163    670.00577  0.011325317 0.0091220093         3801 
 4931000    0.4604275   -8.3728255    669.51018  0.011314645 0.0091187883         3843 
 4932000   0.47319657   -8.3765573    670.47838   0.01132871 0.0091155692         3812 
 4933000     0.466818   -8.3756726    669.07395  0.011302688 0.0091123497         3847 
 4934000    0.4629207   -8.3789931    669.70721  0.011311093 0.0091091333         3832 
 4935000   0.45996071   -8.3685599    669.64538  0.011307757 0.0091059181         3811 
 4936000   0.47739779   -8.3772372    669.52275  0.011303396 0.0091027039         3839 
 4937000   0.46503871   -8.3718768     668.7987  0.011288885 0.0090994933         3812 
 4938000   0.46404681   -8.3734739    670.03701  0.011307497 0.0090962817         3800 
 4939000   0.46085622   -8.3770821     668.9302  0.011286532 0.0090930735         3835 
 4940000   0.46187329   -8.3938318     668.7454   0.01128113 0.0090898672         3826 
 4941000   0.46401917   -8.3608875    668.21577  0.011269914  0.009086661         3846 
 4942000   0.46082722   -8.3791484     669.1546  0.011283465 0.0090834564         3858 
 4943000   0.46995497   -8.3881739    668.61374  0.011272064 0.0090802517         3849 
 4944000   0.46230521   -8.3762536    669.79189  0.011289642 0.0090770496         3837 
 4945000   0.45764304   -8.3779501    668.81434  0.011270885 0.0090738492         3831 
 4946000   0.45645986   -8.3720513    668.48316  0.011263027 0.0090706524         3853 
 4947000   0.44880898   -8.3798304    669.28865  0.011274319 0.0090674557         3795 
 4948000   0.44943663   -8.3786197    668.71127  0.011262316 0.0090642587         3866 
 4949000   0.45746001   -8.3737566    669.57164  0.011274527 0.0090610652         3796 
 4950000   0.46158904   -8.3806507    669.78963   0.01127592 0.0090578715         3846 
 4951000   0.46126299   -8.3956867    669.02549   0.01126078 0.0090546774         3838 
 4952000   0.46624854   -8.3721247    669.39713  0.011264761 0.0090514876         3839 
 4953000   0.45606563   -8.3855994    669.33521  0.011261444 0.0090482998         3849 
 4954000   0.46835419   -8.3801125    668.93527  0.011252444 0.0090451135         3828 
 4955000   0.46452254   -8.3636453    669.66699  0.011262479 0.0090419305         3838 
 4956000   0.45676671   -8.3750572    669.12894  0.011251159 0.0090387478         3824 
 4957000    0.4485663   -8.3750271     668.3574  0.011235919 0.0090355656         3862 
 4958000   0.46745596   -8.3862041    669.48435  0.011252594 0.0090323882         3834 
 4959000   0.46603637   -8.3718845    669.66619  0.011253381 0.0090292097         3846 
 4960000   0.45175717    -8.395504    669.50507  0.011248405 0.0090260312         3817 
 4961000   0.44400645     -8.38685    669.28774  0.011242487 0.0090228544         3844 
 4962000   0.45772718   -8.3759927    668.62734   0.01122913 0.0090196785         3838 
 4963000    0.4559992   -8.3733373    669.05879  0.011234112 0.0090165056         3823 
 4964000   0.45106032   -8.3790441    668.54989  0.011223306 0.0090133334         3860 
 4965000   0.45864341   -8.3861037    668.93427  0.011227497 0.0090101622         3840 
 4966000   0.46658929   -8.3895926    668.27727  0.011214211 0.0090069922         3834 
 4967000   0.45468499   -8.3926112    667.98625  0.011207071 0.0090038266         3832 
 4968000   0.46736288   -8.3847709    668.76605  0.011217895 0.0090006591         3825 
 4969000   0.46341027   -8.3823021    669.28483  0.011224338 0.0089974926         3847 
 4970000   0.45849211   -8.3865955    668.74386  0.011213009 0.0089943293         3807 
 4971000   0.46411998   -8.3705055    669.45448  0.011222666 0.0089911665         3849 
 4972000   0.45040054   -8.4120246    669.47523  0.011220757 0.0089880071         3855 
 4973000   0.45530264   -8.4014941    668.32332  0.011199198 0.0089848485         3850 
 4974000   0.45756806   -8.3908599    669.07897  0.011209606 0.0089816914         3839 
 4975000   0.44676719   -8.3908749    669.00707  0.011206149 0.0089785348         3822 
 4976000   0.44947712   -8.3850947    668.33953  0.011192717  0.008975379         3874 
 4977000   0.44748787   -8.3846451    669.03472  0.011202108  0.008972223         3843 
 4978000   0.45908371   -8.3828867    668.10862  0.011184355 0.0089690721         3827 
 4979000    0.4453384   -8.3767794    668.25426  0.011184546 0.0089659194         3813 
 4980000   0.45792327   -8.3921833    668.84011  0.011192104 0.0089627713         3872 
 4981000   0.45911886    -8.376865    669.44143  0.011199917 0.0089596234         3831 
 4982000   0.45545666   -8.3776753    668.08868  0.011175042 0.0089564763         3841 
 4983000   0.45507553   -8.3805144    668.90378   0.01118643 0.0089533311         3846 
 4984000   0.45712716   -8.3726777    668.57027  0.011178609 0.0089501883         3836 
 4985000   0.45552642   -8.4019122    668.13725  0.011169128 0.0089470461         3831 
 4986000   0.46153012   -8.3810631    668.22271  0.011168317  0.008943905         3848 
 4987000   0.45460182   -8.3806221    668.69868   0.01117403 0.0089407697         3816 
 4988000   0.45435279   -8.3988478    668.04099  0.011160802 0.0089376314         3833 
 4989000   0.44306594    -8.387396    667.70344  0.011152927 0.0089344931         3855 
 4990000   0.45509013   -8.4069803    667.73027   0.01115114 0.0089313579         3829 
 4991000   0.44919852    -8.392141    669.68488  0.011181541  0.008928225         3855 
 4992000   0.45475116   -8.3867793    669.94574  0.011183656 0.0089250931         3817 
 4993000   0.45365327   -8.3928279     668.9714  0.011165155 0.0089219647         3846 
 4994000   0.44487768   -8.4030451    668.12245  0.011148753 0.0089188358         3826 
 4995000   0.45080012   -8.3942362    668.80543  0.011157915  0.008915708         3839 
 4996000   0.45614465   -8.3980529    668.99977  0.011158923 0.0089125818         3835 
 4997000   0.45016249   -8.3841929    669.36066  0.011162709 0.0089094563         3837 
 4998000   0.44726278   -8.3878829    667.99647   0.01113773 0.0089063347         3828 
 4999000   0.45219811   -8.3996502    668.68734  0.011147018 0.0089032129         3830 
 5000000   0.45923764   -8.3985693    668.44778  0.011140796 0.0089000943         3838 
 5001000   0.45765556     -8.39211    668.81885  0.011144752 0.0088969762         3860 
 5002000    0.4565281   -8.3800846    668.59947  0.011138869 0.0088938593         3821 
 5003000   0.45354099   -8.3889613     668.1055  0.011128415 0.0088907412         3836 
 5004000   0.45232601   -8.3892194    668.75452  0.011136999 0.0088876283         3883 
 5005000   0.45712296   -8.3890971    667.87352  0.011120105 0.0088845165         3868 
 5006000   0.45050771   -8.4100138    668.39322  0.011126535 0.0088814035         3833 
 5007000   0.44377949   -8.4045886    669.28412  0.011139141 0.0088782915         3866 
 5008000   0.45456008    -8.406147    668.76833  0.011128333  0.008875183         3853 
 5009000   0.45455237   -8.3943205    669.09805  0.011131597 0.0088720744         3786 
 5010000   0.46394655   -8.3918277     669.1247  0.011129819 0.0088689668         3819 
 5011000   0.44683979   -8.3739114     667.8786  0.011106875 0.0088658623         3861 
 5012000   0.44311129   -8.3826771     668.3974  0.011113285  0.008862762         3821 
Loop time of 13296.2 on 48 procs for 5000000 steps with 4000 atoms

Performance: 64980.889 tau/day, 376.047 timesteps/s
99.4% CPU use with 48 MPI tasks x no OpenMP threads

MPI task timing breakdown:
Section |  min time  |  avg time  |  max time  |%varavg| %total
---------------------------------------------------------------
Pair    | 1008.3     | 1098.2     | 1191.1     | 153.4 |  8.26
Neigh   | 92.828     | 97.116     | 100.95     |  19.8 |  0.73
Comm    | 829.06     | 928.87     | 1024.6     | 171.3 |  6.99
Output  | 17.419     | 17.424     | 17.53      |   0.4 |  0.13
Modify  | 10993      | 11034      | 11084      |  20.8 | 82.98
Other   |            | 120.9      |            |       |  0.91

Nlocal:        83.3333 ave          87 max          76 min
Histogram: 1 0 3 1 3 6 9 10 8 7
Nghost:        2455.81 ave        2468 max        2442 min
Histogram: 1 2 5 9 3 6 10 5 5 2
Neighs:        17178.6 ave       19259 max       14975 min
Histogram: 2 7 7 3 2 11 1 3 7 5
FullNghs:      34356.9 ave       36069 max       31029 min
Histogram: 1 0 0 4 3 9 10 9 8 4

Total # of neighbors = 1649130
Ave neighs/atom = 412.28250
Neighbor list builds = 266557
Dangerous builds = 0

#clear
#
#next RN
#
#jump SELF
Total wall time: 3:41:40
