
units lj                  # Use reduced LJ style units
atom_style atomic         # Uncharged point particles
atom_modify map hash      # Needed for indexing of clusters etc
                          # Used to be able to find where atoms are in relation to each other.

lattice fcc 1.0 spacing 1 1 1
Lattice spacing in x,y,z = 1.5874011 1.5874011 1.5874011
region box block 0 10 0 10 0 10 units lattice
create_box 2 box
Created orthogonal box = (0.0000000 0.0000000 0.0000000) to (15.874011 15.874011 15.874011)
  3 by 4 by 4 MPI processor grid
create_atoms 1 box
Created 4000 atoms
  using lattice units in orthogonal box = (0.0000000 0.0000000 0.0000000) to (15.874011 15.874011 15.874011)
  create_atoms CPU = 0.004 seconds
set type 1 type/fraction 2 0.58 78393
Setting atom values ...
  2338 settings made for type/fraction
mass 1 1.0
mass 2 1.0
pair_style lj/cut  3.5
pair_modify tail  yes
pair_coeff 1  1  1.0  1.0   # Intearaction between 1 and 1 set with epsilon = 1 and sigma = 1
pair_coeff 1  2  1.5  0.8
pair_coeff 2  2  0.5  0.88

write_data data.0
System init for write_data ...
Neighbor list info ...
  update every 1 steps, delay 10 steps, check yes
  max neighbors/atom: 2000, page size: 100000
  master list distance cutoff = 3.8
  ghost atom cutoff = 3.8
  binsize = 1.9, bins = 9 9 9
  1 neighbor lists, perpetual/occasional/extra = 1 0 0
  (1) pair lj/cut, perpetual
      attributes: half, newton on
      pair build: half/bin/atomonly/newton
      stencil: half/bin/3d
      bin: standard
WARNING: Not all mixed pair coeffs generated from mixing. Use write_data with 'pair ij' option to store all pair coeffs. (../write_data.cpp:312)


#############################
#   M E L T   S Y S T E M   #
#############################

velocity all create 2.4 2750902 mom yes dist gaussian # Assign velocities
                                                    # Temperature 2.4, random number seed, zero linear momentum
                                                                                # Gaussian distribution

timestep 0.002   # simulation timestep
thermo 1000       # output thermodynamic data every 1000 steps bf 100

# Define a fix  in this case with index 1 applied to all
# particles in the simulation. This fix is for simulations
# in the anisotropic NPT ensemble. Note that we use the MTK
# correction.
fix 1 all npt temp 2.4 2.4 0.1 iso 5.68 5.68 0.5 mtk yes tchain 5 pchain 5 # Use NPT ensemble
                                                                         # Set temperature and pressure and damping
                                                                         # Numbers of thermostats in chain and in barostat
run 10000          # run for 10000 steps
Per MPI rank memory allocation (min/avg/max) = 3.642 | 3.644 | 3.648 Mbytes
Step Temp E_pair E_mol TotEng Press Volume 
       0          2.4   -4.8268882            0   -1.2277882   -4.1002737         4000 
    1000    2.4218032   -4.4934741            0  -0.86167747    5.8874271    3630.5035 
    2000     2.445148   -4.5934723            0   -0.9266673     5.918727    3589.9074 
    3000    2.3486711   -4.5997952            0   -1.0776693    5.1888175    3631.2063 
    4000    2.4523926   -4.5625641            0  -0.88489488    5.5574601     3635.841 
    5000    2.4290279    -4.615974            0  -0.97334316      6.03481    3572.4965 
    6000    2.4148499   -4.5364314            0   -0.9150621    5.9031828    3629.6113 
    7000    2.4391387   -4.6701599            0   -1.0123666    5.4394838    3594.5498 
    8000    2.3918081   -4.5775449            0  -0.99072965    5.6913966    3616.9026 
    9000    2.3555798   -4.5607659            0   -1.0282796    5.6836196    3623.4898 
   10000    2.4209539   -4.6078046            0  -0.97728163    5.4758817    3618.2144 
Loop time of 2.65096 on 48 procs for 10000 steps with 4000 atoms

Performance: 651839.639 tau/day, 3772.220 timesteps/s
99.6% CPU use with 48 MPI tasks x no OpenMP threads

MPI task timing breakdown:
Section |  min time  |  avg time  |  max time  |%varavg| %total
---------------------------------------------------------------
Pair    | 1.2136     | 1.278      | 1.3424     |   2.6 | 48.21
Neigh   | 0.21703    | 0.22436    | 0.23188    |   0.6 |  8.46
Comm    | 0.78672    | 0.87288    | 0.97124    |   3.8 | 32.93
Output  | 0.00025289 | 0.00025736 | 0.00032601 |   0.0 |  0.01
Modify  | 0.22841    | 0.25964    | 0.29662    |   3.2 |  9.79
Other   |            | 0.01583    |            |       |  0.60

Nlocal:        83.3333 ave          97 max          74 min
Histogram: 3 7 5 9 6 6 11 0 0 1
Nghost:        1756.67 ave        1786 max        1724 min
Histogram: 3 4 7 1 5 7 7 6 4 4
Neighs:        10548.4 ave       12070 max        8872 min
Histogram: 1 3 7 6 8 3 8 4 4 4

Total # of neighbors = 506324
Ave neighs/atom = 126.58100
Neighbor list builds = 904
Dangerous builds = 191

# Equilibrate just above the melting temperature to avoid step fn in T

fix 1 all npt temp 1.25 1.25 0.1 iso 5.68 5.68 0.5 mtk yes tchain 5 pchain 5
run 2000
Per MPI rank memory allocation (min/avg/max) = 3.644 | 3.646 | 3.650 Mbytes
Step Temp E_pair E_mol TotEng Press Volume 
   10000    2.4209539   -4.6078046            0  -0.97728163    5.4758817    3618.2144 
   11000    1.2355861   -6.6258473            0   -4.7729314    6.1411959    2772.6657 
   12000    1.2777071    -6.691441            0   -4.7753595    6.0836727    2760.2374 
Loop time of 0.656803 on 48 procs for 2000 steps with 4000 atoms

Performance: 526185.440 tau/day, 3045.055 timesteps/s
99.7% CPU use with 48 MPI tasks x no OpenMP threads

MPI task timing breakdown:
Section |  min time  |  avg time  |  max time  |%varavg| %total
---------------------------------------------------------------
Pair    | 0.30763    | 0.32643    | 0.35537    |   2.0 | 49.70
Neigh   | 0.042936   | 0.044626   | 0.046981   |   0.4 |  6.79
Comm    | 0.20506    | 0.23666    | 0.25865    |   2.7 | 36.03
Output  | 5.2054e-05 | 5.3548e-05 | 6.9243e-05 |   0.0 |  0.01
Modify  | 0.040633   | 0.044196   | 0.047216   |   1.0 |  6.73
Other   |            | 0.004838   |            |       |  0.74

Nlocal:        83.3333 ave          91 max          77 min
Histogram: 3 4 8 4 6 11 2 8 0 2
Nghost:        2104.54 ave        2124 max        2085 min
Histogram: 3 2 3 5 9 13 5 4 3 1
Neighs:        13829.1 ave       15233 max       12267 min
Histogram: 2 2 5 7 6 7 6 4 6 3

Total # of neighbors = 663799
Ave neighs/atom = 165.94975
Neighbor list builds = 145
Dangerous builds = 13

#############################
# L I N E A R  Q U E N C H  #
#############################

# Define solid atoms. This closely follows ten Wolde  Ruiz-Montero and Frenkel  Faraday Discuss  1996  104  93-110
# Compute components of the per-atom q6 vector
compute q6 all orientorder/atom degrees 1 6 components 6 nnn NULL cutoff 1.3 # compute the Q6 parameter.
                                                                             # Use all neighbours within 1.3 unit cell.

# get number of connections
compute coord_number all coord/atom orientorder q6 0.5

# An atom is solid if it has 8 or more connections (of a possible 14)
variable is_solid atom c_coord_number>=8
group solid dynamic all var is_solid    # Must be dynamic to update
dynamic group solid defined

# do clustering
compute cluster solid cluster/atom 1.3 # Create a cluster where all atoms within are solid and max 1.3 units from another member

# define chunks one chunk per cluster
compute clus_chunks solid chunk/atom c_cluster nchunk every compress yes  # Says which atoms are in which chunk

# count the size of each chunk
compute size_chunks solid property/chunk clus_chunks count


# Find the maximum entry in the vector of chunk sizes
variable max_n equal max(c_size_chunks)


# Thermo style which includes this variable
# thermo_style custom step temp pe vol v_max_n

thermo ${N}  # Print the thermo information every 100 steps
thermo 1000  

# Reset the npt fix at a lower temperature (below freezing)
fix 1  all npt temp  ${temp} ${temp}  0.1  iso  5.68  5.68  0.5  mtk yes tchain  5  pchain  5
fix 1  all npt temp  0.45 ${temp}  0.1  iso  5.68  5.68  0.5  mtk yes tchain  5  pchain  5
fix 1  all npt temp  0.45 0.45  0.1  iso  5.68  5.68  0.5  mtk yes tchain  5  pchain  5

dump dmp2 all dcd ${N} traj.dcd
dump dmp2 all dcd 1000 traj.dcd


compute msd all msd com yes
variable twopoint equal c_msd[4]/6/(step*dt+1.0e-6)
fix 9 all vector 10 c_msd[4]
variable fit equal slope(f_9)/6/(10*dt)
thermo_style custom step temp pe c_msd[4] v_twopoint v_fit v_max_n

fix 1 all npt temp 1.25 ${temp} 0.1 iso 5.68 5.68 0.5 mtk yes tchain 5 pchain 5
fix 1 all npt temp 1.25 0.45 0.1 iso 5.68 5.68 0.5 mtk yes tchain 5 pchain 5
run 500000 # 5000000  # Run for this many steps
Neighbor list info ...
  update every 1 steps, delay 10 steps, check yes
  max neighbors/atom: 2000, page size: 100000
  master list distance cutoff = 3.8
  ghost atom cutoff = 3.8
  binsize = 1.9, bins = 8 8 8
  4 neighbor lists, perpetual/occasional/extra = 1 3 0
  (1) pair lj/cut, perpetual
      attributes: half, newton on
      pair build: half/bin/atomonly/newton
      stencil: half/bin/3d
      bin: standard
  (2) compute orientorder/atom, occasional
      attributes: full, newton on
      pair build: full/bin/atomonly
      stencil: full/bin/3d
      bin: standard
  (3) compute coord/atom, occasional
      attributes: full, newton on
      pair build: full/bin/atomonly
      stencil: full/bin/3d
      bin: standard
  (4) compute cluster/atom, occasional
      attributes: full, newton on
      pair build: full/bin/atomonly
      stencil: full/bin/3d
      bin: standard
Per MPI rank memory allocation (min/avg/max) = 9.846 | 9.851 | 9.853 Mbytes
Step Temp PotEng c_msd[4] v_twopoint v_fit v_max_n 
   12000    1.2777071    -6.691441 7.511928e-31 5.2166164e-33 8.3333333e+20            2 
   13000    1.2522909   -6.7964183   0.46236573 0.0029638827   0.03773788            1 
   14000    1.2371108   -6.7090752   0.91059022 0.0054201797  0.036899608            2 
   15000    1.2423332   -6.7664229    1.3156294 0.0073090519  0.036242656            2 
   16000    1.2898475   -6.7623746    1.7769715 0.0092550598  0.036034763            3 
   17000    1.2700341   -6.7980372    2.2185186  0.010875091  0.036359461            2 
   18000    1.2439138   -6.7762976    2.7257245  0.012619095  0.036700581            1 
   19000    1.2454156   -6.7876108     3.088197  0.013544723  0.036891172            5 
   20000    1.2209474   -6.8025846    3.5211005  0.014671252  0.036673874            3 
   21000    1.2527743   -6.7856566    3.9531059  0.015686928  0.036529657            5 
   22000    1.2437611   -6.7899647    4.3250302   0.01638269  0.036323633            1 
   23000    1.2355882   -6.8089379    4.7820339  0.017326209  0.036084621            2 
   24000    1.2230938   -6.7985483    5.2404748  0.018196093   0.03606634            2 
   25000    1.2094616   -6.7883351    5.6024475  0.018674825  0.035996351            4 
   26000     1.203182   -6.8201153    5.9165305  0.018963238  0.035678236            2 
   27000    1.2127871   -6.8452468    6.2882451  0.019408164   0.03538068            1 
   28000    1.2333267   -6.8247362     6.685157    0.0198963  0.035104586            2 
   29000    1.2274408   -6.8080616     7.046497  0.020248554  0.034768903            1 
   30000    1.2224465   -6.8262714    7.4846678  0.020790744  0.034570368            2 
   31000    1.2338642    -6.866253    7.8896688  0.021208787  0.034419257            1 
   32000     1.226018    -6.857856    8.2674459  0.021529807  0.034305886            2 
   33000    1.1963998   -6.8501959    8.6579074  0.021863402  0.034183417            4 
   34000    1.2110597   -6.8706719    8.9191523  0.021860667  0.033982447            3 
   35000    1.2146318    -6.871193    9.3789829  0.022330911   0.03378148            3 
   36000    1.2092088   -6.8990404    9.7220299  0.022504699  0.033620316            1 
   37000    1.1987976   -6.8733098    10.031215  0.022592825  0.033447114            1 
   38000    1.2220939   -6.8533878     10.29967  0.022586994  0.033219921            2 
   39000    1.2004233   -6.9071015    10.667323  0.022793425  0.032993684            5 
   40000    1.1947668   -6.8844831    10.983127  0.022881514  0.032793104            1 
   41000     1.197302   -6.8042817    11.407398  0.023185769  0.032598997            2 
   42000      1.18449   -6.8738768    11.727102  0.023268058  0.032405554            2 
   43000    1.1979108   -6.8546139    12.081522  0.023413802  0.032242978            2 
   44000    1.1971225   -6.8728074    12.494761  0.023664321  0.032100774            1 
   45000    1.2088447    -6.928609    12.750148  0.023611385  0.031951413            3 
   46000    1.2362595   -6.9087041    13.182155  0.023880715  0.031850596            1 
   47000    1.1955801    -6.903903    13.528714  0.023987081  0.031756126            2 
   48000    1.1846375   -6.9109397    13.915524  0.024158896  0.031661826            3 
   49000    1.1836825   -6.8989178    14.332834  0.024375568  0.031597733            2 
   50000    1.1847067   -6.9180817     14.69959  0.024499317  0.031542144            4 
   51000    1.1669916     -6.95252    15.079083  0.024639024  0.031508352            4 
   52000    1.2155074   -6.8761527    15.634368  0.025055077  0.031475584            2 
   53000    1.1667401   -6.9024274    15.927317  0.025042951  0.031458457            3 
   54000     1.213115   -6.9515796     16.19129  0.024986559  0.031438705            2 
   55000    1.1564614   -6.9475169    16.527477  0.025041631  0.031391701            4 
   56000    1.2044476   -6.9491182    16.752254   0.02492895  0.031334813            3 
   57000    1.1884932   -6.9373255    17.104562   0.02500667  0.031260868            2 
   58000    1.1651718   -6.9638182    17.492585  0.025133024  0.031191802            3 
   59000    1.1588441   -6.9221863    17.875442    0.0252478  0.031141268            3 
   60000    1.1745601   -6.9734773    18.255971  0.025355515  0.031098532            2 
   61000    1.1761159    -6.915212     18.68652  0.025528033  0.031060111            2 
   62000    1.1475307    -6.960009    18.938744  0.025455301  0.031018872            1 
   63000    1.1858245   -6.9728108    19.250991  0.025464273  0.030978825            2 
   64000    1.1556443   -6.9807721    19.677582  0.025621851   0.03093432            5 
   65000    1.1623982   -6.9455385    20.047149  0.025701472  0.030888781            2 
   66000     1.183708   -6.9878753    20.205688  0.025512232   0.03083848            1 
   67000    1.1633887   -7.0386855    20.602748  0.025625309  0.030779365            5 
   68000     1.147078   -7.0190733    20.922221  0.025639976  0.030725218            2 
   69000    1.1541634   -6.9899649    21.133478  0.025523524  0.030663868            3 
   70000    1.1418998   -7.0193589    21.457868  0.025545081  0.030588425            6 
   71000    1.1499081   -7.0336777     21.74417  0.025521326  0.030525327            2 
   72000    1.1681192   -7.0086666    22.045573  0.025515709  0.030447252            4 
   73000    1.1509039   -6.9926552    22.327368  0.025487863  0.030373891            2 
   74000    1.1223222   -6.9798238    22.705829  0.025569628  0.030294619            3 
   75000    1.1565885   -7.0143316    22.966061  0.025517845  0.030219346            3 
   76000    1.1507167   -7.0050352    23.328276   0.02557925  0.030148467           14 
   77000    1.1508308   -6.9761692    23.826997  0.025786793  0.030089044            2 
   78000    1.1578111   -7.0503493    24.152816   0.02580429  0.030042313            5 
   79000    1.1371928   -7.0383803    24.554578  0.025901454  0.029996955            2 
   80000    1.1266574   -7.0340036    24.822099  0.025856353  0.029949068            5 
   81000    1.1386072   -7.0430305     25.18509  0.025910586  0.029903176            2 
   82000    1.1307291   -7.0514667    25.433946  0.025847506  0.029855271            3 
   83000    1.1342566   -7.0715515    25.750801  0.025854217  0.029813954            4 
   84000    1.1387787   -7.0297822    26.156979  0.025949384  0.029772758            3 
   85000    1.1246689   -7.0686266    26.521533  0.026001503  0.029740477            2 
   86000    1.1294345   -7.0993018    26.742955  0.025913715  0.029698379            3 
   87000    1.1287637    -7.097453    27.098263  0.025956191   0.02965788            5 
   88000    1.1428985   -7.0640939    27.500477  0.026042119  0.029614095            5 
   89000    1.1270331   -7.0950649    27.680877  0.025918424  0.029569817            3 
   90000    1.1609726   -7.0545248    27.895092  0.025828789  0.029515037            6 
   91000    1.1162175   -7.0980124    28.214078  0.025837067   0.02946402            3 
   92000    1.0984491   -7.1120557    28.561325  0.025870765  0.029411948            2 
   93000    1.1115477   -7.1267403    28.890035  0.025887128  0.029367054            2 
   94000    1.1214296   -7.0741895    29.177874   0.02586691    0.0293181            3 
   95000    1.0987059   -7.1585991    29.265788  0.025671744  0.029258804            2 
   96000    1.1160678   -7.0975208    29.744088  0.025819521  0.029197735            3 
   97000    1.1146874   -7.1441677    29.830239  0.025627353   0.02913898            4 
   98000    1.1167837   -7.1139121    30.017263  0.025524883  0.029071603            6 
   99000    1.1174735   -7.1518233     30.26385  0.025474621   0.02900317            2 
  100000    1.1059962   -7.1080584     30.62907  0.025524225  0.028938754            6 
  101000    1.0871416   -7.0946234    31.028193  0.025600819  0.028878028            3 
  102000    1.1159177   -7.1410159    31.141792   0.02544264  0.028814604            4 
  103000    1.0994202   -7.1605684    31.393994  0.025399671  0.028744086            2 
  104000    1.1085143   -7.1518618    31.513503  0.025251205  0.028664672            3 
  105000    1.0841369   -7.0988231    31.791648  0.025231467  0.028585152            5 
  106000    1.1143468   -7.1320469    32.062463  0.025206338  0.028508894            2 
  107000    1.0853825   -7.1735102    32.374887  0.025214086  0.028429609            2 
  108000    1.0952865   -7.1490736    32.585264  0.025142951  0.028354224            3 
  109000    1.0893735   -7.1708094    32.889891  0.025145177  0.028281927            7 
  110000    1.0978781   -7.1577783    33.210042  0.025159123  0.028213644            3 
  111000    1.1090132   -7.1645653    33.620686  0.025240755  0.028149769            3 
  112000    1.0897386   -7.1570829    33.880516  0.025208717  0.028084132            3 
  113000     1.092328   -7.1970203    34.078214  0.025131426  0.028019002            2 
  114000    1.0780092   -7.1577765    34.410525  0.025153893  0.027953137            3 
  115000    1.1154478   -7.1859839    34.461671  0.024972225   0.02788936            5 
  116000    1.0925777   -7.1673291    34.755761  0.024968219  0.027815367            6 
  117000     1.062013    -7.195473    34.924404  0.024874931  0.027740153            9 
  118000    1.0572061   -7.2407089    35.079965  0.024773987  0.027664771            5 
  119000    1.0495818   -7.2115388    35.559727  0.024901769  0.027593588            3 
  120000    1.0659506   -7.2059532    35.774173  0.024843175  0.027524958            3 
  121000    1.0547889   -7.2252138    36.122439  0.024877713  0.027460427            8 
  122000    1.0847939   -7.1820572    36.370407  0.024843174  0.027395411            3 
  123000     1.084655   -7.2715097     36.49389  0.024724858  0.027327746            7 
  124000    1.0638732   -7.2345194    36.501782  0.024530768  0.027255067            8 
  125000    1.0657424   -7.2286203    36.725049  0.024483366  0.027179324            6 
  126000    1.0896573    -7.257099    36.970204  0.024451193  0.027104541            2 
  127000     1.055265   -7.2514206    37.098215   0.02434266  0.027025793            2 
  128000    1.0460921   -7.2930657    37.316132  0.024294356  0.026947556            8 
  129000    1.0570559   -7.2693086    37.570701  0.024270478  0.026871699            5 
  130000    1.0615245   -7.2855008    37.838064  0.024255169  0.026794927            5 
  131000     1.041259   -7.3018433    37.996226  0.024170627  0.026716147            4 
  132000      1.04342   -7.2436844    38.129513  0.024071662  0.026638138            2 
  133000    1.0592733   -7.3041258    38.249295  0.023965723  0.026556445            8 
  134000     1.069187    -7.293617    38.684595  0.024057584   0.02647852            1 
  135000    1.0327203   -7.2504105    38.903667  0.024014609  0.026404371            4 
  136000    1.0595073   -7.2587024    39.290693   0.02407518  0.026330426            4 
  137000    1.0540487   -7.3228212     39.35432  0.023938151  0.026255464            5 
  138000    1.0178221   -7.2800799    39.486448  0.023844473  0.026179803            4 
  139000    1.0678262   -7.3269988    39.705541  0.023804281  0.026104291            5 
  140000    1.0464119   -7.3413389    39.800387  0.023690706  0.026026132            6 
  141000    1.0188883   -7.2927125    40.171656  0.023742113  0.025948284            3 
  142000    1.0618206   -7.3021168    40.291846  0.023645449  0.025873517            5 
  143000    1.0358308   -7.3218326    40.535205  0.023621914   0.02579827            5 
  144000     1.008878   -7.3180157    40.702586  0.023554737  0.025724459            4 
  145000    1.0403871   -7.3467309    40.979697   0.02355155  0.025652354            3 
  146000    1.0452651   -7.3777624    41.133191  0.023477849  0.025581618            4 
  147000    1.0207004   -7.3483528      41.4581  0.023502324  0.025511494            4 
  148000    1.0364537   -7.3562731    41.717777  0.023489739  0.025442117            4 
  149000    1.0300484   -7.3254864    41.808021  0.023382562  0.025374285            7 
  150000     1.014082   -7.3307027    42.012266  0.023340148   0.02530281            5 
  151000    1.0363826   -7.3304796    41.907349  0.023127676  0.025228528            2 
  152000    1.0422599   -7.3622925     42.09249  0.023077023  0.025152213            2 
  153000    1.0310527   -7.3669883    42.406933  0.023097458  0.025076172            2 
  154000   0.99477769   -7.3572478    42.608027  0.023056291  0.025004003            2 
  155000    1.0185393   -7.3752869    42.896294  0.023062524   0.02493268            3 
  156000    1.0250697   -7.3619398    42.975358  0.022956922  0.024861581            7 
  157000    1.0303474   -7.4099054    43.184312  0.022921609  0.024788531            7 
  158000   0.99187477   -7.4329797    43.329166  0.022852936  0.024714831            4 
  159000    1.0055269   -7.4401777    43.415062  0.022754225  0.024640643            3 
  160000   0.99958911   -7.3917502    43.793296  0.022809008  0.024568417            1 
  161000    1.0159916    -7.401535    43.808303  0.022675105  0.024496932            6 
  162000    0.9981694   -7.4344817    44.207794  0.022740635  0.024428764            7 
  163000    1.0138039   -7.3994649    44.385361  0.022691902   0.02436084            5 
  164000    1.0044734   -7.4074324    44.613131  0.022669274  0.024293196            5 
  165000    1.0097514   -7.4060703    44.819545  0.022636134  0.024225105            2 
  166000    1.0000452   -7.4269313    44.973536  0.022577076  0.024158436            3 
  167000    1.0139099   -7.4213813    45.371134  0.022640286  0.024094232            5 
  168000    1.0053804   -7.4411437    45.602277  0.022620177  0.024034376            4 
  169000    1.0229932    -7.434335    45.660121  0.022514853   0.02397309            4 
  170000    1.0146135   -7.4546163    45.799999   0.02245098  0.023911558            6 
  171000    0.9774208   -7.4365909    46.082167  0.022457196  0.023851294            3 
  172000    1.0031617   -7.5002434    46.114094    0.0223421  0.023788032            5 
  173000   0.98367258   -7.4832849    46.037295  0.022175961  0.023723723            3 
  174000   0.99622911   -7.4884979    46.366927  0.022206383  0.023658593            7 
  175000   0.98880699   -7.4753444    46.491355  0.022138741  0.023592452            3 
  176000    0.9748207   -7.5343001    46.412231  0.021975488  0.023525849            3 
  177000   0.98176618   -7.4610912      46.5942  0.021937006  0.023456542           13 
  178000   0.97740275   -7.4823665    46.773244  0.021897586  0.023389567            5 
  179000   0.97448926   -7.5086696    47.069563  0.021913204  0.023322962            5 
  180000   0.96981994    -7.482918    47.176959  0.021841185   0.02325712            5 
  181000   0.98238851   -7.4386066    47.203387  0.021732683  0.023189833            3 
  182000   0.97623216   -7.5097704    47.323942  0.021668471  0.023121259            6 
  183000    0.9791502   -7.4781826     47.39091   0.02158056  0.023051623            4 
  184000   0.96003102   -7.5057394    47.450191  0.021490123  0.022981361            3 
  185000   0.97746819    -7.488534    47.599914  0.021441403  0.022910495            6 
  186000   0.95918674   -7.5082993    47.726181  0.021382697   0.02283905            3 
  187000   0.95721258   -7.5587405    47.658036  0.021237984   0.02276691            5 
  188000    1.0095816   -7.5372869    47.695078  0.021141435  0.022691836            4 
  189000   0.94069345   -7.5478609    47.724701  0.021042637  0.022616321            6 
  190000   0.96284603   -7.5815584    47.718913  0.020929348  0.022539485            6 
  191000   0.96614463   -7.5311432    47.904496   0.02090074  0.022462579            6 
  192000   0.96414893   -7.5338823    47.878776  0.020780719   0.02238608            3 
  193000   0.93421169   -7.5169032    48.251108  0.020833812  0.022308758            2 
  194000   0.97342598   -7.5380868    48.479349  0.020824462  0.022234081            5 
  195000   0.96851926   -7.5484112    48.661823  0.020795651  0.022160298            2 
  196000   0.95578047   -7.5463611    48.601121  0.020663742  0.022087699            4 
  197000   0.95672881   -7.5913964     48.62755   0.02057003  0.022014014            6 
  198000   0.95211092   -7.5687405    48.850989   0.02056018  0.021941531            4 
  199000   0.97034715   -7.6076397    49.041304  0.020536559  0.021869509            5 
  200000   0.95856291   -7.6366973    49.100208   0.02045842  0.021796138           11 
  201000   0.96125462   -7.5863805    49.202796  0.020399169  0.021723343            9 
  202000   0.94826474   -7.6135997    49.227402  0.020308334  0.021650963            7 
  203000   0.93907335   -7.5895672    49.537869  0.020335742  0.021578775            5 
  204000   0.94919063   -7.6096938    49.438979  0.020195661   0.02150698            6 
  205000   0.96017688   -7.6071435    49.509656  0.020125876   0.02143507            8 
  206000   0.93698095   -7.6040678    49.550696   0.02004478  0.021362749            7 
  207000    0.9331036   -7.6121164    49.795088  0.020046332   0.02129064            6 
  208000    0.9300442   -7.6065896     49.85041  0.019972119  0.021217773            5 
  209000   0.95759399   -7.6392336    49.814653  0.019862302  0.021143551            6 
  210000   0.94720041   -7.6469952    49.922141  0.019810373   0.02107106            3 
  211000   0.94636431   -7.6601469    49.978484  0.019738738   0.02099787            4 
  212000   0.93998642   -7.6537504    50.375197  0.019801571   0.02092595            5 
  213000    0.9320421   -7.5998717    50.380761  0.019710783  0.020854378            7 
  214000   0.95050755    -7.665521    50.181999  0.019541277  0.020781069            4 
  215000   0.91538019   -7.6937123    50.173696  0.019447169  0.020706924            4 
  216000    0.9151031   -7.6353527    50.364242  0.019430649  0.020632092            6 
  217000   0.91973523   -7.6690393    50.258025  0.019300317  0.020556975            7 
  218000   0.89542386   -7.6575252    50.481384  0.019297165  0.020481807            5 
  219000   0.90768093   -7.6879534    50.520937  0.019224101  0.020407053           14 
  220000   0.94000584   -7.6933765    50.504432  0.019130467  0.020332449            7 
  221000   0.90914265   -7.6916229    50.499793  0.019042154  0.020257668            8 
  222000   0.88766049   -7.7030925    50.624846  0.019003321  0.020182657            6 
  223000    0.9063719   -7.6999484    50.722785  0.018954703  0.020106808            7 
  224000   0.89973608   -7.7183006    50.719684   0.01886893  0.020031388            9 
  225000   0.90783969   -7.7377152    50.724084  0.018786698  0.019955872            5 
  226000   0.92455138   -7.7402368    50.757319  0.018715825   0.01988086           13 
  227000   0.89063188   -7.7198213    51.098397  0.018758589  0.019806777           20 
  228000   0.90250091   -7.7516419    51.169864  0.018702436  0.019734169            9 
  229000   0.90465087   -7.7484341    51.082729  0.018589057   0.01966135           19 
  230000   0.88718045   -7.7704188    51.167998   0.01853913   0.01958854           11 
  231000   0.88358983   -7.7631818    51.252265  0.018489273  0.019515351            6 
  232000   0.88923665   -7.7681287    51.304659  0.018428398  0.019442389            5 
  233000   0.90960337   -7.8127479     51.28872  0.018343605  0.019369374           11 
  234000   0.89776413   -7.7436945    51.435701  0.018317557  0.019296046           11 
  235000   0.87477387    -7.735846    51.497138  0.018261396  0.019223001           11 
  236000   0.86193813   -7.7744503    51.299213  0.018114129  0.019150795            8 
  237000    0.8685719   -7.7516171     51.68693  0.018174026  0.019078451           10 
  238000   0.89642122   -7.7572081    51.640886  0.018081543  0.019007021            5 
  239000   0.91573867   -7.7845937    51.621415  0.017999099  0.018935342           24 
  240000   0.87770281   -7.7980064    51.633451  0.017928282  0.018863896           30 
  241000   0.88358385   -7.7927941    51.730516  0.017887454  0.018792307           14 
  242000   0.89036582   -7.8364431    51.787533  0.017833173  0.018720328            5 
  243000    0.8900055   -7.7945968    51.933083  0.017809699   0.01864906            7 
  244000   0.85618768   -7.8310154    51.865777  0.017713721  0.018578143            9 
  245000   0.91280976   -7.8029143    52.027184  0.017696321  0.018507027           12 
  246000   0.86148237   -7.7746776    51.921279  0.017588509   0.01843622            5 
  247000   0.88201769   -7.8320034    51.990513  0.017540659  0.018365688            6 
  248000   0.88428114   -7.8322812    51.984762  0.017467998  0.018294704            4 
  249000   0.86279178   -7.8353519    52.122336  0.017443887  0.018223791            5 
  250000   0.87588025   -7.8545593    52.017096  0.017339032  0.018153758            7 
  251000   0.86639452   -7.8537075    52.150328  0.017314186  0.018084012            6 
  252000   0.88351543   -7.8606475    52.146269  0.017244137  0.018014239           16 
  253000   0.87284798   -7.8606791    52.073495  0.017152008  0.017944599           14 
  254000   0.85253089   -7.8783603    52.195768  0.017124596  0.017875001           22 
  255000   0.86184402   -7.8757226     52.34251  0.017105395  0.017806197           11 
  256000   0.86191552    -7.867281     52.39641  0.017056123   0.01773765            3 
  257000    0.8591658   -7.8741733    52.426025   0.01699936  0.017669895           13 
  258000    0.8645157   -7.8820206    52.508382  0.016960072   0.01760239            9 
  259000   0.86014784   -7.9246903    52.279701  0.016821011  0.017534188            8 
  260000   0.85365061   -7.8955071    52.466354  0.016816139  0.017466131            7 
  261000   0.84647711   -7.8771595    52.656066  0.016812282  0.017398978           13 
  262000   0.85620844   -7.9014463    52.546044  0.016713118  0.017331905           11 
  263000   0.84358997   -7.9069223    52.695272  0.016696854  0.017265426           19 
  264000   0.84863346   -7.8902551    52.748439  0.016650391  0.017199244            9 
  265000   0.83906786    -7.922248    52.647315  0.016555759  0.017132981            9 
  266000   0.83764112   -7.9099462    52.718872  0.016515937  0.017066988            7 
  267000   0.85181713   -7.8671018    52.824906  0.016487174  0.017001282           31 
  268000   0.84111206   -7.9470198    52.710774  0.016390166   0.01693563            9 
  269000   0.83850458   -7.9488517    52.730962   0.01633549    0.0168696            9 
  270000   0.84573698   -7.9521017    52.758903  0.016283612  0.016803582           27 
  271000     0.833698   -7.9391331    52.813008  0.016240162  0.016737769            3 
  272000   0.83014949   -7.9514475    52.786852  0.016172442  0.016672449            5 
  273000   0.84930054   -7.9404074    52.942548  0.016160729  0.016607465           10 
  274000   0.83587276   -7.9850761    52.878702   0.01608233  0.016542445           22 
  275000   0.82758731    -7.977552    53.061133  0.016079131  0.016477957           11 
  276000   0.80994999   -7.9688882    52.885571  0.015967866  0.016413343            8 
  277000   0.82024977   -7.9664984    53.126658  0.015982749  0.016349208           17 
  278000   0.81443661   -7.9897374    53.018423  0.015892813  0.016285413           16 
  279000   0.81377565   -8.0090736     52.92836  0.015808949  0.016221683            9 
  280000    0.8220044   -8.0097801    52.903542  0.015745102  0.016157202           13 
  281000   0.82288346   -8.0065265    52.930161  0.015696963  0.016093087           21 
  282000   0.80344471   -8.0097503    53.120867  0.015697656  0.016028916           22 
  283000   0.80734479   -8.0451686    52.972248  0.015598424  0.015964646           33 
  284000   0.82112871   -7.9979676    52.967619  0.015542142   0.01590087           23 
  285000   0.82129421   -8.0261149    52.952726  0.015483253  0.015837413            6 
  286000   0.81697674   -8.0120085    52.954671  0.015429683  0.015774273           24 
  287000   0.80023857   -8.0384336    53.068778  0.015409053  0.015711703           14 
  288000    0.7936511   -8.0517578    52.967559  0.015326261  0.015649257           14 
  289000   0.80511671   -8.0579792    52.987651  0.015279023   0.01558662           19 
  290000   0.80758926   -8.0912131    52.883712  0.015196469  0.015523651           16 
  291000   0.80853676   -8.0934447    52.940153   0.01516041  0.015461005           15 
  292000   0.79822447   -8.1019655    53.107839  0.015156347  0.015398716           13 
  293000   0.79516563   -8.0761498    53.156064  0.015118334  0.015337132           31 
  294000   0.77997285    -8.075465    53.139702  0.015062274  0.015275725           33 
  295000   0.80341017   -8.0825631    53.310873  0.015059569  0.015215237           45 
  296000   0.79833296   -8.0800679    53.312679    0.0150092  0.015154782           25 
  297000    0.7888462   -8.0708289    53.292311  0.014952949  0.015094745           38 
  298000   0.80669515   -8.1150765    53.222113  0.014883141  0.015034753           34 
  299000   0.78130953   -8.1018605    53.272249  0.014847338  0.014974718           48 
  300000   0.78186711   -8.1276124    53.254741  0.014792984  0.014915095           54 
  301000   0.77483435   -8.1567709    53.172297  0.014721012  0.014855426           58 
  302000   0.79064979   -8.1470626    53.189596  0.014677041  0.014795859           81 
  303000    0.7863576   -8.1555898    53.271436   0.01465111   0.01473653           83 
  304000   0.76136022    -8.155127     53.17079  0.014575326   0.01467757           93 
  305000   0.78153189   -8.1624586    53.147903  0.014521285    0.0146185           95 
  306000   0.75429766   -8.1643779    53.231269  0.014496533  0.014559523          106 
  307000   0.76416827   -8.1387416    53.092498  0.014411644  0.014501032           86 
  308000   0.76979363   -8.1792217    53.201036   0.01439422  0.014442709           97 
  309000   0.77333488   -8.1599131    53.288301  0.014371171  0.014384342          118 
  310000   0.77666295   -8.1568003    53.216138  0.014305413  0.014326182          105 
  311000   0.76750442   -8.1966951    53.112383  0.014231614  0.014268161          100 
  312000   0.79332047   -8.1868755    53.135174  0.014192087  0.014210391           93 
  313000   0.75364248   -8.1834677    53.250007  0.014177318  0.014152901           89 
  314000   0.77177964   -8.2012019     53.14404  0.014104045  0.014095393           70 
  315000   0.75890282   -8.2129159    53.318614  0.014105453  0.014038351           57 
  316000   0.75798997    -8.213689    53.088264   0.01400007  0.013981494          102 
  317000   0.76545425   -8.2162244    53.088216  0.013955893  0.013924884           97 
  318000   0.75378039   -8.2249658    53.102537  0.013915759  0.013868443           94 
  319000    0.7554148   -8.2246251    53.124339  0.013877831  0.013812122          100 
  320000   0.76348315   -8.1955772    53.186915  0.013850759  0.013755985           59 
  321000   0.74502487   -8.2302795    53.102898  0.013785799   0.01369999           94 
  322000   0.76346688   -8.2186917      53.1346  0.013751191  0.013644378          105 
  323000   0.75326261   -8.2232085    53.231791  0.013733692   0.01358906           99 
  324000   0.75588065   -8.2450562    53.172427  0.013676036  0.013533938           84 
  325000    0.7612134   -8.2382664    53.146492  0.013627306  0.013478852          115 
  326000   0.73919301   -8.2562532    53.112184  0.013576734  0.013423949          130 
  327000   0.73648466   -8.2589919    53.139593    0.0135422  0.013369288          117 
  328000   0.76026716    -8.237812    53.055117  0.013479451  0.013314814          163 
  329000   0.75414235   -8.2350259    53.238641  0.013484965  0.013260751          124 
  330000   0.74485982   -8.2547644    53.185163  0.013430597  0.013206684          130 
  331000   0.74864988     -8.27082    53.067887  0.013360495  0.013153048          115 
  332000   0.75195905   -8.2815887     53.04997  0.013315755  0.013099485          142 
  333000   0.72920875   -8.2732144    53.064323   0.01327936  0.013046122          142 
  334000   0.74584274   -8.2709605    53.124427  0.013254597   0.01299306          128 
  335000    0.7323904   -8.2831551    53.087814  0.013205924  0.012940287          140 
  336000    0.7278634   -8.2749018    53.222152  0.013199939   0.01288761          237 
  337000    0.7252841   -8.2663416    53.073377   0.01312398  0.012835403          105 
  338000   0.71748198   -8.2618102    53.305751  0.013142443  0.012783626          118 
  339000   0.74206696   -8.3263708     53.13627  0.013062013  0.012732283          172 
  340000   0.73601499   -8.2828954    53.191888  0.013037227  0.012680979          195 
  341000   0.73770132    -8.292631    53.196136  0.013000033  0.012629856          178 
  342000   0.72644774   -8.2792579    53.381109  0.013007093  0.012579014          190 
  343000   0.72895226   -8.3508429    53.181373  0.012920645  0.012528537          179 
  344000   0.73581809    -8.342535    53.179828   0.01288271  0.012478203          168 
  345000   0.71856323   -8.3517814    53.267866  0.012866634  0.012428161          220 
  346000     0.715158   -8.3609929    53.109898  0.012791401   0.01237833          199 
  347000   0.70813443   -8.3322426    53.216271  0.012780084  0.012328623          202 
  348000     0.708806   -8.3414347    53.160551  0.012730017  0.012279273          256 
  349000    0.7127052   -8.3366192    53.116467  0.012683015   0.01222985          273 
  350000   0.70699244   -8.3710525    53.169765  0.012659468  0.012180606          222 
  351000    0.7061507   -8.3638988    53.164124  0.012622062  0.012131553          219 
  352000   0.70683732   -8.3604045    53.152801  0.012583523  0.012082632          224 
  353000   0.69745052   -8.3610195    53.183221  0.012555057  0.012033997          233 
  354000   0.71236012   -8.3624674    53.042663  0.012486503  0.011985503          230 
  355000   0.69743958   -8.3888211    53.071193  0.012458027  0.011937156          243 
  356000   0.70165411   -8.3797009    53.143128  0.012439871  0.011889021          225 
  357000   0.70318854   -8.3827031    53.089314  0.012392463  0.011841127          262 
  358000   0.68695943   -8.4077731    53.193423  0.012382082  0.011793366          229 
  359000   0.68932471   -8.3969316    53.063744  0.012317489  0.011745858          243 
  360000    0.6813657   -8.3849136    53.077834  0.012286536  0.011698475          226 
  361000   0.69735409   -8.4356378    52.900532  0.012211572  0.011651223          201 
  362000   0.69337753   -8.4139108      53.0669  0.012216137  0.011604203          415 
  363000   0.69130158   -8.4128089    52.939644   0.01215327  0.011557526          205 
  364000   0.67869629   -8.4090604    53.046916  0.012144441  0.011510959          217 
  365000   0.69852731   -8.4100397    53.115598  0.012126849   0.01146467          241 
  366000   0.68309974   -8.4215994    52.952506  0.012056581  0.011418665          474 
  367000   0.68644269   -8.4149177    53.034219  0.012042284  0.011372776          419 
  368000    0.6875369   -8.4309852    53.116498  0.012028192  0.011327108          238 
  369000   0.67792654   -8.4002936    52.908638  0.011948653  0.011281656          262 
  370000   0.67815002   -8.4108399    52.961592  0.011928286  0.011236378          273 
  371000   0.66362621   -8.4121334    52.948784  0.011893258  0.011191201          506 
  372000   0.67090631   -8.4649786    52.967645  0.011865512  0.011146319          551 
  373000     0.669139   -8.4143774    53.056922  0.011853647  0.011101629          545 
  374000    0.6694821   -8.4121408    53.023053  0.011814406   0.01105731          247 
  375000   0.67545622   -8.4613208    52.918795  0.011759732  0.011013055          294 
  376000   0.67000195   -8.4472403     52.86002   0.01171543  0.010968961          557 
  377000   0.66040692   -8.4650986    52.852989    0.0116828  0.010925109          544 
  378000   0.65496722   -8.4551295    52.885906   0.01165915  0.010881484          539 
  379000   0.66216668   -8.4757568    52.828451  0.011615754  0.010837998          297 
  380000   0.65820284   -8.4742818    52.884461  0.011597469  0.010794688          542 
  381000   0.66274514   -8.4752597    52.819701  0.011552865  0.010751653          305 
  382000    0.6508055    -8.479388    52.915139  0.011543442  0.010708785          534 
  383000   0.65005182   -8.4752802    52.885728  0.011506903   0.01066623          297 
  384000    0.6584367   -8.4832785    52.994504  0.011500543  0.010623815          268 
  385000   0.64797161   -8.4893444    52.815176  0.011431856  0.010581523          545 
  386000   0.65066629   -8.4845136    52.867141  0.011413459  0.010539413          547 
  387000   0.64945334   -8.5044984    52.795697  0.011368582  0.010497481          519 
  388000       0.6527   -8.5052304    52.782421  0.011336431  0.010455876          283 
  389000   0.64052774   -8.5143549    52.793873  0.011309741  0.010414259          527 
  390000   0.64702809   -8.5212309    52.738764  0.011268967   0.01037285          520 
  391000   0.64155989   -8.4996263    52.837319  0.011261151  0.010331679          554 
  392000   0.64925538   -8.5271933    52.786137  0.011221543  0.010290776          538 
  393000   0.63246499   -8.5173552    52.793786  0.011194611  0.010249995          508 
  394000   0.64377452   -8.5353305     52.71346  0.011149209  0.010209376          544 
  395000    0.6339057   -8.5452204    52.645291  0.011106602  0.010168903          588 
  396000   0.64288224   -8.5367033    52.717876  0.011093829  0.010128616          619 
  397000   0.63729651   -8.5519826    52.740432   0.01107062   0.01008841          539 
  398000   0.63489393   -8.5632105    52.808083  0.011056969  0.010048406          558 
  399000   0.63868559   -8.5405087    52.673295  0.011001106  0.010008669          559 
  400000   0.63154653   -8.5535835    52.760032  0.010991673 0.0099690302          581 
  401000   0.61775426   -8.5704283    52.678742   0.01094737 0.0099297394          621 
  402000   0.61753107   -8.5394158    52.722742  0.010929258 0.0098906205          583 
  403000   0.62129502   -8.5748028    52.728306  0.010903289 0.0098516553          599 
  404000   0.61973574   -8.5918313    52.758429  0.010882514 0.0098129986          596 
  405000   0.61026258    -8.564212    52.787589  0.010861644 0.0097745148          618 
  406000   0.63880876   -8.5967787    52.659093  0.010808517 0.0097361924          584 
  407000    0.6199836   -8.5685416    52.760434   0.01080271 0.0096980346          594 
  408000   0.60736221   -8.5812905    52.666292  0.010757004 0.0096600419          567 
  409000   0.61522033   -8.5921041    52.632981  0.010723916 0.0096221984          560 
  410000   0.61664591   -8.5750925    52.666962  0.010704667  0.009584624          617 
  411000   0.60846428   -8.5657954    52.698773  0.010685072 0.0095471628          571 
  412000   0.61607159   -8.5916323    52.622902  0.010643791 0.0095098819          554 
  413000   0.60971608   -8.5869597    52.660021  0.010625509 0.0094728449          612 
  414000   0.59777402   -8.5996537    52.676175  0.010603095 0.0094359546          565 
  415000   0.60149808   -8.5998555    52.724227  0.010587194 0.0093992717          654 
  416000   0.60320527   -8.5901296    52.673207  0.010551524 0.0093627886          655 
  417000   0.59638688   -8.5931336     52.65895  0.010523371 0.0093264998          569 
  418000   0.60826757   -8.5912919    52.569322  0.010480327 0.0092904849          648 
  419000   0.60668908   -8.5882551    52.602537  0.010461921 0.0092544444          587 
  420000   0.60149515    -8.611979    52.595238  0.010435563 0.0092186419          604 
  421000   0.59431645   -8.6173884    52.648867  0.010421391 0.0091830061          634 
  422000   0.59169296   -8.6179776    52.659831  0.010398861  0.009147526          627 
  423000   0.58344009   -8.6250814    52.515252  0.010345794 0.0091122409          638 
  424000   0.60059909   -8.6107169    52.604185  0.010338873 0.0090771509          647 
  425000    0.5804828   -8.5951439    52.690519  0.010331474 0.0090423364          620 
  426000    0.5725473   -8.6435198    52.612344   0.01029193 0.0090076476          660 
  427000    0.5742899   -8.6477342    52.599595  0.010265339 0.0089731221          613 
  428000   0.57456114   -8.6365858    52.631116  0.010247491 0.0089386998          633 
  429000   0.56293138   -8.6307739    52.593343  0.010216267 0.0089044932          687 
  430000   0.58380264   -8.6316599    52.542102  0.010182578 0.0088704319          338 
  431000   0.58195115   -8.6295455    52.600406  0.010170225  0.008836516          633 
  432000   0.57668392   -8.6532198    52.440411   0.01011582 0.0088027303          663 
  433000   0.58425239   -8.6386618     52.54299    0.0101122 0.0087691496          631 
  434000   0.57848517   -8.6739029    52.412441  0.010063833 0.0087356796          661 
  435000   0.57741288   -8.6585973    52.549894  0.010067029 0.0087023379          727 
  436000   0.56465747   -8.6429903    52.504683  0.010035299 0.0086692389          688 
  437000   0.56642182   -8.6523631    52.504459  0.010012292 0.0086363107          619 
  438000   0.57497857   -8.6548214    52.554413  0.009998937 0.0086036149          655 
  439000   0.56310024   -8.6809197     52.54213 0.0099738288 0.0085710372          678 
  440000   0.56709178   -8.6848034    52.503921 0.0099439244 0.0085386376          619 
  441000   0.55250563   -8.6648549    52.605881 0.0099406427 0.0085063512          698 
  442000   0.54578207   -8.6694855    52.488721 0.0098960636 0.0084742445          674 
  443000    0.5462446   -8.6774421    52.495818 0.0098750599 0.0084422783          723 
  444000   0.54986943   -8.6811658    52.476317 0.0098491587  0.008410531          704 
  445000    0.5545651   -8.6894287    52.617268  0.009853421 0.0083789409          647 
  446000   0.54730546    -8.695914    52.450903 0.0098002434 0.0083474785          648 
  447000   0.54306152   -8.6852585    52.434704 0.0097752989 0.0083161093          693 
  448000   0.55872744   -8.6809271    52.466154 0.0097593292 0.0082849402          642 
  449000   0.54563035   -8.7099284    52.380118 0.0097216255 0.0082539115          364 
  450000   0.54202853   -8.7229693    52.411448 0.0097058237 0.0082229947          712 
  451000   0.55249429   -8.7250263    52.514529 0.0097033497 0.0081922257          704 
  452000   0.53732962   -8.6899788    52.498745 0.0096789721 0.0081616039          674 
  453000   0.54442382   -8.7102875    52.486555 0.0096553633  0.008131152          661 
  454000   0.54849675   -8.7098079     52.40908 0.0096198752 0.0081008114          669 
  455000   0.54909788   -8.7250139    52.435533 0.0096035775 0.0080706031          673 
  456000   0.53850762   -8.7120879    52.369362 0.0095704244 0.0080405802          673 
  457000   0.54045341   -8.7240054    52.302033 0.0095372052 0.0080106697          366 
  458000    0.5223702    -8.722097    52.282139 0.0095127619 0.0079808933          706 
  459000   0.53161704   -8.7173936    52.413373  0.009515863 0.0079512566          708 
  460000   0.52902415   -8.7334317    52.428704 0.0094979535 0.0079217836          720 
  461000   0.53730139   -8.7338369    52.380786 0.0094686888 0.0078924465          669 
  462000   0.53407665   -8.7352814    52.436241 0.0094581964 0.0078632792          709 
  463000   0.51728651   -8.7126552    52.506855 0.0094504779 0.0078342958          718 
  464000   0.53175138   -8.7394685    52.379148 0.0094071746 0.0078054337          692 
  465000    0.5225246   -8.7448514    52.408801 0.0093922583 0.0077766747          684 
  466000   0.53414318   -8.7465488    52.338639 0.0093595563 0.0077480426          726 
  467000   0.51748542   -8.7313318    52.257354 0.0093250096  0.007719583          681 
  468000   0.51896915   -8.7401231    52.312141 0.0093148399 0.0076912083          672 
  469000    0.5173853   -8.7370688    52.389544  0.009308732 0.0076629786          669 
  470000   0.51171986   -8.7531007    52.365487 0.0092846607 0.0076348863          730 
  471000   0.51998561   -8.7634666    52.300048 0.0092533702 0.0076069377          737 
  472000   0.51037008   -8.7443939     52.35103 0.0092427666 0.0075791037          774 
  473000   0.50200027   -8.7536965    52.243769 0.0092043285 0.0075514342          765 
  474000   0.51176759   -8.7537542     52.27977 0.0091912394 0.0075238476          801 
  475000   0.51390007   -8.7607602    52.281033  0.009172111 0.0074964567          773 
  476000   0.50457709    -8.773366    52.316588 0.0091590666 0.0074692049          738 
  477000   0.50520378   -8.7744619     52.32594 0.0091414989 0.0074420553          712 
  478000   0.50798024   -8.7757163    52.340326 0.0091248825 0.0074150203          826 
  479000   0.50945508   -8.7894281    52.219283 0.0090847743  0.007388088          785 
  480000   0.50400661   -8.7844352    52.271957 0.0090749925 0.0073612742          742 
  481000   0.50804119   -8.7677429    52.295994 0.0090602901 0.0073345563          694 
  482000   0.49510677   -8.7988491    52.209999 0.0090266249 0.0073079956          759 
  483000   0.49056462   -8.7924025    52.168224 0.0090007288 0.0072814992          825 
  484000   0.49725788   -8.7832323    52.212916 0.0089898271 0.0072551681          747 
  485000    0.4890161   -8.8010026    52.150234 0.0089605213 0.0072289691          788 
  486000    0.4919393     -8.79847     52.19451  0.008949676 0.0072028799          796 
  487000   0.49097601    -8.786147    52.202154 0.0089326068  0.007176886          716 
  488000   0.49173173   -8.8050392     52.13963 0.0089036253 0.0071509432          712 
  489000   0.49035823   -8.7961356    52.146529 0.0088865932 0.0071251912          735 
  490000   0.49345447   -8.7983766    52.241295  0.008884574 0.0070995226          710 
  491000   0.47333466   -8.8250943    52.180229  0.008856115 0.0070740316          758 
  492000    0.4819013   -8.8075378    52.179671 0.0088380201 0.0070486608          749 
  493000   0.47255723   -8.8201862    52.119435 0.0088099113 0.0070233862          722 
  494000   0.47084552   -8.8148799     52.11586 0.0087914743 0.0069982596          668 
  495000   0.47325974   -8.8197358    52.080661 0.0087677881 0.0069732068          796 
  496000   0.46531842   -8.8187478    52.133321 0.0087589585 0.0069483141          755 
  497000   0.47295033   -8.8325831    52.199613 0.0087524503 0.0069235372          751 
  498000    0.4708197    -8.829522    52.102233 0.0087185799 0.0068988527          711 
  499000   0.46708249   -8.8336071    52.102956 0.0087012285 0.0068743345          778 
  500000   0.46633596   -8.8247765    52.109382  0.008684897  0.006849933          707 
  501000   0.47787857   -8.8339042    52.161407 0.0086762154  0.006825605          767 
  502000   0.48111191   -8.8256997    51.996317 0.0086315267 0.0068014005          733 
  503000   0.45946298    -8.822351    52.080238   0.00862827 0.0067773062          715 
  504000   0.46129353   -8.8202213    52.204541 0.0086317031 0.0067533348          715 
  505000   0.45048796   -8.8468751    52.115261  0.008599878 0.0067294707          674 
  506000   0.45215984    -8.858404    52.105815 0.0085813266  0.006705727          695 
  507000   0.45521591   -8.8514407    52.010003 0.0085486526  0.006682077          736 
  508000   0.46289353   -8.8519098    52.064698 0.0085407969 0.0066585622          763 
  509000   0.45025747   -8.8527631    52.151236 0.0085381853 0.0066351589          745 
  510000   0.45881579   -8.8471446    52.070521 0.0085082551 0.0066119185          666 
  511000   0.45361232     -8.87651    52.117009 0.0084991861 0.0065887607          697 
  512000   0.44822293   -8.8544971    52.056252 0.0084726972 0.0065657242          729 
Loop time of 1330.84 on 48 procs for 500000 steps with 4000 atoms

Performance: 64921.306 tau/day, 375.702 timesteps/s
99.4% CPU use with 48 MPI tasks x no OpenMP threads

MPI task timing breakdown:
Section |  min time  |  avg time  |  max time  |%varavg| %total
---------------------------------------------------------------
Pair    | 93.814     | 100.62     | 107.34     |  38.0 |  7.56
Neigh   | 9.0627     | 9.476      | 9.9849     |   8.3 |  0.71
Comm    | 82.081     | 89.954     | 94.988     |  42.2 |  6.76
Output  | 1.1881     | 1.1889     | 1.214      |   0.3 |  0.09
Modify  | 1112.5     | 1116.8     | 1122.6     |   9.0 | 83.92
Other   |            | 12.8       |            |       |  0.96

Nlocal:        83.3333 ave          89 max          78 min
Histogram: 3 4 7 4 9 6 5 4 2 4
Nghost:        2396.73 ave        2417 max        2367 min
Histogram: 1 4 3 5 3 5 6 10 6 5
Neighs:        16557.6 ave       18601 max       14088 min
Histogram: 2 3 6 4 7 4 6 4 8 4
FullNghs:      33116.4 ave       35574 max       31000 min
Histogram: 2 6 8 4 9 8 2 4 2 3

Total # of neighbors = 1589589
Ave neighs/atom = 397.39725
Neighbor list builds = 26608
Dangerous builds = 0

#clear
#
#next RN
#
#jump SELF
Total wall time: 0:22:14
