
units lj                  # Use reduced LJ style units
atom_style atomic         # Uncharged point particles
atom_modify map hash      # Needed for indexing of clusters etc
                          # Used to be able to find where atoms are in relation to each other.

lattice fcc 1.0 spacing 1 1 1
Lattice spacing in x,y,z = 1.5874011 1.5874011 1.5874011
region box block 0 10 0 10 0 10 units lattice
create_box 2 box
Created orthogonal box = (0.0000000 0.0000000 0.0000000) to (15.874011 15.874011 15.874011)
  3 by 4 by 4 MPI processor grid
create_atoms 1 box
Created 4000 atoms
  using lattice units in orthogonal box = (0.0000000 0.0000000 0.0000000) to (15.874011 15.874011 15.874011)
  create_atoms CPU = 0.015 seconds
set type 1 type/fraction 2 0.61 78393
Setting atom values ...
  2454 settings made for type/fraction
mass 1 1.0
mass 2 1.0
pair_style lj/cut  3.5
pair_modify tail  yes
pair_coeff 1  1  1.0  1.0   # Intearaction between 1 and 1 set with epsilon = 1 and sigma = 1
pair_coeff 1  2  1.5  0.8
pair_coeff 2  2  0.5  0.88

write_data data.0
System init for write_data ...
Neighbor list info ...
  update every 1 steps, delay 10 steps, check yes
  max neighbors/atom: 2000, page size: 100000
  master list distance cutoff = 3.8
  ghost atom cutoff = 3.8
  binsize = 1.9, bins = 9 9 9
  1 neighbor lists, perpetual/occasional/extra = 1 0 0
  (1) pair lj/cut, perpetual
      attributes: half, newton on
      pair build: half/bin/atomonly/newton
      stencil: half/bin/3d
      bin: standard
WARNING: Not all mixed pair coeffs generated from mixing. Use write_data with 'pair ij' option to store all pair coeffs. (../write_data.cpp:312)


#############################
#   M E L T   S Y S T E M   #
#############################

velocity all create 2.4 3143649 mom yes dist gaussian # Assign velocities
                                                    # Temperature 2.4, random number seed, zero linear momentum
                                                                                # Gaussian distribution

timestep 0.002   # simulation timestep
thermo 1000       # output thermodynamic data every 1000 steps bf 100

# Define a fix  in this case with index 1 applied to all
# particles in the simulation. This fix is for simulations
# in the anisotropic NPT ensemble. Note that we use the MTK
# correction.
fix 1 all npt temp 2.4 2.4 0.1 iso 5.68 5.68 0.5 mtk yes tchain 5 pchain 5 # Use NPT ensemble
                                                                         # Set temperature and pressure and damping
                                                                         # Numbers of thermostats in chain and in barostat
run 10000          # run for 10000 steps
Per MPI rank memory allocation (min/avg/max) = 3.642 | 3.644 | 3.648 Mbytes
Step Temp E_pair E_mol TotEng Press Volume 
       0          2.4   -4.6675525            0   -1.0684525   -4.0420614         4000 
    1000    2.4098121   -4.4306709            0  -0.81685646    5.7845222    3604.2177 
    2000    2.3874413   -4.3758561            0  -0.79558949    5.5556864    3638.9217 
    3000    2.4179578   -4.5289193            0  -0.90288932    5.7134532    3555.6887 
    4000    2.4009595   -4.3432954            0  -0.74275647    5.8059761    3636.7822 
    5000     2.434527   -4.3990119            0  -0.74813434    5.9293391    3599.9674 
    6000     2.402767   -4.4053424            0  -0.80209295    5.7154114    3615.0076 
    7000    2.3746803   -4.3349116            0  -0.77378169    5.4213194    3674.6084 
    8000    2.4604528   -4.4350413            0  -0.74528469    5.8728371    3597.9427 
    9000    2.3418061   -4.4384123            0  -0.92658134    5.3069449    3624.8517 
   10000    2.4427266   -4.3929738            0  -0.72979994    5.7708538    3626.8722 
Loop time of 2.75878 on 48 procs for 10000 steps with 4000 atoms

Performance: 626364.247 tau/day, 3624.793 timesteps/s
99.5% CPU use with 48 MPI tasks x no OpenMP threads

MPI task timing breakdown:
Section |  min time  |  avg time  |  max time  |%varavg| %total
---------------------------------------------------------------
Pair    | 1.1908     | 1.2688     | 1.3381     |   2.5 | 45.99
Neigh   | 0.21859    | 0.22341    | 0.23165    |   0.6 |  8.10
Comm    | 0.81145    | 0.8919     | 0.98547    |   3.5 | 32.33
Output  | 0.00025255 | 0.00026049 | 0.00039969 |   0.0 |  0.01
Modify  | 0.33717    | 0.35881    | 0.39446    |   2.6 | 13.01
Other   |            | 0.01563    |            |       |  0.57

Nlocal:        83.3333 ave          98 max          74 min
Histogram: 2 6 9 10 5 11 2 2 0 1
Nghost:        1751.92 ave        1783 max        1723 min
Histogram: 3 3 9 5 5 3 8 8 2 2
Neighs:        10533.2 ave       12707 max        9301 min
Histogram: 6 7 5 9 7 10 2 1 0 1

Total # of neighbors = 505596
Ave neighs/atom = 126.39900
Neighbor list builds = 905
Dangerous builds = 190

# Equilibrate just above the melting temperature to avoid step fn in T

fix 1 all npt temp 1.25 1.25 0.1 iso 5.68 5.68 0.5 mtk yes tchain 5 pchain 5
run 2000
Per MPI rank memory allocation (min/avg/max) = 3.644 | 3.646 | 3.650 Mbytes
Step Temp E_pair E_mol TotEng Press Volume 
   10000    2.4427266   -4.3929738            0  -0.72979994    5.7708538    3626.8722 
   11000    1.2309641   -6.3751706            0    -4.529186    5.8301171    2784.1702 
   12000    1.2393605   -6.5164573            0   -4.6578813    5.7544624    2747.9194 
Loop time of 0.665198 on 48 procs for 2000 steps with 4000 atoms

Performance: 519544.540 tau/day, 3006.623 timesteps/s
99.7% CPU use with 48 MPI tasks x no OpenMP threads

MPI task timing breakdown:
Section |  min time  |  avg time  |  max time  |%varavg| %total
---------------------------------------------------------------
Pair    | 0.29052    | 0.3235     | 0.37548    |   2.6 | 48.63
Neigh   | 0.041077   | 0.043692   | 0.049467   |   0.7 |  6.57
Comm    | 0.19669    | 0.2479     | 0.28113    |   3.4 | 37.27
Output  | 5.0933e-05 | 5.2243e-05 | 6.855e-05  |   0.0 |  0.01
Modify  | 0.03849    | 0.045173   | 0.050422   |   1.8 |  6.79
Other   |            | 0.004881   |            |       |  0.73

Nlocal:        83.3333 ave          91 max          75 min
Histogram: 2 0 4 10 4 13 7 1 4 3
Nghost:        2125.56 ave        2147 max        2099 min
Histogram: 2 0 3 6 6 10 9 7 3 2
Neighs:        13904.7 ave       15810 max       12167 min
Histogram: 2 3 6 5 11 7 6 5 2 1

Total # of neighbors = 667424
Ave neighs/atom = 166.85600
Neighbor list builds = 143
Dangerous builds = 9

#############################
# L I N E A R  Q U E N C H  #
#############################

# Define solid atoms. This closely follows ten Wolde  Ruiz-Montero and Frenkel  Faraday Discuss  1996  104  93-110
# Compute components of the per-atom q6 vector
compute q6 all orientorder/atom degrees 1 6 components 6 nnn NULL cutoff 1.3 # compute the Q6 parameter.
                                                                             # Use all neighbours within 1.3 unit cell.

# get number of connections
compute coord_number all coord/atom orientorder q6 0.5

# An atom is solid if it has 8 or more connections (of a possible 14)
variable is_solid atom c_coord_number>=8
group solid dynamic all var is_solid    # Must be dynamic to update
dynamic group solid defined

# do clustering
compute cluster solid cluster/atom 1.3 # Create a cluster where all atoms within are solid and max 1.3 units from another member

# define chunks one chunk per cluster
compute clus_chunks solid chunk/atom c_cluster nchunk every compress yes  # Says which atoms are in which chunk

# count the size of each chunk
compute size_chunks solid property/chunk clus_chunks count


# Find the maximum entry in the vector of chunk sizes
variable max_n equal max(c_size_chunks)


# Thermo style which includes this variable
# thermo_style custom step temp pe vol v_max_n

thermo ${N}  # Print the thermo information every 100 steps
thermo 1000  

# Reset the npt fix at a lower temperature (below freezing)
fix 1  all npt temp  ${temp} ${temp}  0.1  iso  5.68  5.68  0.5  mtk yes tchain  5  pchain  5
fix 1  all npt temp  0.45 ${temp}  0.1  iso  5.68  5.68  0.5  mtk yes tchain  5  pchain  5
fix 1  all npt temp  0.45 0.45  0.1  iso  5.68  5.68  0.5  mtk yes tchain  5  pchain  5

dump dmp2 all dcd ${N} traj.dcd
dump dmp2 all dcd 1000 traj.dcd


compute msd all msd com yes
variable twopoint equal c_msd[4]/6/(step*dt+1.0e-6)
fix 9 all vector 10 c_msd[4]
variable fit equal slope(f_9)/6/(10*dt)
thermo_style custom step temp pe c_msd[4] v_twopoint v_fit v_max_n

fix 1 all npt temp 1.25 ${temp} 0.1 iso 5.68 5.68 0.5 mtk yes tchain 5 pchain 5
fix 1 all npt temp 1.25 0.45 0.1 iso 5.68 5.68 0.5 mtk yes tchain 5 pchain 5
run 2000000 # 5000000  # Run for this many steps
Neighbor list info ...
  update every 1 steps, delay 10 steps, check yes
  max neighbors/atom: 2000, page size: 100000
  master list distance cutoff = 3.8
  ghost atom cutoff = 3.8
  binsize = 1.9, bins = 8 8 8
  4 neighbor lists, perpetual/occasional/extra = 1 3 0
  (1) pair lj/cut, perpetual
      attributes: half, newton on
      pair build: half/bin/atomonly/newton
      stencil: half/bin/3d
      bin: standard
  (2) compute orientorder/atom, occasional
      attributes: full, newton on
      pair build: full/bin/atomonly
      stencil: full/bin/3d
      bin: standard
  (3) compute coord/atom, occasional
      attributes: full, newton on
      pair build: full/bin/atomonly
      stencil: full/bin/3d
      bin: standard
  (4) compute cluster/atom, occasional
      attributes: full, newton on
      pair build: full/bin/atomonly
      stencil: full/bin/3d
      bin: standard
Per MPI rank memory allocation (min/avg/max) = 9.848 | 9.854 | 9.858 Mbytes
Step Temp PotEng c_msd[4] v_twopoint v_fit v_max_n 
   12000    1.2393605   -6.5164573 3.9443045e-34 2.7391003e-36 8.3333333e+20            2 
   13000    1.2663694   -6.5541461   0.51605534 0.0033080469  0.042605114            5 
   14000     1.267931   -6.5779596   0.99259427  0.005908299  0.039942578            2 
   15000    1.2387583   -6.5526273    1.4370153 0.0079834179  0.039625601            2 
   16000    1.2367214   -6.5275536     1.828805 0.0095250257  0.038297301            2 
   17000    1.2597688    -6.544117    2.2931631  0.011240995  0.037274858            3 
   18000     1.228909   -6.5717873    2.7697179  0.012822768  0.037460314            1 
   19000    1.2760055   -6.5472303    3.2003735  0.014036726  0.037544222            4 
   20000    1.2451374    -6.506756     3.683973  0.015349887  0.037464785            2 
   21000    1.2580965   -6.5018462    4.2581084  0.016897255  0.037879752            1 
   22000    1.2280017   -6.5260316    4.7100544  0.017841115  0.038361234            3 
   23000    1.2623013   -6.5675093    5.1910271  0.018808069   0.03863163            3 
   24000    1.2317851   -6.6139221    5.6211993  0.019518053   0.03882306            3 
   25000    1.2641218   -6.5790533    6.0359077  0.020119692  0.038823075            2 
   26000    1.2364859    -6.521966     6.564905  0.021041362   0.03884185            3 
   27000    1.2276774   -6.5568973     7.063471  0.021800836  0.038876224            2 
   28000    1.2447657   -6.6164017    7.4756392  0.022248926  0.038952166            2 
   29000    1.2345444   -6.6109527    7.8769849  0.022635014  0.038940513            5 
   30000    1.2414912   -6.6165133    8.3820586  0.023283496  0.038856452            1 
   31000    1.2378238   -6.5774646    8.8843672  0.023882707  0.038834767            4 
   32000    1.2600279   -6.5798408    9.3973433  0.024472248  0.038874801            4 
   33000    1.2404725   -6.5864012    9.8459185   0.02486343  0.038913204            1 
   34000    1.2467436   -6.5787246       10.331  0.025321078  0.038991166            2 
   35000    1.2502629    -6.593021     10.92145  0.026003451  0.039070186            1 
   36000    1.2485884   -6.6074875    11.463204  0.026535194  0.039218492            2 
   37000    1.2494982   -6.5575425    11.857753   0.02670665  0.039356727            2 
   38000    1.2370964   -6.6009638    12.273842   0.02691632  0.039405742            2 
   39000    1.2110352   -6.5668121    12.844177  0.027444821  0.039488587            1 
   40000    1.2269844   -6.5703782      13.3187   0.02774729  0.039563574            4 
   41000    1.2133089   -6.5685147    13.635557  0.027714547  0.039574836            4 
   42000    1.2632448   -6.5825666    14.041651  0.027860418  0.039516303            4 
   43000     1.211786   -6.5937029    14.518014  0.028135686  0.039427044            2 
   44000    1.2526082    -6.560341    15.033092  0.028471765  0.039419214            2 
   45000    1.2235923   -6.5969346    15.456056  0.028622326   0.03940153            9 
   46000    1.2312728    -6.583398    15.888831  0.028784113  0.039360652            2 
   47000    1.2508401   -6.5733772    16.368746  0.029022599  0.039311503            2 
   48000    1.2349614   -6.6023644    16.684938  0.028966907  0.039248705            1 
   49000    1.2547522   -6.6341201     17.21883  0.029283723  0.039177532            2 
   50000     1.253251   -6.6054372    17.581837  0.029303061  0.039102318            1 
   51000    1.2324161   -6.5913373    18.089774  0.029558454  0.039035643            1 
   52000    1.2221898   -6.6103679    18.409889  0.029503026  0.038972183            4 
   53000    1.2269607   -6.5356227    18.956452  0.029805742    0.0388843            2 
   54000    1.2309026   -6.5648109    19.460191  0.030031159  0.038829896            2 
   55000    1.2551782   -6.6215893    19.817949  0.030027195  0.038786182            3 
   56000    1.2314616   -6.5533495    20.250238  0.030134283  0.038732334            1 
   57000    1.2456608   -6.5853753    20.648547  0.030187933  0.038667565            2 
   58000    1.2752284   -6.6469211    20.879373  0.029999099  0.038586344            2 
   59000    1.2309126   -6.6782278    21.421362  0.030256161  0.038520413            2 
   60000    1.2197362   -6.6016118    21.971416  0.030515855  0.038453621            3 
   61000    1.2330229   -6.5862899    22.419871  0.030628239  0.038394832            6 
   62000    1.2287845   -6.6178133    22.742784  0.030568258  0.038332282            2 
   63000    1.2471066   -6.6349762    23.004846   0.03042969  0.038245365            2 
   64000    1.2688995   -6.6577001    23.533613  0.030642726  0.038159963            2 
   65000    1.1977835   -6.5768851    24.109875  0.030910096  0.038096063            2 
   66000    1.1947993   -6.5925093     24.61934  0.031085025  0.038040166            2 
   67000     1.236033   -6.6032115    25.294357  0.031460643  0.038013883            5 
   68000     1.242943   -6.5794902    25.889662  0.031727527   0.03801533            3 
   69000    1.2353565   -6.6856904    26.173537  0.031610552  0.038024455            2 
   70000      1.23822   -6.6276054    26.544207  0.031600246  0.038016901            2 
   71000     1.232293   -6.6058703    26.965063  0.031649135   0.03799557            4 
   72000     1.248459   -6.5496672    27.413475  0.031728558  0.037962963            2 
   73000    1.2310013   -6.6216023    27.721441  0.031645481  0.037929082            2 
   74000    1.2293417   -6.7145382    27.974063  0.031502323  0.037890816            3 
   75000    1.2524816   -6.6062233    28.610508  0.031789453  0.037852218            2 
   76000    1.2555029   -6.6071761     28.99016  0.031787456   0.03782479            3 
   77000    1.2357203    -6.657027    29.392527  0.031810094  0.037792446            4 
   78000    1.2156433   -6.6187101    29.865827  0.031907934    0.0377597            3 
   79000    1.2252745   -6.6088346    30.362155  0.032027589  0.037729255            2 
   80000    1.1959102   -6.5770073    30.851043  0.032136503  0.037698093            3 
   81000    1.1936333   -6.6498116    31.071168  0.031966222  0.037653424            1 
   82000     1.212046    -6.677569    31.684305  0.032199497  0.037617372            2 
   83000    1.2216064   -6.5974587    32.096608   0.03222551   0.03758965            2 
   84000    1.2196627    -6.661924     32.40533  0.032148144  0.037567435            2 
   85000    1.2337913   -6.6315075    32.926206  0.032280594  0.037546349            2 
   86000     1.219302   -6.6328623    33.297645   0.03226516  0.037512315            2 
   87000    1.2429236   -6.6505125    33.772113  0.032348767  0.037481913            1 
   88000     1.203182   -6.6487705    34.082832  0.032275409  0.037454551            3 
   89000    1.2207722   -6.6699945    34.692821  0.032483915  0.037429936            3 
   90000    1.2418272   -6.6625737     35.21247  0.032604139  0.037417932            4 
   91000    1.2307452   -6.6715478    35.777976  0.032763714  0.037412107            3 
   92000    1.2332855   -6.6493846     36.27673  0.032859356  0.037414779            3 
   93000    1.2331167   -6.6234815    36.676251  0.032864024  0.037422487            2 
   94000    1.2153081   -6.6463522    37.136525  0.032922451   0.03742418            2 
   95000    1.2180139   -6.6762578    37.622056  0.033001804   0.03742562            2 
   96000    1.2039154   -6.6206186    38.145184  0.033112139  0.037430035            2 
   97000    1.2165508   -6.5927623     38.36937  0.032963376  0.037422169            2 
   98000    1.2133563   -6.6450445    38.813666  0.033004818  0.037409296            3 
   99000    1.2245157   -6.6181595    39.230564   0.03302236  0.037398147            1 
  100000    1.2158573   -6.6221719    39.354545  0.032795454  0.037378965            6 
  101000    1.2227132   -6.6544048    39.857758  0.032885939  0.037349367            2 
  102000    1.2286355   -6.6086261     40.08616   0.03275013    0.0373123            3 
  103000    1.1796674   -6.6411475    40.324064  0.032624647  0.037269075            3 
  104000    1.2286615   -6.6784338    40.616286  0.032545101  0.037222823            3 
  105000    1.2209557   -6.6714375    41.152808  0.032660958  0.037171692            2 
  106000    1.2126243   -6.6657156    41.288083  0.032459184  0.037115361            5 
  107000    1.2260998   -6.6002404    41.744249  0.032511097  0.037059285            1 
  108000    1.2325123   -6.6559972    42.146684  0.032520589  0.037000132            1 
  109000    1.2031058   -6.6415597    42.732615  0.032670195  0.036944638            7 
  110000    1.2188947   -6.6303989    43.124799  0.032670302  0.036897942            5 
  111000    1.2321215   -6.6052826     43.88958  0.032950135  0.036859469            4 
  112000    1.2077791   -6.6466724    44.102447  0.032814321  0.036826324            2 
  113000    1.1950021   -6.6650419    44.447218  0.032778184  0.036787837            4 
  114000    1.2108692   -6.6462007    45.009679  0.032901812   0.03675548            3 
  115000    1.1890836   -6.6516507    45.315348  0.032837209  0.036719464            4 
  116000    1.1724214   -6.6141547    45.836244  0.032928336  0.036684739            5 
  117000    1.1826388   -6.7066281    45.971666  0.032743351  0.036646379            2 
  118000    1.2101718   -6.6193425    46.515339  0.032849815  0.036612828            2 
  119000    1.2190074   -6.6751029    46.883339   0.03283147  0.036574568            3 
  120000    1.2019553   -6.6912471    47.179944   0.03276385  0.036537204            2 
  121000    1.1920192   -6.6525693    47.421155  0.032659198  0.036498255            3 
  122000    1.2410078   -6.6444908    48.210121   0.03293041  0.036462525            3 
  123000    1.1757396   -6.6884446     48.32129  0.032738001  0.036427003            4 
  124000    1.2034993   -6.6689959     48.97027  0.032910128  0.036393058            6 
  125000    1.2028097   -6.6643516    49.577234  0.033051489  0.036365899            3 
  126000    1.2124495   -6.6728118    49.760233  0.032910207   0.03634253            3 
  127000    1.2183687   -6.6490577    50.278415  0.032991086  0.036315824            2 
  128000    1.2233882   -6.6751676    50.803101  0.033074936  0.036292095            5 
  129000    1.1732005    -6.657278    51.106396  0.033014468  0.036267063            3 
  130000    1.1921165   -6.6943013    51.397454  0.032947086  0.036241796            3 
  131000    1.1898075   -6.6618557    51.940452     0.033041  0.036216906            3 
  132000    1.2025952   -6.6144092    52.507175  0.033148469  0.036194623           21 
  133000    1.2070617   -6.6723245    52.669981  0.033001241  0.036173534            3 
  134000    1.1827059   -6.6817188    52.973846  0.032943934   0.03615049            2 
  135000    1.2002115    -6.661149    53.545788  0.033052955  0.036127913            2 
  136000    1.2063207   -6.6711519     53.99545  0.033085447  0.036107668            1 
  137000    1.1955351   -6.6552402    54.338353  0.033052526  0.036081712            2 
  138000    1.1854717   -6.7124014    54.786941  0.033083902  0.036059051            1 
  139000     1.208129   -6.6642585     55.04314  0.032999484  0.036034513            6 
  140000    1.1752011   -6.6868289    55.456146   0.03300961  0.036010505            4 
  141000    1.2018132    -6.653897    56.218045  0.033225795  0.035987671            3 
  142000    1.1810147   -6.6684662    56.522524  0.033170495  0.035970872            4 
  143000    1.2024316    -6.690486    56.695255  0.033039193  0.035947928            1 
  144000    1.1967429   -6.6977743    57.455645  0.033249794  0.035927303            3 
  145000    1.2171729   -6.6987764    57.857011  0.033251155  0.035911396            2 
  146000    1.1759626   -6.6920959    58.146541  0.033188665  0.035894295            3 
  147000      1.19569   -6.6402788    58.841845  0.033357055  0.035880307            3 
  148000    1.1957643   -6.7065152    58.627332  0.033010885  0.035862299            2 
  149000    1.1997225   -6.7055078    59.178061   0.03309735  0.035843042            1 
  150000    1.2014338   -6.6916625     59.71102  0.033172789  0.035825894            4 
  151000    1.1852153   -6.7013148    60.051061  0.033140762  0.035808589            3 
  152000     1.196347   -6.6979283    60.707481   0.03328261  0.035794201            3 
  153000    1.2111501   -6.7484394    61.252864  0.033362126  0.035781235            2 
  154000    1.1836948   -6.7106057    61.486109  0.033271704   0.03576967            2 
  155000    1.1746227   -6.6766307    62.002015  0.033334416   0.03575776            4 
  156000    1.1785416   -6.7212932    62.123374  0.033185563  0.035743349            2 
  157000    1.1945664   -6.6975019    62.588525  0.033221085  0.035727667            3 
  158000    1.2080223   -6.7391547    62.893205  0.033171522  0.035710338            2 
  159000    1.1707384   -6.7113097    63.454932  0.033257302  0.035695595            2 
  160000     1.171012   -6.6883857    63.894601  0.033278438  0.035681444            5 
  161000     1.206712    -6.706996    64.215358  0.033237763  0.035669204            2 
  162000      1.16228   -6.7007763    64.642949  0.033252546  0.035656617            5 
  163000     1.183308   -6.7206215    64.885831  0.033172715  0.035639456            3 
  164000     1.193039   -6.6930492    65.295014  0.033178361  0.035620228            4 
  165000    1.2033798   -6.6602934    65.804362  0.033234526  0.035601706            3 
  166000    1.1871477   -6.6892816    66.092781  0.033179107  0.035582478            2 
  167000    1.2158838   -6.7247609    66.666767   0.03326685  0.035563112            3 
  168000    1.2291966   -6.7438588    66.953476  0.033211049  0.035545208            4 
  169000    1.1900887   -6.6907442    67.181368  0.033126907   0.03552813            2 
  170000    1.1944126   -6.6988724    67.881035  0.033275017  0.035510116            2 
  171000    1.1824983   -6.7026507     68.24706  0.033258801  0.035495605            5 
  172000    1.2051541   -6.7165719     68.42871  0.033153445  0.035479684            1 
  173000    1.1889021    -6.721784    69.037412  0.033255015  0.035464515            2 
  174000    1.1827444   -6.6859657    69.649752  0.033357161  0.035450061            3 
  175000    1.2158226   -6.6978891    70.007159  0.033336742  0.035438059            3 
  176000    1.1712838   -6.7362973    70.008742  0.033148078   0.03542371            2 
  177000    1.1868523   -6.6856674    70.726437  0.033298699   0.03540922            4 
  178000    1.1964059   -6.7203934    71.009653  0.033244219  0.035393901            5 
  179000    1.2012777   -6.7112261    71.140559  0.033119441  0.035375629            3 
  180000    1.1873967   -6.7178986    71.686597  0.033188239  0.035358971            7 
  181000    1.1907126   -6.7830494    71.708795  0.033015099  0.035342119            5 
  182000    1.1741575   -6.7243196     72.38501   0.03314332  0.035321678            2 
  183000    1.1854261   -6.6896621    72.656103  0.033085657  0.035298721            2 
  184000    1.1802849   -6.6636359     73.38399  0.033235503  0.035280395            2 
  185000    1.1704815   -6.7781813    73.441089  0.033081572  0.035264802            4 
  186000    1.1639174   -6.7480352    73.833629  0.033079583  0.035246991            3 
  187000    1.1690144   -6.7075906    74.256737  0.033091237  0.035227729            1 
  188000    1.1539292   -6.6927462    74.609302  0.033071499  0.035206672            4 
  189000    1.1650239    -6.737573    74.669925  0.032923247  0.035185372            2 
  190000    1.1538122   -6.6731896    75.251791  0.033005172  0.035166754            2 
  191000    1.1827376   -6.6997602     75.67384   0.03301651  0.035147605            2 
  192000    1.1950033   -6.7320337    75.859896  0.032925302  0.035128065            2 
  193000    1.1964839   -6.7460772    76.143309  0.032877076  0.035107082            3 
  194000    1.1713801   -6.7383886    76.786353  0.032983829  0.035086202            3 
  195000    1.1936102    -6.730848    77.321721  0.033043471  0.035066898            2 
  196000    1.1846392   -6.6969284    77.943916   0.03313942  0.035049074            5 
  197000    1.1905256   -6.7187815    78.288586  0.033116999  0.035033761            1 
  198000    1.1819958   -6.7510726    78.475298  0.033028324  0.035015274            2 
  199000    1.1607475   -6.7808067    78.526436  0.032883767  0.034993201            2 
  200000    1.1868164   -6.7355761    78.933479   0.03288895  0.034970599            2 
  201000     1.155248    -6.748198     79.35754  0.032901136  0.034948018            1 
  202000     1.210501   -6.7312474    79.790695  0.032916953  0.034926413            2 
  203000    1.1713295   -6.7528335    79.857674  0.032782296  0.034902051            2 
  204000    1.1796334   -6.6995795    80.267286  0.032788924  0.034878121            2 
  205000      1.15684   -6.7392583    80.896631  0.032884809  0.034854378            1 
  206000    1.1506549   -6.7580505    81.185895   0.03284219  0.034830679            5 
  207000    1.1857531   -6.7573867    81.470079  0.032797938  0.034807321            2 
  208000    1.1761823   -6.7471757    81.304226  0.032573808   0.03478257            3 
  209000    1.1914657   -6.8023091    81.555974  0.032518331  0.034755644            6 
  210000    1.1927741   -6.7791947    82.041487  0.032556146  0.034728413            3 
  211000    1.1768404    -6.736642     82.53601   0.03259716  0.034700672            2 
  212000    1.1462723   -6.7618594    82.701104  0.032508296  0.034671695            2 
  213000    1.1890187   -6.8087173    82.678112  0.032346679  0.034643378            3 
  214000    1.1508377   -6.7729546    83.245605  0.032416513    0.0346135            3 
  215000    1.1648065   -6.7698398    83.570816  0.032391789   0.03458456            4 
  216000    1.1608936   -6.7584557    83.963506  0.032393328   0.03455595            2 
  217000    1.1847688    -6.776593    84.207087  0.032337591  0.034526014            3 
  218000    1.1668573   -6.6962498    85.024422   0.03250169  0.034497234            3 
  219000     1.165222   -6.7684003    84.837609  0.032282195  0.034469395            2 
  220000    1.1672973   -6.8084657     85.25224  0.032292515  0.034439387            2 
  221000    1.1727011   -6.7778945    85.855846  0.032373999   0.03440954            2 
  222000    1.1579921   -6.7768811    86.080079  0.032312342  0.034381526            2 
  223000    1.1853778   -6.7701303    86.582743  0.032355285  0.034351932            3 
  224000    1.1772508   -6.8422279    86.475799  0.032171056  0.034321836            4 
  225000    1.1436213   -6.7616456    87.237184  0.032310068  0.034292602            3 
  226000     1.158177   -6.7558335    87.349101   0.03220837  0.034261518            2 
  227000    1.1692701   -6.7595713    87.710407  0.032199121  0.034229785            3 
  228000    1.1883974   -6.7821336    87.801037  0.032091022  0.034196644            2 
  229000    1.1584495   -6.7337737     88.52659  0.032214916   0.03416397            5 
  230000    1.1291623    -6.773818    88.153999  0.031939855  0.034133292            3 
  231000    1.1498338   -6.7752562    89.219224  0.032185867  0.034102165            1 
  232000    1.1491727   -6.7329109    89.583887   0.03217812  0.034071063            2 
  233000    1.1704711   -6.7873573    89.568585  0.032034544  0.034041783            4 
  234000    1.1655666   -6.7596165    90.178291  0.032114776  0.034010921            3 
  235000    1.1708428   -6.7506869    90.536553  0.032105161  0.033979376            1 
  236000    1.1711048   -6.7699509    90.678714   0.03201932  0.033949587            5 
  237000       1.1878   -6.7951667    90.809424  0.031930177  0.033919596            2 
  238000    1.1717025   -6.7566316    91.391999        0.032   0.03388922            2 
  239000    1.1584736   -6.8078701    91.705393  0.031975381  0.033858204            3 
  240000    1.1379186   -6.7536853    91.751337  0.031858103   0.03382663            5 
  241000    1.1417939   -6.7809873     92.15708   0.03186621  0.033794331            2 
  242000    1.1459129   -6.8427395    92.508909  0.031855685  0.033761505            4 
  243000    1.1322542   -6.7824859    92.933845  0.031870317  0.033730946            2 
  244000    1.1470746   -6.7474242    93.477837  0.031925491  0.033700053            4 
  245000    1.1547567   -6.7861039    93.675664  0.031862471   0.03367009            4 
  246000    1.1590814   -6.7495849    93.893319   0.03180668  0.033638608            2 
  247000    1.1225659   -6.8134832    94.023954  0.031721982  0.033607692            2 
  248000    1.1557369   -6.8061325    94.439071  0.031733559  0.033578059            2 
  249000    1.1645945   -6.8237662    95.044059  0.031808587  0.033548667            3 
  250000    1.1171383   -6.8189525    95.018833  0.031672944  0.033520005            4 
  251000     1.179592   -6.7833644    95.999637  0.031872389  0.033491568            2 
  252000    1.1540834   -6.7948614    96.309446  0.031848362  0.033463622            5 
  253000    1.1673921   -6.8010616    96.532002  0.031795785   0.03343549            2 
  254000    1.1601445   -6.7507111    96.839489  0.031771486  0.033407991            4 
  255000    1.1545827   -6.7792848    97.368407  0.031819741   0.03338113            3 
  256000    1.1573671   -6.8244524    97.309667  0.031676324  0.033354185            2 
  257000    1.1511841   -6.8591604    97.582947  0.031641682  0.033326776            5 
  258000    1.1306177    -6.782991    98.472375  0.031806323  0.033302088            2 
  259000    1.1616705   -6.7758273    98.470744  0.031682993  0.033276846            3 
  260000    1.1620183   -6.8117527    99.031451   0.03174085  0.033251098            2 
  261000     1.132709   -6.7853746    98.893654  0.031575241  0.033224861            4 
  262000    1.1472188   -6.7585736    100.12678  0.031846939  0.033198916            2 
  263000    1.1467342    -6.820626    99.856214  0.031640118  0.033172363            2 
  264000    1.1642694   -6.7937526    100.01265  0.031569649  0.033144672            2 
  265000    1.1694231   -6.7865556    100.46303  0.031592148  0.033118552            5 
  266000    1.1331059    -6.794222     100.4692  0.031475314  0.033089493            4 
  267000    1.1527358   -6.8115486    100.70641  0.031431462  0.033060916            1 
  268000    1.1395819   -6.8510558    101.04219  0.031418592  0.033032421            2 
  269000    1.1356302   -6.7655393    101.88661  0.031563387  0.033005927            5 
  270000    1.1679772   -6.8227097     102.0668  0.031502099  0.032980487            3 
  271000    1.1417404   -6.8104798     102.3539   0.03147414  0.032953204            5 
  272000    1.1262179   -6.8275872    102.63111  0.031443355  0.032926979            3 
  273000    1.1757315   -6.7777913    103.26498  0.031521667  0.032900815            5 
  274000    1.1376707   -6.8113994    103.11888   0.03136219  0.032875666            5 
  275000    1.1095059   -6.7397652    103.89644  0.031483769  0.032850988            4 
  276000    1.1359158   -6.7383305    104.67282  0.031604111  0.032826923            2 
  277000    1.1455574   -6.8059514    104.23005  0.031356814  0.032803982            2 
  278000    1.1477622   -6.8134014    104.62681  0.031362954  0.032778465            4 
  279000     1.160819   -6.8371177    105.05119  0.031377296  0.032753025            3 
  280000    1.1312783   -6.7807658     105.4066   0.03137101  0.032727376            3 
  281000    1.1450698   -6.8360643    106.02623  0.031443129  0.032702853            3 
  282000    1.1353353   -6.7770142    106.30922  0.031415254  0.032679262            5 
  283000    1.1538633   -6.8158025    106.24361  0.031284926  0.032654488            2 
  284000    1.1370626   -6.7767652    106.59913  0.031279086  0.032628991            2 
  285000    1.1440492   -6.8267179     107.0335  0.031296346  0.032603808            4 
  286000     1.124419   -6.7890027    107.21815  0.031240721  0.032579388            1 
  287000    1.1327315    -6.803076    107.72466  0.031278938  0.032553184            2 
  288000    1.1342703   -6.8026911    108.15844  0.031295845   0.03252893            3 
  289000     1.145719   -6.8264647    108.27585  0.031221411   0.03250485            5 
  290000    1.1641599   -6.8129031     108.9935  0.031319972  0.032481319            4 
  291000    1.1348966   -6.8456077    108.32143  0.031019882   0.03245779            5 
  292000    1.1439501   -6.8143791    109.11027  0.031138776  0.032433107            3 
  293000    1.1273759   -6.8148144    109.16459  0.031047949  0.032409604            2 
  294000    1.1291192   -6.8589985     109.7614  0.031111508  0.032385385            2 
  295000    1.1529961   -6.8459878    110.22214  0.031136196  0.032361469            1 
  296000    1.1185794   -6.8270067    110.52349  0.031115847  0.032338379            2 
  297000    1.1105328   -6.8392816    110.48089  0.030999128  0.032314463            3 
  298000     1.153873   -6.7961651    111.24389   0.03110847  0.032290286            3 
  299000    1.1238377   -6.8438156    111.24278  0.031004119  0.032266891            3 
  300000    1.1287631   -6.8460698    111.57394  0.030992761  0.032241016            2 
  301000    1.1404759   -6.8275833     111.7508  0.030938759  0.032215709            6 
  302000    1.1144139   -6.8627623     112.0089  0.030907532  0.032189612            2 
  303000    1.1153167    -6.851597    112.58199  0.030963142   0.03216361            5 
  304000    1.1200592   -6.8720989    112.15366  0.030743877  0.032137487            8 
  305000    1.1260134   -6.8564601    112.53012  0.030745935  0.032110324            3 
  306000    1.1201988   -6.8320977    112.98189  0.030768488  0.032083599            1 
  307000     1.145261   -6.8345607    113.28162  0.030749624   0.03205769            4 
  308000    1.1467729   -6.8449496    113.34317  0.030666442   0.03203145            2 
  309000    1.1347465   -6.8313335    114.11912  0.030776461  0.032004856            2 
  310000    1.1110293   -6.8248305    114.33973  0.030736487  0.031978056            2 
  311000    1.1130414   -6.8689851    114.37613  0.030647408   0.03195226            2 
  312000    1.1177666   -6.8743222    115.08695  0.030739037  0.031926164            2 
  313000    1.1106989   -6.8716393     115.2783  0.030691772  0.031900302            2 
  314000    1.1590348   -6.9007547     115.4242  0.030632751  0.031873678            4 
  315000    1.1455312   -6.8858858     115.3748  0.030522435  0.031846811            3 
  316000    1.1339918   -6.8827491    115.74659   0.03052389  0.031819965            3 
  317000    1.1362417   -6.8286768    116.65574  0.030666597  0.031793698            7 
  318000    1.1264768    -6.838406    116.74877  0.030594542  0.031768864            2 
  319000    1.1309775   -6.8920788    116.86122  0.030528009  0.031744267            3 
  320000    1.1012918   -6.8996216    117.00702  0.030470579  0.031718714            5 
  321000    1.1463969   -6.8715495    117.91688  0.030611859  0.031694452            3 
  322000    1.1514628   -6.8378909     117.6538  0.030448707  0.031669316            4 
  323000    1.1011031   -6.8676088    117.74229  0.030377267  0.031643806            2 
  324000    1.1070151   -6.8289817    118.50633  0.030480022  0.031617671            3 
  325000    1.1201077   -6.8467745    119.02818  0.030520046  0.031591849            4 
  326000    1.1333501   -6.8693555    119.24652   0.03048224  0.031567536            3 
  327000    1.1156243    -6.872993    119.75113  0.030517618  0.031542683            2 
  328000     1.131264   -6.8555057    119.60289  0.030386913  0.031518005            1 
  329000    1.1445817   -6.8530606    120.04766  0.030407209  0.031492371            2 
  330000    1.1245729   -6.8414734    120.66278  0.030470399  0.031467624            3 
  331000    1.1088356   -6.8573869    120.12637  0.030243295  0.031442256            7 
  332000    1.1286998   -6.8862281    120.61779  0.030275549  0.031416911            4 
  333000    1.1293025   -6.8703126     120.9157  0.030259185  0.031391841            3 
  334000    1.0982457   -6.9104248    120.86581   0.03015614  0.031366089            2 
  335000    1.1460087   -6.8468477    121.17534  0.030143119  0.031340531            3 
  336000    1.1246917   -6.8495068    121.88318  0.030228964  0.031316106            3 
  337000    1.1173902   -6.9048457    122.05663  0.030182154  0.031292688            3 
  338000    1.1166487   -6.8699001      122.627  0.030233481  0.031268274            1 
  339000    1.1180312   -6.8927896    122.43107  0.030096134  0.031243445            4 
  340000    1.0841005   -6.8924406    122.93646  0.030131485  0.031219228            4 
  341000    1.1423154   -6.9251668     122.6718  0.029978446  0.031193523            3 
  342000    1.1133447   -6.8625378    123.53138   0.03010024    0.0311681            3 
  343000    1.1309801   -6.9199707    123.90029  0.030102112  0.031142896            6 
  344000    1.1091556   -6.8915734    124.17787  0.030081849  0.031117871            2 
  345000    1.1214484   -6.8928195    124.21106  0.030002672  0.031093059            4 
  346000    1.1171513   -6.9205528    124.66447  0.030025161  0.031067689            2 
  347000    1.1086781   -6.8777312    125.04032  0.030028895  0.031043031            5 
  348000    1.1347842   -6.9029677    125.31733  0.030008939  0.031019099            1 
  349000    1.0964354   -6.9191396    124.99793  0.029846689  0.030993385            9 
  350000    1.1112416   -6.9172954     125.5687  0.029897311  0.030967846            4 
  351000     1.123325   -6.9042635    125.57208  0.029812936  0.030941873            3 
  352000     1.124133   -6.8548717    127.04295  0.030076457  0.030917446            3 
  353000    1.0882339   -6.9156356    126.50879  0.029865152  0.030892247            2 
  354000    1.1111463   -6.8948512    126.70301  0.029826508  0.030866832            1 
  355000    1.1137953   -6.8952942     126.9968  0.029811455  0.030841321            4 
  356000    1.0866798   -6.9090298    126.64755  0.029645961  0.030815362            4 
  357000    1.1158276    -6.868907    127.18495  0.029688363  0.030787969            2 
  358000    1.1242809   -6.9103786    127.10439  0.029586683   0.03076104            2 
  359000    1.1072385   -6.8711531    127.64288  0.029629266  0.030734588            4 
  360000    1.1122012   -6.8983203    127.57368  0.029530944   0.03070747            8 
  361000     1.129475   -6.9502785    127.39399  0.029407661  0.030678488            2 
  362000    1.0922585   -6.9219035    127.59357  0.029372369  0.030649528            3 
  363000    1.1139495   -6.9219802    127.74504  0.029326227  0.030620284            2 
  364000    1.0814773   -6.8761187     128.5581    0.0294318  0.030591964            3 
  365000    1.1240933   -6.9105988    128.88573  0.029425965  0.030563167            3 
  366000     1.103175   -6.8755564    128.63255  0.029287921  0.030534141            2 
  367000    1.1109002   -6.9348088    129.02352  0.029296893  0.030503965            3 
  368000    1.0981503   -6.8894761     129.1737  0.029251292  0.030473222            2 
  369000    1.1024764   -6.8901426    129.57614  0.029262904  0.030442885            4 
  370000    1.1072566   -6.9406992    129.34125  0.029130913   0.03041314            2 
  371000     1.088786   -6.8856211    130.09071  0.029220734  0.030383314            6 
  372000    1.0826412   -6.9161094    130.06289  0.029135951  0.030354365            4 
  373000    1.0915033   -6.9568309    130.25136  0.029099946  0.030326006            6 
  374000    1.0934645   -6.8808279    131.11353  0.029214244  0.030297944            7 
  375000      1.12058   -6.8536599    131.20294  0.029156208  0.030270591            5 
  376000    1.1226562   -6.9200958    131.70793  0.029190587   0.03024227            9 
  377000    1.1001093    -6.888483    131.63785  0.029097668   0.03021413            2 
  378000     1.108824   -6.9216919    131.89374  0.029077102  0.030184791            3 
  379000    1.0954953   -6.9642442    132.07206  0.029039591  0.030156328            2 
  380000    1.0954864    -6.941328    132.43977  0.029043809   0.03012881            3 
  381000    1.1001502   -6.9327329     132.8696  0.029061591  0.030101647            5 
  382000    1.1186473   -6.9425237    132.65063  0.028937747  0.030074079            3 
  383000     1.125407   -6.9434464    133.49576  0.029046076  0.030045626            2 
  384000    1.1003239   -6.9214819    133.49529  0.028970333  0.030017668            3 
  385000    1.1089364   -6.9587779     133.3484   0.02886329  0.029989659            4 
  386000    1.0779068   -6.8958286    133.64857  0.028853318  0.029961903            1 
  387000    1.1000656   -6.9298817    133.92166  0.028837567  0.029934882            3 
  388000    1.1074003   -6.9139103    134.20212   0.02882348  0.029907374            3 
  389000    1.1083714   -6.9758249    134.26832  0.028763565  0.029879672            4 
  390000    1.1081946   -6.9230411    135.00278  0.028846749  0.029852604            7 
  391000    1.1196595   -6.9446009    135.40473  0.028858639  0.029826352            3 
  392000    1.0961895   -6.9795277    135.30393   0.02876359  0.029799951            2 
  393000    1.0885116   -6.9940922    135.89951   0.02881669  0.029772856            3 
  394000    1.0860795   -6.9468366    136.14342   0.02879514  0.029746468            2 
  395000    1.1048475   -6.9542846    136.83414  0.028867962  0.029720994            6 
  396000    1.0896825   -6.9568003     137.1945  0.028870897  0.029696011            2 
  397000    1.1037174   -6.9379391    137.53538  0.028869727  0.029672134            6 
  398000    1.1093367   -6.9479117    138.03811  0.028902452  0.029648863            2 
  399000    1.1066962   -6.9624441    137.95742  0.028813161  0.029624957            3 
  400000    1.0968659   -6.9260261     138.3369  0.028820187  0.029600893            6 
  401000    1.0753967   -6.9500355    138.93857  0.028873352  0.029577037            3 
  402000    1.0787957   -6.9683952    138.95759  0.028805471  0.029553706            6 
  403000    1.0962358   -6.9219608    139.59496  0.028865791  0.029530654            2 
  404000    1.0821267   -6.9833666    139.99454  0.028876761  0.029508451            5 
  405000    1.0824597   -6.9961141    139.58642  0.028721485  0.029485899            8 
  406000    1.0891944   -6.9752674    140.79362  0.028898527  0.029463499            3 
  407000     1.099817   -7.0141275    140.41912  0.028750843  0.029441987            2 
  408000    1.0692835   -6.9847391    140.94026  0.028786818  0.029420461            3 
  409000    1.0765451   -6.9528281    141.68703  0.028868588  0.029399281            4 
  410000     1.080318   -6.9488946    141.91129  0.028843759  0.029378586            2 
  411000    1.0810978   -6.9298951    142.10885  0.028813635  0.029358365            5 
  412000    1.0783955   -6.9174318     141.9906  0.028719783  0.029337349            2 
  413000    1.0995209   -6.9424396    142.79873  0.028813303  0.029316033            2 
  414000      1.06895   -6.9549011    142.58088  0.028699855  0.029294477            2 
  415000    1.0818316   -6.9963041     142.1455  0.028543273  0.029271627            3 
  416000    1.0581922   -6.9526529    142.35956   0.02851754  0.029248454            3 
  417000    1.0910284   -6.9761277    142.64062  0.028505321  0.029225453            2 
  418000    1.0585686   -6.9736176    143.13316  0.028535319  0.029201491            6 
  419000    1.0853218   -6.9459999    143.02874  0.028446447  0.029177126            4 
  420000    1.0710848   -6.9767342    143.47539  0.028467339  0.029153267            8 
  421000    1.0708552    -6.980995    143.25498  0.028356093  0.029129152            3 
  422000      1.09278   -6.9688893    144.11912  0.028459542  0.029105775            8 
  423000    1.0909861   -6.9886885    144.25901  0.028419822  0.029082617            3 
  424000    1.1011563   -6.9972231    143.90946  0.028284092  0.029059162            3 
  425000    1.0871158   -6.9518385    145.33671  0.028497393  0.029036663            6 
  426000    1.0760831   -6.9703307    145.40884  0.028444608  0.029014317            9 
  427000    1.0940161    -6.979523    145.34329  0.028365201  0.028992152            5 
  428000    1.0686148   -7.0032235     145.2708  0.028284813  0.028969344            2 
  429000    1.1129897   -6.9786197    145.42411  0.028248661  0.028946623            1 
  430000     1.069397   -6.9834087    145.87502  0.028270353  0.028923873            4 
  431000    1.0863777   -7.0116006    145.73806  0.028178279  0.028900567            5 
  432000    1.0581661   -6.9790404    145.98094  0.028159903  0.028877043            3 
  433000    1.0651379   -6.9955334     146.4532  0.028185759  0.028853861            5 
  434000    1.0843619   -7.0329654    146.74007  0.028175896  0.028830848            2 
  435000    1.0806004   -7.0034265    146.80034  0.028122671  0.028807203            5 
  436000    1.0851542   -7.0083627    147.02926  0.028101924  0.028784575            4 
  437000    1.0817383   -6.9766176    147.82279  0.028188937   0.02876201            3 
  438000    1.0744522   -6.9818283    147.54403  0.028071543  0.028739222            4 
  439000    1.1001397   -6.9703527    147.98619  0.028091531  0.028715765            4 
  440000    1.0486325    -7.010521    147.96047  0.028022816  0.028692149            7 
  441000    1.0771153   -7.0090207    148.35823  0.028034435  0.028668189            2 
  442000    1.0724546   -7.0024711    148.58875   0.02801447  0.028645003            3 
  443000    1.0739186   -7.0309042    148.62034  0.027957175  0.028622018            4 
  444000    1.1261996   -6.9975143    149.39659  0.028039901  0.028598741            4 
  445000    1.0832848   -7.0361076    148.94588  0.027892487   0.02857551            3 
  446000    1.0449609   -6.9818947    149.36503  0.027908265  0.028551436            3 
  447000    1.0821405   -6.9967692    149.45088  0.027861834  0.028528084            4 
  448000    1.0701042    -7.015184    149.66126  0.027838775  0.028504175            1 
  449000    1.0824444   -7.0066353    149.92732  0.027826155  0.028480737            3 
  450000    1.0862767   -7.0288993    150.19265  0.027813453  0.028457431            9 
  451000     1.071234   -6.9818982    150.65562  0.027837328  0.028433796            3 
  452000    1.0587719   -6.9687238    150.89312  0.027819529  0.028411054            8 
  453000    1.0771534   -7.0478558    151.25456  0.027824607  0.028388109            3 
  454000    1.1010524   -7.0335055    151.09434   0.02773391  0.028364968            5 
  455000    1.0700701   -7.0127056    151.61136  0.027767648   0.02834211            2 
  456000    1.0794038   -7.0427181    151.30542  0.027650844   0.02831925            2 
  457000    1.0801215   -6.9969081    152.27881  0.027767836  0.028296399            1 
  458000    1.0678409   -7.0258936    152.18178  0.027689552  0.028273298            5 
  459000    1.0765655    -7.015706    152.16422  0.027626038  0.028249957            4 
  460000    1.0721466   -7.0054047    152.38803  0.027606528  0.028226808            3 
  461000    1.0687277   -6.9955209    153.20638  0.027694574  0.028204307            4 
  462000    1.0740604   -6.9954064    153.09555  0.027614638  0.028181614            5 
  463000    1.0818277   -7.0304812    153.09774   0.02755539  0.028159008            3 
  464000    1.0654844   -7.0677205    153.05298  0.027487964  0.028135655            4 
  465000    1.0792951    -7.050837    153.34321  0.027480863  0.028111603            4 
  466000    1.0443827   -7.0139291    154.23811  0.027581922  0.028088201            6 
  467000    1.0598025    -7.030628    153.96023  0.027473274  0.028065324            2 
  468000    1.0401197   -6.9927102    154.37377  0.027488207  0.028042597            3 
  469000    1.0790178   -7.0486795    154.85093  0.027514379  0.028019845            4 
  470000    1.0613979   -7.0132099    155.08321  0.027497024  0.027997261            7 
  471000    1.0499537   -6.9813185     155.5351  0.027518596  0.027974745            6 
  472000    1.0655929   -7.0458973      155.454  0.027445974  0.027952206            2 
  473000    1.0450564   -7.0201272    155.87334  0.027461829  0.027929992            3 
  474000    1.0725378   -7.0270973    155.77309  0.027386268  0.027907631            3 
  475000    1.0653102   -7.0229405    155.86633  0.027344969  0.027885504            5 
  476000    1.0417992   -7.0630549    156.37749  0.027377012  0.027862858            5 
  477000    1.0706701   -7.0569682    156.27188  0.027301168  0.027840711            6 
  478000    1.0670077   -7.0331704    156.78953  0.027334298  0.027818887            3 
  479000    1.0511716   -7.0029733    157.12538  0.027335662  0.027797415            2 
  480000    1.0918723   -7.0389479    157.18645  0.027289314  0.027775622            5 
  481000    1.0883452    -7.028259    157.09476  0.027216695  0.027753121            4 
  482000    1.0758685   -7.0685229    157.27155  0.027190793   0.02773019            2 
  483000    1.0514723   -7.0825605      157.562   0.02718461  0.027707613            2 
  484000    1.0891219   -7.0227264    158.19517  0.027237461  0.027685054            2 
  485000    1.0569309     -7.05607    158.24223  0.027189386  0.027663145            4 
  486000     1.062981   -7.0421923    158.22713  0.027130853  0.027640823            2 
  487000    1.0698389   -7.0442682    158.96609  0.027201589  0.027618721            7 
  488000    1.0854518   -7.0479706    159.05083  0.027160319  0.027596982            3 
  489000    1.0647659   -7.0616686    159.61807  0.027201443  0.027575294            5 
  490000    1.0620096   -7.0635127    159.44378   0.02711629  0.027553593            9 
  491000    1.0685794   -7.0896857    159.03052  0.026990923   0.02753215            3 
  492000    1.0460582   -7.0268087    160.06584  0.027111423  0.027511298            7 
  493000    1.0704665    -7.047699    159.49728  0.026960325  0.027490067            4 
  494000    1.0752955   -7.0523751    160.13986  0.027014147  0.027468104            2 
  495000    1.0635763   -7.0824164    160.03419  0.026941783  0.027445884            6 
  496000    1.0507809   -7.0437847     160.6338  0.026988206  0.027423797            2 
  497000    1.0622645   -7.1039126    160.56743  0.026922776   0.02740182            3 
  498000    1.0442957   -7.0251228    161.12852  0.026962604  0.027380081            3 
  499000    1.0511241   -7.0769177    160.93019  0.026875448  0.027357993            4 
  500000    1.0722526   -7.0566076    161.80474  0.026967457  0.027336258            2 
  501000    1.0771322   -7.0677891    161.54032  0.026869647  0.027314105            2 
  502000    1.0369787   -7.0371315    161.43544  0.026798712  0.027291404            2 
  503000    1.0577787   -7.0511196    161.74761  0.026797152  0.027268806            4 
  504000    1.0242464   -7.0714882    161.79524  0.026751859  0.027245788            5 
  505000    1.0444199   -7.0921292    162.05872  0.026742363  0.027223016            4 
  506000     1.060591   -7.0924744    161.72796   0.02663504  0.027199854            5 
  507000    1.0458536   -7.0609657     161.8902  0.026609172  0.027176705            3 
  508000    1.0228906     -7.03572     162.7587  0.026699261  0.027153752            2 
  509000    1.0352989   -7.0548815    162.58699  0.026618695  0.027130716            2 
  510000    1.0618605   -7.0590804     162.9072  0.026618824  0.027108298            3 
  511000    1.0727239   -7.0480614    162.81254  0.026551295  0.027085868            5 
  512000    1.0578448   -7.0446082    163.73557  0.026649669  0.027063298            3 
  513000    1.0364096   -7.0787299    163.69571  0.026591246  0.027040556            2 
  514000    1.0156375   -7.1294144    163.27279  0.026470945  0.027017366            3 
  515000     1.051469   -7.1071126    163.72913  0.026493386  0.026994655            6 
  516000    1.0473592   -7.0982396     164.3067  0.026535319   0.02697218            8 
  517000    1.0534963   -7.0493753    164.94369  0.026586669  0.026949845            4 
  518000    1.0438614   -7.1104852    164.79168  0.026510888  0.026927586            3 
  519000    1.0437386   -7.1177809     165.1624  0.026519331  0.026905242            3 
  520000    1.0664278   -7.0627685    165.33959   0.02649673  0.026882897            3 
  521000    1.0442535   -7.0923683    165.74514  0.026510739   0.02686076            3 
  522000    1.0837255   -7.1064815    165.79354  0.026467679   0.02683895            4 
  523000    1.0253958   -7.1336845    165.88017  0.026430875  0.026817028            3 
  524000    1.0292071    -7.090795    166.16264  0.026425356  0.026795218            2 
  525000     1.047643   -7.0748944    166.42589  0.026416808  0.026773623            4 
  526000    1.0617592   -7.1288965    166.29146  0.026345288  0.026752298            5 
  527000    1.0364578   -7.1071978    167.04737  0.026414828  0.026730642            3 
  528000    1.0353557   -7.1072927       166.05  0.026207387    0.0267084            5 
  529000    1.0573844   -7.0848677     166.9668  0.026302268   0.02668692            4 
  530000    1.0570157   -7.1044577    167.38527  0.026318439  0.026665227            3 
  531000    1.0348609   -7.0875671    167.54481  0.026293912  0.026643423            6 
  532000    1.0478944   -7.1240669    167.47578  0.026233675  0.026621605            7 
  533000    1.0599752   -7.1120038    167.47325  0.026184061  0.026599159            7 
  534000    1.0402663   -7.0917788    168.17611  0.026244711  0.026577018            6 
  535000    1.0191884   -7.1335015    167.48057  0.026087316   0.02655471            7 
  536000    1.0409482   -7.1103664    167.96325  0.026113689  0.026532376            4 
  537000    1.0627679   -7.1241268     167.6156  0.026011111    0.0265095            4 
  538000    1.0231724   -7.1126142    167.88479  0.026004459  0.026486222            4 
  539000    1.0335105   -7.1162037    168.34425   0.02602725  0.026462776            3 
  540000    1.0237991   -7.1099011    168.31805  0.025975007  0.026439697            4 
  541000    1.0330672    -7.097651    168.40747  0.025940768  0.026416511            3 
  542000     1.050018   -7.1218373    168.33402  0.025881614  0.026393535            6 
  543000    1.0487808    -7.144244    168.63119  0.025879556  0.026370486            2 
  544000     1.026574   -7.1130693    168.59438  0.025826345  0.026347009            1 
  545000    1.0349749   -7.1499369    168.72789  0.025799372  0.026323566            6 
  546000    1.0232269   -7.0955763    169.21327  0.025826201  0.026300693            3 
  547000    1.0542408    -7.103987    169.40686  0.025808479  0.026277581            6 
  548000    1.0347874   -7.1264856    169.81862     0.025824   0.02625453            5 
  549000    1.0436763   -7.0972009    169.17373  0.025679073   0.02623142            6 
  550000    1.0332198   -7.0597135    170.44487  0.025824981   0.02620832            5 
  551000     1.017841    -7.119773    170.14458  0.025732695  0.026185838            4 
  552000    1.0147674   -7.1196015    170.22715  0.025698543  0.026162724            2 
  553000    1.0236276   -7.1135668    170.27543  0.025659347  0.026139787            3 
  554000    1.0396329   -7.1850026    169.82797  0.025545724  0.026116358            4 
  555000    1.0556118    -7.113493    170.78567  0.025643495  0.026092659            5 
  556000    1.0533956   -7.1294205    170.52948  0.025558975  0.026069114            3 
  557000      1.02392   -7.1278504    171.27754  0.025625006  0.026045594            5 
  558000    1.0374164    -7.135262    170.77205  0.025503591  0.026022117            6 
  559000    1.0178701   -7.1109364    171.41612  0.025553983  0.025998713            3 
  560000    1.0265844   -7.1093992    171.16581  0.025471102  0.025975299            9 
  561000    1.0364133   -7.1720189    171.29776  0.025445301  0.025951787            5 
  562000     1.029548   -7.1804642    171.61285  0.025446745  0.025927842            4 
  563000     1.026908   -7.1282799    172.47282  0.025528837  0.025905117            6 
  564000    1.0393433   -7.1014684    172.23548  0.025448505  0.025882912            3 
  565000    1.0280612   -7.1436846    173.09599  0.025530382  0.025860904            3 
  566000    1.0262196   -7.1866139    172.51767  0.025400128  0.025838218            7 
  567000    1.0179906   -7.1675053    172.89042  0.025410115  0.025815667            5 
  568000     1.033462   -7.1479029    172.98978  0.025379956  0.025793442            4 
  569000    1.0425711   -7.1529964    173.01962  0.025339722  0.025771054            5 
  570000    1.0334937   -7.1073131    173.65276   0.02538783  0.025748415            2 
  571000    1.0652754   -7.1570476    173.81895  0.025367623  0.025726041            7 
  572000    1.0140368   -7.1678822    173.85113  0.025327962  0.025703589            4 
  573000    1.0182237   -7.2061815    174.07553  0.025316395  0.025681458            5 
  574000    1.0033694   -7.1552902    174.26442  0.025299713  0.025659298            3 
  575000    1.0384934   -7.1724425    174.97996  0.025359415  0.025637481            6 
  576000    1.0235607   -7.1338552    175.01557   0.02532054   0.02561589            3 
  577000    1.0255448   -7.1241074    174.94792  0.025266886  0.025594466            3 
  578000    1.0405582   -7.1560056    175.20265  0.025259897  0.025572752            3 
  579000    1.0103311   -7.1190098    176.13135  0.025349935  0.025551241            4 
  580000   0.99995207   -7.1555808    176.02797  0.025291375  0.025529849            5 
  581000    1.0124264   -7.0940585    176.79034  0.025357191  0.025508722            2 
  582000    1.0171067   -7.1336011    175.57234  0.025139224   0.02548742            2 
  583000    1.0200486   -7.1731922    175.72777  0.025118321  0.025466042            3 
  584000    1.0066984   -7.1503989    176.44915  0.025178247  0.025444627            3 
  585000    1.0413978   -7.1784539    176.72215  0.025174096  0.025423428            7 
  586000    1.0054084   -7.1901777    176.43087  0.025089714  0.025402193            3 
  587000    1.0267961     -7.13185    177.39933  0.025184459  0.025381067            7 
  588000    1.0019103   -7.1271998    177.37715  0.025138485  0.025360468            6 
  589000    1.0135225   -7.1810724    177.60123  0.025127508  0.025339581            3 
  590000    1.0130878   -7.1403297    178.06602  0.025150567  0.025318718            5 
  591000    1.0280689   -7.1843355    177.95512  0.025092375  0.025298216            6 
  592000    1.0440464   -7.1837862    177.81078  0.025029671  0.025277433            3 
  593000    1.0444026   -7.1991939    177.67189  0.024967944  0.025256124            4 
  594000    1.0075238   -7.1978771    177.93632  0.024963007  0.025234702            4 
  595000    1.0538815   -7.1699543    178.39853  0.024985789  0.025213908            4 
  596000    1.0172635   -7.1399793    179.16751  0.025051385  0.025193244            3 
  597000    1.0118852   -7.1887193    178.73772  0.024949431  0.025172888            2 
  598000    1.0344645   -7.2068432    178.98079  0.024941582  0.025152557            8 
  599000    1.0040686   -7.1596298     179.5562  0.024979994  0.025132563            3 
  600000    1.0265149    -7.168821    180.23475  0.025032604  0.025113129            5 
  601000    1.0080576   -7.1957544     179.8877  0.024942832  0.025093193            3 
  602000    1.0517732   -7.1259507     180.4615  0.024980828  0.025073597            3 
  603000   0.98648606   -7.1696316    180.21498  0.024905332  0.025053852            4 
  604000     1.000935   -7.1824372    180.31979  0.024878558  0.025033814            5 
  605000    1.0147538   -7.1651389    180.77323  0.024899894  0.025013698            2 
  606000    1.0232655   -7.2076548     180.3089  0.024794953  0.024993739            3 
  607000    1.0043289   -7.1352383    181.90507  0.024973239  0.024973944            4 
  608000    1.0114227   -7.1727318    181.21464  0.024837533  0.024954145            4 
  609000    1.0309248   -7.1787359    181.37335  0.024818466  0.024934659            2 
  610000    1.0149812   -7.1457475     181.8563  0.024843757  0.024915519            1 
  611000    1.0271989   -7.1609538    182.15834  0.024844291  0.024895929            4 
  612000     1.009742   -7.2197383    181.73692  0.024746313  0.024876194            3 
  613000    1.0289694   -7.1873323    182.03755  0.024746812  0.024856558            5 
  614000   0.97806873   -7.2071425    181.81818  0.024676734  0.024836871            3 
  615000    1.0309698   -7.1532338    183.19142  0.024822685  0.024816946            7 
  616000    1.0161328   -7.1631429    182.63074  0.024706539  0.024797513            5 
  617000    1.0242472   -7.2138516     181.9043  0.024568382  0.024777653            7 
  618000    1.0116211   -7.1884859    182.84805  0.024655886  0.024757408            3 
  619000   0.99771492   -7.1721036    183.10856  0.024651126  0.024737132            2 
  620000   0.97864309   -7.1868325    182.49874  0.024529401  0.024716868            5 
  621000    1.0280877   -7.1637897     183.4504  0.024617606  0.024696643            5 
  622000    1.0134383   -7.1937438      183.297  0.024557476  0.024676771            8 
  623000    1.0153388     -7.22598    183.03211  0.024482626  0.024656468            2 
  624000    1.0354421    -7.234094    183.32078  0.024481941  0.024635929            8 
  625000    1.0213342   -7.2254785    183.17949  0.024423932  0.024615407            3 
  626000    1.0180669    -7.205606    183.66326  0.024449316  0.024594631            3 
  627000    1.0430091   -7.2144578    183.06521  0.024330835  0.024574192            5 
  628000    1.0019251   -7.2429713    183.79436  0.024388848  0.024553713            4 
  629000   0.97807703   -7.2242402    183.32301  0.024287627   0.02453304            3 
  630000    1.0023056   -7.2491328    183.35388  0.024253159  0.024512116            3 
  631000    1.0104435   -7.2257993    184.20628  0.024327295  0.024491492            3 
  632000   0.99732559    -7.239161    184.52664  0.024331044  0.024471091           10 
  633000    1.0212924   -7.2450755    184.13337  0.024240833  0.024450316            3 
  634000     1.023991   -7.1969073    184.99471  0.024315813   0.02442962            3 
  635000    1.0099353   -7.2299325    184.91887  0.024267568  0.024409223            4 
  636000    1.0130652   -7.2619998    185.38225  0.024290127    0.0243891           12 
  637000   0.99317997   -7.2482745    185.22338  0.024231212  0.024368744            6 
  638000    1.0050562   -7.2112922    185.82451  0.024271749  0.024348695            4 
  639000   0.99994442   -7.2413579    185.92329  0.024246648  0.024329145            5 
  640000   0.99471927   -7.2379475    186.04412  0.024224495  0.024309449            5 
  641000    1.0098227   -7.1903828    186.18476  0.024204986  0.024289749           10 
  642000   0.99308996   -7.2028718    186.37641  0.024192161  0.024269962            5 
  643000    1.0073805   -7.2478488    185.91856    0.0240952  0.024249995            7 
  644000   0.98820857   -7.2330796    186.41367  0.024121851  0.024230205            8 
  645000   0.98220626   -7.2349732    186.28535  0.024067875  0.024210374            6 
  646000    1.0213523   -7.2726337    186.46684  0.024054029  0.024190538            5 
  647000    1.0123331    -7.256932    186.67993  0.024044298  0.024170483            5 
  648000   0.99192991   -7.2437755    187.41312  0.024101482  0.024150945            4 
  649000   0.99499561     -7.25933    187.45446  0.024069653  0.024131429            5 
  650000   0.98650723   -7.2271785    188.24649  0.024134166  0.024111951            2 
  651000   0.98230898   -7.2599779    186.99812  0.023937291  0.024092155            5 
  652000    1.0180946    -7.257635    188.08853  0.024039944  0.024072132            5 
  653000    1.0022617   -7.2497079    188.23448  0.024021756  0.024052399            5 
  654000   0.98179153   -7.2377202    188.47679    0.0240159  0.024032839            5 
  655000    0.9791933   -7.2716448    187.91466  0.023907717  0.024013342           15 
  656000    1.0162981   -7.1961975    188.46421  0.023941084  0.023993796            4 
  657000    1.0058236   -7.2277351    188.97127  0.023968958  0.023974609            6 
  658000    1.0047318     -7.21317    188.89812  0.023923267  0.023955358            2 
  659000    1.0070579   -7.2261277    189.84333  0.024006491  0.023936352            4 
  660000    0.9694524   -7.2156743    189.32531  0.023904711  0.023917645            2 
  661000   0.99013919   -7.2027781    189.68129  0.023913425  0.023898555            5 
  662000   0.98805687   -7.1785544    189.87705  0.023901944  0.023879707            4 
  663000   0.99706423   -7.2348517     190.1271  0.023897322  0.023861142            3 
  664000    1.0076344   -7.2293448    190.39306  0.023894711  0.023842517            4 
  665000   0.99252543   -7.2498245    190.14513   0.02382771  0.023823663            7 
  666000    1.0016044   -7.2476846    190.23543  0.023803232  0.023805106            4 
  667000   0.99028819   -7.2964578    190.51981  0.023803074  0.023786129            8 
  668000    0.9743491   -7.2168365    191.13391  0.023844051  0.023767274            2 
  669000   0.97592401   -7.2379198    191.25401  0.023823369  0.023748741            2 
  670000   0.96801444   -7.2284095    191.58776  0.023829323  0.023730148            6 
  671000    1.0179647   -7.2474247    191.37754  0.023767703  0.023711096            5 
  672000   0.99235301   -7.2476417    191.47896  0.023744911  0.023692264            3 
  673000    1.0056923   -7.2431631    191.91082  0.023763103  0.023673385            5 
  674000   0.96744692   -7.2794296    191.30213  0.023652588  0.023654664            3 
  675000   0.99258049   -7.2552419    191.65957  0.023661676   0.02363581            6 
  676000   0.98227996   -7.2558132    192.36826  0.023714036   0.02361731            4 
  677000   0.98105782   -7.2551771    192.06793   0.02364204  0.023598786            5 
  678000   0.98273979   -7.2342915    192.81039  0.023698426  0.023580146            3 
  679000   0.98199319   -7.2593134    193.33234  0.023727582  0.023561761            8 
  680000   0.98032662     -7.26293    192.43356  0.023582544  0.023543248            7 
  681000    1.0089709   -7.2567836    192.91339  0.023606631  0.023524645            3 
  682000   0.99208093   -7.2492686    192.84171  0.023563259  0.023505982            2 
  683000    1.0083791   -7.2699724    193.29786  0.023584414  0.023487422            7 
  684000   0.97407718   -7.2448037    193.51595  0.023576505  0.023469051            5 
  685000   0.99163829   -7.2642881    193.94938  0.023594815   0.02345087            4 
  686000   0.99290938   -7.2336373    194.02987  0.023570198  0.023432891            4 
  687000   0.95851445   -7.2831048    193.87851   0.02351753  0.023415012            4 
  688000   0.98728808   -7.2885896    194.01461  0.023499831  0.023396986            7 
  689000   0.97744072   -7.2874138    194.27561  0.023497292   0.02337893            6 
  690000   0.98136799   -7.1979792     195.1988  0.023574734  0.023361004            5 
  691000   0.97644397   -7.2775074    194.64835  0.023474234  0.023343203            5 
  692000   0.98795031   -7.2369952    194.89835  0.023470417  0.023325252            4 
  693000   0.98607148   -7.2581656    195.15532   0.02346745  0.023307321            2 
  694000   0.96504226    -7.262022    195.10725  0.023427864  0.023289611            7 
  695000   0.99390098   -7.2613018    195.19318  0.023404458  0.023271818            7 
  696000    0.9708167   -7.3000567    194.64441  0.023305126  0.023253687            3 
  697000   0.95011438   -7.2745931    195.51839  0.023376183  0.023235588            7 
  698000   0.98569697   -7.2718002    195.84092  0.023381199   0.02321751            9 
  699000   0.97623278   -7.2822828    195.70375  0.023331396  0.023199686            6 
  700000   0.96487823   -7.3052856    195.97822   0.02333074  0.023181262            3 
  701000   0.97167203   -7.2911016    196.09641  0.023311509  0.023163101            4 
  702000   0.98694992   -7.3040854    196.29146  0.023301455  0.023144903            5 
  703000   0.98654939   -7.2990365    195.69893  0.023198071  0.023126864            3 
  704000    0.9721485   -7.3143873    195.97725  0.023198065  0.023108673            5 
  705000   0.97913865   -7.2970048    196.81151  0.023263772  0.023090558            3 
  706000   0.98071412   -7.2735713    196.93938  0.023245913  0.023072567            9 
  707000   0.97061276   -7.3210279    196.61945  0.023175324  0.023054432            3 
  708000   0.96417938   -7.2866002    196.77433   0.02316082   0.02303628            3 
  709000   0.96457706   -7.2627064    197.12652  0.023169549  0.023018085            6 
  710000   0.97741475   -7.3598254    196.20719  0.023029013  0.022999819            6 
  711000   0.99164348   -7.2827352    196.74287  0.023059408  0.022981414            4 
  712000   0.97192223   -7.2723615     197.3916  0.023102949  0.022963065            3 
  713000   0.96678682   -7.3016201    197.71291  0.023108101  0.022944739            4 
  714000   0.96688272   -7.3534788    196.79701  0.022968838  0.022926389            6 
  715000   0.97264055   -7.3122818    197.78994   0.02305244  0.022907974            5 
  716000   0.96750649   -7.3160618    197.09714  0.022939612   0.02288952            3 
  717000   0.96292526   -7.3565602    197.01784  0.022898401  0.022871133            6 
  718000   0.95881849   -7.3339277    197.94767  0.022974428  0.022853034            9 
  719000   0.97843933   -7.3143397    197.64577  0.022907484  0.022834885            3 
  720000   0.97576059   -7.3548467    197.90348  0.022905496  0.022816893            5 
  721000   0.95620578     -7.30768    198.35275  0.022925653  0.022798889            5 
  722000   0.95416234   -7.3100733    199.05761  0.022975255  0.022780928            3 
  723000   0.96546579   -7.3088496    198.90196  0.022925537  0.022763127            5 
  724000   0.93323605   -7.3145823    198.87618  0.022890904  0.022745011            8 
  725000   0.97183782   -7.2873384     199.2331  0.022900356  0.022727141            6 
  726000   0.97758606    -7.321816    198.81341   0.02282064  0.022709094            5 
  727000   0.97944188   -7.3106464     199.3264  0.022848051  0.022691012            5 
  728000   0.95673184   -7.3324713    199.09438  0.022790108  0.022672993            6 
  729000   0.94908774   -7.3209144    198.50241  0.022691177  0.022654798            5 
  730000   0.96942041   -7.3461911    199.16915  0.022736205  0.022636632            3 
  731000   0.95038863   -7.3309191    199.49713  0.022742491  0.022618301            5 
  732000   0.95696584   -7.3194045    199.43092  0.022703884  0.022600103            5 
  733000    0.9655021   -7.3223536    199.46865    0.0226772  0.022581831            5 
  734000   0.96000538   -7.3189375    199.75459  0.022678768  0.022563821            9 
  735000   0.96657604   -7.3444265    200.12973  0.022690446  0.022545572            5 
  736000   0.96211514   -7.3697344    200.00771    0.0226458   0.02252739            4 
  737000   0.93766407   -7.3443525    200.23765  0.022641073  0.022509245            5 
  738000   0.94876418   -7.3487393    199.98431  0.022581788  0.022491154            6 
  739000   0.96170886   -7.3188898    200.80196  0.022643433  0.022473294            2 
  740000   0.93782407   -7.3284407     200.7318  0.022604932  0.022455539            5 
  741000   0.96078209   -7.3401419    200.98891  0.022603341  0.022437759            6 
  742000   0.94796295   -7.3143598    200.72419  0.022543148  0.022419937            5 
  743000   0.98636963   -7.3231616    200.62896  0.022502127  0.022402053            4 
  744000   0.96223301   -7.3344273    201.33831  0.022551334  0.022384195            4 
  745000   0.94903224   -7.3291543    201.51328  0.022540635  0.022366239            8 
  746000    0.9441681    -7.325663    201.33071  0.022490026  0.022348367            5 
  747000   0.94949611   -7.3386753     201.2753  0.022453737  0.022330439            7 
  748000   0.95300042   -7.3624168    201.59946  0.022459832  0.022312452            5 
  749000   0.97086673   -7.3562686    201.51524  0.022420476  0.022294377            8 
  750000   0.93186794   -7.3034419    202.26467  0.022473853  0.022276423            6 
  751000   0.94063471   -7.3626904      201.571  0.022366955  0.022258642            7 
  752000   0.93263126   -7.3577183    201.71824  0.022353529  0.022240546            4 
  753000   0.94797996   -7.3073074    202.37955  0.022397029  0.022222806            4 
  754000   0.95644526   -7.3650863    201.45071  0.022264668  0.022204825            5 
  755000   0.94156398   -7.3275036    202.42452  0.022342663  0.022186752            8 
  756000   0.96969184   -7.3398402    201.99824   0.02226612  0.022168645            5 
  757000   0.95401743   -7.3872106    201.50669  0.022182594  0.022150227            9 
  758000   0.94259733   -7.3462172    201.67444  0.022171772  0.022131674            2 
  759000   0.96055168   -7.3662043    201.95251  0.022173091  0.022113089            4 
  760000   0.94901089   -7.3487566    202.57385  0.022212045  0.022094841            6 
  761000   0.96175195   -7.3403558    202.67786  0.022194247  0.022076566            6 
  762000   0.97084767   -7.3496474    202.79073  0.022177463  0.022058327            5 
  763000   0.93788039   -7.3293193    202.70172  0.022138676  0.022040283           13 
  764000   0.94683592    -7.376226    203.26886  0.022171559   0.02202227            5 
  765000   0.94455715   -7.3810456    202.98675  0.022111846  0.022004123            6 
  766000   0.91684992   -7.3453003    202.96611  0.022080735  0.021985895            5 
  767000   0.95702949   -7.3359439    203.56146  0.022116629  0.021967687            6 
  768000   0.93425822   -7.3743671    203.56424  0.022088133  0.021949506            4 
  769000   0.92948909   -7.3980517    203.30593  0.022031418  0.021931508            4 
  770000   0.95198045   -7.3562072    203.84513  0.022061161  0.021913567           10 
  771000   0.93399559   -7.3697176    203.91339  0.022039925  0.021895572            8 
  772000     0.971131   -7.3986323    203.38346  0.021954173  0.021877408            3 
  773000     0.931252   -7.3384788    204.26449  0.022020751  0.021859194           11 
  774000   0.95367537   -7.4015511    204.12482  0.021977263  0.021841007            4 
  775000    0.9470009   -7.4098387    203.99286  0.021934716  0.021822975            4 
  776000    0.9182521   -7.3922166    204.02237  0.021909618  0.021804805            4 
  777000   0.92650122   -7.3876842    205.17882   0.02200545  0.021786808            8 
  778000   0.94454683   -7.3991912    204.54312  0.021909075  0.021768941            3 
  779000   0.92144877   -7.3856593    205.17305  0.021948336  0.021751097            3 
  780000   0.92131059    -7.407388    204.95038  0.021896408   0.02173329            6 
  781000   0.93881672   -7.3755322    205.58429  0.021936011  0.021715517            5 
  782000    0.9626473   -7.4084982     205.5519  0.021904507  0.021698021            4 
  783000   0.94513312   -7.3682143    205.35517  0.021855595  0.021680499            5 
  784000   0.91829153   -7.4168709    205.35432  0.021827627  0.021662937            6 
  785000   0.94851269   -7.3794929    205.84887  0.021852322  0.021645425            8 
  786000    0.9405629   -7.3670473    206.26294  0.021868421  0.021628049            4 
  787000   0.95771416   -7.4177332    205.40731  0.021750032   0.02161045            6 
  788000   0.93093134   -7.4008776    206.03218  0.021788514  0.021593015            4 
  789000   0.92487596   -7.3815355    206.49685  0.021809976  0.021575737            7 
  790000   0.94064553   -7.4211578    206.38332  0.021770393  0.021558375            3 
  791000   0.93727416   -7.3833629    206.56701  0.021762222  0.021541146            4 
  792000   0.94075948   -7.3898596    206.45936  0.021723417  0.021523732            3 
  793000   0.95202725   -7.3660373    207.01379  0.021754287  0.021506394            7 
  794000   0.92036665   -7.4196535    207.12306  0.021738356  0.021489059            4 
  795000   0.95848192   -7.4220153    207.17062  0.021715998  0.021471852            8 
  796000   0.95103148   -7.4466588    206.16598   0.02158354  0.021454264            4 
  797000   0.93242304   -7.4499087    206.53457  0.021594999  0.021436706            4 
  798000   0.94117404   -7.4249223    207.06099   0.02162291  0.021419138            5 
  799000   0.93698392   -7.4452887    206.52404  0.021539845  0.021401543            5 
  800000   0.93541481   -7.4392057    206.88474  0.021550493  0.021383735            7 
  801000   0.92637932   -7.4258024    207.68091   0.02160642  0.021366137            6 
  802000   0.93062485    -7.414837    207.26228  0.021535981   0.02134843            5 
  803000   0.93356449   -7.4041533    207.82854  0.021567927  0.021330831            6 
  804000   0.92986696   -7.4606475    206.87241  0.021441999  0.021313152            7 
  805000   0.94008357   -7.3961381    208.16902  0.021549588  0.021295602            6 
  806000   0.93650171   -7.4299262    207.23231  0.021426004  0.021278228           12 
  807000    0.9087232   -7.4365945     207.2428  0.021400537  0.021260834           11 
  808000   0.93118908   -7.4382992    208.16192  0.021468845  0.021243432           12 
  809000   0.93011539   -7.4339202    207.97412  0.021422963  0.021226185            2 
  810000   0.92378452   -7.4278213    208.37813   0.02143808   0.02120893           12 
  811000   0.94306569   -7.4097688    208.66228  0.021440843  0.021191737           15 
  812000   0.93248544    -7.408615    209.14779  0.021464264  0.021174778            5 
  813000   0.95420422   -7.4089796    209.04089  0.021426905  0.021158037            3 
  814000   0.94068917   -7.4084725    209.72349  0.021470464   0.02114139            3 
  815000   0.93270939   -7.3998058    209.62995  0.021434555  0.021124838            3 
  816000   0.92303762   -7.3968685     209.5801  0.021403196  0.021108004            5 
  817000   0.91076481   -7.4416497    208.51665  0.021268528  0.021090991            7 
  818000   0.92152828   -7.4859805    209.40273  0.021332796  0.021073653            4 
  819000    0.9437995   -7.4490332    209.61278  0.021328121  0.021056366            7 
  820000   0.91842221   -7.4427385    209.39644  0.021280126  0.021039328            5 
  821000   0.92278422   -7.4095696    209.73634  0.021288707  0.021022377            6 
  822000   0.89406904   -7.4265041    210.09005  0.021298667  0.021005411            8 
  823000   0.91586612   -7.4124216    210.25519  0.021289509  0.020988483            3 
  824000   0.92868938   -7.4545939    209.09058  0.021145892  0.020971476            6 
  825000   0.93200474    -7.411007    210.43405  0.021255964  0.020954395            4 
  826000   0.93009166   -7.4415611    209.91821  0.021178189  0.020937523            4 
  827000   0.92238725    -7.384697    210.50582  0.021211792  0.020920616            6 
  828000   0.92365626   -7.4284481    210.42601  0.021178141  0.020903595            4 
  829000   0.90710311   -7.4647547    210.12798  0.021122636  0.020886619            5 
  830000   0.92620865   -7.4821838    209.74942  0.021059179  0.020869422            6 
  831000   0.92474576   -7.4466509    210.49072  0.021108175  0.020852245           17 
  832000   0.93554319   -7.4657243    210.61962  0.021095715   0.02083502            8 
  833000   0.91868469   -7.4825274    210.39169  0.021047588  0.020818037            6 
  834000   0.93708472   -7.4955552    210.27284  0.021010475  0.020800902            5 
  835000   0.90977656   -7.5015206    210.53406  0.021011384  0.020783889            3 
  836000   0.92693221   -7.4713905     211.0888  0.021041547   0.02076677            7 
  837000   0.94117791   -7.4914352     211.0659  0.021014128  0.020749818           14 
  838000   0.90271343   -7.4889165    211.01801  0.020984289  0.020732792            8 
  839000    0.9238247   -7.4513391    211.35082  0.020992334  0.020715888           15 
  840000   0.92316904   -7.5118644    211.19105  0.020951493  0.020698981            5 
  841000   0.93030613   -7.4886505    211.61514  0.020968603  0.020682064            5 
  842000    0.9173852   -7.4884005    211.27798   0.02091033  0.020665206            7 
  843000   0.91215143   -7.4965705     212.0759  0.020964403  0.020648486            5 
  844000   0.91909278   -7.4824709    212.30178  0.020961866   0.02063198            5 
  845000   0.90761144   -7.4496273    212.42557  0.020949267  0.020615529            8 
  846000   0.92247391   -7.4460412    212.18241  0.020900552  0.020598919            5 
  847000   0.91488748    -7.488541    212.20149  0.020877754  0.020582229            4 
  848000   0.92049618    -7.437913    212.08285  0.020841475  0.020565459            4 
  849000   0.92336324   -7.4901883    212.03161  0.020811897  0.020548639            7 
  850000   0.91049062   -7.4687667    212.35916  0.020819525  0.020531836            7 
  851000   0.90812562   -7.4683665    212.82979  0.020841146  0.020515223            5 
  852000   0.90126423   -7.4578611    212.77077  0.020810913  0.020498488           11 
  853000   0.90702528   -7.4557143    212.97871   0.02080683  0.020481914            7 
  854000   0.90888272   -7.4979603    212.85587  0.020770479  0.020465295            7 
  855000   0.91074565   -7.4615089    213.91055  0.020848981  0.020448793            8 
  856000   0.91313219   -7.5396166    212.52631  0.020689866  0.020432256            3 
  857000    0.9204513   -7.4514976    213.54738  0.020765011  0.020415641            5 
  858000   0.91819483   -7.4675086    213.37475  0.020724043  0.020399044           12 
  859000   0.90218805   -7.5269915    213.26967  0.020689724  0.020382408            4 
  860000   0.92335935   -7.4831851    213.95216  0.020731798  0.020365851            5 
  861000   0.90883682   -7.4710971    213.82601   0.02069551  0.020349383            6 
  862000   0.92758758   -7.4859431    213.64599  0.020654098  0.020332878            4 
  863000   0.91778882    -7.483918     214.0116   0.02066547  0.020316435            8 
  864000   0.91028243   -7.4973757    213.79113  0.020620286  0.020299956           14 
  865000   0.92448184   -7.4915709    214.17754  0.020633675  0.020283469           10 
  866000   0.93701796   -7.5256741    213.72505  0.020566306  0.020266994            7 
  867000   0.92032785   -7.4860448    213.55621  0.020526356  0.020250432            4 
  868000   0.90908792   -7.4889425    214.75581  0.020617877   0.02023396            5 
  869000   0.89173354   -7.4791079    214.13351  0.020534475    0.0202175            3 
  870000    0.8947503   -7.5565154    213.68613   0.02046802  0.020200862           12 
  871000   0.92401319   -7.5110279    214.71562  0.020543018  0.020184163            5 
  872000   0.91632524    -7.489372     214.2836  0.020478173  0.020167677            9 
  873000   0.90916535   -7.5349504    214.46327  0.020471866  0.020151084           16 
  874000   0.89649653   -7.5024925     214.6097  0.020462404  0.020134395            9 
  875000   0.90113463   -7.5250597    214.89313  0.020466012  0.020117704            2 
  876000   0.88845859   -7.5369736    214.52536  0.020407663  0.020100977            6 
  877000   0.89633874   -7.4892745     214.4742  0.020379533  0.020084364            7 
  878000   0.88481282   -7.4854831    214.70324   0.02037806  0.020067928            4 
  879000   0.88058089   -7.5100792     215.3491  0.020416107  0.020051504            5 
  880000   0.89132112   -7.5237447    215.05019  0.020364601  0.020034992           15 
  881000   0.91793645   -7.5224241    214.43187  0.020282999   0.02001826            4 
  882000   0.90732003   -7.5375025    214.32679  0.020250074  0.020001307            7 
  883000   0.90622178   -7.5193846     214.6694  0.020259475  0.019984552            6 
  884000   0.90082388   -7.5077206    215.17249  0.020283983  0.019967781            5 
  885000   0.89330165   -7.5188253    214.69378  0.020215987  0.019951052            5 
  886000   0.88908769   -7.5514757    214.74621  0.020198101  0.019934308            6 
  887000   0.90350372     -7.49214     214.8683    0.0201868  0.019917726            6 
  888000   0.90695271   -7.4839317    216.22264  0.020291164  0.019901108            5 
  889000   0.89719719   -7.5297275    215.44159  0.020195124  0.019884431            9 
  890000     0.910753   -7.5387725    214.77937  0.020110428  0.019867613           13 
  891000   0.90366266   -7.5451652    214.91878  0.020100896  0.019850758           10 
  892000   0.88684446   -7.5502704    215.01812  0.020087642  0.019833922           10 
  893000   0.90287698   -7.5490885    215.85643  0.020143377  0.019817273            4 
  894000   0.89949922   -7.5157243    215.59206  0.020096202  0.019800554           13 
  895000   0.89904139   -7.5346809    216.18758  0.020129197  0.019783872           11 
  896000   0.88239656   -7.5387649    216.15152  0.020103378  0.019767234           14 
  897000   0.87360759   -7.5192856     216.2898  0.020093813  0.019750704            6 
  898000   0.91373483   -7.5349891    215.95087  0.020039985  0.019734132            6 
  899000   0.90469481    -7.540395    215.86824  0.020010033  0.019717481            6 
  900000    0.8868541   -7.5359912    216.06901   0.02000639  0.019700799            7 
  901000   0.89365693   -7.5122318    216.75575  0.020047701  0.019684263            9 
  902000   0.88185207   -7.5200794    216.35738  0.019988671  0.019667861            8 
  903000   0.90127932   -7.5612773    216.62945  0.019991643  0.019651314            5 
  904000   0.87648507   -7.5551707    216.57375  0.019964394  0.019634865            8 
  905000    0.9199882   -7.5496975    217.16159  0.019996463  0.019618487           15 
  906000   0.90513421   -7.5497376    216.78201  0.019939479  0.019602135            7 
  907000   0.88426349   -7.5680437    217.17375  0.019953486  0.019585837            3 
  908000   0.89505925   -7.5775902    216.60776  0.019879567  0.019569392            4 
  909000      0.90411   -7.5341965    217.67525  0.019955561  0.019553101            5 
  910000   0.90336411    -7.543714     216.9404  0.019866337  0.019536737            8 
  911000   0.89650908   -7.5912248    216.60697   0.01981403  0.019520188            9 
  912000   0.87189703    -7.534715    217.44464  0.019868845  0.019503694            8 
  913000   0.88104421   -7.5507183    217.15482   0.01982063  0.019487214           12 
  914000   0.86499411   -7.5474437    217.03967  0.019788445   0.01947079            6 
  915000   0.89400148   -7.5849293    217.26765  0.019787582  0.019454466            5 
  916000   0.87964165   -7.5795111     217.3398  0.019772544  0.019438118            7 
  917000   0.88004291   -7.5842609     216.8081  0.019702663  0.019421772           12 
  918000   0.87187923   -7.5521097    217.65989  0.019758523  0.019405397            9 
  919000   0.88373247   -7.5679679    217.50612   0.01972308  0.019388965           16 
  920000   0.87300518   -7.5462401    218.18934  0.019763527  0.019372685            8 
  921000   0.86970769   -7.5143589    218.23679  0.019746362  0.019356458            9 
  922000   0.89231398   -7.5395725    217.64405  0.019671372  0.019340323            7 
  923000   0.88906782   -7.5935078    217.47529  0.019634822   0.01932406            7 
  924000   0.88419707   -7.5515028    218.83901  0.019736563  0.019307633            3 
  925000   0.87070988   -7.5801435    218.17561   0.01965546  0.019291152           10 
  926000   0.89211766   -7.5910482    217.85686  0.019605549  0.019274727           10 
  927000   0.90273154   -7.6003674    216.94007  0.019501984  0.019258149            7 
  928000   0.88648781   -7.6273381    217.69642  0.019548888  0.019241559            6 
  929000   0.87769181   -7.6125305    217.51492  0.019511565     0.019225            6 
  930000   0.87791349   -7.5771187    218.46302   0.01957554  0.019208444            7 
  931000   0.88126947   -7.5973228    218.25698  0.019536071  0.019191838           10 
  932000   0.87310589   -7.5951445     218.1546  0.019505955  0.019175182           14 
  933000   0.90070892   -7.6181302     217.8687  0.019459512  0.019158547            4 
  934000   0.88666145   -7.6230681    218.47506  0.019492778  0.019142007            5 
  935000    0.8829154   -7.5911422    218.19395  0.019446877  0.019125391            9 
  936000   0.86314977    -7.581301    218.28956  0.019434612  0.019108862            7 
  937000    0.8710805   -7.6054389    218.59743  0.019441251  0.019092405           13 
  938000   0.87002136   -7.5731271    218.02986  0.019370101  0.019075948            6 
  939000   0.88991718   -7.6258597    218.56627  0.019397077  0.019059464            7 
  940000   0.85445292   -7.5909976    218.04994  0.019330668  0.019042988            5 
  941000   0.87024448   -7.6000059    218.12866  0.019317097  0.019026516            5 
  942000   0.89072976   -7.6026002     218.2684  0.019308953  0.019009965            9 
  943000   0.88609133   -7.6061553    218.34707  0.019295429   0.01899351            9 
  944000   0.86256066   -7.6153337    218.14515  0.019257163   0.01897698            4 
  945000   0.87934539   -7.5981572    218.84458  0.019298464  0.018960498           11 
  946000   0.86434309   -7.6043598    218.38283  0.019237388  0.018944059            6 
  947000   0.88674402   -7.6148873     218.6095   0.01923702  0.018927568           11 
  948000   0.88296638   -7.5930382    218.53195  0.019209911  0.018911101           21 
  949000   0.87789616   -7.6207895    219.14829  0.019243791  0.018894656            6 
  950000   0.86889119   -7.5945828    218.61936  0.019177137  0.018878166            7 
  951000   0.86716598   -7.6154369    218.35494  0.019133802  0.018861669            6 
  952000   0.87146597   -7.6033219    218.33449  0.019111913  0.018845075            8 
  953000   0.88404843   -7.6093268    218.76331  0.019129355  0.018828404            7 
  954000   0.85794424   -7.6237633    218.35453  0.019073597  0.018811773           13 
  955000   0.87827277   -7.6436884    219.10311  0.019118945  0.018795188            6 
  956000   0.87420028    -7.605619    219.63686  0.019145473  0.018778633            8 
  957000   0.85538917   -7.5794612    219.17344  0.019085113  0.018762195           14 
  958000   0.88713677   -7.5936865    219.30452  0.019076594  0.018745794           10 
  959000   0.84227917   -7.6178323    219.71582  0.019092441  0.018729386           11 
  960000   0.87187191    -7.583693    219.59701   0.01906224  0.018712955           13 
  961000   0.87434697   -7.5746206    220.33132   0.01910608  0.018696753            6 
  962000   0.87976148   -7.6023242    219.61252  0.019023954  0.018680521            8 
  963000   0.87031583    -7.619382    219.99485  0.019037284  0.018664254            5 
  964000   0.86390487   -7.6441382    219.80887  0.019001458  0.018647933            6 
  965000   0.87791061   -7.6179723    219.42552  0.018948663  0.018631575           11 
  966000   0.85609324   -7.6485786    219.80845  0.018962081  0.018615138            7 
  967000   0.86471953   -7.6273424     219.8391  0.018945113  0.018598668            5 
  968000   0.87480062     -7.65815    219.35895  0.018884207  0.018582188           10 
  969000   0.85645657   -7.6261506    219.42815   0.01887067   0.01856561           10 
  970000   0.85041099   -7.6481757     219.2406  0.018835103  0.018549009            7 
  971000   0.86921032   -7.6053192     219.9322   0.01887506  0.018532458           16 
  972000   0.84012119   -7.6311628    219.98181  0.018859894  0.018515934           10 
  973000   0.86483035   -7.6227382    219.92256  0.018835437  0.018499341           16 
  974000   0.85332663   -7.6310494    219.98665  0.018821582  0.018482857           22 
  975000   0.87109304   -7.6288603    219.82017  0.018788049  0.018466493            5 
  976000   0.87373681   -7.6634533    220.12621  0.018794929  0.018450067            6 
  977000   0.88582801   -7.6810354    219.88773  0.018755351  0.018433523            8 
  978000   0.87080036    -7.644125    220.03648  0.018748848  0.018417028            9 
  979000   0.84485272   -7.6548725    219.53587  0.018687085  0.018400479            6 
  980000   0.86278294   -7.6331174    219.42775  0.018658822  0.018383963            6 
  981000   0.85987168   -7.6470457    220.25509  0.018710083  0.018367483            8 
  982000   0.85275401   -7.6277453    219.86109  0.018657594  0.018351043           10 
  983000   0.85201221   -7.6060056    220.32195  0.018677683  0.018334649           12 
  984000    0.8392522   -7.6348847    220.26839  0.018654166  0.018318218           12 
  985000   0.85414589   -7.6623457    219.97014  0.018609995  0.018301784            8 
  986000   0.84884161   -7.6494577    219.82382  0.018578755  0.018285338            6 
  987000   0.85164075   -7.6030137     220.8522  0.018646758  0.018269035           10 
  988000   0.87279536   -7.6604643    220.56315  0.018603505   0.01825273           11 
  989000   0.86967541   -7.6568876    220.25893  0.018559061  0.018236442           12 
  990000   0.85175884   -7.6482669    220.48054  0.018558968  0.018220132           15 
  991000   0.86983816   -7.5908257    221.17246  0.018598424  0.018203871           10 
  992000   0.86023085    -7.645887     220.9244  0.018558837  0.018187689            6 
  993000   0.85705266   -7.6634559    220.35217  0.018492125  0.018171442            5 
  994000   0.88440106   -7.6424813    221.26429  0.018549991  0.018155279           12 
  995000   0.84156871   -7.6523971      220.875  0.018498743  0.018139107           14 
  996000   0.84263746   -7.6959759    220.42077  0.018442167  0.018122934            9 
  997000   0.85778426   -7.6949477    220.21243  0.018406254  0.018106767            4 
  998000   0.86217669   -7.6391417    221.15996   0.01846693  0.018090684            8 
  999000   0.83440475   -7.6690749    221.01253  0.018436147  0.018074559           10 
 1000000   0.86473116    -7.664685     220.8854  0.018407117  0.018058357           21 
 1001000    0.8313751   -7.6963511     221.2185  0.018416459  0.018042196           10 
 1002000   0.84687756   -7.6479926    221.09384  0.018387711  0.018026023            8 
 1003000   0.84969123   -7.7061207    220.40251   0.01831194  0.018009944            8 
 1004000   0.83204388   -7.6459336    221.74964  0.018405514  0.017993916            9 
 1005000   0.84627974   -7.6187917    222.30559  0.018433299   0.01797798            9 
 1006000   0.86132265   -7.6678954     221.0669  0.018312368  0.017962074           24 
 1007000   0.84978141   -7.6684928    222.13318  0.018382422  0.017946101            8 
 1008000   0.85117795   -7.6716808      221.346  0.018299107  0.017930138            7 
 1009000   0.84390058   -7.6657949    221.72752  0.018312481  0.017914191           15 
 1010000   0.85934039   -7.7046065    221.37429  0.018265205   0.01789816            9 
 1011000   0.85150899   -7.6714152    221.78471  0.018280968  0.017882122            5 
 1012000    0.8566736   -7.6867759    221.64927  0.018251752  0.017866122           13 
 1013000   0.87279282    -7.730903    221.38312   0.01821184  0.017850103           18 
 1014000   0.84585057   -7.6910665    222.72133  0.018303857  0.017834206            4 
 1015000   0.85569073    -7.716513    221.46153  0.018182391  0.017818295            8 
 1016000   0.83840045   -7.6618926    222.24849  0.018229043  0.017802296           18 
 1017000   0.85938316   -7.7009688    221.70146  0.018166294   0.01778635           16 
 1018000    0.8253177   -7.6914843    221.39494  0.018123357  0.017770448           12 
 1019000   0.84817979   -7.6905367    222.69472  0.018211868  0.017754494           12 
 1020000   0.84428625   -7.6867818    221.87744  0.018127242   0.01773854            6 
 1021000   0.83401902   -7.6739046    222.17875   0.01813408  0.017722718            7 
 1022000   0.83763988   -7.7216589     222.1458   0.01811365  0.017706768           18 
 1023000   0.85091476   -7.6851288    222.84962  0.018153277  0.017690895            6 
 1024000   0.85091637   -7.6983782    222.07407  0.018072434  0.017675074            8 
 1025000   0.85301034   -7.7131089    221.86455  0.018037769  0.017659284           13 
 1026000   0.84388689   -7.6925505    221.93177  0.018025647  0.017643419            7 
 1027000   0.84467065   -7.6980654    222.15615  0.018026302  0.017627575            5 
 1028000   0.83514528   -7.7186776    222.54645  0.018040406  0.017611754            9 
 1029000   0.84301343   -7.6692947    223.56343  0.018105234  0.017596024            9 
 1030000    0.8385171   -7.7030301    222.56607  0.018006964  0.017580314            7 
 1031000    0.8384009   -7.6958724    222.39211  0.017975437  0.017564595            6 
 1032000   0.83745068   -7.6863198    222.55472   0.01797115  0.017548893           12 
 1033000   0.83510947   -7.7234269    222.50383  0.017949648  0.017532982            6 
 1034000   0.85009869   -7.7167483    222.81983  0.017957755  0.017517171           10 
 1035000   0.82591206   -7.6925384    222.53529  0.017917495  0.017501343            8 
 1036000    0.8419702   -7.7181915    222.95157  0.017933685  0.017485623           18 
 1037000    0.8184067   -7.7354522    222.97087  0.017917942  0.017469821           10 
 1038000   0.84356869   -7.7296071    222.66534  0.017876151  0.017454102           17 
 1039000   0.83089893   -7.6901189    223.45857  0.017922567  0.017438489           27 
 1040000   0.84882958   -7.7272009    222.52904  0.017830853  0.017422794           10 
 1041000    0.8107939   -7.7217744    222.97807   0.01784967  0.017407154           22 
 1042000   0.84210616   -7.7178989    223.16836  0.017847758  0.017391479           10 
 1043000   0.84078427   -7.7020631    223.01961  0.017818761   0.01737577            8 
 1044000   0.83212492   -7.7069763    223.90536  0.017872394   0.01736026           10 
 1045000   0.83707616   -7.7290479    222.72553  0.017761207  0.017344673            7 
 1046000   0.81013446   -7.7385108    223.07248  0.017771868  0.017329032            8 
 1047000    0.8112224   -7.7188771    223.14567  0.017760719  0.017313362           15 
 1048000     0.846257   -7.7245324    223.09953  0.017740103   0.01729769           18 
 1049000   0.82733242   -7.7185973    223.49536  0.017754636  0.017282096            7 
 1050000   0.83822549     -7.74537    222.95548  0.017694879  0.017266572           11 
 1051000   0.81966793   -7.7777737    223.12842  0.017691755  0.017251003           23 
 1052000   0.82873757   -7.7433299    223.15632  0.017677148  0.017235364           30 
 1053000   0.83012382   -7.7906286    222.84093  0.017635401  0.017219725           36 
 1054000   0.83724726    -7.770162    222.79248  0.017614839   0.01720399           22 
 1055000   0.86507019   -7.7502859    223.97114  0.017691243  0.017188441           42 
 1056000   0.83909886   -7.7908157    223.11915  0.017607256  0.017172854           30 
 1057000   0.83862299   -7.7417681    223.19729  0.017596759  0.017157269           26 
 1058000   0.81017266   -7.7290584    223.59855  0.017611732  0.017141685           31 
 1059000    0.8241352   -7.7788886    223.15309  0.017560048   0.01712614           31 
 1060000   0.82809934    -7.741285      223.829   0.01759662   0.01711063           53 
 1061000   0.83553687   -7.7721492    223.02426  0.017516829   0.01709512           26 
 1062000   0.83418331   -7.7723443    223.39637  0.017529533  0.017079616           46 
 1063000   0.83624783   -7.7409174    223.46912  0.017518745  0.017064119           49 
 1064000   0.83327606   -7.7581481    223.77564  0.017526288  0.017048625           64 
 1065000   0.82239628   -7.7857861    222.97648  0.017447299  0.017033166           24 
 1066000   0.83164431   -7.7769511    223.22119  0.017450062  0.017017699           44 
 1067000   0.85113803   -7.7438419    224.34726  0.017521654  0.017002302           73 
 1068000   0.81825259   -7.7307846    224.02525  0.017480122  0.016986886           39 
 1069000   0.83694092   -7.7519237    223.78275  0.017444866    0.0169716           62 
 1070000   0.81480239   -7.7182004    224.33577  0.017471633  0.016956245           67 
 1071000   0.82600498   -7.7350911    224.29146  0.017451872  0.016940861           71 
 1072000   0.82086064   -7.7336911    224.00596  0.017413398  0.016925559           91 
 1073000   0.80296749   -7.7614639    223.59554  0.017365295  0.016910263           81 
 1074000    0.8007806   -7.8042076     223.9729  0.017378406  0.016894993          103 
 1075000   0.82692807   -7.7552371    224.80138  0.017426463  0.016879748          105 
 1076000   0.83911293   -7.7731815    224.77002  0.017407839  0.016864554          101 
 1077000    0.8229498   -7.7732071    224.26729  0.017352777  0.016849364          137 
 1078000   0.83792681   -7.7920672    223.62579  0.017287089  0.016834089          155 
 1079000   0.83274063   -7.8040194    224.00952  0.017300704  0.016818746          163 
 1080000   0.83416238   -7.7998443    223.73363  0.017263397  0.016803413          171 
 1081000   0.81672639   -7.7863162    224.02124  0.017269599  0.016788038          184 
 1082000   0.81005937   -7.7625616    224.55262  0.017294564  0.016772753          202 
 1083000   0.81454638   -7.8291023    223.35356  0.017186331  0.016757354          234 
 1084000   0.83470274   -7.8168458    224.37993  0.017249379  0.016741965          197 
 1085000    0.8059014   -7.7849756     224.3606  0.017231997  0.016726563          155 
 1086000    0.8279543   -7.7778193     224.2363  0.017206591  0.016711254          168 
 1087000   0.82541303   -7.8137441    224.54459  0.017214397  0.016695906          150 
 1088000   0.81859766   -7.8079546    224.90225  0.017225969  0.016680635          179 
 1089000   0.83500414   -7.8067355    224.65114  0.017190935  0.016665451          227 
 1090000   0.81507901   -7.8050689     224.2845  0.017147133  0.016650229          207 
 1091000   0.82397941   -7.8103356    224.23838  0.017127893  0.016635009          200 
 1092000   0.82560975   -7.8376523    224.32702  0.017118973  0.016619826          221 
 1093000   0.81175727   -7.8069016    224.43316  0.017111403  0.016604605          165 
 1094000   0.81638621    -7.841986    224.23817  0.017080909  0.016589357          165 
 1095000   0.81461485   -7.8275719    223.92615  0.017041564   0.01657409          200 
 1096000   0.80224399   -7.8052475    224.71455  0.017085961  0.016558854          215 
 1097000   0.81935165   -7.8460346    224.37387  0.017044505  0.016543531          213 
 1098000   0.81095292   -7.8414462    224.20092  0.017015856  0.016528292          228 
 1099000   0.81868089   -7.8107046    224.51832   0.01702444  0.016513082          227 
 1100000   0.80795329   -7.8261745    224.77983  0.017028775    0.0164979          222 
 1101000   0.82732541   -7.8285247    224.39685  0.016984321  0.016482669          218 
 1102000   0.80534056   -7.8496857     224.4253   0.01697106  0.016467399          238 
 1103000   0.79950989   -7.8323509     224.5976  0.016968691  0.016452148          250 
 1104000   0.80147235   -7.8687765    224.55965  0.016950456  0.016436879          270 
 1105000   0.81831893    -7.840789    224.11305  0.016901436  0.016421689          311 
 1106000   0.80866568   -7.8319779    224.46287  0.016912513   0.01640646          284 
 1107000    0.8151148    -7.837392    224.65754   0.01691189  0.016391318          251 
 1108000   0.80104183   -7.8817764    224.19507  0.016861843  0.016376125          270 
 1109000   0.79517198   -7.8361062    224.26769  0.016852096  0.016360918          266 
 1110000    0.8027278    -7.874375    224.66767  0.016866942  0.016345663          317 
 1111000   0.81743342   -7.8666179    224.19049  0.016815969   0.01633038          294 
 1112000   0.79663868   -7.9100119    224.21406  0.016802613  0.016315025          275 
 1113000   0.81155647   -7.8933653    224.30823  0.016794566  0.016299732          344 
 1114000   0.81291693   -7.8931744    224.05438  0.016760501  0.016284419          308 
 1115000   0.80006299   -7.8785889    224.58608  0.016785208  0.016269138          339 
 1116000   0.79647272   -7.8574523     224.7371  0.016781444  0.016253968          295 
 1117000   0.81694653   -7.8981893    224.73749   0.01676645  0.016238775          353 
 1118000   0.81328596   -7.8712326    224.54079  0.016736791  0.016223576          322 
 1119000   0.81257552   -7.9027293    224.39481  0.016710963  0.016208316          406 
 1120000   0.80381117   -7.9161572    224.42531  0.016698311   0.01619309          385 
 1121000   0.80409725   -7.8941801    224.29029  0.016673379  0.016177911          345 
 1122000   0.80982214   -7.8894361     224.8574  0.016700639  0.016162833          403 
 1123000   0.79494814     -7.90701    224.05895  0.016626518  0.016147673          424 
 1124000   0.80159252   -7.8630108    224.38167  0.016635651  0.016132451          461 
 1125000   0.80317468   -7.8957206    224.11243   0.01660092  0.016117256          478 
 1126000   0.80488997   -7.9151069    224.31575  0.016601225   0.01610208          448 
 1127000   0.78576425   -7.9155548     223.8191  0.016549771  0.016086982          435 
 1128000   0.80926569   -7.9018037    224.63076  0.016595062   0.01607184          477 
 1129000   0.81160292   -7.9074343    224.74445  0.016588755  0.016056674          478 
 1130000   0.81326461   -7.9352419    224.30146  0.016541405  0.016041562          531 
 1131000    0.7902574   -7.9056388    224.54524  0.016544742  0.016026359          501 
 1132000   0.80988735   -7.9021227     224.7015   0.01654163  0.016011231          475 
 1133000   0.79856535   -7.9236614    224.81273  0.016535211  0.015996059          528 
 1134000    0.8217796   -7.9296371    224.57299  0.016503012  0.015980886          592 
 1135000   0.81689557   -7.9417214    223.76864  0.016429415  0.015965681          676 
 1136000   0.81956768   -7.9567803    223.78084  0.016415848  0.015950469          612 
 1137000   0.80760078   -7.9888696    223.40005  0.016373501  0.015935104          620 
 1138000   0.82045533   -7.9885561    223.86578  0.016393218  0.015919764          603 
 1139000   0.82594349    -7.954187    223.76776  0.016371654  0.015904331          601 
 1140000   0.80246456   -7.9653812    223.66683  0.016349914  0.015888916          609 
 1141000   0.79244799   -8.0040628    223.47239  0.016321384  0.015873428          628 
 1142000   0.79496324   -7.9559449    223.43596  0.016304434  0.015857981          699 
 1143000   0.79928342   -7.9903958    223.23821  0.016275752  0.015842551          624 
 1144000   0.79924473   -7.9686174    223.32689  0.016267985  0.015827137          668 
 1145000   0.79363273   -7.9596411    223.42073  0.016260606  0.015811715          727 
 1146000   0.79809897   -7.9930392    223.35967  0.016241977  0.015796266          741 
 1147000   0.78141388   -7.9571981    223.31099   0.01622428  0.015780816          654 
 1148000   0.78133068   -8.0026262      222.909  0.016180967  0.015765369          681 
 1149000   0.78413299   -8.0198833    223.37015   0.01620033  0.015749894          732 
 1150000   0.79904355    -7.959828    223.31745  0.016182424  0.015734454          675 
 1151000   0.80539333   -7.9728091    223.58408  0.016187669  0.015719065          716 
 1152000   0.79683046   -7.9955213    223.09801  0.016138455  0.015703693          804 
 1153000   0.77885164   -7.9722881    223.78283  0.016173954  0.015688332          683 
 1154000   0.80724282   -7.9697997    223.83182  0.016163476  0.015672961          841 
 1155000   0.78705059   -7.9859955    223.36726  0.016115964  0.015657572          869 
 1156000   0.78301784   -7.9854086    222.95662  0.016072421  0.015642168          805 
 1157000   0.78806601   -7.9828795    223.53342  0.016100073  0.015626818          839 
 1158000    0.8129071   -7.9796607    223.28184  0.016068066  0.015611506          770 
 1159000   0.78554833   -7.9942861    223.39282  0.016062181   0.01559628          811 
 1160000   0.80918575   -7.9820811    223.61437  0.016064251  0.015581073          839 
 1161000    0.7796872   -7.9826171    223.09794  0.016013346  0.015565782          812 
 1162000   0.76679738   -8.0026941    223.55461  0.016032315  0.015550469          935 
 1163000   0.78844606   -8.0300909    223.31862  0.016001621  0.015535111          893 
 1164000   0.82295954   -8.0114723    223.30078  0.015986596  0.015519696          927 
 1165000   0.79957107   -8.0010849    222.94643  0.015947527  0.015504297          916 
 1166000   0.79392926    -8.027488    223.12765  0.015946802  0.015488901          997 
 1167000   0.77762783   -8.0321805    223.09344  0.015930694  0.015473521         1029 
 1168000   0.80413397    -8.024246    222.62519  0.015883646   0.01545812         1044 
 1169000   0.77445557   -8.0698596    222.64849   0.01587172  0.015442673         1068 
 1170000   0.79858107   -8.0531234    222.75492  0.015865735  0.015427252         1037 
 1171000   0.77516135      -8.0587    222.69123  0.015847654  0.015411773         1119 
 1172000   0.77688644   -8.0573237    222.82722  0.015843801  0.015396303         1216 
 1173000   0.77919073    -8.066796    222.25461  0.015789614  0.015380843         1260 
 1174000   0.78252759   -8.0743277    222.58492  0.015799611  0.015365346         1284 
 1175000     0.792248   -8.0630162    222.17795  0.015757302  0.015349827         1280 
 1176000   0.77597284   -8.0691739    222.66839  0.015778656  0.015334304         1264 
 1177000   0.77188037   -8.0668369    222.42126  0.015747753  0.015318819         1354 
 1178000   0.78474633    -8.100295    222.04952  0.015708087  0.015303393         1387 
 1179000   0.77947639   -8.1155864    222.40542   0.01571992  0.015287941         1364 
 1180000   0.78859889   -8.0976705    222.27004  0.015697037  0.015272503         1441 
 1181000   0.78589562   -8.1157261    222.59084  0.015706382  0.015257018         1501 
 1182000   0.77349009   -8.1499061    221.95949  0.015648583   0.01524147         1577 
 1183000     0.792883    -8.157936    221.69339   0.01561661  0.015225885         1647 
 1184000   0.77470367   -8.1185195    221.48454  0.015588721  0.015210318         1566 
 1185000   0.78843794   -8.1381725    222.03084  0.015613983  0.015194707         1682 
 1186000   0.78373955   -8.1409975    221.83579  0.015587113  0.015179136         1680 
 1187000   0.78456784   -8.1494163    221.50992  0.015551104  0.015163492         1759 
 1188000   0.78558416   -8.1589877    221.36942  0.015528158  0.015147868         1679 
 1189000   0.77132885   -8.1551163    221.79903  0.015545208  0.015132225         1812 
 1190000   0.78366877   -8.1884029    221.35542   0.01550108  0.015116524         1941 
 1191000   0.78473715   -8.2060112    221.17233  0.015475254  0.015100833         1983 
 1192000   0.76538221   -8.1913627    221.75266  0.015502843  0.015085104         2036 
 1193000    0.7968922   -8.1897286    221.87832  0.015498625  0.015069406         2009 
 1194000   0.78143928   -8.2129314    220.94572  0.015420555   0.01505366         2121 
 1195000   0.79337904   -8.1846432    221.33162  0.015434562  0.015037919         2067 
 1196000   0.77153007   -8.2204455     221.0212  0.015400028  0.015022215         2199 
 1197000   0.76752822   -8.1990208    221.34772  0.015409894   0.01500652         2203 
 1198000   0.76325934   -8.2257903    220.58652  0.015344082  0.014990837         2103 
 1199000   0.77146309   -8.2245467    221.06785  0.015364738   0.01497517         2082 
 1200000   0.77066667   -8.2069454    220.95462  0.015344071  0.014959505         2203 
 1201000   0.77981593    -8.210559    220.83553  0.015323031   0.01494394         2174 
 1202000   0.78410335   -8.2245231    220.65423  0.015297714  0.014928342         2244 
 1203000   0.76425259   -8.2440312    220.82265  0.015296664  0.014912751         2329 
 1204000   0.78272047   -8.2328771    220.67677  0.015273863  0.014897138         2230 
 1205000   0.78348669   -8.2492828    220.45003  0.015245507  0.014881525         2367 
 1206000   0.77011604    -8.228773    221.49121   0.01530481  0.014865932         2189 
 1207000   0.78592644   -8.2401997    221.09141  0.015264527  0.014850407         2300 
 1208000   0.76264731   -8.2642356    221.13042  0.015254582  0.014834922         2370 
 1209000   0.78421937   -8.2513672    221.08366  0.015238741  0.014819402         2388 
 1210000   0.78082077     -8.25957    220.87412  0.015211716  0.014803862         2434 
 1211000    0.7516396   -8.2869026     221.0101  0.015208512  0.014788269         2572 
 1212000   0.78273167   -8.2583075    220.76282  0.015178962  0.014772694         2511 
 1213000   0.77382009   -8.2763569    220.51389  0.015149347  0.014757127         2522 
 1214000   0.77687099   -8.2801372    220.52693  0.015137763  0.014741548         2598 
 1215000   0.78809471   -8.2843669    220.88486  0.015149853  0.014725928         2667 
 1216000   0.76819014   -8.3055992     220.1997   0.01509044  0.014710344         2666 
 1217000    0.7808027    -8.311893    220.68604  0.015111342  0.014694755         2691 
 1218000   0.76891822   -8.3347941    220.39814  0.015079238  0.014679142         2687 
 1219000   0.74905341   -8.2986662    220.44404  0.015070005  0.014663549         2689 
 1220000   0.76571633   -8.3199793    220.31895  0.015049109   0.01464795         2761 
 1221000   0.77389803   -8.3168494    220.31529  0.015036533  0.014632342         2864 
 1222000   0.75791446   -8.3334976    220.68621  0.015049523   0.01461674         2836 
 1223000   0.76513911   -8.3210719    220.59996  0.015031341  0.014601176         2870 
 1224000   0.77378144   -8.3327264    219.85867  0.014968592  0.014585593         2861 
 1225000   0.75043168   -8.3467013    220.32491  0.014988089  0.014569998         2936 
 1226000   0.76233488   -8.3650083    219.97112  0.014951816  0.014554431         2960 
 1227000   0.76851073   -8.3497397    220.21511  0.014956201   0.01453884         3007 
 1228000   0.76385853   -8.3727533    219.96389  0.014926974  0.014523227         3078 
 1229000   0.76923605   -8.3964023    219.48422  0.014882304  0.014507599         3161 
 1230000   0.74581319   -8.3800361      219.724   0.01488645  0.014491924         3120 
 1231000   0.74848116   -8.3852966    219.87176  0.014884359  0.014476273         3048 
 1232000   0.75410597   -8.3758828    219.91973  0.014875523  0.014460633         3173 
 1233000   0.76057508   -8.3816997    219.77096  0.014853404  0.014445004         3132 
 1234000   0.77120353   -8.3778527    219.73385  0.014838861  0.014429373         3118 
 1235000   0.75896153   -8.3981263    219.29613   0.01479731  0.014413735         3235 
 1236000   0.75517477   -8.4066227    219.54548  0.014802149  0.014398093         3240 
 1237000   0.75974969    -8.402193     219.4023  0.014780538  0.014382486         3252 
 1238000   0.76225801   -8.4102693    219.20343  0.014755212  0.014366858         3282 
 1239000   0.76136034   -8.4177167    218.81959  0.014717487  0.014351233         3319 
 1240000   0.74862851   -8.4283846    218.99019  0.014717083  0.014335627         3274 
 1241000    0.7610245   -8.4085728    219.46172  0.014736887  0.014320035         3339 
 1242000   0.75169214   -8.4005475    219.81599  0.014748792  0.014304451         3302 
 1243000   0.73497243   -8.4239211    219.11135  0.014689685  0.014288878         3220 
 1244000   0.75060458   -8.4228766    219.17969  0.014682455  0.014273326         3266 
 1245000   0.77089967    -8.440731    219.11821  0.014666547  0.014257763         3364 
 1246000   0.75334775   -8.4575004    219.02344  0.014648438   0.01424219         3337 
 1247000   0.75671951   -8.4373827    219.16998  0.014646484  0.014226634         3324 
 1248000   0.77109899   -8.4497927    219.17571  0.014635131  0.014211074         3387 
 1249000   0.76801605   -8.4241277     219.4201  0.014639719  0.014195552         3378 
 1250000   0.73875629   -8.3929888    219.44027  0.014629351  0.014180063         3332 
 1251000   0.75119361   -8.4482415    218.74873  0.014571591  0.014164563         3438 
 1252000    0.7493249   -8.4247636    219.21965  0.014591297  0.014149072         3399 
 1253000   0.75012227   -8.4519339    218.89134  0.014557817  0.014133589         3429 
 1254000   0.74607004    -8.438963    219.07145  0.014558177   0.01411813         3431 
 1255000   0.76798766   -8.4735663    218.69156  0.014521352  0.014102688         3517 
 1256000   0.75093398   -8.4403956    218.75589  0.014514059   0.01408725         3443 
 1257000   0.74282185   -8.4460713    218.58876  0.014491432  0.014071823         3463 
 1258000   0.75225849   -8.4452218    218.76791   0.01449178  0.014056448         3468 
 1259000   0.75415902   -8.4557176    218.64347  0.014472033  0.014041022         3458 
 1260000   0.75204332   -8.4391463    218.98352  0.014483037  0.014025632         3507 
 1261000   0.74909903   -8.4379695    218.82557  0.014461114  0.014010269         3528 
 1262000   0.74457103   -8.4342465    218.65989  0.014438714  0.013994892         3587 
 1263000   0.75654893   -8.4330313    218.59092  0.014422732  0.013979528         3526 
 1264000   0.74084119   -8.4560425    218.90754  0.014432195  0.013964181         3493 
 1265000   0.73955802   -8.4551851    218.13731  0.014370046  0.013948876         3556 
 1266000   0.74142255   -8.4757642    218.32013   0.01437073  0.013933566         3548 
 1267000   0.75150189    -8.484819    218.34845   0.01436125  0.013918269         3593 
 1268000   0.74417288   -8.4606723     218.5075  0.014360377  0.013902966         3565 
 1269000    0.7664622   -8.4841523     218.6349  0.014357427  0.013887671         3560 
 1270000   0.75345505   -8.4700351    218.13728   0.01431347  0.013872379         3540 
 1271000   0.73265706    -8.474722    218.55934  0.014329881  0.013857092         3496 
 1272000   0.75388546   -8.4786788    218.17476   0.01429342  0.013841857         3506 
 1273000   0.74262003    -8.465226    218.42392  0.014298502  0.013826617         3549 
 1274000   0.74534827   -8.4807669    217.96238  0.014257089  0.013811405         3601 
 1275000   0.72134046   -8.4513631    218.03472  0.014250636  0.013796198         3557 
 1276000   0.74156333   -8.4776112    218.52472  0.014271468  0.013781018         3543 
 1277000   0.74486432   -8.4846369    218.31461  0.014246581  0.013765843         3508 
 1278000   0.71910644   -8.4714313    218.08108  0.014220206  0.013750706         3540 
 1279000   0.71709562   -8.4893255    217.80545  0.014191129  0.013735584         3566 
 1280000   0.74986378   -8.4767122    218.30357  0.014212472  0.013720449         3578 
 1281000   0.74466741   -8.5069983    217.88531  0.014174168  0.013705353         3592 
 1282000   0.72320378   -8.4878957    218.32102  0.014191434  0.013690264         3570 
 1283000   0.76567756   -8.4902192    218.15618  0.014169666  0.013675203         3547 
 1284000   0.73881539   -8.4781049    218.18235  0.014160329  0.013660157         3536 
 1285000   0.73539662   -8.4725852    217.98302  0.014136383  0.013645126         3563 
 1286000   0.74680687   -8.4916985    218.00858  0.014127047  0.013630122         3542 
 1287000   0.74412277    -8.506573    217.85563  0.014106166  0.013615118         3600 
 1288000   0.74788642   -8.4916953    218.38018  0.014129152  0.013600144         3581 
 1289000   0.72893244   -8.5111755    218.40826  0.014120006  0.013585193         3521 
 1290000   0.74845477   -8.4964063    218.39138   0.01410797  0.013570258         3597 
 1291000   0.73390891   -8.5083682    218.24227  0.014087418  0.013555354         3587 
 1292000   0.74985843   -8.4950824    218.11155  0.014068082  0.013540414         3627 
 1293000   0.73732595   -8.4880921    218.28568  0.014068425  0.013525515         3586 
 1294000   0.73883167   -8.4899581    218.14717  0.014048633  0.013510649         3545 
 1295000    0.7356158   -8.5301019    218.21551  0.014042182  0.013495767         3613 
 1296000   0.74468502   -8.4975836    218.09601  0.014023663  0.013480935         3609 
 1297000   0.73989159   -8.5186056    217.91692  0.014001344  0.013466127         3594 
 1298000   0.72332104   -8.5025699    218.34543  0.014018068  0.013451323         3593 
 1299000   0.73822065   -8.5096435    218.01148  0.013985853  0.013436554         3597 
 1300000   0.73432597   -8.5172419    218.00666  0.013974786  0.013421781         3611 
 1301000   0.74198126   -8.5004559    218.22774  0.013978205  0.013407046         3592 
 1302000   0.73848619   -8.5260148    218.31951  0.013973343   0.01339233         3649 
 1303000   0.74377728   -8.5015435    218.29973  0.013961354  0.013377622         3633 
 1304000    0.7428605   -8.5312012    217.89066  0.013924505  0.013362916         3643 
 1305000   0.73240457   -8.5422457    218.13924  0.013929709  0.013348238         3654 
 1306000    0.7254398   -8.5167286    217.74423  0.013893838  0.013333577         3667 
 1307000   0.71872214   -8.5062027    218.30993  0.013919277  0.013318945         3629 
 1308000   0.73748164    -8.539773     217.5867  0.013862557  0.013304304         3602 
 1309000   0.72802579   -8.5281966    218.30184  0.013897494  0.013289686         3660 
 1310000   0.72641955   -8.5233858     218.0472  0.013870687  0.013275086         3663 
 1311000   0.74001117   -8.5128421    218.15054  0.013866676  0.013260514         3635 
 1312000   0.72695141   -8.5279081     218.1232   0.01385437  0.013245956         3621 
 1313000   0.74295175   -8.5339356    218.31278   0.01385585  0.013231416         3665 
 1314000   0.72529083   -8.5330783    217.98926  0.013824788  0.013216881         3604 
 1315000   0.74181547   -8.5325112    218.11356  0.013822152  0.013202379         3650 
 1316000   0.72811503   -8.5124907    218.39142  0.013829244  0.013187893         3638 
 1317000   0.73061694   -8.5081116    218.11328  0.013801144  0.013173429         3657 
 1318000   0.73308291   -8.5276599    217.98827  0.013782769  0.013158972         3653 
 1319000    0.7157232   -8.5612335    217.46712  0.013739394  0.013144515         3660 
 1320000   0.71739901   -8.5266932    217.99776  0.013762485  0.013130098         3636 
 1321000   0.71284986   -8.5018019    217.86795  0.013743878  0.013115694         3657 
 1322000   0.71938113   -8.5122224    218.21682  0.013755473   0.01310132         3634 
 1323000    0.7223557   -8.5084531    218.06079  0.013735248  0.013086942         3643 
 1324000   0.72457698   -8.5335855    217.79553  0.013708178    0.0130726         3681 
 1325000   0.71174279   -8.5081065    217.84634  0.013701028  0.013058267         3659 
 1326000   0.71592328   -8.5450923    217.74399  0.013684263  0.013043967         3658 
 1327000   0.72347431   -8.5444002    217.73523  0.013673401  0.013029665         3602 
 1328000   0.72737805   -8.5366791    218.34102  0.013701118  0.013015395         3667 
 1329000   0.73239961   -8.5146111    217.85983  0.013660637  0.013001148         3666 
 1330000     0.723938   -8.5239296    217.97054  0.013657302  0.012986901         3666 
 1331000   0.71958914   -8.5451478    217.76436  0.013634132  0.012972675         3661 
 1332000     0.722154   -8.5523709    217.68568  0.013618974  0.012958465         3652 
 1333000   0.70922835   -8.5406745    217.44422  0.013593662  0.012944275         3706 
 1334000   0.73739126   -8.5390291     217.6967  0.013599244  0.012930106         3661 
 1335000   0.72533942   -8.5424134    218.12436  0.013615753  0.012915955         3675 
 1336000   0.72137179   -8.5436641    217.72665  0.013580754  0.012901819         3658 
 1337000   0.71591231   -8.5255744    217.93209  0.013583401  0.012887728         3641 
 1338000   0.71550112   -8.5627644    217.76542  0.013562869  0.012873646         3598 
 1339000   0.71706271   -8.5575828    217.56906  0.013540519  0.012859596         3655 
 1340000   0.72607199   -8.5626602    217.79211  0.013544285  0.012845542         3661 
 1341000   0.72695522   -8.5267793    217.95589  0.013544363  0.012831521         3683 
 1342000   0.71440646   -8.5545046    217.99068  0.013536431  0.012817528         3651 
 1343000   0.71352012   -8.5234148    218.02489  0.013528474  0.012803538         3607 
 1344000   0.72088989   -8.5573887    217.51878  0.013487028  0.012789535         3644 
 1345000   0.71827601   -8.5456096    218.01132  0.013507516  0.012775571         3612 
 1346000   0.72292775    -8.535174    217.81649  0.013485419  0.012761637         3641 
 1347000   0.71325124   -8.5393152    217.71613  0.013469199   0.01274771         3659 
 1348000   0.71306376   -8.5651277    217.91629  0.013471581   0.01273381         3636 
 1349000   0.70269922   -8.5666574    218.01835  0.013467899   0.01271993         3628 
 1350000   0.71331847   -8.5485532    217.79652   0.01344423  0.012706027         3641 
 1351000     0.719093   -8.5477147    217.50589  0.013416351   0.01269217         3648 
 1352000   0.70247704   -8.5484395    217.92991  0.013432564   0.01267832         3652 
 1353000   0.70392366   -8.5685317    217.67346  0.013406841  0.012664479         3673 
 1354000   0.70220194   -8.5565339    217.87588  0.013409397  0.012650672         3711 
 1355000   0.69874002   -8.5552687    217.79666  0.013394628  0.012636889         3696 
 1356000   0.72717033    -8.566806    217.49637  0.013366296  0.012623127         3765 
 1357000   0.70990452   -8.5774873    217.47327  0.013355027  0.012609357         3679 
 1358000   0.70123464   -8.5678429    217.23282  0.013330438   0.01259561         3697 
 1359000   0.71095386   -8.5575607     218.0847  0.013372866  0.012581903         3674 
 1360000   0.71426457   -8.5623082    217.01378  0.013297413  0.012568235         3659 
 1361000   0.71389824   -8.5663039    217.76691  0.013333757  0.012554554         3670 
 1362000   0.71692058   -8.5235149    218.28843  0.013355876  0.012540921         3547 
 1363000   0.72081099   -8.5494641    218.08247  0.013333484  0.012527288         3695 
 1364000    0.7000988   -8.5642501    218.09196  0.013324289  0.012513676         3694 
 1365000   0.70441164   -8.5868268    217.59807  0.013284376  0.012500059         3627 
 1366000   0.72925057   -8.5677429    217.88487  0.013292147  0.012486477         3670 
 1367000   0.70744581   -8.5416582     217.9078  0.013283821  0.012472915         3696 
 1368000   0.71091747   -8.5634368    217.99129  0.013279196  0.012459377         3660 
 1369000   0.69929042   -8.5834455    217.58289  0.013244636  0.012445835         3639 
 1370000   0.71197356   -8.5763101    217.08854  0.013204899  0.012432304         3648 
 1371000   0.70315771   -8.5509851    217.38112  0.013213051  0.012418803         3626 
 1372000   0.70698976   -8.5821139    217.37373  0.013202972  0.012405323         3696 
 1373000   0.69714624   -8.5711347    217.98006  0.013230157   0.01239186         3654 
 1374000   0.70832588   -8.5591918    217.84677  0.013212444    0.0123784         3683 
 1375000    0.7080433   -8.5726888    217.52937  0.013183598  0.012364967         3640 
 1376000   0.70656504   -8.5823803    217.25785  0.013157573  0.012351523         3651 
 1377000   0.70564958   -8.5799774    217.63413   0.01317079  0.012338095         3673 
 1378000   0.69444447   -8.5792095    217.37635  0.013145643  0.012324701         3673 
 1379000   0.69911609   -8.5487413    218.24516  0.013188613  0.012311332         3657 
 1380000   0.71583366   -8.5828627    217.41977  0.013129213   0.01229797         3654 
 1381000   0.69640711   -8.5706068    217.81935  0.013143818  0.012284636         3693 
 1382000   0.70981188   -8.6031011      217.197   0.01309678  0.012271295         3682 
 1383000   0.69771571   -8.5955288    217.46436   0.01310342  0.012257989         3691 
 1384000   0.69635703   -8.5810465     217.5393  0.013098465  0.012244693         3665 
 1385000   0.69627488   -8.5819849    217.49906  0.013086586  0.012231422         3690 
 1386000   0.69393253   -8.5587781    217.68588  0.013088376  0.012218175         3643 
 1387000   0.70296186   -8.5857161    217.12506  0.013045245  0.012204952         3681 
 1388000   0.67617334   -8.5953419    217.71029  0.013070983  0.012191704         3709 
 1389000   0.69307241   -8.6017653    217.45423   0.01304621  0.012178489         3744 
 1390000   0.68560439   -8.5632224     217.2551  0.013024886   0.01216528         3699 
 1391000   0.71383329   -8.6054402    217.17087  0.013010476  0.012152086         3735 
 1392000    0.6884623   -8.5841309    217.36662  0.013012848  0.012138911         3668 
 1393000   0.70386923   -8.6049817    217.57144   0.01301576  0.012125766         3656 
 1394000   0.68836488   -8.5971503    217.30236  0.012990337   0.01211262         3692 
 1395000   0.68799777   -8.6100781    217.33562  0.012983012  0.012099495         3657 
 1396000   0.70606571   -8.5994518    216.91249  0.012948453  0.012086401         3716 
 1397000   0.69763492   -8.6176162    217.35927  0.012965836  0.012073326         3699 
 1398000   0.70012687   -8.6079792    217.35803  0.012956487  0.012060246         3707 
 1399000   0.69913047   -8.5948085    217.54044  0.012958091   0.01204718         3699 
 1400000   0.69034412   -8.5942237    217.75338  0.012961511  0.012034149         3712 
 1401000   0.69510785   -8.6091664    217.32887  0.012927008  0.012021132         3666 
 1402000   0.69502071   -8.5911324    217.74379   0.01294245  0.012008138         3724 
 1403000   0.69881709   -8.6211621     217.4025  0.012912954  0.011995164         3656 
 1404000   0.68667876   -8.6285895    216.81622  0.012868959  0.011982183         3728 
 1405000    0.6742619   -8.6215761    217.28866  0.012887821  0.011969228         3730 
 1406000   0.69473019   -8.6021606    217.64367  0.012899696  0.011956293         3708 
 1407000   0.68476551   -8.6128516    217.08619  0.012857509   0.01194338         3719 
 1408000   0.69195452   -8.6129087    217.05907  0.012846772  0.011930487         3724 
 1409000   0.68548238   -8.6210145    216.81908  0.012823461  0.011917601         3733 
 1410000   0.67662728    -8.596281    216.86402  0.012817022  0.011904724         3706 
 1411000   0.67294272   -8.5989612    217.43344  0.012841569  0.011891865         3719 
 1412000    0.6910522   -8.6218032    216.95147  0.012804029  0.011879022         3761 
 1413000   0.69972027   -8.6213216    217.10221  0.012803858  0.011866198         3728 
 1414000   0.67650943   -8.6296754    216.70803  0.012771572  0.011853371         3730 
 1415000   0.68092055   -8.6298151    216.77425  0.012766446  0.011840558         3709 
 1416000   0.68839468   -8.6133516    217.13909  0.012778901   0.01182776         3714 
 1417000    0.6984057   -8.6092739    217.06315  0.012765417  0.011815012         3778 
 1418000   0.68733588   -8.5957881    217.23857  0.012766723  0.011802266         3757 
 1419000   0.69919941   -8.5998476    216.77136  0.012730289  0.011789544         3716 
 1420000   0.68156438   -8.6041208    217.00733  0.012735172  0.011776827         3684 
 1421000   0.68763829     -8.60855    217.02455   0.01272722  0.011764133         3702 
 1422000   0.68227369   -8.6233816    217.53741  0.012748325  0.011751456         3724 
 1423000   0.69487477   -8.6138719    217.31727  0.012726474  0.011738791         3738 
 1424000   0.67697314   -8.6062705    217.37383  0.012720847  0.011726158         3712 
 1425000   0.67761098   -8.6155346    216.94091  0.012686603  0.011713523         3756 
 1426000   0.69734985    -8.621017    216.78554  0.012668627  0.011700913         3760 
 1427000   0.68771115   -8.6366794    217.37175  0.012693982  0.011688311         3774 
 1428000   0.69123102   -8.6440947     216.7276  0.012647502  0.011675713         3761 
 1429000   0.67981998    -8.623355    217.01482  0.012655401  0.011663149         3718 
 1430000   0.67497659   -8.6157768    217.21686  0.012658325  0.011650602         3714 
 1431000   0.69432479   -8.6297939    216.95244  0.012634081  0.011638072         3720 
 1432000   0.68646976    -8.632055    217.30525  0.012645789  0.011625561         3757 
 1433000     0.677579   -8.6204267    217.13206  0.012626894  0.011613049         3774 
 1434000   0.67172801   -8.6204706    217.06031  0.012613919  0.011600566         3712 
 1435000   0.68592255   -8.6498631    216.65056  0.012581333  0.011588089         3774 
 1436000   0.66786178   -8.6333047    217.21694   0.01260544  0.011575624         3748 
 1437000   0.67223482   -8.6331277    217.28998  0.012600904  0.011563167         3707 
 1438000   0.66697373   -8.6472906     216.8172  0.012564742  0.011550736         3743 
 1439000   0.66957156   -8.6275317     217.2204  0.012579361  0.011538331         3782 
 1440000   0.67248204   -8.6341022    216.65583  0.012537953  0.011525935         3740 
 1441000   0.67328644   -8.6355647    217.62037  0.012585032   0.01151356         3777 
 1442000   0.68951369    -8.638568    217.11615  0.012547165  0.011501202         3765 
 1443000   0.68146477   -8.6386947    216.75079  0.012517371  0.011488854         3728 
 1444000    0.6790511   -8.6253203    217.19189  0.012534158  0.011476532         3744 
 1445000   0.68216884   -8.6298288    216.93505  0.012510672  0.011464221         3772 
 1446000   0.67993045   -8.6223744    216.95131  0.012502957  0.011451922         3738 
 1447000   0.69532415   -8.6453012    216.25403   0.01245416  0.011439641         3775 
 1448000   0.67295772   -8.6416628    217.02652  0.012490016  0.011427385         3760 
 1449000   0.67468278    -8.627423    217.02674  0.012481409  0.011415133         3762 
 1450000   0.67588244   -8.6185501     216.8012  0.012459839  0.011402909         3760 
 1451000   0.66183336   -8.6326838    216.95032  0.012459816  0.011390709         3771 
 1452000   0.68154776   -8.6462935    216.70341  0.012437064   0.01137851         3787 
 1453000   0.68331293   -8.6391115    216.72788  0.012429908  0.011366328         3737 
 1454000   0.67069966   -8.6375376    216.32371  0.012398195  0.011354164         3759 
 1455000   0.67183594   -8.6259001    217.37517  0.012449895  0.011342022         3735 
 1456000   0.68816212   -8.6347636    216.79795  0.012408308  0.011329899         3774 
 1457000   0.65997088   -8.6535278    216.79251   0.01239948  0.011317783         3781 
 1458000    0.6684149   -8.6267949    216.54817   0.01237701  0.011305685         3783 
 1459000   0.66698446   -8.6598072    216.15431  0.012346031  0.011293605         3804 
 1460000   0.67949755   -8.6467498    216.79599    0.0123742  0.011281522         3793 
 1461000   0.67034505   -8.6517666    217.10108  0.012383132  0.011269452         3744 
 1462000   0.66945596     -8.64845    216.68232  0.012350793   0.01125743         3782 
 1463000   0.67628209   -8.6429505    216.79542  0.012348793  0.011245412         3772 
 1464000   0.66325968   -8.6571749    216.71882  0.012335998  0.011233416         3772 
 1465000   0.65456466   -8.6267085      216.855  0.012335324  0.011221437         3755 
 1466000   0.67774498   -8.6342132    217.05865  0.012338486  0.011209469         3764 
 1467000   0.67447531   -8.6526551    216.51974  0.012299463  0.011197503         3775 
 1468000   0.66863116   -8.6512764    217.19461  0.012329394  0.011185577         3790 
 1469000   0.66899085   -8.6653357    217.04363  0.012312437  0.011173667         3737 
 1470000    0.6743859   -8.6540615    216.53841   0.01227542  0.011161763         3804 
 1471000    0.6658073   -8.6446186    216.72104  0.012277421  0.011149888         3783 
 1472000   0.66306165   -8.6527527    216.78291  0.012272583  0.011138014         3780 
 1473000   0.66626865   -8.6384458    216.48554  0.012247428  0.011126158         3735 
 1474000   0.66870918   -8.6479598    216.63529  0.012247585  0.011114302         3767 
 1475000   0.66478415   -8.6819498    216.52901  0.012233277  0.011102469         3775 
 1476000   0.68659378   -8.6603462     216.6862  0.012233864  0.011090672         3761 
 1477000   0.65781382   -8.6495533    216.33575  0.012205808  0.011078865         3785 
 1478000   0.66483431   -8.6623936    216.68974  0.012217509  0.011067096         3821 
 1479000   0.65378546   -8.6564202    216.95192  0.012224021  0.011055339         3773 
 1480000   0.66898269   -8.6755506    216.57188  0.012194363  0.011043599         3775 
 1481000   0.65802292   -8.6734683    216.78763  0.012198269   0.01103187         3816 
 1482000    0.6643348    -8.666419    216.65754  0.012182723  0.011020158         3787 
 1483000   0.66450205   -8.6444355     216.8841  0.012187239   0.01100846         3778 
 1484000   0.65661665   -8.6570538    216.67457   0.01216726  0.010996798         3804 
 1485000   0.66755563   -8.6434139    216.54682  0.012151898  0.010985129         3740 
 1486000   0.66331843   -8.6489925    216.43242  0.012137305   0.01097348         3789 
 1487000   0.66426418      -8.6593    216.53302  0.012134781  0.010961846         3795 
 1488000   0.66353333    -8.662158    217.02094  0.012153951  0.010950219         3814 
 1489000   0.64995496   -8.6736113    216.65943  0.012125555  0.010938619         3787 
 1490000   0.66466097     -8.66859     216.5535  0.012111493  0.010927031         3781 
 1491000   0.64924998   -8.6585808    216.29739  0.012089056  0.010915453         3782 
 1492000   0.66563017   -8.6626631    216.66482  0.012101476  0.010903902         3787 
 1493000   0.66020098   -8.6679399    216.19371  0.012067075   0.01089236         3760 
 1494000   0.64191434     -8.64685    216.55981  0.012079418  0.010880833         3769 
 1495000   0.65610505   -8.6619222    216.65758  0.012076788  0.010869315         3776 
 1496000   0.64937209   -8.6635817    216.49078  0.012059424  0.010857815         3753 
 1497000   0.64915185   -8.6735498    216.54567  0.012054424  0.010846325         3781 
 1498000   0.66575587   -8.6673843    216.29919  0.012032665  0.010834861         3802 
 1499000   0.65313201   -8.6757354    216.42323  0.012031534  0.010823415         3765 
 1500000   0.66294636   -8.6722807    216.60842  0.012033801  0.010811956         3781 
 1501000   0.64878189   -8.6718822    216.72041  0.012032002  0.010800526         3761 
 1502000   0.65379274   -8.6565916    216.57269  0.012015795  0.010789115         3743 
 1503000   0.63355339   -8.6759105    215.94298  0.011972887  0.010777718         3826 
 1504000   0.65872267   -8.6856535    216.19858  0.011979088  0.010766324         3797 
 1505000   0.66556462    -8.678856    216.38903  0.011981674  0.010754936         3763 
 1506000   0.65617962   -8.6775751    216.49566  0.011979618  0.010743591         3789 
 1507000   0.67333864   -8.6709727    216.60538  0.011977736  0.010732262         3762 
 1508000   0.66008852   -8.6914104    216.67479  0.011973629  0.010720936         3795 
 1509000   0.68221659   -8.6818399    216.44612  0.011953066  0.010709629         3778 
 1510000   0.64789593    -8.670302    215.98969  0.011919961  0.010698333         3832 
 1511000   0.65165735    -8.685157    216.06984  0.011916492  0.010687059         3788 
 1512000   0.66138555   -8.6792339    216.21459  0.011916589  0.010675797         3812 
 1513000   0.64991336   -8.6933011    216.56335  0.011927922  0.010664553         3797 
 1514000   0.65158353   -8.6694153     216.4444  0.011913496   0.01065332         3793 
 1515000   0.66096353   -8.6967162    216.42091  0.011904341  0.010642106         3783 
 1516000   0.64461812   -8.6497826     216.7561  0.011914913  0.010630924         3763 
 1517000   0.64176102   -8.6802701    216.48828  0.011892347  0.010619755         3821 
 1518000   0.64312071   -8.6724483    216.21792  0.011869671  0.010608588         3786 
 1519000   0.66613527   -8.6867607    216.41805  0.011872836  0.010597435         3823 
 1520000   0.63945306   -8.6826401    216.43209  0.011865795  0.010586298         3833 
 1521000   0.64613604   -8.6807246    216.55261  0.011864596  0.010575186         3775 
 1522000   0.63672254    -8.681378       215.98  0.011825449  0.010564065         3784 
 1523000   0.64608201   -8.6849807    216.03382  0.011820629  0.010552974         3787 
 1524000   0.66180007   -8.6823459    216.05293  0.011813918  0.010541903         3810 
 1525000   0.64186828   -8.6918626    216.23412  0.011816072  0.010530847         3745 
 1526000    0.6440645   -8.6922323    215.97423  0.011794137    0.0105198         3753 
 1527000   0.63918983   -8.6912559    216.14091  0.011795509  0.010508776         3782 
 1528000   0.65853018   -8.6768032    216.01679   0.01178102  0.010497764         3773 
 1529000   0.64105318   -8.6998927    216.41777   0.01179517  0.010486759         3811 
 1530000   0.64463333   -8.6836178    216.62695  0.011798854  0.010475774         3737 
 1531000   0.64762891    -8.680738    216.48904   0.01178364  0.010464809         3801 
 1532000    0.6445046   -8.6856261    216.37599  0.011769799  0.010453846         3754 
 1533000   0.64039993   -8.6976166    216.03563   0.01174362  0.010442891         3825 
 1534000   0.65247414   -8.6959927    216.50503  0.011761464  0.010431966         3793 
 1535000    0.6393807    -8.710094    215.99913  0.011726337  0.010421042         3780 
 1536000   0.63903191   -8.7001539    216.23553  0.011731528  0.010410143         3806 
 1537000   0.62930385   -8.6867691    216.43302  0.011734603  0.010399252         3790 
 1538000   0.64407671   -8.7045036    216.26846  0.011718057  0.010388387         3764 
 1539000   0.63486994   -8.7035352    216.13922  0.011703445  0.010377523         3792 
 1540000   0.63498116    -8.695072    216.13908  0.011695837  0.010366665         3757 
 1541000    0.6244786   -8.6789439    216.02453  0.011682053  0.010355827         3763 
 1542000   0.63643153   -8.6919575    216.27101  0.011687798  0.010345001         3807 
 1543000   0.64146537    -8.729408    215.80739  0.011655184  0.010334194         3789 
 1544000   0.62786639   -8.6851011     216.4703  0.011683414  0.010323399         3781 
 1545000    0.6275972   -8.7010656    216.49371  0.011677115  0.010312635         3809 
 1546000   0.65177527   -8.7123858    215.89779   0.01163744  0.010301864         3820 
 1547000   0.63594473   -8.6861247     216.5171  0.011663279  0.010291119         3763 
 1548000    0.6440683   -8.7107517    216.04765  0.011630472  0.010280381         3771 
 1549000    0.6156162   -8.7336906     216.0436  0.011622746  0.010269648         3780 
 1550000   0.65183699   -8.7178596    216.09683  0.011618109  0.010258943         3773 
 1551000   0.63786955   -8.6972639    215.93409  0.011601874  0.010248259         3841 
 1552000   0.63910397   -8.6858205    216.06797  0.011601588  0.010237579         3792 
 1553000   0.62312826   -8.7056611    216.15109  0.011598577  0.010226913         3807 
 1554000   0.62801798   -8.6937345    216.40135  0.011604534  0.010216256         3762 
 1555000   0.64575333   -8.6855313    215.92637  0.011571617  0.010205625         3774 
 1556000   0.61972656   -8.7170948    216.19233  0.011578424  0.010195004         3809 
 1557000   0.62968211    -8.726155    215.85163  0.011552752  0.010184395         3803 
 1558000   0.62550021   -8.7117167    216.55001  0.011582692  0.010173797         3735 
 1559000   0.63683844   -8.7239237    216.09453  0.011550915  0.010163216         3798 
 1560000   0.63352217   -8.7187487    216.13642  0.011545749  0.010152649         3817 
 1561000   0.64237131   -8.7251725       215.58  0.011508648    0.0101421         3828 
 1562000   0.63351266   -8.7206027    215.87089    0.0115168   0.01013156         3781 
 1563000   0.62032107    -8.723306    216.04322  0.011518619  0.010121035         3723 
 1564000   0.62390919   -8.7160367    216.09408  0.011513964  0.010110519         3790 
 1565000     0.622666   -8.6964226    216.29224  0.011517158  0.010100018         3825 
 1566000   0.62424557   -8.7173483    216.11529  0.011500388  0.010089545         3709 
 1567000   0.62751835   -8.7199152    215.46793  0.011458622  0.010079062         3773 
 1568000   0.62676908   -8.7336238    215.36113  0.011445638  0.010068601         3787 
 1569000   0.62378202   -8.7352483    216.00533  0.011472559  0.010058156         3793 
 1570000   0.62428606   -8.7086663    215.74448  0.011451405  0.010047731         3719 
 1571000   0.63377869   -8.6959628    216.01838  0.011458645  0.010037319         3818 
 1572000   0.62371444     -8.69347    216.15777  0.011458745  0.010026926         3789 
 1573000   0.63378417   -8.7123317     215.7418  0.011429423  0.010016546         3779 
 1574000   0.62021494   -8.7090361    215.72678  0.011421367  0.010006194         3794 
 1575000   0.62326977   -8.7233325    215.99977  0.011428559 0.0099958439         3761 
 1576000   0.62253326   -8.7305687    215.88335  0.011415152 0.0099854939         3758 
 1577000   0.61995127   -8.7114066    216.28345  0.011429056 0.0099751636         3808 
 1578000   0.63642799   -8.7181693    215.90789   0.01140198 0.0099648508         3744 
 1579000   0.61534854   -8.7102793    215.83167  0.011390736 0.0099545508         3788 
 1580000   0.60761257   -8.7252857     215.8246  0.011383154 0.0099442736         3731 
 1581000   0.63008118   -8.7144454     216.0187  0.011386185 0.0099340064         3756 
 1582000   0.62853185   -8.7232539    215.87832  0.011371593  0.009923758         3769 
 1583000   0.61236909   -8.7099098    216.03992  0.011372917 0.0099135166         3779 
 1584000   0.62742359   -8.7206647    215.96886  0.011361998 0.0099032864         3766 
 1585000   0.60711979   -8.7527219    215.87894  0.011350102 0.0098930649         3742 
 1586000   0.62686539   -8.7374717    216.16295  0.011357868 0.0098828509         3740 
 1587000   0.61472378   -8.7043077    215.90646  0.011337243 0.0098726579         3760 
 1588000   0.63479138   -8.7262155    215.91577  0.011330592 0.0098624859         3788 
 1589000   0.63112133   -8.7397198    215.88349  0.011321769 0.0098523299         3795 
 1590000    0.6086855   -8.7066929    215.93379  0.011317285 0.0098421876         3792 
 1591000    0.6205736   -8.7333296    215.96781  0.011311953 0.0098320467         3802 
 1592000   0.62567502   -8.7383182    215.78235   0.01129514  0.009821918         3764 
 1593000   0.60964602   -8.7571945    215.85887  0.011292052 0.0098117984         3795 
 1594000   0.61290594   -8.7374258    215.96113  0.011290314 0.0098016917         3816 
 1595000   0.61711669   -8.7270486     215.6108  0.011264932 0.0097915947         3805 
 1596000   0.62444946   -8.7278632    215.29052  0.011241151 0.0097815098         3758 
 1597000   0.61928863   -8.7430665    215.83594  0.011262573 0.0097714449         3784 
 1598000   0.61143367   -8.7397081    215.58321  0.011242345 0.0097613932         3818 
 1599000   0.62175819   -8.7420755    215.72733  0.011242825 0.0097513551         3737 
 1600000    0.6139706   -8.7340093    215.45039  0.011221375 0.0097413381         3797 
 1601000   0.61546476   -8.7296063    215.88781  0.011237134 0.0097313239         3750 
 1602000   0.60932176    -8.737338    215.82191  0.011226691 0.0097213169         3769 
 1603000   0.61672876   -8.7413795    215.52385  0.011204193 0.0097113263         3771 
 1604000   0.60579625   -8.7213254    215.62905  0.011202673 0.0097013562         3827 
 1605000    0.6208172   -8.7237897    215.96455  0.011213113 0.0096913982         3768 
 1606000   0.61615945   -8.7551274    215.73592  0.011194267 0.0096814463         3785 
 1607000   0.62201201   -8.7502268    215.71094  0.011186006 0.0096715115         3743 
 1608000   0.61136008   -8.7456279    216.08114  0.011198235 0.0096615879         3765 
 1609000   0.61191044   -8.7351751    216.11242  0.011192895 0.0096516704         3762 
 1610000   0.61467053   -8.7536138    215.58478  0.011158633 0.0096417802         3772 
 1611000   0.61848052   -8.7518193    215.98852  0.011172591 0.0096318934         3780 
 1612000   0.61235608   -8.7453517    216.16915  0.011174997 0.0096220297         3826 
 1613000   0.61150631   -8.7425339    215.36855  0.011126708 0.0096121777         3795 
 1614000   0.59794767   -8.7309306    215.66661  0.011135203 0.0096023349         3812 
 1615000   0.59497708   -8.7358212    215.76477  0.011133373 0.0095925117         3799 
 1616000   0.61712821   -8.7524404    215.70519  0.011123411 0.0095826939         3809 
 1617000   0.60903138    -8.744581    215.70625  0.011116587  0.009572901         3783 
 1618000   0.60428477   -8.7548034    215.60857  0.011104685 0.0095631166         3797 
 1619000   0.61515611   -8.7604379    215.47518  0.011090961 0.0095533439         3807 
 1620000   0.60586557   -8.7501104    215.47803  0.011084261 0.0095435897         3811 
 1621000   0.59882746   -8.7321387    215.51038  0.011079086 0.0095338456         3804 
 1622000   0.59191617    -8.753511    216.04564  0.011099755  0.009524114         3824 
 1623000   0.60881586   -8.7550062    215.40682  0.011060116 0.0095144059         3798 
 1624000   0.59898309   -8.7318874    215.58796    0.0110626 0.0095046991         3834 
 1625000   0.59448187   -8.7381808    215.30826  0.011041449 0.0094949993         3766 
 1626000    0.6107034   -8.7389006    215.68735  0.011054087 0.0094853156         3770 
 1627000   0.59864864   -8.7435725    215.43321  0.011034276  0.009475647         3801 
 1628000   0.60648678   -8.7425864    215.77821  0.011045158 0.0094659847         3775 
 1629000   0.62535977   -8.7243436    215.70197  0.011034478  0.009456348         3813 
 1630000   0.60100509   -8.7538039    215.99168  0.011042519 0.0094467138         3817 
 1631000   0.59357816   -8.7663403    215.28488  0.010999636 0.0094370983         3829 
 1632000   0.59942833    -8.756592    215.50667  0.011004221 0.0094274854         3765 
 1633000   0.60762088   -8.7696568    215.56963  0.011000696 0.0094178896         3810 
 1634000   0.59758157   -8.7745853    215.34071  0.010982288 0.0094083019         3795 
 1635000    0.6050261   -8.7469343    215.70005  0.010993886 0.0093987274         3787 
 1636000    0.5864586   -8.7422109    215.53069   0.01097854  0.009389164         3792 
 1637000   0.59823917   -8.7759749    215.73328  0.010982146 0.0093796165         3806 
 1638000   0.60414568   -8.7636223    215.35471  0.010956182 0.0093700784         3776 
 1639000   0.60591898   -8.7766893    215.32813  0.010948146 0.0093605564         3798 
 1640000   0.61188572   -8.7604228      215.359  0.010943039  0.009351042         3793 
 1641000   0.60357886   -8.7586449    215.55151  0.010946146 0.0093415363         3795 
 1642000   0.60046199    -8.758022    215.25244  0.010924302 0.0093320553         3838 
 1643000    0.6037779   -8.7821915    215.41526  0.010925911  0.009322579         3781 
 1644000   0.61359579   -8.7679998    215.27252  0.010912029 0.0093131203         3771 
 1645000   0.60834806   -8.7666558    215.46127  0.010914958 0.0093036761         3762 
 1646000   0.60457477   -8.7646936    214.85278   0.01087752 0.0092942398         3765 
 1647000    0.5782701   -8.7564967    215.15218  0.010886064 0.0092848134         3764 
 1648000    0.5883345   -8.7688758    215.27245  0.010885541 0.0092754083         3799 
 1649000   0.58748656   -8.7800296     215.4453  0.010887674 0.0092660087         3795 
 1650000   0.59319586   -8.7723947    215.63018  0.010890413 0.0092566193         3830 
 1651000   0.59054384   -8.7659046    215.44375  0.010874407 0.0092472359         3772 
 1652000   0.59157326   -8.7705302    215.56576  0.010873979 0.0092378825         3758 
 1653000   0.59510278   -8.7647149    215.69737  0.010874036  0.009228526         3784 
 1654000   0.59407663   -8.7564049    215.47387  0.010856201 0.0092191862         3780 
 1655000   0.59371558   -8.7782266    215.42619   0.01084724 0.0092098663         3798 
 1656000   0.59475182   -8.7886532    215.05003  0.010821761 0.0092005526         3766 
 1657000   0.59400589   -8.7742278    215.38659  0.010832156 0.0091912517         3796 
 1658000   0.59013071   -8.7716393    215.41765  0.010827184 0.0091819649         3796 
 1659000   0.59782433   -8.7816232    215.45371  0.010822469 0.0091726879         3804 
 1660000   0.59978427   -8.7793654    215.66728  0.010826671 0.0091634274         3752 
 1661000   0.59192486   -8.7602055    215.53919  0.010813726 0.0091541772         3773 
 1662000   0.59062583   -8.7841061    215.18826  0.010789624 0.0091449462         3745 
 1663000   0.58519667   -8.7800995    215.58719  0.010803126 0.0091357197         3777 
 1664000   0.59382368   -8.7737007    215.58399  0.010796474  0.009126508         3778 
 1665000   0.58563519   -8.7541176    215.44455   0.01078301 0.0091173094         3771 
 1666000   0.58309184   -8.7754425    215.76615  0.010792624 0.0091081211         3737 
 1667000   0.58078883   -8.7808259    215.15141   0.01075542 0.0090989533         3826 
 1668000   0.58682646   -8.7636196    215.16315  0.010749558 0.0090897842         3773 
 1669000   0.58188052   -8.7863567    215.11774   0.01074085 0.0090806359         3775 
 1670000   0.58935408   -8.7708035     215.0407  0.010730574 0.0090714946         3800 
 1671000   0.58937905    -8.765053    215.04857  0.010724545 0.0090623699         3764 
 1672000   0.59497085   -8.7655915    215.42336   0.01073681 0.0090532593         3768 
 1673000   0.58627975   -8.7979175    215.11383  0.010714975 0.0090441607         3797 
 1674000   0.58728603   -8.7992481    215.41986  0.010723808 0.0090350703         3781 
 1675000   0.58362895   -8.7657447    215.23638  0.010708278 0.0090259858         3774 
 1676000   0.59217302    -8.798757    215.17955  0.010699063 0.0090169219         3769 
 1677000    0.5720194   -8.7774083    215.28437  0.010697892 0.0090078643         3759 
 1678000   0.57993541   -8.8048725    215.16603  0.010685639 0.0089988108         3773 
 1679000   0.57957548   -8.7871985    215.22965  0.010682432 0.0089897764         3806 
 1680000   0.58694188   -8.7999833    215.22021  0.010675606 0.0089807458         3785 
 1681000   0.58376271   -8.7746574    215.12821  0.010664694 0.0089717304         3733 
 1682000    0.5811999   -8.8111914    214.89532  0.010646815 0.0089627243         3767 
 1683000   0.57925151   -8.7767407    215.18643  0.010654904 0.0089537391         3808 
 1684000   0.58215445   -8.7911834    215.31288  0.010654834 0.0089447624         3757 
 1685000   0.58119713   -8.7847878    215.17635  0.010641758 0.0089357978         3789 
 1686000   0.57848535   -8.8136727    214.73226  0.010613496 0.0089268518         3736 
 1687000   0.58526953   -8.7977139    215.45801  0.010643055 0.0089179136         3756 
 1688000   0.56194422   -8.8034138    215.19178  0.010623607 0.0089089867         3803 
 1689000   0.57834146   -8.8069765    215.14587  0.010615052 0.0089000748         3760 
 1690000   0.58602246    -8.800218    215.34724    0.0106187  0.008891172         3766 
 1691000   0.58437855   -8.8046525    215.71592  0.010630589 0.0088822814         3795 
 1692000   0.56253429   -8.7888347    215.28499  0.010603083 0.0088734001         3778 
 1693000   0.58478754   -8.7957991    215.23976  0.010594594 0.0088645367         3815 
 1694000   0.58098987   -8.7977683    214.95575  0.010574368  0.008855678         3792 
 1695000   0.57175036   -8.7881734    215.05475  0.010572997 0.0088468416         3786 
 1696000   0.57872251   -8.8047121    215.42698  0.010585052  0.008838006         3788 
 1697000   0.57084615   -8.7981518    215.21534  0.010568422 0.0088291815         3837 
 1698000   0.57827453   -8.8017715    215.41625  0.010572058 0.0088203764         3790 
 1699000   0.57812971   -8.8087244    214.98951  0.010544904 0.0088115814         3820 
 1700000   0.58062453   -8.7965089    215.00259  0.010539342 0.0088027871         3776 
 1701000   0.56915148   -8.8032348    215.04112  0.010535034 0.0087940131         3773 
 1702000   0.57429179   -8.8056747    215.09608  0.010531536 0.0087852469         3801 
 1703000   0.57790105   -8.7979181    214.95591  0.010518492 0.0087764877         3721 
 1704000    0.5641887   -8.8000079    214.92593  0.010510853 0.0087677432         3788 
 1705000   0.58555746   -8.7865043    215.07685  0.010512065 0.0087590162         3814 
 1706000   0.56169479   -8.7996222    215.14694  0.010509327 0.0087502956         3817 
 1707000   0.55755787   -8.7920642    214.94277  0.010493203 0.0087415845         3760 
 1708000   0.57067999   -8.8058873    214.67927  0.010474203  0.008732891         3813 
 1709000   0.57419504   -8.8051745    215.09128  0.010488165 0.0087241997         3803 
 1710000   0.56968971   -8.8036955    214.83929  0.010469751 0.0087155184         3831 
 1711000   0.56863375   -8.7809638    214.85738  0.010464513 0.0087068575         3744 
 1712000    0.5643447   -8.8179197    215.45448  0.010487465 0.0086982024         3755 
 1713000   0.56523907   -8.7965844     215.1724   0.01046762  0.008689557         3789 
 1714000   0.58210386   -8.8055013    215.17582  0.010461679 0.0086809186         3759 
 1715000   0.57788702   -8.8090256    215.07854  0.010450852 0.0086723009         3783 
 1716000   0.57808796   -8.8112286    214.93114  0.010437604 0.0086636956         3812 
 1717000   0.57265149   -8.8296362    215.22347  0.010445713 0.0086550937         3800 
 1718000    0.5593189   -8.8185522    214.67443  0.010413001 0.0086465083         3787 
 1719000    0.5731197     -8.82072    214.90571  0.010418155 0.0086379334         3803 
 1720000   0.56914719   -8.8151815    214.75918  0.010404999 0.0086293695         3824 
 1721000   0.57552949   -8.8055934    214.72259  0.010397181 0.0086208134         3764 
 1722000   0.56294656    -8.824372    214.78292  0.010394063 0.0086122618         3784 
 1723000   0.56753182   -8.8138628     215.1621   0.01040637 0.0086037335         3780 
 1724000   0.56104999    -8.823035    214.98595  0.010391819 0.0085952119         3748 
 1725000   0.56312774   -8.8232691    215.47528  0.010409434 0.0085867144         3785 
 1726000    0.5508133   -8.8256855    214.99048  0.010379996 0.0085782165         3807 
 1727000   0.56177768   -8.8273468    214.94061  0.010371579 0.0085697267         3757 
 1728000   0.56270629   -8.8202926    215.10053  0.010373289 0.0085612562         3782 
 1729000   0.57042065   -8.8319082    214.56581  0.010341518 0.0085527889         3837 
 1730000   0.57927518   -8.8149187    214.89073  0.010351191 0.0085443373         3765 
 1731000   0.56771619   -8.8311164    214.87937  0.010344664  0.008535904         3811 
 1732000   0.56691568    -8.825698    214.76661  0.010333266 0.0085274779         3771 
 1733000   0.57240349    -8.813007    214.78929  0.010328395 0.0085190564         3816 
 1734000   0.57308712   -8.8208362    214.70783  0.010318523 0.0085106468         3771 
 1735000   0.56591999   -8.7969161    214.78422  0.010316245 0.0085022439         3810 
 1736000   0.56149392   -8.8286759    214.64318  0.010303532 0.0084938503         3780 
 1737000   0.55129563   -8.8220762    214.82921  0.010306525 0.0084854708         3811 
 1738000   0.56924345   -8.8254172    214.94211  0.010306008 0.0084771012         3767 
 1739000   0.55127268   -8.8171009     214.7881  0.010292702 0.0084687481         3755 
 1740000   0.55023764   -8.8381051    214.98517  0.010296225 0.0084604032         3775 
 1741000   0.55544256   -8.8035674     215.1266   0.01029708 0.0084520612         3781 
 1742000   0.55920679   -8.8328123    214.79867  0.010275482  0.008443745         3807 
 1743000   0.55891587   -8.8241108    214.75793  0.010267638 0.0084354396         3825 
 1744000   0.55565715   -8.8352381    214.60901  0.010254635 0.0084271392         3796 
 1745000   0.54969496   -8.8156586     214.8361  0.010259604 0.0084188521         3793 
 1746000   0.54196173   -8.8212872    214.75257  0.010249741 0.0084105683         3786 
 1747000   0.56360245   -8.8316552    215.18961  0.010264721 0.0084023014         3773 
 1748000   0.55135755   -8.8168072    214.71151  0.010236056 0.0083940508         3821 
 1749000    0.5586212   -8.8316718    214.75704  0.010232373 0.0083858037         3767 
 1750000   0.54715413   -8.8351083    214.80568  0.010228842 0.0083775658         3789 
 1751000   0.55252471   -8.8321728    214.79036  0.010222271 0.0083693356         3743 
 1752000   0.54804382   -8.8226831    214.88131  0.010220762 0.0083611277         3772 
 1753000   0.55396455   -8.8169726     214.9297  0.010217232 0.0083529268         3810 
 1754000    0.5563014   -8.8341319    214.79098  0.010204817 0.0083447345         3784 
 1755000   0.55563304   -8.8269025     214.8173  0.010200252 0.0083365521         3787 
 1756000   0.54491903   -8.8304344    214.66697  0.010187309 0.0083283755         3810 
 1757000   0.54712663   -8.8240346    214.25269  0.010161862 0.0083202082         3788 
 1758000   0.54806876   -8.8338659    214.42193  0.010164104  0.008312062         3796 
 1759000   0.55916196   -8.8297924     214.6093  0.010167202 0.0083039317         3799 
 1760000   0.54984611   -8.8419414    214.35036  0.010149165  0.008295803         3763 
 1761000   0.54611732   -8.8510436    214.28406  0.010140264 0.0082876783         3820 
 1762000   0.55443968   -8.8497045    214.66348  0.010152454 0.0082795669         3770 
 1763000   0.55765793    -8.847175    214.49067  0.010138527 0.0082714692         3796 
 1764000   0.55646084   -8.8226065    214.55234  0.010135692 0.0082633825         3809 
 1765000   0.54915734   -8.8281312    215.03309  0.010152648 0.0082553057         3794 
 1766000   0.54233389   -8.8215494    214.38036  0.010116099 0.0082472402         3778 
 1767000   0.54635916   -8.8319473    214.55034   0.01011839 0.0082391821         3800 
 1768000   0.55054798   -8.8481675    214.92074  0.010130125 0.0082311329         3794 
 1769000   0.54578866    -8.827977     214.5746  0.010108093 0.0082231028         3809 
 1770000   0.55156846   -8.8498994    214.16002  0.010082863 0.0082150809         3821 
 1771000   0.55246701   -8.8601822    214.38242  0.010087635 0.0082070666         3774 
 1772000   0.53986262   -8.8435977    214.60905    0.0100926 0.0081990601         3805 
 1773000   0.54350912   -8.8532163    214.75511  0.010093773 0.0081910677         3778 
 1774000   0.53280627   -8.8425803    214.28888  0.010066182 0.0081830861         3793 
 1775000    0.5423102   -8.8268854    214.33489  0.010062671 0.0081751137         3793 
 1776000   0.54411038   -8.8429708    214.62167  0.010070461 0.0081671503         3808 
 1777000   0.56127223   -8.8536169      214.617  0.010064575  0.008159203         3752 
 1778000   0.55060591   -8.8577773     214.8106  0.010067988 0.0081512629         3784 
 1779000   0.54794464   -8.8519788    214.39452  0.010042839 0.0081433282         3791 
 1780000    0.5508182   -8.8492641    214.57957   0.01004586 0.0081354039         3784 
 1781000   0.55310516   -8.8307165    214.67766  0.010044809 0.0081274954         3791 
 1782000    0.5400114   -8.8384793    214.69728   0.01004009 0.0081195991         3793 
 1783000   0.53649709   -8.8488822    214.82915  0.010040622 0.0081117107         3816 
 1784000   0.53432343   -8.8517394    214.71093  0.010029472 0.0081038365         3803 
 1785000   0.53245118   -8.8616525     214.4328  0.010010868   0.00809597         3792 
 1786000   0.53500548   -8.8518332    214.65337  0.010015555 0.0080881194         3765 
 1787000    0.5456365   -8.8492109    214.61051  0.010007952 0.0080802669         3772 
 1788000   0.53828308   -8.8593135    214.73632  0.010008218 0.0080724253         3795 
 1789000   0.52547128   -8.8619321    214.67787  0.009999901 0.0080645937         3799 
 1790000   0.53344192   -8.8540449     214.3774 0.0099803259 0.0080567745         3834 
 1791000   0.54811606    -8.862011    214.43713 0.0099775326 0.0080489627         3823 
 1792000   0.53966395   -8.8565647    214.62641 0.0099807669 0.0080411682         3829 
 1793000   0.53852377   -8.8691794    214.30193 0.0099601193 0.0080333751         3818 
 1794000   0.54246085   -8.8537352    214.45008 0.0099614493    0.0080256         3768 
 1795000   0.54926552   -8.8518376    214.73531 0.0099691418 0.0080178311         3786 
 1796000    0.5340102    -8.849815    214.41343  0.009948656 0.0080100726         3789 
 1797000   0.54133852   -8.8506804    214.51075 0.0099476327 0.0080023173         3802 
 1798000   0.53920135   -8.8739206    214.41278 0.0099375593 0.0079945712         3822 
 1799000   0.53969687   -8.8450491    214.45994   0.00993422 0.0079868371         3788 
 1800000   0.53877577   -8.8782858    214.41964 0.0099268352 0.0079791177         3806 
 1801000   0.52003602   -8.8561877    214.38719 0.0099198221 0.0079714008         3800 
 1802000   0.53386693   -8.8589346    214.49876 0.0099194764 0.0079636957         3809 
 1803000   0.53202709   -8.8686054    214.19618 0.0098999899 0.0079560068         3800 
 1804000   0.53791097   -8.8703468    214.18159 0.0098938282 0.0079483218         3820 
 1805000   0.54462696    -8.863285    214.17907 0.0098882302 0.0079406507         3790 
 1806000   0.52710913    -8.885462    214.48898 0.0098970551 0.0079329871         3798 
 1807000   0.52241135   -8.8664807    214.28571 0.0098822041 0.0079253319         3801 
 1808000   0.52999592   -8.8662272      214.641 0.0098931141 0.0079176929         3783 
 1809000   0.53312114   -8.8537163     214.5096 0.0098815919 0.0079100556         3802 
 1810000   0.52813465   -8.8669663    214.50608 0.0098759703 0.0079024299         3808 
 1811000   0.54010815   -8.8551502    214.24326 0.0098584236 0.0078948188         3786 
 1812000   0.52811857   -8.8743159    214.30371 0.0098557629 0.0078872122         3832 
 1813000    0.5230767   -8.8700455    214.28405  0.009849423 0.0078796203         3793 
 1814000   0.52579928   -8.8568401    214.41985 0.0098502321 0.0078720288         3807 
 1815000    0.5422285   -8.8675772    214.31885 0.0098401677 0.0078644578         3776 
 1816000   0.52615012   -8.8821118    214.32021 0.0098348114 0.0078568929         3836 
 1817000   0.54114306   -8.8711492    214.39464 0.0098328122 0.0078493351         3787 
 1818000   0.53459258   -8.8763337    214.45007 0.0098299446 0.0078417885         3824 
 1819000    0.5384528   -8.8663951    214.42516 0.0098233994 0.0078342543         3822 
 1820000   0.52751571   -8.8680687    214.26731 0.0098107741 0.0078267296         3823 
 1821000   0.52133722   -8.8603598    214.29841 0.0098068098  0.007819211         3767 
 1822000   0.52794199   -8.8857411    214.52513 0.0098117972 0.0078117048         3835 
 1823000   0.52555971   -8.8686239    214.13383 0.0097885278 0.0078042037         3788 
 1824000     0.528263   -8.8753737    214.61126 0.0098049734 0.0077967174         3831 
 1825000   0.52949791   -8.8685392    213.95679 0.0097697164 0.0077892336         3835 
 1826000    0.5177597   -8.8773327    214.17781 0.0097744526 0.0077817602         3805 
 1827000   0.53076026   -8.8604544    214.24042 0.0097719587 0.0077743002         3831 
 1828000   0.51068999   -8.8751967    214.16631 0.0097632343 0.0077668482         3791 
 1829000     0.513726   -8.8521952     214.3527 0.0097663889 0.0077594044         3819 
 1830000   0.52696459   -8.8873416    214.26601 0.0097571044 0.0077519633         3839 
 1831000   0.52480958   -8.8757412    213.96481 0.0097380671 0.0077445397         3780 
 1832000   0.52213793    -8.888014    214.00393 0.0097345311 0.0077371244         3794 
 1833000   0.51269197   -8.8860837    214.19976 0.0097381231 0.0077297286         3801 
 1834000   0.53281868   -8.8780771    214.16893 0.0097314129 0.0077223327         3792 
 1835000   0.52409393   -8.8874537     213.9286 0.0097151951 0.0077149462         3791 
 1836000   0.52351795   -8.8926048    214.16232 0.0097205122 0.0077075743         3784 
 1837000   0.51449242   -8.8787243    214.28235 0.0097206654 0.0077002071         3808 
 1838000   0.52682654   -8.8976649    213.94522 0.0097000916 0.0076928513         3821 
 1839000   0.52772984   -8.8878497      214.051 0.0096996102  0.007685506         3813 
 1840000   0.51922738   -8.8924333    213.92343 0.0096885611 0.0076781629         3830 
 1841000   0.52561164   -8.8925078    214.46017 0.0097075941 0.0076708307         3812 
 1842000   0.51841754   -8.8850088    214.42972 0.0097009466 0.0076635143         3798 
 1843000    0.5286656   -8.9016172    214.02146 0.0096772229 0.0076562056         3827 
 1844000    0.5177107   -8.8841625    214.14889 0.0096777334 0.0076489034         3802 
 1845000     0.517739   -8.8892222    214.01741 0.0096665498 0.0076416105         3827 
 1846000   0.51331724   -8.8901221    214.05986 0.0096632293 0.0076343304         3769 
 1847000    0.5187621   -8.8968838    213.91005 0.0096512384 0.0076270533         3794 
 1848000   0.51061061   -8.8916771    213.88405 0.0096448435 0.0076197912         3836 
 1849000    0.5109648   -8.8950932    214.12254 0.0096503761 0.0076125312         3833 
 1850000   0.50737981   -8.8769849    214.21256 0.0096492146 0.0076052841         3832 
 1851000   0.51689194   -8.8796775    214.43941 0.0096542143 0.0075980535         3818 
 1852000   0.52621572   -8.8685383    214.37753 0.0096462173 0.0075908282         3824 
 1853000   0.50857256   -8.8911335    214.20318 0.0096331707 0.0075836121         3809 
 1854000   0.50277415   -8.9006938    214.06681  0.009621845 0.0075764027         3804 
 1855000   0.52681161   -8.8889728    213.92063 0.0096100913 0.0075692014         3801 
 1856000   0.52163945   -8.8979705    213.81572 0.0096002031  0.007562014         3807 
 1857000   0.50525936   -8.8831532    213.96985   0.00960195  0.007554829         3812 
 1858000   0.51554634   -8.8839476     214.0516 0.0096004485 0.0075476552         3813 
 1859000   0.50458576    -8.893265    213.73611 0.0095811416 0.0075404897         3844 
 1860000   0.50395328   -8.9036345    213.90423 0.0095835227 0.0075333384         3810 
 1861000   0.50675041   -8.8960597    214.00712 0.0095829803 0.0075261993         3824 
 1862000    0.5125475   -8.9106227    214.03055 0.0095788823 0.0075190703         3813 
 1863000   0.51050086   -8.9067527    214.00892 0.0095727735 0.0075119507         3836 
 1864000   0.51520276   -8.9081904     214.3367 0.0095822918 0.0075048314         3769 
 1865000   0.50777171   -8.8860561    214.28876 0.0095750118 0.0074977257         3824 
 1866000   0.50348578   -8.9123348    213.86443   0.00955093 0.0074906258         3783 
 1867000   0.50639746    -8.881338    214.07298 0.0095551233 0.0074835344         3833 
 1868000   0.49728336   -8.9131195    214.14437  0.009553193 0.0074764499         3825 
 1869000   0.50353543   -8.9071943     214.0338 0.0095431516 0.0074693764         3803 
 1870000    0.5068316   -8.9061195    214.01945 0.0095374088 0.0074623102         3839 
 1871000   0.52070885   -8.8892903    213.86148 0.0095252753  0.007455255         3771 
 1872000   0.50276009   -8.9045864    213.86636 0.0095204044  0.007448211         3804 
 1873000   0.51311736   -8.8908905    214.12507 0.0095268315 0.0074411782         3782 
 1874000   0.51129647   -8.9061721    213.95432 0.0095141552 0.0074341514         3801 
 1875000   0.50393613   -8.9070716    213.77701 0.0095012004  0.007427134         3822 
 1876000   0.48897504   -8.8993129    213.87857  0.009500647 0.0074201249         3772 
 1877000   0.50441167   -8.9006452    213.81911 0.0094929457 0.0074131171         3797 
 1878000   0.50895311   -8.9063596     213.8757  0.009490402 0.0074061205         3804 
 1879000   0.49115597   -8.9135859    213.86453 0.0094848558 0.0073991347         3823 
 1880000   0.49863594   -8.9134148    213.68284 0.0094717569 0.0073921587         3821 
 1881000     0.498283   -8.9110532    213.93146  0.009477736 0.0073851873         3795 
 1882000   0.50291609   -8.9045979    214.11576  0.009480861 0.0073782295         3836 
 1883000   0.51147751   -8.9096947    213.85691 0.0094643701 0.0073712784         3838 
 1884000   0.50167499   -8.9148844    213.60976 0.0094484149 0.0073643334         3809 
 1885000   0.51049743   -8.9135807    213.94549 0.0094582443  0.007357403         3820 
 1886000   0.50527599   -8.9182355    213.51758 0.0094343221 0.0073504783         3817 
 1887000   0.51046087   -8.9054078    213.85048 0.0094440241 0.0073435663         3831 
 1888000   0.50340615   -8.9173496    214.03528 0.0094471787  0.007336662         3813 
 1889000   0.49762456   -8.9120918    213.55388 0.0094209404 0.0073297615         3813 
 1890000    0.5021908   -8.9141214    213.71569 0.0094230905 0.0073228726         3830 
 1891000    0.4970837   -8.9192599     213.9804 0.0094297725 0.0073159918         3815 
 1892000   0.49790921   -8.9191979    213.90925 0.0094216546 0.0073091243         3808 
 1893000   0.49013542   -8.9223112    214.07461 0.0094239572 0.0073022603         3826 
 1894000   0.49437928   -8.8974085     213.9985 0.0094156326 0.0072954079         3827 
 1895000   0.50037188   -8.9228688    213.91442 0.0094069667 0.0072885636         3790 
 1896000   0.50367488   -8.9159743    213.95729 0.0094038895 0.0072817287         3812 
 1897000   0.50003364   -8.9148416    213.76483 0.0093904773 0.0072748978         3835 
 1898000   0.49217626   -8.9268444    213.44566 0.0093715164 0.0072680802         3810 
 1899000   0.49782296   -8.9079645    213.83282 0.0093835711 0.0072612655         3790 
 1900000    0.4938076   -8.9146988    213.62781 0.0093696409 0.0072544648         3787 
 1901000   0.49052314   -8.9230577    213.69932 0.0093678468  0.007247674         3832 
 1902000   0.49567564   -8.9142865    213.56921  0.009357221 0.0072408877         3798 
 1903000    0.4980045   -8.9188109     213.5085 0.0093496455 0.0072341065         3802 
 1904000   0.48535999   -8.9155518    213.73411 0.0093546091 0.0072273356         3800 
 1905000    0.4922102   -8.9270553    213.90407 0.0093571336 0.0072205695         3843 
 1906000   0.49313618    -8.937934    213.59781  0.009338834 0.0072138118         3786 
 1907000   0.49081664   -8.9378485    213.69638 0.0093382442 0.0072070671         3827 
 1908000   0.50017914   -8.9404375    213.81847 0.0093386822 0.0072003254         3818 
 1909000   0.48815519   -8.9278426    213.51632 0.0093206008 0.0071935915         3840 
 1910000    0.4803998   -8.9300689    213.50226 0.0093151075 0.0071868717         3813 
 1911000   0.48029853   -8.9356538     213.5328 0.0093115645 0.0071801559         3811 
 1912000   0.48894734   -8.9193842    213.50886 0.0093056511 0.0071734487         3818 
 1913000   0.48895619   -8.9258026     213.5639 0.0093031842 0.0071667492         3781 
 1914000    0.4997276   -8.9335738    213.27155 0.0092855952 0.0071600645         3807 
 1915000   0.48683035   -8.9217477    213.24815 0.0092797281 0.0071533874         3789 
 1916000    0.4948802   -8.9308569    213.63756 0.0092918214 0.0071467215         3755 
 1917000   0.49151839   -8.9317974    213.50681 0.0092812908 0.0071400536         3797 
 1918000   0.48635799   -8.9310582    213.79452  0.009288952 0.0071333991         3793 
 1919000   0.48512244   -8.9259521    213.62699 0.0092768366 0.0071267492         3826 
 1920000   0.48276477   -8.9386885     213.8804 0.0092830036  0.007120113         3807 
 1921000   0.48029141   -8.9198461    213.77902  0.009273773 0.0071134845         3818 
 1922000   0.47737079   -8.9519994    213.77776 0.0092688933 0.0071068629         3803 
 1923000   0.47973797   -8.9082785    213.71686 0.0092614343 0.0071002555         3829 
 1924000   0.49826164   -8.9339142    213.70772 0.0092562249  0.007093653         3824 
 1925000   0.48834085    -8.937342    213.56842 0.0092453863 0.0070870549         3836 
 1926000   0.48529766   -8.9356694    213.61856 0.0092427551 0.0070804665         3789 
 1927000   0.47210946   -8.9410263    213.62647 0.0092383008 0.0070738803         3811 
 1928000   0.49254344   -8.9177764     213.2469 0.0092171033 0.0070673067         3807 
 1929000   0.48760754   -8.9307422    213.47028 0.0092219751 0.0070607393         3789 
 1930000   0.48248033   -8.9187357    213.68182 0.0092263305 0.0070541852         3787 
 1931000   0.48354893    -8.933578    213.43121 0.0092107377 0.0070476337         3843 
 1932000   0.48137545   -8.9455948    213.39302 0.0092043227 0.0070410949         3825 
 1933000   0.48336048   -8.9346567    213.40767 0.0092001929 0.0070345613         3790 
 1934000   0.48643145   -8.9435005    213.64489 0.0092056571 0.0070280361         3827 
 1935000   0.47167082   -8.9166253    213.58148 0.0091981689 0.0070215162         3819 
 1936000   0.48377722   -8.9395339    213.49883 0.0091898601 0.0070150032         3845 
 1937000   0.48324677   -8.9411992    213.35394 0.0091788823 0.0070084971         3862 
 1938000   0.48856698   -8.9595369    213.55217   0.00918267 0.0070020027         3818 
 1939000   0.47470104   -8.9420682     213.3541 0.0091694215  0.006995512         3817 
 1940000   0.47205084   -8.9442083    213.33147  0.009163723 0.0069890363         3814 
 1941000   0.48491888   -8.9511674    213.60649 0.0091708092 0.0069825692         3824 
 1942000   0.47777632   -8.9479467    213.65768 0.0091682836 0.0069761063         3832 
 1943000   0.47480893   -8.9535596    213.57602 0.0091600628  0.006969654         3821 
 1944000   0.47645577   -8.9643635     213.3006 0.0091435443 0.0069632125         3813 
 1945000   0.48354011   -8.9605916    213.13838 0.0091318929  0.006956774         3822 
 1946000   0.47067472   -8.9593108    213.01693 0.0091219994 0.0069503463         3839 
 1947000   0.48115114   -8.9500138    213.48623 0.0091374006  0.006943921         3806 
 1948000   0.47010697   -8.9661281    213.31004  0.009125173 0.0069375053         3830 
 1949000   0.47008078   -8.9318528    213.67641 0.0091361559  0.006931097         3829 
 1950000   0.46827014   -8.9463139     213.6418 0.0091299916 0.0069247002         3822 
 1951000    0.4731442   -8.9387538    213.41596 0.0091156657 0.0069183116         3794 
 1952000   0.47026787   -8.9641332    213.54985 0.0091167117 0.0069119301         3817 
 1953000   0.46291371   -8.9462965    213.24946  0.009099226 0.0069055552         3825 
 1954000   0.48365419   -8.9658035    213.47319 0.0091041107  0.006899186         3822 
 1955000   0.47380294    -8.951593    213.17097 0.0090865714 0.0068928283         3821 
 1956000   0.47552331   -8.9546201    213.07012 0.0090776296 0.0068864723         3821 
 1957000   0.48715627   -8.9663787    213.37188 0.0090858405  0.006880128         3860 
 1958000   0.47576679   -8.9534351     213.3498 0.0090802605   0.00687379         3789 
 1959000    0.4714862   -8.9665095    213.35426  0.009075815 0.0068674608         3832 
 1960000     0.465225   -8.9464132    213.42543 0.0090742105 0.0068611389         3831 
 1961000   0.47017426   -8.9490971    213.46934 0.0090714489 0.0068548287         3827 
 1962000   0.47573508   -8.9604303    213.57664  0.009071383 0.0068485253         3812 
 1963000   0.46712083   -8.9581007    213.12462 0.0090475727 0.0068422307         3817 
 1964000   0.47737671   -8.9583437    213.18795 0.0090456531 0.0068359452         3827 
 1965000    0.4741032   -8.9538426    213.51532 0.0090549329 0.0068296657         3813 
 1966000   0.46623344   -8.9758701    213.26407 0.0090396776 0.0068233909         3851 
 1967000    0.4685476   -8.9560223      213.339 0.0090382563 0.0068171229         3836 
 1968000   0.46167045   -8.9415079    213.68202 0.0090481885 0.0068108686         3819 
 1969000   0.46253563    -8.950195     213.1868 0.0090226341 0.0068046195         3821 
 1970000   0.46617819   -8.9576109    213.35829 0.0090253082  0.006798374         3815 
 1971000   0.47262124   -8.9531846    213.31759 0.0090190084 0.0067921407         3851 
 1972000    0.4732558   -8.9705882    213.04242 0.0090028069 0.0067859176         3834 
 1973000   0.46744164   -8.9688575    212.99243 0.0089961325 0.0067797025         3836 
 1974000   0.46884846   -8.9489777    213.37477 0.0090077156 0.0067734923         3778 
 1975000   0.45505753   -8.9582246    213.39494  0.009004006 0.0067672915         3852 
 1976000   0.46257483   -8.9571289    213.53995 0.0090055649 0.0067610994         3820 
 1977000   0.45335322   -8.9602768    213.38102 0.0089943104  0.006754909         3865 
 1978000    0.4632049   -8.9796287    213.31642 0.0089870415 0.0067487281         3841 
 1979000   0.46580065   -8.9583001    213.15595 0.0089757434 0.0067425525         3847 
 1980000    0.4619127   -8.9713916    212.97179 0.0089634593 0.0067363856         3834 
 1981000   0.47019462   -8.9591421    212.83287 0.0089530908  0.006730224         3836 
 1982000   0.46066683   -8.9605647    213.30177 0.0089682882 0.0067240742         3835 
 1983000     0.464167   -8.9661758    213.40768 0.0089682165 0.0067179309         3850 
 1984000    0.4653015   -8.9537579    213.66144 0.0089743549 0.0067117959         3828 
 1985000    0.4532616   -8.9732167    213.13759 0.0089478419 0.0067056727         3823 
 1986000   0.45861137    -8.980918     213.0396 0.0089392247  0.006699553         3859 
 1987000   0.45924758   -8.9683964    213.67998 0.0089615828 0.0066934392         3851 
 1988000   0.46377771   -8.9716381    213.20822 0.0089372998 0.0066873299         3858 
 1989000   0.45045491   -8.9761453    212.97143 0.0089228856 0.0066812313         3831 
 1990000   0.45576926   -8.9679265    213.24925 0.0089300357 0.0066751375         3816 
 1991000   0.45226584   -8.9794849    213.14716 0.0089212773 0.0066690524         3823 
 1992000   0.46277387    -8.968719    213.04544 0.0089125434 0.0066629804         3815 
 1993000   0.45724339    -8.976634    212.99141 0.0089058126 0.0066569134         3834 
 1994000   0.45869056   -9.0039727    213.02377 0.0089026983 0.0066508518         3832 
 1995000   0.45831667    -8.972435    212.89625 0.0088929096 0.0066448008         3786 
 1996000    0.4583697   -8.9762347    213.13542 0.0088984393 0.0066387516         3843 
 1997000   0.45027037   -8.9841494     213.1829 0.0088959647 0.0066327104         3821 
 1998000   0.45495067   -8.9819944    212.98771 0.0088833711  0.006626679         3814 
 1999000   0.45193021   -8.9915462    213.10523 0.0088838264 0.0066206546         3853 
 2000000   0.45251562   -8.9746205    213.29176 0.0088871566 0.0066146358         3835 
 2001000   0.46035082   -8.9793622    212.98198 0.0088698142 0.0066086267         3858 
 2002000   0.45691201   -8.9682499     213.2232 0.0088754247 0.0066026284         3867 
 2003000   0.46372263   -8.9716693    213.15032 0.0088679614 0.0065966319         3853 
 2004000    0.4486468   -8.9732382    213.00763 0.0088576025 0.0065906414         3832 
 2005000   0.46298912   -8.9732981    212.79802 0.0088444728 0.0065846624         3842 
 2006000    0.4486117    -8.975714     212.8657 0.0088428755 0.0065786903         3828 
 2007000   0.45657921   -8.9812933    213.15228 0.0088503686 0.0065727271         3835 
 2008000   0.45311623    -8.975987    212.86743 0.0088341396 0.0065667652         3847 
 2009000   0.46245509   -8.9790822    213.06257 0.0088378367 0.0065608114         3843 
 2010000   0.44989085   -8.9953481    213.00074 0.0088308764 0.0065548663         3836 
 2011000    0.4691054   -8.9690697    212.81168 0.0088186508 0.0065489263         3844 
 2012000     0.441893   -8.9693231    213.16064 0.0088287212 0.0065429976         3827 
Loop time of 5230.54 on 48 procs for 2000000 steps with 4000 atoms

Performance: 66073.422 tau/day, 382.369 timesteps/s
99.4% CPU use with 48 MPI tasks x no OpenMP threads

MPI task timing breakdown:
Section |  min time  |  avg time  |  max time  |%varavg| %total
---------------------------------------------------------------
Pair    | 378.91     | 405.96     | 434.57     |  80.8 |  7.76
Neigh   | 38.007     | 39.141     | 40.927     |  12.2 |  0.75
Comm    | 328.93     | 363.75     | 397.8      |  95.2 |  6.95
Output  | 5.9153     | 5.9178     | 5.964      |   0.3 |  0.11
Modify  | 4345.2     | 4366.2     | 4386.6     |  15.8 | 83.47
Other   |            | 49.59      |            |       |  0.95

Nlocal:        83.3333 ave          88 max          77 min
Histogram: 1 2 5 1 5 9 11 5 6 3
Nghost:        2460.17 ave        2474 max        2443 min
Histogram: 2 2 2 5 9 8 6 6 5 3
Neighs:        17150.1 ave       20071 max       14518 min
Histogram: 2 2 10 7 7 5 5 4 5 1
FullNghs:      34300.3 ave       36713 max       31086 min
Histogram: 1 2 5 3 4 6 12 8 6 1

Total # of neighbors = 1646414
Ave neighs/atom = 411.60350
Neighbor list builds = 106453
Dangerous builds = 0

#clear
#
#next RN
#
#jump SELF
Total wall time: 1:27:14
