
units lj                  # Use reduced LJ style units
atom_style atomic         # Uncharged point particles
atom_modify map hash      # Needed for indexing of clusters etc
                          # Used to be able to find where atoms are in relation to each other.

lattice fcc 1.0 spacing 1 1 1
Lattice spacing in x,y,z = 1.5874011 1.5874011 1.5874011
region box block 0 10 0 10 0 10 units lattice
create_box 2 box
Created orthogonal box = (0.0000000 0.0000000 0.0000000) to (15.874011 15.874011 15.874011)
  3 by 4 by 4 MPI processor grid
create_atoms 1 box
Created 4000 atoms
  using lattice units in orthogonal box = (0.0000000 0.0000000 0.0000000) to (15.874011 15.874011 15.874011)
  create_atoms CPU = 0.021 seconds
set type 1 type/fraction 2 0.06 78393
Setting atom values ...
  252 settings made for type/fraction
mass 1 1.0
mass 2 1.0
pair_style lj/cut  3.5
pair_modify tail  yes
pair_coeff 1  1  1.0  1.0   # Intearaction between 1 and 1 set with epsilon = 1 and sigma = 1
pair_coeff 1  2  1.5  0.8
pair_coeff 2  2  0.5  0.88

write_data data.0
System init for write_data ...
Neighbor list info ...
  update every 1 steps, delay 10 steps, check yes
  max neighbors/atom: 2000, page size: 100000
  master list distance cutoff = 3.8
  ghost atom cutoff = 3.8
  binsize = 1.9, bins = 9 9 9
  1 neighbor lists, perpetual/occasional/extra = 1 0 0
  (1) pair lj/cut, perpetual
      attributes: half, newton on
      pair build: half/bin/atomonly/newton
      stencil: half/bin/3d
      bin: standard
WARNING: Not all mixed pair coeffs generated from mixing. Use write_data with 'pair ij' option to store all pair coeffs. (../write_data.cpp:312)


#############################
#   M E L T   S Y S T E M   #
#############################

velocity all create 2.4 9622624 mom yes dist gaussian # Assign velocities
                                                    # Temperature 2.4, random number seed, zero linear momentum
                                                                                # Gaussian distribution

timestep 0.002   # simulation timestep
thermo 1000       # output thermodynamic data every 1000 steps bf 100

# Define a fix  in this case with index 1 applied to all
# particles in the simulation. This fix is for simulations
# in the anisotropic NPT ensemble. Note that we use the MTK
# correction.
fix 1 all npt temp 2.4 2.4 0.1 iso 5.68 5.68 0.5 mtk yes tchain 5 pchain 5 # Use NPT ensemble
                                                                         # Set temperature and pressure and damping
                                                                         # Numbers of thermostats in chain and in barostat
run 10000          # run for 10000 steps
Per MPI rank memory allocation (min/avg/max) = 3.642 | 3.644 | 3.648 Mbytes
Step Temp E_pair E_mol TotEng Press Volume 
       0          2.4   -7.9704536            0   -4.3713536   -2.7323792         4000 
    1000     2.417906   -4.5359658            0  -0.91001345     5.612029    4989.2623 
    2000    2.3827839   -4.5100977            0  -0.93681535    5.7649873    4986.9641 
    3000     2.362262   -4.5403216            0  -0.99781447    5.6119421    4971.9417 
    4000    2.4084472   -4.4716397            0  -0.85987214    5.6321224     5032.483 
    5000    2.4199841   -4.5159507            0  -0.88688209    5.7893612    4978.7167 
    6000    2.3953179   -4.4708613            0  -0.87878263    5.7505132    4997.2507 
    7000    2.3855646   -4.5370894            0  -0.95963709    5.5325366    4999.4945 
    8000    2.4071841   -4.5297101            0  -0.91983667    5.7415301    4980.7103 
    9000    2.4070187    -4.593239            0  -0.98361348    5.3289883    5003.8547 
   10000    2.4040244   -4.5920317            0  -0.98689666    5.6679563    4946.8929 
Loop time of 2.25641 on 48 procs for 10000 steps with 4000 atoms

Performance: 765819.191 tau/day, 4431.824 timesteps/s
99.5% CPU use with 48 MPI tasks x no OpenMP threads

MPI task timing breakdown:
Section |  min time  |  avg time  |  max time  |%varavg| %total
---------------------------------------------------------------
Pair    | 0.86772    | 0.93418    | 1.0041     |   3.3 | 41.40
Neigh   | 0.17764    | 0.18782    | 0.20297    |   1.1 |  8.32
Comm    | 0.71155    | 0.79368    | 0.88233    |   4.9 | 35.17
Output  | 0.00024045 | 0.00024973 | 0.00046078 |   0.0 |  0.01
Modify  | 0.2524     | 0.32606    | 0.39302    |   6.9 | 14.45
Other   |            | 0.01441    |            |       |  0.64

Nlocal:        83.3333 ave          93 max          74 min
Histogram: 4 3 1 8 9 8 7 3 3 2
Nghost:        1425.77 ave        1444 max        1401 min
Histogram: 2 2 0 5 10 6 7 10 3 3
Neighs:        7698.62 ave        9117 max        6544 min
Histogram: 2 1 6 10 10 9 6 3 0 1

Total # of neighbors = 369534
Ave neighs/atom = 92.383500
Neighbor list builds = 902
Dangerous builds = 195

# Equilibrate just above the melting temperature to avoid step fn in T

fix 1 all npt temp 1.25 1.25 0.1 iso 5.68 5.68 0.5 mtk yes tchain 5 pchain 5
run 2000
Per MPI rank memory allocation (min/avg/max) = 3.643 | 3.646 | 3.650 Mbytes
Step Temp E_pair E_mol TotEng Press Volume 
   10000    2.4040244   -4.5920317            0  -0.98689666    5.6679563    4946.8929 
   11000    1.2614894   -6.0334265            0   -4.1416654     5.671635    4138.7131 
   12000    1.2083826   -6.0590045            0   -4.2468837    5.6445742      4124.83 
Loop time of 0.585105 on 48 procs for 2000 steps with 4000 atoms

Performance: 590663.092 tau/day, 3418.189 timesteps/s
99.2% CPU use with 48 MPI tasks x no OpenMP threads

MPI task timing breakdown:
Section |  min time  |  avg time  |  max time  |%varavg| %total
---------------------------------------------------------------
Pair    | 0.19921    | 0.21522    | 0.24093    |   1.9 | 36.78
Neigh   | 0.030037   | 0.031881   | 0.035234   |   0.5 |  5.45
Comm    | 0.12753    | 0.15981    | 0.21154    |   4.0 | 27.31
Output  | 5.2247e-05 | 5.5279e-05 | 6.7952e-05 |   0.0 |  0.01
Modify  | 0.13133    | 0.17373    | 0.18949    |   3.3 | 29.69
Other   |            | 0.00441    |            |       |  0.75

Nlocal:        83.3333 ave          93 max          76 min
Histogram: 3 4 5 4 16 9 3 2 1 1
Nghost:        1603.15 ave        1626 max        1582 min
Histogram: 4 4 4 2 11 11 2 3 4 3
Neighs:        9239.79 ave       10549 max        8042 min
Histogram: 1 4 3 5 13 11 6 3 1 1

Total # of neighbors = 443510
Ave neighs/atom = 110.87750
Neighbor list builds = 140
Dangerous builds = 8

#############################
# L I N E A R  Q U E N C H  #
#############################

# Define solid atoms. This closely follows ten Wolde  Ruiz-Montero and Frenkel  Faraday Discuss  1996  104  93-110
# Compute components of the per-atom q6 vector
compute q6 all orientorder/atom degrees 1 6 components 6 nnn NULL cutoff 1.3 # compute the Q6 parameter.
                                                                             # Use all neighbours within 1.3 unit cell.

# get number of connections
compute coord_number all coord/atom orientorder q6 0.5

# An atom is solid if it has 8 or more connections (of a possible 14)
variable is_solid atom c_coord_number>=8
group solid dynamic all var is_solid    # Must be dynamic to update
dynamic group solid defined

# do clustering
compute cluster solid cluster/atom 1.3 # Create a cluster where all atoms within are solid and max 1.3 units from another member

# define chunks one chunk per cluster
compute clus_chunks solid chunk/atom c_cluster nchunk every compress yes  # Says which atoms are in which chunk

# count the size of each chunk
compute size_chunks solid property/chunk clus_chunks count


# Find the maximum entry in the vector of chunk sizes
variable max_n equal max(c_size_chunks)


# Thermo style which includes this variable
# thermo_style custom step temp pe vol v_max_n

thermo ${N}  # Print the thermo information every 100 steps
thermo 1000  

# Reset the npt fix at a lower temperature (below freezing)
fix 1  all npt temp  ${temp} ${temp}  0.1  iso  5.68  5.68  0.5  mtk yes tchain  5  pchain  5
fix 1  all npt temp  0.45 ${temp}  0.1  iso  5.68  5.68  0.5  mtk yes tchain  5  pchain  5
fix 1  all npt temp  0.45 0.45  0.1  iso  5.68  5.68  0.5  mtk yes tchain  5  pchain  5

dump dmp2 all dcd ${N} traj.dcd
dump dmp2 all dcd 1000 traj.dcd


compute msd all msd com yes
variable twopoint equal c_msd[4]/6/(step*dt+1.0e-6)
fix 9 all vector 10 c_msd[4]
variable fit equal slope(f_9)/6/(10*dt)
thermo_style custom step temp pe c_msd[4] v_twopoint v_fit v_max_n

fix 1 all npt temp 1.25 ${temp} 0.1 iso 5.68 5.68 0.5 mtk yes tchain 5 pchain 5
fix 1 all npt temp 1.25 0.45 0.1 iso 5.68 5.68 0.5 mtk yes tchain 5 pchain 5
run 5000000 # 5000000  # Run for this many steps
Neighbor list info ...
  update every 1 steps, delay 10 steps, check yes
  max neighbors/atom: 2000, page size: 100000
  master list distance cutoff = 3.8
  ghost atom cutoff = 3.8
  binsize = 1.9, bins = 9 9 9
  4 neighbor lists, perpetual/occasional/extra = 1 3 0
  (1) pair lj/cut, perpetual
      attributes: half, newton on
      pair build: half/bin/atomonly/newton
      stencil: half/bin/3d
      bin: standard
  (2) compute orientorder/atom, occasional
      attributes: full, newton on
      pair build: full/bin/atomonly
      stencil: full/bin/3d
      bin: standard
  (3) compute coord/atom, occasional
      attributes: full, newton on
      pair build: full/bin/atomonly
      stencil: full/bin/3d
      bin: standard
  (4) compute cluster/atom, occasional
      attributes: full, newton on
      pair build: full/bin/atomonly
      stencil: full/bin/3d
      bin: standard
Per MPI rank memory allocation (min/avg/max) = 9.737 | 9.745 | 9.750 Mbytes
Step Temp PotEng c_msd[4] v_twopoint v_fit v_max_n 
   12000    1.2083826   -6.0590045 5.9164568e-34 4.1086504e-36 8.3333333e+20            2 
   13000    1.2211839   -6.0465156   0.54529711 0.0034954941  0.044407624            5 
   14000    1.2264193   -6.0477089    1.0996757 0.0065456883  0.045313502            4 
   15000    1.2559169   -6.0760383    1.6283128 0.0090461818  0.045145189            5 
   16000    1.2436061   -6.0855011    2.1397985  0.011144783  0.044315228            2 
   17000    1.2353111   -6.0302224     2.708722  0.013278048  0.044732496            2 
   18000    1.2538259   -6.0346447    3.2644168   0.01511304  0.044937714            2 
   19000    1.2473569    -6.017901    3.7491788  0.016443766  0.044949779            3 
   20000    1.2573941   -6.0500587    4.2971972  0.017904988  0.044704239            3 
   21000    1.2605375   -6.0513731    4.8357351  0.019189424  0.044714361            4 
   22000    1.2277565   -6.0735932    5.3323416  0.020198263  0.044622032            6 
   23000    1.2717174   -6.0443175    5.8400111   0.02115946  0.044434044            2 
   24000    1.2475632   -6.1230457    6.2821259  0.021812937  0.044167215            2 
   25000     1.253511   -6.0083617    6.8498541  0.022832846   0.04390381            2 
   26000    1.2573824   -6.0785968    7.4256191  0.023800061   0.04389121            4 
   27000    1.2478967   -6.0497162    7.8555499  0.024245524  0.043758655            2 
   28000    1.2565088   -6.0648856    8.3863502  0.024959375  0.043552725            2 
   29000     1.231462   -6.0943283    8.9187656  0.025628636  0.043493759            2 
   30000    1.2316102   -6.0536057    9.3617451  0.026004847  0.043368467            2 
   31000    1.2471092   -6.0110069    9.8995942  0.026611812  0.043258871            3 
   32000    1.2648067   -6.0811596    10.307728  0.026843042  0.043119886            1 
   33000    1.2432274   -6.0826533    10.785893  0.027237102  0.042964557            2 
   34000    1.2615173   -6.0764895    11.301003  0.027698537  0.042782701            4 
   35000    1.2607832   -6.0929871    11.787334  0.028065081  0.042660559            2 
   36000    1.2584009   -6.0012777    12.299612  0.028471324  0.042582145            3 
   37000    1.2077876   -6.0458715    12.946548  0.029158892  0.042547902            3 
   38000    1.2375189   -6.0581096    13.664237  0.029965431   0.04262209            4 
   39000    1.2799785   -6.0490096    14.326424  0.030612017  0.042827137            2 
   40000    1.2444093   -6.0317482     14.90874  0.031059874  0.043037766            5 
   41000    1.2363075   -6.0722042     15.52761  0.031560183  0.043263185            2 
   42000    1.2477818    -6.031625     16.00994  0.031765754  0.043439706            1 
   43000    1.2746803   -6.0736583    16.619209   0.03220777   0.04361184            1 
   44000    1.2606791   -6.0905927    17.286172  0.032738962  0.043811731            3 
   45000    1.2480274   -6.0688423    17.768642  0.032904892  0.044018725            2 
   46000    1.2452265   -6.0791499    18.327059  0.033201194  0.044183861            2 
   47000    1.2072138   -6.0542515    18.819321   0.03336759  0.044329398            6 
   48000    1.2389858   -6.0922664    19.431787  0.033735741   0.04444621            3 
   49000    1.2612573   -6.0018433    20.243399   0.03442755  0.044584295            3 
   50000    1.2387768   -6.0982744    20.855391  0.034758985  0.044782205            4 
   51000    1.2344166      -6.0792    21.611739  0.035313298  0.045017452            2 
   52000    1.2278782   -6.0760695    22.208024  0.035589782  0.045248052            2 
   53000    1.2402494   -6.0604172     22.75669  0.035780958  0.045458866            2 
   54000    1.2374667   -6.0583701    23.158111  0.035737826  0.045617435            3 
   55000    1.2129026    -6.055606    23.693966  0.035899949  0.045734608            4 
   56000    1.2443165   -6.0748992    24.287286  0.036141794  0.045844146            3 
   57000    1.2441981   -6.0581151    24.988649  0.036533112  0.045952151            3 
   58000    1.2619056   -6.0437377    25.345478  0.036415916  0.046033595            3 
   59000    1.2391267   -6.0864404    25.845439  0.036504857  0.046090594            4 
   60000    1.2541454    -6.077895    26.717507  0.037107648  0.046156794            2 
   61000    1.2370939   -6.0807008    27.233389  0.037204083  0.046251866            3 
   62000    1.2275321   -6.0547799    27.858596   0.03744435  0.046333769            2 
   63000    1.2299208   -6.0641369    28.236574  0.037349965  0.046398182            2 
   64000    1.2369014   -6.0814224    28.824939  0.037532472  0.046444857            1 
   65000    1.2453977   -6.0787305    29.272119  0.037528358  0.046474449            2 
   66000     1.238352    -6.086534    29.729214  0.037536886  0.046487138            5 
   67000     1.252261   -6.0931462    30.244139  0.037617089  0.046499511            2 
   68000    1.2647665   -6.0441241    30.849942  0.037806302  0.046502408            2 
   69000    1.2272059   -6.0741053    31.562191  0.038118588  0.046516565            3 
   70000    1.2430713   -6.0733277    31.876246  0.037947911  0.046511497            2 
   71000    1.2418212   -6.0529604    32.641444  0.038311554  0.046507369            3 
   72000    1.2593972   -6.0650089    33.019097  0.038216547  0.046507293            3 
   73000    1.2287558    -6.023558    33.538436  0.038285886  0.046494216            2 
   74000    1.2387881   -6.0682643    33.799015  0.038061954  0.046471732            2 
   75000    1.2576325   -6.0967185    34.640787  0.038489763  0.046452181            2 
   76000    1.2403759   -6.1385631    35.074715  0.038459117  0.046436912            4 
   77000    1.2429127   -6.0720569     35.73569  0.038674989  0.046428316            1 
   78000    1.2407727   -6.0886332    36.135897  0.038606727  0.046403802            2 
   79000    1.2235492   -6.0838833    36.759241   0.03877557  0.046383194            2 
   80000    1.2455852   -6.0800857    37.197896  0.038747808   0.04635277            4 
   81000    1.2281881   -6.1012289    37.731261   0.03881817  0.046322397            2 
   82000    1.2324127   -6.0894766    38.231866  0.038853522  0.046293251            3 
   83000    1.2299211   -6.0762602    38.436606   0.03859097   0.04624932            2 
   84000    1.2442683   -6.1066463    39.034349  0.038724553  0.046203011            6 
   85000    1.2520759   -6.0669423    39.586399  0.038810195  0.046152645            2 
   86000    1.2322098   -6.0891744    39.966167  0.038726906  0.046096716            5 
   87000    1.2278873   -6.0973792    40.719982  0.039003814  0.046045673            3 
   88000    1.2524964   -6.0620481    41.430166  0.039233111  0.046013229            3 
   89000    1.2572259   -6.0768505    41.819341  0.039156686  0.045981814            2 
   90000    1.2580181     -6.09603    42.238084  0.039109337  0.045951668            2 
   91000    1.2317316   -6.0882062    42.901872  0.039287428  0.045922885            1 
   92000    1.2255886   -6.0894082    43.292854  0.039214541  0.045890495            1 
   93000    1.2180273   -6.0505463    43.835919  0.039279498  0.045848387            2 
   94000    1.2328916   -6.0674305    44.342917  0.039311096  0.045802797            1 
   95000    1.2377303     -6.07316    44.848107  0.039340445  0.045756869            4 
   96000    1.2366085   -6.0738402    45.317181  0.039337831   0.04571185            2 
   97000    1.2279949   -6.0398978    45.862153  0.039400475  0.045669065            1 
   98000    1.2550586   -6.0941857    46.153937  0.039246545   0.04562417            6 
   99000    1.2531248   -6.1189933     46.67942  0.039292441  0.045577814            1 
  100000    1.2117118   -6.0852305     47.12655  0.039272125  0.045527938            4 
  101000    1.2683207   -6.0672082    47.656989  0.039320948  0.045474897            2 
  102000    1.2468398   -6.1147505    48.057511  0.039262672  0.045419249            2 
  103000    1.2398657   -6.0816171    48.876491  0.039544086  0.045374103            2 
  104000    1.2702227   -6.0663898    49.632381  0.039769535   0.04534557            3 
  105000    1.2337458   -6.0899948    50.124047   0.03978099  0.045320584            3 
  106000    1.2408448    -6.131215    50.567875  0.039754618  0.045299847            6 
  107000    1.1988155   -6.0463171    51.159605  0.039843929  0.045274132            3 
  108000    1.2629679   -6.0924875    51.562831  0.039786135  0.045250943            2 
  109000    1.2243688   -6.0870207    52.029666  0.039778032  0.045218422            1 
  110000    1.2004236   -6.0748394    52.668775  0.039900587  0.045196956            4 
  111000    1.2306099   -6.0926829    53.368891  0.040066735  0.045177374            2 
  112000    1.2447648   -6.0858289    53.743276  0.039987556  0.045156679            2 
  113000    1.2407102   -6.0851766    54.560289  0.040236201  0.045142731            5 
  114000    1.2519789   -6.0622565    55.050924  0.040241903  0.045135862            3 
  115000    1.2273662   -6.0487341     55.64557  0.040322877  0.045125511            1 
  116000    1.2300875   -6.1032146    56.009056  0.040236391  0.045117232            7 
  117000    1.2590504   -6.1249309    56.289234  0.040092047  0.045095335            3 
  118000    1.2347289   -6.0532665    57.004759  0.040257598  0.045074833            7 
  119000    1.2363704   -6.1103845    57.667414  0.040383343  0.045064644            3 
  120000    1.2403895    -6.065402    58.423152  0.040571633  0.045059099            1 
  121000    1.2413043   -6.0575514    58.932626  0.040587208  0.045056688            2 
  122000    1.2299055   -6.0554115     59.69986  0.040778593  0.045062307            3 
  123000    1.2329499   -6.0911395    59.759932  0.040487759  0.045061089            2 
  124000    1.2366624   -6.1065254    60.558909  0.040698191  0.045057551            3 
  125000    1.2475328   -6.0787721    61.203284  0.040802189  0.045054158            4 
  126000      1.25629   -6.0774273    61.624248  0.040756777  0.045054789            2 
  127000    1.2366253   -6.1202738    62.386619  0.040936102  0.045060437            9 
  128000     1.222747   -6.0885747    63.336284   0.04123456  0.045068853            2 
  129000    1.2154614   -6.0805553     63.79656  0.041212248  0.045084358            4 
  130000    1.2136891   -6.0954068    64.205186  0.041157171  0.045101102            2 
  131000    1.2528654      -6.1332    65.041681  0.041375115  0.045118665            2 
  132000    1.2040729     -6.10844    65.385593  0.041278783  0.045132594            4 
  133000    1.2456813   -6.0909877    65.750706  0.041197184  0.045142321            1 
  134000    1.2115112   -6.0878837    66.215765  0.041178958  0.045148054            4 
  135000     1.249663   -6.1091748    66.672736   0.04115601  0.045148483            2 
  136000    1.2455769   -6.0597344    66.905425  0.040995971  0.045144558            2 
  137000    1.2114003   -6.0710145    67.390752  0.040991942  0.045132355            2 
  138000    1.2387504   -6.0716757    67.781632  0.040930937  0.045115462            3 
  139000    1.2261511   -6.0834951    68.479463  0.041054834  0.045097732            1 
  140000    1.2433457   -6.0265793    68.783104  0.040942323  0.045084866            5 
  141000    1.2351838   -6.0836296    69.704068  0.041196258  0.045075952            4 
  142000    1.2356679   -6.0786317    70.263704  0.041234568  0.045071171            2 
  143000    1.2231929   -6.0621024    71.255245  0.041524036  0.045072368            4 
  144000    1.2142743   -6.1481049    71.540931  0.041401001  0.045077917            2 
  145000    1.1915268   -6.0904485    71.903689  0.041323959  0.045079274            1 
  146000    1.2258729    -6.146856    71.997538  0.041094485  0.045076663            2 
  147000    1.2218781   -6.1199295     72.90712  0.041330566  0.045072213            3 
  148000    1.2374074   -6.0811843    73.450796   0.04135743  0.045069285            3 
  149000    1.2318174   -6.1228391     73.80013  0.041275241  0.045065164            4 
  150000     1.235956   -6.1058466    74.414673  0.041341485  0.045060232            4 
  151000    1.2197475   -6.1300383    75.078162  0.041433864  0.045056787            5 
  152000      1.25611   -6.1268391    75.588478  0.041441051  0.045053647            5 
  153000    1.2319502   -6.1215193    76.435352  0.041631455  0.045054048            4 
  154000    1.2232082   -6.1081728    76.241763  0.041256365  0.045050767            4 
  155000    1.2645503   -6.1056297    76.965253  0.041379168  0.045043576            1 
  156000    1.2110487    -6.135097    77.383388   0.04133728  0.045034712            5 
  157000    1.2113549   -6.1210312     77.92124  0.041359469   0.04502479            4 
  158000    1.2283583   -6.1237008    78.447834   0.04137544  0.045013794            4 
  159000    1.2551125   -6.0727916    79.527158    0.0416809  0.045007922            2 
  160000    1.2530933   -6.1066937    79.666943  0.041493199  0.045000921            5 
  161000    1.1990254   -6.1073061    80.125039  0.041472588   0.04498826            7 
  162000    1.2057217   -6.1188839    80.405673  0.041360943  0.044973868            2 
  163000    1.2069595   -6.0878696     80.81466  0.041316288  0.044960225            4 
  164000    1.2181566   -6.0749579      81.3245  0.041323425  0.044943212            7 
  165000    1.2023498   -6.0970384    81.914982  0.041371203  0.044930156            4 
  166000    1.2299957   -6.1116099    82.594828  0.041463267  0.044915757            2 
  167000     1.222286   -6.1070881    82.996905  0.041415621  0.044904261            4 
  168000    1.2299588   -6.0819402    83.404351  0.041371206    0.0448887            2 
  169000    1.1822789   -6.0909055     83.87073  0.041356376  0.044869693           12 
  170000    1.2042872   -6.0938012       84.101   0.04122598  0.044851094            4 
  171000    1.2343375   -6.0772449    84.985655  0.041416011  0.044833178            3 
  172000    1.2099983   -6.1179273     85.73943  0.041540421  0.044818446            2 
  173000    1.2010185   -6.1118947    85.848343  0.041352766  0.044799265            3 
  174000    1.2523762    -6.117961    86.068872  0.041220724  0.044780314            2 
  175000    1.2524933     -6.14524    87.006556  0.041431693  0.044762755            2 
  176000    1.2334431   -6.0924625     87.37714  0.041371752  0.044745663            2 
  177000    1.2269806   -6.1196805    88.079015  0.041468463  0.044728505            4 
  178000    1.2179817   -6.0716601    88.269874  0.041324847  0.044709982            3 
  179000    1.2341037   -6.0728453    88.897934  0.041386375  0.044692693            2 
  180000    1.2370821   -6.1108071     89.18595  0.041289791  0.044672792            4 
  181000    1.2363453   -6.1148564    89.761343  0.041326585  0.044652401            3 
  182000    1.2500584   -6.0932289    90.078738  0.041244844  0.044635748            2 
  183000    1.2078356   -6.0888904    91.019735  0.041447967  0.044621088            5 
  184000    1.2327438   -6.1119603    91.404432  0.041396935   0.04460497            2 
  185000    1.2323377   -6.1347358    91.469812  0.041202618  0.044583619            4 
  186000    1.2277819   -6.0900068    91.874683  0.041162492  0.044559408            2 
  187000    1.2195065    -6.131624     92.17181  0.041074782  0.044532432            4 
  188000    1.2373146   -6.0968953    92.723064  0.041100649  0.044504461            4 
  189000     1.239639    -6.093148    93.206358  0.041096278  0.044478667            6 
  190000    1.2126348   -6.1021145    93.828006  0.041152634  0.044453106            3 
  191000    1.2298964   -6.1286092    93.999149  0.041011845  0.044427609            2 
  192000    1.2506324   -6.0825391    95.114516  0.041282342  0.044400588            3 
  193000    1.2293038   -6.0914978    95.497886  0.041233975  0.044376952            2 
  194000    1.2359448   -6.1400182     95.47724   0.04101256  0.044353067            2 
  195000    1.2220498   -6.1088823    96.326682  0.041165249  0.044328819            2 
  196000    1.2282816   -6.1045775    97.112969  0.041289528  0.044305171            4 
  197000    1.2260208   -6.1081782    97.388513  0.041196494  0.044284015            2 
  198000    1.2149315   -6.1375375    97.896042  0.041202038  0.044263789            2 
  199000    1.2317947   -6.1268312    98.911884  0.041420387  0.044244627            3 
  200000    1.2411459   -6.1346616    99.050025  0.041270844  0.044226874            2 
  201000    1.2426109   -6.0964258    99.502613  0.041253156  0.044208469            2 
  202000    1.2336976   -6.1127198     99.90445  0.041214707  0.044189095            2 
  203000     1.220835   -6.1122316    100.71212  0.041343235  0.044170156            2 
  204000    1.2005982   -6.0985431    101.20605  0.041342342  0.044153646            3 
  205000    1.1844815   -6.1427948    101.33302  0.041192285  0.044136049            3 
  206000    1.2350834    -6.099228    102.09938  0.041302339  0.044118383            2 
  207000    1.2205852   -6.1071595     103.0495  0.041485304  0.044106676            2 
  208000    1.2141604   -6.0891531    104.08112  0.041699165  0.044096998            6 
  209000    1.2301978   -6.1301483    104.07489  0.041497166  0.044088246            2 
  210000    1.2326738   -6.1090352    105.02609  0.041677019  0.044081782            2 
  211000    1.2007488   -6.1363183    105.14945  0.041528217  0.044075044            2 
  212000      1.21204    -6.082136    105.60817  0.041512646  0.044066475            5 
  213000    1.2228719   -6.1088371    106.39488   0.04162554  0.044056374            1 
  214000    1.1981883   -6.0915291    106.26443  0.041380228   0.04404416            2 
  215000    1.2276486   -6.0901009    107.33257  0.041601771  0.044032895            4 
  216000    1.2009547   -6.0986862    108.06951  0.041693482  0.044023069            2 
  217000    1.2045819   -6.1172407    108.10225  0.041513921   0.04401268            6 
  218000     1.196813   -6.0953422    108.83215  0.041602502  0.044003335            3 
  219000    1.2297588   -6.1387904    108.84282  0.041416598  0.043992013            3 
  220000    1.2229272   -6.1189608    109.79324  0.041588348  0.043980331            3 
  221000    1.2215697   -6.1333967     110.2975   0.04159031  0.043971477            3 
  222000    1.1762863   -6.0956538    111.07688  0.041695527  0.043964862            3 
  223000    1.2272155   -6.1101778    111.68591  0.041736141   0.04395914            2 
  224000     1.216561    -6.104037    112.61524   0.04189555  0.043954528            7 
  225000    1.2274547   -6.0979827    113.13429  0.041901588  0.043953166            4 
  226000    1.2206835   -6.0910909    113.70724   0.04192745  0.043950926            3 
  227000    1.1984628   -6.1609719    113.90621  0.041815788  0.043949214            5 
  228000    1.2184273   -6.0997931    114.44522  0.041829392  0.043946387            2 
  229000    1.2231003   -6.1036269    115.01996  0.041855879  0.043943824            2 
  230000    1.2447817    -6.128892    115.59325  0.041881611  0.043940753            2 
  231000    1.2164591   -6.1145833     115.7951  0.041773124  0.043936713            3 
  232000    1.1991306   -6.0699905    116.61021  0.041885851  0.043932086            7 
  233000     1.191341   -6.1085537    117.30441  0.041954368  0.043930241            3 
  234000    1.2109972   -6.1473638    117.89083  0.041983913  0.043928982            1 
  235000    1.1990915     -6.13594    118.64806   0.04207378  0.043928117            3 
  236000    1.2158717   -6.1069816    119.20072   0.04209065  0.043926239            2 
  237000    1.1976533   -6.1262444    119.50405  0.042019708    0.0439256            2 
  238000    1.2091413   -6.1154329    119.73954  0.041925608  0.043924939            3 
  239000    1.2016498   -6.1359025    120.81186  0.042124081  0.043923476            3 
  240000    1.1948395   -6.1154875    121.63829  0.042235517  0.043924707            2 
  241000    1.2200628   -6.1511584    121.60012  0.042047069  0.043925076            2 
  242000    1.2305345   -6.1405856    122.81089   0.04229025  0.043925751            3 
  243000    1.2061073   -6.1157779    122.94912  0.042163621  0.043927354            4 
  244000    1.2172881   -6.1299211    123.08948  0.042038758  0.043927427            1 
  245000    1.2266159   -6.1535451    123.07401   0.04186191  0.043925534            5 
  246000     1.228947   -6.1373657    123.74584  0.041919323  0.043922722            2 
  247000    1.2181343   -6.0918817     124.2518   0.04192031  0.043919765            8 
  248000    1.1994719   -6.1255101    124.86306  0.041956673  0.043916829            3 
  249000    1.2313525   -6.1253088    125.20981  0.041904221  0.043913027            5 
  250000    1.2237393   -6.1269556    125.40625  0.041802083  0.043906887            2 
  251000    1.2098121   -6.1399478    125.67286  0.041724058  0.043899188            7 
  252000    1.2241305   -6.1148826    126.63368  0.041876218  0.043891319            8 
  253000    1.2114081   -6.1644736    126.51698   0.04167226  0.043883841            1 
  254000    1.1773693   -6.1461586    127.25817   0.04175137   0.04387638            5 
  255000    1.2214753    -6.111199    127.76778  0.041754176  0.043868416            2 
  256000    1.2115251   -6.1596158     128.6654  0.041883268  0.043861772            7 
  257000     1.232111   -6.1612723    128.98844  0.041825044  0.043857428            2 
  258000    1.2243914   -6.1337856    130.24084  0.042067454  0.043854381            5 
  259000    1.2376481   -6.1211395    130.45438   0.04197374  0.043851006            3 
  260000    1.2087197   -6.0637736     131.6095  0.042182531  0.043849576            2 
  261000    1.2050778   -6.0962696    131.54861  0.042001471  0.043848942            2 
  262000    1.2255467   -6.1510122    132.00428  0.041986094  0.043847409            2 
  263000    1.2067203   -6.1687654    132.41042  0.041955139  0.043844803            2 
  264000    1.1957116   -6.0900989     133.5576  0.042158332  0.043842727            5 
  265000    1.2129544   -6.1435064    133.94637    0.0421215  0.043840689            2 
  266000    1.2089581   -6.1601225    134.41706  0.042110608  0.043836909            2 
  267000      1.20706   -6.1454871    134.65413  0.042026883  0.043834954            1 
  268000    1.2001954   -6.1406344    135.30992   0.04207398  0.043833795            2 
  269000    1.2409695    -6.116647    136.19798  0.042192684  0.043832153            4 
  270000    1.2213578   -6.1109771    136.95326  0.042269524  0.043830416            3 
  271000    1.1988921   -6.1478035    137.11248  0.042162508  0.043829603            6 
  272000    1.2042409   -6.1198716    137.68309  0.042182319  0.043829366            3 
  273000    1.2071949   -6.1146985    138.24567  0.042199533  0.043830214            2 
  274000    1.2079711   -6.1271917    139.05422  0.042291429  0.043832446            2 
  275000    1.2415917   -6.0995758    140.12866   0.04246323  0.043836941            2 
  276000     1.206052   -6.1710112    140.18552  0.042326547  0.043841787            3 
  277000    1.2084807   -6.1184936     140.8179  0.042363991  0.043846618            2 
  278000    1.2170297   -6.1148003    141.58786  0.042442404  0.043850737            2 
  279000    1.2262573   -6.1417153    141.37306  0.042226124  0.043854624            2 
  280000    1.2389962   -6.1662098    141.92267   0.04223889  0.043856205            2 
  281000    1.2111436   -6.1229425    143.06408  0.042427071  0.043857313            2 
  282000    1.2312989   -6.1222934    143.71379  0.042468613  0.043859772            2 
  283000    1.2027183    -6.090876    143.76597  0.042333915  0.043860667           10 
  284000    1.2197341   -6.1498994    143.94974  0.042238775  0.043861246            2 
  285000    1.2103401   -6.1205372    145.10398  0.042428064  0.043862307            4 
  286000     1.210717   -6.1433868    144.98608   0.04224536  0.043863321            3 
  287000    1.1850904   -6.1569423    145.16283  0.042149486  0.043863101            3 
  288000    1.2139474    -6.112723    145.77227  0.042179477  0.043861755            2 
  289000    1.2198958   -6.1246289    146.43424  0.042224407  0.043859846            3 
  290000    1.1969535   -6.1437153    146.74068  0.042166862  0.043856711            4 
  291000    1.2250139   -6.1135474    147.03341  0.042105789  0.043853897            7 
  292000    1.2115621   -6.1341796    147.21764  0.042014166  0.043849458            1 
  293000    1.2034728   -6.1336673    148.31953  0.042184167  0.043844722            3 
  294000    1.2009079   -6.1372063    149.01883  0.042238896  0.043841281            2 
  295000    1.2230709   -6.1544351    149.24963  0.042160912  0.043838009            6 
  296000     1.204226   -6.1371507    149.76673  0.042164057   0.04383486            5 
  297000    1.2097555   -6.1837076    150.41773  0.042204749  0.043830228            2 
  298000    1.1818781   -6.1227165    150.34937  0.042044007  0.043825416            2 
  299000    1.2003003   -6.1503212    150.92679  0.042064324  0.043821299            1 
  300000    1.2248351   -6.1488833     151.6367  0.042121306  0.043818125            3 
  301000    1.2017418   -6.1123819    152.14423  0.042121879  0.043814271            4 
  302000    1.1930914   -6.1099148    153.33924  0.042312153  0.043811269            4 
  303000    1.2037978   -6.1303051    152.89842  0.042051272  0.043808004            3 
  304000    1.1893838   -6.1229817    154.04464  0.042227148  0.043804485            7 
  305000    1.1927939   -6.0971415    153.99674  0.042075612  0.043800262            5 
  306000    1.2011122   -6.0958864    154.61249  0.042105798  0.043795422            6 
  307000    1.1948217   -6.1284925    156.17271  0.042392159  0.043790997            2 
  308000    1.2334086   -6.1629467    155.44122  0.042056606  0.043786584            2 
  309000     1.207664   -6.1755902    155.83063  0.042025521  0.043779505            5 
  310000     1.212527   -6.1461055    156.18156  0.041984291  0.043772082            5 
  311000     1.193964   -6.1279051    156.53034  0.041942749   0.04376424            5 
  312000    1.2099056   -6.1110603     157.3922  0.042038515  0.043757579            3 
  313000    1.2078279   -6.1281067    157.92325  0.042045592  0.043749724            3 
  314000    1.2105357   -6.1641695    157.44914  0.041785865  0.043740044            3 
  315000    1.2084205   -6.1260223    158.22889  0.041859496  0.043729451            4 
  316000    1.2079214   -6.1032789    158.77531  0.041871127  0.043719263            2 
  317000    1.1863614   -6.1141834    159.69055  0.041979641  0.043710966            3 
  318000    1.1777567   -6.1284243    159.95486  0.041916893   0.04370235            3 
  319000      1.21474   -6.1506476    160.74198  0.041991114  0.043693661            3 
  320000    1.2115745   -6.1185681     160.9383  0.041911016  0.043685226            2 
  321000    1.2103499   -6.1484298    161.35383  0.041888326  0.043677511            4 
  322000    1.2069382   -6.1670608    162.25418  0.041991248   0.04367064            3 
  323000      1.18185   -6.1542201    162.91545   0.04203185  0.043663493            4 
  324000    1.2138457   -6.1371142    163.50667  0.042054185  0.043655782            3 
  325000    1.1942876    -6.176235    163.99048   0.04204884  0.043649952            4 
  326000    1.1891202   -6.1445631    164.17857  0.041967936  0.043643309            2 
  327000    1.2050651   -6.1582568    165.20246  0.042100524  0.043637076            3 
  328000     1.199365   -6.1431196    165.61813  0.042077776  0.043630401            5 
  329000    1.2001628   -6.1594797    165.01521  0.041797166  0.043623484            3 
  330000    1.1834481   -6.1440079    166.34977  0.042007517  0.043616861            7 
  331000     1.210541   -6.1395938    166.72827    0.0419759  0.043609938            3 
  332000    1.1900337   -6.1494558    166.78149  0.041862823  0.043602948            2 
  333000    1.2088073   -6.1339252    168.03787  0.042051519   0.04359584            2 
  334000    1.1825513   -6.1416579    168.24908  0.041978313  0.043589193            2 
  335000    1.2195413   -6.0970991    168.50115  0.041915709  0.043581787            3 
  336000    1.2115535   -6.1302385    169.05997  0.041929555  0.043573783            2 
  337000     1.184963   -6.1593162    169.43837  0.041898708  0.043565891            3 
  338000    1.2245133   -6.1592589    170.23047  0.041970036  0.043558151            3 
  339000    1.2071494   -6.1526483    169.90123  0.041765297  0.043548851            3 
  340000    1.2008751   -6.1595955    170.97286  0.041905113  0.043539147            4 
  341000     1.202909   -6.1144849    171.18742  0.041834658  0.043528776            2 
  342000     1.222305   -6.1567734    170.93293  0.041650324  0.043518213            2 
  343000    1.1968652   -6.1553691    171.62112  0.041696092  0.043508626            2 
  344000    1.2110349   -6.1213773    172.29057  0.041737056  0.043497673            5 
  345000    1.2047274   -6.1531489    172.01833   0.04155032  0.043485354            4 
  346000     1.195035   -6.1717454    173.10348  0.041691589  0.043473483            3 
  347000    1.1860859   -6.1521545     173.6046  0.041691786  0.043462203            4 
  348000     1.184846   -6.1731382    173.52345  0.041552551  0.043449094            3 
  349000    1.1976285   -6.1598781     174.4548  0.041655874  0.043437373            2 
  350000    1.2088373   -6.1965365    174.00301  0.041429287  0.043425495            3 
  351000    1.2208137   -6.1449395    175.50201  0.041667144   0.04341306            2 
  352000    1.2007704    -6.182436     176.2188  0.041718465  0.043400953            3 
  353000    1.1856395   -6.1643687    176.71278  0.041716898  0.043388496            4 
  354000    1.1958761   -6.1615605    176.97743  0.041661354  0.043376303            3 
  355000    1.1979509   -6.1654562    177.10385  0.041573673  0.043361928            7 
  356000    1.2159269   -6.1480382    176.77849  0.041380732  0.043348409            3 
  357000    1.1832492   -6.1462346    177.98376  0.041546162  0.043335523            3 
  358000     1.189532   -6.1950345    178.74416  0.041607113  0.043323031            4 
  359000    1.2066784   -6.1783601    178.83864  0.041513148  0.043310602            4 
  360000    1.1668651   -6.1626818    179.69033  0.041594985  0.043298349            2 
  361000     1.177718   -6.1248566    179.59621  0.041458036  0.043285592            3 
  362000    1.1927991    -6.168032    179.85838  0.041403862    0.0432724            6 
  363000    1.2000771   -6.1264115    180.56456  0.041451918  0.043258284            3 
  364000    1.1956083   -6.1723212    180.49342  0.041321754  0.043244369            9 
  365000    1.2086203   -6.2229568    180.51731  0.041213998  0.043228594            9 
  366000    1.1930741   -6.1458567    181.61872  0.041352167  0.043212192            2 
  367000    1.1893197   -6.1487161    182.09934  0.041348623  0.043196812            5 
  368000    1.1789582   -6.1244254    181.82912  0.041175072  0.043180534            3 
  369000    1.1841805    -6.143645    183.01933  0.041332279  0.043164515            3 
  370000    1.1923751    -6.193371     183.5524  0.041340631  0.043148061            3 
  371000    1.1968121   -6.1374037    183.00075   0.04110529  0.043131195            3 
  372000    1.1985608   -6.1462195    184.05674  0.041231349  0.043114568            3 
  373000    1.1930452   -6.1375889    184.23549  0.041160743  0.043097717            3 
  374000    1.2032668   -6.1729756     184.4592  0.041100534  0.043081242            3 
  375000    1.1975032   -6.1581719    185.45013  0.041211141  0.043064878            1 
  376000     1.187742   -6.1629445    185.57625  0.041129487  0.043049145            4 
  377000    1.1981138   -6.1826755    186.25015  0.041169353  0.043032878            3 
  378000    1.1589378   -6.1639411    186.84385  0.041191325  0.043016196            4 
  379000    1.2060904   -6.1567127    186.96609  0.041109519   0.04300021            2 
  380000    1.1934715   -6.1461529    187.81695  0.041187927  0.042985311            2 
  381000    1.1955076   -6.1499458     188.2022  0.041164086    0.0429705            5 
  382000    1.1973026   -6.1542351    189.80768  0.041406562   0.04295673            1 
  383000    1.1868741   -6.1693637    189.17624  0.041161061  0.042941544            2 
  384000     1.212806   -6.1784324    189.79403  0.041187941  0.042926493            2 
  385000     1.177905   -6.1569044    189.34031  0.040982752    0.0429105            1 
  386000    1.2012913   -6.1392116    191.18778  0.041275427  0.042894571            3 
  387000    1.2007403    -6.138259    190.82673  0.041091027  0.042879444            2 
  388000    1.1680276   -6.1393835     191.6327  0.041158227  0.042863874            4 
  389000    1.1739186   -6.1570475    191.66348  0.041059015  0.042849313            3 
  390000    1.1764511   -6.1731289    192.18472   0.04106511  0.042834485            4 
  391000     1.201611   -6.1823163    192.96735  0.041126887   0.04282022            2 
  392000    1.2019644   -6.2202881     192.7777  0.040981655  0.042804998            4 
  393000    1.1900182   -6.1641382    193.07008  0.040939372   0.04278836            3 
  394000      1.19746   -6.1625993    194.00383  0.041032958  0.042772315            1 
  395000    1.2022453   -6.1758233    193.50629  0.040824111   0.04275575            4 
  396000    1.1749471   -6.1294029    194.61734  0.040954826  0.042740039            3 
  397000    1.2063746   -6.1367109    195.46951  0.041030544  0.042724558            2 
  398000     1.188025   -6.1763994    195.62974  0.040961002  0.042708365            2 
  399000    1.1787041   -6.1850294    196.36664  0.041012248  0.042693019            5 
  400000    1.1925258   -6.1657913     196.4616  0.040929499  0.042678001            2 
  401000    1.2159592   -6.1523216    197.80253  0.041106095  0.042664133            4 
  402000    1.1868362   -6.1493221    198.45533  0.041139165  0.042650191            5 
  403000    1.1875956   -6.1901126    197.40944   0.04082081  0.042635488            3 
  404000    1.1823253   -6.1385215    198.78045  0.041002568  0.042621402            2 
  405000    1.2037244   -6.1422117    199.53223  0.041056015  0.042607587            5 
  406000    1.2014603   -6.1946602    198.82704  0.040810147  0.042593471            5 
  407000    1.1657413   -6.1918977    200.27162  0.041005656  0.042578757            2 
  408000    1.1986229    -6.153583    200.32546  0.040916147  0.042564299            2 
  409000    1.1789911   -6.1960861    200.05431  0.040760861  0.042549018            3 
  410000    1.1916459   -6.1366763    201.41455  0.040937917  0.042533694            3 
  411000    1.2145506   -6.1425528    201.19199  0.040793186  0.042517583            3 
  412000    1.2102282   -6.1547343    201.81184  0.040819546  0.042502405            4 
  413000    1.1801905   -6.1550457    202.58637  0.040876991  0.042487705            1 
  414000    1.1715293   -6.1435811    202.90307  0.040842003  0.042472552            2 
  415000    1.1758321    -6.181412     203.4894  0.040861326   0.04245761            5 
  416000    1.1985624   -6.1866404    203.80025   0.04082537  0.042443758            3 
  417000    1.1975721   -6.1957788    203.65864  0.040699169  0.042429158            4 
  418000    1.1689224   -6.1340236    204.51533  0.040772594  0.042414362            4 
  419000    1.1618348   -6.1941743    204.86095  0.040744023  0.042399354            3 
  420000    1.1846354   -6.1580438    205.79257   0.04083186  0.042384794            3 
  421000    1.1523325   -6.1426928    206.71257  0.040916977  0.042370779            2 
  422000    1.1960677   -6.1802223    206.09717  0.040698493  0.042356187            2 
  423000    1.1888397   -6.1760593    207.16572  0.040812789  0.042341613            3 
  424000    1.1946888   -6.1880341    207.40438   0.04076344  0.042327563            2 
  425000    1.1829773   -6.1878241    208.56521  0.040895139  0.042314581            4 
  426000    1.1859604    -6.191407    209.50065   0.04098213  0.042303117            2 
  427000    1.1736755   -6.2041132    209.78805  0.040942243  0.042291211            3 
  428000    1.1732323   -6.1813763    209.99074  0.040886047  0.042280516            3 
  429000    1.1945108   -6.1817691    211.30196  0.041045447  0.042269721            4 
  430000     1.162383    -6.174408     211.5504   0.04099814  0.042259656            4 
  431000    1.1772858   -6.1946607    212.24623  0.041037553  0.042249328            2 
  432000    1.1962641   -6.1698205    213.26224  0.041138549  0.042238614            3 
  433000     1.193618   -6.1807031    213.25829  0.041042782  0.042228756            1 
  434000    1.1622264   -6.1536409    213.43252  0.040981667  0.042218719            2 
  435000    1.2036678   -6.1394762     214.0302  0.041001954  0.042208814            3 
  436000    1.1752284   -6.1626184    214.54028  0.041005404   0.04219865            2 
  437000    1.2016491   -6.1441722    214.98731  0.040996818  0.042188449            5 
  438000    1.1608747   -6.1928664    214.83666  0.040874554   0.04217835            2 
  439000    1.1851689   -6.1440625    216.22024  0.041044084  0.042168427            3 
  440000    1.1898184   -6.1890876    216.13846  0.040935314  0.042158795            4 
  441000    1.1788734    -6.153425    217.07673   0.04101979   0.04214876            4 
  442000    1.2044851    -6.196515    217.03376  0.040918884  0.042138888            2 
  443000    1.2024364   -6.1538022    217.34512  0.040885087  0.042128175            4 
  444000    1.1722917   -6.2006129    217.84212  0.040886284  0.042117311            3 
  445000    1.1825535   -6.1354836    218.40919  0.040900598  0.042107526            5 
  446000    1.1539585   -6.1379649    219.60125  0.041031624  0.042097909            3 
  447000    1.1650485    -6.221617    218.80336  0.040791081   0.04208836            2 
  448000    1.1762609   -6.1655802    220.10309  0.040941794  0.042078066            3 
  449000    1.1499028    -6.162998    219.67946  0.040771986   0.04206827            1 
  450000    1.1945159   -6.1739317     220.1267  0.040764204  0.042057198            4 
  451000    1.2022265   -6.1890125    220.71067  0.040781721  0.042046564            4 
  452000    1.1726466   -6.1553235    220.95137  0.040735872  0.042036149            2 
  453000    1.1585696   -6.1919114    222.40007  0.040912448  0.042026137            2 
  454000     1.205341   -6.1925426    222.34155  0.040811592  0.042016576            2 
  455000    1.2036894   -6.1828981    222.99763  0.040842057  0.042006714            6 
  456000    1.1437218   -6.1790233    224.22113  0.040976084  0.041997549            5 
  457000     1.192084   -6.1887545    224.51173   0.04093941  0.041986985            7 
  458000    1.1813916   -6.2012986    223.77888   0.04071668  0.041976754            2 
  459000    1.1740866   -6.1744192    224.46719  0.040752939  0.041965341            3 
  460000    1.1868011   -6.1820157    224.96888  0.040755232  0.041954408            3 
  461000     1.170862    -6.177132    225.51194  0.040764993   0.04194305            9 
  462000    1.1680711   -6.1657841    225.81904   0.04073215  0.041931623            4 
  463000    1.1710977   -6.1877979     226.0319  0.040682487  0.041920788            5 
  464000     1.173075   -6.1779584    226.54971  0.040687807  0.041909867            3 
  465000    1.1738768   -6.1866457    227.32128   0.04073858  0.041898887            2 
  466000    1.1676328   -6.1416798    228.42884   0.04084922  0.041888506            2 
  467000    1.1641248    -6.147509    226.72607    0.0404579  0.041876521            4 
  468000    1.1748775   -6.1747417    227.59824  0.040526752  0.041864128            2 
  469000    1.1740448   -6.1620395    227.95735  0.040504149  0.041851048            2 
  470000    1.1752618   -6.1744541    229.29578   0.04065528  0.041838956            2 
  471000    1.1591427   -6.1741079     228.8795  0.040495311  0.041826873            2 
  472000    1.1918421   -6.1617113    229.74893  0.040563018  0.041815022            2 
  473000    1.2096596   -6.2058854    230.06667  0.040533239   0.04180274            6 
  474000    1.1425309   -6.1518596     231.4392   0.04068903  0.041791926            3 
  475000     1.181318   -6.2051159    231.38211  0.040593352  0.041781466            5 
  476000    1.1811417   -6.2190967    232.30323  0.040669333  0.041770882            4 
  477000     1.176083   -6.1910917    233.19455  0.040739788  0.041761032            6 
  478000    1.1642503   -6.1747475    232.47403  0.040528945  0.041751057            4 
  479000    1.1792405   -6.1978273    233.51411   0.04062528  0.041740443            3 
  480000     1.154192   -6.1865192    233.60747  0.040556853  0.041729146            3 
  481000    1.1957016   -6.1550449    234.08143  0.040554649  0.041718303            5 
  482000    1.1521213   -6.1741903    235.29369  0.040680099  0.041707025            3 
  483000     1.206141   -6.1688628    234.69259  0.040492165   0.04169577            2 
  484000    1.1950464   -6.1806456    235.69467  0.040581039  0.041684659            5 
  485000    1.1728202   -6.1548701    235.34161  0.040436703  0.041673095            3 
  486000    1.1580613   -6.2031023    235.58386  0.040395038  0.041660934            3 
  487000    1.1809119   -6.1924019    234.80249  0.040178386  0.041646792            2 
  488000    1.1690509   -6.2278554    235.83709  0.040272727  0.041633538            5 
  489000    1.1524856   -6.2430772    235.79318  0.040182887  0.041620165            5 
  490000    1.1725068   -6.1533447    237.04343  0.040313509  0.041606946            5 
  491000    1.1556947   -6.1751867    237.51253   0.04031102  0.041594468            2 
  492000    1.1897803   -6.2143109    238.42301    0.0403833  0.041581954            3 
  493000    1.1648624   -6.1974176    238.90187  0.040382331  0.041569914            5 
  494000    1.1575122   -6.1970079    238.69789  0.040266176   0.04155768            3 
  495000    1.1731508   -6.1949031    239.59892  0.040336519  0.041545581            2 
  496000    1.1527558   -6.2099333    239.58028  0.040252063   0.04153321            5 
  497000    1.1578945   -6.1816763    240.49028  0.040323655  0.041520516            3 
  498000    1.1628423   -6.2133429    240.84189  0.040301521  0.041508024            5 
  499000    1.1742456   -6.2161788    240.93215   0.04023583   0.04149568            5 
  500000    1.1883041   -6.1670934     241.7065  0.040284417  0.041483396            2 
  501000    1.1641928   -6.1824535    241.71648  0.040205669  0.041471456            3 
  502000    1.2058841   -6.1638673    243.00164  0.040338917  0.041459494            3 
  503000    1.1938114   -6.1943325    243.06151  0.040268639  0.041447554            5 
  504000    1.1572505   -6.1802467    243.29368   0.04022713  0.041435597            4 
  505000    1.1885804   -6.1789218    243.91696  0.040250324  0.041423471            3 
  506000     1.144035   -6.2027703    244.10628  0.040201956  0.041411352            2 
  507000    1.1870651   -6.2342511     244.1726  0.040133563  0.041398993            5 
  508000    1.1429056   -6.1803182    244.71192  0.040143031  0.041386431            3 
  509000    1.1549787   -6.1901947    245.59337  0.040208476  0.041373385            7 
  510000    1.1644039   -6.2081705     245.5288  0.040119085  0.041360653            2 
  511000     1.168867   -6.1903866    246.44585  0.040190125  0.041348013            5 
  512000    1.1710257   -6.1780672    246.99336  0.040200743  0.041335528            3 
  513000    1.1720151   -6.2015303    246.90078   0.04010734  0.041322837            2 
  514000    1.1760624   -6.1947826     247.3937  0.040109225  0.041310101            3 
  515000    1.1683113   -6.1918775    248.59838  0.040226275  0.041297713            4 
  516000    1.1626785   -6.1855299    248.18765  0.040081985  0.041284796            5 
  517000    1.1786625   -6.2358265    249.29367  0.040182732  0.041271942            3 
  518000    1.1771883   -6.2054554    249.11644  0.040076648  0.041258541            3 
  519000    1.1841664   -6.2038528    249.49603  0.040060377  0.041245606            3 
  520000    1.1588196    -6.201859    250.14371  0.040087132  0.041232884            3 
  521000    1.1757443   -6.1817252    249.65521  0.039932055  0.041220339            5 
  522000    1.1699721   -6.1877214    249.99237  0.039909383  0.041207931            5 
  523000    1.1929615   -6.2230661    250.81699  0.039964466  0.041194629            3 
  524000    1.1341758   -6.2203955    252.14421   0.04009927  0.041182168            3 
  525000    1.1423078    -6.228011    252.84517  0.040134155  0.041169563            3 
  526000    1.1661292   -6.2265069     251.5605  0.039854326  0.041157718            4 
  527000    1.1492854   -6.1966904    253.75096  0.040125072  0.041146226            4 
  528000    1.1404124   -6.2401185    253.66733  0.040035878  0.041134976            4 
  529000    1.1505048   -6.1751951    254.41484  0.040077952  0.041123679            4 
  530000    1.1725836   -6.2275607    254.38861  0.039998208  0.041112508            3 
  531000    1.1677191   -6.2140631    254.86053  0.039996945    0.0411012            3 
  532000    1.1775903   -6.2031772    256.23523  0.040137098  0.041090089            4 
  533000    1.1562931   -6.2077538    257.50499  0.040260318  0.041080198            5 
  534000    1.1476335    -6.193906     257.7306   0.04022013  0.041070547            3 
  535000    1.1551951   -6.2161905    257.61846  0.040127486  0.041060642            3 
  536000    1.1638155   -6.2335682    256.76557   0.03992002  0.041050217            3 
  537000     1.144504   -6.2083323    258.14267  0.040059384  0.041039523            4 
  538000     1.165983   -6.2101558    258.74307  0.040077922  0.041030018            8 
  539000    1.1614297   -6.1616724    259.50709   0.04012169  0.041019959            2 
  540000    1.1597498   -6.1642901    260.11323  0.040140931  0.041010118            3 
  541000    1.1692568   -6.2026325    260.71337  0.040159176   0.04099956            5 
  542000    1.1599855   -6.1848799    259.74495  0.039936185   0.04098891            2 
  543000    1.1999121   -6.1747349    260.15077  0.039924918  0.040978035            2 
  544000    1.1921744   -6.2052014    260.87068  0.039961808  0.040967505            5 
  545000    1.1766699   -6.1653089    261.86101   0.04003991  0.040956634            5 
  546000    1.1785924    -6.224491    261.77984  0.039954188   0.04094522            3 
  547000    1.1778988   -6.2056971    261.71463  0.039871211  0.040933411            1 
  548000    1.1440372   -6.2126478    261.86829   0.03982182  0.040921191            5 
  549000    1.1612922   -6.2174327    262.26696    0.0398098  0.040908325            3 
  550000    1.1606627   -6.1549207      262.346  0.039749393  0.040896054            4 
  551000    1.1661582   -6.1812739    262.69759  0.039730428  0.040883312            4 
  552000    1.1790683   -6.2135848    262.89955  0.039688941  0.040870517            2 
  553000    1.1557441    -6.206596    263.39448  0.039691754   0.04085764            3 
  554000    1.1638369   -6.1911058    264.57234  0.039797284  0.040845068            4 
  555000    1.1621638   -6.1960199    264.83033  0.039764313  0.040833056            3 
  556000    1.1694105   -6.2231368    265.03883  0.039724045  0.040821627            5 
  557000    1.1737509   -6.2022954    266.39355  0.039855408  0.040809586            4 
  558000    1.1581689   -6.1892571    266.46721  0.039794983  0.040797448            2 
  559000    1.1728816   -6.2172315    266.50531  0.039729474  0.040785462            6 
  560000    1.1673599   -6.2328853    266.89002  0.039715777  0.040772775            3 
  561000    1.1303887   -6.2144303    267.10453  0.039676847  0.040759685            2 
  562000    1.1746144   -6.1921887    267.19021  0.039618952  0.040746599            4 
  563000    1.1474639   -6.1766642    267.80828  0.039640065  0.040733163            5 
  564000    1.1522696   -6.1914825    268.35698  0.039650854  0.040720513            2 
  565000    1.1396933   -6.2244434    267.66938   0.03947926  0.040707151            4 
  566000    1.1500284   -6.2351461    267.69258  0.039412924  0.040693655            7 
  567000    1.1507489   -6.2252955    269.34518  0.039586299   0.04067997            5 
  568000    1.1410706   -6.2343901    268.99733   0.03946557  0.040666354            2 
  569000    1.1735683   -6.1856859    269.97667  0.039539641  0.040653104            2 
  570000    1.1802292   -6.1563655    271.52797  0.039697071  0.040640316            4 
  571000     1.159635   -6.2293156    270.89699  0.039535462  0.040628493            2 
  572000    1.1750456   -6.1854977    272.27401  0.039666959  0.040616568            3 
  573000    1.1793947    -6.220303     272.0321  0.039562551  0.040604655            3 
  574000    1.1518431   -6.2381056    271.99571  0.039488343  0.040593081            4 
  575000    1.1327904    -6.270686    272.59781  0.039506929  0.040581055            5 
  576000    1.1387882    -6.243234    272.99499  0.039495803  0.040568598            2 
  577000    1.1660735   -6.2529517    273.93106  0.039562545  0.040556435            4 
  578000    1.1428064   -6.2136024    275.55794  0.039728654  0.040544752            3 
  579000    1.1471304   -6.2151111    275.33215   0.03962754  0.040532606            3 
  580000     1.162654   -6.2357025    275.64259   0.03960382  0.040520637            3 
  581000    1.1593998   -6.2221518    275.54791  0.039522076   0.04050884            3 
  582000    1.1478043   -6.2172717    275.88494  0.039502426  0.040496739            5 
  583000    1.1638458   -6.2208115    276.37538  0.039504772  0.040484798            2 
  584000    1.1679019   -6.2211819    275.86974  0.039364974  0.040472335            2 
  585000     1.142243   -6.2099396    275.87996  0.039299139  0.040459833            4 
  586000     1.135354   -6.2099797    277.09294   0.03940457  0.040447011            2 
  587000     1.154555   -6.1993489    276.99644  0.039323742  0.040434105            5 
  588000    1.1581643   -6.2249787    277.72635   0.03936031  0.040420854            1 
  589000    1.1302761   -6.1975861    278.37188  0.039384815  0.040408329            4 
  590000    1.1655975   -6.1933477    278.12659  0.039283417  0.040395593            4 
  591000    1.1654827   -6.2207215    278.52395  0.039272977  0.040382796            8 
  592000    1.1661606   -6.2458772    278.97692    0.0392704  0.040370292            3 
  593000    1.1800002   -6.2391162    280.09191  0.039360864  0.040357639            7 
  594000    1.1689049    -6.239713    280.55817  0.039360013  0.040345165            4 
  595000    1.1632942   -6.1901794    281.32438  0.039401174  0.040332973            4 
  596000    1.1438691   -6.2487446    281.24906  0.039324532  0.040321315            3 
  597000     1.134823   -6.2171627    282.70557  0.039461972  0.040309743            3 
  598000    1.1847338   -6.2308208    282.41018  0.039354819  0.040298203            2 
  599000     1.145388   -6.1912852    283.41287  0.039428613  0.040286475            3 
  600000    1.1246306   -6.2204505    283.84583  0.039423032  0.040275279            2 
  601000    1.1310048   -6.2265711    283.80885  0.039352309   0.04026349            2 
  602000    1.1572154   -6.2802247    283.41839  0.039232889  0.040251872            5 
  603000     1.161289   -6.2466684    284.80405  0.039359322  0.040240657            4 
  604000    1.1649726   -6.1543961    286.03988  0.039464664  0.040230039            4 
  605000    1.1668407   -6.2410831    285.22513  0.039287209  0.040218991            3 
  606000    1.1393128   -6.2302569    284.84987  0.039170774  0.040207802            4 
  607000    1.1523512    -6.231529    286.60627  0.039347374  0.040196558            5 
  608000    1.1433717   -6.2126438    287.45271  0.039398672  0.040185572            6 
  609000    1.1592109   -6.2613195    287.79182   0.03938038  0.040174709            2 
  610000    1.1356905   -6.2267638    288.00616  0.039345104  0.040164095            4 
  611000    1.1177439   -6.2588743    288.48555  0.039346092  0.040153535            4 
  612000    1.1578022   -6.2347765    289.33087  0.039396905  0.040143263            2 
  613000    1.1624756   -6.2388912    289.39168  0.039340902  0.040132753            4 
  614000    1.1796919   -6.2723438    290.68822  0.039452798  0.040122922            6 
  615000    1.1704359   -6.2957874    290.05004  0.039302174  0.040112641            7 
  616000    1.1395763   -6.2182398    291.27459   0.03940403  0.040102766            3 
  617000    1.1630742   -6.2380123    290.94508  0.039295661  0.040092669            7 
  618000    1.1679909   -6.2255217    291.78635  0.039345516  0.040083168            6 
  619000    1.1505728   -6.2082508    292.58104  0.039388939  0.040073846            6 
  620000    1.1379416   -6.2371683    292.05188  0.039254285  0.040064401            2 
  621000    1.1762689    -6.207891    293.71712  0.039414536  0.040054087            3 
  622000    1.1660522   -6.1911065    293.73217  0.039353185  0.040044235            2 
  623000    1.1563641   -6.2484709    294.04026  0.039331228  0.040034978            3 
  624000    1.1437432   -6.2317287    294.43577  0.039321016  0.040025287            2 
  625000    1.1619055   -6.2196094    294.03296  0.039204394  0.040015796            2 
  626000    1.1505842   -6.1957108    295.61085  0.039351817   0.04000595            3 
  627000    1.1362918    -6.213762    295.78236   0.03931185  0.039996126            3 
  628000    1.1469727   -6.2307905    295.00736  0.039146412  0.039985667            5 
  629000    1.1304939   -6.2502846    294.52542  0.039020326  0.039975338            2 
  630000    1.1455924   -6.2188346    296.08829  0.039165117  0.039964798            4 
  631000    1.1497802   -6.2803652    296.29671  0.039130575  0.039954295            2 
  632000    1.1467504   -6.2481653    297.66439  0.039248997  0.039944239            3 
  633000    1.1690522   -6.2915163    298.28091  0.039268155  0.039934753            5 
  634000      1.12156   -6.2396982    298.93601  0.039292325  0.039924952            4 
  635000    1.1740623   -6.2535219    298.59958  0.039186297  0.039915178            4 
  636000    1.1558366   -6.2168153    299.21687  0.039205564  0.039905667            5 
  637000    1.1437216   -6.2650271    298.78916  0.039088063  0.039896073            6 
  638000    1.1551447   -6.2187107    300.01125  0.039186422  0.039886499            4 
  639000    1.1481064   -6.2285733    300.86871   0.03923692  0.039876218            2 
  640000    1.1402028   -6.2283695     301.0252   0.03919599  0.039866445            2 
  641000    1.1376581   -6.2462753    301.35074  0.039177163  0.039856833            2 
  642000    1.1663867   -6.2686481    300.70884  0.039032819  0.039846683            3 
  643000    1.1282302   -6.2277261    302.69744  0.039229839  0.039837014            2 
  644000    1.1813511   -6.2481095    301.98272  0.039076439  0.039827568            6 
  645000    1.1287143   -6.2210194    301.81435  0.038994102  0.039817543            2 
  646000     1.146196   -6.2407018    302.91743  0.039076036  0.039807416            4 
  647000    1.1661437   -6.2524205    303.87468  0.039138933  0.039797585            3 
  648000    1.1251769   -6.2452554    303.35942  0.039012272  0.039787628            3 
  649000    1.1272587   -6.2240202    303.25821  0.038939164  0.039777425            4 
  650000    1.1606937   -6.1811801     306.3885  0.039280576  0.039767573            2 
  651000    1.1386486   -6.2523512    304.37452  0.038962432  0.039757431            3 
  652000    1.1475012   -6.2335224    305.65209  0.039065963  0.039747091            2 
  653000    1.1290564   -6.2215283    306.10185  0.039063534  0.039737393            3 
  654000    1.1445246   -6.2256595    306.32657  0.039032438  0.039727836            1 
  655000    1.1486655   -6.2351061    307.24975  0.039090299  0.039718423            2 
  656000    1.1723077   -6.2299745    306.76877  0.038969611   0.03970835            4 
  657000     1.130028   -6.2320182    307.97064   0.03906274  0.039698243            3 
  658000     1.123752   -6.2113285    307.79214  0.038980767  0.039688032            2 
  659000    1.1537542   -6.2190734    309.24111  0.039104845  0.039678052            8 
  660000    1.1385365   -6.2469803    309.34838  0.039059139   0.03966833            1 
  661000    1.1280574   -6.2044192    309.62185  0.039034525  0.039659197            6 
  662000    1.1230234   -6.2171149     309.3871  0.038946009  0.039649835            4 
  663000    1.1276428   -6.2183277    310.12374  0.038979857  0.039640468            3 
  664000    1.1653504   -6.2490781    311.11801  0.039045935  0.039631182            7 
  665000    1.1469961   -6.2133699    311.58669  0.039045951  0.039621349            2 
  666000    1.1278908   -6.2501546    311.80319  0.039014413  0.039612634            4 
  667000     1.140835   -6.2700376    312.84552  0.039086146  0.039604077            5 
  668000    1.1399614   -6.2250144    312.06496  0.038930259  0.039595227            6 
  669000    1.1476318   -6.2361074    313.99629  0.039112642  0.039586444            4 
  670000    1.1484772   -6.2285033    313.19209   0.03895424  0.039577777            3 
  671000    1.1348126   -6.2686423    314.94576  0.039113979  0.039569288            4 
  672000    1.1474637    -6.229641    314.16727  0.038959234  0.039560613            3 
  673000    1.1489325   -6.2283405    315.94466  0.039121429  0.039551756            5 
  674000    1.1480195    -6.271288    315.27583  0.038980691   0.03954351            2 
  675000    1.1309953   -6.2599774    315.90236  0.039000292  0.039535027           10 
  676000    1.1372547   -6.2440036    317.25246  0.039109031  0.039526434            2 
  677000    1.1363299   -6.2539435    316.77394  0.038992361  0.039518021            5 
  678000    1.1508115   -6.2223276     318.0431  0.039090843  0.039510181            7 
  679000    1.1438659   -6.2781515    318.09657  0.039039834  0.039502187            2 
  680000    1.1525038    -6.284378     318.1152  0.038984706  0.039493878            4 
  681000    1.1386899   -6.2549468    320.09466  0.039169684  0.039485515           11 
  682000    1.1351527   -6.2026018      321.202  0.039247557  0.039477916            3 
  683000    1.1463234   -6.2531287    320.14712  0.039061386  0.039470129            2 
  684000    1.1565712   -6.2777575    320.49065  0.039046132  0.039462315            2 
  685000    1.1640717   -6.2808776    320.47453  0.038987169  0.039454693            4 
  686000     1.124665   -6.2476687    321.75838  0.039086295  0.039446995            4 
  687000    1.1585853   -6.2505504    321.88651  0.039044943   0.03943936            3 
  688000    1.1189873   -6.2436365    323.36555  0.039167339  0.039431976            3 
  689000    1.1441584   -6.2254175    322.78076  0.039039763   0.03942463            3 
  690000    1.1179821   -6.2611243    322.97207  0.039006288  0.039417164            5 
  691000    1.1513755   -6.2502501    323.21041  0.038978583  0.039409953            4 
  692000    1.1270057   -6.2614068    324.06336  0.039024972  0.039402179            4 
  693000    1.1412185   -6.2376141    324.93804  0.039073839  0.039394401            3 
  694000    1.1524222   -6.2538573    325.39744    0.0390727  0.039386571           14 
  695000    1.1586586   -6.2408937     325.9634  0.039084341  0.039378997            2 
  696000    1.1474431   -6.2494999    325.97902  0.039030055  0.039371402            3 
  697000    1.1368536   -6.2672797    324.79579  0.038832591  0.039363736            3 
  698000    1.1476845   -6.2260695    327.50746    0.0391007  0.039356097            3 
  699000    1.1497446    -6.234286    326.81235  0.038961891  0.039348413            4 
  700000    1.1449181   -6.2234161    326.27666  0.038842459   0.03934059            4 
  701000     1.117499   -6.2227372    327.71141   0.03895761  0.039332827            2 
  702000    1.1240527   -6.2529776    326.35195  0.038740735  0.039324876            3 
  703000     1.160865    -6.235736    328.23202   0.03890849  0.039316932            5 
  704000    1.1129817   -6.2616915    328.08305  0.038835589  0.039309073            5 
  705000    1.1524254   -6.2152672    328.91494  0.038878835  0.039301296            6 
  706000    1.1370908   -6.2509211    328.66058  0.038793741  0.039293063            3 
  707000    1.1220446   -6.2253271    329.30545  0.038814881  0.039284673            3 
  708000    1.1332455   -6.2506502    331.21177  0.038984436   0.03927714            3 
  709000    1.1224711   -6.2704769    331.39898  0.038951456  0.039269449            4 
  710000    1.1252929   -6.2692212    331.08803  0.038860097  0.039261754            2 
  711000    1.1028232   -6.2613456    331.91702  0.038902605  0.039254007            1 
  712000    1.1429492   -6.2281337    333.42903  0.039024933  0.039246671            3 
  713000    1.1284736   -6.2843868    332.66024  0.038880346  0.039239741            3 
  714000    1.1398991   -6.2868891    333.63326  0.038939457  0.039233156            2 
  715000    1.1618051   -6.2207669    334.22916  0.038954448  0.039226584            4 
  716000    1.1513667   -6.3113435    335.11501  0.039003144  0.039220061            5 
  717000    1.1348212   -6.2521079    336.99349  0.039167072  0.039213582            2 
  718000     1.125426   -6.2389164    336.45334  0.039049831    0.0392073            2 
  719000    1.1282599   -6.2568637    336.42215  0.038991904  0.039201099            5 
  720000    1.1325026   -6.2716624     337.5851  0.039072349  0.039194744            5 
  721000    1.1161491   -6.2295036    337.00591  0.038951214  0.039188595            3 
  722000    1.0998611   -6.3009817    337.96791    0.0390083  0.039182332           11 
  723000    1.1218957   -6.2432706    338.76751  0.039046508  0.039176343            2 
  724000    1.1366998   -6.2244106    339.43905  0.039069872  0.039171172            2 
  725000    1.1212146   -6.3006941    339.02152  0.038967991  0.039165701            4 
  726000     1.133393   -6.2431001    340.93813  0.039134312  0.039160776            4 
  727000    1.1394107   -6.2467051    341.02988     0.039091  0.039156016            4 
  728000    1.1315668   -6.2817643    340.71958  0.039001784  0.039151075            7 
  729000     1.134385   -6.2493261     341.5746  0.039046022  0.039146099            3 
  730000    1.1297314   -6.2507791    341.97568  0.039038319  0.039140975            6 
  731000    1.1323187   -6.2402273    342.04896   0.03899327  0.039135576            3 
  732000    1.1286398   -6.2441803    343.47597  0.039102455  0.039130373            5 
  733000    1.1382058   -6.2482317     343.2339   0.03902159  0.039125152            4 
  734000    1.1404885    -6.258352    342.83295  0.038922905  0.039119684            3 
  735000     1.112437   -6.2667582    342.99564  0.038888395  0.039113845            3 
  736000    1.1413887   -6.2265089    344.79226  0.039038979  0.039108239            4 
  737000    1.1373632   -6.2602885    343.73379  0.038866326  0.039102577            2 
  738000    1.1331636    -6.277912    344.38357  0.038887033   0.03909718            5 
  739000    1.1415851   -6.2429118     345.1083  0.038916136  0.039091528            4 
  740000    1.1278962   -6.2660424    346.16223  0.038982233  0.039085806            3 
  741000    1.1177219   -6.2374288    347.64468  0.039096343  0.039080057            4 
  742000     1.124514   -6.2506464    345.44255  0.038796333  0.039074146            3 
  743000    1.1431267   -6.2465495    346.39362  0.038850788  0.039068068            2 
  744000    1.1340588    -6.249234    346.86657  0.038851543  0.039062214            3 
  745000    1.1326749   -6.2277932    348.27985  0.038957477  0.039056683            6 
  746000    1.1278818   -6.2456451    348.54382  0.038934743  0.039051456            2 
  747000    1.1207989   -6.2678574    349.17677  0.038953231  0.039045509            4 
  748000    1.1046918   -6.2508484    348.54147  0.038830378  0.039039302            7 
  749000     1.144418   -6.2490232    348.34933  0.038757158  0.039032524            3 
  750000    1.1363646   -6.2175993     348.7664  0.038751822  0.039025882            3 
  751000      1.13803   -6.2723116    349.40188  0.038770737   0.03901921            3 
  752000    1.1232235   -6.2241555    350.62812  0.038855067  0.039012415            4 
  753000    1.1403428   -6.2852937    349.73787  0.038704944  0.039005843            4 
  754000    1.1311406   -6.2652648    351.33918   0.03883059  0.038999263            5 
  755000    1.1245111     -6.28331    349.64795  0.038592489  0.038992632            6 
  756000    1.1338253   -6.2427485    350.96875  0.038687032   0.03898605            3 
  757000    1.1301884   -6.2561096    350.98963  0.038638225  0.038979554            3 
  758000    1.1211139   -6.2775277    351.87737  0.038684847  0.038972679            4 
  759000    1.1234032   -6.2539008    352.59156  0.038712293  0.038965979            2 
  760000    1.1178126   -6.3150789     353.2957  0.038738563  0.038959435            5 
  761000    1.1121481   -6.2851941    353.02673  0.038658205  0.038952929            4 
  762000    1.1456055   -6.2788488     353.7075  0.038681923  0.038946326            2 
  763000    1.1508223   -6.2822019    354.29535  0.038695429  0.038939716            4 
  764000    1.1172609   -6.2681912    354.39868  0.038656052  0.038932912            5 
  765000    1.1396506   -6.2570471    354.95864  0.038666519  0.038926596            6 
  766000    1.1344216   -6.3028177    354.91647  0.038611453  0.038920313            3 
  767000    1.1350176   -6.2404008    356.07312   0.03868678  0.038914415            4 
  768000    1.1319628   -6.2661642    357.50198  0.038791447  0.038908694            3 
  769000    1.1308164    -6.243934    357.02092  0.038688873  0.038902693            3 
  770000    1.1451067   -6.2859957    357.45418  0.038685517  0.038896796            2 
  771000    1.1357752   -6.2864482    358.14496  0.038710004  0.038890705            4 
  772000    1.1514258   -6.2604592    358.42762  0.038690373  0.038884679            5 
  773000    1.1050995   -6.2700805    358.82736  0.038683415  0.038878693            3 
  774000    1.1448817   -6.2576439    358.96723  0.038648496  0.038872653            5 
  775000    1.1260235   -6.2451479    359.35696  0.038640533  0.038866275            5 
  776000    1.1247862   -6.2595048    359.48266  0.038604237   0.03885977            4 
  777000    1.1116314   -6.2516032    360.03532  0.038613826  0.038853506            4 
  778000    1.1101771   -6.2571783    359.96701  0.038556878  0.038847012            4 
  779000    1.1377492   -6.2848479    360.61365  0.038576556  0.038840357            4 
  780000     1.124082   -6.2640109    360.49559  0.038514486  0.038833505            3 
  781000    1.1182767   -6.2807806    362.18018  0.038644919  0.038826834            3 
  782000    1.1054875   -6.2581897    362.29176  0.038607391  0.038820381            4 
  783000    1.1251047    -6.248472    362.16283  0.038544363  0.038813635            3 
  784000    1.1354817   -6.2735864    362.82773  0.038565873  0.038806875            6 
  785000    1.1197226    -6.281314    364.68888  0.038714319  0.038800507            2 
  786000    1.1246991   -6.3028516    363.38956  0.038527307  0.038794387            6 
  787000    1.1160984   -6.2752814    365.49843  0.038701655  0.038788233            2 
  788000    1.1549969   -6.2533825    365.71166   0.03867509  0.038782408            2 
  789000    1.1401793   -6.2831595    364.81885  0.038531775  0.038776315            2 
  790000    1.1210418   -6.2818295     366.1009  0.038618238  0.038770701            4 
  791000    1.1011876   -6.2566625    367.12392  0.038677193  0.038765123            4 
  792000    1.1308208   -6.3057827    366.37865  0.038549943  0.038759514            3 
  793000    1.1144167   -6.2942767    368.95721    0.0387723  0.038754138            3 
  794000    1.1163008   -6.2854984    367.78677  0.038600626  0.038748881            3 
  795000    1.1217385   -6.2919424    368.49124  0.038625916   0.03874361            4 
  796000    1.1014709   -6.2726358    369.42166  0.038674796  0.038738134            2 
  797000    1.1310014   -6.3102734    368.32823  0.038511944  0.038732871            2 
  798000    1.1381301    -6.310688     369.5931  0.038595771  0.038727734            3 
  799000    1.1123435   -6.2869979    371.60608  0.038757413  0.038723021            2 
  800000    1.1202009   -6.2918895    372.43533  0.038795347   0.03871851            8 
  801000    1.0870028    -6.239523    372.64526  0.038768754  0.038713937            2 
  802000    1.1140697   -6.2757977    372.70484  0.038726605  0.038709274            3 
  803000    1.1375709   -6.2763764     372.9387  0.038702646  0.038704798            6 
  804000    1.1329684   -6.2861539    372.57596  0.038616911  0.038700417            3 
  805000    1.1231586   -6.2703327    373.82546  0.038698288  0.038696033            3 
  806000    1.1193437   -6.2859015    373.77905  0.038645477  0.038691416            2 
  807000    1.1064068   -6.3053874    374.65605   0.03868815  0.038686442            4 
  808000    1.1381926   -6.2792226    376.30377  0.038810207  0.038681629            3 
  809000    1.1063886   -6.2898479    375.41087  0.038670259  0.038676848            8 
  810000    1.1180191   -6.2572034    376.29973  0.038713964  0.038672064            6 
  811000    1.1405368    -6.232279    377.37789  0.038777013  0.038667878            4 
  812000    1.1277943   -6.3014921    376.38598  0.038627461  0.038663372            3 
  813000    1.1170692   -6.2837935    377.78428  0.038723276  0.038658907            5 
  814000    1.1085844   -6.2949529    376.97889  0.038593253  0.038654499            5 
  815000    1.1239363   -6.2494083    379.44263  0.038797815  0.038650369            3 
  816000    1.1092694    -6.276125    378.47406  0.038651354  0.038646141            5 
  817000    1.1130096   -6.3021535    378.29857  0.038586145  0.038641389            3 
  818000    1.1452418   -6.2848841    379.99853  0.038712157  0.038636457            3 
  819000    1.1125941   -6.2616077    380.35941  0.038701608   0.03863155            3 
  820000    1.1104592   -6.2670534    379.88328  0.038606025  0.038627264            2 
  821000    1.1169313   -6.2598962    380.98913  0.038671248  0.038622848            5 
  822000    1.1430922   -6.2760228     381.1739  0.038642934  0.038618185            5 
  823000    1.1040373   -6.2706637    382.01418  0.038681064  0.038613741            3 
  824000    1.1198659    -6.266769    381.28058  0.038559929  0.038609271            5 
  825000    1.1216481   -6.2944416    381.84573  0.038570276  0.038604762            3 
  826000    1.1087322   -6.2607536    382.91116  0.038631069  0.038600175            4 
  827000    1.1118613    -6.288206    382.13893  0.038506543  0.038595582            3 
  828000    1.1246785    -6.316855    383.69138  0.038616282  0.038590551            3 
  829000    1.1441942   -6.2679597    384.11331  0.038612114  0.038586252            2 
  830000    1.1156517   -6.3134122    383.95671   0.03854987   0.03858157            2 
  831000    1.1137926   -6.2875209    384.52394  0.038560363  0.038576849            1 
  832000    1.1070167   -6.2588243    386.03228  0.038665092  0.038571887            4 
  833000    1.1271365   -6.2840997    385.12035  0.038527446  0.038566768            3 
  834000    1.1283552   -6.2688834     386.6106  0.038630156  0.038561516            6 
  835000    1.0962182   -6.2959052     385.5162  0.038474671  0.038556031            4 
  836000    1.1247904   -6.2965188    386.02673  0.038479539  0.038550803            3 
  837000    1.1030555   -6.2412261    387.95858  0.038625904  0.038545938            2 
  838000    1.1294446    -6.306412    387.32491  0.038516797  0.038541203            2 
  839000    1.1161839   -6.2945218    387.66911  0.038505076  0.038536313            3 
  840000    1.1331987   -6.3089207    388.25218  0.038517081  0.038531325            7 
  841000     1.142063   -6.3109771    388.04976  0.038451225  0.038526106            2 
  842000    1.1039543   -6.2456437    387.93278  0.038393981  0.038520839            3 
  843000    1.1318193   -6.2611343    389.44042  0.038497472  0.038515611            2 
  844000    1.0997832   -6.2798069     388.7829  0.038386937  0.038509862            4 
  845000    1.0883494   -6.2797596    389.01036   0.03836394   0.03850446            4 
  846000    1.0888598   -6.2960583    390.13866  0.038429734   0.03849919            4 
  847000      1.09721   -6.3055689    390.71988  0.038441547  0.038493879            4 
  848000     1.099896    -6.297356    393.11607  0.038631689  0.038489242            2 
  849000    1.1011625   -6.2918098    391.71973  0.038449129  0.038484456            3 
  850000    1.1139912    -6.295979    394.16473  0.038643601  0.038480085            3 
  851000    1.0694605   -6.3698157    391.88953  0.038375395  0.038475314            1 
  852000    1.1342283   -6.2827705    394.21618  0.038557921  0.038470855            4 
  853000    1.1380987   -6.3293161    393.89748  0.038481583  0.038466533            4 
  854000    1.1113852   -6.2770449    394.14118  0.038460303  0.038462073            2 
  855000    1.1045991   -6.2939401    394.01803  0.038403317  0.038457667            4 
  856000    1.1385388   -6.2766712    395.18111  0.038471681  0.038453096            2 
  857000    1.1257006   -6.3179361    394.87775  0.038397292  0.038448488            4 
  858000    1.1206894   -6.3033044    395.83358  0.038445375  0.038443659            4 
  859000    1.1114145   -6.2769525    395.41644  0.038360151  0.038438766            5 
  860000    1.1231552   -6.2972863    395.97686  0.038369851  0.038433578            1 
  861000    1.1167398   -6.3041891    396.10138  0.038337339  0.038428539            3 
  862000    1.1067126   -6.3000651    396.28178  0.038310303  0.038423389            3 
  863000    1.1036196    -6.299503    395.86602  0.038225765  0.038417735            4 
  864000    1.1024762   -6.2867393    398.36975  0.038423008   0.03841223            3 
  865000    1.1168683   -6.2999121    398.46441  0.038387708  0.038406868            5 
  866000    1.1309387   -6.2882102    397.89581  0.038288665  0.038401119            2 
  867000    1.1051512    -6.310957    397.82984  0.038238162  0.038395577            2 
  868000    1.1268121   -6.2847987    400.42866  0.038443612  0.038390313            3 
  869000    1.1132876   -6.2804051    400.47109  0.038403442  0.038385151            5 
  870000    1.0925886   -6.3008911    399.37485  0.038254296  0.038380208            4 
  871000    1.0931468   -6.2721078    400.44111  0.038312391  0.038375351            5 
  872000    1.1031642   -6.3000732    399.92423  0.038219058  0.038370287            4 
  873000    1.1111279   -6.2869919    401.69956  0.038344746  0.038365298            2 
  874000    1.0959083   -6.2502706    402.70027  0.038396288  0.038360074            4 
  875000    1.0863875   -6.3313697    401.98883  0.038284651   0.03835507            3 
  876000    1.1147718     -6.32368    402.08019  0.038249637   0.03834988            5 
  877000    1.0766243   -6.3085909    402.95115  0.038288783  0.038344608            4 
  878000    1.1139578   -6.3390077      403.015  0.038251234  0.038339407            4 
  879000     1.112561   -6.3141291    405.68371  0.038460724  0.038334653            6 
  880000    1.0882246   -6.3090802    404.96777  0.038349221  0.038330054            2 
  881000    1.1147947   -6.3308238    404.81732   0.03829146  0.038324879            6 
  882000    1.1291091   -6.2662181    405.96172  0.038356172  0.038319727            6 
  883000    1.1169806   -6.3163391    404.56344   0.03818077  0.038314981            3 
  884000    1.1099612   -6.3184841    404.96397  0.038175337  0.038309821            4 
  885000    1.1071505   -6.3097459    405.68629  0.038200215  0.038304444            4 
  886000    1.1081915   -6.3069185    406.10271  0.038196267  0.038298788            8 
  887000    1.0822945   -6.3369131     406.4841  0.038189036  0.038293238            5 
  888000    1.1082058   -6.2932452    406.68196  0.038164598   0.03828782            6 
  889000    1.1267731   -6.3137404    406.52109  0.038106589  0.038282732            2 
  890000    1.0978098   -6.3386607     406.4538  0.038057472  0.038277051            5 
  891000    1.1254096   -6.2786113    408.33125  0.038190352  0.038271693            5 
  892000    1.0778991   -6.2598505    407.88797  0.038106126  0.038266738            3 
  893000    1.1053841   -6.3313301    408.06352  0.038079835  0.038261303            2 
  894000    1.1093035   -6.2613188     410.2759  0.038243466  0.038256089            3 
  895000    1.1010695   -6.2855915    410.33648  0.038206376  0.038250844            4 
  896000    1.1118065   -6.3043591    410.19395  0.038150479  0.038245678            5 
  897000    1.1116066   -6.2760186    411.52535  0.038231638   0.03824013            2 
  898000    1.1171642   -6.2769772    410.14966  0.038061401  0.038234542            3 
  899000    1.1151696   -6.2706576    411.63773  0.038157001  0.038229002            5 
  900000    1.1155741   -6.2903957    410.66329  0.038024378  0.038223174            3 
  901000    1.1153351   -6.3268151    409.87119  0.037908915  0.038217525            2 
  902000    1.0976506   -6.2938277    413.56624  0.038208263  0.038211929            3 
  903000    1.1278308   -6.3223076     411.8878  0.038011055  0.038206206            3 
  904000    1.1209177   -6.2752634    412.64667  0.038038963  0.038200428            2 
  905000    1.0897616   -6.2732757      413.044  0.038033517  0.038194699            3 
  906000     1.111562   -6.3239232    413.18447  0.038004458  0.038188634            6 
  907000    1.1232757   -6.3116159     414.1283  0.038049275    0.0381826            8 
  908000    1.0970981   -6.3148761    412.55912  0.037863355  0.038176192            3 
  909000    1.1057605   -6.2916529     413.3806  0.037897011  0.038169981            3 
  910000    1.1314359    -6.321084    413.64172  0.037879278  0.038163631            4 
  911000    1.1044927   -6.2906559    414.60137  0.037925482  0.038157226            3 
  912000     1.112393    -6.323628    414.82078  0.037903946  0.038150542            2 
  913000    1.1054497   -6.2648938    416.56044  0.038021216  0.038144164            3 
  914000    1.1043724   -6.2867139    416.63571  0.037986479  0.038137993            5 
  915000    1.1058618   -6.3009202     416.4687  0.037929754   0.03813167            2 
  916000    1.1011738    -6.321555    415.15678  0.037768994  0.038124915            4 
  917000     1.078012    -6.306922     415.7985  0.037786123  0.038118234            4 
  918000    1.0985386   -6.3448456    416.30148  0.037790621  0.038111793            4 
  919000    1.1122804   -6.2895484    418.26886  0.037927898  0.038105245            7 
  920000    1.1244185   -6.3048087    417.14433  0.037784812  0.038098964            3 
  921000    1.1181476   -6.3613009    417.30805  0.037758601  0.038092164            3 
  922000    1.0970356   -6.3303358    418.21934  0.037800012  0.038085334            6 
  923000    1.1272383   -6.3092439    418.15893  0.037753605  0.038078583           10 
  924000    1.1264326   -6.3461786    417.78876  0.037679361  0.038071633            4 
  925000    1.0676363   -6.3193795    418.86594   0.03773567  0.038064808            4 
  926000    1.1299696    -6.330106    419.36907  0.037740197  0.038058012            4 
  927000    1.1103072   -6.3352412    420.31093  0.037784154   0.03805095            4 
  928000    1.1170549   -6.3181218    420.60388  0.037769745  0.038044417            5 
  929000    1.0863917    -6.305733    420.65461  0.037733639  0.038037335            3 
  930000    1.1202591   -6.3098317    421.41153   0.03776089  0.038029971            2 
  931000    1.1016098   -6.3278402    421.04651  0.037687658  0.038022642            6 
  932000    1.1006348   -6.3509608    420.38117  0.037587729  0.038015298            4 
  933000    1.1073537   -6.3327734    421.04539  0.037606769  0.038007816            6 
  934000    1.1335356   -6.2995283    421.25377  0.037585098  0.038000466            3 
  935000    1.1007861   -6.2987606    421.77614  0.037591456  0.037993126            6 
  936000    1.0978916   -6.3155426    421.47655  0.037524621  0.037985671            5 
  937000    1.1391299   -6.2998744    422.13588  0.037543212  0.037978262            3 
  938000    1.1225881   -6.3447702    423.07437  0.037586564  0.037970588            4 
  939000    1.1075565   -6.3451813    424.27719  0.037653283  0.037963416            2 
  940000      1.09438   -6.3143523    424.40275  0.037624357  0.037956072            4 
  941000    1.1261844   -6.3143084    424.36128  0.037580701  0.037948416            9 
  942000    1.1106567   -6.3190919    424.35113  0.037539909  0.037940718            5 
  943000     1.098149   -6.3410987    425.25971  0.037580392  0.037933266            4 
  944000    1.0990457   -6.2879374    424.93542  0.037511955   0.03792556            4 
  945000    1.0858418   -6.3477389    424.54996  0.037438268  0.037917756            3 
  946000     1.105731    -6.265486    426.35672   0.03755785  0.037910088            9 
  947000    1.0935277   -6.3424164     426.1812  0.037502746  0.037902657            6 
  948000    1.0608239   -6.3206484     426.5563  0.037496159   0.03789494            3 
  949000    1.1139136   -6.3350868    426.35112   0.03743863  0.037886993            5 
  950000    1.0868783   -6.3458723    426.72105  0.037431671  0.037878919            2 
  951000    1.1002892   -6.2951875    426.68414  0.037389077  0.037871018            2 
  952000    1.0938467   -6.2982858    428.87456  0.037541541  0.037863041            3 
  953000    1.1034127   -6.3271862    426.70172  0.037312148  0.037855069            6 
  954000    1.0986117   -6.3032694    428.31472  0.037413934  0.037846939            3 
  955000    1.1032969   -6.2965223    428.52346  0.037392972   0.03783871            7 
  956000    1.0828422   -6.3320456    428.75719  0.037374232  0.037830475            4 
  957000    1.1007013   -6.3092384    428.58145  0.037319875  0.037822349            5 
  958000    1.0877169   -6.3195799    428.80348  0.037300233  0.037814133            2 
  959000    1.0990715   -6.3237869    431.26351  0.037475105  0.037805701            4 
  960000     1.099153   -6.3089943    429.60244  0.037291879   0.03779727            7 
  961000    1.0981051   -6.3659748     428.1647  0.037128399  0.037788622            4 
  962000    1.0892266   -6.3545249     429.0603  0.037167385  0.037779833            3 
  963000    1.0888333    -6.287094    431.29287  0.037321986  0.037771356            2 
  964000    1.0693264   -6.2980813    430.63941  0.037226782  0.037762589            4 
  965000    1.0939073   -6.3167795    430.75213  0.037197939    0.0377539            5 
  966000    1.0983669   -6.3016202     430.7606  0.037160162  0.037745248            5 
  967000    1.0916163   -6.3367862    431.78923  0.037210378  0.037736887            4 
  968000    1.0924789   -6.3533398     433.9525   0.03735817  0.037728733            5 
  969000    1.1050143   -6.3523243    432.25499  0.037173632  0.037720558            3 
  970000    1.0942419   -6.3381425    433.60172  0.037251007  0.037712429            6 
  971000    1.1099007   -6.3184589    434.33024  0.037275167  0.037704251            5 
  972000    1.1063094   -6.3050129    434.87972  0.037283927  0.037696259            2 
  973000    1.1212132   -6.3366728    434.81497  0.037240062  0.037688041            3 
  974000    1.0851919   -6.2953773    434.45719  0.037171218  0.037680062            5 
  975000     1.094113   -6.3446886    434.74023  0.037157284  0.037671743            3 
  976000    1.0867404   -6.3120506    435.36987  0.037172974  0.037663646            2 
  977000    1.0850147   -6.3637909     435.0335  0.037106235  0.037655086            3 
  978000    1.0730149   -6.3202798    435.98637  0.037149487  0.037646489            3 
  979000    1.0697325   -6.3255028      436.207   0.03713032  0.037638036            2 
  980000    1.0869002   -6.3147477    436.87143  0.037148931  0.037629509            2 
  981000    1.0852632   -6.3436777    437.13136  0.037133143  0.037621187           14 
  982000    1.1002611    -6.329636    438.32473    0.0371966  0.037612886            5 
  983000    1.0779046   -6.3225182    437.07102  0.037052477  0.037604752            3 
  984000     1.084201   -6.3508642    439.05023  0.037182438  0.037596646            4 
  985000    1.0963478   -6.3709213     438.6221  0.037108469  0.037588738            5 
  986000    1.1127725   -6.3068947    439.10479  0.037111629  0.037580866            5 
  987000    1.0992033   -6.3245989     440.5921  0.037199604  0.037573156            2 
  988000    1.1252189   -6.3014421    441.61829  0.037248506  0.037565502            2 
  989000    1.1127217   -6.3164619    441.78998   0.03722531  0.037557834            4 
  990000    1.0857624   -6.3481941    441.13756  0.037132791   0.03754988            3 
  991000    1.0768717   -6.3242675    441.32822  0.037111354  0.037542113            4 
  992000    1.0799072   -6.2940938    442.40972  0.037164795  0.037534371            1 
  993000    1.0900015   -6.3170054    443.04299  0.037180512  0.037526673            5 
  994000     1.095086   -6.3257234    444.32447  0.037250543  0.037519044            6 
  995000      1.09808   -6.3773438    443.36552  0.037132791  0.037511321            5 
  996000    1.1133407   -6.3576094    444.19996  0.037165325  0.037503774            5 
  997000    1.0968745   -6.3177305    442.99644  0.037027452  0.037496076            8 
  998000    1.1024566   -6.3467441    444.38436  0.037106242  0.037488231            2 
  999000    1.0790544   -6.3736861    444.95653  0.037116828   0.03748044            4 
 1000000     1.098803   -6.3437504    445.46492  0.037122077  0.037472799            3 
 1001000     1.075442    -6.339892    444.39522  0.036995939  0.037464759            3 
 1002000    1.0673841   -6.3500171    444.50323     0.036968  0.037456678            3 
 1003000    1.1146822   -6.3669066    446.42145  0.037090516  0.037448814            5 
 1004000    1.0860134    -6.342454    446.50905  0.037060844  0.037440932            2 
 1005000    1.0912374   -6.3267446    446.11158   0.03699101  0.037433097            6 
 1006000    1.0974215   -6.3385214    447.83063   0.03709664  0.037425258            4 
 1007000    1.0813331   -6.3671158    448.04837  0.037077819  0.037417351            7 
 1008000    1.0767169   -6.3312017    448.46648  0.037075602  0.037409433            7 
 1009000    1.0731402   -6.3544954    447.10549  0.036926453   0.03740157            2 
 1010000    1.1130584   -6.3227503    447.88348  0.036954083  0.037393522            2 
 1011000     1.108483   -6.3697942    448.34959   0.03695595  0.037385529            5 
 1012000    1.0869945   -6.3770337    448.62317  0.036941961  0.037377361            7 
 1013000    1.0741523   -6.3786078     448.7182  0.036913311  0.037369435            5 
 1014000    1.0984219    -6.356545    449.17651  0.036914571  0.037361335            4 
 1015000    1.0853689   -6.3290974    451.60241  0.037077373  0.037353299            2 
 1016000    1.0845864   -6.3362251    452.11672  0.037083064   0.03734547            7 
 1017000    1.0695454   -6.3364441    450.33853  0.036900896  0.037337939            6 
 1018000    1.1277401   -6.3207591    451.82188  0.036986074  0.037330212            3 
 1019000     1.075914   -6.3187149    453.39247  0.037078219  0.037322722            2 
 1020000    1.0886996   -6.3782615    452.90084  0.037001703  0.037315029            2 
 1021000    1.0949775   -6.3575548    452.01342  0.036893031   0.03730725            3 
 1022000    1.0683689   -6.3177249    451.85624  0.036844116  0.037299646            3 
 1023000    1.0808216   -6.3318651    455.41784  0.037098227  0.037291986            4 
 1024000    1.0857727   -6.3205104    453.14795  0.036877275  0.037284256            4 
 1025000    1.0699116   -6.3104869    453.79736  0.036894094  0.037276481            6 
 1026000    1.1041797   -6.3698819    453.66302  0.036847224  0.037268521            5 
 1027000    1.1014458   -6.3607992    454.82819   0.03690589  0.037260462            2 
 1028000    1.0820327   -6.3657828    453.24655  0.036741776  0.037252282            3 
 1029000    1.1023268    -6.376479    455.60117  0.036896758  0.037244065            5 
 1030000     1.078325   -6.3166262    455.44696   0.03684846  0.037235924            4 
 1031000    1.0931996   -6.3492248     455.0097  0.036777376  0.037228026            3 
 1032000    1.0894111    -6.360795    456.72579  0.036880312  0.037220204            9 
 1033000     1.072522    -6.342821    456.45078  0.036822425  0.037212594            5 
 1034000    1.0926148   -6.3184273     458.8634  0.036981254  0.037205112            7 
 1035000     1.100097   -6.3707939    458.31572  0.036901427   0.03719788            4 
 1036000    1.0905866    -6.340469    458.09191  0.036847805  0.037190426            5 
 1037000    1.0848988   -6.3415803    457.86684  0.036794185  0.037183005            5 
 1038000     1.095242   -6.3672162     459.6083  0.036898547  0.037175549            5 
 1039000     1.078918   -6.3479777    460.26243  0.036915498  0.037168053            3 
 1040000    1.0830987   -6.3391193     461.8578  0.037007836  0.037160737            6 
 1041000    1.0915369    -6.320202    461.52588  0.036945716  0.037153429            3 
 1042000    1.0966284   -6.3463814    459.84583  0.036775898  0.037146171            2 
 1043000    1.0769131   -6.3598599    460.93321  0.036827518  0.037138785            3 
 1044000    1.0981721   -6.3648988    461.28058   0.03681997  0.037131419            5 
 1045000    1.0953491   -6.3216715    462.14446  0.036853625  0.037124368            1 
 1046000    1.0947514   -6.3269655    463.17605  0.036900578  0.037117588            2 
 1047000    1.0738521   -6.3500459    463.82142    0.0369167  0.037110874            3 
 1048000    1.0883381   -6.3782406    463.48626  0.036854824  0.037103819            2 
 1049000    1.0840303   -6.3511961    464.72811  0.036918344  0.037097265            2 
 1050000    1.0939619   -6.3638213    465.13541  0.036915509  0.037090519            5 
 1051000    1.0819788   -6.3451598    466.92283  0.037022108  0.037083721            2 
 1052000    1.0798298   -6.3595832    465.05332  0.036838824  0.037077176            2 
 1053000    1.0791717   -6.3396656    466.06377  0.036883806  0.037070724            3 
 1054000    1.0783952   -6.3274207    467.78399  0.036984819  0.037064017            2 
 1055000    1.1022863   -6.3692003    467.58666  0.036934175  0.037057476            5 
 1056000    1.0849199   -6.3297139    467.95219  0.036928045  0.037051176            2 
 1057000    1.0829359   -6.3640075    467.03429  0.036820742  0.037044578            4 
 1058000    1.0591338    -6.360553    468.82636  0.036927092  0.037037794            6 
 1059000    1.0895945   -6.3526767    468.04826  0.036830993  0.037031241            2 
 1060000    1.1000225   -6.3803666    469.22079  0.036888427  0.037024624            4 
 1061000    1.0809286   -6.3813316    470.27147  0.036936182  0.037018144            3 
 1062000    1.0880544    -6.345104     469.4613   0.03683783  0.037011581            4 
 1063000    1.0915128   -6.3798365    468.89509  0.036758788  0.037004905            4 
 1064000    1.0828274   -6.3004884    469.96553  0.036808077   0.03699815            4 
 1065000    1.0729707   -6.3890535    469.95384  0.036772601  0.036991654            6 
 1066000    1.0854346    -6.334304    471.02258  0.036821652  0.036984733            6 
 1067000    1.0779596   -6.3606112    471.82425  0.036849754  0.036977943            5 
 1068000    1.0909758   -6.3619204    471.20824  0.036767185  0.036971249            4 
 1069000    1.0751844   -6.3763917    473.07026  0.036877944  0.036964659            6 
 1070000    1.0760973   -6.3710499     472.4601  0.036795958  0.036958138            5 
 1071000    1.0817481    -6.327937    472.71439  0.036781387  0.036951499            4 
 1072000    1.0763745   -6.3586409    472.69174  0.036745315  0.036944773            3 
 1073000    1.0848392   -6.3637698    472.69077  0.036710995  0.036938082            2 
 1074000    1.0783026   -6.3677896    472.80298   0.03668552  0.036931138            3 
 1075000    1.0970723   -6.3108968    473.17145  0.036679957  0.036924174            2 
 1076000    1.0699864   -6.3500135    472.11103  0.036563741  0.036917233            2 
 1077000    1.0950579   -6.3312462    475.55653  0.036796389  0.036910133            5 
 1078000    1.0891825   -6.3539409    473.80071  0.036626524  0.036903079            6 
 1079000    1.0613331   -6.3572561    473.60173  0.036577211  0.036895925            3 
 1080000    1.0740954   -6.3736413    474.55748   0.03661709  0.036888579            4 
 1081000    1.0807144   -6.3477399    475.83141  0.036681422  0.036881343            3 
 1082000    1.0630115   -6.3276127    476.58355  0.036705449  0.036874258            4 
 1083000    1.0719534   -6.3416898    476.16671  0.036639482  0.036867384            4 
 1084000    1.1094163   -6.4054685    475.87094  0.036582945  0.036859988            4 
 1085000    1.1155716   -6.3372883     477.5361   0.03667712  0.036852985            6 
 1086000    1.0848027   -6.3915903    477.69068  0.036655209  0.036846456            4 
 1087000    1.1149143   -6.3836879    478.17183  0.036658374  0.036839442            6 
 1088000    1.0879432   -6.3499767    478.22742  0.036628938  0.036832559            2 
 1089000    1.0579249    -6.352236    478.18168  0.036591803  0.036825356            5 
 1090000     1.056313   -6.3682978    479.42914  0.036653604  0.036818337            3 
 1091000     1.081805   -6.4003654    477.75346  0.036492015  0.036811177            6 
 1092000     1.075707   -6.2979645     479.4345  0.036586881  0.036803927            3 
 1093000    1.0745633   -6.3779938    480.69814  0.036649751  0.036796797            4 
 1094000    1.0718817   -6.3492314    479.14306  0.036497795  0.036789582            4 
 1095000     1.073027   -6.3822418    478.32744  0.036402393  0.036782124            7 
 1096000    1.0907312   -6.3827967    480.39333  0.036526257  0.036774459            3 
 1097000    1.0734094   -6.3551218    479.71644  0.036441541  0.036766939            4 
 1098000    1.0773367   -6.3687711    480.43969  0.036463243  0.036759406            5 
 1099000    1.0810965   -6.3895727    479.32643   0.03634565  0.036751928            8 
 1100000    1.0884712   -6.3455849    482.08405  0.036521519   0.03674458            3 
 1101000    1.0720493   -6.3535426    480.25563  0.036349957   0.03673717            4 
 1102000    1.0614315   -6.3520195    482.79426  0.036508943  0.036729625            4 
 1103000     1.060531   -6.3937215    482.67553  0.036466873   0.03672187            6 
 1104000    1.0613436   -6.3674005    483.24691  0.036476971  0.036714365            2 
 1105000    1.0586732   -6.3521727    481.73435   0.03632989  0.036706807            3 
 1106000    1.0626621   -6.3567628    483.40363  0.036422817   0.03669924            5 
 1107000    1.0495643   -6.3711551     482.5005  0.036321928   0.03669179            5 
 1108000    1.0636932   -6.4000955    482.07553  0.036257185  0.036684087           10 
 1109000    1.0631722   -6.3765918    483.50237  0.036331708  0.036676426            6 
 1110000    1.0654621   -6.3839453    482.05787  0.036190531  0.036668565            2 
 1111000    1.0610684   -6.3431141    483.99761  0.036303451  0.036660549            3 
 1112000    1.0499542   -6.3548071    484.61405     0.036317  0.036652762            5 
 1113000    1.0488422   -6.3410552    484.93504  0.036308404  0.036644804            5 
 1114000    1.0828892   -6.3323845    484.84577  0.036269133  0.036636881            3 
 1115000    1.0913956   -6.3546984    485.47303  0.036283485  0.036629158            6 
 1116000    1.0729192   -6.3622119    486.29754   0.03631254  0.036621448            5 
 1117000    1.0597303   -6.4173094    485.86925  0.036248079   0.03661398            3 
 1118000    1.0743446   -6.3670715    487.40237  0.036329932  0.036606105            4 
 1119000    1.0722825    -6.362361    487.73625   0.03632233  0.036598317            6 
 1120000    1.0786818   -6.3586308    487.36399  0.036262201  0.036590706            3 
 1121000    1.1017573   -6.3307866    488.61473  0.036322832  0.036583139            7 
 1122000    1.0646875   -6.3212575    488.88026   0.03631018  0.036575599            4 
 1123000    1.0543012    -6.365319    487.52978  0.036177633  0.036567952            7 
 1124000    1.0874362    -6.377747    488.16614  0.036192626  0.036559918            4 
 1125000    1.0616368   -6.3396387    488.21348  0.036163962  0.036551962            4 
 1126000    1.0684625   -6.3808873    489.43704  0.036222398  0.036544422            4 
 1127000    1.0492862   -6.3714103    490.29163  0.036253448  0.036536673           10 
 1128000    1.0418279   -6.4289003    489.01066  0.036126674  0.036528689            7 
 1129000    1.0927297   -6.3877116    488.99018  0.036093164  0.036520843            7 
 1130000     1.076782   -6.3694481    490.03906  0.036138574  0.036512989            2 
 1131000    1.0789583   -6.3715007    490.92451  0.036171862  0.036505268            4 
 1132000    1.0466702   -6.3836099    491.88246  0.036210428  0.036497587            3 
 1133000    1.0904476   -6.3836918    492.54117  0.036226917  0.036490036            3 
 1134000    1.0847669   -6.3792232    493.00785  0.036229266  0.036482648            3 
 1135000    1.0778518   -6.3682601    493.82307  0.036257201  0.036475118            4 
 1136000    1.0724232   -6.3569958     492.6081  0.036136158   0.03646754            5 
 1137000     1.082116   -6.4579108    492.73968  0.036114019  0.036459998            6 
 1138000    1.0617096   -6.3844732    491.72886  0.036008264   0.03645222            5 
 1139000    1.0926566   -6.3570731    495.22793  0.036232655  0.036444494            7 
 1140000    1.0679307   -6.3747746     494.6829  0.036161031  0.036436924            5 
 1141000    1.0486697   -6.3866904    495.70446  0.036203948  0.036429635            6 
 1142000     1.078837   -6.3555941    495.99769  0.036193644  0.036422304            4 
 1143000    1.0656478   -6.3844789    497.13229  0.036244699  0.036414936            4 
 1144000    1.0574254   -6.3543216     495.9492  0.036126836   0.03640746            8 
 1145000    1.0662419   -6.3637457     495.4915  0.036061973  0.036400275            6 
 1146000    1.0536419   -6.3857797    497.38262   0.03616802  0.036393001            5 
 1147000    1.0653764   -6.3768591    496.32588  0.036059712  0.036385766            5 
 1148000    1.0680326   -6.3837868    496.74703  0.036058873  0.036378247            3 
 1149000    1.0717065   -6.3847237    499.59526  0.036234063  0.036370819            4 
 1150000    1.0517093   -6.3942887    498.60572  0.036130849  0.036363547            3 
 1151000    1.0566161   -6.3955373       499.36  0.036154069  0.036356393            3 
 1152000    1.0540899   -6.3450655    499.79628  0.036154245  0.036349148            7 
 1153000    1.0692208    -6.367367    499.70341  0.036116176  0.036341883            4 
 1154000    1.0343301   -6.3689605    499.49469  0.036069807  0.036334531            5 
 1155000    1.0976778   -6.3875431    499.14793  0.036013559  0.036327209            9 
 1156000    1.0584971   -6.3717027    501.02478  0.036117703  0.036319889            6 
 1157000    1.0703097   -6.3632604    500.65802  0.036060071  0.036312767            2 
 1158000    1.0658499   -6.3787596    502.09757  0.036132525  0.036305623            3 
 1159000    1.0713866    -6.385051    502.62373  0.036139181  0.036298348            3 
 1160000    1.0509843   -6.4156469    501.44425  0.036023294  0.036291173           10 
 1161000    1.0811921   -6.3713181    501.86161  0.036022223  0.036283855            4 
 1162000    1.0667798   -6.3739522    502.05803  0.036005309  0.036276491            3 
 1163000    1.0643568   -6.3665714    502.95826  0.036038855  0.036269218            5 
 1164000    1.0433143     -6.39818    503.35258  0.036036124  0.036261932            2 
 1165000    1.0335565   -6.3701896    504.11843  0.036059973  0.036254718            3 
 1166000    1.0743197   -6.3756401    503.23355  0.035965805  0.036247552            8 
 1167000    1.0880252   -6.3671848    506.04006  0.036135394  0.036240185            5 
 1168000    1.0728722   -6.3899465     503.8539  0.035948481  0.036232765            4 
 1169000    1.0654057   -6.3825312    504.22343  0.035944071  0.036225521           12 
 1170000    1.0643477   -6.3791351    505.58796  0.036010538  0.036218055            6 
 1171000    1.0845221   -6.3706565    505.09139  0.035944448  0.036210551            5 
 1172000    1.0692699   -6.3887527    505.82603  0.035966014  0.036203212            4 
 1173000    1.0646937   -6.4056885    505.89846  0.035940499  0.036195858            4 
 1174000     1.072164   -6.4141782     504.7834  0.035830735  0.036188526            5 
 1175000    1.0485164   -6.4097656    506.77376  0.035941401  0.036181288           11 
 1176000    1.0607766   -6.3773416    507.83564  0.035986086  0.036173926            4 
 1177000    1.0707508   -6.3639173    508.29729  0.035988197  0.036166955            5 
 1178000     1.038658   -6.4117922    507.48221  0.035899987  0.036159982            7 
 1179000    1.0747233   -6.3824747    509.00532  0.035977193  0.036152731            4 
 1180000    1.0561026   -6.3634773    510.32939  0.036040211  0.036145593            2 
 1181000    1.0560778   -6.3871442    510.03491  0.035988915  0.036138496            2 
 1182000    1.0577146   -6.3688444    509.05111  0.035889108  0.036131354            6 
 1183000    1.0713113   -6.3795291    508.90097  0.035848194  0.036124075            3 
 1184000    1.0719871   -6.3827644    509.94219  0.035891201  0.036116875            5 
 1185000    1.0714908   -6.3885798    509.39568  0.035822481  0.036109424            5 
 1186000    1.0778097   -6.3588272    508.40561   0.03572271  0.036101874            5 
 1187000    1.0770814   -6.4078568    509.77546  0.035788785  0.036094355            8 
 1188000    1.0640838   -6.3841359    508.71443  0.035684233  0.036086601            2 
 1189000    1.0579077   -6.3822561    508.99674  0.035674007  0.036078999            5 
 1190000     1.070352   -6.4072291    510.71743  0.035764526  0.036070985            7 
 1191000    1.0644928   -6.3868872    509.39015  0.035641628  0.036062964            3 
 1192000    1.0552348   -6.4055563    509.86977  0.035645258  0.036055011            2 
 1193000     1.063834   -6.3870662    510.79148  0.035679762  0.036046996            2 
 1194000    1.0473431   -6.3802215    510.64476   0.03563964  0.036038908            4 
 1195000     1.047771   -6.3648782    512.10706  0.035711789  0.036031298            6 
 1196000    1.0816401    -6.396957     512.1242  0.035683125  0.036023514            3 
 1197000    1.0334012   -6.3695035    513.26525  0.035732752  0.036015728            7 
 1198000    1.0568474   -6.4230245    513.12812  0.035693386  0.036008065            5 
 1199000     1.067572   -6.3764118    514.65086  0.035769451  0.036000522            2 
 1200000    1.0368867   -6.4145177    514.20944  0.035708989  0.035993162            3 
 1201000    1.0637346   -6.3767347    513.93289  0.035660068  0.035985539            3 
 1202000        1.061   -6.3736276    513.80462  0.035621507  0.035977917            3 
 1203000    1.0826462   -6.4366171    514.84071  0.035663668  0.035970155            8 
 1204000    1.0599936   -6.3675568    515.82422  0.035702119   0.03596256            2 
 1205000    1.0528872   -6.3954837    517.09705  0.035760515   0.03595536            3 
 1206000    1.0811148   -6.3924443    517.82467  0.035781141  0.035948201            5 
 1207000    1.0422637   -6.4041889    519.18294  0.035845274  0.035941134            4 
 1208000    1.0629256   -6.4160716    516.90984  0.035658791  0.035933954            8 
 1209000    1.0684846   -6.4194772    516.20746  0.035580884  0.035926604            6 
 1210000    1.0392032   -6.3887396    518.05933  0.035679017  0.035919162            5 
 1211000    1.0692843   -6.4136982    517.36277  0.035601622  0.035911751            8 
 1212000    1.0532509   -6.4229102     519.5105  0.035719919  0.035904434            6 
 1213000    1.0410054   -6.4141588    519.36302  0.035680339  0.035897135            3 
 1214000    1.0804005   -6.4114946       519.49  0.035659665  0.035889855            5 
 1215000    1.0395562   -6.4315617    518.29112  0.035548088   0.03588242            6 
 1216000    1.0616303   -6.4069872    519.54576  0.035604836  0.035875041            4 
 1217000    1.0528643   -6.4190004    520.12085  0.035614958  0.035867523            6 
 1218000    1.0536312   -6.3825239    521.19748  0.035659379  0.035860267            7 
 1219000     1.057345   -6.3933243    521.97184  0.035683063  0.035853024            4 
 1220000    1.0591474   -6.3606494    522.77995  0.035709013  0.035845657            4 
 1221000    1.0554508    -6.400198    522.92731  0.035689824    0.0358386            6 
 1222000    1.0435607   -6.4224469    521.22009  0.035544196  0.035831288            3 
 1223000    1.0667162   -6.3983538    521.62925  0.035543012  0.035823953            7 
 1224000    1.0629938    -6.396977    523.23922  0.035623586  0.035816466            4 
 1225000    1.0377786   -6.3919377    524.22991  0.035661899  0.035809134            3 
 1226000    1.0689037   -6.3812626    523.49802  0.035583063  0.035801883            3 
 1227000    1.0530987   -6.3949351    523.52037   0.03555558  0.035794477            7 
 1228000    1.0274885    -6.418223    523.85937  0.035549631  0.035786973            6 
 1229000     1.066839   -6.4175921    523.24129  0.035478796  0.035779427            6 
 1230000    1.0604619   -6.3863191    525.26606  0.035587131  0.035772212            4 
 1231000    1.0658674   -6.3686388    525.58227  0.035579628  0.035764902            5 
 1232000    1.0619295   -6.3856961    525.73013   0.03556075  0.035757775            2 
 1233000    1.0624327   -6.3518255    525.64248  0.035525985  0.035750523            3 
 1234000    1.0603275   -6.4274127    524.93815  0.035449632    0.0357432            5 
 1235000    1.0516221   -6.3578586    526.50747   0.03552682  0.035735832            5 
 1236000    1.0604339    -6.421609    526.64265  0.035507191  0.035728516            3 
 1237000    1.0552241   -6.4100858    527.26041  0.035520103  0.035721282            4 
 1238000    1.0521259   -6.3757581    527.57156  0.035512356  0.035713924            2 
 1239000    1.0763549   -6.3984333    527.64624  0.035488716  0.035706658            6 
 1240000    1.0526562     -6.43952    528.49763  0.035517314  0.035699448            5 
 1241000    1.0561779   -6.3901313    527.77798  0.035440369  0.035692265            4 
 1242000    1.0471049   -6.3892801    528.12515  0.035435128  0.035684935            4 
 1243000    1.0673993   -6.4310492    528.88807  0.035457768  0.035677869            4 
 1244000    1.0578404   -6.3990686    530.03872  0.035506345  0.035670711            5 
 1245000    1.0648937   -6.4227716    529.62068  0.035449845  0.035663648            5 
 1246000      1.05217   -6.3851415    530.39986  0.035473506  0.035656495            6 
 1247000    1.0456327   -6.3711246    531.90833  0.035545865  0.035649319            2 
 1248000    1.0404846    -6.398765     529.9359  0.035385677  0.035642231            4 
 1249000    1.0445792   -6.4256043    529.86038  0.035352307  0.035634966            4 
 1250000    1.0568076   -6.4111911    530.29869  0.035353246  0.035627424            3 
 1251000     1.048552   -6.3989416    532.19165  0.035451083   0.03562018            9 
 1252000     1.039574   -6.3827892    532.08273  0.035415517  0.035613026            3 
 1253000    1.0347525   -6.4040848    533.34285  0.035471059  0.035606121            4 
 1254000    1.0605993   -6.4212599    533.01803  0.035421188  0.035599042            7 
 1255000    1.0593758   -6.4032759    535.49122  0.035557186  0.035592081            6 
 1256000    1.0100039   -6.3829706    534.87361  0.035487899  0.035585398            3 
 1257000     1.057696   -6.3623399    535.81554  0.035522112  0.035578529            2 
 1258000    1.0382707   -6.4051711    534.45205  0.035403554   0.03557151            3 
 1259000    1.0581524   -6.3955694    534.14604  0.035355179  0.035564726            5 
 1260000    1.0450868   -6.4150001    533.71435  0.035298568  0.035557784            4 
 1261000    1.0450098   -6.3979072    535.13866  0.035364702  0.035550839            4 
 1262000    1.0689359   -6.4035968    537.21529  0.035473804  0.035544028            4 
 1263000    1.0468672   -6.4318535     537.3001  0.035451313  0.035537287            3 
 1264000    1.0586964   -6.4145379    537.23893  0.035419233  0.035530552            5 
 1265000    1.0501311   -6.4094398    538.04168  0.035444116  0.035523997            3 
 1266000    1.0708041   -6.3902628    538.73609  0.035461828  0.035517488            2 
 1267000    1.0458115   -6.4001861    539.01514  0.035452193  0.035510913            9 
 1268000    1.0759549    -6.447998     538.4433  0.035386652  0.035504171            6 
 1269000    1.0464037   -6.4135121    539.89473   0.03545408  0.035497444            3 
 1270000    1.0624371   -6.4096596    540.54636  0.035468921  0.035490962            5 
 1271000    1.0388127   -6.4012169    540.44473  0.035434351  0.035484483            3 
 1272000    1.0510742   -6.4078047     541.6939  0.035488332  0.035478121           11 
 1273000    1.0422337   -6.4137918    540.92657  0.035410223  0.035471631            4 
 1274000    1.0611197   -6.4146374    541.37163  0.035411541  0.035465354            4 
 1275000    1.0523807   -6.4571118    540.95304  0.035356408  0.035458816            6 
 1276000    1.0381203   -6.4106076    542.51005  0.035430384  0.035452112            4 
 1277000    1.0257385   -6.4169005    540.21437   0.03525283  0.035445538            2 
 1278000    1.0736772   -6.4186629    542.65059  0.035384102  0.035438826            4 
 1279000    1.0229175    -6.443393    541.90779   0.03530804  0.035432186            3 
 1280000    1.0464512   -6.4537169    542.75099  0.035335351  0.035425435            6 
 1281000    1.0513033   -6.4064921    544.20496  0.035402353  0.035418761            7 
 1282000    1.0481669   -6.4241781     543.9982  0.035361297  0.035412184            5 
 1283000    1.0411687    -6.441952    543.17438  0.035280228  0.035405539            5 
 1284000    1.0564599   -6.4322572     545.4249  0.035398812  0.035398881            4 
 1285000    1.0562462   -6.3969669    546.27887  0.035426645  0.035392249            3 
 1286000    1.0404886   -6.4238364    544.17621  0.035262844  0.035385475            6 
 1287000    1.0392436   -6.3974851    547.61255  0.035457948  0.035378842            4 
 1288000    1.0626252   -6.4417018    545.34284  0.035283569  0.035372092            4 
 1289000    1.0420082   -6.3974758    545.97999  0.035297387  0.035365368            4 
 1290000    1.0323128   -6.4262831    544.58089  0.035179644   0.03535862            9 
 1291000     1.042166   -6.4363205    546.73737  0.035291594  0.035351913            5 
 1292000    1.0395653   -6.4423278    546.41415  0.035243431  0.035345134            3 
 1293000    1.0358287   -6.4255262    548.51555  0.035351608  0.035338506            2 
 1294000    1.0448753   -6.4350397    547.04358  0.035229494  0.035331893            5 
 1295000    1.0389952   -6.4048978    546.29948  0.035154407  0.035325242           10 
 1296000    1.0247306   -6.4518713    546.68486  0.035152061  0.035318355            8 
 1297000    1.0545818   -6.4487324    546.72778  0.035127716  0.035311486            6 
 1298000    1.0625292   -6.4111947    549.06281  0.035250566  0.035304716            5 
 1299000    1.0503235   -6.4514014    545.82937  0.035015998  0.035297865            3 
 1300000    1.0470032   -6.4146718    548.61948  0.035167916  0.035290825            4 
 1301000    1.0737359   -6.4120504    548.96719  0.035163156  0.035284012            4 
 1302000    1.0230579   -6.4370919    549.80762   0.03518994  0.035277201            7 
 1303000    1.0775237   -6.4020054    547.72043  0.035029447  0.035270362            6 
 1304000    1.0390857   -6.4145569    548.45496  0.035049524  0.035263379            3 
 1305000    1.0410709   -6.4189912    549.19986  0.035070233  0.035256313            3 
 1306000    1.0608815   -6.4252513     550.1511  0.035104077  0.035249129            3 
 1307000    1.0407202   -6.3818642    549.59272  0.035041617   0.03524195            7 
 1308000    1.0451811   -6.4299037    550.49532  0.035072332  0.035234879            4 
 1309000    1.0464912   -6.4101844    550.41362  0.035040337   0.03522781            5 
 1310000    1.0372366   -6.3988787    550.89618  0.035044286  0.035220685            5 
 1311000    1.0288179   -6.4466688    551.30998  0.035043859  0.035213261            3 
 1312000    1.0394455   -6.4713071    549.10972  0.034877396  0.035205853            8 
 1313000     1.050367   -6.4187161    551.22139  0.034984856  0.035198617           10 
 1314000    1.0378091   -6.4658978    552.01383  0.035008487  0.035191336            4 
 1315000    1.0398074   -6.4495602    552.12082  0.034988645  0.035184109            4 
 1316000    1.0440668   -6.4118746    552.06484  0.034958513  0.035176902           10 
 1317000    1.0268171   -6.4441108    553.37437   0.03501483  0.035169873            4 
 1318000    1.0502863   -6.4157766    553.30065  0.034983602  0.035162808            6 
 1319000    1.0379748   -6.4226471    553.77566   0.03498709  0.035155803            3 
 1320000    1.0120775   -6.4556718    552.68675   0.03489184  0.035148568            6 
 1321000    1.0203776   -6.4320878    555.44703  0.035039555  0.035141167            4 
 1322000    1.0580557   -6.4066903    555.29282   0.03500333  0.035133973           10 
 1323000    1.0479439   -6.4302197    554.96855  0.034956447  0.035126787            4 
 1324000    1.0412699   -6.4234946    555.44404  0.034959972  0.035119405            3 
 1325000    1.0542345    -6.428662    555.27041  0.034922667   0.03511203           10 
 1326000    1.0532722   -6.4669792    555.94733  0.034938872   0.03510486            3 
 1327000    1.0337198   -6.4397334     556.2142  0.034929301  0.035097656            4 
 1328000    1.0483278   -6.4194933    556.22913  0.034903937  0.035090643            2 
 1329000    1.0438397   -6.4424428    555.98667   0.03486247  0.035083524            4 
 1330000    1.0454876   -6.4056284     557.6278  0.034939085  0.035076483            3 
 1331000    1.0236837   -6.4254401    557.31188  0.034893055  0.035069252            8 
 1332000    1.0506348   -6.4406105    558.03606  0.034912166   0.03506212            6 
 1333000    1.0639329   -6.4415609    557.29159  0.034839434  0.035054786            3 
 1334000    1.0487508   -6.4086553    559.19989  0.034932527  0.035047778            2 
 1335000    1.0572861   -6.4162426    557.69722   0.03481256  0.035040439            7 
 1336000    1.0284105    -6.436387    560.32027  0.034950117  0.035033002            8 
 1337000    1.0344903   -6.4520563    559.10398  0.034848166  0.035025858            3 
 1338000    1.0339661   -6.4419334    560.23802  0.034892751  0.035018596            4 
 1339000     1.057801   -6.4310448    559.81692  0.034840485  0.035011538            3 
 1340000    1.0310476   -6.4181665    561.49719   0.03491898  0.035004569            3 
 1341000    1.0204372   -6.4324386    561.49435  0.034892763  0.034997691            8 
 1342000    1.0262217   -6.4292903     560.4223  0.034800192  0.034990799            6 
 1343000    1.0066527   -6.4552626    561.89641  0.034865749  0.034983833            7 
 1344000    1.0270226   -6.4142796     561.2678  0.034800831  0.034976752            2 
 1345000    1.0375764   -6.4413842    560.52923  0.034729196  0.034969483            9 
 1346000    1.0371645   -6.4536471    560.49433  0.034701234  0.034962267            3 
 1347000    1.0322578   -6.4658832    562.30248  0.034787335   0.03495506            4 
 1348000    1.0236927   -6.4134595    562.72225  0.034787478  0.034947847            4 
 1349000    1.0434148   -6.4489606    563.22648  0.034792839  0.034940804            6 
 1350000    1.0419025   -6.4290155    563.91965  0.034809855   0.03493351            6 
 1351000    1.0243498   -6.4625686    561.71372  0.034648021  0.034926248            2 
 1352000     1.044383   -6.4167587    564.34812  0.034784771  0.034918998            4 
 1353000    1.0462408   -6.4090403    564.21191  0.034750672  0.034911796           13 
 1354000    1.0260185   -6.4640816    565.16318  0.034783554  0.034904728            4 
 1355000    1.0368021    -6.424163    564.94417  0.034744414  0.034897369            3 
 1356000    1.0464613   -6.4373917    564.05153  0.034663934  0.034890179            4 
 1357000    1.0485506     -6.44365     564.8934  0.034690089  0.034882963            7 
 1358000    1.0341615   -6.3931369    565.22295  0.034684766   0.03487561            4 
 1359000    1.0278239   -6.4537214    564.50117  0.034614984  0.034868292            7 
 1360000     1.008272   -6.4650712    565.66472  0.034660828  0.034860967            7 
 1361000    1.0336704   -6.4572983    566.47022  0.034684682  0.034853462            3 
 1362000    1.0187752   -6.4203373    567.09008  0.034697142   0.03484611            8 
 1363000    1.0248684   -6.4429464    567.31219  0.034685265  0.034838584            2 
 1364000    1.0564101   -6.4386496     565.8808  0.034572385  0.034831402            2 
 1365000     1.036624   -6.4548744     567.1781  0.034626258  0.034824095            3 
 1366000    1.0315349   -6.4268983    569.58761  0.034747902  0.034816959            5 
 1367000    1.0720772   -6.4361501    567.47184  0.034593504  0.034809776            6 
 1368000     1.015369   -6.4739332    567.38886  0.034563162   0.03480243            6 
 1369000    1.0170284   -6.4544366    569.23312  0.034650178  0.034795168            3 
 1370000    1.0427329   -6.4252136    568.64139  0.034588892  0.034788019            3 
 1371000    1.0265262   -6.4100276    571.27604  0.034723805  0.034780955            3 
 1372000    1.0269967   -6.4543319    569.33195  0.034580415  0.034773759            4 
 1373000    1.0128802   -6.4661538    569.59413  0.034571142  0.034766542            5 
 1374000    1.0388952   -6.4378214    570.65511  0.034610329   0.03475932            4 
 1375000    1.0150404   -6.4048611    571.59465    0.0346421  0.034752063            3 
 1376000    1.0404999   -6.4405561    570.63589  0.034558859  0.034744941            6 
 1377000    1.0307645   -6.4171891    570.68119  0.034536504  0.034737806            3 
 1378000    1.0690994    -6.439263    572.80545  0.034639904  0.034730639            4 
 1379000    1.0381737   -6.4307451    572.25008  0.034581223  0.034723511            2 
 1380000    1.0412829   -6.4319911     574.2085  0.034674426  0.034716316            3 
 1381000    1.0366595   -6.4640001    572.68661  0.034557483  0.034709153            4 
 1382000     1.010296    -6.455771    571.66481  0.034470864  0.034701852            3 
 1383000    1.0225704   -6.4644112     573.2914   0.03454395  0.034694846            4 
 1384000    1.0331311   -6.4500149    574.24784   0.03457658   0.03468767            4 
 1385000    1.0201845   -6.4385275    573.86254  0.034528432   0.03468072            3 
 1386000    1.0143068   -6.4332536    574.01864  0.034512905  0.034673724            3 
 1387000     1.011771   -6.4259422    574.30563  0.034505265  0.034666634            9 
 1388000    1.0194931   -6.4682153    574.70884  0.034504613   0.03465965            2 
 1389000    1.0143251   -6.4494604    573.56084  0.034410897  0.034652408            7 
 1390000     1.017212   -6.4420449     574.4708  0.034440695  0.034645155            2 
 1391000    1.0415508   -6.4573211     575.0468  0.034450443  0.034637934            6 
 1392000    1.0280376   -6.4867994      570.972  0.034181753  0.034630355            4 
 1393000    1.0191363   -6.3929749    573.12379  0.034285941  0.034622765            8 
 1394000      1.04427    -6.415506    573.69995  0.034295788  0.034615039            9 
 1395000    1.0396253   -6.4602199    574.02347   0.03429053  0.034607428            3 
 1396000    1.0442116   -6.4443132    575.56058  0.034357723  0.034599765            3 
 1397000    1.0255327   -6.4861303     574.0705  0.034244244  0.034592033            7 
 1398000    1.0111999   -6.4818281    575.62331   0.03431231  0.034584227            8 
 1399000    1.0493129   -6.4431556    575.14884  0.034259521  0.034576554            5 
 1400000    1.0356901   -6.4645552    575.72232  0.034269186  0.034569057            6 
 1401000    1.0374181   -6.4329534     577.6283  0.034358095  0.034561543            4 
 1402000    1.0364812   -6.4684131    576.74719  0.034281217  0.034553992            3 
 1403000    1.0466436   -6.4583055    575.57765  0.034187316  0.034546354            5 
 1404000    1.0284379   -6.4980836    577.39044  0.034270562  0.034538716            5 
 1405000     1.028475   -6.4479545    577.27223  0.034239159  0.034531006            6 
 1406000    1.0178803   -6.4433926    578.86901  0.034309448  0.034523281            3 
 1407000     1.058652   -6.4462183    576.85998  0.034166073  0.034515594           10 
 1408000    1.0431063    -6.427037    578.72319  0.034252083  0.034507885            5 
 1409000    1.0568843   -6.4180898    578.71307  0.034227175  0.034500341            3 
 1410000    1.0226296   -6.4699425    579.58422  0.034254386    0.0344927            6 
 1411000    1.0328582   -6.4574115    579.02883  0.034197308  0.034485052            7 
 1412000    1.0095079   -6.4694809    578.59611  0.034147551  0.034477518            3 
 1413000    1.0518917   -6.4481278    580.90176  0.034259363  0.034469928            4 
 1414000    1.0165069   -6.4297757    581.51577  0.034271321  0.034462492            2 
 1415000    1.0159247    -6.443884    581.37274  0.034238677  0.034455055            5 
 1416000    1.0060878   -6.4348671     581.6598  0.034231391  0.034447704            5 
 1417000    1.0428544   -6.4824674    580.99243  0.034167986  0.034440193            5 
 1418000    1.0373674   -6.4429427    580.63001  0.034122591  0.034432676            7 
 1419000    1.0204803   -6.4542399    582.52571  0.034209873  0.034425353            6 
 1420000    1.0094843   -6.4388555    582.41339  0.034179189  0.034417829            3 
 1421000    1.0365167   -6.4753701       582.59  0.034165494   0.03441027           13 
 1422000    1.0112703   -6.4520735    583.65411  0.034203828   0.03440275            4 
 1423000    1.0116586   -6.4679484    584.19582  0.034211515  0.034395254            5 
 1424000    1.0451031   -6.4374846    582.16746  0.034068789   0.03438777            6 
 1425000    1.0104281   -6.4917767    583.67519  0.034133052  0.034380362            5 
 1426000     1.002542   -6.4579837    584.56512  0.034161122  0.034373026            5 
 1427000    1.0389754    -6.485604    585.94454  0.034217738  0.034365759            5 
 1428000    1.0254356   -6.4682625    585.77865  0.034184095  0.034358635            4 
 1429000   0.99427735   -6.4572776    586.85202  0.034222768  0.034351576            9 
 1430000    1.0401547   -6.4295097    586.32129  0.034167907  0.034344365            5 
 1431000    1.0331193   -6.4638648    587.45141  0.034209842  0.034337301            7 
 1432000    1.0458474   -6.4341074    587.61127  0.034195255  0.034330083            3 
 1433000    1.0349266   -6.4659293    587.85201  0.034185392  0.034323027            9 
 1434000    1.0294172   -6.4447559    588.88098  0.034221349  0.034315913            3 
 1435000    1.0319117   -6.4345667    589.36727  0.034225741  0.034308838            5 
 1436000    1.0289238   -6.4470899    588.22093  0.034135384  0.034301704            4 
 1437000    1.0358718   -6.4443502    588.90541  0.034151323    0.0342945            3 
 1438000    1.0294198   -6.4779703    588.49915   0.03410403  0.034287217            6 
 1439000    1.0217529   -6.4713647    589.06426  0.034113056  0.034279978            2 
 1440000    1.0135961   -6.4626005     588.5703  0.034060781  0.034272773            2 
 1441000     1.012911   -6.4352195    591.03196  0.034179503  0.034265564            3 
 1442000    1.0419474   -6.4638977    589.76415  0.034082533  0.034258369            4 
 1443000    1.0215092   -6.4954349    590.46335  0.034099292  0.034251184            5 
 1444000    1.0317334   -6.4839916    590.94411  0.034103423  0.034243994            5 
 1445000     1.026927   -6.4983105    590.21044  0.034037511  0.034236858            5 
 1446000    1.0208726   -6.4901632     591.9491  0.034114171  0.034229812            6 
 1447000    1.0262093   -6.4851712    590.78388   0.03402349  0.034222628            2 
 1448000    1.0212245   -6.4596652    591.44543  0.034038066  0.034215477            6 
 1449000    1.0408754   -6.4861674    591.16093  0.033998213  0.034208246            5 
 1450000    1.0285205   -6.4643452    592.50538  0.034052033  0.034200943            6 
 1451000    1.0159893   -6.4498007    592.80049  0.034045514  0.034193759            8 
 1452000    1.0198725   -6.4493163     593.2022  0.034045121  0.034186508            4 
 1453000    1.0083514     -6.45735    592.63611  0.033989224  0.034179398            4 
 1454000    1.0122529   -6.4440302    594.23657  0.034057575  0.034172205            4 
 1455000    1.0217851   -6.4701632    593.37852  0.033985024  0.034164965            3 
 1456000    1.0225514   -6.4705307    593.41249  0.033963627  0.034157588            7 
 1457000     1.016846   -6.5130481    592.34641  0.033879342  0.034150142            2 
 1458000    1.0338454   -6.5050923    591.76466  0.033822855  0.034142855           12 
 1459000    1.0041588   -6.4483581    593.68443  0.033909323  0.034135604            2 
 1460000   0.98874351   -6.5000483    594.16127  0.033913314  0.034128262            2 
 1461000    1.0402162   -6.4748787    595.30397   0.03395528  0.034120978            4 
 1462000    1.0211001   -6.4832055    594.25558  0.033872297  0.034113656            3 
 1463000    1.0202131   -6.4924773    593.28734  0.033793993  0.034106363            4 
 1464000    1.0107202   -6.4933277    595.40115  0.033891231  0.034099212            5 
 1465000    1.0085317   -6.5012724    596.35594  0.033922409  0.034092028            4 
 1466000    1.0132824    -6.460183    594.94925  0.033819307   0.03408483            4 
 1467000    1.0094298   -6.4908853    595.96156  0.033853758  0.034077613            5 
 1468000    1.0347165    -6.488391    596.05695  0.033836112  0.034070478            6 
 1469000    1.0352415   -6.5084006    598.70673  0.033963395  0.034063377            7 
 1470000    1.0193311   -6.4489236    599.12511  0.033964008  0.034056406            2 
 1471000    1.0135189   -6.4497329    599.38863  0.033955848  0.034049388            6 
 1472000    1.0111592   -6.4783218    600.19244  0.033978286  0.034042497            4 
 1473000    1.0091575   -6.4960945    598.88172  0.033881066  0.034035596            7 
 1474000    1.0221625   -6.4650967    599.44503  0.033889927  0.034028725            3 
 1475000    1.0200969   -6.4624423    601.68693  0.033993612  0.034021807            4 
 1476000    1.0246685   -6.4465547    602.16618  0.033997639  0.034014903            2 
 1477000    1.0073475   -6.4818419    601.50118  0.033937101  0.034007926            4 
 1478000    1.0177097   -6.4588676    601.74657  0.033927976  0.034000945            4 
 1479000    1.0289774   -6.4984526     600.4894  0.033834201  0.033993971            6 
 1480000   0.99641679   -6.4695448    601.00435  0.033840335  0.033986928            3 
 1481000    1.0033206   -6.5091041    601.37077  0.033838103   0.03397982            5 
 1482000    1.0166732   -6.4785766    600.97551  0.033793045  0.033972611            5 
 1483000    1.0141218   -6.4793788    601.33579  0.033790503  0.033965395            7 
 1484000    1.0001342   -6.4710948     603.9364  0.033913769  0.033958298            6 
 1485000   0.99658609   -6.4679758    602.93389  0.033834674  0.033951279            6 
 1486000    1.0000918   -6.5077718    604.08065  0.033876214  0.033944262            6 
 1487000    1.0319651   -6.4701283    601.49803  0.033708699  0.033937326            4 
 1488000    1.0163109   -6.4918511    604.38303  0.033847616  0.033930387            3 
 1489000    1.0262611   -6.4451783    603.33052   0.03376598  0.033923363            5 
 1490000    1.0031445    -6.508107    604.86001  0.033828859  0.033916288            5 
 1491000    1.0152188   -6.4591665    605.24838  0.033827877  0.033909216            3 
 1492000    1.0264021   -6.4605876    604.32754  0.033753772  0.033902109           12 
 1493000    1.0243038   -6.4778126    608.19185  0.033946855  0.033895139            5 
 1494000    1.0226246   -6.4931941    603.52226  0.033663669  0.033888157            5 
 1495000    1.0214944   -6.4629544    606.24793  0.033793084  0.033881141           11 
 1496000    1.0220066   -6.4905705    607.28594  0.033828317  0.033874203            4 
 1497000   0.99081967   -6.5004886    606.49602  0.033761747   0.03386732            4 
 1498000    1.0225811   -6.4890955    606.08626  0.033716414  0.033860396            9 
 1499000    1.0067356    -6.503478    607.42132  0.033768141  0.033853406            2 
 1500000     1.003332   -6.4764736    608.03941  0.033779967  0.033846489            6 
 1501000    1.0161798   -6.4766425    608.45247  0.033780395  0.033839699            4 
 1502000    1.0017981   -6.4723143    608.99889  0.033788221  0.033832895            5 
 1503000    1.0064786    -6.499458    608.39318  0.033732157  0.033826078            5 
 1504000    1.0026926   -6.4938128    608.86362  0.033735795  0.033819201            4 
 1505000    1.0097073   -6.4945271    609.35785  0.033740745  0.033812273            6 
 1506000    1.0398582   -6.4938233    610.67007  0.033790951  0.033805478            3 
 1507000    1.0206331   -6.4686338    609.63701  0.033711403  0.033798607           11 
 1508000   0.99704885   -6.4838085    609.20239   0.03366503  0.033791822            7 
 1509000    1.0253887   -6.4826162     609.6524  0.033667572  0.033784876            8 
 1510000   0.99864441   -6.5010676    611.09332  0.033724797  0.033777931            5 
 1511000    1.0246994   -6.4971803    611.28365  0.033712974  0.033771003            4 
 1512000    1.0011968   -6.4810672    609.78539  0.033608102  0.033763914            4 
 1513000    1.0400792   -6.5067033      611.735  0.033693269  0.033756876            7 
 1514000   0.98826216   -6.4699491    610.60393  0.033608759  0.033749877            3 
 1515000    1.0144354   -6.4895419    611.19699  0.033619196  0.033742857            7 
 1516000     1.007426   -6.4975231    611.60508  0.033619452  0.033735762           10 
 1517000    1.0324161   -6.5195194    609.35391  0.033473627  0.033728613            5 
 1518000   0.99576295    -6.481897     612.5242  0.033625615   0.03372138           11 
 1519000    1.0224511   -6.5179027    610.16634  0.033474124  0.033714152            5 
 1520000    1.0177704   -6.4781009    611.64498  0.033533168  0.033706802            5 
 1521000    1.0242227    -6.448828    612.21984  0.033542617  0.033699604            3 
 1522000     1.020838   -6.5233945    611.26605  0.033468356  0.033692366            7 
 1523000     1.017966   -6.4739935    611.39902  0.033453656  0.033685091            4 
 1524000    1.0123825   -6.4581602    610.67321  0.033392017  0.033677649            3 
 1525000    1.0210727   -6.4832794    612.94046  0.033494014  0.033670135            8 
 1526000   0.99517607   -6.5234758    613.70613  0.033513878  0.033662611            9 
 1527000    1.0281039   -6.5101162    611.28982  0.033360064  0.033655079           15 
 1528000   0.99535283   -6.4912209    612.31573  0.033394182  0.033647603            8 
 1529000    1.0061107   -6.4909554    614.02756   0.03346564  0.033640083            7 
 1530000    0.9815311   -6.4817307    613.53527  0.033416953  0.033632655            4 
 1531000    1.0245793   -6.5231613     611.9181  0.033307103   0.03362525            4 
 1532000    1.0216713   -6.5468504    613.43692  0.033367979  0.033617656            6 
 1533000     1.015314   -6.4766054    616.02327  0.033486805    0.0336101            4 
 1534000    1.0274453   -6.4663022    616.33796  0.033482071  0.033602632            4 
 1535000    1.0055616   -6.5036764    613.52097  0.033307327  0.033595152            2 
 1536000   0.98961939   -6.5048122    614.35381  0.033330827  0.033587514            5 
 1537000   0.98590485   -6.5379271    613.71902  0.033274724  0.033579825           15 
 1538000     1.009059   -6.5146307    613.20136  0.033225041  0.033572237            5 
 1539000    1.0243504   -6.4950122    616.75475   0.03339586  0.033564608            5 
 1540000   0.99234848   -6.5073529    616.32607  0.033350978  0.033557135            6 
 1541000    1.0125864   -6.4901529    616.82819  0.033356489  0.033549558            3 
 1542000    1.0004802   -6.5110708    615.97687  0.033288849  0.033541991            7 
 1543000    1.0148144   -6.5422259    617.34341  0.033341078  0.033534484            7 
 1544000    1.0028472   -6.5213252    618.08514  0.033359517  0.033526848            5 
 1545000    1.0007323   -6.4867213    617.90959  0.033328457  0.033519355            5 
 1546000    1.0199065   -6.4577796    619.36744  0.033385481  0.033512075            7 
 1547000    1.0127723   -6.4996139    616.79534  0.033225347  0.033504499            4 
 1548000    1.0056362   -6.4732978    618.94597  0.033319658  0.033496873            6 
 1549000    1.0183778   -6.4870335    620.02281   0.03335608  0.033489401            4 
 1550000    1.0089268   -6.5171471    619.69772  0.033317082  0.033481704            4 
 1551000    1.0078218   -6.5483247    617.46017   0.03317538  0.033474155            6 
 1552000   0.99132914   -6.4599376    616.87824  0.033122758  0.033466628            6 
 1553000   0.99388449    -6.505382    618.43951  0.033185206  0.033459079            6 
 1554000   0.99103438   -6.5108418    619.01839  0.033194894  0.033451517            4 
 1555000    1.0006643   -6.4631513    618.53955  0.033147886  0.033443844            6 
 1556000    1.0028419   -6.4852093    619.24111  0.033164155  0.033436322            3 
 1557000    1.0150979     -6.46275    621.72542   0.03327582  0.033428814            3 
 1558000   0.99467048    -6.490313    620.54062   0.03319109   0.03342138            4 
 1559000    1.0145524   -6.5083238     620.4673  0.033165881   0.03341402            4 
 1560000    1.0045157   -6.4812318    621.70904  0.033210953  0.033406573            4 
 1561000   0.98983329   -6.4871823    620.59125  0.033130005  0.033399182            3 
 1562000   0.99254478   -6.4779658    621.47283  0.033155827  0.033391789            6 
 1563000    0.9704222   -6.5240031    622.66051  0.033197937  0.033384364            8 
 1564000    0.9754613   -6.4888543    624.64278  0.033282331  0.033376957            4 
 1565000   0.99685396   -6.5465795    623.79586  0.033215967  0.033369503            4 
 1566000    1.0035931   -6.4869268    623.02016  0.033153478  0.033362196            4 
 1567000     1.019513   -6.5367823    624.46687  0.033209257  0.033354906            7 
 1568000    1.0170126    -6.500775    624.95363  0.033213947  0.033347807            2 
 1569000    1.0036296   -6.5498708    625.23988  0.033207982  0.033340576            4 
 1570000   0.98442369   -6.5146615    622.70397  0.033052228   0.03333314            6 
 1571000    1.0271367   -6.5015516    625.14855  0.033160861  0.033325734            6 
 1572000   0.99292622   -6.5074783    625.39139  0.033152639  0.033318414           12 
 1573000   0.97023739   -6.4931761    626.14327  0.033171396  0.033311127            3 
 1574000    1.0031873   -6.4718541    626.26045  0.033156525  0.033303882            7 
 1575000    1.0014782   -6.5148114    625.53838  0.033097269  0.033296656           12 
 1576000   0.99795594   -6.5015089    626.41924  0.033122845  0.033289388           16 
 1577000    1.0028207   -6.5292482    626.97972  0.033131458  0.033282081            8 
 1578000    0.9976447   -6.4811276    625.38467  0.033026229  0.033274811            3 
 1579000   0.99176747   -6.4746365    626.36778  0.033057198  0.033267359            5 
 1580000   0.98341339   -6.5006617    627.27823  0.033084295  0.033260071            5 
 1581000    0.9934417   -6.5110194    626.91436  0.033044189  0.033252841            7 
 1582000    1.0109509   -6.5493497    629.13725  0.033140395  0.033245477            9 
 1583000   0.98433521   -6.5056012    627.39765  0.033027882  0.033238173            4 
 1584000     1.012947   -6.5210947     626.4349  0.032956381  0.033230795           15 
 1585000    1.0023323   -6.5107066    628.77721  0.033058739  0.033223377            4 
 1586000    1.0045585   -6.5294905    629.09289  0.033054481  0.033216054            4 
 1587000   0.99560209   -6.4995638    629.36541  0.033047963  0.033208593            3 
 1588000    1.0169116   -6.4971392    629.04242  0.033010202  0.033201348            4 
 1589000    1.0018005   -6.5138486    631.45489  0.033115948   0.03319417            2 
 1590000   0.99904164   -6.4875741    629.83515  0.033010228   0.03318697            2 
 1591000   0.98271725   -6.5137936    631.83895  0.033094435  0.033179625            4 
 1592000   0.99454819   -6.5359431    629.96724  0.032975672  0.033172419            6 
 1593000    1.0090062   -6.4796642    630.88663  0.033003067  0.033165168           12 
 1594000    1.0005306   -6.4835002    632.30067  0.033056288  0.033158071            5 
 1595000    1.0120046   -6.5109478    631.19286  0.032977684  0.033151063           12 
 1596000   0.99556404   -6.5162656    633.24319  0.033064076   0.03314396            4 
 1597000   0.98203736    -6.528412    629.78608  0.032862977  0.033136762            7 
 1598000    1.0210225   -6.5113832    631.38158  0.032925614  0.033129564            3 
 1599000    1.0132141   -6.4988347      631.847  0.032929279   0.03312243            4 
 1600000   0.99103204   -6.5232698    633.97672  0.033019621  0.033115281            6 
 1601000    1.0146202   -6.5156169    632.33943  0.032913774  0.033108037            6 
 1602000   0.99646812   -6.5369444    633.58106  0.032957816  0.033100776            4 
 1603000   0.98781052   -6.4931562    634.25137  0.032972103  0.033093564            6 
 1604000   0.97164352   -6.5286575    632.03513  0.032836406  0.033086267            4 
 1605000   0.99509777    -6.550219    632.71512  0.032851252  0.033078886            5 
 1606000    1.0140003   -6.5228971    634.53602  0.032925281  0.033071461            6 
 1607000   0.96983474   -6.5396999    634.33816  0.032894532  0.033064094            5 
 1608000   0.99067104   -6.5268191    634.83434  0.032899789  0.033056741            4 
 1609000   0.99403772   -6.4868357    634.54044   0.03286412  0.033049416            5 
 1610000   0.98978371   -6.5395468    634.16059  0.032824047  0.033042098            4 
 1611000   0.97549347   -6.5307419    636.33664  0.032916234  0.033034882            7 
 1612000   0.99912424   -6.5232777     636.4691  0.032902662  0.033027573            4 
 1613000   0.98720539    -6.532098    637.47376  0.032934168  0.033020504            4 
 1614000   0.99123571   -6.5229873     637.5228  0.032916295  0.033013459            7 
 1615000    1.0064334    -6.541903    639.23385  0.032984203  0.033006397            8 
 1616000   0.98083706   -6.4977184    637.98128    0.0328992  0.032999348            3 
 1617000   0.98497618   -6.5469417    636.99423  0.032827986  0.032992308            6 
 1618000   0.98444027   -6.5334527    637.80889  0.032849654  0.032985237            4 
 1619000   0.99131649   -6.5524552    637.26676   0.03280146  0.032978206            3 
 1620000   0.99881617   -6.5164951    638.86415  0.032863382  0.032971121           10 
 1621000    1.0097558   -6.5040307    639.05181  0.032852756  0.032964106            3 
 1622000   0.97116139   -6.5095389     640.2555  0.032894344   0.03295709            5 
 1623000   0.99635856   -6.4985315    641.98345  0.032962798  0.032950223            3 
 1624000    1.0060749   -6.5141648    641.94492  0.032940524  0.032943324           11 
 1625000   0.98145663   -6.5009371      640.763  0.032859641  0.032936328            5 
 1626000   0.99327185   -6.5242858     640.0265  0.032801686  0.032929198            6 
 1627000   0.99233834   -6.4664874    642.76068  0.032921567  0.032922072            3 
 1628000    1.0133262   -6.5263374    639.19248  0.032718698  0.032915015            6 
 1629000   0.99587782   -6.5056484    640.22248  0.032751304  0.032907778            3 
 1630000   0.98475273   -6.5285648    639.77775  0.032708474   0.03290052            8 
 1631000    1.0002549   -6.4928325    642.50445  0.032827736  0.032893233            5 
 1632000   0.98831897   -6.5279138    640.58904  0.032709816  0.032885991            3 
 1633000    1.0012957   -6.5508426    641.20124  0.032721027  0.032878676            7 
 1634000    1.0103851   -6.4954188     641.8662  0.032734914   0.03287142            7 
 1635000   0.99919153   -6.5086864    642.10069  0.032726845  0.032864176            4 
 1636000    0.9876048   -6.5644165    642.27662  0.032715802  0.032856729            6 
 1637000   0.98229852   -6.5299222    640.17624  0.032588895  0.032849292            4 
 1638000   0.98750453   -6.5579695    642.09858  0.032666798  0.032841994            4 
 1639000    0.9834949   -6.5410152     641.8525  0.032634355  0.032834819            8 
 1640000   0.98613698   -6.5092977     642.3874  0.032641636   0.03282756            4 
 1641000   0.99238763   -6.5418456    642.25134  0.032614836  0.032820276            7 
 1642000   0.98371717   -6.4866909     644.2277  0.032695275  0.032812986            7 
 1643000   0.95984619   -6.5354548    642.89148  0.032607602  0.032805663            6 
 1644000    0.9812852   -6.4955203    643.28386  0.032607657  0.032798317           12 
 1645000   0.99288915   -6.5248301    645.55451  0.032702863  0.032791078            4 
 1646000    1.0015874   -6.5081632    645.69819  0.032690269  0.032783866            7 
 1647000   0.98080854   -6.4944502    646.59015  0.032715551  0.032776601            5 
 1648000   0.97035702   -6.5290197    644.31926  0.032580869  0.032769437            6 
 1649000    0.9840045   -6.5440485    643.96832  0.032543376  0.032762251            4 
 1650000   0.99626884   -6.5210877    647.67677  0.032710948  0.032755146            3 
 1651000    0.9975293   -6.5433222    646.40262  0.032626823  0.032748016            4 
 1652000    1.0013472   -6.5210447    649.22556  0.032749473  0.032740778            3 
 1653000   0.95487855   -6.5080381    647.42414  0.032638846  0.032733639            6 
 1654000   0.97419089   -6.5098418    646.15109  0.032554972  0.032726477            7 
 1655000    0.9756683   -6.5264618    647.05697  0.032580915   0.03271933           10 
 1656000    1.0058369   -6.5227053    648.73265  0.032645564  0.032712257            8 
 1657000   0.97461795   -6.5185113    647.97498  0.032587758  0.032705194            5 
 1658000   0.96954247   -6.5398339    647.97192   0.03256795  0.032698042            9 
 1659000   0.97990552     -6.51346    647.03982  0.032501498  0.032690725            5 
 1660000   0.98777889    -6.495637    650.36674  0.032648933  0.032683526            4 
 1661000    1.0028047   -6.5422161    649.87108  0.032604409  0.032676303            3 
 1662000    1.0022067   -6.5132525    649.71059  0.032576744  0.032668983            6 
 1663000   0.98102429   -6.5547448    648.66639   0.03250483   0.03266162            4 
 1664000   0.96712745   -6.4781208    649.31206  0.032517631  0.032654293            7 
 1665000   0.97826259     -6.56455    647.69988  0.032417411  0.032646934            7 
 1666000   0.98832246     -6.53573     648.4611   0.03243603  0.032639527            8 
 1667000   0.95724677   -6.5323074    648.43819  0.032415426   0.03263211            5 
 1668000    1.0016625   -6.5697841    647.63642  0.032355936  0.032624659            5 
 1669000   0.98519562   -6.5482521    649.88851  0.032448997  0.032617231            6 
 1670000   0.99059653   -6.5327254     647.5041  0.032310584  0.032609794            3 
 1671000   0.98040453   -6.4878181    650.86859  0.032459036  0.032602461            3 
 1672000   0.99602141   -6.5357348    649.60162  0.032376476  0.032595187            7 
 1673000   0.95482922   -6.5407393    649.40345  0.032347253  0.032587671            9 
 1674000   0.98613632   -6.5516044     648.9811  0.032306904  0.032580252            7 
 1675000   0.97723693   -6.5418822    652.40588  0.032458004  0.032572798            4 
 1676000   0.97058772   -6.5719734    648.99891  0.032269238  0.032565389            3 
 1677000    1.0039507   -6.5318032    650.47362  0.032323277  0.032557968            4 
 1678000    0.9793735   -6.5272722    651.99616  0.032379626  0.032550535            7 
 1679000   0.98484678   -6.5804674    651.96929  0.032359008  0.032543137            4 
 1680000   0.99645325   -6.5546818    650.71379   0.03227747  0.032535723            5 
 1681000   0.99598134   -6.5533135     650.7493  0.032260029  0.032528321            5 
 1682000   0.99276888   -6.5200536    651.88266  0.032297001  0.032520838            4 
 1683000   0.99109232   -6.5455142    650.77266  0.032222849  0.032513286           15 
 1684000   0.96847511   -6.5486706    650.48904  0.032189679   0.03250566            3 
 1685000   0.97804477   -6.5292073      650.865  0.032189169  0.032498152            6 
 1686000   0.98633416   -6.5743488    650.78189  0.032165969  0.032490576            4 
 1687000   0.96811841   -6.5390264    653.93894  0.032302852  0.032482995           13 
 1688000   0.96774629   -6.5389942    651.51136   0.03216387    0.0324754            4 
 1689000   0.98279449   -6.5533685      654.118  0.032273436  0.032467848            5 
 1690000   0.97487734   -6.5229711    652.91368  0.032194954  0.032460326            5 
 1691000   0.97788162   -6.5353398    654.39076  0.032248707  0.032452761            3 
 1692000    1.0014434   -6.5509349    655.52712  0.032285614  0.032445237            3 
 1693000   0.95583492   -6.5442503    654.00474  0.032191609  0.032437699            6 
 1694000   0.99653184   -6.5621764    654.15667   0.03218008  0.032430011            3 
 1695000   0.99414572   -6.5324779    654.01725  0.032154241  0.032422367            8 
 1696000   0.97971562   -6.5271951    653.34033  0.032102021  0.032414825            8 
 1697000   0.98583679   -6.5533406    655.80377  0.032204074  0.032407023            6 
 1698000   0.98600504   -6.5449398    653.93283  0.032093288  0.032399274            4 
 1699000   0.98050152   -6.5049222    657.31608  0.032240341  0.032391702            8 
 1700000   0.98739784   -6.5226412    657.27148   0.03221919  0.032384117            6 
 1701000   0.98289445   -6.5401755    659.37097  0.032303104  0.032376557            3 
 1702000    0.9912871   -6.5541092    656.51946  0.032144509  0.032368995            6 
 1703000   0.98201799   -6.5454522    657.17196  0.032157563  0.032361324            4 
 1704000    0.9895553   -6.5848874    655.33172  0.032048695  0.032353503            4 
 1705000   0.99459598   -6.5586167    655.73657  0.032049686  0.032345738           10 
 1706000   0.96738541   -6.5422092    657.43309   0.03211377   0.03233793            7 
 1707000   0.97673975    -6.537628    657.26047  0.032086529  0.032330297            5 
 1708000   0.98638419   -6.5222981    658.50573    0.0321285  0.032322806            6 
 1709000   0.99424125   -6.5361106    657.51337  0.032061311    0.0323152            8 
 1710000   0.97849036   -6.5875609    657.37509  0.032035823  0.032307586            5 
 1711000   0.98664561   -6.5463903    658.41468  0.032067732  0.032299997            7 
 1712000   0.97236694   -6.5747909    658.73914  0.032064795  0.032292347            6 
 1713000   0.97694162   -6.5507289    660.11684  0.032113098  0.032284705            9 
 1714000   0.98091445   -6.5311293    659.31178  0.032055221  0.032277073            6 
 1715000   0.98575678   -6.5630797    656.90706  0.031919682  0.032269392            4 
 1716000   0.97169088   -6.5646003    656.74907  0.031893408  0.032261595           12 
 1717000   0.95745687    -6.534752     658.6761   0.03196836  0.032253765            6 
 1718000   0.97338796   -6.5437677    657.34501  0.031885187  0.032246009            3 
 1719000   0.97952471   -6.5758207    659.43625  0.031968017  0.032238232            3 
 1720000   0.97406573   -6.5464625    658.61296  0.031909543  0.032230427            6 
 1721000   0.97863288   -6.5135281    660.56531  0.031985537  0.032222664            2 
 1722000   0.96014211    -6.571235    658.92761  0.031887709  0.032214828            5 
 1723000   0.98691998   -6.5727618    659.84633  0.031913635  0.032206987            6 
 1724000   0.97700427   -6.5358017    659.02579  0.031855462  0.032199281            5 
 1725000   0.97604843   -6.5460408    660.97882  0.031931344  0.032191518            5 
 1726000   0.96939635   -6.5214771    660.83531  0.031905915  0.032183764            6 
 1727000   0.98176391   -6.5638965    660.13901  0.031853842  0.032176082            7 
 1728000   0.98068967   -6.5292021    661.62511  0.031907075  0.032168356            6 
 1729000   0.94022088   -6.5566468     663.3583  0.031972156  0.032160637            3 
 1730000   0.98319686   -6.5588849    661.05967  0.031842951  0.032152827            4 
 1731000   0.98864909   -6.5789364    662.50128  0.031893957  0.032145078            7 
 1732000   0.96910695   -6.5373589    662.43056   0.03187214  0.032137413           11 
 1733000   0.96117438    -6.500895    663.85478  0.031922234  0.032129681            7 
 1734000   0.97446539   -6.5550762     662.4263  0.031835174  0.032121966            5 
 1735000   0.99547992   -6.5451329     662.2405  0.031807901  0.032114304            5 
 1736000   0.97804366   -6.5691121     662.7151  0.031812361  0.032106611            7 
 1737000   0.96286427     -6.55713    664.96313  0.031901896  0.032098883            3 
 1738000   0.97702347   -6.5658822    664.12558  0.031843382  0.032091265            4 
 1739000   0.97487151   -6.5541017    664.53702  0.031844787  0.032083735            7 
 1740000   0.96828028   -6.5743211     664.3217  0.031816173  0.032076129            4 
 1741000   0.96672806   -6.5530035    663.78674  0.031772293  0.032068541            6 
 1742000   0.96055109   -6.5422433    666.48539  0.031883151  0.032060942           11 
 1743000   0.96428337   -6.5771641    667.02735   0.03189077  0.032053335            5 
 1744000    1.0035623    -6.536132    665.09175  0.031779996  0.032045721            8 
 1745000   0.98648736   -6.5504264    666.97656  0.031851794   0.03203819            8 
 1746000    0.9737463    -6.574947    667.33121  0.031850478  0.032030664            3 
 1747000   0.97676035   -6.5417896    666.56928  0.031795901  0.032022948            5 
 1748000   0.95998062   -6.5726479    667.88756  0.031840559  0.032015348            8 
 1749000   0.98710838   -6.5536896    668.44548  0.031848937  0.032007836            8 
 1750000   0.95505618   -6.5793985    666.54728  0.031740347  0.032000263            5 
 1751000   0.96549032   -6.5771948    666.48853  0.031719423  0.031992599           10 
 1752000   0.98996992   -6.5430608    666.26872  0.031690864  0.031985019           12 
 1753000   0.97803036   -6.5672046    667.32589  0.031723041  0.031977353            5 
 1754000   0.98093777   -6.5460657     668.2414  0.031748451  0.031969697            6 
 1755000    0.9974667   -6.5912233     667.4085  0.031690812  0.031962058            5 
 1756000   0.97635703   -6.5279965    669.25638  0.031760459  0.031954428            3 
 1757000    0.9753578   -6.5612099    670.31885  0.031792774  0.031946811            5 
 1758000   0.96028688   -6.5558019    668.00149  0.031664841  0.031939244            3 
 1759000   0.99300817   -6.5948545    670.18032  0.031750062  0.031931708            5 
 1760000   0.95511426   -6.5645438    671.98998  0.031817707   0.03192419            5 
 1761000    0.9701332   -6.5866277    667.99519    0.0316106  0.031916612            4 
 1762000   0.97334518   -6.5404022    670.34631  0.031703855  0.031909098            8 
 1763000   0.96334107   -6.5871969    669.69027  0.031654863  0.031901463            6 
 1764000   0.97834254   -6.5563818    670.86604  0.031692462  0.031893914            6 
 1765000   0.97369288   -6.5838154      670.935  0.031677762  0.031886371            6 
 1766000   0.96501443   -6.5854408    669.47597  0.031590976  0.031878831            5 
 1767000   0.96920087    -6.551707    671.14415  0.031651771  0.031871322            4 
 1768000   0.96790182   -6.5719032    672.96164  0.031719534  0.031863765            4 
 1769000   0.97030328   -6.5778631     672.1412  0.031662955  0.031856289            4 
 1770000   0.96435475    -6.575152     673.8107  0.031723667  0.031848896            8 
 1771000   0.97908142   -6.5688154    673.58504  0.031695136  0.031841537            5 
 1772000    0.9473141   -6.5539696     672.7767  0.031639235  0.031834088            4 
 1773000   0.98610391   -6.5581238     673.6905   0.03166434   0.03182681            4 
 1774000   0.97964294   -6.5778728    673.34354  0.031630193  0.031819537            5 
 1775000   0.97323297   -6.5842761    674.49583  0.031666471    0.0318122            4 
 1776000   0.97030977   -6.5618019    674.34372  0.031641503  0.031804908            4 
 1777000   0.96658093   -6.5554265    676.92173  0.031744594  0.031797636            5 
 1778000   0.95657439   -6.5705545    675.37068  0.031654044  0.031790354            7 
 1779000   0.95757861   -6.5783389    673.71402  0.031558648  0.031783099            7 
 1780000   0.93037544   -6.5335934     675.9457  0.031645398  0.031775809            5 
 1781000   0.95901751   -6.5886392    676.25966   0.03164232  0.031768519            4 
 1782000   0.97879356   -6.5185046    676.90663  0.031654818  0.031761207            5 
 1783000   0.96321753   -6.5765802    676.68044  0.031626493  0.031753997            2 
 1784000   0.93475425   -6.5541107    677.38941  0.031641882  0.031746868            9 
 1785000   0.97166908   -6.4912318    677.14781  0.031612876  0.031739805            5 
 1786000   0.96039578   -6.5748707    678.31405  0.031649592  0.031732532            6 
 1787000   0.95234209   -6.5510348    678.11242  0.031622478  0.031725323            3 
 1788000   0.97661609   -6.5418983    678.59315  0.031627198  0.031718135            4 
 1789000   0.96672322   -6.5658948    678.05258  0.031584339  0.031710857            3 
 1790000    0.9624841   -6.5572365    679.24552  0.031622231  0.031703655           10 
 1791000   0.99073022   -6.5984534    678.56259  0.031572798  0.031696392           17 
 1792000   0.96291875   -6.5901886    678.59415  0.031556647  0.031689012            4 
 1793000    0.9699671   -6.6181574     677.8384  0.031503923   0.03168155           12 
 1794000   0.96609423   -6.5932022    679.91847  0.031582984  0.031674202            5 
 1795000   0.93824328   -6.5761719    680.23013  0.031579857  0.031666952           12 
 1796000   0.96825943   -6.5739101    679.95346  0.031549436  0.031659617            5 
 1797000    0.9651192    -6.559967    677.70836  0.031427767   0.03165229            4 
 1798000   0.95567784   -6.5707967    679.53013  0.031494722  0.031644935            5 
 1799000    0.9531957   -6.5700339    679.97408   0.03149778  0.031637644            7 
 1800000   0.97573523   -6.5745782    681.82831  0.031566126  0.031630339            3 
 1801000   0.96385951    -6.577493    680.65895  0.031494492  0.031623084            6 
 1802000   0.95430527   -6.6026163    678.98327  0.031399522  0.031615707            4 
 1803000   0.95388763   -6.5825777    681.60268  0.031503174  0.031608346            4 
 1804000   0.97336703   -6.5469221    680.99759   0.03145776   0.03160098            7 
 1805000   0.97615744   -6.5906482    679.97022    0.0313929  0.031593588            5 
 1806000   0.95318345   -6.6137139    680.54294  0.031401944  0.031586182            5 
 1807000   0.95997555   -6.5797967    682.01781  0.031452583  0.031578696            5 
 1808000   0.95338479   -6.5902472    682.22517  0.031444744  0.031571152            7 
 1809000   0.95660196   -6.6023136    679.88732  0.031319666  0.031563616            6 
 1810000   0.96152056   -6.5774241    679.93699  0.031304649   0.03155616            3 
 1811000   0.97114118   -6.5845896    681.69015  0.031368035  0.031548748           14 
 1812000   0.99010232   -6.6178653    682.23447  0.031375757  0.031541327            9 
 1813000   0.95199579   -6.6142376    682.72854  0.031381161  0.031533941            9 
 1814000   0.95736766   -6.5932091    681.63321  0.031313543  0.031526461            6 
 1815000   0.96183717   -6.5795035    682.67553  0.031344147  0.031519046            5 
 1816000   0.95923534    -6.602181     681.3476  0.031265951  0.031511625            6 
 1817000   0.96339304   -6.5772249    683.67378  0.031355429  0.031504207           10 
 1818000   0.95709998   -6.5639129    682.35056  0.031277528  0.031496826            4 
 1819000    0.9718705   -6.5938244     682.2017  0.031253514  0.031489383            6 
 1820000   0.96649074   -6.5895166    683.66108  0.031303163  0.031481903            4 
 1821000   0.95967325   -6.5845446    683.83473  0.031293919  0.031474332            5 
 1822000    0.9632284   -6.5994152    682.38259  0.031210327   0.03146677            5 
 1823000   0.93581355   -6.5795893    683.78545  0.031257335  0.031459303            6 
 1824000   0.95711291   -6.5802525    684.69464  0.031281736  0.031451795            6 
 1825000   0.97810622   -6.5906848     682.7232  0.031174575  0.031444327            3 
 1826000   0.95705581   -6.5680348    685.18756  0.031269969  0.031436808            9 
 1827000   0.98010919   -6.5897468    684.07921  0.031202299  0.031429236            8 
 1828000   0.96889484   -6.5622038    685.01908  0.031228076  0.031421678            7 
 1829000   0.97750491   -6.5658338    684.09417  0.031168861  0.031414066            3 
 1830000   0.93910006   -6.6352476    683.42642  0.031121422  0.031406437            8 
 1831000   0.95947261   -6.6328221    685.35333  0.031192123  0.031398832            8 
 1832000   0.95190108   -6.5812869    686.18714  0.031213025  0.031391325            7 
 1833000   0.95651261   -6.5984198    686.08839  0.031191507  0.031383808            6 
 1834000   0.95008135   -6.5711437    686.29518  0.031183896  0.031376322            4 
 1835000   0.95718276   -6.6055748    685.39949  0.031126226  0.031368804            7 
 1836000   0.95985916   -6.5756966    684.90153  0.031086671  0.031361232            6 
 1837000   0.96318645   -6.5861211    686.27151  0.031131896  0.031353598           13 
 1838000   0.94935612   -6.5807547    685.81612  0.031094311  0.031345943            4 
 1839000   0.94481228   -6.5789067    687.87939  0.031170899  0.031338325            5 
 1840000   0.94818038    -6.618861    686.44624  0.031089051  0.031330627           10 
 1841000   0.96999316   -6.5581357    685.76163  0.031041175   0.03132291            3 
 1842000   0.94137605     -6.59945    685.71866  0.031022379  0.031315206           11 
 1843000   0.94299537   -6.6224649    685.22825  0.030983372   0.03130746            3 
 1844000   0.95716638   -6.5704558    688.01478  0.031092497  0.031299817            8 
 1845000   0.96446037   -6.5852051    686.35098  0.031000496  0.031292162            5 
 1846000   0.98064261   -6.6013817    687.87458  0.031052482  0.031284453           14 
 1847000   0.93704318   -6.5455789     689.6508  0.031115809  0.031276886            5 
 1848000   0.93614996   -6.5826417    686.98657  0.030978831  0.031269214            5 
 1849000   0.94368814   -6.6050469    688.02297  0.031008787  0.031261526            3 
 1850000   0.94827825   -6.5779903    688.09699   0.03099536  0.031253816           11 
 1851000   0.96301552   -6.5999609    687.63358  0.030957752  0.031246144            5 
 1852000   0.95280882   -6.5676136    688.13994   0.03096382  0.031238458            6 
 1853000   0.94744513   -6.5813671    690.65825  0.031060364  0.031230855            5 
 1854000   0.96004131    -6.609777    689.17679  0.030977022  0.031223236            7 
 1855000   0.94743668   -6.6242221    689.47247  0.030973606  0.031215664            8 
 1856000   0.96067329   -6.6292906    690.51013  0.031003508  0.031207986           10 
 1857000   0.94985334   -6.6070526    688.47256  0.030895376  0.031200241            7 
 1858000   0.95551911   -6.6233046    688.68778  0.030888401  0.031192486            8 
 1859000   0.97094855   -6.6159994    689.26749  0.030897772  0.031184807            8 
 1860000   0.94510309   -6.5770793    691.69098  0.030989739  0.031177246            7 
 1861000   0.94833911   -6.5621599    691.46998  0.030963191  0.031169643            4 
 1862000    0.9578906   -6.5949318     692.9552  0.031013032  0.031162027            3 
 1863000   0.95898743   -6.5931268     690.6901  0.030895066  0.031154361            5 
 1864000   0.94525887   -6.5996813    693.03736   0.03098343  0.031146655            4 
 1865000   0.94756371   -6.6158771    690.12537  0.030836701  0.031138957            9 
 1866000   0.96232497   -6.6061899    689.62736  0.030797935  0.031131196            5 
 1867000   0.95020993   -6.5891333    689.85725    0.0307917  0.031123331           12 
 1868000    0.9477669   -6.6074265    691.55886  0.030851127  0.031115482           16 
 1869000   0.94630883   -6.6012495    692.71605  0.030886216  0.031107753            3 
 1870000   0.93509832   -6.6241468     693.0722   0.03088557  0.031099963            4 
 1871000   0.92335199   -6.5848236    692.76218  0.030855255  0.031092203            5 
 1872000   0.95872374   -6.5767256    692.41112  0.030823144  0.031084413           16 
 1873000   0.93894245   -6.5810205    690.76457   0.03073343  0.031076591            9 
 1874000   0.95247754   -6.5755681    693.66596  0.030846049  0.031068751            5 
 1875000   0.93919854   -6.6171401    692.19459  0.030764204   0.03106092            4 
 1876000   0.96150698   -6.5862619    694.33515  0.030842891  0.031053141            3 
 1877000   0.97371646   -6.5795385    693.14331  0.030773544   0.03104535            5 
 1878000   0.95736647    -6.588775    691.99496  0.030706202  0.031037503            9 
 1879000   0.97174082   -6.6061258    692.20344  0.030699106  0.031029573            6 
 1880000   0.94727218   -6.5804498    693.55261   0.03074258  0.031021678            9 
 1881000   0.96569507   -6.6178251    693.47901  0.030722976  0.031013831            5 
 1882000   0.96202019    -6.574485    696.04386  0.030820221  0.031006035            9 
 1883000   0.96051461   -6.5753582     694.5983  0.030739879  0.030998236            8 
 1884000   0.96523199   -6.6066984    695.29686  0.030754461  0.030990494           10 
 1885000   0.94756846   -6.6126033    694.43372  0.030699988  0.030982678            5 
 1886000   0.94066417   -6.6023987    692.81138  0.030612026  0.030974913            5 
 1887000   0.95141841    -6.589944    695.23961  0.030703039   0.03096707            7 
 1888000    0.9555855   -6.6149802    694.43489  0.030651258  0.030959244            6 
 1889000   0.93606823    -6.598598    695.73996  0.030692604  0.030951374            6 
 1890000   0.95621323   -6.6059681    694.60974  0.030626532  0.030943442            2 
 1891000   0.93693457   -6.6064394    694.25925   0.03059489   0.03093544            8 
 1892000   0.93713108    -6.639324    694.45961  0.030587544  0.030927453            5 
 1893000   0.93944257   -6.6256758    693.66399  0.030536362  0.030919446            8 
 1894000   0.94783195    -6.640663    695.82442  0.030615295  0.030911442            4 
 1895000   0.94121951   -6.5866271    695.77178  0.030596824  0.030903436            6 
 1896000    0.9465179   -6.5881669    692.34117  0.030429904  0.030895395            8 
 1897000   0.94173837   -6.5984345    696.65814  0.030603503  0.030887391            7 
 1898000   0.96017076   -6.6295295    695.45677  0.030534631  0.030879306            4 
 1899000    0.9327297   -6.6013144    694.95016  0.030496321  0.030871104            8 
 1900000   0.94642487   -6.6249915    695.98245  0.030525546  0.030862885           10 
 1901000   0.96259857   -6.6202104    694.24415  0.030433287  0.030854723            6 
 1902000   0.95417524   -6.5968073    695.64851  0.030478817  0.030846566            3 
 1903000   0.95153469   -6.6127125    695.85443  0.030471818  0.030838418            6 
 1904000   0.94402206   -6.5672203    695.68872  0.030448561  0.030830223            8 
 1905000   0.93875706   -6.6046162    694.74763   0.03039141  0.030821967            2 
 1906000   0.93425906   -6.5763395    695.52843  0.030409603  0.030813686            3 
 1907000   0.95496884   -6.6250468    696.08024   0.03041777  0.030805389            4 
 1908000   0.93962486   -6.5997288    697.29484  0.030454876  0.030797207            3 
 1909000   0.92122074   -6.6242981    695.43757  0.030357847  0.030789083            7 
 1910000   0.95848533   -6.6181933    697.64612  0.030438313  0.030780794            6 
 1911000   0.95023491   -6.5998152     698.0645  0.030440629  0.030772581            4 
 1912000   0.94256078   -6.6769193    696.78492  0.030368938  0.030764303            6 
 1913000   0.94827004     -6.61475    698.67171  0.030435255  0.030756092            4 
 1914000   0.93472232   -6.5990585    700.08973  0.030481093  0.030747908            5 
 1915000   0.94982163   -6.6161192      697.653  0.030359138  0.030739769           12 
 1916000   0.94714453   -6.5923587    698.33268  0.030372855  0.030731603            3 
 1917000   0.94028035   -6.6142832    696.24234  0.030266142  0.030723379            7 
 1918000   0.94519086   -6.6329755    699.32202  0.030384168  0.030715079            3 
 1919000   0.95023165   -6.5930544    699.16858  0.030361672  0.030706857            9 
 1920000   0.92769587   -6.6207558    698.69906   0.03032548  0.030698719            6 
 1921000   0.95105743    -6.625504    697.88938   0.03027457  0.030690491            2 
 1922000   0.93524833   -6.5937376     699.8253  0.030342755  0.030682338           15 
 1923000   0.93811909   -6.6341648    699.40033   0.03030856  0.030674279            6 
 1924000   0.95065047    -6.619186    698.39862  0.030249421  0.030666208            7 
 1925000   0.94261239    -6.626207    703.52082  0.030455447  0.030658223            4 
 1926000   0.92091596    -6.616935    701.11453   0.03033552  0.030650243            5 
 1927000   0.94789132   -6.6394777    699.41613   0.03024633  0.030642146            8 
 1928000   0.94389869   -6.6270281    701.43674  0.030317978  0.030634081            6 
 1929000   0.92709246   -6.6191181    701.36188  0.030299027  0.030626106            5 
 1930000   0.95240076   -6.6205476    702.50005  0.030332472  0.030618079            5 
 1931000   0.96172665   -6.6184334    701.72112  0.030283149  0.030610074            9 
 1932000   0.94044244   -6.6190046    704.13176  0.030371453  0.030602107            6 
 1933000     0.952863   -6.6197549    700.83795  0.030213742  0.030594163            5 
 1934000   0.95314667   -6.6342957    702.81334  0.030283236  0.030586293            6 
 1935000   0.94027957    -6.621446     700.6945  0.030176335  0.030578382            6 
 1936000   0.94222098   -6.5962104    702.20955  0.030225962  0.030570441            4 
 1937000   0.94470651   -6.6480486    701.28582  0.030170617  0.030562452            7 
 1938000   0.94036037   -6.6304135    703.00501  0.030228974  0.030554388            7 
 1939000   0.95574814   -6.6307102    702.67523   0.03019921  0.030546331           21 
 1940000   0.92197719   -6.6556009    703.58473  0.030222712  0.030538367            5 
 1941000   0.91892345   -6.6274529    703.67516  0.030211023  0.030530446            7 
 1942000    0.9571367    -6.624811    704.31131  0.030222765  0.030522441            4 
 1943000   0.93922883   -6.5887566    705.46572  0.030256721  0.030514429            4 
 1944000   0.93971901   -6.6009349    704.12082  0.030183506   0.03050648            6 
 1945000   0.93314515   -6.6359842    703.49921  0.030141354  0.030498539            5 
 1946000   0.93728738   -6.6432333    705.69412  0.030219858  0.030490534            4 
 1947000   0.93511699   -6.6202073    706.43912  0.030236223  0.030482604            4 
 1948000   0.94419972   -6.6005638    707.25768  0.030255719  0.030474769            8 
 1949000   0.93292055   -6.6480344    706.77389   0.03021951    0.0304669            3 
 1950000   0.91577603   -6.6181975    706.40254  0.030188143   0.03045906            6 
 1951000   0.94367834    -6.624708    706.75818   0.03018786  0.030451288            5 
 1952000    0.9426976    -6.609713    707.08257  0.030186243  0.030443514            7 
 1953000   0.93876631    -6.645612    707.67286  0.030195975  0.030435682            9 
 1954000   0.92239683   -6.6426843    706.58703  0.030134213  0.030427845            6 
 1955000   0.93284567   -6.6263718    706.73518  0.030125114  0.030420034            7 
 1956000   0.95923097   -6.6260419     707.4757  0.030141262   0.03041223            6 
 1957000   0.92280616   -6.6361724     709.9028  0.030229211  0.030404418            6 
 1958000   0.94759031   -6.6025682    709.42835   0.03019358  0.030396687            8 
 1959000    0.9419798   -6.6222718    709.30719  0.030173013  0.030388889            7 
 1960000   0.96882087   -6.6367151    708.64179  0.030129328   0.03038114            5 
 1961000   0.94269992   -6.6280928    707.91325  0.030083004  0.030373473            6 
 1962000   0.92753639    -6.634297    710.81859  0.030191071  0.030365735            6 
 1963000   0.91893256    -6.618104    709.99461  0.030140712   0.03035794            3 
 1964000   0.92796921   -6.5986641    710.81318  0.030160097   0.03035018            3 
 1965000   0.95070379   -6.6226262    712.91429  0.030233854  0.030342485            4 
 1966000   0.92125461   -6.6176101    711.08411    0.0301409  0.030334788            7 
 1967000   0.96065649   -6.6304226    708.93993  0.030034737  0.030327106            3 
 1968000    0.9286008   -6.6181091    711.25495  0.030117503  0.030319464            9 
 1969000    0.9315983   -6.6387663    711.63632  0.030118348   0.03031181            5 
 1970000   0.92825887   -6.6645731    710.98587  0.030075544  0.030304116            6 
 1971000   0.94559107   -6.6018669    712.07891  0.030106499  0.030296445           14 
 1972000   0.92020665   -6.6147116    710.67253    0.0300318  0.030288748            6 
 1973000   0.94915943   -6.6242039     709.7464  0.029977463  0.030280974            4 
 1974000   0.93984138   -6.6287433    712.74303   0.03008878  0.030273355            5 
 1975000   0.92687192   -6.6302075    711.93749  0.030039556  0.030265634            6 
 1976000   0.93450522   -6.6268018    711.78052  0.030017734   0.03025802           10 
 1977000   0.93411957   -6.6338598    713.28399  0.030065924  0.030250398            5 
 1978000   0.93961981   -6.6397447    712.36466  0.030011993  0.030242721            5 
 1979000   0.93741598   -6.6312322    713.36337  0.030038882  0.030235021           15 
 1980000   0.93695039   -6.6517735    712.60475  0.029991782  0.030227357            5 
 1981000   0.93288652   -6.6631112    713.00339  0.029993412   0.03021964            4 
 1982000    0.9111251   -6.6357363    712.48011  0.029956278  0.030211914            7 
 1983000   0.94684136    -6.638845    713.28931  0.029975177  0.030204192            8 
 1984000   0.93713186   -6.5892025    714.38241  0.030005982  0.030196509            6 
 1985000   0.94810336   -6.6417302    713.98452  0.029974161  0.030188847            6 
 1986000   0.92850062   -6.6385717     714.5357  0.029982196  0.030181164            5 
 1987000   0.94829881   -6.6462173    715.10838  0.029991125  0.030173504            5 
 1988000   0.92934361   -6.6554763     714.1568   0.02993615  0.030165825            5 
 1989000   0.93011189   -6.6278238    715.19234  0.029964486  0.030158181            6 
 1990000   0.92457071   -6.6475151      714.049   0.02990155  0.030150582            6 
 1991000    0.9338019   -6.6455047    715.44585  0.029944996  0.030143051            6 
 1992000   0.92761505   -6.6303483    716.70597  0.029982679  0.030135461            4 
 1993000   0.92882545   -6.6282245     718.2209  0.030030979  0.030127931            6 
 1994000   0.94591063   -6.6092845    719.21707  0.030057551  0.030120446            3 
 1995000   0.95138367   -6.6134657    719.35578  0.030048278  0.030112876            9 
 1996000   0.91311486   -6.6499782     715.7691   0.02988348  0.030105282            5 
 1997000   0.92690254   -6.6480114    717.16465  0.029926751  0.030097745            8 
 1998000   0.93416147   -6.6590708    716.46161  0.029882449    0.0300902            7 
 1999000   0.93134493   -6.6579756    717.11385  0.029894691  0.030082536            3 
 2000000   0.91647768   -6.6784862    715.87095  0.029827956  0.030074899            5 
 2001000   0.92351363    -6.639745    717.73526   0.02989069   0.03006733            8 
 2002000    0.9258929   -6.6462879    715.49254  0.029782407  0.030059788            2 
 2003000   0.93640763   -6.6527972    717.32446  0.029843754  0.030052159            6 
 2004000   0.93394248   -6.6210921    719.42881  0.029916368  0.030044542            6 
 2005000   0.91942685   -6.6534401    718.64303  0.029868788   0.03003695            5 
 2006000   0.93411452   -6.6383685    718.99755  0.029868625  0.030029376            6 
 2007000   0.94040564   -6.6499246    718.97096  0.029852639  0.030021805            7 
 2008000     0.962291    -6.647394    721.02722  0.029923108  0.030014256            9 
 2009000   0.92037898   -6.6099441    720.97507  0.029906051  0.030006763           10 
 2010000   0.91542616    -6.609047    722.29545  0.029945914  0.029999307           13 
 2011000   0.94647829   -6.6348507    720.96996  0.029876096  0.029991826            7 
 2012000   0.92191765    -6.635982    721.79849  0.029895564  0.029984378           16 
 2013000   0.92915135   -6.6459434    720.32584  0.029819748  0.029976939            5 
 2014000   0.94137538   -6.6542013    720.13158  0.029796904  0.029969366            3 
 2015000   0.92509811   -6.6265119    721.76865   0.02984982   0.02996192            8 
 2016000   0.92278673    -6.637496    720.36819  0.029777124   0.02995453            4 
 2017000   0.93122972   -6.6181487    721.79807  0.029821437  0.029947111            6 
 2018000   0.94822591   -6.6470205    720.61979  0.029758003  0.029939664            4 
 2019000    0.9230291   -6.6787931    721.53772  0.029781151  0.029932178            5 
 2020000   0.90661631   -6.6600808    719.74427   0.02969242  0.029924677           13 
 2021000   0.93241898   -6.6229638    722.40454  0.029787421  0.029917134            7 
 2022000   0.92536052    -6.652941    723.01314  0.029797772  0.029909725            8 
 2023000    0.9266624    -6.634228    722.92869  0.029779564  0.029902298            6 
 2024000   0.93992025    -6.603389    723.82351  0.029801692  0.029894924            8 
 2025000   0.93609346   -6.6001753    724.56422  0.029817457  0.029887632            6 
 2026000   0.94030811   -6.6678985    724.44061  0.029797656   0.02988026            4 
 2027000   0.92771676   -6.6594863    723.61008  0.029748811  0.029872764            9 
 2028000   0.92680061   -6.6559894    723.55377  0.029731828  0.029865275            4 
 2029000   0.91745828   -6.6421958    723.76254  0.029725749  0.029857856            6 
 2030000   0.92491164    -6.669925    723.38625  0.029695659  0.029850397            6 
 2031000   0.90540733   -6.6554242    723.43752  0.029683141  0.029842904            5 
 2032000   0.91785719   -6.6605374    725.00958  0.029733004  0.029835385            8 
 2033000   0.97565432   -6.6540921    725.34852  0.029732273   0.02982794           13 
 2034000   0.91482215   -6.6353694    724.97361  0.029702295  0.029820482           10 
 2035000   0.92402585   -6.6268271    725.76862  0.029720255   0.02981297            6 
 2036000   0.95070174   -6.6240925    725.57331  0.029697663  0.029805606            7 
 2037000   0.90836912   -6.6460248    727.01438  0.029742038  0.029798212            5 
 2038000   0.92054087    -6.666126    725.62168  0.029670497  0.029790788            9 
 2039000   0.91847277   -6.6538399    725.79136   0.02966288  0.029783419            4 
 2040000   0.93456826   -6.6341481    726.28184  0.029668376  0.029776041           12 
 2041000    0.9476647   -6.6413707    726.01501  0.029642945  0.029768705            5 
 2042000   0.93564866   -6.6500906     727.2894  0.029680436  0.029761265            5 
 2043000   0.91770567   -6.6826479    726.37699  0.029628691  0.029753763            9 
 2044000   0.92739215   -6.6878385     728.3832  0.029695988  0.029746373            4 
 2045000   0.92302802   -6.7022349    726.76685  0.029615601  0.029738988            5 
 2046000   0.93110569   -6.6362717    729.42823  0.029709524  0.029731712            9 
 2047000    0.9177136   -6.6504706    728.23579  0.029646466  0.029724395            4 
 2048000   0.93140061   -6.6667331    725.31923  0.029513315  0.029716999           10 
 2049000   0.94878566   -6.6619582    728.05287  0.029610089  0.029709568            6 
 2050000   0.91390125   -6.6211935    729.43402   0.02965179   0.02970216            5 
 2051000   0.92538898   -6.6659858    728.03367  0.029580435  0.029694722            5 
 2052000   0.94628057   -6.6612848     727.2797  0.029535401  0.029687252           10 
 2053000   0.93353863    -6.638683    728.98708  0.029590318  0.029679868            5 
 2054000   0.90534494   -6.6430401    728.85035  0.029570365  0.029672548            6 
 2055000    0.9365735   -6.6336543    729.56103  0.029584794  0.029665127            9 
 2056000   0.91987577      -6.6533    727.55065  0.029488921  0.029657688            6 
 2057000   0.91176082    -6.664046    729.15282  0.029539492   0.02965021            6 
 2058000   0.92773848   -6.6501028    729.78884  0.029550892  0.029642825            7 
 2059000   0.91319032   -6.6803075    726.87907  0.029418774  0.029635326           11 
 2060000   0.91212063   -6.6429079    727.81541  0.029442371  0.029627788            8 
 2061000   0.90854477   -6.6793727    729.53604  0.029497656  0.029620267            6 
 2062000   0.91322177    -6.654612    729.88489  0.029497449  0.029612765            7 
 2063000   0.92475226   -6.6919944    728.64043  0.029432882  0.029605221            7 
 2064000   0.91883266   -6.6693383    728.37868  0.029408054  0.029597604            4 
 2065000   0.92959947    -6.636842    729.11851  0.029423669  0.029590022            8 
 2066000    0.9326925   -6.6674435    728.88677   0.02940008  0.029582422           10 
 2067000   0.92230773   -6.6451836    730.20693   0.02943908  0.029574826            6 
 2068000   0.91573451   -6.6715776    729.08305  0.029379555  0.029567193           14 
 2069000   0.92732962   -6.6913208    730.85243  0.029436621   0.02955956            4 
 2070000   0.92650691   -6.6514735    728.24857  0.029317575  0.029551973           11 
 2071000   0.94845581   -6.6729038    729.46878  0.029352518   0.02954441           13 
 2072000   0.91859822   -6.6489279    729.90048  0.029355714  0.029536917            7 
 2073000   0.91782628   -6.6530721    731.38296  0.029401148  0.029529385            5 
 2074000   0.91190244   -6.6609679    729.20133  0.029299314  0.029521839            6 
 2075000   0.90494616   -6.6639539    730.66128  0.029343827  0.029514311            4 
 2076000    0.9209361   -6.6446238    729.89446  0.029298911  0.029506865            7 
 2077000    0.9293563   -6.6757083    731.08596   0.02933261  0.029499343            7 
 2078000   0.92062441   -6.6718472    730.72959  0.029304202   0.02949182            4 
 2079000   0.89565828    -6.620136    732.29635  0.029352908  0.029484209            6 
 2080000   0.90567704   -6.6735409    731.91897  0.029323677  0.029476626           11 
 2081000   0.92167346   -6.6607182    732.87156  0.029347732   0.02946909            7 
 2082000   0.92591429   -6.6727093    731.36142  0.029273192  0.029461575            6 
 2083000   0.93329527   -6.6570159    733.21187  0.029333168  0.029454009           12 
 2084000    0.9185182   -6.6573797     730.8196  0.029223433  0.029446499            6 
 2085000   0.90314393   -6.6685105    732.03686  0.029258068  0.029438918            3 
 2086000   0.90801578   -6.6697585    734.67719   0.02934952  0.029431349            8 
 2087000   0.91330044   -6.6652599    734.00511  0.029308621   0.02942382           14 
 2088000   0.93161221   -6.6444982    733.39702  0.029270315  0.029416239            6 
 2089000   0.91725939   -6.6483312    733.94068  0.029277991  0.029408696            4 
 2090000   0.91486187   -6.6745611     731.9869  0.029186081  0.029401087            5 
 2091000   0.92404355   -6.6657114    733.81412  0.029244943  0.029393548           15 
 2092000   0.93094901    -6.663072    733.91642  0.029235039  0.029386067            5 
 2093000   0.92082344    -6.649059    735.05165  0.029266271  0.029378499            5 
 2094000   0.93128132   -6.6678053    733.64115  0.029196162  0.029370974            7 
 2095000   0.93574986   -6.6609899    733.98623  0.029195952  0.029363444            6 
 2096000   0.91109583   -6.6762403    733.27705  0.029153827  0.029355848           10 
 2097000   0.91700639   -6.6686556    732.72235  0.029117881  0.029348265            9 
 2098000   0.93180032   -6.7038333    734.98113  0.029193721   0.02934066            4 
 2099000   0.89995939   -6.6544755    734.85681  0.029174877  0.029333156            8 
 2100000   0.91873862   -6.6851324    735.36924  0.029181319  0.029325675            6 
 2101000   0.93401189    -6.634652    737.02122  0.029232953  0.029318173            6 
 2102000   0.93709814   -6.6660399     738.3977  0.029273616  0.029310685            5 
 2103000   0.91372416   -6.6721005    734.83713  0.029118606    0.0293032            6 
 2104000   0.91149205   -6.6321907    735.24395  0.029120879  0.029295756            6 
 2105000   0.92109563   -6.6551425    735.55779  0.029119469  0.029288291            7 
 2106000   0.90517697   -6.6722111    737.41661  0.029179195  0.029280859            7 
 2107000   0.89925499   -6.6777046    737.72279  0.029177456  0.029273381            5 
 2108000   0.90660387    -6.658583    736.93791  0.029132586  0.029265922            8 
 2109000   0.90140145   -6.6920829    737.83678   0.02915429  0.029258408            5 
 2110000   0.90451952   -6.6804363    737.46808  0.029125912  0.029250955            6 
 2111000   0.88969274    -6.679774    738.42656  0.029149951  0.029243457            6 
 2112000   0.89064514   -6.6785862    739.27019  0.029169436  0.029235992            6 
 2113000    0.9253885    -6.648097    739.18154  0.029152135  0.029228599            3 
 2114000   0.88334244    -6.665533     737.1052  0.029056496  0.029221232            7 
 2115000   0.91728278   -6.6489602    740.62274  0.029181353  0.029213789            7 
 2116000   0.89831986   -6.6960906    737.72479  0.029053434  0.029206297           13 
 2117000   0.91178078   -6.6801173    739.99521  0.029129083  0.029198814            6 
 2118000   0.91051026   -6.6684124    740.12398  0.029120396  0.029191374            3 
 2119000   0.90363042   -6.6687312    736.60817  0.028968388  0.029183977            8 
 2120000   0.91221609   -6.6651494    739.54598  0.029070203    0.0291765           17 
 2121000   0.92095415   -6.6705041    740.10865  0.029078605   0.02916908            7 
 2122000   0.90163496   -6.6757826    740.83702  0.029093505   0.02916166            5 
 2123000    0.8833932   -6.6666067    739.55117  0.029029328  0.029154249            9 
 2124000   0.89912911   -6.6321787    740.62613  0.029057836  0.029146846            8 
 2125000   0.91993586   -6.6873139    738.60166  0.028964771  0.029139452            5 
 2126000   0.92533159   -6.6778979     740.4935  0.029025302  0.029132007           11 
 2127000   0.91193418   -6.6836662    740.92361  0.029028507  0.029124574            6 
 2128000   0.91517087   -6.6601805    741.62994  0.029042526  0.029117194            8 
 2129000   0.89827647   -6.7021175    741.28427  0.029015354  0.029109797            6 
 2130000    0.8951025   -6.6603437    740.62321  0.028975869  0.029102436           10 
 2131000   0.91656359   -6.6662711    741.74123  0.029005992   0.02909505           13 
 2132000   0.90196566    -6.690575    741.48543  0.028982389   0.02908766            4 
 2133000   0.92836789   -6.6621537     742.9546  0.029026199  0.029080307            3 
 2134000   0.92089947   -6.6852729    742.20084  0.028983163   0.02907292            6 
 2135000   0.92256405   -6.6610716    742.12117  0.028966478   0.02906551            6 
 2136000    0.9063202   -6.6696227    742.48779   0.02896722  0.029058128           10 
 2137000   0.92278918   -6.6707529    744.44324  0.029029919  0.029050759            8 
 2138000   0.91998643   -6.6749471    742.72188  0.028949247  0.029043435            5 
 2139000   0.88534196   -6.7042717    743.91647  0.028982253  0.029036094            8 
 2140000   0.93660136   -6.6745182    743.55795  0.028954749  0.029028741            6 
 2141000   0.90146204   -6.6877599    746.00933  0.029036639  0.029021471            7 
 2142000    0.9109209   -6.6714839    744.43214  0.028961723  0.029014229            5 
 2143000   0.89840057   -6.6700871    743.01923  0.028893266  0.029006979            5 
 2144000   0.90582228   -6.7119886    745.04025  0.028958343  0.028999693            8 
 2145000   0.90241908   -6.6753873    744.26525  0.028914734  0.028992302            8 
 2146000   0.91342168   -6.6783784    744.54282  0.028912039  0.028985028           11 
 2147000   0.92512073   -6.6821508    745.90135  0.028951302   0.02897776            3 
 2148000   0.91277538   -6.6759828    744.99372  0.028902612  0.028970491           10 
 2149000   0.90845928   -6.6793566    745.62187  0.028913521  0.028963164            8 
 2150000   0.90630844   -6.6956587    744.46637  0.028855286  0.028955856            8 
 2151000    0.9152465   -6.6884903    745.00727  0.028862826  0.028948581           10 
 2152000    0.9031706   -6.6505736    746.49702  0.028907103  0.028941297            6 
 2153000   0.89150403   -6.6692318    746.44731  0.028891752  0.028934026            4 
 2154000   0.90362241   -6.6426646    748.34705  0.028951836  0.028926817           11 
 2155000   0.89651726   -6.6858807    746.88321  0.028881795  0.028919567            7 
 2156000   0.90475188   -6.7187686    744.51202  0.028776748  0.028912319            5 
 2157000   0.88423765   -6.6789324    746.91779  0.028856351  0.028905069            3 
 2158000    0.9216524   -6.7117865    746.98345  0.028845515  0.028897808            3 
 2159000   0.90119212   -6.7047873    748.84783  0.028904116  0.028890502            9 
 2160000   0.91415428   -6.6960138    747.70569   0.02884667  0.028883296           10 
 2161000   0.88863761   -6.6659455    746.19714  0.028775148  0.028876074            5 
 2162000   0.89627444   -6.6991029    746.71265  0.028781709  0.028868892            5 
 2163000   0.89313733   -6.6789577    751.56185  0.028955226  0.028861662           18 
 2164000   0.90654099   -6.6851979    747.75056  0.028795077  0.028854445           11 
 2165000   0.88705152   -6.6969685    748.20332  0.028799204  0.028847227            8 
 2166000   0.91843335   -6.6668957    749.61872  0.028840363  0.028840121            5 
 2167000   0.89816973   -6.6844152    748.68343  0.028791087  0.028832919           16 
 2168000   0.89570718   -6.6335208    750.47831  0.028846799  0.028825775            3 
 2169000   0.87715884   -6.6869408    750.71722  0.028842678  0.028818565            7 
 2170000   0.88141954   -6.6950931    750.60905  0.028825232  0.028811378            7 
 2171000   0.91298815   -6.6747408    750.68454  0.028814853  0.028804228           12 
 2172000   0.92009486   -6.6881923    750.20992  0.028783376  0.028797099            5 
 2173000   0.89241464   -6.6653523    752.32367  0.028851191  0.028789935            3 
 2174000   0.89768767   -6.6800153    750.56459  0.028770492  0.028782816            6 
 2175000   0.93012284   -6.6687806    750.30708  0.028747398  0.028775655            7 
 2176000   0.89506688   -6.6697336    750.24013  0.028731623  0.028768536           12 
 2177000   0.91441669    -6.679274    751.62083  0.028771277  0.028761408           10 
 2178000   0.89741344   -6.7064438    750.11287   0.02870037  0.028754214            6 
 2179000   0.89586193   -6.7117678    749.85673  0.028677403  0.028746975           14 
 2180000   0.89630927   -6.6926762    752.52263  0.028766156  0.028739708           10 
 2181000   0.89447824   -6.6968717    751.86924  0.028728001  0.028732478            8 
 2182000   0.89944364   -6.7078566    751.17045  0.028688147  0.028725239            7 
 2183000   0.89502239   -6.6846108    752.56498   0.02872824  0.028718046           12 
 2184000   0.90670597   -6.7226602    752.22484  0.028702108  0.028710848            4 
 2185000   0.91173794   -6.6799238    751.87924  0.028675791  0.028703668            5 
 2186000   0.88858141   -6.7027772    751.96567  0.028665968  0.028696445            6 
 2187000   0.88505766   -6.6941517     752.6034  0.028677161  0.028689253            4 
 2188000   0.90626611   -6.6871003    752.60969  0.028664294  0.028682051            6 
 2189000   0.91451725   -6.7053967    751.05698  0.028592089  0.028674888            4 
 2190000    0.9228825   -6.6953708    752.32098   0.02862713  0.028667667            5 
 2191000   0.90159267   -6.6803769    752.90765  0.028636378  0.028660438           25 
 2192000   0.87841662   -6.6795585    752.77774  0.028618375  0.028653233            7 
 2193000   0.89143409   -6.6804886    754.62826  0.028675644  0.028646062            3 
 2194000   0.91987164   -6.6527044     753.1849  0.028607752  0.028638929            8 
 2195000   0.91530837   -6.6776796    752.72256  0.028577166  0.028631749           13 
 2196000     0.902023   -6.6839914     751.7311  0.028526529  0.028624526            5 
 2197000   0.90900383   -6.7056991     753.3898   0.02857646  0.028617229            3 
 2198000   0.89979105   -6.7078477    750.52568  0.028454871  0.028609973            7 
 2199000   0.90505501     -6.66285    754.74327  0.028601761  0.028602757            5 
 2200000   0.90481826   -6.6928117    754.50905  0.028579888  0.028595514            8 
 2201000   0.91384924   -6.6872252    753.94451  0.028545529  0.028588269            5 
 2202000   0.89174162    -6.695959    755.45195  0.028589614  0.028581059           10 
 2203000    0.9011703   -6.6781017    754.30946  0.028533419  0.028573848            9 
 2204000    0.9058057   -6.7065884    756.02807  0.028585453  0.028566702            3 
 2205000   0.90828212   -6.7038178    753.62512  0.028481675  0.028559488           16 
 2206000    0.8934622   -6.6927833    757.10586  0.028600252  0.028552254           10 
 2207000   0.90050139   -6.6800609    753.42222  0.028448204  0.028545055           16 
 2208000    0.8877059   -6.7208081    755.25849  0.028504623  0.028537807           11 
 2209000   0.89218746   -6.7185412     755.6853   0.02850782  0.028530571           14 
 2210000   0.88346381   -6.6937783    756.46255  0.028524229  0.028523388            8 
 2211000   0.92908666   -6.6877411    756.34482  0.028506891  0.028516223            6 
 2212000   0.88928035   -6.7147031    756.43834  0.028497526  0.028509097            8 
 2213000    0.8860678   -6.7093083    756.61832  0.028491427  0.028501975            4 
 2214000   0.87098401    -6.695513     757.0696  0.028495544  0.028494832            9 
 2215000   0.89871149    -6.730902    756.35133  0.028455656  0.028487616           16 
 2216000    0.8965877   -6.6982521    759.02507  0.028543362  0.028480513           13 
 2217000   0.90682067   -6.7233025    758.11457  0.028496262  0.028473412           13 
 2218000   0.89511301    -6.698815    758.59532  0.028501477  0.028466392            7 
 2219000   0.89457589   -6.7327346    759.12469  0.028508513  0.028459329            3 
 2220000   0.88234131    -6.705822    759.06442  0.028493409  0.028452269            7 
 2221000   0.88237109   -6.6795784    757.66628  0.028428121  0.028445253            6 
 2222000   0.91604089   -6.7260048    760.16368  0.028508989  0.028438205            5 
 2223000   0.88492681   -6.7203128    760.43799  0.028506447  0.028431145            4 
 2224000   0.90754039   -6.7123042    758.09052   0.02840567  0.028424039           12 
 2225000    0.8842303   -6.7206991    760.33931  0.028477128  0.028416966            7 
 2226000   0.90002954   -6.7173997    758.09491  0.028380313   0.02840988           10 
 2227000   0.90754594   -6.7078001    760.28626  0.028449568  0.028402799           10 
 2228000   0.92200917   -6.6733872    762.03817  0.028502325  0.028395822           11 
 2229000   0.88871535   -6.6985624    759.69877  0.028402078  0.028388854            5 
 2230000   0.87121911     -6.68913    761.75572  0.028466208  0.028381911            9 
 2231000   0.88359602   -6.7144369     762.5122  0.028481705  0.028374933           11 
 2232000   0.92035273   -6.7303113    762.71814  0.028476633  0.028367879            8 
 2233000    0.9061102   -6.6853928    759.07049  0.028327754  0.028360847            5 
 2234000   0.88204551   -6.6931739    762.45946   0.02844149  0.028353801           13 
 2235000    0.8920022   -6.6972394    763.11604  0.028453245   0.02834681            9 
 2236000   0.87383683   -6.7176221    761.37673  0.028375698  0.028339837           11 
 2237000   0.89148142   -6.7209752     761.0426  0.028350566   0.02833294            6 
 2238000   0.88977074   -6.7300531    762.72276   0.02840046  0.028325967            6 
 2239000   0.90285245   -6.7062365    762.41272  0.028376236  0.028319036            6 
 2240000    0.8918071   -6.7033681    761.43874  0.028327334    0.0283121            5 
 2241000   0.90429657   -6.6964559    764.62015  0.028432997  0.028305156            8 
 2242000   0.89485379   -6.6891448     763.9784  0.028396461  0.028298236            5 
 2243000   0.90083845    -6.690545    762.61979  0.028333325  0.028291287           12 
 2244000   0.89776469    -6.710628    765.48703  0.028427177  0.028284251            9 
 2245000   0.89756776   -6.6629819    762.58752  0.028306886  0.028277279            7 
 2246000   0.86638536   -6.7427018    763.21789  0.028317672  0.028270207            4 
 2247000   0.89348067   -6.7015159    764.94006  0.028368938  0.028263216            8 
 2248000   0.91359679   -6.7099748    766.54518  0.028415821  0.028256238            5 
 2249000   0.91190391   -6.7070156    761.60869  0.028220271  0.028249238            7 
 2250000   0.91162118   -6.7268427    762.31817  0.028234006  0.028242163            6 
 2251000   0.90953328   -6.6952616    763.82478  0.028277239   0.02823514           15 
 2252000   0.88500436   -6.7086454    763.11156  0.028238291  0.028228125            8 
 2253000   0.87609711   -6.7183039    764.62676    0.0282818  0.028221143            5 
 2254000   0.89510978   -6.6838181    764.52188  0.028265375  0.028214228           13 
 2255000   0.90663139   -6.7375181    767.03376  0.028345667  0.028207246            6 
 2256000   0.90579033   -6.7461981    763.60398  0.028206412  0.028200236            6 
 2257000   0.88154895   -6.7117661    764.54013  0.028228479  0.028193204            7 
 2258000   0.89810694   -6.7375286    764.44703  0.028212542  0.028186158           10 
 2259000   0.89001372   -6.7017878    765.02664  0.028221434  0.028179103            5 
 2260000   0.88622314   -6.7021136    766.73546  0.028271956  0.028172054            7 
 2261000   0.88700454   -6.7089989    764.70717  0.028184696  0.028165088            8 
 2262000   0.90376053   -6.7185886    766.29563  0.028230756   0.02815808            9 
 2263000   0.87444431   -6.7216045    767.57036  0.028265222  0.028151092           13 
 2264000   0.89632821    -6.688403    767.78236   0.02826054  0.028144194           11 
 2265000   0.89143126   -6.7139574    766.80993  0.028212286    0.0281373            6 
 2266000   0.89842057   -6.7150614     768.4398  0.028259775  0.028130419            5 
 2267000   0.88927341   -6.7291902    766.61517  0.028180237  0.028123469            5 
 2268000   0.89262926   -6.7556337    768.23985  0.028227508  0.028116529           14 
 2269000   0.90552634   -6.6951317    766.62273  0.028155675  0.028109578           12 
 2270000    0.8754655   -6.7464131    765.36014  0.028096921  0.028102621            6 
 2271000   0.87367748   -6.7043975    768.93716  0.028215807  0.028095652            7 
 2272000   0.88644936   -6.7048462    768.05806  0.028171143   0.02808871            3 
 2273000     0.889759   -6.7409718    770.02671  0.028230925   0.02808181            7 
 2274000   0.88693497   -6.7156462    768.49829    0.0281625  0.028074844            4 
 2275000   0.89414412   -6.6991569    768.34973  0.028144679  0.028067909            3 
 2276000   0.89875746   -6.7315753    767.83431  0.028113441  0.028060977           13 
 2277000   0.87546197   -6.7166805     766.8824  0.028066257  0.028054014            5 
 2278000   0.91363553   -6.7702108    768.58601  0.028116257  0.028047054            7 
 2279000   0.88569799   -6.7408907    768.74418  0.028109704  0.028040113            5 
 2280000   0.87559132   -6.7014602    770.00958  0.028143625  0.028033181            5 
 2281000   0.88053659   -6.7112611    769.80739    0.0281239  0.028026234            6 
 2282000   0.90287873   -6.7135082    768.07211  0.028048207  0.028019304            5 
 2283000   0.88233793   -6.6992434    770.77371  0.028134535   0.02801237           11 
 2284000   0.87833245   -6.7491116      768.267  0.028030758  0.028005406           22 
 2285000   0.89632698   -6.7444336    770.44678  0.028097986   0.02799843            8 
 2286000   0.88633149   -6.6999684    771.27109  0.028115744  0.027991435           14 
 2287000   0.88760908   -6.7437924    769.46806  0.028037752  0.027984506            6 
 2288000   0.89905334   -6.7271511    769.33679  0.028020716  0.027977568           11 
 2289000   0.89481408   -6.7479039    769.92303  0.028029818  0.027970631           10 
 2290000   0.86611437   -6.7608167    769.84553  0.028014757  0.027963625           11 
 2291000   0.86573998   -6.7224908    768.06416  0.027937733  0.027956607           18 
 2292000   0.89785606   -6.7090944    770.87703  0.028027815  0.027949686           13 
 2293000   0.88694251   -6.7259808    769.92956  0.027981159  0.027942822            7 
 2294000    0.8860237   -6.7154352    771.87232  0.028039535  0.027935993            6 
 2295000   0.87997728   -6.7266578    773.45304  0.028084715  0.027929077            6 
 2296000   0.87804171   -6.7228725    772.32837  0.028031663  0.027922242            8 
 2297000   0.89384216   -6.7847029    770.53741  0.027954484  0.027915296            8 
 2298000   0.88050324   -6.7401505    771.90343  0.027991856  0.027908364            7 
 2299000   0.89079464   -6.7453768    771.98184  0.027982523  0.027901517            4 
 2300000   0.88094781   -6.7473617    773.54822   0.02802711  0.027894577            7 
 2301000   0.89081511   -6.7299167    774.02317   0.02803213  0.027887672            9 
 2302000   0.86696655    -6.759259    772.82761  0.027976673  0.027880783           13 
 2303000   0.87439141   -6.7424376    772.29256  0.027945164  0.027873823            6 
 2304000   0.88429031    -6.728425    771.69263  0.027911336  0.027866885            7 
 2305000    0.8915518   -6.7356316     775.1104  0.028022791  0.027859935            6 
 2306000   0.85630118   -6.7059823    774.95799  0.028005131  0.027853109           13 
 2307000   0.89086291   -6.7450054      773.603  0.027944047  0.027846191           12 
 2308000   0.88510349   -6.7304082    775.02778  0.027983383  0.027839282            6 
 2309000   0.88818842   -6.6947624    775.05088  0.027972098  0.027832379            8 
 2310000   0.88293561   -6.7611849    772.96431  0.027884715  0.027825481            6 
 2311000   0.87834358   -6.7236176    773.27467  0.027883841   0.02781857            5 
 2312000   0.85619145   -6.7586014      773.616  0.027884083  0.027811613           10 
 2313000   0.86064243    -6.711814    773.07839  0.027852658  0.027804711           11 
 2314000   0.88428551     -6.71902    774.82475  0.027903513  0.027797893            4 
 2315000   0.88921027   -6.7384839    777.36544  0.027982917  0.027791044            5 
 2316000    0.8582484   -6.7292748    775.28266  0.027895893    0.0277842            7 
 2317000   0.88261154    -6.756054    774.66895  0.027861781  0.027777248            6 
 2318000   0.89249089   -6.7560443    773.89974  0.027822108  0.027770299            7 
 2319000   0.89016754   -6.7602094    776.20605  0.027892987  0.027763424           10 
 2320000   0.88521628   -6.7452572    774.51141  0.027820094  0.027756554           11 
 2321000   0.87262983   -6.7244943    775.39883  0.027839969  0.027749601            8 
 2322000   0.87490881    -6.720815    773.65084  0.027765247  0.027742649           16 
 2323000   0.86333378     -6.73996    774.10639  0.027769637  0.027735647            5 
 2324000   0.87234005   -6.7410566    775.23411  0.027798125  0.027728671            4 
 2325000   0.88042882   -6.7204828    776.19711  0.027820685  0.027721757            6 
 2326000    0.8716225   -6.7539259     778.2014  0.027880532  0.027714862            5 
 2327000   0.90194635   -6.7413433    776.92637   0.02782289  0.027707987            6 
 2328000   0.86136389   -6.7323394    776.15966  0.027783493  0.027701094            6 
 2329000   0.87849079   -6.7517954    774.05294  0.027696184  0.027694151            8 
 2330000   0.84980415   -6.7766934    775.16086  0.027723922  0.027687161            4 
 2331000   0.87606733   -6.7270538    777.11204  0.027781783  0.027680198           12 
 2332000    0.8613341     -6.73077    777.10468  0.027769607  0.027673284           10 
 2333000   0.88726256   -6.7298264    777.02119  0.027754722  0.027666332            7 
 2334000   0.88635705   -6.7539184    773.50601  0.027617324  0.027659292            9 
 2335000   0.87250593   -6.7458311    776.96842  0.027729066  0.027652273            6 
 2336000   0.87711374   -6.7307183    776.45362  0.027698831  0.027645328           11 
 2337000   0.87667633   -6.7493357    775.84887  0.027665414   0.02763833           16 
 2338000   0.87555124   -6.7591108    776.18357  0.027665511  0.027631254           13 
 2339000   0.87151612   -6.7407463    776.21323   0.02765474  0.027624183            9 
 2340000   0.90072505   -6.7624589    775.99926  0.027635301   0.02761716            5 
 2341000   0.90501767   -6.7329603    778.17463  0.027700934  0.027610175            8 
 2342000   0.88456324   -6.7538229    778.45857  0.027699209  0.027603229            8 
 2343000    0.8563211   -6.7347413    777.64165  0.027658331  0.027596271            7 
 2344000   0.87805637   -6.7135537    779.02301  0.027695642  0.027589331            6 
 2345000   0.88027206   -6.7607983    778.17544  0.027653712  0.027582358            5 
 2346000   0.86566465   -6.7576106     776.5245   0.02758328  0.027575299           11 
 2347000    0.8599331   -6.7368686    779.17613  0.027665677  0.027568217           10 
 2348000   0.89283633   -6.7266685    778.28689  0.027622334  0.027561202           13 
 2349000   0.87509692    -6.765195    778.65669  0.027623694  0.027554121            7 
 2350000   0.86340256   -6.7361902    780.00728  0.027659833  0.027547078            7 
 2351000   0.87839031   -6.7568574    779.45615  0.027628532  0.027540041            4 
 2352000   0.88546364   -6.7578967    777.68525  0.027554041  0.027533004           12 
 2353000   0.89627949   -6.7634909     779.0815   0.02759178  0.027525985            7 
 2354000   0.87314818   -6.7515572     781.6684  0.027671637  0.027519048            9 
 2355000   0.88782078   -6.7512972    782.01022  0.027671982  0.027512172            9 
 2356000   0.88627823   -6.7404834    779.47646  0.027570616  0.027505218            6 
 2357000   0.86264974   -6.7428393    778.17857  0.027513031  0.027498321           17 
 2358000   0.88159081   -6.7463807    779.39157  0.027544231  0.027491374            6 
 2359000    0.8598678   -6.7730308    780.62067  0.027575974  0.027484396           18 
 2360000   0.89072578   -6.7142605    779.22112   0.02751487  0.027477458            6 
 2361000   0.86750206   -6.7445125    780.06012  0.027532829  0.027470587           10 
 2362000     0.892351   -6.7266853    784.18935  0.027666855  0.027463703            7 
 2363000   0.86054788   -6.7355885    781.92983  0.027575463  0.027456785            7 
 2364000   0.86901253    -6.737027    780.78653  0.027523496  0.027449862            6 
 2365000   0.87198188   -6.7436346    781.34919  0.027531684  0.027443021            8 
 2366000    0.8748793   -6.7490842    780.07768  0.027475264  0.027436081            6 
 2367000   0.87069798   -6.7480803    779.69424  0.027450156  0.027429188            7 
 2368000   0.87043413   -6.7868064    781.94693   0.02751784  0.027422301            7 
 2369000   0.87671954   -6.7328004    780.86269  0.027468084  0.027415354            4 
 2370000   0.87294258   -6.7200793    782.45911  0.027512627  0.027408489           13 
 2371000   0.87259917   -6.7765604      781.405  0.027463975  0.027401558            9 
 2372000   0.87145431   -6.7775837    782.85604  0.027503374  0.027394628            6 
 2373000   0.87689996    -6.742999    781.68786  0.027450761  0.027387748            7 
 2374000   0.85550549   -6.7678848    783.77218  0.027512362  0.027380916           10 
 2375000    0.8553915   -6.7815842    783.10918  0.027477515  0.027374061            7 
 2376000   0.87311625   -6.7417405    784.54242  0.027516219  0.027367186           11 
 2377000   0.87603634   -6.7627979    782.92729  0.027448019  0.027360301            7 
 2378000   0.84503525    -6.781679    783.47179  0.027455557  0.027353342           13 
 2379000   0.87331095   -6.7729101    783.07339  0.027430061  0.027346454            8 
 2380000   0.86762343   -6.7477327    783.85164  0.027445786  0.027339626            4 
 2381000   0.86877162   -6.7523982    783.33519  0.027416183  0.027332782            8 
 2382000   0.87660949   -6.7641139    784.16857  0.027433829  0.027325897            4 
 2383000   0.87455492   -6.7541476    786.51338  0.027504314  0.027319039            6 
 2384000   0.86762563   -6.7401995     784.7562  0.027431355  0.027312176            6 
 2385000   0.85928509   -6.7594232    785.25911  0.027437425  0.027305397            5 
 2386000   0.87378004    -6.754155     785.9608  0.027450433  0.027298577            9 
 2387000   0.86534261    -6.741944    785.21182  0.027412785  0.027291772           12 
 2388000   0.86837506    -6.783365    783.31007  0.027334941  0.027284964            7 
 2389000   0.86870598    -6.770053    785.64902  0.027405087  0.027278065           18 
 2390000   0.86416883   -6.7687065    785.58875  0.027391518  0.027271158            6 
 2391000    0.8618417   -6.7313901    785.51465   0.02737748   0.02726429            9 
 2392000    0.8580286   -6.7532224    785.76853  0.027374879  0.027257404            6 
 2393000   0.87142744   -6.7907031    785.60811  0.027357853  0.027250532            7 
 2394000   0.88571366   -6.7400023    787.95703   0.02742819  0.027243691            5 
 2395000    0.8754951   -6.7610417    786.11667  0.027352702  0.027236816            9 
 2396000   0.85366497   -6.7388953    785.40755  0.027316623  0.027229983            7 
 2397000   0.87389374   -6.7809143    785.29337  0.027301258  0.027223085           11 
 2398000   0.86075868   -6.7267836     785.8322  0.027308597  0.027216194           11 
 2399000   0.84588555   -6.7953441    785.34162  0.027280173  0.027209258            7 
 2400000   0.87900038   -6.7850179    786.17726  0.027297821  0.027202297           11 
 2401000   0.87185742    -6.789768    783.17225  0.027182155  0.027195315           10 
 2402000   0.87431009    -6.784012    783.86888  0.027195007  0.027188309            8 
 2403000   0.86790107   -6.7780879    785.43725  0.027238079   0.02718134            7 
 2404000   0.84930465   -6.7360492    787.63231  0.027302839  0.027174369            6 
 2405000    0.8752491   -6.7528302    788.08087   0.02730703  0.027167448           18 
 2406000   0.86295861   -6.7381574    785.19912  0.027195869  0.027160566            6 
 2407000   0.85938336    -6.755843    788.25919  0.027290513  0.027153588            5 
 2408000   0.86571044   -6.7562865    785.75342  0.027192463  0.027146631           12 
 2409000   0.85829318   -6.7163242    786.97654  0.027223486    0.0271397            3 
 2410000   0.87714877   -6.7877001    787.59327  0.027233516  0.027132757           12 
 2411000   0.86977008   -6.7536611    786.09205  0.027170332  0.027125837            8 
 2412000   0.86243936   -6.7516475    788.27317  0.027234424  0.027118886            8 
 2413000   0.84814103   -6.7822195    788.30486  0.027224232  0.027111994           10 
 2414000   0.85313452   -6.7488561    787.87998  0.027198287   0.02710508            8 
 2415000   0.86374489   -6.7658023    787.13651   0.02716137  0.027098194            7 
 2416000   0.86699722   -6.7856583    789.09776  0.027217776  0.027091315            9 
 2417000   0.85644279   -6.7824113    786.68538  0.027123341  0.027084437            7 
 2418000   0.84972533   -6.7871488    788.81688  0.027185583  0.027077562            7 
 2419000   0.86585765    -6.729448    789.25463  0.027189425  0.027070779            9 
 2420000   0.86607533   -6.7622278    788.99091  0.027169108   0.02706393            9 
 2421000   0.87201274   -6.7896219    789.36101  0.027170625  0.027057071            5 
 2422000   0.87199159   -6.7578969    789.82433  0.027175348  0.027050231            7 
 2423000   0.86609745   -6.7717284    790.84739  0.027199319  0.027043434            6 
 2424000   0.87186996   -6.7855469    788.91563  0.027121687  0.027036558           12 
 2425000   0.87356509   -6.7856208    788.46922  0.027095162  0.027029714            7 
 2426000   0.86207892   -6.7655304    790.88364  0.027166929  0.027022878            9 
 2427000   0.86502232   -6.7379513    790.77099  0.027151868  0.027016078            7 
 2428000   0.86049603   -6.7896433    790.71972  0.027138925  0.027009258            7 
 2429000     0.853091   -6.7696962    789.43871  0.027083804  0.027002445            5 
 2430000   0.85727464   -6.7654834    791.43179  0.027141008  0.026995673            6 
 2431000   0.86855307   -6.8072125    789.36655  0.027059048   0.02698891            5 
 2432000    0.8948182   -6.7592777     790.3082  0.027080188  0.026982084            7 
 2433000    0.8776634    -6.777844    790.25559  0.027067256  0.026975348           16 
 2434000   0.86759547   -6.7725663    792.75102  0.027141571  0.026968611            8 
 2435000   0.84827564   -6.7768099    793.48048   0.02715539  0.026961839           11 
 2436000   0.85674415   -6.7930735    792.03467  0.027094782  0.026955049            8 
 2437000      0.85802   -6.7969271      790.761  0.027040111  0.026948198           10 
 2438000   0.87462891   -6.7841721    792.13466  0.027075973  0.026941402            4 
 2439000   0.85049981   -6.7644591    792.92495  0.027091873  0.026934659            4 
 2440000    0.8505267   -6.7893773    793.08951   0.02708639  0.026927871            5 
 2441000   0.87455029    -6.764128    792.07689  0.027040724  0.026921108            9 
 2442000   0.87636949    -6.773694    792.99914  0.027061123  0.026914318           10 
 2443000   0.85920519   -6.7592799     794.8618  0.027113583  0.026907561           19 
 2444000   0.87088638   -6.7693423    792.70203  0.027028847  0.026900795            7 
 2445000   0.85333919   -6.7856371    790.77132  0.026951988  0.026894011            8 
 2446000   0.87928829    -6.790747    793.12638  0.027021204  0.026887182            8 
 2447000   0.86410622   -6.7690668    793.98588  0.027039432  0.026880388            8 
 2448000   0.87051583   -6.7362908    792.09414  0.026963989   0.02687364            7 
 2449000   0.86055352   -6.7457106    795.51683  0.027069444  0.026866878           10 
 2450000   0.86255351   -6.7545121    794.82118  0.027034734  0.026860158            9 
 2451000   0.87646743   -6.7742305    794.53028  0.027013813  0.026853406            7 
 2452000   0.85447074    -6.788894     793.3239  0.026961796  0.026846677            5 
 2453000   0.86745502   -6.7769986    791.65937  0.026894258  0.026839845            5 
 2454000   0.83981812   -6.7981093    793.66366  0.026951361  0.026832984            5 
 2455000   0.84496109   -6.7943832    794.41252  0.026965802  0.026826141            8 
 2456000   0.86178485   -6.7942767    792.69283  0.026896472  0.026819263            9 
 2457000   0.86471363    -6.795472    795.54161  0.026982147  0.026812377            6 
 2458000    0.8522654   -6.7518447    793.78625  0.026911658  0.026805527           24 
 2459000   0.86984847   -6.7910567    794.51234   0.02692532  0.026798741           27 
 2460000    0.8406309   -6.7587185    794.31179  0.026907581  0.026791909           40 
 2461000   0.84297055   -6.7874907      793.154  0.026857443  0.026785102           26 
 2462000   0.86693625   -6.7833243    796.61112   0.02696355  0.026778287           16 
 2463000   0.85602458    -6.801997    794.76713  0.026890213  0.026771416           13 
 2464000   0.84460182   -6.7699993    793.43869  0.026834371   0.02676457           10 
 2465000   0.85963038    -6.788882    795.62023  0.026897236  0.026757734            8 
 2466000   0.84674445   -6.7543264    795.34607  0.026877064  0.026750898           11 
 2467000   0.84905438   -6.7611783     793.3966  0.026800318  0.026744082           10 
 2468000   0.85133682   -6.7959948    795.67442   0.02686637  0.026737235           12 
 2469000   0.84508076   -6.7951014    795.20547  0.026839661  0.026730383            4 
 2470000   0.84707535   -6.7971428    796.17202  0.026861404   0.02672356           16 
 2471000   0.82561922   -6.7752227    797.21012  0.026885543  0.026716699           12 
 2472000   0.86765128   -6.7932459    794.81173  0.026793815   0.02670988           10 
 2473000    0.8432743    -6.806441    794.34233  0.026767163   0.02670299            5 
 2474000   0.84246752   -6.7872871     797.4557  0.026861213   0.02669619            4 
 2475000   0.86325901   -6.7890685    793.45884  0.026715786  0.026689332            7 
 2476000   0.86382449    -6.784996    794.35997  0.026735325  0.026682516            4 
 2477000   0.86300044   -6.8020933    796.34654  0.026791365  0.026675671            4 
 2478000   0.86496452   -6.7584184    797.35388  0.026814429  0.026668796           11 
 2479000   0.86319499    -6.801908    796.43899  0.026772858   0.02666194            9 
 2480000   0.85411611   -6.8111445    795.50241  0.026730592  0.026655079            8 
 2481000   0.85374289   -6.8076669     793.8269   0.02666354   0.02664819           28 
 2482000   0.85247711   -6.8077713    797.71612  0.026783377  0.026641247            7 
 2483000   0.82883137   -6.7958636    796.44191  0.026729826  0.026634305           11 
 2484000    0.8423139   -6.7679778     796.6251  0.026725211  0.026627447            7 
 2485000   0.83324386   -6.8054019    798.53184  0.026778398  0.026620594           17 
 2486000     0.835726   -6.7758112    797.16122  0.026721682  0.026613727           11 
 2487000     0.839734   -6.7843051      795.393  0.026651689  0.026606887           10 
 2488000   0.86063429   -6.7707831    797.61214  0.026715305  0.026600076           12 
 2489000     0.837215   -6.7850365    798.79599  0.026744207  0.026593263            6 
 2490000   0.85151638   -6.8189571    796.46418  0.026655428  0.026586403            7 
 2491000   0.86039922   -6.7976187    797.16441  0.026668152  0.026579518            9 
 2492000   0.85901703   -6.7894758    797.44556  0.026666853  0.026572639            7 
 2493000   0.84237232   -6.8036811    797.54046  0.026659328  0.026565767            6 
 2494000   0.84784383   -6.7876591    798.96014  0.026696075  0.026558925            5 
 2495000   0.84530236   -6.7797343    797.49407  0.026636408  0.026552052            3 
 2496000   0.84878577   -6.7894582     799.1194  0.026680001  0.026545179            4 
 2497000   0.86220789   -6.7690778    798.15885   0.02663726  0.026538276            9 
 2498000    0.8398292    -6.778751     798.8877  0.026650911  0.026531328           25 
 2499000   0.85795338   -6.7830092    798.22211  0.026618051  0.026524375            5 
 2500000   0.85717877   -6.7773035    800.65772  0.026688591  0.026517502           11 
 2501000   0.85154964   -6.7798046    798.75871  0.026614644   0.02651067            6 
 2502000   0.84357411   -6.7601623    799.06982  0.026614369  0.026503819            7 
 2503000   0.87052452   -6.8012509    799.59784  0.026621316   0.02649698            4 
 2504000   0.85894311   -6.7851387    796.11798  0.026494874  0.026490055           10 
 2505000   0.84747626   -6.8320941    798.62061  0.026567552  0.026483112           10 
 2506000   0.86146724   -6.7867874    795.90231  0.026466557  0.026476179           21 
 2507000   0.85472542   -6.8066784    800.25248  0.026600601  0.026469275            9 
 2508000   0.84983729   -6.7666528    800.31117  0.026591945  0.026462408            4 
 2509000   0.84589232   -6.7613677    800.70873  0.026594551  0.026455566            7 
 2510000    0.8516022   -6.7832574    803.11935  0.026663989  0.026448723            5 
 2511000   0.87009497   -6.8250755    799.57712  0.026535813  0.026441853            5 
 2512000   0.85193678   -6.8039999    799.45293   0.02652113  0.026434925            3 
 2513000     0.838685   -6.7846314    801.55823   0.02658039  0.026428037           13 
 2514000   0.84030165    -6.791272    801.07842  0.026553912  0.026421142           16 
 2515000    0.8397766   -6.8001654    801.42017  0.026554677  0.026414209           17 
 2516000   0.86053939   -6.7900817    801.80096  0.026556735  0.026407348            7 
 2517000   0.83252719   -6.8134483    800.02339  0.026487332  0.026400538            6 
 2518000   0.85988116   -6.7773028    802.74538  0.026566898  0.026393701           11 
 2519000   0.83243553   -6.8066484    798.89849  0.026429089  0.026386864            9 
 2520000   0.84509489    -6.792131    799.61771  0.026442385  0.026379967            8 
 2521000   0.85763026   -6.8080417    800.47578   0.02646026  0.026373083           10 
 2522000   0.84021356   -6.7945221    801.26564  0.026475867  0.026366238            9 
 2523000   0.85085901   -6.7949879    803.25487  0.026531076  0.026359423           12 
 2524000   0.83760257   -6.8011472    802.19348  0.026485522  0.026352644            5 
 2525000   0.83320241   -6.7911661    802.64598  0.026489966   0.02634583            6 
 2526000   0.86914502   -6.7783098    802.12152  0.026462177  0.026339004           31 
 2527000   0.85186296   -6.8057207    801.84877  0.026442711  0.026332178            8 
 2528000   0.83695988   -6.8036419    802.75173  0.026462017  0.026325341            7 
 2529000   0.87542265    -6.810644    802.88487   0.02645594  0.026318534            8 
 2530000   0.83660363   -6.7892855    803.91619  0.026479453  0.026311731            6 
 2531000   0.84858211   -6.7934095    802.87655  0.026434761  0.026304928            8 
 2532000   0.85165894    -6.800456    805.03776   0.02649545  0.026298153           16 
 2533000   0.84608889   -6.8210649    802.97106  0.026416998  0.026291358           13 
 2534000   0.83729437   -6.8194424     804.1016  0.026443752   0.02628451           15 
 2535000   0.85325627   -6.7959881    802.74999  0.026388889  0.026277679           14 
 2536000   0.84499094   -6.8008787    801.38442   0.02633361  0.026270821           17 
 2537000   0.83701628    -6.793111    802.88614  0.026372558  0.026263999           12 
 2538000   0.85205186   -6.8115258    801.82216  0.026327232  0.026257151            9 
 2539000   0.88136503   -6.7841853    803.54892  0.026373537  0.026250306            7 
 2540000   0.84655292   -6.7851165    802.88166  0.026341262  0.026243412           16 
 2541000    0.8332237   -6.8075392    801.54737  0.026287137  0.026236497            8 
 2542000   0.85310521   -6.8298627    801.18315  0.026264855  0.026229489           22 
 2543000   0.82849833   -6.8054058    803.83619  0.026341466  0.026222539           13 
 2544000   0.85995574   -6.8031466     804.7615  0.026361422  0.026215648           12 
 2545000   0.85769116   -6.8157199    801.97264  0.026259746  0.026208711            8 
 2546000   0.84145258   -6.7902589    802.56856  0.026268937  0.026201791            8 
 2547000   0.84045311   -6.7980366    801.88917  0.026236395  0.026194847            6 
 2548000   0.85713138   -6.8300917    801.37229  0.026209193   0.02618792            5 
 2549000   0.85419822   -6.8119782    803.27915  0.026261251  0.026180949           16 
 2550000   0.85200606    -6.784253    804.58159  0.026293516  0.026174043            7 
 2551000   0.84869879   -6.8120431    803.52698  0.026248758  0.026167164           25 
 2552000   0.85174737   -6.8264365    802.64187   0.02620957  0.026160262           14 
 2553000   0.85141759   -6.7863895    803.31371  0.026221234  0.026153345            7 
 2554000   0.86484138    -6.815556    806.78243  0.026324146  0.026146518            9 
 2555000   0.83552632   -6.8075484    805.17428  0.026261392  0.026139677           11 
 2556000    0.8383326   -6.8082699    804.25197  0.026221048  0.026132892            8 
 2557000   0.84459467   -6.7785275    805.36728  0.026247141  0.026126075            7 
 2558000   0.85115924   -6.7762991      808.034  0.026323756  0.026119291           11 
 2559000   0.83831211   -6.8140021    804.62259  0.026202377  0.026112484            7 
 2560000    0.8376162   -6.7874447    804.49072  0.026187849  0.026105649            6 
 2561000   0.84393545   -6.7767228    805.65993  0.026215669  0.026098869            8 
 2562000   0.83871305   -6.7854227    807.88431  0.026277788   0.02609211            8 
 2563000   0.83935997   -6.8239194    807.47017   0.02625407  0.026085317            7 
 2564000   0.83290995   -6.7843149    806.54986  0.026213919  0.026078484           11 
 2565000   0.84100045   -6.8091506    806.48681  0.026201651  0.026071663            3 
 2566000   0.84503671   -6.8078144    807.52593  0.026225186  0.026064896           13 
 2567000   0.85448838    -6.814416    808.23257   0.02623791  0.026058113            6 
 2568000   0.84180183   -6.8103085    807.97501  0.026219335  0.026051334            8 
 2569000   0.84567116   -6.8195401    805.69678  0.026135227  0.026044519           10 
 2570000   0.83601147   -6.8080477    805.46477  0.026117535    0.0260377           14 
 2571000   0.84042682   -6.7872672    808.88986  0.026218393  0.026030862            7 
 2572000   0.85216136   -6.7988681    807.32485  0.026157492  0.026024106           20 
 2573000   0.83923298   -6.8374618    806.77597   0.02612955  0.026017317           13 
 2574000    0.8474793   -6.8238287    808.42966  0.026172936  0.026010478            9 
 2575000   0.86561894   -6.8024205    807.64486  0.026137374  0.026003667           12 
 2576000   0.84413768   -6.8464975    807.59592  0.026125645  0.025996792            9 
 2577000   0.84018806   -6.8197551    806.04587  0.026065382  0.025989968            5 
 2578000   0.83003874   -6.8434406    804.49821  0.026005243  0.025983119           11 
 2579000   0.84739095   -6.8127261    806.52678  0.026060708  0.025976243           16 
 2580000   0.82063827   -6.8161421    806.98147  0.026065293  0.025969388           11 
 2581000    0.8435352   -6.8384373    806.69731  0.026046019  0.025962521           17 
 2582000   0.81974494   -6.8112197    806.27481  0.026022296  0.025955671            8 
 2583000   0.83047599   -6.8334324    806.42771  0.026017154  0.025948822           12 
 2584000   0.84263181   -6.8109005    809.67039  0.026111661  0.025941954           10 
 2585000   0.82304269   -6.8185035    809.06882  0.026082167  0.025935147            7 
 2586000   0.84177878   -6.8064894    810.10675  0.026105528  0.025928381           14 
 2587000    0.8426267   -6.8048692    809.49476  0.026075724  0.025921624            5 
 2588000   0.83567427   -6.8101947    809.51114  0.026066175  0.025914935            9 
 2589000   0.83165198   -6.8160362    811.25386  0.026112201  0.025908213            6 
 2590000   0.83869918     -6.83153    810.36599  0.026073552  0.025901492            7 
 2591000   0.83403809    -6.849483    810.99655  0.026083769  0.025894782            6 
 2592000    0.8450491   -6.8002785    811.18029  0.026079613  0.025888082            4 
 2593000   0.83366325   -6.8440808    810.56044  0.026049635  0.025881378           15 
 2594000   0.82988845   -6.8730459    809.79889  0.026015127  0.025874625           15 
 2595000   0.83246105    -6.797345    811.03759  0.026044881  0.025867892            9 
 2596000   0.82930875   -6.8340226    809.76731  0.025994071  0.025861198           12 
 2597000   0.83364953   -6.8029184    811.36809  0.026035428  0.025854553           10 
 2598000   0.83642312   -6.8473258    810.65184  0.026002433  0.025847888            8 
 2599000   0.83772138   -6.8489399    811.99506  0.026035496  0.025841203           12 
 2600000   0.83086235   -6.8252122    811.25877  0.026001884  0.025834515           11 
 2601000   0.82586232   -6.7999219    813.83492  0.026074424  0.025827868            8 
 2602000   0.83476914   -6.8612707    814.97562  0.026100936  0.025821253           10 
 2603000   0.83767904   -6.8362785    813.25524  0.026035832   0.02581461           10 
 2604000   0.81964299   -6.8043444    810.46202  0.025936445  0.025808005            4 
 2605000   0.82527208   -6.8169062    812.45258  0.025990166  0.025801412           19 
 2606000   0.83195399   -6.8401051     811.7379  0.025957339  0.025794774           16 
 2607000   0.84542718   -6.8407745    813.92171  0.026017188   0.02578809           13 
 2608000   0.83410132   -6.8384136    812.83648  0.025972536  0.025781407           12 
 2609000   0.81588135   -6.8025096    811.03795  0.025905134  0.025774729           13 
 2610000   0.82208611   -6.8389213    811.85517  0.025921302  0.025768029           10 
 2611000   0.84867629   -6.8002615    813.66741  0.025969214  0.025761348           11 
 2612000   0.82900403   -6.8053902    814.26584  0.025978364  0.025754663           12 
 2613000   0.83374281   -6.8512471     811.5149  0.025880689  0.025747956           14 
 2614000   0.82414269   -6.8239253    813.93995  0.025948098  0.025741323            8 
 2615000    0.8283885   -6.8470083    814.98639  0.025971523    0.0257347           10 
 2616000   0.82522891   -6.8448024    813.28901  0.025907524  0.025728068           10 
 2617000   0.83471901   -6.8463558    809.41677  0.025774321  0.025721361            5 
 2618000   0.84838049   -6.8177064    812.91918  0.025875961  0.025714725            9 
 2619000   0.83063282   -6.8279711    813.74988  0.025892512  0.025708093            9 
 2620000   0.81675042   -6.8217332    815.99238  0.025953956   0.02570147            8 
 2621000   0.83513882   -6.8298168    815.13709   0.02591686  0.025694877           11 
 2622000   0.82670238    -6.819961    814.73463  0.025894185  0.025688293            9 
 2623000   0.84559273   -6.8274615    814.43352  0.025874746  0.025681726           15 
 2624000   0.84415435   -6.8446249    813.59013  0.025838101  0.025675107            8 
 2625000    0.8415134    -6.838994    814.65558  0.025862082  0.025668464            8 
 2626000   0.83542152   -6.8094675    814.96746  0.025862131  0.025661847            8 
 2627000   0.82598122   -6.8293829     815.5576  0.025871006  0.025655171            4 
 2628000   0.83897163   -6.8338897    815.37521  0.025855378   0.02564854            8 
 2629000   0.83587211   -6.8088385    814.22453   0.02580907  0.025641895           16 
 2630000   0.83032235   -6.8560954    814.84295  0.025818851   0.02563524           12 
 2631000   0.83710438   -6.8191132    815.78078  0.025838742  0.025628583            5 
 2632000    0.8417222     -6.83935    815.00033  0.025804215  0.025621963            3 
 2633000   0.83976895   -6.8253866    815.59249  0.025813156  0.025615337           13 
 2634000   0.83405749   -6.8343108    816.41808  0.025829476  0.025608742           10 
 2635000   0.82438745   -6.8402066    817.50297  0.025853984  0.025602112            8 
 2636000   0.83608444   -6.8241598    816.18087   0.02580238  0.025595479           15 
 2637000   0.84523205   -6.8192757    815.49385  0.025770884  0.025588834           17 
 2638000   0.82429861   -6.8384328     815.8349  0.025771889  0.025582198            6 
 2639000   0.82372115   -6.8537314    817.04633  0.025800377  0.025575545           10 
 2640000   0.82098573   -6.8521639    815.92109  0.025755085  0.025568957            8 
 2641000   0.83348217   -6.8320349    817.14186  0.025783853  0.025562373            9 
 2642000     0.854149   -6.8242821    817.04397  0.025771006  0.025555792            8 
 2643000    0.8435454   -6.8801719    818.03933  0.025792639  0.025549216           10 
 2644000   0.81647369   -6.8470047    817.26555  0.025758496  0.025542652            6 
 2645000   0.81688308   -6.8281118     817.8405  0.025766871  0.025536039            8 
 2646000    0.8199489   -6.8748145    817.24223  0.025738291  0.025529488           11 
 2647000   0.83221413   -6.8579434    817.01333  0.025721362  0.025522901            8 
 2648000   0.84298644   -6.8457883    819.42366  0.025787502  0.025516303           15 
 2649000   0.81963299   -6.8446092    817.88998   0.02572952  0.025509683            5 
 2650000    0.8198739      -6.8256    817.92821  0.025721013  0.025503058           29 
 2651000   0.83078738   -6.8455006    816.90587  0.025679174   0.02549648            4 
 2652000    0.8255469   -6.8313772     820.2968  0.025776043  0.025489891           11 
 2653000   0.81134835   -6.8426095    818.55495  0.025711614  0.025483262            7 
 2654000   0.79338156   -6.8442118    816.82312  0.025647548  0.025476685            9 
 2655000   0.83363914   -6.8365393    817.23466  0.025650805  0.025470062            9 
 2656000   0.81417213   -6.8555654    816.82653  0.025628342  0.025463426           19 
 2657000   0.83797077   -6.8557506    817.39793  0.025636618   0.02545679            8 
 2658000   0.82936555   -6.8510459    819.88471  0.025704938  0.025450185            6 
 2659000   0.82750261   -6.8269144    820.50662  0.025714762  0.025443622            9 
 2660000    0.8421453   -6.8413001    820.11508  0.025692828    0.0254371            6 
 2661000   0.82107139   -6.8134964    822.53975  0.025759105  0.025430558           13 
 2662000   0.81281369   -6.8554665    818.21917  0.025614174   0.02542398            7 
 2663000   0.82922039    -6.840981    819.30767  0.025638618  0.025417373           10 
 2664000   0.82390415   -6.8453172    820.11357  0.025654203  0.025410797           14 
 2665000   0.82226382   -6.8634416    822.09064  0.025706399  0.025404245            8 
 2666000   0.82861096   -6.8228806     821.7509  0.025686137  0.025397739            6 
 2667000   0.82223963   -6.8500795    820.90153  0.025649966  0.025391222            8 
 2668000   0.83645249   -6.8604318    820.74249  0.025635385   0.02538472           11 
 2669000   0.81877338   -6.8596238    822.76842  0.025689035  0.025378216            8 
 2670000   0.84209682   -6.8565463    821.19261  0.025630231  0.025371733            8 
 2671000   0.82566032   -6.8544455    820.76473  0.025607286  0.025365237            5 
 2672000   0.81202955   -6.8472622    821.46572  0.025619565  0.025358733            7 
 2673000   0.82019292   -6.8523554    821.27344  0.025603986  0.025352244           17 
 2674000   0.82318466   -6.8245719    823.12586   0.02565214   0.02534579            7 
 2675000   0.82278108   -6.8664866    820.14118   0.02554957  0.025339288           11 
 2676000   0.81965285   -6.8569672    822.61704  0.025617123  0.025332806           15 
 2677000   0.82039071    -6.841047    822.16023  0.025593333  0.025326319            9 
 2678000   0.82280642   -6.8363557    820.51762  0.025532662  0.025319879           23 
 2679000   0.80317589    -6.834681    823.90935  0.025628635  0.025313427           16 
 2680000   0.82055992   -6.8474269    822.35164  0.025570635  0.025306932           19 
 2681000   0.83265114   -6.8396281    822.35551  0.025561218   0.02530046           12 
 2682000   0.82180393   -6.8642696    822.07948  0.025543111  0.025293979            8 
 2683000   0.83708375   -6.8319345    821.45053  0.025514056   0.02528748            8 
 2684000   0.83224907   -6.8449364    821.69693    0.0255122  0.025281002            9 
 2685000   0.83849522   -6.8597298    822.12658  0.025516033   0.02527447            5 
 2686000   0.80865807   -6.8132409    823.30379  0.025543056  0.025268028            8 
 2687000   0.82160439   -6.8357401    824.75307  0.025578497  0.025261591            7 
 2688000   0.83850233   -6.8512041    824.59008  0.025563929  0.025255152           10 
 2689000   0.80665013   -6.8421923    823.18096  0.025510753  0.025248692            8 
 2690000   0.81009141    -6.847712    822.09973  0.025467774  0.025242216            9 
 2691000   0.81984108   -6.8578659    823.37431   0.02549778   0.02523573           12 
 2692000   0.82336011   -6.8446021    823.87086  0.025503679  0.025229285           11 
 2693000   0.80597833   -6.8613963    822.60478  0.025455031   0.02522279            6 
 2694000   0.81426826    -6.866397     823.0807  0.025460304  0.025216262           13 
 2695000   0.82394782   -6.8459884    824.76239  0.025502857  0.025209745            9 
 2696000   0.80832224   -6.8205743    823.52779  0.025455236   0.02520327            8 
 2697000   0.82124128   -6.8501968    823.40851  0.025442112   0.02519678            9 
 2698000   0.81975265   -6.8362658    824.89542  0.025478608  0.025190274            6 
 2699000   0.84187043   -6.8760392     824.3993   0.02545385  0.025183775            8 
 2700000   0.81519341   -6.8946829    824.75273  0.025455331  0.025177274            6 
 2701000   0.81555821   -6.8597006    821.89446  0.025357721  0.025170759           13 
 2702000   0.82458188   -6.8426395    823.66058  0.025402806  0.025164319            6 
 2703000   0.82217167   -6.8403835    826.33485  0.025475856   0.02515789            8 
 2704000   0.82712386     -6.84943     825.6216  0.025444453  0.025151492            4 
 2705000    0.8291211    -6.857783    824.18455  0.025390775  0.025145045           10 
 2706000   0.81736785   -6.8615027    824.70393  0.025397386  0.025138583            9 
 2707000   0.82715135   -6.8421814    824.80963  0.025391258   0.02513213            9 
 2708000   0.80505489     -6.87833    823.87741  0.025353195  0.025125655            9 
 2709000   0.80782377   -6.8384746    825.58113  0.025396245  0.025119202            7 
 2710000   0.82503648   -6.8130029    828.00101  0.025461286  0.025112869            8 
 2711000   0.82447716   -6.8583241    824.24249  0.025336361  0.025106462           11 
 2712000   0.80964492   -6.8494737    826.24755  0.025388629  0.025099997            8 
 2713000   0.83723751   -6.8641617    825.74228  0.025363751  0.025093527            9 
 2714000   0.82390307   -6.8231697    827.07607  0.025395359    0.0250871           11 
 2715000   0.81769465   -6.8544629    826.66616  0.025373424  0.025080656           12 
 2716000   0.80591349   -6.8549306    828.39672   0.02541718  0.025074225            9 
 2717000   0.81918483   -6.8641929    825.24546  0.025311172  0.025067735            7 
 2718000    0.8068381    -6.874384    825.11171  0.025297759  0.025061212           20 
 2719000   0.80265534   -6.8601101    825.65202  0.025305015  0.025054707            8 
 2720000   0.81514944   -6.8744147    826.95417  0.025335606  0.025048189            8 
 2721000   0.81844356   -6.8572497    825.72462  0.025288638  0.025041687            8 
 2722000   0.81419654   -6.8706582    825.13768  0.025261379  0.025035132           11 
 2723000   0.81804762   -6.8699743    826.14651  0.025282975  0.025028612           13 
 2724000   0.82715094   -6.8888823    824.56583  0.025225338  0.025022051           14 
 2725000   0.80981745   -6.8695816    824.32644   0.02520876  0.025015534           14 
 2726000   0.81469649   -6.8811168    826.78252  0.025274594  0.025009042           15 
 2727000   0.80575775   -6.8573918    826.55323  0.025258319  0.025002577           12 
 2728000   0.81491787   -6.8768787    827.39217  0.025274687  0.024996099           13 
 2729000   0.81159701   -6.8685813    826.16984  0.025228101  0.024989568           19 
 2730000   0.80791271   -6.8404848    828.09445  0.025277608  0.024983077            5 
 2731000   0.80673559   -6.8604767    827.24526   0.02524244  0.024976607            7 
 2732000   0.84050383   -6.8845297    827.20579  0.025231997  0.024970131            9 
 2733000   0.82708134   -6.8807592    827.13879  0.025220722  0.024963647            6 
 2734000   0.83540194   -6.8706411    824.96594  0.025145268  0.024957143            5 
 2735000   0.81966753   -6.8735802    827.72146  0.025220032   0.02495066            9 
 2736000   0.82273495   -6.8927157     827.9641  0.025218205   0.02494417           12 
 2737000   0.81124186   -6.8739487    826.67503  0.025169743    0.0249377           17 
 2738000    0.8218585   -6.8648391    829.19509   0.02523725  0.024931218            6 
 2739000    0.8063314   -6.8745282    828.11758  0.025195253  0.024924733           11 
 2740000   0.82641092   -6.8894097    827.84319  0.025177713  0.024918241           17 
 2741000   0.80924844   -6.8311372    829.86777  0.025230079  0.024911781            8 
 2742000   0.83592387   -6.8660776     828.8192   0.02518901  0.024905321           23 
 2743000   0.80928511   -6.8507167    827.92376  0.025152624  0.024898841            9 
 2744000    0.8164186   -6.8800742    825.23906  0.025061925   0.02489233           17 
 2745000   0.80850519   -6.8954867    827.18145  0.025111762  0.024885821            9 
 2746000   0.82012234   -6.8542348      829.628  0.025176863  0.024879322           12 
 2747000   0.81291251   -6.8567807    828.16153  0.025123211  0.024872804           13 
 2748000   0.81287587   -6.8560948    829.28176   0.02514804  0.024866288            9 
 2749000   0.79264796   -6.8924535    826.46753  0.025053581  0.024859719           18 
 2750000   0.80750388   -6.8823315    826.77362  0.025053746  0.024853171           15 
 2751000   0.80690738   -6.8439966    827.62832  0.025070529  0.024846642            3 
 2752000   0.81207666   -6.8454663    829.91297  0.025130601  0.024840171            8 
 2753000   0.80687183   -6.8530889     829.0173  0.025094361  0.024833643           11 
 2754000   0.82918651   -6.8470107    827.27439   0.02503251  0.024827109            9 
 2755000   0.80676635   -6.8692127    826.29072   0.02499367  0.024820587           10 
 2756000    0.8151441   -6.8711981    829.88669  0.025093332  0.024814088           22 
 2757000   0.79852483   -6.8792708    828.55961  0.025044118  0.024807556           10 
 2758000   0.81399311   -6.8623187    828.14535  0.025022521  0.024800992           12 
 2759000   0.81122445    -6.886642    826.24457   0.02495604  0.024794432           21 
 2760000    0.8069051   -6.8535526    826.68878   0.02496041  0.024787849           18 
 2761000   0.79997271    -6.880725    827.59431  0.024978701  0.024781288            9 
 2762000    0.8119914   -6.9019815    828.97293  0.025011252  0.024774685            9 
 2763000   0.81694622   -6.8842796    828.43874  0.024986088  0.024768104            6 
 2764000   0.81822987    -6.896529    829.53775  0.025010183  0.024761531           12 
 2765000   0.82998167   -6.8844954     827.0554  0.024926323  0.024754924           12 
 2766000   0.82205807   -6.8664875    828.37121  0.024956954  0.024748327           16 
 2767000    0.7926654   -6.8865096    827.95216  0.024935314  0.024741743           17 
 2768000   0.81067681   -6.8895269    828.81457  0.024952269  0.024735126           10 
 2769000   0.81381493   -6.8856557    828.90743  0.024946052  0.024728545           11 
 2770000   0.82310006   -6.8968244    828.62375  0.024928512  0.024721936            9 
 2771000   0.79770407   -6.9082682    830.56927  0.024978024  0.024715323            7 
 2772000   0.80307213   -6.8802085    828.17365  0.024896995   0.02470867            5 
 2773000   0.80842966   -6.8433949    828.55122  0.024899363  0.024702019            5 
 2774000   0.80554927   -6.8868709    827.77313  0.024867013  0.024695419           14 
 2775000   0.80345388   -6.8727667    830.32511  0.024934688  0.024688847           15 
 2776000    0.7875246   -6.8531075    828.64238  0.024875191  0.024682276            5 
 2777000   0.81040815   -6.8686672    829.91012  0.024904277  0.024675703            5 
 2778000   0.81345364   -6.8939609    828.73211  0.024859975  0.024669074            8 
 2779000   0.79347972   -6.8775311    829.60232  0.024877124   0.02466246           12 
 2780000   0.81194889   -6.8601375    829.96714  0.024879111  0.024655872            9 
 2781000   0.79876298   -6.8594971     830.8629  0.024897007  0.024649267            6 
 2782000    0.7914799   -6.8520449    829.08124  0.024834688   0.02464267           10 
 2783000   0.81141636   -6.8913276    826.95746  0.024762171  0.024636055           24 
 2784000   0.79548471   -6.8693876    829.00821  0.024814661  0.024629464           14 
 2785000   0.79978874   -6.8678554     829.6127  0.024823839  0.024622889            7 
 2786000   0.81672466   -6.8998984    829.44226  0.024809831  0.024616275            7 
 2787000   0.81923229   -6.8852555    830.01177  0.024817957  0.024609656           21 
 2788000   0.81349794   -6.8872218    828.25373  0.024756508  0.024603062           21 
 2789000   0.79361472   -6.8703638    829.06397  0.024771841  0.024596478           14 
 2790000    0.8045036   -6.9112562    831.24184  0.024828012  0.024589887            8 
 2791000   0.81783688   -6.9105146     830.5711  0.024799089   0.02458333           17 
 2792000   0.79473814    -6.906122    830.78371  0.024796553   0.02457675            6 
 2793000   0.79803641   -6.8868132    829.59838  0.024752309  0.024570187           10 
 2794000   0.80543967   -6.8725453    829.80834  0.024749712  0.024563621           18 
 2795000   0.81065906   -6.8715034    832.20844  0.024812416   0.02455705           24 
 2796000   0.81222334   -6.8966249    829.95639  0.024736421  0.024550482            5 
 2797000   0.80517919   -6.8989573    832.51428  0.024803786  0.024543906            7 
 2798000   0.80121975   -6.8939609    832.52276  0.024795174  0.024537336           12 
 2799000   0.80213667    -6.903874    831.10054  0.024743972  0.024530782           18 
 2800000   0.81243821    -6.873705    829.28442  0.024681084  0.024524233           13 
 2801000   0.80811033   -6.8507028    832.34622  0.024763365  0.024517619           17 
 2802000   0.79995982   -6.8920831    833.69416  0.024794616   0.02451109           12 
 2803000   0.80598477    -6.885158    832.67135  0.024755362   0.02450459            7 
 2804000   0.82650848   -6.8647539    832.68131  0.024746829  0.024498077           18 
 2805000   0.80988882   -6.8620403    832.61501  0.024736037  0.024491568            8 
 2806000    0.8052791   -6.8887048    831.59114  0.024696815  0.024485065           10 
 2807000   0.81098838   -6.8887543    830.68292  0.024661053  0.024478513           10 
 2808000   0.79396817   -6.8526054    831.68094  0.024681889  0.024472005           10 
 2809000   0.80908798   -6.9103946    832.58562  0.024699941  0.024465444           10 
 2810000   0.80426202   -6.9165916    832.27891  0.024682055  0.024458896           21 
 2811000   0.79542247   -6.8985377    831.30755  0.024644478  0.024452295           21 
 2812000   0.79515411   -6.8711113    834.22496  0.024722172  0.024445732            9 
 2813000   0.79920219   -6.9013211    832.17477  0.024652648  0.024439165           12 
 2814000   0.80059588   -6.9195382    833.52356   0.02468383  0.024432585            9 
 2815000   0.79541834   -6.8967653    833.52644  0.024675146     0.024426           12 
 2816000   0.81900124    -6.923145    830.13673  0.024566073  0.024419402           20 
 2817000   0.81111078   -6.8655069    832.03654  0.024613553  0.024412845           13 
 2818000   0.80620959   -6.8796344    832.04458  0.024605056  0.024406293           25 
 2819000   0.78859053   -6.9028782    831.51691  0.024580729  0.024399689           10 
 2820000   0.80095647   -6.9066309    832.84948  0.024611391  0.024393066           12 
 2821000    0.8147675   -6.9035671    832.03985   0.02457875  0.024386497           11 
 2822000   0.79810913   -6.9155563    831.67153  0.024559164    0.0243799            5 
 2823000   0.79101305   -6.9183687    832.08597  0.024562698  0.024373304           11 
 2824000   0.79144332   -6.9047296    832.57242  0.024568355  0.024366674           14 
 2825000   0.80490543   -6.9157227    832.58121  0.024559918  0.024360065           10 
 2826000   0.79324245   -6.9121687    832.61709  0.024552285  0.024353442            9 
 2827000   0.79697751   -6.9097965    831.70616  0.024516748  0.024346799            5 
 2828000    0.7898006   -6.9090222    832.43448   0.02452954   0.02434019           13 
 2829000   0.82930004   -6.8979638    834.08128  0.024569379  0.024333605           24 
 2830000     0.787381   -6.8860971    835.13331  0.024591676  0.024327025           10 
 2831000   0.78394717   -6.8985772     833.5634  0.024536777  0.024320444           10 
 2832000   0.81253993   -6.8591821    833.17873  0.024516794  0.024313901           10 
 2833000   0.79745327   -6.8892865    832.72104  0.024494677  0.024307345           17 
 2834000   0.78772254   -6.9280547    832.94936  0.024492748  0.024300768           16 
 2835000   0.80898086   -6.9141377    833.80803  0.024509348  0.024294169           18 
 2836000   0.79423476   -6.9144754    831.90204    0.0244447  0.024287597            7 
 2837000   0.80137072   -6.8839139    834.14824  0.024502063   0.02428101           20 
 2838000   0.79617416   -6.9353781    833.30535  0.024468679  0.024274398            8 
 2839000    0.7875752   -6.9088796    834.01841  0.024480991  0.024267807           14 
 2840000   0.79456497   -6.9222396    834.46054  0.024485344  0.024261194            7 
 2841000   0.79973072   -6.9250095    832.72545  0.024425832  0.024254598           13 
 2842000   0.78220781   -6.8860928    833.51961  0.024440523  0.024248032            5 
 2843000   0.80053013   -6.9334924    835.19548  0.024481049  0.024241482           13 
 2844000   0.79980695   -6.9211628    833.82486   0.02443228  0.024234861            5 
 2845000   0.79060169   -6.9268833    833.77324  0.024422181  0.024228257           13 
 2846000   0.80161225   -6.8845962    834.36359  0.024430885  0.024221686            4 
 2847000   0.81539522    -6.893553    835.81987   0.02446493  0.024215158            7 
 2848000   0.79071516   -6.8592263    836.36294   0.02447223  0.024208634           10 
 2849000   0.80223688    -6.904454     833.6864  0.024385352  0.024202094           11 
 2850000   0.80226972   -6.9028009    835.92406  0.024442224   0.02419558            8 
 2851000     0.790182   -6.9095604    835.99851  0.024435827  0.024189056            8 
 2852000   0.77708994   -6.8983552    834.77511  0.024391512  0.024182541            6 
 2853000   0.79598431   -6.8797172    836.35365   0.02442907  0.024176009           22 
 2854000   0.78937019   -6.9071505    835.12388  0.024384603  0.024169482           14 
 2855000   0.79136609    -6.879182    834.91833  0.024370062  0.024162958           15 
 2856000   0.80198161   -6.9090742    836.69316  0.024413316  0.024156421           29 
 2857000    0.7985791   -6.9032408    837.73499  0.024435159  0.024149883            6 
 2858000   0.79736396   -6.9386273    835.24747  0.024354078   0.02414335           14 
 2859000    0.7889646   -6.9252689    834.86395  0.024334381  0.024136813           13 
 2860000    0.7950838   -6.9173885    835.39355  0.024341304  0.024130281           22 
 2861000   0.79524164   -6.9268714    836.71188  0.024371195  0.024123732           11 
 2862000   0.78413328   -6.8860778    838.02371  0.024400877  0.024117227            7 
 2863000   0.80150569   -6.9160524    835.78182  0.024327099   0.02411072           27 
 2864000   0.78480102   -6.9125579    838.60199  0.024400663  0.024104222           12 
 2865000    0.7724171   -6.9139424    836.96929  0.024344656  0.024097716            7 
 2866000   0.79111919   -6.8912711    835.71521  0.024299698  0.024091201           16 
 2867000   0.80177554   -6.8915014    838.19256   0.02436323  0.024084691            6 
 2868000   0.77357257   -6.9006754    836.09211  0.024293704  0.024078172           24 
 2869000    0.8114402   -6.9078191    837.03759  0.024312699  0.024071686           26 
 2870000   0.77651752   -6.8951355     836.0228  0.024274762  0.024065209           14 
 2871000   0.78464564   -6.9071405     837.3549  0.024304972  0.024058698           18 
 2872000   0.78511895   -6.9278958    835.62162  0.024246217  0.024052168           15 
 2873000     0.780876   -6.9108995    836.34781  0.024258841  0.024045609           14 
 2874000   0.79923306    -6.907505    835.90506  0.024237563  0.024039045            5 
 2875000    0.7954216   -6.9145224    836.67556  0.024251465  0.024032445            9 
 2876000   0.80889224   -6.9109662    836.84668  0.024247991   0.02402584            6 
 2877000   0.81417263   -6.9008149    837.62962  0.024262241  0.024019285           14 
 2878000    0.7857667   -6.9094264    835.97207  0.024205816  0.024012719           30 
 2879000   0.79847695   -6.9018983    836.02001  0.024198796  0.024006127           21 
 2880000   0.79843271   -6.9153956    835.83754  0.024185114  0.023999538           20 
 2881000   0.80748715   -6.9191554    836.20637  0.024187388  0.023992961           14 
 2882000   0.77605954   -6.9183665    834.32561  0.024124613  0.023986365           11 
 2883000   0.78820795   -6.9449009    835.74757  0.024157347  0.023979785           22 
 2884000   0.78976196   -6.9359681    837.61408  0.024202903  0.023973214           19 
 2885000   0.80513077   -6.9148373    837.60512  0.024194255  0.023966652            9 
 2886000   0.78466936   -6.9497835    837.96413  0.024196238  0.023960104           10 
 2887000    0.7847316   -6.9373668    836.90849  0.024157386  0.023953566           12 
 2888000   0.79483191   -6.9422787    837.12348  0.024155225  0.023947036           10 
 2889000   0.78471763   -6.9236597    836.25299  0.024121755  0.023940501            9 
 2890000   0.78966688   -6.9030838    837.79939  0.024157999  0.023933967           12 
 2891000   0.78989603   -6.9557941    838.44063  0.024168126  0.023927421           11 
 2892000   0.77239584   -6.9466634    838.65222  0.024165866  0.023920864            7 
 2893000   0.78817986   -6.9291868    837.10905  0.024113062  0.023914334           24 
 2894000   0.79522358    -6.931178    838.26962  0.024138148  0.023907785            8 
 2895000   0.78956019    -6.910433    839.29627  0.024159363  0.023901296           13 
 2896000   0.77528103   -6.9195549    838.67587  0.024133169  0.023894773           11 
 2897000   0.79674771   -6.9092722    838.32974  0.024114882  0.023888255            5 
 2898000   0.77337509   -6.9362783    839.57914  0.024142487  0.023881747           15 
 2899000   0.78416083   -6.9303603     839.7863  0.024140114  0.023875219           14 
 2900000   0.78510172   -6.9324175    838.10182  0.024083386  0.023868701           18 
 2901000   0.78697901   -6.9402225    837.52418  0.024058491  0.023862146            9 
 2902000   0.80815015   -6.9172894    837.96283  0.024062797  0.023855628           11 
 2903000   0.77795733   -6.9046787     841.1157  0.024145014   0.02384914            9 
 2904000   0.77551139   -6.9485174    838.40397  0.024058883  0.023842651           10 
 2905000   0.78482742   -6.9615571    838.22269  0.024045401  0.023836129            7 
 2906000   0.77851792   -6.8811242    839.90091  0.024085252  0.023829609           14 
 2907000   0.78252518   -6.9047286    840.59509  0.024096867  0.023823133           26 
 2908000   0.78772365   -6.9444494    840.97801  0.024099553  0.023816661           36 
 2909000    0.7900935   -6.9331443    839.40729  0.024046273  0.023810186           23 
 2910000   0.78312001   -6.9216784      839.397  0.024037715  0.023803647           21 
 2911000   0.77534342    -6.971626    841.45364  0.024088333  0.023797161           20 
 2912000   0.77324641   -6.9590667    839.84808  0.024034114  0.023790651            8 
 2913000   0.77612575   -6.9364767    839.11454  0.024004879  0.023784122            5 
 2914000    0.7946018   -6.9236995    840.65058  0.024040568  0.023777605            7 
 2915000     0.802252   -6.9360803    838.74463  0.023977834   0.02377111           19 
 2916000   0.78048173   -6.9371644    841.79219  0.024056704  0.023764616           13 
 2917000   0.78975848    -6.949345    842.03028  0.024055259  0.023758156           17 
 2918000   0.78590258   -6.9137296    839.88872  0.023985856  0.023751688           11 
 2919000   0.76313845   -6.9177802    840.87945  0.024005922  0.023745223           14 
 2920000   0.79414769    -6.932165    840.56579   0.02398875  0.023738739           10 
 2921000   0.79894518   -6.9400754     841.3848  0.024003903  0.023732256           11 
 2922000   0.78999148   -6.9211051    842.41967  0.024025202  0.023725772           15 
 2923000   0.78713105   -6.9338908    842.37811  0.024015797  0.023719311           14 
 2924000   0.77372631   -6.9276251    841.26115  0.023975751  0.023712842           14 
 2925000   0.80335835   -6.9638855    840.72975  0.023952414  0.023706382            7 
 2926000   0.78084656   -6.9031388    840.50703  0.023937885  0.023699946           12 
 2927000    0.7830841   -6.9231148    841.80851  0.023966761  0.023693505            9 
 2928000   0.77098991   -6.9239226    840.49457   0.02392118  0.023687059           10 
 2929000   0.77871564   -6.9290237    841.84852  0.023951534  0.023680616           12 
 2930000   0.78775537   -6.9308957    842.07227  0.023949723  0.023674173           13 
 2931000   0.77868918   -6.9262948    842.14017  0.023943483  0.023667712            6 
 2932000    0.7747224   -6.9099881     841.7886  0.023925324  0.023661266            9 
 2933000   0.77863151   -6.9186173     842.9144  0.023949153   0.02365485           10 
 2934000   0.77351634    -6.898953    843.32842   0.02395275  0.023648436           26 
 2935000   0.78847637    -6.936072    839.05593   0.02382328  0.023641976           17 
 2936000   0.77388472   -6.9541886    841.08487  0.023872754  0.023635499           16 
 2937000   0.77736612   -6.9512586    840.16433  0.023838507  0.023629014           11 
 2938000   0.78731175   -6.9357717    843.28402   0.02391888  0.023622516           22 
 2939000   0.79312946   -6.9659919    841.24711  0.023852986  0.023616006           17 
 2940000   0.77542689   -6.9486687    839.78554  0.023803445  0.023609499           18 
 2941000   0.77603544   -6.9524967    842.78441  0.023880324     0.023603           24 
 2942000    0.7636741   -6.9422517    841.69498  0.023841349  0.023596506           15 
 2943000   0.79081719   -6.9211201    844.46978  0.023911818      0.02359           23 
 2944000   0.77635289   -6.9614995    841.71348  0.023825676  0.023583537           15 
 2945000   0.78171234   -6.9164315    844.95811  0.023909398  0.023577061            9 
 2946000    0.7917802   -6.9567937    840.77361  0.023782915  0.023570594           25 
 2947000   0.76822997   -6.9398655     842.4936  0.023823482  0.023564139           20 
 2948000   0.79055621   -6.9599738    842.53811  0.023816659  0.023557684           29 
 2949000   0.79197304   -6.9398567    843.70127  0.023841451  0.023551216            9 
 2950000   0.78198029   -6.9358235    841.96215  0.023784242  0.023544773           16 
 2951000   0.78983217   -6.9339278    843.31558  0.023814401  0.023538324           42 
 2952000    0.7674364   -6.9362969     842.9987  0.023797389  0.023531878           19 
 2953000   0.76129085   -6.9204996    843.70807  0.023809348  0.023525439           23 
 2954000   0.77440216   -6.9384991    842.76043  0.023774555  0.023518987           19 
 2955000   0.78139799   -6.9452063    842.98615  0.023772875  0.023512546           10 
 2956000   0.76924842    -6.934846     842.4116  0.023748636  0.023506081            7 
 2957000    0.7816314   -6.9424191    843.00796  0.023757411  0.023499637           14 
 2958000   0.79063539   -6.9381081    844.13712   0.02378119  0.023493194            8 
 2959000   0.77266199   -6.9308707    843.00749   0.02374134  0.023486772            9 
 2960000   0.77826576   -6.9212996    844.63188  0.023779051  0.023480365           19 
 2961000   0.79166592    -6.915711    845.06178  0.023783119  0.023473962           19 
 2962000   0.75939755   -6.9515129    842.77819  0.023710843  0.023467532           14 
 2963000   0.77107937   -6.9281595    842.82292  0.023704098   0.02346111           23 
 2964000   0.76659782   -6.9313877    843.10239  0.023703958   0.02345468           13 
 2965000   0.77388781   -6.9261005    842.54817  0.023680387  0.023448196           26 
 2966000   0.76837806   -6.9429234    843.69069  0.023704503   0.02344172           23 
 2967000   0.76424514    -6.924648    845.41401  0.023744917  0.023435256           16 
 2968000     0.777411   -6.9640798    842.84555  0.023664801  0.023428796           18 
 2969000   0.78971242   -6.9551049    843.66583  0.023679854  0.023422294           12 
 2970000   0.75871691     -6.94168    842.38247  0.023635872   0.02341583           20 
 2971000   0.76954908    -6.949633    844.35585  0.023683267  0.023409356           12 
 2972000   0.75156296   -6.9553216    841.98221  0.023608743  0.023402882           19 
 2973000   0.76607082   -6.9566604    844.78351  0.023679323  0.023396428           21 
 2974000   0.78317303   -6.9595062    844.23161  0.023655896   0.02338998           18 
 2975000   0.76849104   -6.9350251    845.88426  0.023694237  0.023383563           13 
 2976000   0.77700223   -6.9517868    845.00985   0.02366179  0.023377132           13 
 2977000   0.75983141   -6.9481044    845.29471  0.023661816  0.023370701           11 
 2978000   0.80338389   -6.9411419    843.39937  0.023600833   0.02336425            7 
 2979000   0.77242088   -6.9403672    846.08617   0.02366807  0.023357817           15 
 2980000   0.79143467    -6.920342    844.71368  0.023621747  0.023351434           13 
 2981000    0.7681154   -6.9744799    844.84499  0.023617494  0.023345008           20 
 2982000   0.77110084   -6.9600887    843.95427  0.023584682  0.023338573           19 
 2983000   0.77992097   -6.9746316    844.60792  0.023595036   0.02333213           15 
 2984000   0.75400215    -6.961627    844.88138  0.023594766  0.023325664           17 
 2985000   0.79791588    -6.949013      843.536  0.023549302  0.023319193           20 
 2986000   0.76516107   -6.9863135    844.60515  0.023571253  0.023312745           23 
 2987000    0.7839756   -6.9661852    844.74187  0.023567176  0.023306293           16 
 2988000    0.7811691    -6.958943    845.74898  0.023587377  0.023299856           27 
 2989000   0.77500386   -6.9482372    844.24578  0.023537576  0.023293425           16 
 2990000   0.77331469   -6.9298032    843.94075  0.023521203  0.023286978           18 
 2991000    0.7571531   -6.9476946    846.38007  0.023581301  0.023280584           14 
 2992000   0.74963251   -6.9618282    846.94416  0.023589131  0.023274191            9 
 2993000   0.78882015   -6.9182123    845.51973   0.02354159   0.02326779           11 
 2994000    0.7623132   -6.9189864    846.35828  0.023557066  0.023261428           20 
 2995000   0.78540961   -6.9584405    846.68183  0.023558204   0.02325503            7 
 2996000   0.76517083   -6.9509075     846.6151  0.023548484  0.023248636           13 
 2997000   0.75902401   -6.9148764     847.2213  0.023557482  0.023242276           14 
 2998000   0.76583253   -6.9263161    848.20525  0.023576975  0.023235924            6 
 2999000   0.77282128   -6.9305396    846.89636  0.023532743  0.023229596            6 
 3000000   0.77288311   -6.9457742    847.81324  0.023550368  0.023223251           11 
 3001000   0.77368509   -6.9462196    847.10372  0.023522818  0.023216898           21 
 3002000   0.78126912   -6.9756796    846.89206  0.023509107  0.023210544           37 
 3003000   0.77466354   -6.9563817    848.52999  0.023546731  0.023204173           16 
 3004000   0.76020487   -6.9461023    849.00533  0.023552079  0.023197784           12 
 3005000   0.77238375   -6.9465948    847.44432  0.023500952  0.023191407           29 
 3006000   0.75651531    -6.977182    846.14088  0.023456999  0.023185036           18 
 3007000   0.78255378   -6.9720933    846.67811  0.023464087  0.023178644           12 
 3008000   0.78350068   -6.9474407    848.45319  0.023505463  0.023172269           10 
 3009000   0.76098955   -6.9397939    846.88003  0.023454083  0.023165893           15 
 3010000   0.76356299   -7.0000844    848.76909   0.02349859  0.023159525           40 
 3011000   0.77722022   -6.9505233    846.09734  0.023416842  0.023153152           65 
 3012000   0.76731086   -6.9746386    847.48187  0.023447373  0.023146765           16 
 3013000   0.78641345   -6.9605631    847.05137  0.023427685  0.023140369           68 
 3014000   0.76240819    -6.968428    846.54666  0.023405957  0.023133989           63 
 3015000   0.78668547   -6.9492736    847.55174  0.023425974  0.023127616           51 
 3016000   0.78642957   -6.9765274    847.68706  0.023421946  0.023121254           10 
 3017000   0.76877167   -6.9409866    849.41854  0.023462008  0.023114884           16 
 3018000   0.75655063   -6.9655619     846.8427   0.02338311  0.023108518           17 
 3019000   0.75847672   -6.9696634    848.21779  0.023413321  0.023102163           14 
 3020000   0.75569377   -6.9428783    847.17319  0.023376744  0.023095818            8 
 3021000   0.77691793   -6.9484862    849.09141  0.023421919   0.02308948            9 
 3022000   0.76525081   -6.9687601    847.59989  0.023373039  0.023083143           10 
 3023000   0.77489602   -6.9343286    849.96126  0.023430402  0.023076778           12 
 3024000   0.75777205   -6.9534239      848.903  0.023393491  0.023070444           11 
 3025000   0.75713719   -6.9857666    845.88501  0.023302617  0.023064098            8 
 3026000   0.77564103   -6.9424368    847.98086  0.023352634  0.023057721           15 
 3027000   0.75930917   -7.0071077    846.63184  0.023307781  0.023051329           13 
 3028000   0.77594585   -6.9407769    848.55284  0.023352951  0.023044943           11 
 3029000   0.76597113   -6.9815154    846.89102  0.023299522  0.023038579           31 
 3030000   0.75234678    -6.964453    848.61338  0.023339202  0.023032238           25 
 3031000   0.76738626   -6.9666818    848.17564  0.023319467  0.023025864            8 
 3032000   0.77251551   -6.9476141    848.50792  0.023320908  0.023019461           16 
 3033000   0.74940514   -6.9656781    847.75812  0.023292618  0.023013074           15 
 3034000   0.75779351   -6.9570774     847.2559  0.023271146   0.02300667           19 
 3035000   0.77383305   -6.9609149    847.77612  0.023277763  0.023000274           14 
 3036000   0.77065078    -6.941223    849.27373  0.023311203  0.022993896           13 
 3037000   0.76690133   -6.9730626    848.24302  0.023275245  0.022987524           12 
 3038000   0.74250284   -6.9490985    846.71277  0.023225608  0.022981141           18 
 3039000   0.75548683   -6.9660738    849.89943  0.023305348  0.022974757           16 
 3040000   0.77394993   -6.9632522    848.90886  0.023270528  0.022968406           22 
 3041000   0.76491761   -6.9671958    847.87601  0.023234572   0.02296202           60 
 3042000   0.77596026   -6.9591521    849.77051  0.023278833  0.022955656           22 
 3043000   0.75807493   -6.9661508    850.01621  0.023277911  0.022949285           37 
 3044000   0.74782007   -6.9739778    850.78145  0.023291214  0.022942911           11 
 3045000   0.77067746   -6.9679827    851.73291  0.023309604  0.022936558           35 
 3046000   0.77695138   -6.9855864    850.50909  0.023268469  0.022930204           26 
 3047000    0.7581214   -6.9592795    849.92502  0.023244859  0.022923861           12 
 3048000   0.77154529   -6.9759994    849.03856  0.023212996  0.022917533           13 
 3049000   0.77615419   -6.9679102    850.43449  0.023243536  0.022911171           20 
 3050000   0.75684397   -6.9637095    849.90809  0.023221532   0.02290482           27 
 3051000    0.7658576   -6.9751458    849.76922  0.023210128  0.022898453           20 
 3052000   0.76502522   -6.9595544    848.30922  0.023162659   0.02289212           17 
 3053000   0.75391017   -6.9768805    849.60962  0.023190567  0.022885773            9 
 3054000   0.75623698   -6.9735522    850.48655  0.023206902  0.022879456           12 
 3055000   0.76254415   -6.9567136     851.0538  0.023214779  0.022873138            7 
 3056000   0.75631022   -6.9590109    851.41642  0.023217071  0.022866832           23 
 3057000   0.76641377   -6.9900318     851.4651  0.023210803  0.022860536           14 
 3058000    0.7720369   -6.9955037    849.63538  0.023153351  0.022854221           17 
 3059000   0.76399686   -6.9514416    852.93007  0.023235536  0.022847923           20 
 3060000   0.76054234   -6.9710795    850.02154  0.023148735  0.022841655           21 
 3061000    0.7684371   -6.9644804    852.20843  0.023200709  0.022835368           10 
 3062000   0.76018614   -6.9858251    849.62452   0.02312281  0.022829047           10 
 3063000   0.77255974   -6.9842674    850.71699  0.023144983  0.022822721           10 
 3064000   0.76104516   -6.9511159    852.18936  0.023177474  0.022816434           21 
 3065000   0.76231521   -6.9897162    850.38826  0.023120942  0.022810134           30 
 3066000   0.76377858   -6.9814199     849.6518  0.023093385  0.022803817           10 
 3067000   0.76845049   -6.9588698    851.93885  0.023147996  0.022797539           15 
 3068000   0.75823284   -6.9654484    850.69256  0.023106599  0.022791268           29 
 3069000   0.75982912   -6.9740832    851.89487  0.023131717  0.022785006           18 
 3070000   0.75877894   -6.9542258    851.67281  0.023118154  0.022778728           21 
 3071000    0.7647883   -6.9838789    852.20437  0.023125051  0.022772445           18 
 3072000   0.74454555   -6.9659634    851.53046  0.023099242  0.022766159           19 
 3073000   0.77720094   -6.9687497    852.20321  0.023109969  0.022759881           24 
 3074000   0.77009291   -6.9804221    851.14669   0.02307381  0.022753602           18 
 3075000   0.75526981   -6.9610018    853.63836  0.023133831  0.022747309            9 
 3076000   0.75591405   -7.0213311    850.00342  0.023027834  0.022741003           16 
 3077000   0.75487249   -6.9972668    854.26384  0.023135734  0.022734716           11 
 3078000   0.75540323   -6.9990626    851.77263  0.023060771  0.022728407           12 
 3079000   0.76287486   -6.9607542    852.94824  0.023085099  0.022722095           20 
 3080000   0.74070844   -6.9806401    851.07484  0.023026917  0.022715804           12 
 3081000   0.76493287   -6.9855782    850.84819  0.023013313  0.022709496           20 
 3082000   0.75921734   -6.9620405    851.90462   0.02303441  0.022703207           20 
 3083000    0.7577205   -6.9629153    853.00248  0.023056614  0.022696911           21 
 3084000   0.75049989   -6.9889011    850.44428  0.022980012  0.022690604           38 
 3085000    0.7471693   -7.0115873    851.51558  0.023001501  0.022684306           40 
 3086000   0.76857189   -6.9870885    850.77588  0.022974073  0.022677993           20 
 3087000    0.7613205   -6.9880371    851.94303  0.022998138  0.022671662           27 
 3088000   0.75901264   -6.9762254    852.48712  0.023005374   0.02266537            8 
 3089000    0.7715854   -6.9910195    851.11218  0.022960834  0.022659079           34 
 3090000   0.75173688   -6.9996219    852.06164  0.022979009  0.022652796            9 
 3091000   0.75606171   -6.9910018    851.90273   0.02296729  0.022646494           29 
 3092000   0.74856504   -6.9949864    852.53901  0.022977011  0.022640209           40 
 3093000   0.76675259   -7.0218793    848.56912  0.022862623  0.022633905           52 
 3094000   0.76012508   -6.9511056    852.85045  0.022970547  0.022627573           27 
 3095000   0.75950322   -7.0239223    849.62758  0.022876349  0.022621218           25 
 3096000   0.76465949   -7.0420281    850.44723  0.022891021  0.022614856           20 
 3097000   0.75970062   -7.0138341     851.7931  0.022919844  0.022608514            6 
 3098000   0.76141964   -6.9835988    851.70986  0.022910207  0.022602195           22 
 3099000   0.75108967   -6.9899349     851.5388  0.022898214  0.022595867           20 
 3100000   0.75560947   -6.9742093    854.30954   0.02296531  0.022589569           21 
 3101000    0.7761912    -6.974758    853.19654  0.022927995  0.022583261           27 
 3102000   0.74430345   -6.9916026    853.27757   0.02292278  0.022576923           12 
 3103000   0.78040177   -6.9822583      853.315  0.022916398  0.022570626           10 
 3104000   0.74974125   -6.9897323    850.80176  0.022841542  0.022564313           16 
 3105000   0.75614451   -6.9822978    851.95773   0.02286521  0.022557986           34 
 3106000   0.74962462   -6.9681431    852.60169  0.022875126  0.022551662           11 
 3107000   0.76566767   -7.0185052    852.09447  0.022854159  0.022545315           18 
 3108000   0.76259613   -7.0033336    849.93507  0.022788907  0.022538964           19 
 3109000    0.7462421   -6.9959881    852.38948  0.022847365  0.022532605           11 
 3110000   0.76213318   -7.0124866    852.84119  0.022852122  0.022526255            9 
 3111000   0.75080485   -7.0020498    851.37153  0.022805409  0.022519903           15 
 3112000   0.75086544   -7.0109055    850.67941  0.022779547  0.022513582           10 
 3113000   0.74416241   -6.9672856    851.63328  0.022797764  0.022507269           13 
 3114000   0.76692572   -6.9896974    852.89028  0.022824082  0.022500942           49 
 3115000    0.7549037   -7.0111235    850.79999  0.022760835  0.022494579           17 
 3116000   0.75923564   -7.0218538    851.68538  0.022777209  0.022488193           10 
 3117000   0.73195246   -7.0157479    854.60057  0.022847839  0.022481815           14 
 3118000   0.76776383   -6.9885965    854.58778  0.022840169  0.022475463           20 
 3119000    0.7618108   -6.9803132    851.92882  0.022761804  0.022469111           23 
 3120000   0.73636376   -6.9456666    853.01538   0.02278353  0.022462754           27 
 3121000   0.76733385   -6.9960458    851.92264  0.022747053  0.022456424           12 
 3122000   0.75643527   -7.0018911    851.75498  0.022735292  0.022450079           23 
 3123000    0.7602272   -7.0122726    852.38078  0.022744711  0.022443704           15 
 3124000    0.7541943   -7.0013666    852.28277  0.022734816  0.022437313           30 
 3125000   0.73524224   -7.0191165    852.28003  0.022727467  0.022430943           15 
 3126000   0.75557162   -7.0013386    852.49965  0.022726052   0.02242455           39 
 3127000   0.75881211   -6.9817114    852.42705  0.022716849  0.022418158           27 
 3128000   0.75893987   -7.0208006     851.0969   0.02267415  0.022411776           24 
 3129000   0.76561604    -6.992548    852.13919  0.022694663  0.022405407           48 
 3130000   0.75969878   -6.9817073    851.88391  0.022680615  0.022399079           22 
 3131000   0.73983631    -6.989635     851.3933  0.022660314   0.02239272           24 
 3132000   0.73329039   -7.0114622    852.51262   0.02268286  0.022386357           28 
 3133000    0.7439601    -6.996353    852.73943  0.022681653  0.022380009           13 
 3134000   0.76138224   -7.0008265    853.04492  0.022682539   0.02237368           19 
 3135000   0.73543678   -7.0152511    853.60487  0.022690188  0.022367353           19 
 3136000    0.7657241   -6.9955603    853.12293  0.022670146  0.022361033           18 
 3137000    0.7387952   -7.0157001    852.66209  0.022650677  0.022354697           32 
 3138000   0.75453914   -7.0069834    854.36352  0.022688643  0.022348369           17 
 3139000    0.7396781   -6.9763712     857.0195  0.022751925  0.022342058           19 
 3140000   0.76089605   -6.9821856    855.46911  0.022703533  0.022335788           14 
 3141000   0.74162151   -6.9748821     853.3532  0.022640168  0.022329511           12 
 3142000   0.74516557   -6.9807383    852.36487  0.022606749  0.022323194           11 
 3143000   0.74545369   -6.9970045    852.29897  0.022597809  0.022316865           15 
 3144000   0.77094032   -6.9955803    853.56179  0.022624093  0.022310565           18 
 3145000   0.74911961   -7.0123398    854.19359   0.02263364  0.022304268           21 
 3146000    0.7348755   -6.9975345    853.11635  0.022597911  0.022297985            9 
 3147000   0.75194419   -6.9992313    854.18941  0.022619146  0.022291681           23 
 3148000   0.76054147   -7.0143551    852.55776  0.022568768  0.022285366           22 
 3149000   0.74991071   -7.0047163    853.09886   0.02257592  0.022279054           17 
 3150000   0.72825035   -7.0275847    854.99543  0.022618927   0.02227276           16 
 3151000   0.74926717   -7.0050595    853.95126  0.022584134  0.022266465            9 
 3152000     0.740181   -7.0118747    854.48219  0.022591005  0.022260171            8 
 3153000    0.7368845   -7.0305585    854.84895  0.022593534  0.022253849           18 
 3154000   0.72765407    -6.987689    855.31791  0.022598761   0.02224755           11 
 3155000   0.73438658    -6.999357    854.65356  0.022574051  0.022241277           11 
 3156000   0.73273757   -7.0011862    854.38347  0.022559766  0.022234989            7 
 3157000   0.75379491   -6.9907989    856.00354  0.022595384  0.022228673           13 
 3158000   0.75393679   -7.0026424    855.58569  0.022577203  0.022222388            6 
 3159000   0.74884338   -6.9854669    854.93245  0.022552824  0.022216095           13 
 3160000   0.74305945   -7.0087344    853.98125  0.022520603  0.022209804           16 
 3161000   0.74296576   -7.0041578    854.79581  0.022534952  0.022203507            8 
 3162000   0.73150879   -7.0003209     854.6456  0.022523867  0.022197189            7 
 3163000   0.73122745    -6.991488    855.38947  0.022536344  0.022190911            9 
 3164000   0.74796118   -6.9803192    854.52635  0.022506488  0.022184641            8 
 3165000   0.75223043   -6.9979323    854.20545  0.022490928  0.022178338           13 
 3166000   0.75185796      -6.9913    856.49542  0.022544099   0.02217205           17 
 3167000   0.74458604   -7.0123167    855.52121  0.022511346  0.022165763           18 
 3168000   0.74404782   -6.9823252     854.2777   0.02247153  0.022159471           19 
 3169000   0.74578408   -7.0249102    852.91456  0.022428594  0.022153151           34 
 3170000     0.755665   -7.0016748    854.75673  0.022469945  0.022146834           18 
 3171000   0.74031237   -7.0309271    855.03889  0.022470275  0.022140521           21 
 3172000    0.7439649   -7.0393967    854.11046  0.022438799  0.022134202           27 
 3173000   0.76516931   -7.0201701    852.85242  0.022398687   0.02212789           17 
 3174000   0.74266826   -7.0070167    856.06521  0.022475982  0.022121586           48 
 3175000   0.73844088    -7.008639    854.34812  0.022423835  0.022115268           34 
 3176000   0.74180626   -6.9866719    856.25494  0.022466807  0.022108932           46 
 3177000   0.75168682   -6.9946799     854.8294  0.022422343   0.02210261           61 
 3178000   0.75315227   -7.0186693    852.32093   0.02234951  0.022096276           56 
 3179000   0.73953835   -7.0272379    852.17532  0.022338663  0.022089915           18 
 3180000   0.73074621   -7.0129797    855.71218  0.022424323  0.022083568           43 
 3181000   0.73491491   -7.0245377    856.67299  0.022442444  0.022077257           31 
 3182000   0.74823514   -7.0212787    855.06039  0.022393159  0.022070946           20 
 3183000   0.71818293    -7.028281    856.67859   0.02242849  0.022064647           20 
 3184000   0.73438183   -7.0355293     854.3973  0.022361738  0.022058322           15 
 3185000   0.74018478   -7.0170673    853.40642  0.022328792  0.022051995           21 
 3186000   0.72259163   -7.0488269    853.65682  0.022328333  0.022045674           17 
 3187000   0.73370059   -7.0150657    855.60329  0.022372223  0.022039343           12 
 3188000   0.73047759   -7.0201034    856.14221  0.022379292  0.022033046           29 
 3189000   0.73247471   -7.0255889    853.81609   0.02231149  0.022026704           26 
 3190000   0.72787713   -7.0073776    856.25388  0.022368179  0.022020395           22 
 3191000   0.73535051   -7.0181951    855.85072   0.02235064  0.022014073           12 
 3192000   0.73886096   -7.0099066    854.09887  0.022297903   0.02200776           24 
 3193000   0.74245959   -6.9978783    856.60847  0.022356417   0.02200145           12 
 3194000   0.72460009   -7.0191338    855.51915  0.022320997  0.021995154           30 
 3195000   0.73800953   -7.0111692    855.40682   0.02231108  0.021988864           21 
 3196000   0.75220094   -7.0248159    856.05438  0.022320984  0.021982544           20 
 3197000   0.72821318   -7.0148343     855.4683  0.022298725  0.021976226           14 
 3198000   0.75023309   -7.0248755    853.70428  0.022245786   0.02196987           10 
 3199000   0.71996488   -7.0285965    853.51181  0.022233818  0.021963518           16 
 3200000   0.74890444   -7.0033812    856.78707  0.022312163  0.021957166           12 
 3201000    0.7366586   -6.9813531     854.0662  0.022234359  0.021950878           12 
 3202000   0.74338927   -7.0096532    856.08046  0.022279837  0.021944576           17 
 3203000   0.73659538    -7.014685    855.85822  0.022267099  0.021938288           11 
 3204000   0.76044108   -7.0057326     855.6146  0.022253813  0.021931991           32 
 3205000   0.75172467   -7.0376278    854.39391   0.02221513  0.021925691            7 
 3206000   0.74184013   -7.0085963    856.34652  0.022258955  0.021919394           10 
 3207000   0.73024391    -7.013248    854.95459  0.022215845   0.02191311           11 
 3208000   0.74359543   -7.0143322    854.42622  0.022195195  0.021906835           18 
 3209000   0.73924658   -7.0261826    855.18173  0.022207898  0.021900539            8 
 3210000     0.743225   -7.0203633    855.47417  0.022208571  0.021894245           19 
 3211000    0.7448948   -7.0468054    855.62105  0.022205467  0.021887956           51 
 3212000   0.74527435   -7.0150083    856.18649  0.022213224  0.021881682           36 
 3213000   0.73009901   -7.0378232    857.97279   0.02225264  0.021875417           29 
 3214000   0.75968398   -7.0457163    855.50764  0.022181799  0.021869137           18 
 3215000   0.74179867   -7.0261952    855.94809  0.022186316  0.021862864           12 
 3216000   0.73877205   -7.0064288    857.04299  0.022207789  0.021856598           13 
 3217000    0.7519072   -6.9960935    858.93189  0.022249816  0.021850349           15 
 3218000   0.72378815   -7.0048871     854.7358   0.02213424  0.021844088           25 
 3219000   0.72783974   -7.0500263     856.1965  0.022165178  0.021837804           21 
 3220000   0.73243081   -7.0041726    855.35767  0.022136586  0.021831517           10 
 3221000   0.73734968   -7.0329328    856.15232  0.022150272  0.021825245           16 
 3222000   0.73984092   -7.0316471    856.94751  0.022163964  0.021818971           18 
 3223000   0.72567975   -7.0359895    858.22059  0.022190004  0.021812687           59 
 3224000   0.73662667   -7.0130898    857.71596  0.022170077  0.021806392           24 
 3225000   0.72283705   -7.0114936    858.02999  0.022171318  0.021800134           24 
 3226000   0.73993021   -7.0351573    857.04665  0.022139043  0.021793906           19 
 3227000   0.75866175   -7.0295309    857.37254  0.022140599  0.021787663            9 
 3228000   0.73637927   -7.0079786    856.33406  0.022106931  0.021781402           11 
 3229000   0.72580986   -7.0170643    856.93882  0.022115692  0.021775176           10 
 3230000   0.74447759   -7.0383726    857.70982  0.022128736  0.021768925           14 
 3231000    0.7443137   -7.0447247    855.87381  0.022074533  0.021762652           19 
 3232000    0.7379003   -7.0252887    857.56219  0.022111236  0.021756417           23 
 3233000   0.73038969   -7.0557214    857.19533  0.022094941  0.021750156           17 
 3234000   0.73041877   -7.0544416    855.97815  0.022056745  0.021743889           15 
 3235000   0.74836506   -7.0339307    858.55805  0.022116385  0.021737647            9 
 3236000   0.72733434   -7.0146793    857.37749  0.022079148  0.021731412           22 
 3237000   0.73230279   -6.9984211     856.9942   0.02206246  0.021725149           26 
 3238000   0.73099681   -7.0429175    855.98998  0.022029802  0.021718889           34 
 3239000    0.7349805   -7.0538122    856.73819   0.02204225  0.021712622           25 
 3240000   0.74368489   -7.0601626    857.01057  0.022042453  0.021706325           30 
 3241000   0.75124573   -7.0397406    857.44969  0.022046943  0.021700038           27 
 3242000   0.74365894   -7.0517143    856.80172  0.022023486  0.021693733           24 
 3243000   0.76100439     -7.04404     856.2076  0.022001429  0.021687426           23 
 3244000   0.72799885    -7.037796    857.88963  0.022037855  0.021681139           48 
 3245000   0.72406759   -7.0371157    856.47823  0.021994818  0.021674835           30 
 3246000   0.73891578   -7.0286019    856.04307  0.021976871   0.02166852           22 
 3247000    0.7371187   -7.0656385      856.472  0.021981111  0.021662216           30 
 3248000   0.73504641   -7.0260619    856.71449  0.021980565  0.021655922           37 
 3249000   0.72377276   -7.0345057    856.87814  0.021977997   0.02164966           28 
 3250000   0.73374065   -7.0207599    857.27057  0.021981297  0.021643395           61 
 3251000   0.72843847   -7.0259789    858.67948   0.02201065  0.021637127           33 
 3252000   0.73239576   -7.0455332    858.39413   0.02199657  0.021630875           32 
 3253000   0.71050743   -7.0461559     857.8173  0.021975031   0.02162458           21 
 3254000   0.72438873   -7.0498256    856.04816  0.021922971  0.021618279           16 
 3255000   0.72709639   -7.0539983    858.88207  0.021988788  0.021611972           11 
 3256000   0.73484277    -7.063118    856.58386  0.021923215   0.02160567           16 
 3257000   0.73341242   -7.0290613    857.99223  0.021952518   0.02159939           18 
 3258000    0.7269161   -7.0516235    856.60063  0.021910186  0.021593133           14 
 3259000    0.7227751   -7.0281794    858.70179   0.02195719   0.02158689           17 
 3260000   0.74875252   -7.0433571    858.04193  0.021933587  0.021580655           13 
 3261000   0.72977514   -7.0430437    858.65111  0.021942428  0.021574398            8 
 3262000   0.73420065   -7.0766657    857.95223  0.021917848  0.021568148           16 
 3263000   0.74308788   -7.0785576    857.77172  0.021906521  0.021561869           28 
 3264000   0.72895814   -7.0468512    856.33434  0.021863111  0.021555623           18 
 3265000   0.72187208   -7.0169935    855.70875  0.021840448  0.021549351           23 
 3266000   0.73173486    -7.060081    858.22511  0.021897967  0.021543077           21 
 3267000   0.73405346   -7.0590063    856.50212  0.021847315  0.021536808           27 
 3268000   0.73384559   -7.0439036    858.28129  0.021885998  0.021530561           18 
 3269000    0.7282412    -7.056018    857.60315  0.021862016  0.021524299           24 
 3270000   0.74067167   -7.0277734    858.48905  0.021877906  0.021518055           21 
 3271000   0.75138935   -7.0618533    857.92149  0.021856759  0.021511799           59 
 3272000   0.72930483   -7.0382391      856.128  0.021804401  0.021505551           23 
 3273000   0.72402309   -7.0532128    857.68105  0.021837281  0.021499277           24 
 3274000   0.73705055   -7.0824783    857.39542  0.021823341  0.021493017           36 
 3275000   0.72471191   -7.0524674    858.91853  0.021855433  0.021486762           17 
 3276000   0.73141592   -7.0417968    860.68867   0.02189379  0.021480527           17 
 3277000    0.7358704   -7.0549443    858.59591   0.02183389  0.021474307           22 
 3278000   0.73620297   -7.0609295    858.95746  0.021836421  0.021468084           25 
 3279000   0.71991291   -7.0477103    856.01829  0.021755065  0.021461836           47 
 3280000   0.73058731   -7.0459182    858.01396  0.021799135  0.021455589           28 
 3281000   0.73051318   -7.0800238    857.70978  0.021784765  0.021449345           14 
 3282000   0.72790878   -7.0641599    858.17823  0.021790022  0.021443088           14 
 3283000   0.72847989   -7.0398285    859.13049  0.021807556  0.021436865           14 
 3284000    0.7187275   -7.0611235    859.76861  0.021817108   0.02143069           16 
 3285000   0.71196105   -7.0256699     859.7795  0.021810743  0.021424489           13 
 3286000   0.72857981   -7.0314211     859.6852  0.021801714  0.021418301           13 
 3287000   0.72311344   -7.0559781     859.3752  0.021787222  0.021412113           33 
 3288000    0.7318403   -7.0579908     858.8996  0.021768542  0.021405922           44 
 3289000   0.73382298   -7.0638494    858.49132  0.021751579  0.021399724           64 
 3290000   0.73247776   -7.0574059    858.71166  0.021750549  0.021393496           72 
 3291000    0.7346651   -7.0491435    859.63576  0.021767339   0.02138727           93 
 3292000   0.73595401   -7.0415176    859.02677  0.021745311  0.021381047          103 
 3293000   0.73598001    -7.076841    859.00788  0.021738229  0.021374827           37 
 3294000   0.72143515    -7.055029    859.36148  0.021740576  0.021368612           58 
 3295000   0.73082174   -7.0650148    858.47316  0.021711511  0.021362405           76 
 3296000   0.72724995   -7.0587492    860.70423  0.021761333  0.021356185           46 
 3297000   0.72023025   -7.0573049    858.94484  0.021710263  0.021349969           35 
 3298000   0.71029463   -7.0253823    858.09177  0.021682125  0.021343753           64 
 3299000   0.73625715   -7.0502268    858.64112  0.021689429  0.021337525           43 
 3300000   0.71690471   -7.0642287    859.44576  0.021703176  0.021331316           26 
 3301000   0.71801838   -7.0397696     859.7866  0.021705205  0.021325134           17 
 3302000   0.71690277   -7.0649357    858.87259  0.021675565  0.021318942           56 
 3303000   0.71522776    -7.041153     859.0881   0.02167444  0.021312758           48 
 3304000   0.71961825   -7.0671836    860.72288  0.021709112  0.021306595           32 
 3305000   0.71257228   -7.0602392    860.24655  0.021690533  0.021300411           40 
 3306000   0.72439328   -7.0738567    860.02137  0.021678296  0.021294201           55 
 3307000    0.7308563   -7.0874491    858.94915  0.021644722  0.021287986           57 
 3308000   0.71960862   -7.0706606    860.63325  0.021680604  0.021281786           64 
 3309000   0.73265003   -7.0425588    858.03439  0.021608602  0.021275602           15 
 3310000   0.73315495   -7.0662086    857.87475  0.021598055  0.021269436           52 
 3311000   0.73151353   -7.0498621     858.7216  0.021612846  0.021263254           57 
 3312000   0.71023833   -7.0623422    861.08832   0.02166587  0.021257086           35 
 3313000   0.71286018   -7.0459735    859.86696  0.021628608  0.021250912           49 
 3314000   0.71214386   -7.0520637    860.36411  0.021634583  0.021244739           34 
 3315000   0.72044742   -7.0841962    861.25826  0.021650534  0.021238554           62 
 3316000   0.70924744   -7.0612782    860.23996  0.021618415  0.021232372           65 
 3317000   0.72623912   -7.0552435    859.09626  0.021583164  0.021226206           63 
 3318000    0.7134778   -7.0612629    859.50829  0.021587007  0.021220043           68 
 3319000   0.70501834   -7.0828278    859.05394  0.021569096  0.021213871           64 
 3320000   0.71357611   -7.0984637    860.37823  0.021595839  0.021207691           33 
 3321000   0.71605138   -7.0788617    862.33747  0.021638499   0.02120151           22 
 3322000   0.71553374   -7.0751458    860.21552  0.021578756  0.021195327           12 
 3323000    0.7220743   -7.0845372     860.0369  0.021567783  0.021189151           46 
 3324000   0.71868457   -7.0831796    859.86366  0.021556951  0.021182984           38 
 3325000   0.71010889   -7.0513518    861.52404  0.021592081  0.021176818           25 
 3326000   0.72635845   -7.0790622    860.50651  0.021560095  0.021170679           34 
 3327000    0.7241592   -7.0729905    860.51935  0.021553936  0.021164528           29 
 3328000   0.72497698   -7.0592084    861.70983  0.021577269  0.021158366           57 
 3329000   0.71662721   -7.0860785    860.91125  0.021550797  0.021152224           45 
 3330000   0.72551928   -7.0611643    861.49807  0.021559011  0.021146069           17 
 3331000   0.70008583   -7.0822048    861.63878  0.021556059  0.021139932           16 
 3332000   0.72669225   -7.0981101     860.0924  0.021510914  0.021133795           22 
 3333000   0.71426058   -7.0818441    861.07701  0.021529078  0.021127654           51 
 3334000   0.72744049   -7.0596581    862.12599   0.02154884  0.021121508           51 
 3335000   0.73396393   -7.0725268    860.80331  0.021509328  0.021115382           20 
 3336000   0.71764943   -7.0976425    863.01606  0.021558155   0.02110927           26 
 3337000   0.72605375   -7.0609762     860.4749  0.021488235   0.02110314           12 
 3338000   0.71657243    -7.074579    860.79853  0.021489877   0.02109702           13 
 3339000   0.69370264    -7.069764    862.51363  0.021526246  0.021090929           29 
 3340000    0.7146911   -7.0583644    861.53498  0.021495384   0.02108483           28 
 3341000   0.72411204   -7.0705708    862.68171  0.021517552  0.021078716           17 
 3342000   0.71482034   -7.0760949    862.67512   0.02151095  0.021072622           28 
 3343000   0.71599072   -7.0783555    862.66947  0.021504374  0.021066529           17 
 3344000   0.71284632   -7.0652551    862.26235  0.021487798  0.021060435           23 
 3345000   0.71966163   -7.0688593    862.31732  0.021482743  0.021054377           70 
 3346000   0.71523837   -7.0630512    862.12763  0.021471599  0.021048314           32 
 3347000   0.72628044   -7.0789389    860.72186  0.021430183  0.021042218           25 
 3348000   0.70682094   -7.0620431    861.66152   0.02144717  0.021036128           18 
 3349000   0.72858259   -7.0499659    861.84142  0.021445243   0.02103007           25 
 3350000   0.72755689   -7.0817691    860.88955  0.021415163  0.021024007           16 
 3351000   0.71369403   -7.0640572      864.012  0.021486422  0.021017974           26 
 3352000   0.73427741   -7.0940327    862.20602  0.021435114  0.021011916           53 
 3353000   0.70675721   -7.0810832    862.85542  0.021444861  0.021005831           57 
 3354000   0.72998091   -7.0704911    861.35207  0.021401115  0.020999738           18 
 3355000   0.72565484   -7.0868036    861.84737  0.021407039  0.020993656           14 
 3356000   0.71777561   -7.0761148     862.1142  0.021407285  0.020987578           16 
 3357000   0.69520967   -7.0723329    862.51865  0.021410948  0.020981517           23 
 3358000   0.69885617   -7.0776755    862.65762  0.021408021  0.020975466           14 
 3359000   0.72306143   -7.0737774    863.27568  0.021416981    0.0209694           22 
 3360000   0.70167565    -7.068928     865.4068  0.021463462  0.020963359           29 
 3361000   0.71724724   -7.0657424    863.10726  0.021400061  0.020957326           22 
 3362000   0.70643394   -7.0867744    864.29059  0.021423027  0.020951272           22 
 3363000   0.70326746   -7.0717994    862.12815  0.021363072  0.020945199           26 
 3364000   0.72137463   -7.0839301     863.6771  0.021395093  0.020939116           19 
 3365000   0.70603188   -7.0667398    862.52747  0.021360264  0.020933059           12 
 3366000   0.70321588   -7.0740598     863.9335  0.021388728  0.020926995           13 
 3367000   0.71909188   -7.0736648    862.42323  0.021344996  0.020920937           23 
 3368000   0.71922468   -7.0735135    863.17375  0.021357229  0.020914895           27 
 3369000   0.70168635   -7.1083694    864.07297  0.021373132   0.02090882           15 
 3370000   0.71826527   -7.0815272    861.86375   0.02131216  0.020902751           39 
 3371000   0.71866289   -7.0708796    860.58163  0.021274143   0.02089667           31 
 3372000   0.71605006   -7.0836472    862.63967  0.021318695  0.020890608           41 
 3373000   0.69950227   -7.0804449    862.57178  0.021310697  0.020884534           83 
 3374000   0.72922427   -7.0854599     862.9621  0.021314022  0.020878464           56 
 3375000   0.71653555   -7.0833964    864.68589  0.021350269  0.020872408           59 
 3376000   0.70780451    -7.092534    864.46969  0.021338608  0.020866367           68 
 3377000   0.70645797    -7.088163     862.9024  0.021293614  0.020860325           99 
 3378000   0.70545352   -7.0614718    863.05067  0.021290968  0.020854283           62 
 3379000   0.71470215   -7.0883934    864.69217   0.02132515  0.020848252           57 
 3380000   0.70766061   -7.0765889    865.34313   0.02133489  0.020842248           70 
 3381000   0.71381706   -7.0748015    863.52845  0.021283852  0.020836236           75 
 3382000   0.70755412   -7.0828793    863.10241  0.021267061  0.020830231           65 
 3383000   0.70561376   -7.0786461    864.60689  0.021297835  0.020824219           76 
 3384000   0.73889565   -7.1028485    864.46086  0.021287945  0.020818201          116 
 3385000   0.72192471   -7.0878753    863.68605  0.021262581  0.020812167           97 
 3386000   0.69600951   -7.0816046     862.6939  0.021231884  0.020806151           79 
 3387000   0.71100369   -7.1117774    862.02575  0.021209176  0.020800107           98 
 3388000   0.72821024   -7.0757789    861.93451  0.021200672   0.02079408          106 
 3389000   0.71004486   -7.0938228    864.63435  0.021260803  0.020788037           64 
 3390000   0.71507221   -7.1017861    862.20748  0.021194874  0.020781988           53 
 3391000   0.70606325   -7.0859548    865.96949  0.021281075  0.020775971           47 
 3392000   0.70951512    -7.095044    862.49688  0.021189487  0.020769935           26 
 3393000   0.70599178   -7.0990002    864.67649  0.021236774   0.02076389           84 
 3394000      0.71344   -7.1059471     862.0221  0.021165343  0.020757858           42 
 3395000   0.69788857   -7.0788046    863.60516  0.021197967  0.020751855           32 
 3396000   0.70527173   -7.0946874    862.91309  0.021174742   0.02074582           23 
 3397000   0.70509114   -7.1030953    863.41029  0.021180706  0.020739791           37 
 3398000   0.70680476    -7.127266    864.85394  0.021209877  0.020733735           22 
 3399000   0.69908262   -7.0799385    864.41202  0.021192802  0.020727698           40 
 3400000   0.70412175   -7.1214006    863.74582  0.021170241  0.020721654           35 
 3401000   0.70711401   -7.0847843     863.9699  0.021169507  0.020715612           49 
 3402000   0.69995653   -7.0950376    865.75196  0.021206936  0.020709599           60 
 3403000   0.71059397   -7.0989498    865.17066  0.021186469  0.020703596           21 
 3404000   0.70163037   -7.1024736    863.64199  0.021142822  0.020697585           39 
 3405000   0.71454422   -7.1208184    865.47081  0.021181371  0.020691587           36 
 3406000   0.69537476   -7.1125148    864.88544   0.02116083  0.020685581           35 
 3407000   0.71373573   -7.1199042    863.39649    0.0211182  0.020679585           79 
 3408000   0.71196592   -7.1016119    863.78923  0.021121607  0.020673567           42 
 3409000   0.70304071   -7.1168836    864.05621  0.021121937  0.020667554           41 
 3410000   0.70259534    -7.092648    864.43317  0.021124955  0.020661559           43 
 3411000   0.71017595   -7.0841035     864.7094  0.021125511  0.020655563           58 
 3412000   0.70760494     -7.09354    865.14731  0.021130014   0.02064958           41 
 3413000   0.71805488   -7.0950797    864.85957  0.021116798  0.020643613           29 
 3414000   0.70845354   -7.0924367    865.76421  0.021132694  0.020637631           24 
 3415000   0.70923819   -7.1040829    864.99322  0.021107692  0.020631636           37 
 3416000   0.71526461   -7.1079378     865.2081  0.021106755  0.020625644           58 
 3417000   0.70963661   -7.1119931    864.72836  0.021088878   0.02061963           38 
 3418000    0.7237681   -7.0944854    865.89676  0.021111195  0.020613637           30 
 3419000   0.69753883   -7.0918946     863.2524  0.021040567  0.020607651           86 
 3420000   0.70588229   -7.1036049    863.27238  0.021034902  0.020601667           85 
 3421000   0.70005607   -7.1174738    864.01434  0.021046827  0.020595654           67 
 3422000   0.70045804   -7.1158817    864.99481  0.021064553  0.020589653           66 
 3423000   0.70172192   -7.1273218    866.44291  0.021093653  0.020583664           97 
 3424000   0.71023967   -7.0959208    865.15835  0.021056229  0.020577668           79 
 3425000   0.72103891   -7.0889249    865.66831  0.021062489  0.020571694           81 
 3426000   0.71944196   -7.0953305    864.99356  0.021039929  0.020565727           55 
 3427000   0.70379456    -7.101178    866.88364   0.02107975  0.020559761          121 
 3428000   0.70831421   -7.1027883     867.4765  0.021088013  0.020553793           86 
 3429000   0.69698287   -7.0970161     864.4071  0.021007269  0.020547828           70 
 3430000   0.71669043   -7.1122803    866.28503  0.021046769  0.020541855           54 
 3431000   0.69940237   -7.1142397    866.13816  0.021037068  0.020535867           73 
 3432000   0.70712079   -7.1172363    864.62668  0.020994238   0.02052989           71 
 3433000   0.69617967   -7.1132278    865.45762  0.021008292  0.020523914           48 
 3434000   0.69299102   -7.1054772     866.6018  0.021029941  0.020517938           65 
 3435000   0.70522004   -7.1054874      864.823  0.020980665  0.020511949           90 
 3436000   0.70992121   -7.1117518    867.06231  0.021028869  0.020505964           39 
 3437000   0.72136074   -7.0859529    865.19362  0.020977442  0.020499995           94 
 3438000     0.700375   -7.1189892    865.02818   0.02096733  0.020494027           25 
 3439000   0.69865639   -7.0932245    864.21553  0.020941541  0.020488065           22 
 3440000   0.69430595   -7.1072023    865.49416  0.020966428  0.020482086           37 
 3441000   0.71799714   -7.1189447    864.40277  0.020933904  0.020476086           43 
 3442000   0.70648016   -7.1181833    863.91298  0.020915964  0.020470099           26 
 3443000   0.68951779   -7.0978143    864.34754  0.020920407  0.020464106           32 
 3444000   0.69894474   -7.0792334    866.56016  0.020967871   0.02045815           28 
 3445000   0.70286454   -7.0977828    866.24034  0.020954048  0.020452193           34 
 3446000   0.71242527   -7.0767613    864.16322  0.020897737  0.020446237           51 
 3447000   0.70243845   -7.0870503    865.98069  0.020935613  0.020440277           59 
 3448000    0.7133707   -7.1000406    866.95487  0.020953086  0.020434302           70 
 3449000   0.70046038   -7.1314097    864.22336  0.020881013  0.020428332           47 
 3450000    0.7047358   -7.1043209    866.03566  0.020918736  0.020422361           56 
 3451000    0.7040079   -7.1176985    865.84373  0.020908039  0.020416391           43 
 3452000   0.69918675   -7.1050987    863.47386  0.020844772  0.020410405           29 
 3453000   0.69625365   -7.0757713    865.91666   0.02089769  0.020404437           45 
 3454000   0.69856284   -7.0939193    864.56011   0.02085891  0.020398459           21 
 3455000   0.69802375   -7.0935392    865.53451  0.020876375  0.020392482           44 
 3456000   0.68652656   -7.1080837    866.95046  0.020904477  0.020386505           20 
 3457000   0.70609332   -7.1117408    864.08622  0.020829385  0.020380527           13 
 3458000   0.69261879   -7.1171274    866.13581  0.020872754  0.020374542           36 
 3459000   0.69676854   -7.1060774    865.01455  0.020839707  0.020368549           66 
 3460000   0.69981079   -7.1118918    864.77089  0.020827815  0.020362557           63 
 3461000   0.68926356   -7.1056319    863.46467  0.020790346  0.020356554           35 
 3462000    0.6850538   -7.0978216    864.11848  0.020800079  0.020350571           47 
 3463000   0.70074044   -7.1036059    864.54222  0.020804269  0.020344589           52 
 3464000   0.70767571   -7.1153499    865.85982  0.020829961  0.020338588           82 
 3465000   0.71182137   -7.1151694    861.77716  0.020725761  0.020332577           34 
 3466000   0.69622271   -7.0735612    866.70701  0.020838311  0.020326584           45 
 3467000   0.70587359   -7.1344061    864.48627  0.020778922  0.020320595           19 
 3468000   0.70029267   -7.0985159    864.48895  0.020772995   0.02031459           34 
 3469000   0.69011749   -7.1146013     863.4664  0.020742443  0.020308576           24 
 3470000   0.69456449   -7.1353388    863.94324  0.020747916  0.020302557           27 
 3471000   0.69706309   -7.1020164    864.81325  0.020762827  0.020296546           24 
 3472000   0.70599421   -7.1102049    864.71585  0.020754509  0.020290547           12 
 3473000   0.69534432   -7.1309912    863.48241  0.020718937  0.020284553           17 
 3474000   0.69263791    -7.098348    864.27344  0.020731948  0.020278566           18 
 3475000   0.71811798   -7.1157986    865.39098  0.020752781  0.020272572           13 
 3476000   0.68999164   -7.0929455    864.44559  0.020724146  0.020266556           12 
 3477000   0.69984362   -7.1342671    864.43642  0.020717966  0.020260539           33 
 3478000   0.70573479   -7.1045006    865.09994  0.020727907  0.020254535           42 
 3479000   0.70714244   -7.1361733    864.21022  0.020700638  0.020248543           61 
 3480000   0.68849211   -7.1118413    864.20878  0.020694655  0.020242529           53 
 3481000   0.68700694   -7.1255291    863.68748   0.02067623  0.020236515           69 
 3482000   0.69710679   -7.1093695    863.62196  0.020668724  0.020230493           28 
 3483000   0.69892017   -7.1329404    862.65356   0.02063962  0.020224467           40 
 3484000   0.69585387   -7.1195178    864.69603   0.02068255  0.020218459           54 
 3485000   0.69786847   -7.1106966    863.54242   0.02064903  0.020212458           43 
 3486000   0.69900358   -7.1379752    864.73315  0.020671571  0.020206476           43 
 3487000   0.69563615   -7.1120704    863.26492  0.020630554  0.020200477           56 
 3488000   0.69763346   -7.1260021    864.65713  0.020657902  0.020194488           54 
 3489000   0.68191996   -7.1053777      864.947  0.020658904  0.020188507           33 
 3490000   0.70789215   -7.1202703    864.46004  0.020641357  0.020182505           35 
 3491000   0.70880815   -7.1402171    865.76186   0.02066652  0.020176506           42 
 3492000   0.70353274   -7.1072726    865.30791  0.020649769  0.020170523           21 
 3493000   0.67773482   -7.1361987    864.24241  0.020618437  0.020164527           19 
 3494000     0.717324   -7.1171286    864.21314  0.020611838  0.020158531           28 
 3495000   0.69082324   -7.1229055    864.66749  0.020616774  0.020152533           26 
 3496000   0.68635037   -7.1198318    863.82567   0.02059081  0.020146544           29 
 3497000   0.68443484    -7.098942    864.80114  0.020608168  0.020140565           33 
 3498000   0.68880579   -7.1148508    865.42836  0.020617218  0.020134587           22 
 3499000   0.69568084   -7.0939505    864.75166   0.02059521  0.020128613           21 
 3500000    0.6937211   -7.1312483    864.82037  0.020590961  0.020122634           30 
 3501000   0.68290356   -7.1254875    864.86337  0.020586103  0.020116647           29 
 3502000    0.6839621   -7.1038056    864.81006  0.020578956  0.020110659           81 
 3503000   0.68517744   -7.1355795    864.94127  0.020576203  0.020104682           46 
 3504000   0.69003023   -7.0972823    865.97203  0.020594845  0.020098703           81 
 3505000   0.68552829   -7.1613922    865.77355   0.02058425  0.020092729           64 
 3506000   0.70082161   -7.1285083    864.71397  0.020553194  0.020086753           31 
 3507000   0.69797604   -7.1372736    864.07529  0.020532157  0.020080768           39 
 3508000   0.69101557   -7.1201474    863.78199  0.020519336  0.020074798           43 
 3509000   0.68822729   -7.1525158    865.16393  0.020546308   0.02006879           34 
 3510000   0.69523913   -7.1417037    863.60091  0.020503345    0.0200628           19 
 3511000   0.70455871   -7.1165858    864.22258  0.020512261  0.020056824           14 
 3512000   0.68672105   -7.1256514    864.58237  0.020514957  0.020050855           22 
 3513000   0.69119591   -7.1182261    864.50656  0.020507319  0.020044906           14 
 3514000   0.68363129   -7.1067993    866.23385  0.020542446  0.020038952           10 
 3515000   0.68189567   -7.1190127    864.28459  0.020490388  0.020032982           10 
 3516000   0.68803298   -7.1338959    866.62014  0.020539916   0.02002704           29 
 3517000   0.68408576   -7.1097839    865.67722  0.020511734  0.020021099           10 
 3518000   0.67690727   -7.1370477    865.52529  0.020502304  0.020015144           20 
 3519000   0.68663217    -7.142597    866.79257  0.020526489  0.020009202           20 
 3520000   0.69092119   -7.1303099    864.99767  0.020478165  0.020003275           25 
 3521000   0.69656491   -7.1366909    864.93614  0.020470892  0.019997349           22 
 3522000   0.68805171   -7.1079857    867.18913  0.020518388  0.019991442           13 
 3523000   0.68536928   -7.1207136    866.41858  0.020494337  0.019985528           16 
 3524000   0.68301076   -7.1334063    867.17325  0.020506367   0.01997962           29 
 3525000   0.68290783   -7.1087408    866.03462  0.020473632  0.019973725           18 
 3526000   0.67371276   -7.1166465    866.02198  0.020467526  0.019967836           26 
 3527000   0.70142813   -7.1209747    865.13728   0.02044082  0.019961966           20 
 3528000   0.68237669   -7.1062944    865.70094   0.02044834  0.019956086           40 
 3529000   0.68854373   -7.1409371    868.04011  0.020497783  0.019950211           50 
 3530000   0.69296307   -7.1207805    865.85941  0.020440496  0.019944327           38 
 3531000   0.68389465   -7.1455209    866.61001  0.020452422  0.019938431           15 
 3532000   0.68633922   -7.1234692     866.1366  0.020435462  0.019932542           19 
 3533000   0.70114425   -7.1313267    867.49087  0.020461621  0.019926663           16 
 3534000   0.68940705   -7.1250981    868.30293  0.020474979  0.019920766           29 
 3535000   0.68975124   -7.1322462    867.60183   0.02045266  0.019914898           23 
 3536000   0.68498144   -7.1251518    866.44005  0.020419496  0.019909019           24 
 3537000   0.69677029   -7.1542481    866.22425  0.020408638  0.019903121           25 
 3538000   0.68455603   -7.1480445    867.54261  0.020433922   0.01989723           33 
 3539000    0.6841555   -7.1248538    866.83901  0.020411581  0.019891345           38 
 3540000   0.67599814   -7.1219898    867.22328  0.020414861  0.019885453           32 
 3541000   0.68735547    -7.143099     866.5387  0.020392985   0.01987956           37 
 3542000   0.69780497     -7.10822    864.97214   0.02035037  0.019873666           35 
 3543000   0.68757158    -7.143806    866.60709  0.020383081  0.019867768           44 
 3544000   0.68997882   -7.1450406    863.95002  0.020314852  0.019861861           20 
 3545000   0.68369979    -7.150185    866.98009   0.02038035  0.019855963           15 
 3546000    0.6731499   -7.1420794    865.89407   0.02034908  0.019850068           19 
 3547000   0.67410863   -7.1589523    866.83075   0.02036535  0.019844176           22 
 3548000   0.67965496   -7.1351642    868.81624  0.020406244  0.019838288           38 
 3549000   0.66827021    -7.130683    865.26383  0.020317081  0.019832414           33 
 3550000   0.68214896   -7.1387677    867.30208  0.020359204  0.019826534           78 
 3551000   0.70347714   -7.1552621    867.19565  0.020350973   0.01982064           90 
 3552000    0.6806891   -7.1515034    866.25854  0.020323258  0.019814756           59 
 3553000   0.68022841   -7.1175611    867.25826  0.020340986  0.019808872           80 
 3554000   0.68511867   -7.1486163    866.52952  0.020318175  0.019803001           29 
 3555000   0.68794834   -7.1231168    867.79732  0.020342178   0.01979713           34 
 3556000   0.69227345   -7.1646513    865.37611  0.020279718  0.019791246           24 
 3557000   0.67712264   -7.1508944    866.14766  0.020292092  0.019785364           18 
 3558000   0.68923606   -7.1278937    869.81908  0.020372379   0.01977951           25 
 3559000   0.66432594   -7.1244495    867.39563   0.02030991  0.019773651           47 
 3560000   0.69627513   -7.1212268    866.61503  0.020285932   0.01976779           29 
 3561000   0.67340926   -7.1518405    868.87726  0.020333176  0.019761919           47 
 3562000   0.68910433   -7.1177016    869.38784  0.020339412   0.01975607           71 
 3563000    0.6882725   -7.1462838    866.66734  0.020270075  0.019750209           36 
 3564000   0.68479932   -7.1260307    865.85805  0.020245465  0.019744353           72 
 3565000   0.69343278   -7.1333168    867.59308  0.020280343  0.019738501           58 
 3566000   0.69846477   -7.1379399    868.14509  0.020287556  0.019732648           60 
 3567000    0.6622341   -7.1466438    869.01267  0.020302137  0.019726802           43 
 3568000   0.68507051   -7.1708078    866.62408   0.02024066  0.019720928           62 
 3569000   0.67724758   -7.1520239    868.47688   0.02027825  0.019715069           47 
 3570000   0.68234019    -7.145242    867.76211  0.020255885  0.019709209           64 
 3571000   0.66922001   -7.1586022    867.05652  0.020233747  0.019703347           91 
 3572000   0.67214681   -7.1585435    867.75407  0.020244356  0.019697485           39 
 3573000   0.68098932   -7.1679564    867.26241  0.020227223  0.019691615           80 
 3574000   0.68232425   -7.1299046    866.30893  0.020199332   0.01968574           79 
 3575000    0.6736615    -7.148662    866.82501  0.020205711  0.019679863          102 
 3576000   0.67411699   -7.1687611    868.10358  0.020229856  0.019674002           28 
 3577000    0.6955244   -7.1276202    866.60887  0.020189378  0.019668144           50 
 3578000   0.67574608    -7.171077     866.9076  0.020190693  0.019662275          115 
 3579000   0.67669239   -7.1483887    867.59296   0.02020101    0.0196564           52 
 3580000   0.67211881   -7.1592155    866.29338  0.020165116   0.01965053           96 
 3581000   0.68395468   -7.1623882    863.81385  0.020101784  0.019644659          248 
 3582000   0.67694421   -7.1635327    867.95185   0.02019244  0.019638791           75 
 3583000   0.66721947   -7.1542345    866.61107  0.020155621  0.019632931          114 
 3584000   0.70341558   -7.1759781    867.66006  0.020174388  0.019627068          147 
 3585000    0.6697277   -7.1629883    867.11695  0.020156136  0.019621211           67 
 3586000   0.67871374   -7.1774607    866.41712  0.020134252  0.019615351           94 
 3587000   0.67417147   -7.1680793    867.55157  0.020154994  0.019609465          159 
 3588000   0.66319165   -7.1676767    866.27146  0.020119646  0.019603578          112 
 3589000    0.6773602   -7.1725703    867.34609  0.020138992  0.019597695          188 
 3590000   0.68300775   -7.1940383    866.26919  0.020108384  0.019591814          214 
 3591000    0.6800319   -7.1847254    866.77762  0.020114583  0.019585936          176 
 3592000   0.67879072    -7.164414    865.00766  0.020067921  0.019580057          239 
 3593000   0.67933845   -7.1499617    868.84921  0.020151434  0.019574173          308 
 3594000   0.67353084   -7.1449895    867.77115   0.02012083  0.019568307          238 
 3595000   0.68532824   -7.1897056    866.54217  0.020086745  0.019562418          166 
 3596000   0.68085319   -7.1686152    866.88904  0.020089197  0.019556561          302 
 3597000   0.67994961   -7.1677084     867.1831  0.020090425  0.019550702          226 
 3598000   0.67438588   -7.1580232    866.48618    0.0200687  0.019544845          157 
 3599000   0.67299884   -7.1637977    866.47174  0.020062789  0.019538987          162 
 3600000   0.67554571   -7.1467971    865.11249  0.020025752  0.019533124          184 
 3601000   0.66713804   -7.1668547    867.28177  0.020070392  0.019527261          163 
 3602000   0.67185134   -7.1759765     866.5206   0.02004721  0.019521384          254 
 3603000   0.68105444   -7.1808292    866.79514  0.020047996   0.01951551          243 
 3604000   0.69042387    -7.175018     867.7228  0.020063883  0.019509619          221 
 3605000   0.67737952   -7.1858407    866.24763  0.020024217  0.019503746          222 
 3606000   0.68577573   -7.1698427    864.22448   0.01997191  0.019497881          197 
 3607000   0.67328789   -7.1731176    868.68843  0.020069504  0.019492011          185 
 3608000   0.68435355   -7.1783113    866.24273  0.020007454  0.019486136          274 
 3609000   0.68118507   -7.1787347    867.65302  0.020034474  0.019480264          200 
 3610000   0.67223034   -7.1823734    866.41878  0.020000434  0.019474383          290 
 3611000   0.68043654   -7.1973224    866.11804  0.019987954  0.019468492          180 
 3612000   0.67303059   -7.1705497    865.78723  0.019974788  0.019462603          407 
 3613000   0.66704233   -7.1929055    865.63275  0.019965697  0.019456717          346 
 3614000   0.67618188   -7.1883824    864.84157  0.019941929  0.019450831          214 
 3615000   0.65477401   -7.1749399    865.66535  0.019955402  0.019444939          223 
 3616000   0.67023561   -7.1947416    866.07433  0.019959309   0.01943905          222 
 3617000   0.67193054   -7.1832733    865.42389  0.019938805  0.019433172          279 
 3618000   0.67459844    -7.190981    867.33843  0.019977391  0.019427278          310 
 3619000   0.67362252   -7.1771928    865.54874  0.019930661  0.019421394          277 
 3620000   0.65962166   -7.1933664    866.41904   0.01994519  0.019415528          277 
 3621000   0.66904659   -7.1891921    867.05363  0.019954286  0.019409646          236 
 3622000   0.68322001   -7.1640839    865.19305  0.019905969  0.019403778          246 
 3623000   0.67941239   -7.1633696    864.82121  0.019891922  0.019397912          332 
 3624000   0.66506207    -7.185491    865.10179  0.019892885  0.019392038          312 
 3625000   0.66769171   -7.1663532    866.94519  0.019929775  0.019386182          302 
 3626000    0.6650303    -7.182115    865.83403  0.019898741  0.019380345          312 
 3627000    0.6856009   -7.1815701    865.71237   0.01989046  0.019374508          306 
 3628000   0.67604138   -7.1550693    865.66775  0.019883952  0.019368674          366 
 3629000     0.658146   -7.1841667     864.6804    0.0198558  0.019362829          320 
 3630000   0.64793619     -7.17845    866.02926  0.019881296  0.019356995          340 
 3631000   0.66921516   -7.1630707    868.72842  0.019937768  0.019351157          315 
 3632000   0.66534641   -7.1822481    865.21785  0.019851731  0.019345319          319 
 3633000    0.6692767   -7.1916878     867.7463  0.019904264  0.019339487          327 
 3634000   0.66061757   -7.1917216    865.92281  0.019856971  0.019333654          326 
 3635000   0.66979816   -7.1961337    866.59808  0.019866989  0.019327808          418 
 3636000   0.66910365   -7.1799478     867.3404  0.019878539   0.01932198          338 
 3637000   0.68594868   -7.1874625    867.81852  0.019884028   0.01931615          436 
 3638000   0.67297161   -7.1741646      869.837  0.019924798   0.01931032          447 
 3639000   0.67141975   -7.2008543    865.51701  0.019820395   0.01930448          421 
 3640000   0.66608524   -7.2018574    866.13373  0.019829069  0.019298636          451 
 3641000   0.66888066   -7.2081315    866.70635  0.019836729  0.019292775          395 
 3642000   0.66421079   -7.2092469    864.43754  0.019779369  0.019286916          447 
 3643000   0.65779147   -7.2052323    865.86832  0.019806668  0.019281047          453 
 3644000   0.66983143   -7.2069218    865.06151  0.019782782  0.019275189          503 
 3645000   0.67105403   -7.2101202    866.34041  0.019806594   0.01926933          516 
 3646000   0.66560379   -7.2005206    865.40202  0.019779713  0.019263477          506 
 3647000   0.65606558   -7.2095026    865.45083  0.019775405  0.019257635          557 
 3648000   0.66701769   -7.2125546    865.53313  0.019771864  0.019251768          546 
 3649000   0.67228642   -7.2406552    864.62791  0.019745773  0.019245901          679 
 3650000   0.66882599   -7.2017837    866.03474  0.019772483  0.019240038          677 
 3651000   0.67364569    -7.200256    864.38208  0.019729345  0.019234181          702 
 3652000   0.67239225   -7.2062279    865.86049  0.019757678  0.019228334          757 
 3653000   0.68076004   -7.2086796    866.67276  0.019770799   0.01922248          669 
 3654000   0.67520461   -7.2043989    865.00701  0.019727399  0.019216637          693 
 3655000   0.65900504   -7.2242756    864.50248  0.019710499  0.019210777          672 
 3656000   0.69401476   -7.2086728    866.33033  0.019746771  0.019204912          670 
 3657000   0.66195276   -7.2301218    866.13773  0.019736982  0.019199066          728 
 3658000   0.67450421   -7.2255006    865.70155   0.01972165  0.019193211          695 
 3659000   0.65823552    -7.223817    865.81015  0.019718734  0.019187365          719 
 3660000   0.67071842   -7.2173897    864.85474  0.019691592  0.019181513          741 
 3661000   0.66785052   -7.1967802     863.9473  0.019665558  0.019175649          725 
 3662000   0.66537414   -7.2117164    866.26463  0.019712922  0.019169793          654 
 3663000   0.66348878   -7.2257262    865.72392  0.019695239  0.019163942          702 
 3664000    0.6726794   -7.2361959    864.06649  0.019652167  0.019158083          767 
 3665000   0.67184971   -7.2530801    865.52082  0.019679873   0.01915222          823 
 3666000   0.67592129   -7.2347503    868.32694  0.019738292  0.019146363          812 
 3667000   0.67259546   -7.2529295    864.56036  0.019647313  0.019140514          762 
 3668000   0.66824723   -7.2196834    865.58586  0.019665255  0.019134674          801 
 3669000   0.66465308    -7.224191    864.66668  0.019639018  0.019128814          769 
 3670000   0.66321565   -7.2424989    865.15997  0.019644868  0.019122967          821 
 3671000   0.67230771    -7.240588    864.52226   0.01962504  0.019117099          821 
 3672000    0.6507319   -7.2622502    865.13873  0.019633686  0.019111216          936 
 3673000   0.65571929   -7.2499698    865.92116  0.019646092   0.01910535          894 
 3674000   0.66518908   -7.2315802    865.05144  0.019621018  0.019099471          919 
 3675000    0.6639423   -7.2500391    864.10195  0.019594148  0.019093589         1005 
 3676000   0.67278659   -7.2688105    865.47702  0.019619991    0.0190877         1077 
 3677000   0.65202411   -7.2518807     861.7105  0.019529292  0.019081815         1139 
 3678000   0.65107918   -7.2233275    865.65703    0.0196134  0.019075913         1071 
 3679000   0.67158519   -7.2609493    864.00644  0.019570681  0.019070017         1241 
 3680000   0.65958665   -7.2448723    862.83081  0.019538741  0.019064108         1206 
 3681000   0.65087936    -7.267184    863.07013  0.019538851  0.019058212         1271 
 3682000   0.66425769   -7.2864645    863.32201  0.019539245  0.019052306         1283 
 3683000   0.66500144   -7.2788189    862.94699  0.019525454  0.019046405         1269 
 3684000   0.65794351   -7.2569714    862.30318  0.019505591  0.019040496         1313 
 3685000   0.67111702   -7.2388257    861.04847  0.019471924  0.019034601         1295 
 3686000   0.65391962   -7.2420744    863.78317  0.019528467  0.019028692         1256 
 3687000   0.66554827   -7.2769334    863.89326  0.019525659  0.019022771         1318 
 3688000   0.65532112   -7.2848585    863.22593  0.019505286  0.019016845         1255 
 3689000   0.67630955   -7.3051119    861.34983  0.019457618  0.019010918         1376 
 3690000   0.64548144   -7.2761228    862.10977  0.019469507  0.019004989         1329 
 3691000   0.65100553    -7.287439    862.87338  0.019481472  0.018999064         1301 
 3692000   0.64615999   -7.2932641    863.66029  0.019493957  0.018993136         1346 
 3693000   0.65692952    -7.280282    863.76539   0.01949105  0.018987214         1359 
 3694000   0.64932098   -7.2934677    862.22539  0.019451033  0.018981292         1369 
 3695000    0.6640485   -7.2920675    863.58682  0.019476473  0.018975361         1486 
 3696000   0.66041318   -7.2947483     861.1786  0.019416906  0.018969437         1401 
 3697000   0.65804359   -7.2987949    861.73852  0.019424275    0.0189635         1468 
 3698000   0.65577268   -7.2699399    862.47166  0.019435543  0.018957558         1438 
 3699000   0.66454883   -7.3140689    862.83645  0.019438507  0.018951617         1423 
 3700000   0.65492623   -7.3103249    863.72047  0.019453164  0.018945671         1434 
 3701000   0.66966579   -7.2974715    861.81327  0.019404964  0.018939724         1371 
 3702000   0.66528501   -7.3114811    861.43629  0.019391237  0.018933779         1460 
 3703000   0.66468617   -7.2887145    860.84301  0.019372649  0.018927839         1424 
 3704000   0.65959994   -7.3035723    861.96481  0.019392657  0.018921899         1502 
 3705000   0.66697791   -7.3084212    861.34488  0.019373479  0.018915954         1454 
 3706000   0.66225132   -7.2978326    862.45029  0.019393108  0.018910018         1491 
 3707000   0.66276963   -7.3096494    861.27335  0.019361419  0.018904089         1495 
 3708000   0.66425772   -7.3197022    860.94677  0.019348858  0.018898144         1579 
 3709000   0.65947537   -7.3086052    860.81707  0.019340727  0.018892208         1573 
 3710000   0.66282882   -7.3130383    862.62797   0.01937619   0.01888628         1555 
 3711000   0.64881863   -7.3017269    860.85191  0.019331086  0.018880351         1574 
 3712000   0.66485659   -7.3202782    861.44508  0.019339194  0.018874409         1626 
 3713000   0.67112106   -7.3121035    861.04381   0.01932498  0.018868466         1611 
 3714000   0.65438462   -7.3074416    862.22363  0.019346249  0.018862537         1584 
 3715000   0.67764449   -7.3307031    861.94881  0.019334877  0.018856587         1681 
 3716000    0.6632603   -7.3316491    860.87259  0.019305539  0.018850638         1665 
 3717000   0.66523897   -7.3355495     860.5733  0.019293635  0.018844684         1708 
 3718000   0.65181016   -7.3192164    861.33214  0.019305454  0.018838741         1775 
 3719000   0.65714393   -7.3256888    862.09991  0.019317467  0.018832795         1693 
 3720000    0.6597474   -7.3467787    860.30491  0.019272063  0.018826842         1737 
 3721000   0.65811832   -7.3156332    860.06755  0.019261568  0.018820892         1727 
 3722000   0.64510841   -7.3239132    860.35127  0.019262746  0.018814948         1723 
 3723000   0.66336161   -7.3562963    861.38426  0.019280693   0.01880901         1741 
 3724000    0.6579633   -7.3141268    861.26349  0.019272814   0.01880307         1873 
 3725000    0.6339428   -7.3214197    860.98422  0.019261392  0.018797128         1810 
 3726000   0.64880832   -7.3321757    861.18171  0.019260639  0.018791186         1801 
 3727000   0.65350746    -7.333445    858.95652  0.019205718  0.018785236         1821 
 3728000   0.63813208   -7.3337423    861.16668  0.019249971  0.018779281         1758 
 3729000   0.64429167   -7.3338479    860.47969  0.019229456  0.018773332         1759 
 3730000   0.66095131   -7.3374312    860.01583  0.019213937   0.01876738         1839 
 3731000   0.64363403   -7.3389683     859.0622  0.019187488  0.018761419         1897 
 3732000   0.66583547    -7.342098    861.82386  0.019244013  0.018755453         1825 
 3733000   0.65230997   -7.3346618    860.84363  0.019216975  0.018749479         1907 
 3734000   0.65348112   -7.3618965    859.84753  0.019189598  0.018743513         1927 
 3735000    0.6613496   -7.3375751      858.612  0.019156894  0.018737535         1893 
 3736000   0.66688349   -7.3458406    859.78851  0.019178009  0.018731563         1961 
 3737000   0.64865292    -7.346047    858.59983   0.01914637  0.018725584         1979 
 3738000   0.65407936   -7.3526738    860.48748  0.019183331  0.018719608         2024 
 3739000   0.67290285   -7.3493829    859.15454  0.019148492  0.018713623         1964 
 3740000   0.65355123   -7.3445513    858.23242  0.019122826   0.01870765         2054 
 3741000   0.66687424   -7.3631433    858.07733  0.019114259   0.01870166         2071 
 3742000   0.66375429    -7.356259    857.80866  0.019103168  0.018695663         2068 
 3743000   0.65128016   -7.3761458    859.33774  0.019132107  0.018689672         2175 
 3744000   0.64732354   -7.3582478    858.44151  0.019107049  0.018683678         2178 
 3745000   0.64859743   -7.3676953    858.56608  0.019104719  0.018677685         2174 
 3746000   0.65662619   -7.3729814    858.76235  0.019103985  0.018671689         2159 
 3747000   0.65727402   -7.3606484    858.84468  0.019100718  0.018665711         2162 
 3748000   0.65067573   -7.3675039    859.58893  0.019112169  0.018659724         2172 
 3749000   0.65099752   -7.3794451    858.85139  0.019090677  0.018653748         2174 
 3750000   0.64671543   -7.3463599    858.59397  0.019079866  0.018647768         2220 
 3751000   0.66722261    -7.372507    858.17503  0.019065472  0.018641772         2288 
 3752000   0.65982452   -7.3660433    856.61872  0.019025824  0.018635778         2319 
 3753000   0.63781064   -7.3879572    858.08503  0.019053313  0.018629788         2319 
 3754000   0.64302468   -7.3717951    859.13273  0.019071496  0.018623791         2337 
 3755000   0.64576384   -7.3768032    859.46057  0.019073692   0.01861781         2225 
 3756000   0.66950723   -7.3782511    858.75604  0.019052983  0.018611827         2347 
 3757000   0.64500982   -7.3946176    857.34179  0.019016542  0.018605832         2283 
 3758000   0.65911626   -7.3744249    858.36853   0.01903425  0.018599833         2314 
 3759000   0.64374424   -7.3777243    857.20037  0.019003289  0.018593836         2381 
 3760000   0.65683262     -7.39967    858.49627  0.019026956  0.018587833         2408 
 3761000   0.64725148   -7.4111586    857.48893  0.018999577  0.018581817         2419 
 3762000   0.64238891    -7.380473    856.46436  0.018971831  0.018575814         2406 
 3763000   0.64747027   -7.3848679    857.99142  0.019000607   0.01856982         2420 
 3764000   0.63932919   -7.4055295    856.67439  0.018966401  0.018563811         2412 
 3765000   0.65434036   -7.3910666    858.00188  0.018990746  0.018557801         2472 
 3766000   0.65072871   -7.4280715    856.58908  0.018954441  0.018551789         2412 
 3767000   0.63707608   -7.3954607    857.61584  0.018972123  0.018545778         2299 
 3768000   0.65416837   -7.3704118    856.90211  0.018951303  0.018539775         2322 
 3769000   0.65819024   -7.3980078    857.27606  0.018954543  0.018533774         2387 
 3770000   0.64169721   -7.4092965    857.08854   0.01894537  0.018527767         2496 
 3771000   0.64692795   -7.3949311    856.23646  0.018921516  0.018521755         2406 
 3772000   0.64455157   -7.4276059    857.21267  0.018938067  0.018515742         2437 
 3773000   0.64539132   -7.4125364    857.09128  0.018930367  0.018509738         2472 
 3774000   0.64189141   -7.4081839    856.68003   0.01891627  0.018503726         2447 
 3775000   0.65635125   -7.3905987    856.37499  0.018904525  0.018497718         2389 
 3776000   0.67265469   -7.4171076    855.38188  0.018877601  0.018491726         2377 
 3777000   0.64334875   -7.4110869    856.16719   0.01888993  0.018485728         2448 
 3778000   0.63283444   -7.3994313    857.24681  0.018908744  0.018479725         2498 
 3779000   0.64664544   -7.4222596    856.94211  0.018897021  0.018473723         2483 
 3780000   0.64403346   -7.4248849     856.5269  0.018882868  0.018467723         2461 
 3781000   0.63946186   -7.4077177    855.45529  0.018854256  0.018461725         2482 
 3782000    0.6530292   -7.3943403    855.50844  0.018850441  0.018455724         2462 
 3783000    0.6324102   -7.4302545    857.24792  0.018883777  0.018449729         2470 
 3784000   0.63744115   -7.4290204    857.46612  0.018883591  0.018443731         2578 
 3785000   0.66306811    -7.435802    855.92957  0.018844772  0.018437745         2555 
 3786000   0.64214994   -7.3946123    856.49931  0.018852336  0.018431754         2418 
 3787000   0.65443104   -7.4222036    857.17161  0.018862151  0.018425767         2418 
 3788000   0.64400665    -7.434692    854.94881  0.018808272  0.018419775         2550 
 3789000   0.64496912   -7.4205146    856.34374  0.018833987  0.018413777         2555 
 3790000   0.63346193   -7.4217882    854.88757     0.018797  0.018407776         2530 
 3791000     0.647892   -7.4020822    856.78675  0.018833789   0.01840179         2537 
 3792000   0.65449426   -7.4110113     857.4427  0.018843238  0.018395811         2439 
 3793000   0.63957131    -7.425772    856.68042  0.018821522   0.01838983         2535 
 3794000   0.64264344   -7.4268229    858.07772  0.018847253  0.018383854         2534 
 3795000   0.64689225   -7.4183372    856.67188  0.018811416  0.018377866         2578 
 3796000    0.6441421    -7.438056    855.58464  0.018782592  0.018371882         2512 
 3797000   0.65083354   -7.4138453    856.14389   0.01878992  0.018365904         2560 
 3798000    0.6454253   -7.4373012    856.97712  0.018803254  0.018359928         2569 
 3799000   0.64603599   -7.4243341    857.54591  0.018810782  0.018353944         2544 
 3800000   0.63742465   -7.4276003    857.57415  0.018806451  0.018347962         2491 
 3801000   0.63946673   -7.4397276    857.01502  0.018789244  0.018341985         2504 
 3802000    0.6476567   -7.4375027    857.44936  0.018793823     0.018336         2559 
 3803000   0.63617576   -7.4357985    855.82593  0.018753307  0.018330027         2566 
 3804000   0.63445944   -7.4513791    857.71475  0.018789755  0.018324051         2498 
 3805000   0.64635318   -7.4290015    855.23229  0.018730449   0.01831807         2595 
 3806000   0.65049354    -7.440252    854.88382  0.018717898  0.018312095         2527 
 3807000   0.63744931    -7.432669    855.74439  0.018731818  0.018306101         2521 
 3808000   0.65734486   -7.4123678    855.96863  0.018731807  0.018300122         2504 
 3809000   0.63284841   -7.4149976    855.10485  0.018707991   0.01829414         2561 
 3810000   0.64352355   -7.4463547    855.95895  0.018721762  0.018288171         2498 
 3811000   0.63434701    -7.436981    856.85474  0.018736437  0.018282197         2527 
 3812000   0.63974747   -7.4473993    855.99621  0.018712754  0.018276215         2605 
 3813000   0.63410957   -7.4331673    854.57982  0.018676891  0.018270234         2519 
 3814000   0.65207978   -7.4554954    857.41647  0.018733973  0.018264254         2625 
 3815000    0.6348791   -7.4309192    854.73384  0.018670464   0.01825828         2619 
 3816000   0.65788049   -7.4275077    856.16416  0.018696806  0.018252312         2614 
 3817000   0.63406087   -7.4396073    855.92597  0.018686708  0.018246336         2578 
 3818000   0.64365337   -7.4197728    856.08533  0.018685292  0.018240354         2524 
 3819000   0.63925353   -7.4347423    856.28153   0.01868468  0.018234383         2600 
 3820000     0.646938   -7.4374314    853.59668  0.018621219  0.018228412         2632 
 3821000   0.65327494   -7.4521887    855.18011  0.018650879  0.018222452         2549 
 3822000   0.63379464   -7.4447908    856.49335  0.018674633  0.018216482         2568 
 3823000   0.64122728   -7.4194533    856.82223  0.018676917  0.018210518         2637 
 3824000   0.63246883   -7.4433174    854.90565  0.018630266  0.018204556         2619 
 3825000     0.642022   -7.4295273    857.00171  0.018671061  0.018198598         2630 
 3826000   0.64211949   -7.4365044    855.28081  0.018628699  0.018192639         2545 
 3827000    0.6486919   -7.4595798    855.11536  0.018620228  0.018186675         2583 
 3828000   0.64081727   -7.4510308    854.62631  0.018604718  0.018180713         2718 
 3829000   0.64063217   -7.4461467     854.1824  0.018590198  0.018174747         2683 
 3830000   0.65590161   -7.4524144    853.66119  0.018574003  0.018168784         2704 
 3831000   0.62146567   -7.4319797    855.32135  0.018605267  0.018162819         2690 
 3832000   0.63472934   -7.4621799    856.21468  0.018619839  0.018156863         2700 
 3833000   0.64291912   -7.4629394    855.38144  0.018596866  0.018150904         2717 
 3834000   0.64045916   -7.4460452     855.2016  0.018588107  0.018144958         2700 
 3835000   0.63384102   -7.4554817    854.80409  0.018574622  0.018139008         2668 
 3836000   0.62927593   -7.4607934     855.5831  0.018586703  0.018133056         2747 
 3837000   0.63885372   -7.4475052    855.31633  0.018576065  0.018127109         2669 
 3838000   0.62455405   -7.4535278    856.75331  0.018602425  0.018121165         2634 
 3839000   0.64077132   -7.4665259    855.34676  0.018567048  0.018115222         2709 
 3840000   0.63580573   -7.4698429     856.6388  0.018590252  0.018109285         2710 
 3841000   0.62884847   -7.4642959    853.85753   0.01852507  0.018103335         2763 
 3842000    0.6358572   -7.4653921    855.97879  0.018566259  0.018097385         2755 
 3843000   0.64138636   -7.4529081    855.44801  0.018549918  0.018091433         2734 
 3844000   0.62995996   -7.4507865    853.14539  0.018495174  0.018085485         2752 
 3845000   0.63090954   -7.4629492    854.56494   0.01852113  0.018079536         2769 
 3846000   0.63920683   -7.4544789     854.7136  0.018519535  0.018073589         2780 
 3847000   0.64195114   -7.4703219    855.76718  0.018537544  0.018067647         2718 
 3848000   0.64571449   -7.4566402    854.26269  0.018500145  0.018061712         2736 
 3849000   0.64165728   -7.4592905    854.50079  0.018500493  0.018055775         2753 
 3850000   0.63000628   -7.4633648    854.89773   0.01850428  0.018049828         2736 
 3851000   0.64407148   -7.4501478    855.32399  0.018508699   0.01804389         2724 
 3852000   0.63059754   -7.4723234    853.93969  0.018473946  0.018037954         2755 
 3853000   0.61788824   -7.4590122    853.87765   0.01846781  0.018032016         2826 
 3854000   0.64297325   -7.4384377    854.84507  0.018483936  0.018026077         2792 
 3855000   0.62914609   -7.4666796    853.03413  0.018439994  0.018020134         2786 
 3856000   0.62794949   -7.4944259    855.38179  0.018485948  0.018014186         2759 
 3857000   0.62763154    -7.485258     854.8813  0.018470342  0.018008243         2787 
 3858000   0.62528235   -7.4794735    852.75192  0.018419559  0.018002301         2806 
 3859000   0.62927534   -7.4772276    853.91203  0.018439838   0.01799636         2793 
 3860000   0.64257726    -7.479061    853.40204  0.018424051  0.017990416         2846 
 3861000   0.65195106   -7.4855545    853.73335   0.01842643  0.017984483         2777 
 3862000   0.63956965   -7.4796544    855.89375  0.018468275  0.017978538         2824 
 3863000   0.64923943   -7.4734164    853.86981  0.018419834  0.017972605         2851 
 3864000   0.64148154   -7.4902489    854.04035  0.018418745  0.017966677         2889 
 3865000   0.63579581   -7.4797175     852.3463  0.018377454  0.017960739         2915 
 3866000   0.62965264    -7.476865    853.58433  0.018399386  0.017954808         2885 
 3867000   0.61580698      -7.4845    854.22699  0.018408477  0.017948881         3003 
 3868000   0.64728725   -7.4901591    855.00432  0.018420465  0.017942955         2907 
 3869000   0.63416337   -7.4710033    853.66979   0.01838696  0.017937038         2966 
 3870000   0.63523566   -7.4712947    853.32183  0.018374716   0.01793111         2896 
 3871000   0.62397397   -7.4995109    854.83879  0.018402626   0.01792519         2902 
 3872000   0.62653968   -7.4838218     856.3707  0.018430843  0.017919272         2916 
 3873000   0.63341067   -7.4794839     855.1255  0.018399292  0.017913346         2940 
 3874000   0.62234608   -7.5009785    852.94013  0.018347533  0.017907419         2968 
 3875000   0.64440055     -7.47266     854.9331  0.018385658  0.017901502         2934 
 3876000   0.62738165   -7.4991625    855.39474   0.01839084  0.017895581         2876 
 3877000   0.63308784   -7.4973017    852.93907  0.018333313  0.017889662         2892 
 3878000   0.63959029   -7.4969856    855.05335  0.018374019  0.017883741         2864 
 3879000   0.62926098    -7.499269    854.89093  0.018365793  0.017877822         2886 
 3880000   0.62123671   -7.4913436    855.13127  0.018366221  0.017871895         2882 
 3881000   0.63063913   -7.4862693    853.02447  0.018316252  0.017865973         2968 
 3882000   0.63430662   -7.4947711    854.77365  0.018349082  0.017860048         2936 
 3883000   0.63627427   -7.4965924    852.88273  0.018303776  0.017854129         2952 
 3884000    0.6298834   -7.4817271    852.73416  0.018295875  0.017848214         2962 
 3885000   0.63332123   -7.4879552    853.83689   0.01831482  0.017842296         2905 
 3886000   0.63441732   -7.5082658    853.26217  0.018297782  0.017836385         2902 
 3887000   0.63869196   -7.4879315    853.77257  0.018304017  0.017830482         2940 
 3888000   0.63282099   -7.4916874    852.78788  0.018278204   0.01782457         2946 
 3889000   0.63006958   -7.4978734    854.05046  0.018300558  0.017818657         2907 
 3890000   0.63498306   -7.5040018    852.68963  0.018266702  0.017812753         2949 
 3891000   0.62306574   -7.4895401    853.99052  0.018289868  0.017806841         3007 
 3892000   0.64376262   -7.4950441    852.69354  0.018257399  0.017800933         2936 
 3893000   0.63380836   -7.5038091    851.97367  0.018237299  0.017795026         2988 
 3894000   0.62675163   -7.4995417    852.38723  0.018241466  0.017789126         3071 
 3895000   0.63918176   -7.5174781    853.78718  0.018266735  0.017783223         2972 
 3896000   0.62250659   -7.5114065    853.47063  0.018255275   0.01777733         3026 
 3897000   0.63034897    -7.494455    852.08507  0.018220962  0.017771432         3032 
 3898000   0.63835638   -7.4956172    852.51769  0.018225536  0.017765534         3041 
 3899000   0.62124292   -7.5107512     852.8175   0.01822727  0.017759635         2989 
 3900000    0.6144397   -7.4860055    853.48323  0.018236821  0.017753739         2989 
 3901000   0.61729094   -7.4911887    853.94329  0.018241974  0.017747846         3118 
 3902000   0.62809051   -7.4986042    853.27209  0.018222964  0.017741947         3100 
 3903000   0.63205504   -7.4889579    850.72507  0.018163914  0.017736048         3102 
 3904000   0.62236599   -7.5074714    853.07839  0.018209494  0.017730148         3087 
 3905000   0.63521725   -7.5250075     853.7762  0.018219723  0.017724243         3138 
 3906000   0.62162503   -7.5105068      851.596  0.018168544  0.017718343         3136 
 3907000   0.63154809   -7.5402831    854.23982  0.018220284  0.017712447         3145 
 3908000   0.63411168   -7.5078242    853.50012  0.018199849  0.017706553         3076 
 3909000   0.63050434   -7.5139583    852.24411  0.018168417  0.017700656         3133 
 3910000    0.6281495   -7.5057791    850.47254  0.018126013  0.017694752         3102 
 3911000   0.62462882   -7.5300901    852.18026  0.018157766  0.017688859         3121 
 3912000   0.63761667   -7.5075811    853.45735  0.018180329  0.017682961         3117 
 3913000   0.61375619   -7.5399179    851.18843  0.018127363  0.017677068         3121 
 3914000   0.61752389   -7.5149875    852.56209  0.018151978  0.017671171         3179 
 3915000   0.64166864   -7.5206267    852.79161  0.018152227  0.017665278         3198 
 3916000   0.62365468   -7.5100671    852.69532  0.018145542  0.017659384         3132 
 3917000   0.61716255   -7.5171851     851.9405  0.018124851  0.017653488         3184 
 3918000   0.63016239   -7.5164892    851.44262  0.018109635  0.017647592         3223 
 3919000    0.6166213   -7.5295872    852.05362  0.018118007  0.017641713         3094 
 3920000   0.63709014   -7.5283188    850.35595  0.018077295  0.017635821         3133 
 3921000   0.62513595   -7.4942351    851.01434  0.018086677  0.017629936         3180 
 3922000   0.62527562   -7.5275546    852.91181  0.018122382  0.017624048         3167 
 3923000   0.61790911   -7.5405413    852.68912  0.018113033   0.01761817         3130 
 3924000   0.61710541   -7.5226018    852.28995   0.01809994  0.017612293         3100 
 3925000   0.62398606   -7.5393704    851.38526   0.01807612  0.017606416         3138 
 3926000   0.61265572   -7.5261536    852.61661  0.018097653  0.017600536         3186 
 3927000   0.60926145    -7.515194    852.18529  0.018083891  0.017594656         3146 
 3928000   0.61647404   -7.5186155    849.37077  0.018019577  0.017588783         3196 
 3929000   0.62446864   -7.5373398    852.32851  0.018077724  0.017582906         3175 
 3930000   0.62997817   -7.5390018    851.47165  0.018054954  0.017577029         3231 
 3931000   0.63031283   -7.5544882     851.1356  0.018043238   0.01757115         3211 
 3932000   0.61915873    -7.536862    851.71285  0.018050883  0.017565283         3214 
 3933000   0.61962779   -7.5472883     850.8474  0.018027956  0.017559407         3199 
 3934000   0.62812372   -7.5259594    850.57272  0.018017555  0.017553535         3206 
 3935000    0.6279243   -7.5468872    851.72945  0.018037472  0.017547657         3210 
 3936000   0.60508829   -7.5383928    852.52194  0.018049668  0.017541783         3228 
 3937000   0.62024833   -7.5476797    852.24978  0.018039323  0.017535906         3264 
 3938000   0.62747117   -7.5547401    851.70315  0.018023175  0.017530023         3244 
 3939000   0.63402294   -7.5465321    849.66213   0.01797542  0.017524147         3179 
 3940000   0.60762639   -7.5287833    851.23915  0.018004212  0.017518284         3189 
 3941000   0.62061396   -7.5480172    850.29706  0.017979723  0.017512413         3180 
 3942000   0.61691633   -7.5418694    849.85999  0.017965922   0.01750655         3177 
 3943000     0.615518   -7.5388248    848.59908  0.017934717  0.017500686         3162 
 3944000    0.6338523   -7.5522455    852.03953  0.018002864  0.017494824         3226 
 3945000   0.61780951   -7.5512038    849.86513  0.017952369  0.017488966         3180 
 3946000   0.61973364    -7.538437    850.16563  0.017954165  0.017483104         3233 
 3947000   0.61987272   -7.5430876    850.43636  0.017955332  0.017477241         3162 
 3948000    0.6182666   -7.5447138    851.40791  0.017971292  0.017471386         3279 
 3949000   0.63273391   -7.5422241    851.20383  0.017962434  0.017465535         3213 
 3950000    0.6225148   -7.5403526    849.27102   0.01791711  0.017459679         3229 
 3951000   0.62581874   -7.5415304    850.26058  0.017933447  0.017453823         3206 
 3952000   0.61658749   -7.5456576    850.93716  0.017943176  0.017447968         3151 
 3953000   0.62415072   -7.5635199     851.8478  0.017957834  0.017442124         3211 
 3954000   0.61332362   -7.5520587    851.06906   0.01793688  0.017436289         3198 
 3955000   0.64178294   -7.5338818    853.61291  0.017985944  0.017430452         3163 
 3956000   0.62112497   -7.5520425    850.23578  0.017910258  0.017424614         3191 
 3957000   0.62789012   -7.5515793    851.34285  0.017929047  0.017418769         3201 
 3958000   0.62651928    -7.571277    851.99691  0.017938288  0.017412928         3263 
 3959000   0.62344529   -7.5558562    851.28111   0.01791869  0.017407095         3271 
 3960000    0.6218092   -7.5571516    852.28546    0.0179353  0.017401262         3240 
 3961000   0.62386868   -7.5512141    851.40332  0.017912213   0.01739542         3329 
 3962000   0.60773614   -7.5551278     849.9932  0.017878033  0.017389587         3224 
 3963000   0.61655595   -7.5578336    850.55126  0.017885257  0.017383756         3287 
 3964000   0.61515123   -7.5677369    851.92635  0.017909653  0.017377923         3284 
 3965000   0.61902308   -7.5642004    849.88318  0.017862194  0.017372089         3256 
 3966000    0.6292696   -7.5664386    851.55513  0.017892821  0.017366264         3277 
 3967000   0.61643899   -7.5493478    850.34837  0.017862961  0.017360434         3232 
 3968000   0.61576652    -7.559834    851.38613  0.017880253  0.017354604         3323 
 3969000   0.61473967   -7.5760681    852.41857  0.017897425  0.017348773         3269 
 3970000   0.62400187   -7.5641347    852.30876  0.017890612  0.017342948         3267 
 3971000   0.62001335   -7.5655478    849.76978  0.017832825  0.017337125         3293 
 3972000    0.6173949   -7.5628391    851.39346  0.017862401  0.017331309         3249 
 3973000   0.60897716     -7.58537    851.71802  0.017864712  0.017325493         3292 
 3974000   0.61497163   -7.5823236    851.35698  0.017852646  0.017319668         3273 
 3975000   0.61388616   -7.5822258    851.68201  0.017854969  0.017313843         3288 
 3976000    0.6120275   -7.5818168    851.08766  0.017838021  0.017308016         3228 
 3977000   0.61510352   -7.5693526    849.47299  0.017799702  0.017302186         3281 
 3978000   0.60310905   -7.5820568    850.13925  0.017809185  0.017296364         3263 
 3979000   0.62018511   -7.5752042    850.16305  0.017805208  0.017290541         3317 
 3980000   0.62319049   -7.5721031    851.60889  0.017831007  0.017284728         3224 
 3981000   0.60086561   -7.5750985    851.56277  0.017825562  0.017278922         3273 
 3982000   0.61009771   -7.5666084    850.87461  0.017806685  0.017273107         3227 
 3983000    0.6096679   -7.5551894    849.26532  0.017768544  0.017267292         3282 
 3984000   0.62005282   -7.5671619    849.71494  0.017773489  0.017261475         3306 
 3985000   0.62536843    -7.571496    852.14624  0.017819871  0.017255671         3278 
 3986000   0.61738156   -7.5536303    850.30064  0.017776816  0.017249866         3264 
 3987000    0.6028764   -7.5606561    850.34292  0.017773241  0.017244061         3293 
 3988000   0.61363353   -7.5664188    849.36875  0.017748428  0.017238256         3216 
 3989000   0.60990561   -7.5758745    849.51154  0.017746961  0.017232453         3196 
 3990000   0.61339071   -7.5701003     851.2047  0.017777876  0.017226647         3189 
 3991000   0.60294888   -7.5729926    849.16573  0.017730847  0.017220853         3314 
 3992000   0.60509277   -7.5788417    849.73028  0.017738191  0.017215053         3264 
 3993000   0.59873559   -7.5757995    850.23147  0.017744208  0.017209261         3209 
 3994000   0.62272486   -7.5766481    850.12385   0.01773752  0.017203468         3311 
 3995000   0.62646332   -7.5818776    849.81502  0.017726638  0.017197677         3286 
 3996000   0.62277976   -7.5683682    848.93382  0.017703825  0.017191888         3304 
 3997000   0.60553504   -7.5915973    849.74126   0.01771623  0.017186099         3308 
 3998000   0.60441031   -7.5618999    848.69257   0.01768994   0.01718031         3297 
 3999000   0.60542472   -7.5744225    850.43852    0.0177219   0.01717453         3280 
 4000000   0.60622211   -7.5494609    850.19886  0.017712476  0.017168752         3250 
 4001000   0.60415267   -7.5595368    850.54677  0.017715296  0.017162973         3283 
 4002000   0.59976767   -7.5660013    849.92959  0.017698018  0.017157192         3248 
 4003000   0.61060525   -7.5833676    848.76624  0.017669378  0.017151409         3307 
 4004000   0.61653666   -7.5629371    850.19693  0.017694741  0.017145636         3275 
 4005000   0.61692277   -7.5830637     851.0431   0.01770793  0.017139864         3252 
 4006000   0.61162564   -7.5994362    849.57582  0.017672987  0.017134095         3304 
 4007000   0.59480183   -7.5654027     849.7394  0.017671978  0.017128324         3223 
 4008000   0.60944043   -7.5752568    850.07463  0.017674539   0.01712256         3227 
 4009000   0.61110725   -7.5747032     849.8911  0.017666315  0.017116797         3200 
 4010000   0.59840052   -7.5811585    850.16612  0.017667625  0.017111027         3212 
 4011000   0.60466615   -7.5655085    849.39488  0.017647197  0.017105267         3232 
 4012000    0.6208234   -7.5752627    847.65508  0.017606661   0.01709951         3274 
 4013000   0.61247199   -7.5995954     848.8026  0.017626103  0.017093749         3278 
 4014000   0.62087296   -7.5721692    850.16527  0.017650001  0.017087993         3307 
 4015000   0.61393061   -7.5888574     848.5847    0.0176128  0.017082233         3305 
 4016000   0.60805058   -7.5648821    850.08722  0.017639592  0.017076479         3267 
 4017000   0.61596894   -7.5968364    850.63812  0.017646629  0.017070727         3315 
 4018000    0.6075166   -7.5825479    850.60784  0.017641609  0.017064974         3276 
 4019000   0.60495125   -7.5838915    850.11679  0.017627038  0.017059222         3279 
 4020000   0.61944758   -7.5728833    849.34177  0.017606587  0.017053477         3251 
 4021000   0.58856368   -7.5904321    847.60072  0.017566126  0.017047727         3246 
 4022000   0.59998922   -7.5913378    850.11882  0.017613932  0.017041978         3209 
 4023000   0.61649156   -7.5791158    848.41737   0.01757431  0.017036241         3261 
 4024000   0.61019255   -7.5761259    849.59903  0.017594413  0.017030501         3257 
 4025000   0.60720161   -7.5929371     849.8923  0.017596114  0.017024761         3309 
 4026000   0.60943677   -7.5962548    849.45525  0.017582697  0.017019017         3338 
 4027000   0.61226343   -7.5938793    849.42161  0.017577634  0.017013273         3286 
 4028000   0.61113341   -7.5659921    848.57178  0.017555689  0.017007533         3298 
 4029000   0.61459514   -7.5754651    849.49313  0.017570388  0.017001798         3308 
 4030000   0.61014955   -7.5838224    849.14582  0.017558847  0.016996065         3319 
 4031000   0.60278164   -7.5835198    851.59947  0.017605215  0.016990331         3268 
 4032000   0.59693993   -7.6063552    849.73827  0.017562382  0.016984597         3319 
 4033000   0.60426796   -7.6036485    847.81668  0.017518321  0.016978858         3265 
 4034000   0.60940539   -7.5974678    848.42612  0.017526568  0.016973127         3357 
 4035000   0.60502771   -7.5790559    849.33589  0.017541014  0.016967399         3315 
 4036000   0.59293593   -7.5984829    848.25056  0.017514258  0.016961666         3231 
 4037000   0.61377495   -7.6068639    850.07494   0.01754758  0.016955944         3285 
 4038000   0.59350397   -7.5758273    848.82953  0.017517532   0.01695022         3303 
 4039000    0.6156373   -7.5819135    848.11536   0.01749846  0.016944499         3328 
 4040000   0.61224904   -7.6014003    849.76083   0.01752807  0.016938778         3305 
 4041000   0.60598084   -7.5707339    849.71989  0.017522888  0.016933054         3296 
 4042000   0.61535466   -7.5917816    849.45013  0.017512991  0.016927335         3313 
 4043000    0.6074334   -7.6050565    849.83278  0.017516547  0.016921619         3311 
 4044000   0.60424766   -7.6111816    850.00423  0.017515748  0.016915906         3277 
 4045000   0.59630016   -7.6144232     849.1165  0.017493129  0.016910195         3375 
 4046000   0.58707234   -7.6053601    848.35693  0.017473161  0.016904481         3343 
 4047000   0.61214606   -7.5973031     848.9643   0.01748135  0.016898769         3290 
 4048000   0.60108323    -7.599756    848.44573  0.017466357  0.016893067         3321 
 4049000   0.59424224   -7.6009162    849.91677  0.017492318   0.01688737         3330 
 4050000   0.59997389   -7.6064139    848.27433  0.017454204  0.016881668         3351 
 4051000    0.6045465   -7.5951227    849.33869  0.017471791  0.016875968         3313 
 4052000   0.60262528   -7.5943751    849.77618  0.017476476   0.01687027         3334 
 4053000   0.61450488   -7.5819324    849.89279  0.017474562  0.016864579         3368 
 4054000   0.60785135   -7.6034385    850.26969  0.017477999  0.016858895         3328 
 4055000   0.59070937   -7.5911027     850.6923  0.017482374  0.016853204         3287 
 4056000   0.59456672   -7.6087101    850.19135  0.017467771  0.016847521         3281 
 4057000   0.60715189   -7.5975995    848.35924  0.017425833  0.016841834         3287 
 4058000   0.60022698   -7.5839994    850.13903  0.017458087  0.016836153         3266 
 4059000   0.59563905   -7.5911481    848.76452  0.017425567  0.016830481         3271 
 4060000   0.61308194   -7.5959502    849.36288  0.017433557  0.016824808         3314 
 4061000   0.59296453   -7.5962473    849.02929  0.017422418  0.016819141         3300 
 4062000   0.59849444    -7.601083    849.75605  0.017433039  0.016813468         3315 
 4063000   0.61162602   -7.6279378    850.36502  0.017441238  0.016807799         3328 
 4064000   0.60818097   -7.6028378    848.40984  0.017396855  0.016802126         3239 
 4065000   0.60873813   -7.5903754     848.8197  0.017400978  0.016796458         3288 
 4066000   0.59269581   -7.5906511     849.8216  0.017417232  0.016790794         3297 
 4067000    0.5866152   -7.6030578    849.64478  0.017409327  0.016785132         3291 
 4068000    0.5914898   -7.5788153    848.61669  0.017383987  0.016779469         3312 
 4069000   0.60625085   -7.6129207    850.42339  0.017416716  0.016773812         3298 
 4070000   0.59175347   -7.6196049    848.41364  0.017371287   0.01676815         3336 
 4071000   0.60220376   -7.6057901    850.19725   0.01740353  0.016762496         3302 
 4072000   0.59317576    -7.596479    848.02194  0.017354738  0.016756842         3322 
 4073000   0.60712489   -7.6063249     849.9627  0.017390185  0.016751192         3275 
 4074000   0.59609901   -7.6131355    850.21422  0.017391062  0.016745536         3334 
 4075000   0.59548513   -7.5861008    850.00846  0.017382586  0.016739888         3249 
 4076000   0.59002814   -7.6258596    846.89467   0.01731466  0.016734237         3289 
 4077000   0.58012128     -7.59799    847.72108  0.017327305  0.016728585         3304 
 4078000   0.60291592   -7.5981447    848.96218  0.017348418  0.016722946         3318 
 4079000   0.59310396   -7.6053961    850.23891  0.017370248  0.016717308         3286 
 4080000   0.59714462   -7.6076294    848.00961  0.017320458  0.016711679         3317 
 4081000   0.60025919   -7.6136432    849.63546  0.017349413  0.016706039         3350 
 4082000   0.58291425   -7.6074137    849.64441  0.017345346  0.016700404         3276 
 4083000   0.58908601   -7.6206006    848.45389  0.017316799  0.016694774         3290 
 4084000   0.60155584   -7.6026017    849.24236  0.017328648  0.016689147         3321 
 4085000   0.60324734   -7.5926849    850.06742  0.017341237   0.01668352         3300 
 4086000   0.59504247    -7.604328    847.76408  0.017290016  0.016677897         3324 
 4087000   0.58438868   -7.5898601     848.0464  0.017291542  0.016672272         3309 
 4088000   0.60028395   -7.6268555     850.2028   0.01733127  0.016666652         3292 
 4089000   0.59616656   -7.5953331    848.71297  0.017296669  0.016661033         3353 
 4090000   0.60995456   -7.6089938    848.20221  0.017282034  0.016655412         3277 
 4091000    0.6001784    -7.608549     848.6366  0.017286658  0.016649797         3329 
 4092000   0.57649432   -7.6155736    848.52993  0.017280261  0.016644186         3322 
 4093000    0.5999589   -7.6089376    849.94877  0.017304926  0.016638576         3333 
 4094000   0.60685526   -7.6111191    848.79731  0.017277262  0.016632966         3330 
 4095000   0.58554242    -7.628653    849.34346  0.017284157  0.016627352         3271 
 4096000   0.59443283   -7.6306574    847.78712  0.017248273  0.016621741         3311 
 4097000   0.58563301    -7.619519    848.20497  0.017252562  0.016616128         3332 
 4098000   0.58716203   -7.5924757    847.59114   0.01723587  0.016610519         3340 
 4099000   0.58839805   -7.6097174    849.14504  0.017263256  0.016604917         3307 
 4100000   0.60585242   -7.6201315    847.54237  0.017226471  0.016599313         3282 
 4101000   0.58253947   -7.6027928    848.06343  0.017232858   0.01659371         3338 
 4102000   0.59661246   -7.5965841    847.98692  0.017227103  0.016588109         3309 
 4103000   0.58048601   -7.6090402    848.52406  0.017233814  0.016582513         3282 
 4104000   0.59501941   -7.6121623    849.15908  0.017242509  0.016576919         3267 
 4105000   0.59576381   -7.6043599    849.96362  0.017254641  0.016571328         3286 
 4106000   0.58716529   -7.5971451    846.54742  0.017181105  0.016565736         3325 
 4107000   0.60169578   -7.6132837    848.02586   0.01720692  0.016560144         3263 
 4108000   0.57544623   -7.6126391    848.88032  0.017220065  0.016554562         3255 
 4109000   0.59663708   -7.6097568    846.47501  0.017167093  0.016548971         3336 
 4110000   0.59906111   -7.6139654    848.03709  0.017194588  0.016543385         3304 
 4111000   0.59002043    -7.600416    847.89683  0.017187562  0.016537796         3308 
 4112000   0.59143129   -7.6269882    848.78422  0.017201366  0.016532214         3298 
 4113000   0.60261618   -7.6091159    848.54491  0.017192335  0.016526641         3316 
 4114000   0.58840504   -7.6148058    847.01907  0.017157249  0.016521063         3296 
 4115000    0.5948076   -7.6218897    848.43702  0.017181795  0.016515486         3312 
 4116000   0.59826619   -7.6046217    848.04754  0.017169735  0.016509916         3307 
 4117000   0.59418256   -7.6206746    848.28361  0.017170343  0.016504351         3346 
 4118000   0.58722012   -7.6207957    847.07523   0.01714172   0.01649878         3364 
 4119000   0.58498012   -7.6176259    849.20062  0.017180558  0.016493213         3315 
 4120000     0.590401   -7.6222738    849.71156  0.017186722   0.01648764         3336 
 4121000   0.59397597   -7.5967399    849.38912  0.017176032  0.016482078         3373 
 4122000    0.5758425   -7.6074709     848.3724   0.01715131  0.016476514         3289 
 4123000    0.5949849   -7.6202231    849.18949  0.017163665  0.016470951         3331 
 4124000   0.59247586   -7.6437977    846.68593  0.017108914  0.016465386         3326 
 4125000   0.59636695   -7.6003689    849.15565   0.01715466  0.016459831         3313 
 4126000   0.57999216   -7.6180584    848.66608  0.017140614  0.016454271         3345 
 4127000    0.5829295   -7.6022865    848.84139  0.017140001  0.016448717         3328 
 4128000   0.57942405   -7.6390608    848.02428  0.017119353  0.016443165         3343 
 4129000   0.57736143   -7.6219509    847.67452  0.017108148   0.01643761         3333 
 4130000   0.58600699   -7.6141108    848.77448    0.0171262  0.016432065         3334 
 4131000   0.57300907     -7.60463    846.69012  0.017080007  0.016426517         3340 
 4132000   0.58759425   -7.6186278    846.75881  0.017077259  0.016420974         3323 
 4133000   0.59433762   -7.6221996    846.81209  0.017074201  0.016415429         3337 
 4134000   0.58583674   -7.6220178    847.81547  0.017090297  0.016409888         3314 
 4135000   0.59449634    -7.612739    846.95656  0.017068854  0.016404345         3348 
 4136000    0.5939259   -7.6152636    848.35294  0.017092862  0.016398807         3345 
 4137000   0.58241551   -7.6255721    846.03911  0.017042122  0.016393266         3308 
 4138000   0.59670313   -7.6136579    847.45284  0.017066474  0.016387728         3372 
 4139000   0.60023113   -7.6174402    848.59176  0.017085281  0.016382191         3333 
 4140000   0.57587331    -7.610609    847.52527  0.017059687  0.016376656         3302 
 4141000   0.58143148   -7.6256327    847.75373  0.017060165   0.01637112         3329 
 4142000    0.5890713   -7.6103661    846.42744  0.017029363  0.016365582         3319 
 4143000   0.58591003   -7.6366216    847.33674  0.017043542  0.016360054         3328 
 4144000   0.58339831    -7.625884    846.83093  0.017029258  0.016354534         3325 
 4145000   0.59169508   -7.6145998    847.76128  0.017043854  0.016349014         3317 
 4146000   0.58389769   -7.6292709    846.21094  0.017008581   0.01634349         3322 
 4147000    0.5977581   -7.6221812    847.45236  0.017029426  0.016337971         3298 
 4148000   0.58898285   -7.6275938     848.9598  0.017055605  0.016332454         3328 
 4149000   0.58050393   -7.6194848    847.91091  0.017030427  0.016326939         3361 
 4150000   0.58210784   -7.6279279    849.11169  0.017050435  0.016321426         3315 
 4151000   0.58875176   -7.6278005    849.08417  0.017045776  0.016315921         3297 
 4152000   0.58123227    -7.610593    847.23075  0.017004471  0.016310409         3300 
 4153000   0.59332147   -7.6196062    846.28036  0.016981306  0.016304902         3323 
 4154000   0.58715912   -7.6346615    847.78824  0.017007467  0.016299393         3368 
 4155000   0.58296069   -7.6311479     848.3397  0.017014434  0.016293884         3329 
 4156000    0.5772435   -7.6246078    845.79084  0.016959233  0.016288377         3337 
 4157000   0.58538425   -7.6165112    849.06768  0.017020842  0.016282873         3355 
 4158000   0.59857691   -7.6275269    848.23034  0.016999967  0.016277373         3340 
 4159000   0.57804041   -7.6199106    847.44779  0.016980199  0.016271871         3309 
 4160000   0.58495831   -7.6282827    847.32916  0.016973741  0.016266375         3325 
 4161000   0.58989541   -7.6100421      847.592  0.016974926  0.016260882         3301 
 4162000   0.58844035   -7.6063995    845.94214  0.016937813   0.01625539         3303 
 4163000   0.58910719   -7.6145905    847.72879  0.016969509  0.016249902         3312 
 4164000   0.59577175   -7.6239704    846.40981  0.016939037  0.016244419         3333 
 4165000   0.59046115   -7.6250505    846.53608  0.016937497  0.016238941         3291 
 4166000   0.59558715   -7.6206096    846.57735  0.016934256   0.01623346         3339 
 4167000   0.59708733   -7.6371179    848.72723  0.016973187  0.016227986         3294 
 4168000   0.58320178   -7.6287317    848.58157  0.016966202  0.016222514         3296 
 4169000    0.5863452   -7.6062771    846.87642  0.016928049  0.016217038         3306 
 4170000   0.59191357   -7.6199878    847.37607  0.016933974   0.01621157         3309 
 4171000   0.57819227   -7.6222782    847.16351  0.016925667  0.016206102         3284 
 4172000   0.59165531   -7.6282327    847.33386  0.016925013  0.016200627         3319 
 4173000   0.59335284   -7.6052038    846.33608  0.016901032  0.016195157         3340 
 4174000   0.59159902   -7.6274307    848.26967  0.016935587  0.016189695         3304 
 4175000   0.57747178   -7.6206158    846.12472  0.016888717  0.016184229         3312 
 4176000   0.58362749   -7.6170266     848.0354  0.016922801  0.016178762         3314 
 4177000   0.57231597   -7.6197672     847.1412   0.01690091  0.016173299         3340 
 4178000   0.57347716   -7.6216217    848.42044   0.01692238  0.016167836         3328 
 4179000   0.57529631    -7.626969    847.76005  0.016905162  0.016162375         3339 
 4180000   0.58379449   -7.6384125    847.44086  0.016894754  0.016156918         3362 
 4181000    0.5879274   -7.6114527     847.0269  0.016882462  0.016151462         3285 
 4182000    0.5888392   -7.6323982    848.10167  0.016899842  0.016146005         3323 
 4183000   0.58144333    -7.636398    848.14979  0.016896761  0.016140554         3334 
 4184000    0.5750347   -7.6233239    847.17452  0.016873297  0.016135101         3315 
 4185000   0.59353072   -7.6469558    846.72387  0.016860292  0.016129658         3346 
 4186000   0.58336449   -7.6246394    846.86106  0.016858995  0.016124213         3307 
 4187000   0.58891768   -7.6286638    846.83727  0.016854495  0.016118774         3258 
 4188000   0.57243797   -7.6484088    846.86456  0.016851014  0.016113332         3371 
 4189000   0.57565431   -7.6342178    847.84015  0.016866399  0.016107887         3320 
 4190000   0.59829137   -7.6150099    847.76733  0.016860926  0.016102445         3334 
 4191000   0.57924471   -7.6242965    846.00626  0.016821885   0.01609701         3375 
 4192000   0.58568465   -7.6357267    848.72499  0.016871919  0.016091573         3323 
 4193000   0.58491016   -7.6400473     847.1293  0.016836181  0.016086138         3346 
 4194000   0.58730659   -7.6224627      847.533  0.016840188  0.016080706         3344 
 4195000   0.58203846   -7.6441621    845.94204   0.01680457  0.016075274         3418 
 4196000   0.59111322   -7.6326246    846.79808  0.016817566  0.016069842         3328 
 4197000   0.57947641   -7.6496549    847.16542  0.016820853  0.016064413         3376 
 4198000   0.57741234   -7.6227403    846.01311  0.016793971  0.016058988         3350 
 4199000   0.59078093   -7.6304553    846.77952  0.016805182  0.016053562         3318 
 4200000   0.56546321   -7.6425206    848.56991  0.016836705   0.01604814         3359 
 4201000   0.58093147   -7.6602824    846.84354  0.016798452  0.016042723         3332 
 4202000   0.58720016   -7.6343819     848.0031   0.01681745  0.016037306         3365 
 4203000   0.58517987   -7.6222898    846.80446  0.016789683  0.016031892         3371 
 4204000   0.59140156   -7.6396381    845.91236  0.016768006  0.016026478         3341 
 4205000   0.57391471   -7.6473406    846.58047  0.016777259  0.016021067         3372 
 4206000   0.56991483   -7.6189858    848.05671  0.016802518   0.01601566         3355 
 4207000   0.58889834   -7.6196567    848.10513  0.016799484  0.016010252         3345 
 4208000   0.57557744   -7.6244079    846.72368  0.016768134  0.016004851         3341 
 4209000   0.57207756   -7.6427457    846.02816  0.016750379  0.015999447         3300 
 4210000   0.58100884   -7.6368502    846.71523  0.016760001  0.015994044         3335 
 4211000   0.58094355   -7.6479216    847.13818  0.016764391  0.015988647         3356 
 4212000   0.57963326    -7.646456    846.99302  0.016757538  0.015983254         3335 
 4213000   0.58790689   -7.6381422    846.77636  0.016749275  0.015977864         3350 
 4214000   0.57782162   -7.6334133    848.52223  0.016779826  0.015972469         3352 
 4215000   0.56267718   -7.6299019    845.78307   0.01672169  0.015967077         3331 
 4216000   0.58427091   -7.6385095    846.44866   0.01673088  0.015961688         3333 
 4217000   0.56526074   -7.6524077    846.86271  0.016735094  0.015956297         3330 
 4218000   0.58761721   -7.6441192    845.53534  0.016704902  0.015950916         3323 
 4219000   0.57401079    -7.664851    845.67247  0.016703651  0.015945535         3356 
 4220000   0.56656544   -7.6283307    847.89279  0.016743538  0.015940158         3345 
 4221000    0.5747587   -7.6483516    846.51905  0.016712451  0.015934784         3380 
 4222000   0.58895694   -7.6145855    846.31123   0.01670439  0.015929411         3314 
 4223000   0.57867972   -7.6370202    846.49074  0.016703977   0.01592404         3370 
 4224000   0.57148774   -7.6308876     847.3479  0.016716933  0.015918674         3309 
 4225000   0.57474944   -7.6322037     845.8826  0.016684075  0.015913307         3372 
 4226000   0.57659313    -7.637427    848.75506   0.01673677   0.01590794         3348 
 4227000   0.57395357   -7.6461758    846.81519  0.016694567  0.015902577         3308 
 4228000    0.5830416   -7.6425722    846.89942  0.016692278  0.015897215         3365 
 4229000   0.57998661   -7.6584263    847.27762  0.016695784  0.015891858         3350 
 4230000   0.57086459   -7.6322405    846.70069  0.016680471  0.015886497         3308 
 4231000   0.56128974   -7.6360943    846.75822  0.016677661  0.015881142         3349 
 4232000   0.57520835   -7.6575014    848.66501  0.016711267  0.015875788         3327 
 4233000   0.56909991   -7.6320442    846.05302  0.016655899  0.015870439         3340 
 4234000   0.58667681   -7.6387152    847.99359  0.016690159  0.015865095         3331 
 4235000    0.5762374   -7.6487755     847.1902  0.016670409  0.015859745         3345 
 4236000   0.57818286   -7.6409936    847.24396  0.016667532  0.015854403         3362 
 4237000   0.57387585   -7.6265987    847.08239   0.01666042  0.015849057         3349 
 4238000   0.56738865   -7.6439753    846.56904  0.016646395   0.01584372         3330 
 4239000   0.57075028   -7.6400867    845.41775  0.016619835  0.015838383         3352 
 4240000   0.56687117   -7.6298418    846.10791  0.016629479  0.015833046         3338 
 4241000   0.56443361   -7.6579398    846.75138  0.016638202  0.015827708         3359 
 4242000   0.58674062   -7.6359366    847.10392  0.016641205  0.015822379         3389 
 4243000   0.57904191   -7.6429247    845.11339  0.016598189  0.015817046         3351 
 4244000    0.5722443   -7.6565679    846.47452  0.016621005  0.015811714         3344 
 4245000   0.55917597   -7.6647221    845.41066  0.016596205  0.015806384         3397 
 4246000   0.57808222   -7.6526307    846.72538  0.016618099  0.015801054         3319 
 4247000   0.57307132   -7.6491107    846.26821  0.016605216  0.015795727         3403 
 4248000   0.58019493   -7.6519437    847.66715   0.01662875  0.015790398         3369 
 4249000   0.56572672   -7.6445271    847.66427   0.01662478  0.015785078         3334 
 4250000   0.58103122   -7.6494345    846.00434   0.01658832  0.015779761         3368 
 4251000   0.56058387   -7.6540296    848.03047  0.016624137  0.015774451         3359 
 4252000   0.57423777   -7.6669726    847.25118  0.016604954  0.015769139         3338 
 4253000   0.57506854   -7.6711562    847.42863  0.016604527  0.015763825         3340 
 4254000   0.56079687   -7.6409561    845.33309  0.016559573  0.015758515         3328 
 4255000   0.57173393    -7.643748    845.36707  0.016556347   0.01575321         3378 
 4256000   0.58501637   -7.6532474    846.40865  0.016572851  0.015747906         3336 
 4257000   0.57074519    -7.659079    845.61024  0.016553329  0.015742605         3381 
 4258000   0.58167799   -7.6460849    847.71739   0.01659068  0.015737306         3361 
 4259000    0.5721685   -7.6405387    847.27453  0.016578119  0.015732009         3352 
 4260000   0.56740432    -7.670239    845.36716  0.016536916   0.01572671         3385 
 4261000   0.56808383   -7.6470175    848.17943  0.016588035  0.015721414         3356 
 4262000   0.56000805   -7.6508384    846.54026  0.016552093  0.015716119         3348 
 4263000   0.58583473   -7.6668379    846.78707  0.016553035  0.015710825         3363 
 4264000   0.55918201   -7.6718027    845.05444  0.016515292  0.015705533         3329 
 4265000   0.58000422   -7.6460161     846.4721  0.016539119  0.015700241         3311 
 4266000   0.57420541   -7.6713469    848.18102  0.016568624  0.015694949         3341 
 4267000   0.57448998   -7.6472265    847.04907  0.016542635  0.015689661         3336 
 4268000    0.5685686    -7.668344    846.61972  0.016530376  0.015684372         3347 
 4269000   0.56135839   -7.6652743    844.33074  0.016481821  0.015679087         3404 
 4270000   0.57281436   -7.6368372    845.50938  0.016500964  0.015673805         3308 
 4271000   0.56254802   -7.6504677    845.12549   0.01648961   0.01566852         3334 
 4272000   0.57505253   -7.6505322    846.33979  0.016509437  0.015663237         3340 
 4273000   0.57590856   -7.6735423    845.91661  0.016497321  0.015657956         3345 
 4274000   0.57945361   -7.6632822    844.89691  0.016473579  0.015652682         3335 
 4275000   0.57344293   -7.6441628    846.26002  0.016496297  0.015647407         3316 
 4276000   0.56459177   -7.6559569    844.86356  0.016465224  0.015642135         3309 
 4277000   0.56142867   -7.6761695    846.24729  0.016488335  0.015636863         3331 
 4278000   0.56046173   -7.6616557    845.81346   0.01647603  0.015631598         3374 
 4279000    0.5640783   -7.6540454    845.38114   0.01646376  0.015626335         3392 
 4280000   0.56710742   -7.6409676    846.28357  0.016477484  0.015621074         3320 
 4281000   0.57942264   -7.6582564    844.53725  0.016439641  0.015615819         3328 
 4282000   0.55149485    -7.656149    846.05656   0.01646537  0.015610561         3348 
 4283000   0.57797591   -7.6675122    845.85164  0.016457538  0.015605303         3315 
 4284000   0.56771935   -7.6463552    845.70428   0.01645083  0.015600045         3319 
 4285000   0.56550644   -7.6407816    846.84103  0.016469098  0.015594796         3346 
 4286000   0.57079274   -7.6446475    845.99134  0.016448735  0.015589546         3308 
 4287000   0.56944677   -7.6575584    844.20535  0.016410181  0.015584301         3344 
 4288000   0.56691579   -7.6641338    845.04276  0.016422628  0.015579053         3337 
 4289000   0.55651918   -7.6916165    847.53918  0.016467304  0.015573809         3347 
 4290000   0.57354172   -7.6641404    844.38218   0.01640214  0.015568566         3375 
 4291000   0.55630864   -7.6369991    846.99209  0.016449004  0.015563325         3353 
 4292000    0.5552822   -7.6627191    846.14065  0.016428639  0.015558087         3347 
 4293000   0.55977918   -7.6689861    845.69024   0.01641607  0.015552842         3345 
 4294000   0.57549368   -7.6631768    846.49008  0.016427769  0.015547606         3324 
 4295000   0.56956558    -7.683201    846.05528  0.016415508  0.015542373         3330 
 4296000   0.54935542   -7.6631344    846.29569   0.01641635   0.01553714         3305 
 4297000   0.55357167   -7.6633899    845.56009  0.016398264  0.015531907         3344 
 4298000   0.56119397   -7.6570085    845.72161  0.016397581  0.015526684         3343 
 4299000   0.56541395    -7.652946     845.9414  0.016398027  0.015521465         3300 
 4300000   0.56547105   -7.6756834    847.07851   0.01641625  0.015516246         3341 
 4301000   0.55809916     -7.65827    845.47422   0.01638135  0.015511025         3314 
 4302000   0.56685247   -7.6654545    845.70341  0.016381981  0.015505807         3321 
 4303000   0.55423423   -7.6675478    846.14843  0.016386793  0.015500588         3357 
 4304000   0.55834974   -7.6726827    845.88099  0.016377807  0.015495374         3312 
 4305000   0.55752028   -7.6658879    845.10807  0.016359041   0.01549016         3329 
 4306000   0.57380313   -7.6557447    847.04467  0.016392721  0.015484949         3340 
 4307000   0.55660594   -7.6697137    846.97136  0.016387496  0.015479745         3361 
 4308000   0.56615522   -7.6560817    844.50139  0.016335914  0.015474534         3342 
 4309000   0.56031064   -7.6772385    845.78564  0.016356959  0.015469333         3333 
 4310000   0.57098856   -7.6729853    846.44291  0.016365872  0.015464128         3353 
 4311000   0.56394342   -7.6537419      845.177  0.016337605  0.015458922         3362 
 4312000   0.56751648   -7.6660459    846.04921  0.016350673  0.015453719         3307 
 4313000    0.5567537    -7.679383    844.59012   0.01631869  0.015448521         3357 
 4314000   0.56061225   -7.6765199    845.01826  0.016323178  0.015443321         3354 
 4315000   0.57525778   -7.6837794    846.03744  0.016339078   0.01543813         3317 
 4316000   0.56067861   -7.6643173    845.01277  0.016315508  0.015432939         3345 
 4317000   0.54989032   -7.6816178    844.85791  0.016308739  0.015427749         3354 
 4318000    0.5601523   -7.6709583     845.3051  0.016313592  0.015422561         3349 
 4319000   0.54720885   -7.6707441    845.30031  0.016309723  0.015417375         3339 
 4320000   0.55587785   -7.6837817    846.53243  0.016329715  0.015412192         3324 
 4321000   0.56715728    -7.674947    844.97745  0.016295947  0.015407007         3350 
 4322000   0.55820558   -7.6809103    847.36932  0.016338295  0.015401822         3307 
 4323000   0.55177522   -7.6636276    845.05108  0.016289827  0.015396645         3382 
 4324000   0.54805732   -7.6660726    846.08398  0.016305966  0.015391467         3383 
 4325000   0.56437263   -7.6753932    845.52272  0.016291382   0.01538629         3327 
 4326000   0.55626928   -7.6875494    844.87771  0.016275191  0.015381114         3365 
 4327000   0.56152452   -7.6810649    846.32678  0.016299337  0.015375943         3376 
 4328000    0.5612053   -7.6715572    846.20683  0.016293261  0.015370775         3347 
 4329000   0.56970293   -7.6808197     843.1312  0.016230292  0.015365605         3375 
 4330000   0.55898912   -7.6702611    846.38162    0.0162891  0.015360434         3367 
 4331000   0.55031043   -7.6656489    844.54451  0.016249991  0.015355265         3349 
 4332000   0.54704971   -7.6670069    845.65536  0.016267608  0.015350102         3382 
 4333000   0.55785656    -7.681923    845.22238  0.016255527  0.015344942         3385 
 4334000   0.56335858   -7.6734867    845.50789  0.016257266   0.01533978         3394 
 4335000   0.54646565   -7.6817029    845.00988  0.016243942  0.015334617         3375 
 4336000   0.55799598   -7.6855712    844.22228  0.016225059  0.015329457         3383 
 4337000   0.55451293   -7.6708414    843.24909  0.016202619    0.0153243         3338 
 4338000   0.57300635   -7.6827714    846.02987  0.016252303  0.015319146         3372 
 4339000   0.55383483   -7.6671406    844.98493  0.016228488  0.015313991         3351 
 4340000   0.55482772   -7.6944804    845.86443  0.016241637  0.015308846         3363 
 4341000   0.56058602     -7.67752    845.05837  0.016222421  0.015303701         3354 
 4342000   0.56072768   -7.6953701    843.38509  0.016186571  0.015298556         3351 
 4343000   0.54625975   -7.6730144    845.37683  0.016221061   0.01529341         3365 
 4344000   0.55814543   -7.6834674    844.81063  0.016206465  0.015288272         3356 
 4345000   0.55091645   -7.6703638    845.51138  0.016216175  0.015283134         3389 
 4346000   0.55506901   -7.6787277    846.60261  0.016233368  0.015277997         3374 
 4347000   0.55728409   -7.6878864    846.02653   0.01621859   0.01527286         3402 
 4348000   0.55592687   -7.7025739    844.16094  0.016179104  0.015267723         3362 
 4349000   0.54926468   -7.6709663    846.00997  0.016210814  0.015262592         3315 
 4350000   0.54836426    -7.677206    845.79745  0.016203016  0.015257463         3396 
 4351000   0.56714339   -7.6820853    844.96821   0.01618341  0.015252337         3363 
 4352000   0.54650482   -7.6858239     845.4297  0.016188528  0.015247208         3377 
 4353000   0.54755826   -7.6981128    846.18404   0.01619925  0.015242079         3323 
 4354000   0.55967391   -7.6895853    845.64265  0.016185168  0.015236955         3332 
 4355000   0.55313163   -7.6942517    846.11308  0.016190453  0.015231833         3363 
 4356000   0.55825385   -7.6806549     844.2124  0.016150375  0.015226714         3361 
 4357000   0.54836976   -7.6782426    844.00304  0.016142664  0.015221596         3379 
 4358000   0.56488304   -7.6833451    845.41002  0.016165864  0.015216474         3345 
 4359000   0.54992964   -7.6780098    845.26303  0.016159345  0.015211364         3377 
 4360000    0.5481302   -7.6845506    845.00061  0.016150623  0.015206249         3421 
 4361000   0.54714631   -7.6994187    844.35894  0.016134658  0.015201142         3406 
 4362000   0.54056221   -7.6843481    844.49166  0.016133495  0.015196037         3343 
 4363000   0.56527498   -7.6846266    844.71502  0.016134063  0.015190927         3399 
 4364000   0.55748658   -7.6728518    843.87885  0.016114399  0.015185826         3374 
 4365000   0.55004877   -7.6721508     845.1416  0.016134815  0.015180725         3404 
 4366000   0.55630025   -7.6817989    844.66887  0.016122096  0.015175625         3380 
 4367000   0.56123171   -7.6762716    846.51956   0.01615372  0.015170526         3358 
 4368000   0.55682258   -7.6811953    844.05326   0.01610297  0.015165428         3378 
 4369000   0.56246922   -7.6842911    844.57242  0.016109186  0.015160331         3391 
 4370000   0.55217668   -7.6843769    845.12312  0.016116001  0.015155235         3385 
 4371000   0.55436109   -7.6869178    844.56415  0.016101658  0.015150146         3365 
 4372000   0.55243567   -7.6875252    845.52317  0.016116254  0.015145055         3394 
 4373000   0.56345239   -7.6940843    844.65655  0.016096054  0.015139967         3382 
 4374000   0.55017701   -7.6892845    845.72301  0.016112693  0.015134878         3368 
 4375000   0.56125832   -7.6964087     843.7856  0.016072107  0.015129792         3342 
 4376000    0.5432919   -7.6730104    844.60519  0.016084042  0.015124711         3351 
 4377000   0.54890466    -7.695439    844.52689  0.016078876   0.01511963         3355 
 4378000   0.54109542   -7.6736585    844.44813  0.016073704  0.015114557         3388 
 4379000   0.54600114   -7.6767045    843.86868  0.016059007  0.015109483         3360 
 4380000   0.56146304   -7.6896982    844.24692  0.016062536  0.015104409         3415 
 4381000   0.54596515   -7.6941214    844.68508  0.016067205  0.015099339         3351 
 4382000   0.55042915   -7.6931845    844.54844  0.016060939  0.015094267         3351 
 4383000   0.55260475   -7.6640405    844.81954   0.01606243  0.015089199         3383 
 4384000   0.54841109   -7.7127067    846.05128  0.016082179  0.015084136         3357 
 4385000   0.56807162   -7.7031025    845.49473  0.016067935  0.015079069         3379 
 4386000   0.55223551   -7.6954196    842.92772  0.016015499  0.015074004         3415 
 4387000   0.53857208   -7.7019641    845.56111   0.01606187  0.015068939         3347 
 4388000   0.54864403   -7.6861929    845.10955  0.016049634  0.015063883         3378 
 4389000   0.56126053    -7.672557    845.44078  0.016052267  0.015058826         3368 
 4390000   0.54617258   -7.6962734    845.70181  0.016053565   0.01505377         3370 
 4391000   0.54785204    -7.689271    844.38111  0.016024845  0.015048708         3403 
 4392000   0.55009796    -7.686538    845.44647   0.01604141  0.015043654         3407 
 4393000   0.54974404   -7.6652996    844.06732  0.016011597  0.015038602         3336 
 4394000   0.54219306   -7.6851284    844.05137   0.01600765  0.015033555         3364 
 4395000   0.54493224   -7.6981149    844.01521  0.016003322  0.015028509         3362 
 4396000   0.55213791   -7.6959261    845.73733  0.016032327  0.015023468         3318 
 4397000   0.55294468   -7.7032134    843.03457  0.015977457  0.015018423         3391 
 4398000   0.54004959   -7.6863661    843.83235  0.015988941  0.015013381         3381 
 4399000    0.5518438   -7.6987053    845.42068  0.016015395  0.015008341         3348 
 4400000   0.53909643   -7.6885771    845.73709  0.016017748  0.015003306         3346 
 4401000   0.53622836   -7.6961564    843.94384  0.015980153  0.014998266         3390 
 4402000   0.55111397   -7.6996554    843.30433  0.015964416  0.014993235         3356 
 4403000   0.54975709   -7.6984159    845.61457  0.016004515  0.014988206         3360 
 4404000   0.54768256   -7.7044378    844.22525  0.015974592  0.014983172         3368 
 4405000    0.5422852   -7.7025661    845.35887  0.015992411  0.014978142         3393 
 4406000   0.55479449   -7.6836348    845.04595  0.015982863  0.014973115         3383 
 4407000   0.55015993    -7.691445    843.73668  0.015954479  0.014968094         3321 
 4408000   0.55710812   -7.6981532    844.11218  0.015957959  0.014963074         3371 
 4409000   0.53130778   -7.6925948    843.14914  0.015936137   0.01495806         3406 
 4410000   0.53939323   -7.7015479    843.26351  0.015934685  0.014953039         3393 
 4411000   0.53709223   -7.6825361    844.64914   0.01595725  0.014948027         3406 
 4412000   0.54774271   -7.7010201    843.31223  0.015928381  0.014943015         3411 
 4413000   0.54058997   -7.7138983    844.45829  0.015946414  0.014938002         3386 
 4414000    0.5426063   -7.6882933    843.33173  0.015921532  0.014932994         3401 
 4415000   0.54097534   -7.6973362    842.03604   0.01589347  0.014927983         3382 
 4416000   0.55632444   -7.6954777    846.03386  0.015965313  0.014922979         3375 
 4417000   0.54990284   -7.6867331    845.38789  0.015949511  0.014917978         3377 
 4418000   0.54543067   -7.7115711    844.44903  0.015928192  0.014912979         3347 
 4419000   0.55865842   -7.7030065    844.37522  0.015923196  0.014907982         3366 
 4420000   0.54435649   -7.7034161    843.54531  0.015903946  0.014902982         3383 
 4421000   0.54424754   -7.7027297    843.84401  0.015905979  0.014897987         3364 
 4422000   0.54331631   -7.7015872    844.51288  0.015914987  0.014892993         3407 
 4423000   0.53602617   -7.6986071    843.18469  0.015886365  0.014888003         3405 
 4424000   0.55164705    -7.696321    843.13361  0.015881812   0.01488301         3411 
 4425000   0.52998527   -7.6946858    843.91354   0.01589291   0.01487802         3409 
 4426000   0.54085639   -7.6909803    843.89419  0.015888955  0.014873033         3389 
 4427000   0.54663069   -7.6974405    845.19535  0.015909859  0.014868046         3377 
 4428000   0.53871685   -7.6985701    843.19514  0.015868623  0.014863066         3382 
 4429000   0.55427933   -7.7092826    844.47272  0.015889078  0.014858086         3393 
 4430000   0.54245906   -7.6872445     843.9491  0.015875641  0.014853109         3395 
 4431000   0.53499882   -7.6938658    845.02137  0.015892225  0.014848134         3420 
 4432000   0.53934994    -7.703512    844.84809  0.015885381  0.014843162         3342 
 4433000   0.53827273   -7.7023842    844.57716  0.015876704  0.014838192         3391 
 4434000   0.54002435   -7.7037324    844.07849  0.015863751  0.014833227         3401 
 4435000   0.53456943   -7.7136051    844.52442  0.015868554  0.014828259         3378 
 4436000   0.53996334   -7.7013624     844.6303  0.015866965  0.014823294         3403 
 4437000   0.55277071   -7.7068723    844.19687  0.015855249  0.014818332         3417 
 4438000   0.53642952   -7.7048234    843.61259  0.015840705  0.014813371         3390 
 4439000   0.54264201   -7.7049969    845.01081  0.015863385  0.014808416         3352 
 4440000   0.54447342    -7.694745    844.09254  0.015842578  0.014803458         3394 
 4441000    0.5344746     -7.70292    844.32805   0.01584343  0.014798499         3419 
 4442000   0.54195712   -7.7340295    845.59306  0.015863595  0.014793547         3387 
 4443000     0.540231   -7.7081357     844.2066   0.01583402   0.01478859         3401 
 4444000   0.54953208    -7.707745    845.15324  0.015848208  0.014783638         3324 
 4445000   0.53995077   -7.6939667    843.13316  0.015806771  0.014778691         3380 
 4446000   0.54706165   -7.7054934    842.19612  0.015785652  0.014773742         3377 
 4447000   0.54475923   -7.7184519    843.96218  0.015815197  0.014768797         3399 
 4448000   0.53808583   -7.7108327    843.75271  0.015807717  0.014763858         3389 
 4449000   0.53879252   -7.6910711    843.19063  0.015793636  0.014758918         3372 
 4450000   0.52980162   -7.7187072    844.27249  0.015810346   0.01475398         3363 
 4451000   0.54196053   -7.7005449    845.11276  0.015822526  0.014749045         3391 
 4452000    0.5478563   -7.7074345    844.71592  0.015811544  0.014744111         3421 
 4453000   0.55272537   -7.7065754     844.6358  0.015806494  0.014739178         3404 
 4454000   0.53880137   -7.7198048    843.36586  0.015779185  0.014734246         3382 
 4455000   0.51958568   -7.6874778    844.68658  0.015800348  0.014729315         3395 
 4456000   0.53560023   -7.7075971    844.44638   0.01579231  0.014724385         3367 
 4457000   0.52551875   -7.7059968    843.68397  0.015774511  0.014719458         3390 
 4458000   0.54848324   -7.7187092     845.5633  0.015806103  0.014714533         3389 
 4459000   0.54510814   -7.6975578    844.55125  0.015783645  0.014709614         3346 
 4460000   0.54334088    -7.711495    841.67829  0.015726425  0.014704693         3396 
 4461000   0.52693905   -7.7017189     843.2933  0.015753069  0.014699772         3405 
 4462000   0.52817883   -7.7075482    842.91793  0.015742528  0.014694857         3393 
 4463000   0.54982241   -7.7010528     843.5411  0.015750637  0.014689947         3360 
 4464000   0.54033588   -7.7208743    844.09728  0.015757491  0.014685036         3396 
 4465000    0.5300203   -7.7217447    843.35288  0.015740069  0.014680123         3429 
 4466000   0.53464822   -7.7240927    844.86266  0.015764716  0.014675216         3370 
 4467000   0.51946784    -7.708503     843.5525  0.015736745   0.01467031         3348 
 4468000   0.53758692   -7.7183925    843.47281  0.015731737  0.014665402         3381 
 4469000   0.53192269   -7.7188181    845.22307  0.015760854  0.014660498         3367 
 4470000   0.52829487   -7.7243908    842.52105  0.015706955  0.014655594         3384 
 4471000   0.53222871   -7.7197154    845.27801  0.015754828  0.014650695         3365 
 4472000   0.53479355   -7.7178043    843.31618  0.015714747  0.014645796         3373 
 4473000    0.5344738   -7.7277374    842.20742  0.015690577  0.014640896         3372 
 4474000   0.54077977   -7.7170096    844.64232  0.015732423  0.014635999         3364 
 4475000   0.53684037   -7.7093662    843.42561   0.01570625  0.014631107         3374 
 4476000   0.54457417   -7.7092123    844.68047  0.015726104  0.014626221         3382 
 4477000   0.54086222   -7.7096361    842.99357  0.015691191  0.014621333         3379 
 4478000   0.54422042   -7.7231696    844.22988  0.015710695  0.014616447         3382 
 4479000   0.53353083   -7.7086011    843.31514  0.015690168  0.014611563         3372 
 4480000   0.53878519   -7.7073734    843.49992  0.015690103  0.014606684         3343 
 4481000   0.52433526   -7.6957208    842.58827  0.015669647  0.014601804         3377 
 4482000   0.53219688   -7.7322173    843.84079  0.015689439  0.014596927         3399 
 4483000   0.54120331   -7.7350243    844.04546  0.015689744  0.014592053         3383 
 4484000   0.52929758   -7.7126905    843.39703  0.015674194  0.014587177         3371 
 4485000   0.52826601   -7.7290889     843.8667  0.015679426   0.01458231         3401 
 4486000    0.5387588   -7.7007825    844.29072  0.015683807   0.01457744         3371 
 4487000   0.54636821   -7.7185018    844.06289  0.015676081  0.014572572         3343 
 4488000   0.53461462    -7.716057    844.24381  0.015675947   0.01456771         3347 
 4489000   0.52557568   -7.7180172    844.28752  0.015673267  0.014562849         3356 
 4490000   0.53059598   -7.7096027    844.62915  0.015676116   0.01455799         3357 
 4491000   0.53205286   -7.7055374     842.2988  0.015629385  0.014553129         3368 
 4492000   0.53531123   -7.7092648     843.8658  0.015654975  0.014548273         3367 
 4493000   0.52835163   -7.7107163    843.23594  0.015639809  0.014543418         3348 
 4494000   0.52957011   -7.7278741    844.29804  0.015656024  0.014538568         3397 
 4495000   0.53082125   -7.7157075    842.98598  0.015628216  0.014533722         3405 
 4496000   0.54151296   -7.7458699    843.06289  0.015626166  0.014528874         3392 
 4497000   0.52700728   -7.7086834    842.68422  0.015615674  0.014524022         3424 
 4498000   0.53413372   -7.7202006    844.54698  0.015646713  0.014519174         3371 
 4499000   0.52416413    -7.712998    844.36799   0.01563992  0.014514328         3366 
 4500000   0.52803682   -7.7035128    844.38369  0.015636735  0.014509483         3379 
 4501000   0.53791153   -7.7142512     844.1303   0.01562857   0.01450464         3402 
 4502000   0.53979875    -7.725832     842.8339  0.015601101  0.014499799         3337 
 4503000   0.53487853   -7.7135411    843.21063  0.015604609  0.014494963         3386 
 4504000    0.5329649   -7.7117407    843.76238  0.015611352  0.014490127         3334 
 4505000   0.53798268   -7.7224321    844.35853  0.015618915  0.014485295         3373 
 4506000   0.53894182    -7.724568    843.28711  0.015595634  0.014480458         3335 
 4507000   0.51681798   -7.7157956    843.40728  0.015594395  0.014475629         3367 
 4508000   0.52203878   -7.7204134    844.00563  0.015601997  0.014470797         3386 
 4509000   0.52839926   -7.7165551    843.08506  0.015581523  0.014465972         3392 
 4510000    0.5313869   -7.6987625    843.38999  0.015583703  0.014461147         3374 
 4511000   0.53093701   -7.7177758    842.46062   0.01556308  0.014456323         3422 
 4512000   0.53311603   -7.7215285    843.99357  0.015587943  0.014451504         3394 
 4513000   0.52543815    -7.726238    844.01609  0.015584905  0.014446683         3373 
 4514000   0.53016659     -7.71234    844.17536  0.015584392   0.01444187         3382 
 4515000   0.53272995   -7.7410511    842.74499   0.01555454  0.014437056         3392 
 4516000   0.53734906   -7.7217168    843.55932  0.015566123  0.014432243         3363 
 4517000    0.5378891   -7.7095681    843.68207  0.015564941  0.014427437         3380 
 4518000   0.52405414   -7.7252424    843.79051  0.015563496  0.014422629         3364 
 4519000   0.52851793   -7.7302575    843.23939  0.015549889  0.014417823         3349 
 4520000   0.52018649   -7.7236014    842.07947  0.015525064  0.014413014         3383 
 4521000    0.5240612   -7.7252278    843.75849  0.015552579  0.014408211         3398 
 4522000   0.53619573   -7.7207708    845.64796  0.015583959  0.014403412         3382 
 4523000   0.52805308    -7.724533    844.82892  0.015565423  0.014398615         3373 
 4524000    0.5126406   -7.7232808    843.80397  0.015543103  0.014393819         3372 
 4525000   0.52698946   -7.7246887    844.60639  0.015554446  0.014389027         3366 
 4526000   0.53283613   -7.7237678    844.07537  0.015541232  0.014384235         3409 
 4527000   0.52426005   -7.7270388    844.00104   0.01553643  0.014379445         3400 
 4528000   0.53523031   -7.7101642    844.04769  0.015533858  0.014374657         3425 
 4529000   0.52442506   -7.7487056    843.29805  0.015516634  0.014369868         3410 
 4530000    0.5287307   -7.7267587    842.83543  0.015504699  0.014365086         3443 
 4531000    0.5240929   -7.7031293     842.3113  0.015491637  0.014360298         3409 
 4532000   0.52478035   -7.7142528    844.03552  0.015519923  0.014355519         3374 
 4533000   0.52591194   -7.7108502    843.16402  0.015500478  0.014350739         3386 
 4534000    0.5241422   -7.7418246    842.94473  0.015493029  0.014345959         3424 
 4535000   0.53070294   -7.7247684    843.25546  0.015495323   0.01434118         3386 
 4536000   0.52053078   -7.7247242    843.20011   0.01549089  0.014336399         3396 
 4537000   0.54012637   -7.7239319    843.55678  0.015494027  0.014331624         3361 
 4538000   0.53103586   -7.7213956    842.32975   0.01546808  0.014326851         3388 
 4539000   0.53022933   -7.7239397    843.14787  0.015479692  0.014322079         3393 
 4540000   0.53209495   -7.7065965    843.70086  0.015486433   0.01431731         3399 
 4541000   0.52933053   -7.7440673    842.20158  0.015455509  0.014312543         3398 
 4542000   0.52700033   -7.7306849    843.39495  0.015474001  0.014307778         3420 
 4543000   0.52329785   -7.7207625    843.32292  0.015469274  0.014303014         3384 
 4544000   0.52472983   -7.7140611    842.39226  0.015448802   0.01429825         3430 
 4545000   0.52279721   -7.7321131    843.36951  0.015463321  0.014293492         3376 
 4546000    0.5411981   -7.7212122    841.56054  0.015426759  0.014288734         3419 
 4547000   0.52464123   -7.7301637    842.97879  0.015449358  0.014283978         3401 
 4548000   0.52948502   -7.7451421    843.44599  0.015454522  0.014279225         3403 
 4549000   0.52865588   -7.7305878    842.47974  0.015433424  0.014274475         3398 
 4550000   0.52379269   -7.7199941    843.42912   0.01544742  0.014269724         3409 
 4551000   0.52330702   -7.7141959    842.24622  0.015422365  0.014264973         3386 
 4552000   0.52069674    -7.728884    843.31382  0.015438522  0.014260227         3417 
 4553000   0.52761874   -7.7199973    844.18589  0.015451093  0.014255478         3403 
 4554000   0.54005842   -7.7340697     843.4249  0.015433774  0.014250739         3383 
 4555000   0.51489146   -7.7426377    842.27423  0.015409335  0.014245995         3373 
 4556000   0.51906731   -7.7301572    842.78312   0.01541526  0.014241253         3379 
 4557000   0.52245427   -7.7457259    843.69471  0.015428548  0.014236517         3459 
 4558000   0.52768209   -7.7466543    842.24708  0.015398696   0.01423178         3412 
 4559000   0.53482508    -7.738581    843.03522  0.015409725  0.014227047         3397 
 4560000   0.52563009   -7.7109437    841.66176  0.015381246  0.014222316         3395 
 4561000   0.51940832   -7.7432316    843.41693  0.015409942  0.014217585         3439 
 4562000   0.52733407   -7.7469575    843.34517  0.015405253  0.014212856         3425 
 4563000   0.51620901   -7.7438987    844.02826  0.015414352  0.014208133         3395 
 4564000   0.52169805   -7.7353182    842.55325  0.015384043  0.014203408         3369 
 4565000   0.52984788    -7.741438    843.16664   0.01539187  0.014198686         3404 
 4566000   0.52508712   -7.7372956    841.80544  0.015363656  0.014193965         3382 
 4567000   0.52108008   -7.7185227    842.70091  0.015376631  0.014189245         3417 
 4568000   0.51477497   -7.7403253    842.48811  0.015369383  0.014184528         3409 
 4569000   0.52628493    -7.737628    843.76396  0.015389289  0.014179811         3374 
 4570000   0.50633417   -7.7345854    843.15484  0.015374815  0.014175097         3396 
 4571000   0.51709924   -7.7436606    843.47908  0.015377362  0.014170384         3402 
 4572000   0.51723646   -7.7514578    843.08804  0.015366872  0.014165676         3383 
 4573000   0.51242977   -7.7461244    843.70519  0.015374757  0.014160968         3390 
 4574000   0.51527699   -7.7354868    843.19415  0.015362085  0.014156258         3398 
 4575000   0.51416416   -7.7366988    843.05716  0.015356232  0.014151552         3370 
 4576000   0.52342632   -7.7506676     842.2785  0.015338696  0.014146849         3354 
 4577000   0.52253287   -7.7384084    843.01795  0.015348808  0.014142147         3387 
 4578000   0.51013776   -7.7272515    842.15963  0.015329832  0.014137447         3385 
 4579000   0.52220119   -7.7332853    843.23305  0.015346019   0.01413275         3377 
 4580000   0.52133371   -7.7311639     842.0884  0.015321841  0.014128051         3431 
 4581000   0.52577975   -7.7388769    842.45974  0.015325252  0.014123357         3403 
 4582000   0.50063641   -7.7400932    843.22159  0.015335763  0.014118663         3402 
 4583000   0.50939738    -7.743483    842.68959  0.015322743   0.01411397         3402 
 4584000   0.52176166   -7.7284856    842.60971  0.015317948   0.01410928         3424 
 4585000   0.51714023   -7.7420254    841.93558  0.015302355  0.014104593         3378 
 4586000   0.52515052    -7.735767    842.83255  0.015315317  0.014099905         3431 
 4587000   0.51835648   -7.7310025    842.64067  0.015308493   0.01409522         3379 
 4588000   0.51695713   -7.7329129    843.37567  0.015318506  0.014090536         3418 
 4589000   0.51904799   -7.7393084    843.18545  0.015311714  0.014085854         3385 
 4590000   0.51893148   -7.7420477    842.45514  0.015295119  0.014081175         3357 
 4591000   0.52233337   -7.7341632    843.07865  0.015303105  0.014076497         3421 
 4592000   0.50398827   -7.7395726    844.33872  0.015322639  0.014071824         3419 
 4593000   0.51675933   -7.7406536     843.2566   0.01529967  0.014067155         3393 
 4594000   0.51008052   -7.7469061    842.54771   0.01528348   0.01406249         3387 
 4595000   0.52178663   -7.7436769    842.32451  0.015276107  0.014057824         3374 
 4596000   0.52382982   -7.7343397    842.29732   0.01527229  0.014053155         3369 
 4597000   0.51157987   -7.7397339    843.07143     0.015283   0.01404849         3407 
 4598000   0.51121271   -7.7373081    841.20822  0.015245908  0.014043822         3382 
 4599000   0.51844257   -7.7546614    842.96869  0.015274492  0.014039163         3369 
 4600000   0.51580966   -7.7528302    842.76358  0.015267456  0.014034502         3360 
 4601000   0.51074626   -7.7397804    841.32046     0.015238  0.014029846         3391 
 4602000   0.50420037   -7.7375339    841.94439  0.015245987   0.01402519         3370 
 4603000   0.52940903   -7.7388509    841.80451  0.015240143  0.014020538         3352 
 4604000   0.51725334   -7.7440822    841.99873  0.015240348  0.014015886         3396 
 4605000   0.50023119   -7.7524021    843.67781  0.015267423  0.014011238         3381 
 4606000   0.51950864   -7.7488801    841.03869  0.015216361  0.014006588         3379 
 4607000    0.5117334   -7.7482374    842.27586  0.015235436  0.014001944         3395 
 4608000   0.51042465   -7.7472859    844.61991  0.015274521  0.013997299         3416 
 4609000    0.5181882   -7.7367202    841.62675  0.015217089  0.013992654         3393 
 4610000   0.51640623   -7.7564989    841.79178  0.015216771  0.013988007         3422 
 4611000   0.51171452   -7.7439195    841.10355  0.015201033  0.013983365         3420 
 4612000   0.50117954   -7.7453904    843.02654  0.015232483  0.013978727         3381 
 4613000   0.50423553   -7.7401339    842.30172  0.015216087   0.01397409         3401 
 4614000     0.505552   -7.7510524    842.34517  0.015213574  0.013969454         3402 
 4615000   0.50706834   -7.7444233    841.71271  0.015198857   0.01396482         3386 
 4616000   0.50591722   -7.7298247    841.04991  0.015183599  0.013960185         3366 
 4617000   0.50796181   -7.7589892     842.7492  0.015210981  0.013955555         3392 
 4618000   0.51752145   -7.7544644     843.6365  0.015223699  0.013950928         3423 
 4619000   0.51783776   -7.7411488    843.37093  0.015215612  0.013946302         3398 
 4620000   0.51226789   -7.7300329     841.8897  0.015185601  0.013941677         3387 
 4621000    0.5210032   -7.7526628      841.081  0.015167731  0.013937052         3392 
 4622000   0.51259216    -7.749017    841.84005  0.015178134  0.013932427         3429 
 4623000   0.50609433   -7.7383374    841.73297  0.015172921  0.013927803         3415 
 4624000   0.50514711   -7.7395721    842.19498  0.015177966  0.013923185         3399 
 4625000   0.50979816   -7.7475628    843.40847  0.015196549   0.01391857         3399 
 4626000   0.51208296   -7.7484932    842.07833  0.015169303  0.013913958         3430 
 4627000   0.51473377   -7.7447416    842.10687  0.015166538  0.013909341         3362 
 4628000   0.51081266   -7.7447151    840.45558  0.015133527   0.01390473         3414 
 4629000   0.51128358   -7.7508586    842.24204  0.015162419  0.013900125         3402 
 4630000   0.52149626   -7.7372356    839.00131  0.015100816  0.013895519         3390 
 4631000   0.50815254   -7.7513836    842.19206  0.015154971  0.013890911         3385 
 4632000   0.51066464   -7.7484268     841.2706  0.015135122  0.013886307         3445 
 4633000   0.50815963   -7.7395229    841.03706  0.015127654  0.013881705         3389 
 4634000   0.50646276   -7.7522448    842.84365  0.015156878  0.013877104         3412 
 4635000   0.50876365    -7.745462     841.2587  0.015125112  0.013872505         3414 
 4636000   0.51360463   -7.7594092    843.34895  0.015159422  0.013867909         3414 
 4637000   0.50686325   -7.7501635    841.19367  0.015117419   0.01386331         3410 
 4638000   0.50428981   -7.7390189    843.53932  0.015156305  0.013858716         3396 
 4639000   0.50375622   -7.7491302    843.81624  0.015158013  0.013854127         3373 
 4640000   0.51274758   -7.7604273    842.85857  0.015137546  0.013849536         3388 
 4641000   0.51071817   -7.7562224    842.48047  0.015127495  0.013844947         3432 
 4642000    0.5164528   -7.7360045     841.8175  0.015112335  0.013840363         3395 
 4643000    0.5071506   -7.7692211    841.76522  0.015108142  0.013835778         3414 
 4644000   0.50123033   -7.7427218    841.44629  0.015099165  0.013831192         3438 
 4645000    0.5225243   -7.7506444    842.58326  0.015116313  0.013826614         3394 
 4646000    0.4968478   -7.7444498    842.21197  0.015106399  0.013822035         3420 
 4647000   0.50375109    -7.760537    841.43584   0.01508923  0.013817463         3451 
 4648000   0.50808649   -7.7508383    842.10646  0.015098007  0.013812889         3427 
 4649000   0.52073883   -7.7577119    840.93919  0.015073837  0.013808312         3401 
 4650000   0.51746016    -7.764682    841.48215  0.015080325  0.013803742         3426 
 4651000   0.51483125   -7.7472052     842.1988  0.015089923  0.013799174         3409 
 4652000    0.5092406   -7.7440544    842.61357   0.01509411  0.013794607         3418 
 4653000   0.50746101   -7.7539892    841.88672  0.015077848  0.013790039         3382 
 4654000     0.509925   -7.7628075    841.32546  0.015064559  0.013785474         3440 
 4655000   0.50592868   -7.7392357    841.25686  0.015060094   0.01378091         3395 
 4656000   0.50509795   -7.7544988    842.46406  0.015078466  0.013776352         3425 
 4657000    0.5026635    -7.737689    841.49831  0.015057947  0.013771792         3421 
 4658000   0.49799843    -7.751119    841.94967  0.015062789  0.013767234         3422 
 4659000    0.5186037   -7.7512408    842.41478  0.015067875   0.01376268         3417 
 4660000   0.50282809   -7.7498144    841.61524  0.015050344  0.013758126         3387 
 4661000   0.50238659    -7.759118    841.31211  0.015041695  0.013753576         3420 
 4662000   0.50322948   -7.7535707    841.02342  0.015033309  0.013749021         3420 
 4663000   0.49171463   -7.7506018      841.682  0.015041854  0.013744477         3413 
 4664000   0.49222519   -7.7513613    840.40037   0.01501573   0.01373993         3406 
 4665000   0.51513878   -7.7535552    841.55824  0.015033195  0.013735388         3401 
 4666000   0.51586471   -7.7664058    842.71335  0.015050603  0.013730846         3409 
 4667000   0.50239247   -7.7670123    842.28792  0.015039781  0.013726304         3395 
 4668000   0.48844343   -7.7547205    841.63947  0.015024983  0.013721771         3400 
 4669000    0.5078969   -7.7676093    841.94662  0.015027247  0.013717235         3416 
 4670000   0.50605609   -7.7512327    840.96555  0.015006523  0.013712697         3425 
 4671000   0.49672401   -7.7561734    842.33765  0.015027789  0.013708163         3416 
 4672000   0.50380464   -7.7581578    840.11088  0.014984855  0.013703632         3438 
 4673000   0.49085849   -7.7484635     840.8569  0.014994952  0.013699106         3392 
 4674000    0.5025958   -7.7696595    841.63584  0.015005631  0.013694577         3373 
 4675000   0.49699145   -7.7620359    840.95832  0.014990344  0.013690053         3406 
 4676000   0.49925547   -7.7655252    840.54889  0.014979842  0.013685527         3454 
 4677000   0.49834307   -7.7445511    841.90682  0.015000834  0.013681005         3415 
 4678000   0.50864342   -7.7652844    841.83138  0.014996284  0.013676488         3400 
 4679000   0.51315184   -7.7626679    841.14701   0.01498089  0.013671969         3416 
 4680000   0.49604149   -7.7507669    841.04257  0.014975829  0.013667451         3401 
 4681000   0.49952654   -7.7724181     842.2647  0.014994387  0.013662937         3422 
 4682000   0.50890177   -7.7706341    841.15517  0.014971436  0.013658427         3371 
 4683000   0.49808894   -7.7673328    841.29308  0.014970693  0.013653916         3431 
 4684000   0.49244531   -7.7667203     841.4467   0.01497023   0.01364941         3379 
 4685000   0.51198695   -7.7657859    840.68966  0.014953569  0.013644904         3427 
 4686000   0.50665534   -7.7655438    841.07364  0.014957207  0.013640401         3395 
 4687000   0.50469873   -7.7668754    842.39415  0.014977494  0.013635896         3419 
 4688000   0.49975304   -7.7824664    841.14655  0.014952122  0.013631392         3418 
 4689000   0.50233977    -7.773433    842.68806  0.014976329   0.01362689         3372 
 4690000   0.49145042   -7.7681487    840.62238  0.014936432  0.013622392         3420 
 4691000   0.49927411   -7.7810434    841.47413  0.014948379  0.013617897         3409 
 4692000   0.49172299   -7.7783417    841.32425  0.014942531  0.013613403         3387 
 4693000   0.50343754   -7.7591247    841.64127  0.014944976  0.013608911         3370 
 4694000   0.49402538   -7.7672138    842.15059  0.014950834   0.01360442         3397 
 4695000   0.49887698   -7.7580136    841.52636   0.01493657  0.013599931         3397 
 4696000   0.50179909   -7.7490961    841.42793  0.014931643  0.013595445         3423 
 4697000   0.51046949   -7.7656393    841.58278  0.014931211  0.013590964         3413 
 4698000   0.50284575   -7.7698952     842.5034  0.014944363   0.01358648         3407 
 4699000   0.51135585   -7.7532813    842.02212  0.014932647  0.013582002         3412 
 4700000   0.50300465   -7.7674542    841.61649  0.014922278  0.013577524         3390 
 4701000   0.50030662   -7.7737767    841.46805  0.014916473  0.013573051         3411 
 4702000   0.49882364   -7.7837077    840.78235  0.014901148  0.013568577         3411 
 4703000   0.50791227   -7.7652557    840.42694  0.014891682  0.013564101         3427 
 4704000   0.49551227   -7.7483128    841.04158  0.014899404  0.013559631         3406 
 4705000   0.50249272   -7.7669677    841.49712  0.014904306  0.013555161         3418 
 4706000   0.50113979   -7.7764452    840.33548  0.014880569   0.01355069         3436 
 4707000   0.49984707   -7.7695268    841.90045  0.014905114  0.013546223         3399 
 4708000   0.50249026   -7.7738208    840.89775    0.0148842  0.013541759         3398 
 4709000     0.502142   -7.7879335    841.14587   0.01488543  0.013537295         3448 
 4710000   0.49798572   -7.7785329    841.36864  0.014886211  0.013532831         3441 
 4711000   0.50406044    -7.765794    840.72116  0.014871598  0.013528369         3390 
 4712000    0.4981197   -7.7739303     841.2466  0.014877734  0.013523912         3420 
 4713000   0.49350919    -7.770797    841.68123  0.014882262  0.013519457         3414 
 4714000   0.48880115   -7.7652789    840.09975  0.014851148  0.013515005         3381 
 4715000    0.4996737   -7.7717334    840.99569  0.014863833  0.013510554         3417 
 4716000   0.49789479   -7.7824941    842.26273  0.014883071  0.013506102         3430 
 4717000    0.5012092   -7.7647296    841.98748  0.014875053  0.013501651         3399 
 4718000   0.49923406   -7.7673198    842.70108  0.014884504  0.013497202         3407 
 4719000   0.48999084   -7.7679479    840.65709  0.014845255  0.013492756         3415 
 4720000   0.49748529   -7.7756514    841.35511  0.014854434  0.013488311         3398 
 4721000     0.487086   -7.7782893    841.21737  0.014848856   0.01348387         3453 
 4722000   0.49682539   -7.7600432    840.35181  0.014830436  0.013479425         3453 
 4723000   0.49074104   -7.7762146     841.2817  0.014843703  0.013474986         3419 
 4724000   0.49187352   -7.7696374    840.91424  0.014834079  0.013470549         3382 
 4725000   0.49297478   -7.7744567    842.37311  0.014856669  0.013466114         3400 
 4726000   0.49128098   -7.7670198    841.40964  0.014836536  0.013461681         3380 
 4727000   0.49114713   -7.7739903      841.221  0.014830072   0.01345725         3381 
 4728000   0.49600912   -7.7663021    840.39719  0.014812415  0.013452819         3452 
 4729000   0.50773082    -7.771843    841.52036  0.014829075  0.013448391         3447 
 4730000   0.49815308   -7.7713431    842.52292  0.014843603  0.013443964         3415 
 4731000   0.50456238   -7.7703953     841.0103  0.014813822  0.013439541         3366 
 4732000   0.48854442   -7.7652704    840.34061  0.014798898  0.013435115         3442 
 4733000   0.50360061   -7.7676413    841.80846  0.014821615  0.013430692         3412 
 4734000   0.48900605   -7.7707047    840.51301   0.01479568  0.013426273         3455 
 4735000   0.50115802   -7.7697626    840.85244  0.014798529  0.013421856         3398 
 4736000     0.484964   -7.7711624    841.42827  0.014805537  0.013417439         3402 
 4737000   0.49598283   -7.7692904    841.46157  0.014802997  0.013413024         3393 
 4738000    0.4893079   -7.7750374    840.89699  0.014789943   0.01340861         3402 
 4739000    0.4938467   -7.7813034    841.14279  0.014791144  0.013404197         3403 
 4740000    0.4864625   -7.7691057    840.35297  0.014774138  0.013399788         3405 
 4741000   0.51078315   -7.7772599    841.14033  0.014784861  0.013395382         3419 
 4742000    0.4875497   -7.7810122    840.34745   0.01476781  0.013390974         3427 
 4743000   0.47826309   -7.7832999    840.12436  0.014760777   0.01338657         3433 
 4744000   0.49578251   -7.7701972    841.07928  0.014774439  0.013382168         3404 
 4745000   0.48822417   -7.7638766    842.35339  0.014793702  0.013377769         3398 
 4746000   0.50777331    -7.776841     840.8342   0.01476391  0.013373372         3411 
 4747000     0.486727   -7.7740883    840.31153  0.014751624  0.013368973         3444 
 4748000   0.48787945   -7.7634256    842.39333  0.014785056   0.01336458         3399 
 4749000   0.48890075   -7.7872858    840.63574  0.014751101  0.013360189         3448 
 4750000   0.49199985   -7.7749999    839.95533  0.014736058  0.013355796         3442 
 4751000   0.49497648   -7.7792053    840.25603  0.014738231  0.013351411         3426 
 4752000    0.4807461   -7.7760571    841.51973   0.01475729  0.013347024         3410 
 4753000   0.49705199   -7.7815344     840.3302   0.01473333  0.013342642         3422 
 4754000   0.48533582   -7.7874631    840.54697  0.014734031   0.01333826         3420 
 4755000   0.48467771   -7.7847585    842.29592  0.014761583  0.013333879         3443 
 4756000   0.49347884   -7.7810214    841.63518  0.014746902  0.013329501         3435 
 4757000   0.49592751   -7.7751422     840.3397  0.014721107  0.013325123         3428 
 4758000   0.48431432   -7.7654394    841.15319  0.014732261  0.013320747         3415 
 4759000   0.50429508   -7.7580401    840.00103  0.014708991  0.013316372         3383 
 4760000   0.49804989   -7.7732409    841.21135  0.014727089     0.013312         3453 
 4761000   0.49335022    -7.779915    840.76608  0.014716203  0.013307628         3438 
 4762000   0.49312598   -7.7610436    841.04555  0.014718003  0.013303259         3447 
 4763000   0.49443325   -7.7839861    840.98373  0.014713831  0.013298893         3447 
 4764000   0.49979011   -7.7829273    840.40422  0.014700606  0.013294528         3431 
 4765000   0.49363721   -7.7971515    840.37239  0.014696964  0.013290164         3424 
 4766000   0.49183797   -7.7844003    840.69466  0.014699515  0.013285805         3438 
 4767000   0.48418458   -7.7735006     839.9562  0.014683522  0.013281445         3412 
 4768000   0.48319656   -7.7895837    840.88463  0.014696669  0.013277087         3426 
 4769000   0.48411228   -7.7612378    840.07825  0.014679497   0.01327273         3421 
 4770000   0.48676107   -7.7704522    839.88312   0.01467301  0.013268374         3410 
 4771000   0.49059019   -7.7924419    841.56185  0.014699257  0.013264022         3405 
 4772000   0.49407031    -7.774553    840.79837  0.014682844   0.01325967         3412 
 4773000   0.47919528   -7.7932543    840.92662  0.014682007   0.01325532         3433 
 4774000   0.48008282   -7.7800538    839.58379  0.014655491   0.01325097         3438 
 4775000   0.48048351   -7.7854911     840.2564  0.014664161  0.013246624         3428 
 4776000   0.48380603    -7.789402    841.98051  0.014691173  0.013242277         3407 
 4777000    0.4901911   -7.7819244    840.89188  0.014669107  0.013237935         3437 
 4778000   0.48621138   -7.7796878    839.99189   0.01465034  0.013233593         3425 
 4779000   0.48557229   -7.7656174    841.09571  0.014666522  0.013229253         3418 
 4780000   0.48871847   -7.7586578    840.04853  0.014645197  0.013224915         3454 
 4781000   0.48041014   -7.7879156    841.01891  0.014659048  0.013220577         3437 
 4782000   0.49039307   -7.7695275    839.67058  0.014632486   0.01321624         3439 
 4783000   0.48313664   -7.7833486    841.18782  0.014655861  0.013211907         3406 
 4784000   0.48657242   -7.7825265    840.92627  0.014648242  0.013207577         3443 
 4785000   0.48355387    -7.789117    840.42552   0.01463646  0.013203247         3423 
 4786000   0.48241818    -7.781944    839.85647  0.014623493  0.013198919         3422 
 4787000   0.49570803   -7.7782852    839.92716  0.014621669  0.013194594         3418 
 4788000   0.49121293   -7.7965762    841.46277  0.014645342   0.01319027         3466 
 4789000   0.49107096   -7.7827876     841.2027  0.014637758  0.013185952         3425 
 4790000   0.49272013   -7.7915113    840.67014  0.014625437   0.01318163         3430 
 4791000   0.48845003   -7.7894883    841.00317  0.014628177  0.013177311         3410 
 4792000   0.48742924   -7.7813029     839.8552  0.014605161  0.013172997         3403 
 4793000   0.49391608   -7.7887838    840.23955  0.014608797   0.01316868         3412 
 4794000   0.48167042   -7.7948634    842.37478  0.014642866  0.013164369         3420 
 4795000   0.49220684   -7.7950786    839.80244  0.014595107  0.013160054         3453 
 4796000   0.48604911   -7.7913478    840.24191    0.0145997  0.013155742         3406 
 4797000   0.48689832   -7.7886985    839.10164  0.014576847  0.013151436         3427 
 4798000   0.48605578   -7.7861405    840.63647  0.014600467  0.013147131         3423 
 4799000   0.47297065   -7.7866588    840.88616   0.01460176  0.013142826         3418 
 4800000   0.48204521    -7.796562    840.85102  0.014598108  0.013138521         3439 
 4801000   0.47922196   -7.7909365    839.58429   0.01457308  0.013134219         3420 
 4802000   0.48416444   -7.7867652    839.98259  0.014576957  0.013129922         3422 
 4803000   0.48487582   -7.7959718    841.66558  0.014603123  0.013125623         3442 
 4804000   0.48031644   -7.7928764     840.0308  0.014571725  0.013121326         3449 
 4805000   0.49854661   -7.7922061    840.33973   0.01457405  0.013117033         3424 
 4806000   0.47975051    -7.783278    840.38345  0.014571776  0.013112741         3414 
 4807000    0.4794276   -7.7950244    841.22702  0.014583368  0.013108449         3389 
 4808000   0.47828386   -7.7905391     840.7125  0.014571417  0.013104156         3388 
 4809000   0.47565686   -7.7911878    839.40753  0.014545774  0.013099867         3387 
 4810000   0.47888339     -7.77849    839.65072  0.014546963  0.013095579         3387 
 4811000    0.4863509   -7.7926115    839.64884  0.014543907  0.013091295         3419 
 4812000   0.48371898   -7.7882625    840.67521  0.014558659  0.013087011         3388 
 4813000   0.47884522    -7.803336    840.13256  0.014546239  0.013082729         3421 
 4814000   0.48314779   -7.7796831     838.9207  0.014522239  0.013078452         3409 
 4815000   0.48425592   -7.7893006    840.91784  0.014553787  0.013074171         3424 
 4816000   0.47476664   -7.7735007    839.27616  0.014522359  0.013069894         3423 
 4817000    0.4801445   -7.8034337    840.58918  0.014542059  0.013065623         3427 
 4818000   0.48267337   -7.7904812    838.76099   0.01450742   0.01306135         3429 
 4819000   0.48659489   -7.7826501    840.14728  0.014528382  0.013057076         3385 
 4820000   0.47648963   -7.7858256    840.57048  0.014532685  0.013052809         3412 
 4821000   0.48285035   -7.8003701    840.16782   0.01452271   0.01304854         3421 
 4822000   0.48466616   -7.7842801    839.69951  0.014511605  0.013044276         3408 
 4823000    0.4915654   -7.7848529    839.57577  0.014506458  0.013040011         3429 
 4824000   0.48271501   -7.7858726    839.51202   0.01450235   0.01303575         3421 
 4825000   0.47575177    -7.798597    839.73906  0.014503265  0.013031489         3435 
 4826000   0.47855783   -7.7799438    840.47866  0.014513031  0.013027231         3423 
 4827000   0.48259474   -7.7889125    841.88224  0.014534256  0.013022976         3396 
 4828000   0.48860709   -7.7978654    840.18994  0.014502036  0.013018721         3387 
 4829000   0.47466668   -7.7899914    840.04799  0.014496583  0.013014469         3424 
 4830000   0.48466674    -7.806231    840.43563   0.01450027  0.013010215         3376 
 4831000   0.47511681   -7.7924215    839.36499    0.0144788  0.013005967         3383 
 4832000    0.4696393   -7.7818237    840.20555    0.0144903   0.01300172         3415 
 4833000   0.48136288   -7.7908859    841.42938  0.014508404  0.012997476         3394 
 4834000    0.4834358   -7.7866911    840.50222  0.014489419   0.01299323         3384 
 4835000     0.459476    -7.771814    840.50465  0.014486464  0.012988988         3445 
 4836000   0.47765859   -7.7803709    840.73786  0.014487487  0.012984749         3374 
 4837000   0.47670721   -7.7933751    839.48648  0.014462933  0.012980512         3340 
 4838000   0.47056671   -7.8029471    840.36713  0.014475112  0.012976276         3427 
 4839000   0.47464028   -7.8092699    839.17959   0.01445167   0.01297204         3402 
 4840000   0.47344254   -7.7793473    839.48696  0.014453977  0.012967806         3385 
 4841000   0.48276469   -7.7886803    840.34928  0.014465835  0.012963572         3415 
 4842000   0.47230258   -7.7926715    841.39369  0.014480822  0.012959342         3395 
 4843000   0.48185116   -7.8174081    839.37642  0.014443121  0.012955114         3381 
 4844000   0.47442992   -7.8032438    840.34149  0.014456742  0.012950887         3416 
 4845000   0.47537441   -7.8028724    839.86348  0.014445536  0.012946664         3411 
 4846000   0.48431615    -7.799637    838.86519  0.014425389  0.012942441         3416 
 4847000   0.48122778   -7.7975363    840.00937  0.014442084   0.01293822         3399 
 4848000   0.47898153   -7.7965847    839.80623  0.014435613  0.012934002         3374 
 4849000   0.48016032    -7.790743    839.84234  0.014433257  0.012929785         3399 
 4850000   0.47256121   -7.7827419    839.46531  0.014423803   0.01292557         3390 
 4851000   0.47288157   -7.8019514    840.32226   0.01443555  0.012921357         3421 
 4852000   0.47499305   -7.7811555    840.13265  0.014429319  0.012917144         3428 
 4853000   0.47625056   -7.7785992    840.60145  0.014434395  0.012912935         3424 
 4854000   0.46657163   -7.8001625    839.27716  0.014408686  0.012908727         3446 
 4855000   0.48122451   -7.7985377     839.9624   0.01441748  0.012904518         3402 
 4856000   0.47126697   -7.8085077    840.62573  0.014425895  0.012900311         3442 
 4857000   0.46599563   -7.7897942    839.55505  0.014404554  0.012896106         3449 
 4858000   0.47927772   -7.7965729    840.02237  0.014409606  0.012891904         3417 
 4859000   0.47395431   -7.8048555    840.14709  0.014408779  0.012887704         3417 
 4860000   0.47138953   -7.7938211    838.76519  0.014382119  0.012883501         3449 
 4861000   0.47664372   -7.8010402    839.70714  0.014395309  0.012879302         3444 
 4862000   0.47441279   -7.7924529    838.61644  0.014373653  0.012875106         3460 
 4863000    0.4757149   -7.8112908    839.93546  0.014393301  0.012870913         3450 
 4864000   0.46549841   -7.8132894    839.12054   0.01437638  0.012866717         3457 
 4865000   0.46599271   -7.7885984    839.06599   0.01437249  0.012862525         3461 
 4866000   0.48312104   -7.8045501    840.28615  0.014390433  0.012858336         3420 
 4867000    0.4812978   -7.7857459    838.63515  0.014359207   0.01285415         3431 
 4868000   0.47680629   -7.7912545    840.50361  0.014388243  0.012849965         3402 
 4869000   0.47211553   -7.7993591    838.02066  0.014342792  0.012845781         3434 
 4870000   0.47843061   -7.8009319    838.66864  0.014350935    0.0128416         3437 
 4871000   0.47717539   -7.8027318    839.89624  0.014368991  0.012837415         3408 
 4872000   0.48256549   -7.7996822    839.11338  0.014352651  0.012833235         3378 
 4873000   0.47746173   -7.7918854    840.42221  0.014372088  0.012829058         3433 
 4874000   0.47016273   -7.7900027    839.31563  0.014350219  0.012824885         3404 
 4875000   0.47581264   -7.7932677    839.23142  0.014345836   0.01282071         3415 
 4876000   0.46970888   -7.8043295    838.83872  0.014336183   0.01281654         3431 
 4877000   0.47959752   -7.7973411    839.80282  0.014349717  0.012812367         3439 
 4878000   0.47688331    -7.808374    839.42846   0.01434038  0.012808197         3428 
 4879000   0.48591973   -7.7960052    840.49063  0.014355582  0.012804033         3434 
 4880000   0.47855721   -7.8023906    838.89925  0.014325465  0.012799868         3433 
 4881000   0.47325728   -7.7921196    839.68631  0.014335968  0.012795705         3447 
 4882000   0.47137564   -7.8053119    839.89384  0.014336574  0.012791543         3430 
 4883000     0.474003   -7.7961478    840.61535  0.014345951  0.012787384         3425 
 4884000   0.46508636   -7.8023842    840.34121  0.014338336  0.012783225         3418 
 4885000   0.47296918   -7.7950075    840.36642  0.014335831  0.012779071         3416 
 4886000   0.47402625   -7.8056193    839.72408  0.014321942  0.012774915         3389 
 4887000   0.46555237   -7.8015792    839.16614  0.014309497  0.012770761         3413 
 4888000   0.46901805   -7.7976951     838.9124  0.014302244  0.012766608         3429 
 4889000   0.47437713   -7.8008003    839.45551  0.014308576  0.012762456         3415 
 4890000   0.47230439   -7.8045808    839.72219  0.014310194  0.012758309         3435 
 4891000   0.46785411   -7.8132029    837.82209  0.014274894  0.012754161         3439 
 4892000   0.46837588   -7.8091023    839.14461  0.014294505  0.012750015         3450 
 4893000   0.47946215   -7.8033534    839.31019  0.014294403  0.012745867         3398 
 4894000   0.47019339   -7.7983832     839.1082  0.014288043  0.012741725         3420 
 4895000    0.4752733   -7.8044489     839.7178  0.014295502  0.012737585         3447 
 4896000   0.47524748   -7.8014715    838.97377  0.014279918  0.012733448         3431 
 4897000   0.47585574   -7.8137126    839.14196  0.014279864   0.01272931         3447 
 4898000   0.47516828   -7.8001672    837.60352  0.014250774  0.012725176         3409 
 4899000   0.46651899   -7.7953155    839.16854  0.014274487  0.012721041         3418 
 4900000   0.46671178   -7.8096694    840.21294  0.014289336  0.012716909         3433 
 4901000   0.46076322   -7.8013189    839.30254   0.01427094  0.012712779         3404 
 4902000   0.47290829   -7.8098811    839.16877  0.014265755  0.012708651         3456 
 4903000   0.46926732   -7.8182918     839.1004  0.014261683  0.012704524         3386 
 4904000   0.46248132   -7.7867686    840.81796  0.014287962  0.012700399         3450 
 4905000   0.45945346   -7.8041882    840.11036  0.014273027  0.012696275         3414 
 4906000   0.47758556   -7.7998271     839.8727  0.014266081  0.012692153         3417 
 4907000   0.46873288   -7.8006561    840.05565   0.01426628  0.012688033         3432 
 4908000   0.46238306   -7.8081673    839.79254  0.014258906  0.012683914         3430 
 4909000   0.45240304   -7.8015539    838.15057  0.014228128  0.012679796         3432 
 4910000   0.47235699   -7.8174187    840.79705  0.014270147  0.012675682         3401 
 4911000   0.46126061   -7.8213608    839.06123  0.014237786  0.012671571         3425 
 4912000   0.46356137   -7.8075548    838.74285  0.014229486   0.01266746         3400 
 4913000   0.45631158   -7.8113002    837.93488  0.014212886  0.012663349         3424 
 4914000   0.46834229   -7.7963856    839.50019  0.014236538  0.012659242         3405 
 4915000   0.46025476   -7.8023421    839.10992  0.014227025  0.012655135         3442 
 4916000   0.46537761   -7.8153862     839.4737  0.014230297  0.012651029         3428 
 4917000   0.46777107   -7.8016556    839.31785  0.014224762  0.012646925         3435 
 4918000   0.46332101   -7.8063771    838.76609   0.01421252  0.012642825         3409 
 4919000   0.46565372    -7.822917    839.42821  0.014220848  0.012638727         3412 
 4920000   0.45966971   -7.7952108    838.73626  0.014206237  0.012634628         3404 
 4921000    0.4560236   -7.8092729    839.07658  0.014209114  0.012630534         3416 
 4922000   0.46784797   -7.8202239    839.24591  0.014209094   0.01262644         3391 
 4923000   0.46894075   -7.7977208    840.12945  0.014221163  0.012622346         3412 
 4924000   0.45331807   -7.8063191    839.43248   0.01420648  0.012618256         3433 
 4925000   0.45936504   -7.8220362    837.93518   0.01417826  0.012614166         3401 
 4926000   0.46720905   -7.8136205    839.24603  0.014197558  0.012610079         3413 
 4927000   0.46395744   -7.8085538    838.00538  0.014173692  0.012605992         3425 
 4928000     0.458981   -7.8137844    839.84227  0.014201878  0.012601905         3411 
 4929000   0.46437687   -7.8020202    838.22782  0.014171702  0.012597821         3408 
 4930000   0.45877066   -7.8112275    837.45626  0.014155785  0.012593739         3439 
 4931000   0.45894153   -7.8085966    839.58213  0.014188841   0.01258966         3413 
 4932000   0.46491493   -7.8121974    839.16348  0.014178891  0.012585581         3406 
 4933000   0.44658078   -7.8218639    837.84318  0.014153713  0.012581502         3472 
 4934000   0.46046357   -7.8109589    839.41433   0.01417738  0.012577426         3447 
 4935000   0.46352178   -7.8092256     840.0147  0.014184645  0.012573353         3448 
 4936000   0.46010026   -7.8035404     838.3222  0.014153198  0.012569283         3419 
 4937000   0.46235119   -7.8063357    838.36822  0.014151108   0.01256521         3390 
 4938000   0.46835399   -7.8278596    838.75722  0.014154807  0.012561141         3453 
 4939000   0.46500655   -7.8089717    839.85556  0.014170472  0.012557075         3434 
 4940000   0.46527576   -7.8014833    839.03863  0.014153823   0.01255301         3400 
 4941000   0.46277504   -7.8235594    838.44866  0.014141008  0.012548947         3434 
 4942000   0.46521735   -7.8000704    840.48173  0.014172429  0.012544888         3416 
 4943000   0.46469779   -7.8059473    838.25365  0.014131999  0.012540828         3381 
 4944000   0.45760963   -7.8162997     838.8253  0.014138776  0.012536769         3421 
 4945000   0.46212427   -7.8124826    839.15197  0.014141422  0.012532713         3426 
 4946000   0.47452219   -7.8288055    838.84188  0.014133338  0.012528658         3439 
 4947000   0.45997512    -7.817776    838.75891  0.014129084  0.012524605         3418 
 4948000   0.46403811   -7.7977751    838.09973  0.014115126  0.012520552         3376 
 4949000   0.45912241   -7.8124315    839.38275  0.014133878  0.012516501         3423 
 4950000   0.45588528   -7.8228576    838.69209  0.014119395  0.012512454         3391 
 4951000   0.44405518   -7.8137676    838.57363   0.01411455  0.012508407         3419 
 4952000   0.46007389   -7.8179698    838.93377   0.01411776   0.01250436         3417 
 4953000   0.46190306    -7.813829    838.75528  0.014111907  0.012500315         3431 
 4954000   0.46762429   -7.8081772    838.08172  0.014097728  0.012496269         3413 
 4955000   0.46386346   -7.8164976    838.23747  0.014097502  0.012492227         3410 
 4956000   0.45600949   -7.8358336    839.09697   0.01410911  0.012488189         3449 
 4957000     0.454514   -7.8236693    838.06683  0.014088945  0.012484148         3432 
 4958000   0.45848471   -7.8271594    838.65111  0.014095924   0.01248011         3441 
 4959000   0.46459701   -7.8061963    839.15774  0.014101595  0.012476076         3432 
 4960000    0.4666606    -7.803729    837.58251  0.014072287  0.012472045         3405 
 4961000   0.45456339   -7.8299857    838.56977  0.014086034  0.012468011         3423 
 4962000   0.45038327     -7.80671    838.67318  0.014084932  0.012463982         3437 
 4963000   0.45566085   -7.8064494    838.02501  0.014071211  0.012459958         3401 
 4964000   0.45292649   -7.8195177    839.05907  0.014085735  0.012455928         3416 
 4965000     0.466936   -7.8178203    838.98514  0.014081657  0.012451908         3438 
 4966000   0.45319278    -7.829196    838.07763  0.014063593  0.012447887         3436 
 4967000   0.45690931   -7.8336749    839.38062  0.014082622  0.012443865         3410 
 4968000   0.46069847   -7.8187737    838.66067  0.014067711  0.012439846         3428 
 4969000   0.45379324   -7.8401371    839.04989  0.014071408  0.012435828         3395 
 4970000   0.46185036   -7.8262622    839.55172  0.014076991  0.012431811         3423 
 4971000   0.45396323   -7.8090458    838.84149  0.014062252  0.012427795         3439 
 4972000   0.45110443     -7.81921    836.96905  0.014028041   0.01242378         3420 
 4973000   0.45484961   -7.8077747    838.72923  0.014054716   0.01241977         3403 
 4974000   0.46187393   -7.8242599    838.50405  0.014048118   0.01241576         3433 
 4975000   0.45856443   -7.8358257    839.08363  0.014055002  0.012411751         3444 
 4976000   0.46632946   -7.8383985    838.26802  0.014038519  0.012407742         3426 
 4977000   0.46459194   -7.8290514    838.44682  0.014038692  0.012403736         3428 
 4978000   0.46109374   -7.8251913    839.14318  0.014047529  0.012399733         3431 
 4979000   0.45648314   -7.8324949    837.98925  0.014025394  0.012395732         3425 
 4980000   0.44881968   -7.8259903    838.72189  0.014034838  0.012391729         3435 
 4981000   0.45517362   -7.8275279    838.44697   0.01402742  0.012387727         3407 
 4982000   0.45244065   -7.8212453    838.56885  0.014026643   0.01238373         3436 
 4983000   0.45611582   -7.8136515    838.24447  0.014018404  0.012379733         3426 
 4984000   0.45483791   -7.8262052    837.60659  0.014004926  0.012375742         3419 
 4985000   0.44888233   -7.8257133     838.1842  0.014011772  0.012371746         3420 
 4986000   0.45845909   -7.8140652    839.40894  0.014029431  0.012367756         3397 
 4987000   0.44669251   -7.8146457     838.3049   0.01400817  0.012363768         3426 
 4988000   0.46251901   -7.8213267    838.90578    0.0140154  0.012359778         3416 
 4989000   0.45632725   -7.8165005    839.19653  0.014017447  0.012355793         3429 
 4990000   0.45404594   -7.8189563    838.33698  0.014000284  0.012351811         3404 
 4991000   0.45273937   -7.8190076    838.44087  0.013999213  0.012347828         3427 
 4992000   0.46020605   -7.8341368    838.97767   0.01400537  0.012343847         3472 
 4993000   0.44595123   -7.8263524    838.33642  0.013991862  0.012339867         3412 
 4994000   0.44636104   -7.8272738    839.53506  0.014009062  0.012335891         3410 
 4995000   0.46015541   -7.8093466    838.00797   0.01398078  0.012331914         3432 
 4996000   0.45273478   -7.8291132     837.8657  0.013975609  0.012327939         3438 
 4997000    0.4503089    -7.812088    838.79998  0.013988393  0.012323966         3412 
 4998000   0.45579592   -7.8307166    838.22459     0.013976  0.012319996         3449 
 4999000    0.4525161   -7.8278753    838.58863  0.013979273  0.012316027         3427 
 5000000   0.44977514   -7.8187501    838.81312  0.013980219  0.012312061         3433 
 5001000   0.45033303   -7.8451555    839.12172  0.013982566  0.012308094         3416 
 5002000   0.45478736   -7.8245299    838.08109  0.013962433   0.01230413         3403 
 5003000   0.44246259   -7.8334715    838.30155  0.013963315  0.012300168         3425 
 5004000   0.44940268   -7.8229826    838.47339  0.013963386  0.012296207         3424 
 5005000   0.45536583   -7.8182121    838.43157    0.0139599  0.012292248         3407 
 5006000    0.4455993   -7.8368881      839.307  0.013971684   0.01228829         3424 
 5007000   0.45064013   -7.8409008    838.86557  0.013961547  0.012284336         3422 
 5008000   0.44661696   -7.8369498    838.11174  0.013946215  0.012280382         3455 
 5009000   0.44177425    -7.825278    837.52996  0.013933752  0.012276427         3439 
 5010000   0.45437529   -7.8271864    838.27756  0.013943406  0.012272477         3429 
 5011000   0.45892655   -7.8307354    838.31539  0.013941252  0.012268525         3434 
 5012000   0.44342386    -7.821335    838.49381  0.013941437  0.012264579         3392 
Loop time of 10798.7 on 48 procs for 5000000 steps with 4000 atoms

Performance: 80009.696 tau/day, 463.019 timesteps/s
99.4% CPU use with 48 MPI tasks x no OpenMP threads

MPI task timing breakdown:
Section |  min time  |  avg time  |  max time  |%varavg| %total
---------------------------------------------------------------
Pair    | 698.6      | 737.04     | 764.47     |  57.7 |  6.83
Neigh   | 66.887     | 68.116     | 69.566     |   7.0 |  0.63
Comm    | 589.55     | 627.06     | 659.46     |  60.7 |  5.81
Output  | 14.747     | 14.752     | 14.845     |   0.4 |  0.14
Modify  | 9177.8     | 9225.1     | 9269.6     |  23.7 | 85.43
Other   |            | 126.6      |            |       |  1.17

Nlocal:        83.3333 ave          89 max          75 min
Histogram: 2 0 2 1 6 12 11 6 4 4
Nghost:        1789.85 ave        1805 max        1773 min
Histogram: 1 4 4 5 7 12 1 7 3 4
Neighs:        10989.9 ave       11859 max        9680 min
Histogram: 2 1 1 2 10 7 10 4 7 4
FullNghs:      21980.4 ave       23536 max       19370 min
Histogram: 2 0 1 1 9 6 12 7 5 5

Total # of neighbors = 1055061
Ave neighs/atom = 263.76525
Neighbor list builds = 269713
Dangerous builds = 0

#clear
#
#next RN
#
#jump SELF
Total wall time: 3:00:02
