
units lj                  # Use reduced LJ style units
atom_style atomic         # Uncharged point particles
atom_modify map hash      # Needed for indexing of clusters etc
                          # Used to be able to find where atoms are in relation to each other.

lattice fcc 1.0 spacing 1 1 1
Lattice spacing in x,y,z = 1.5874011 1.5874011 1.5874011
region box block 0 10 0 10 0 10 units lattice
create_box 2 box
Created orthogonal box = (0.0000000 0.0000000 0.0000000) to (15.874011 15.874011 15.874011)
  3 by 4 by 4 MPI processor grid
create_atoms 1 box
Created 4000 atoms
  using lattice units in orthogonal box = (0.0000000 0.0000000 0.0000000) to (15.874011 15.874011 15.874011)
  create_atoms CPU = 0.003 seconds
set type 1 type/fraction 2 0.55 78393
Setting atom values ...
  2215 settings made for type/fraction
mass 1 1.0
mass 2 1.0
pair_style lj/cut  3.5
pair_modify tail  yes
pair_coeff 1  1  1.0  1.0   # Intearaction between 1 and 1 set with epsilon = 1 and sigma = 1
pair_coeff 1  2  1.5  0.8
pair_coeff 2  2  0.5  0.88

write_data data.0
System init for write_data ...
Neighbor list info ...
  update every 1 steps, delay 10 steps, check yes
  max neighbors/atom: 2000, page size: 100000
  master list distance cutoff = 3.8
  ghost atom cutoff = 3.8
  binsize = 1.9, bins = 9 9 9
  1 neighbor lists, perpetual/occasional/extra = 1 0 0
  (1) pair lj/cut, perpetual
      attributes: half, newton on
      pair build: half/bin/atomonly/newton
      stencil: half/bin/3d
      bin: standard
WARNING: Not all mixed pair coeffs generated from mixing. Use write_data with 'pair ij' option to store all pair coeffs. (../write_data.cpp:312)


#############################
#   M E L T   S Y S T E M   #
#############################

velocity all create 2.4 9580093 mom yes dist gaussian # Assign velocities
                                                    # Temperature 2.4, random number seed, zero linear momentum
                                                                                # Gaussian distribution

timestep 0.002   # simulation timestep
thermo 1000       # output thermodynamic data every 1000 steps bf 100

# Define a fix  in this case with index 1 applied to all
# particles in the simulation. This fix is for simulations
# in the anisotropic NPT ensemble. Note that we use the MTK
# correction.
fix 1 all npt temp 2.4 2.4 0.1 iso 5.68 5.68 0.5 mtk yes tchain 5 pchain 5 # Use NPT ensemble
                                                                         # Set temperature and pressure and damping
                                                                         # Numbers of thermostats in chain and in barostat
run 10000          # run for 10000 steps
Per MPI rank memory allocation (min/avg/max) = 3.642 | 3.644 | 3.648 Mbytes
Step Temp E_pair E_mol TotEng Press Volume 
       0          2.4   -4.9973821            0   -1.3982821   -4.1559512         4000 
    1000    2.4190976    -4.688699            0   -1.0609597    5.8317457    3634.5201 
    2000    2.4478138   -4.6007038            0  -0.92990103    5.7455527    3697.5712 
    3000    2.4593532   -4.7038793            0   -1.0157718    5.7723219    3645.9455 
    4000     2.420905   -4.7038646            0    -1.073415      5.84592    3631.8306 
    5000    2.4035833   -4.7282947            0    -1.123821    5.5813604    3639.6244 
    6000    2.3924743   -4.6833054            0    -1.095491    5.8025095    3652.9925 
    7000     2.405891   -4.7611042            0   -1.1531698    5.6459723    3621.3558 
    8000    2.4334041   -4.7259282            0   -1.0767346    5.8046037    3626.5843 
    9000    2.3970201   -4.7155233            0    -1.120892    5.5298477    3645.7337 
   10000    2.4157636   -4.7429143            0   -1.1201748    5.7848646    3610.0113 
Loop time of 2.63383 on 48 procs for 10000 steps with 4000 atoms

Performance: 656078.755 tau/day, 3796.752 timesteps/s
99.6% CPU use with 48 MPI tasks x no OpenMP threads

MPI task timing breakdown:
Section |  min time  |  avg time  |  max time  |%varavg| %total
---------------------------------------------------------------
Pair    | 1.1994     | 1.2634     | 1.319      |   2.4 | 47.97
Neigh   | 0.21727    | 0.22343    | 0.22993    |   0.6 |  8.48
Comm    | 0.78957    | 0.87015    | 0.94088    |   3.5 | 33.04
Output  | 0.00025184 | 0.00025859 | 0.00032556 |   0.0 |  0.01
Modify  | 0.24095    | 0.26084    | 0.28457    |   2.2 |  9.90
Other   |            | 0.01577    |            |       |  0.60

Nlocal:        83.3333 ave          91 max          76 min
Histogram: 4 2 6 3 10 4 9 3 4 3
Nghost:        1756.92 ave        1782 max        1729 min
Histogram: 3 2 2 5 10 6 9 5 4 2
Neighs:        10575.6 ave       11758 max        9485 min
Histogram: 3 4 7 8 4 4 8 4 3 3

Total # of neighbors = 507628
Ave neighs/atom = 126.90700
Neighbor list builds = 904
Dangerous builds = 198

# Equilibrate just above the melting temperature to avoid step fn in T

fix 1 all npt temp 1.25 1.25 0.1 iso 5.68 5.68 0.5 mtk yes tchain 5 pchain 5
run 2000
Per MPI rank memory allocation (min/avg/max) = 3.644 | 3.646 | 3.649 Mbytes
Step Temp E_pair E_mol TotEng Press Volume 
   10000    2.4157636   -4.7429143            0   -1.1201748    5.7848646    3610.0113 
   11000    1.2438026   -6.8176284            0    -4.952391    5.8580127    2805.9181 
   12000    1.2224492   -6.9549414            0   -5.1217261    6.0474007    2767.1226 
Loop time of 0.656581 on 48 procs for 2000 steps with 4000 atoms

Performance: 526363.368 tau/day, 3046.084 timesteps/s
99.6% CPU use with 48 MPI tasks x no OpenMP threads

MPI task timing breakdown:
Section |  min time  |  avg time  |  max time  |%varavg| %total
---------------------------------------------------------------
Pair    | 0.29913    | 0.32388    | 0.3468     |   1.9 | 49.33
Neigh   | 0.041781   | 0.043627   | 0.046309   |   0.4 |  6.64
Comm    | 0.21284    | 0.2386     | 0.26377    |   2.4 | 36.34
Output  | 5.2777e-05 | 5.4786e-05 | 7.07e-05   |   0.0 |  0.01
Modify  | 0.041086   | 0.045466   | 0.050148   |   1.3 |  6.92
Other   |            | 0.004956   |            |       |  0.75

Nlocal:        83.3333 ave          91 max          77 min
Histogram: 4 0 11 4 4 13 5 4 2 1
Nghost:        2100.17 ave        2119 max        2078 min
Histogram: 2 2 7 4 6 3 9 9 4 2
Neighs:        13766.1 ave       15741 max       12396 min
Histogram: 2 4 10 8 9 5 8 1 0 1

Total # of neighbors = 660771
Ave neighs/atom = 165.19275
Neighbor list builds = 142
Dangerous builds = 10

#############################
# L I N E A R  Q U E N C H  #
#############################

# Define solid atoms. This closely follows ten Wolde  Ruiz-Montero and Frenkel  Faraday Discuss  1996  104  93-110
# Compute components of the per-atom q6 vector
compute q6 all orientorder/atom degrees 1 6 components 6 nnn NULL cutoff 1.3 # compute the Q6 parameter.
                                                                             # Use all neighbours within 1.3 unit cell.

# get number of connections
compute coord_number all coord/atom orientorder q6 0.5

# An atom is solid if it has 8 or more connections (of a possible 14)
variable is_solid atom c_coord_number>=8
group solid dynamic all var is_solid    # Must be dynamic to update
dynamic group solid defined

# do clustering
compute cluster solid cluster/atom 1.3 # Create a cluster where all atoms within are solid and max 1.3 units from another member

# define chunks one chunk per cluster
compute clus_chunks solid chunk/atom c_cluster nchunk every compress yes  # Says which atoms are in which chunk

# count the size of each chunk
compute size_chunks solid property/chunk clus_chunks count


# Find the maximum entry in the vector of chunk sizes
variable max_n equal max(c_size_chunks)


# Thermo style which includes this variable
# thermo_style custom step temp pe vol v_max_n

thermo ${N}  # Print the thermo information every 100 steps
thermo 1000  

# Reset the npt fix at a lower temperature (below freezing)
fix 1  all npt temp  ${temp} ${temp}  0.1  iso  5.68  5.68  0.5  mtk yes tchain  5  pchain  5
fix 1  all npt temp  0.45 ${temp}  0.1  iso  5.68  5.68  0.5  mtk yes tchain  5  pchain  5
fix 1  all npt temp  0.45 0.45  0.1  iso  5.68  5.68  0.5  mtk yes tchain  5  pchain  5

dump dmp2 all dcd ${N} traj.dcd
dump dmp2 all dcd 1000 traj.dcd


compute msd all msd com yes
variable twopoint equal c_msd[4]/6/(step*dt+1.0e-6)
fix 9 all vector 10 c_msd[4]
variable fit equal slope(f_9)/6/(10*dt)
thermo_style custom step temp pe c_msd[4] v_twopoint v_fit v_max_n

fix 1 all npt temp 1.25 ${temp} 0.1 iso 5.68 5.68 0.5 mtk yes tchain 5 pchain 5
fix 1 all npt temp 1.25 0.45 0.1 iso 5.68 5.68 0.5 mtk yes tchain 5 pchain 5
run 500000 # 5000000  # Run for this many steps
Neighbor list info ...
  update every 1 steps, delay 10 steps, check yes
  max neighbors/atom: 2000, page size: 100000
  master list distance cutoff = 3.8
  ghost atom cutoff = 3.8
  binsize = 1.9, bins = 8 8 8
  4 neighbor lists, perpetual/occasional/extra = 1 3 0
  (1) pair lj/cut, perpetual
      attributes: half, newton on
      pair build: half/bin/atomonly/newton
      stencil: half/bin/3d
      bin: standard
  (2) compute orientorder/atom, occasional
      attributes: full, newton on
      pair build: full/bin/atomonly
      stencil: full/bin/3d
      bin: standard
  (3) compute coord/atom, occasional
      attributes: full, newton on
      pair build: full/bin/atomonly
      stencil: full/bin/3d
      bin: standard
  (4) compute cluster/atom, occasional
      attributes: full, newton on
      pair build: full/bin/atomonly
      stencil: full/bin/3d
      bin: standard
Per MPI rank memory allocation (min/avg/max) = 9.846 | 9.850 | 9.855 Mbytes
Step Temp PotEng c_msd[4] v_twopoint v_fit v_max_n 
   12000    1.2224492   -6.9549414 7.5612318e-31 5.2508552e-33 8.3333333e+20            2 
   13000     1.238289   -6.8905137   0.46343405  0.002970731  0.037567688            2 
   14000    1.2166517   -6.9893242   0.86344312 0.0051395422  0.035314492            3 
   15000    1.2378012   -6.9708133    1.2575761 0.0069865335  0.034271266            3 
   16000    1.2363665   -6.9691186    1.6946511 0.0088263074  0.034084606            4 
   17000    1.2432922   -6.9536221    2.1347426  0.010464424  0.034540769            3 
   18000    1.2364896   -6.9556325    2.6091649  0.012079467  0.035341571            2 
   19000    1.2570232   -6.9643257    2.9732019  0.013040359  0.035671849            1 
   20000    1.2556795   -6.9447969    3.3798125  0.014082552  0.035407138            1 
   21000    1.2211766   -6.9702346    3.7333896  0.014815038  0.034989632            2 
   22000     1.220683   -6.9916639    4.1876155   0.01586218  0.034770885            1 
   23000    1.2188892    -6.953951    4.6870465  0.016982052  0.034828795            5 
   24000    1.2555232   -6.9400335    5.1083908  0.017737468  0.035000015            3 
   25000    1.2361518   -7.0188344    5.3938757  0.017979585  0.034807692            1 
   26000    1.2320042   -7.0418067    5.7786886  0.018521437   0.03458936            2 
   27000    1.2130057   -6.9585043    6.2106367  0.019168631  0.034435028            2 
   28000    1.2557081   -6.9981351    6.6228245  0.019710787   0.03427794            3 
   29000    1.2092349   -7.0456073    6.9337012  0.019924428  0.034167862            8 
   30000    1.1863369   -7.0043302    7.2586691  0.020162969  0.033931623            2 
   31000    1.2285683   -7.0285806    7.5647111  0.020335245  0.033663018            2 
   32000    1.2111845   -7.0632423    7.9132091  0.020607315  0.033391451            2 
   33000    1.1884464   -7.0202752     8.358234  0.021106651  0.033152133            4 
   34000     1.213752   -6.9877088    8.8064067   0.02158433  0.033034494            2 
   35000    1.2080001   -7.0197151    9.1956929  0.021894507  0.032941363            8 
   36000    1.2344503   -7.0221037    9.6803863  0.022408301  0.032921847            4 
   37000    1.2114038   -7.0380878    10.039961  0.022612525  0.032920081            2 
   38000    1.2025372   -7.0520968     10.50175  0.023030152   0.03291992            3 
   39000    1.1905473   -7.0704898    10.900888  0.023292496   0.03295868            3 
   40000     1.184603    -7.052021    11.266699  0.023472289  0.032983882            1 
   41000    1.1902683   -7.1187548    11.620029  0.023617945  0.032990276            2 
   42000    1.2162028     -7.06374    12.003439  0.023816347   0.03296907            3 
   43000    1.2118947   -7.0496377    12.297828     0.023833  0.032905403            2 
   44000    1.1933022   -7.0103768    12.620496  0.023902454  0.032838965            2 
   45000    1.2123643   -7.0739652    12.873506  0.023839826  0.032724129            3 
   46000    1.2078419    -7.102814    13.200149  0.023913314  0.032619207            4 
   47000    1.1700814     -7.10394    13.685037   0.02426425  0.032515767            3 
   48000    1.2035886   -7.0377229    14.011058  0.024324753  0.032423063            3 
   49000    1.2117501   -7.0840271    14.368512  0.024436245  0.032322442            4 
   50000    1.1464517   -7.0875253    14.592276   0.02432046  0.032209689            3 
   51000    1.1867111   -7.0691908    14.892871  0.024334756   0.03207263            2 
   52000     1.202589   -7.1143328    15.138708   0.02426075  0.031923973            3 
   53000    1.1976508   -7.0392364    15.560858  0.024466758  0.031773671            2 
   54000    1.1519694   -7.0737619    15.886068  0.024515537  0.031637706            3 
   55000    1.1650738   -7.1243289    16.135569  0.024447831  0.031508648            3 
   56000    1.1919795   -7.0985757    16.520194  0.024583622  0.031384252            3 
   57000    1.1842047   -7.1249388    16.828291  0.024602765  0.031258015            3 
   58000    1.1907473   -7.1386249    17.126156  0.024606546  0.031140191            2 
   59000    1.1692812   -7.1081626    17.326791  0.024472868  0.031003994            1 
   60000    1.1792146   -7.1368471    17.685129  0.024562679  0.030861675            2 
   61000    1.1729142   -7.1115244    18.041609  0.024647007  0.030739665            4 
   62000    1.1597829   -7.1244644    18.353969  0.024669313  0.030621394            3 
   63000     1.163113    -7.141957    18.696571  0.024730913  0.030512995            2 
   64000    1.1495964   -7.1743222     18.96912  0.024699374  0.030405919            2 
   65000    1.1581713   -7.1507368    19.351072  0.024809066  0.030301628            2 
   66000    1.1677606   -7.1461129    19.677429  0.024845238  0.030205714            1 
   67000    1.1410241   -7.1342314     19.93721  0.024797525  0.030111011            2 
   68000    1.1966682   -7.1246748    20.124085  0.024661869  0.030010533            2 
   69000     1.163304   -7.1143442    20.538554  0.024805016  0.029908025            2 
   70000     1.163147   -7.1618703    20.674603  0.024612623  0.029799495            4 
   71000    1.1485748   -7.1832963    21.005274  0.024654077  0.029686434            3 
   72000    1.1365718   -7.1680648    21.381143  0.024746693  0.029585098            2 
   73000    1.1808257   -7.1825237    21.616543  0.024676418  0.029482122            2 
   74000    1.1614268   -7.2122835    21.822336  0.024574703  0.029375948            1 
   75000    1.1458187   -7.1278285    22.261753  0.024735281  0.029271393            2 
   76000    1.1559158   -7.1758293    22.471123  0.024639389  0.029163916            2 
   77000     1.153662   -7.1634412    22.769267  0.024642063  0.029063603            3 
   78000    1.1430124   -7.1779951    22.962586  0.024532677  0.028957388            4 
   79000    1.1310456   -7.2197736    23.162045  0.024432536  0.028846325            3 
   80000    1.1426987   -7.2372693    23.475421  0.024453564  0.028740714            4 
   81000    1.1348395   -7.2288967    23.849389  0.024536409  0.028638201            2 
   82000    1.1221897    -7.245609    24.142873   0.02453544  0.028545368            3 
   83000    1.1312338   -7.2479878    24.504583  0.024602995  0.028462739            5 
   84000    1.1430475   -7.2384815    24.658911  0.024463205  0.028377086            2 
   85000    1.1274963   -7.2690234    24.981584  0.024491748  0.028290559            4 
   86000    1.1482849   -7.2561556    25.263411  0.024480049  0.028205966            2 
   87000    1.1333686   -7.2243991    25.524964    0.0244492  0.028122735            4 
   88000    1.1242397   -7.2686429    25.822067  0.024452715  0.028042938            4 
   89000    1.0972398   -7.2664693    26.095615  0.024434096  0.027960145            2 
   90000     1.114425   -7.2744119    26.336122  0.024385298  0.027881727            6 
   91000    1.1278492   -7.2507543    26.568545   0.02433017  0.027797852            6 
   92000    1.1333912    -7.280387    26.770507  0.024248648  0.027713628            5 
   93000    1.0886966   -7.2874857    27.005644  0.024198606  0.027623972            2 
   94000     1.091473   -7.2792793    27.316461   0.02421672  0.027540392            2 
   95000    1.0949311   -7.2816246    27.686705  0.024286583  0.027456975            1 
   96000    1.1076102   -7.2750017    27.908195  0.024225864  0.027380278            1 
   97000    1.1430364   -7.2824397    28.108603  0.024148284  0.027297654            2 
   98000    1.1098999   -7.2839424    28.463017  0.024203246  0.027219971            2 
   99000      1.11557   -7.3204702    28.385656   0.02389365  0.027130229            2 
  100000    1.1188982   -7.3141884    28.688853  0.023907377  0.027042222            3 
  101000    1.1029194   -7.3234932     28.82574  0.023783614  0.026950334           12 
  102000    1.1264159   -7.2782056    29.038106  0.023723943  0.026856238            4 
  103000    1.1128265   -7.3319587    29.257313  0.023670965  0.026763938            3 
  104000    1.0941082   -7.3031127    29.486596   0.02362708  0.026668959            3 
  105000    1.0994412   -7.3482017    29.836377  0.023679664  0.026572394            5 
  106000    1.1114551   -7.3491809    29.838384  0.023457849  0.026480262            7 
  107000    1.1156116   -7.3150515    30.183739  0.023507585  0.026386476            4 
  108000    1.0997761    -7.292533    30.456921   0.02350071  0.026294727            3 
  109000    1.0866525   -7.3331627    30.816963  0.023560369    0.0262072            2 
  110000    1.0667865   -7.3616436    30.970521  0.023462516   0.02612269            3 
  111000    1.0712427   -7.3977012    31.020035  0.023288315   0.02603734            4 
  112000     1.078678   -7.3249998    31.329365  0.023310539  0.025947953            3 
  113000    1.0838122   -7.4083347    31.527658  0.023250485  0.025860131            4 
  114000     1.118306   -7.3744832    31.712667  0.023181774   0.02577106            4 
  115000    1.0826828   -7.3854175    31.749598  0.023006955  0.025683258            3 
  116000    1.0792799   -7.4056473    32.021082  0.023003651  0.025594541            3 
  117000    1.0860427   -7.3364735     32.46135   0.02312062   0.02550894            2 
  118000    1.0634943   -7.3911683    32.702557  0.023095026  0.025430641            3 
  119000    1.0845977   -7.3949341    32.878502  0.023024161  0.025352313            2 
  120000    1.0716823   -7.3701033    33.055282  0.022955057  0.025270321            2 
  121000    1.0852582   -7.3908908    33.248072  0.022898121  0.025191094            4 
  122000    1.0916878   -7.3794825    33.362499  0.022788592   0.02510666            3 
  123000    1.0883109   -7.3641458    33.688045  0.022823879  0.025025544           14 
  124000    1.0820172   -7.3833518    33.998578  0.022848506  0.024947937            3 
  125000    1.0789614   -7.4010588     34.05053  0.022700353  0.024869615            9 
  126000    1.0679348   -7.3932013    34.417473  0.022762879  0.024791887            2 
  127000    1.0703764   -7.4058553    34.758878  0.022807663  0.024720153            4 
  128000    1.0743194   -7.4433295    34.871399  0.022702734  0.024649267            2 
  129000    1.0692095   -7.4153264    35.159439  0.022712816  0.024578551            6 
  130000    1.0689248   -7.4199507    35.335988  0.022651274  0.024509645            2 
  131000    1.0621436   -7.4332796    35.573714  0.022629589  0.024439319            6 
  132000    1.0511093    -7.477324     35.71736  0.022548838  0.024368138            3 
  133000    1.0770992   -7.4340048    36.011715  0.022563731  0.024297741            7 
  134000    1.0763491   -7.4532404    35.971401  0.022370274   0.02422795            6 
  135000     1.044161   -7.4431317    36.363823  0.022446804  0.024157497            2 
  136000    1.0726613    -7.461013    36.677655  0.022474053   0.02409141            4 
  137000    1.0218822   -7.4540656    36.750374  0.022354242   0.02402669            1 
  138000    1.0607215   -7.4661015    36.948908  0.022312143  0.023958671            1 
  139000    1.0307945   -7.4931989    36.982668  0.022171863  0.023887208            3 
  140000    1.0576369   -7.4613993    37.142281  0.022108501  0.023814741            3 
  141000    1.0340074   -7.4653249    37.266375  0.022025045  0.023739584            3 
  142000    1.0481031   -7.4724247    37.422927  0.021961811  0.023666747            6 
  143000    1.0191142   -7.5076669    37.432788  0.021813979  0.023591942            3 
  144000    1.0427525   -7.4875169    37.863238  0.021911596  0.023518655            5 
  145000    1.0291482   -7.4899335    38.160161  0.021931127  0.023450626            3 
  146000    1.0384004   -7.5362937    38.134907    0.0217665  0.023382758            6 
  147000    1.0238832   -7.5494293    38.469428  0.021808066  0.023311936           11 
  148000    1.0435181    -7.516813    38.593648  0.021730658  0.023243051            3 
  149000    1.0267207   -7.5340489    38.710183   0.02164999  0.023174314            3 
  150000     1.030338   -7.5593313    39.020957  0.021678309  0.023104778            9 
  151000   0.99169198   -7.4988895    39.132396  0.021596245  0.023037101            4 
  152000     1.043599   -7.5520886    39.329636    0.0215623  0.022969288            3 
  153000    1.0491141   -7.5394758    39.354525  0.021434926  0.022900455            1 
  154000    1.0474967   -7.5242958    39.577654  0.021416479  0.022829857            3 
  155000    1.0074765   -7.5717888    39.649515  0.021316943  0.022760706            3 
  156000    1.0165375   -7.5599704    39.857154  0.021291214  0.022689762            3 
  157000    1.0557746   -7.5586244    40.138457  0.021304913  0.022620816            3 
  158000     1.047938   -7.5861214    40.303497  0.021257119  0.022554343            8 
  159000    1.0103475    -7.560635    40.638756  0.021299138  0.022489677            3 
  160000    1.0135314   -7.5540048    40.670908  0.021182765  0.022425669            4 
  161000    1.0197409   -7.5423914    40.961317   0.02120151   0.02236043            3 
  162000     1.000755   -7.5829763    40.725005  0.020949077  0.022294357            8 
  163000   0.99884754   -7.5985686    40.968813  0.020945201  0.022227588           10 
  164000     1.001062   -7.5976448    41.080073  0.020874021  0.022157712            7 
  165000   0.99236933   -7.5885651    41.366959  0.020892403  0.022089234            2 
  166000    1.0069206   -7.5929614    41.190306  0.020677865  0.022019174            4 
  167000    1.0023475   -7.5665861    41.493214  0.020705196  0.021949377            3 
  168000    1.0041931   -7.6271006     41.57211  0.020621086  0.021879947            4 
  169000    1.0149592   -7.6170649    41.756477  0.020589979  0.021810926            4 
  170000    1.0164127    -7.676801    41.738361  0.020459981  0.021740414            4 
  171000     1.018798   -7.6303565     41.78424   0.02036269  0.021669243            7 
  172000    0.9929133   -7.6432624    41.867109  0.020284452  0.021596735            2 
  173000   0.99018982   -7.6678217    42.064811  0.020262433   0.02152459            4 
  174000   0.99226189   -7.6126108    42.335162  0.020275461  0.021452461            1 
  175000    0.9971954   -7.6462108    42.083866  0.020039936  0.021378734            8 
  176000    1.0015671    -7.676204    42.150197   0.01995748  0.021304042            5 
  177000   0.96772104   -7.5937868    42.390721  0.019957967  0.021227341            5 
  178000   0.98073481    -7.643993    42.326097  0.019815588  0.021149765            9 
  179000   0.99578536   -7.6806883    42.340298  0.019711498  0.021070908           11 
  180000   0.99423181    -7.672833    42.561258  0.019704286  0.020993917            5 
  181000   0.98270063   -7.6597053    42.798303  0.019704559  0.020917978            5 
  182000   0.96637365   -7.6182646    42.982914  0.019680821  0.020842485            3 
  183000   0.98889954   -7.6681265    42.836051  0.019506398  0.020767102            3 
  184000   0.97279839    -7.670145     42.95982   0.01945644  0.020690373            8 
  185000   0.99607961   -7.7065641    42.969218  0.019355503  0.020613791            5 
  186000   0.94348267   -7.7034731    43.091259   0.01930612  0.020537062            6 
  187000   0.97171419   -7.6843882    43.096912  0.019205397   0.02045969            4 
  188000   0.97913782   -7.7196825    43.137944  0.019121429  0.020380717            6 
  189000   0.96405781   -7.7855401    43.076593  0.018993207  0.020301796            5 
  190000   0.95945923   -7.7320217    43.402864  0.019036344  0.020223711            7 
  191000   0.98164919   -7.7389788    43.401938  0.018936273  0.020145015            7 
  192000   0.94139001   -7.7505739    43.545088  0.018899778  0.020066775            3 
  193000   0.96031198   -7.7311718    43.635617   0.01884094  0.019987795            6 
  194000   0.96879126   -7.7382688    43.552462  0.018708102  0.019909457            3 
  195000   0.94339574   -7.7667549    43.620365  0.018641182  0.019829757            4 
  196000   0.96464961   -7.7366838    43.810151  0.018626765  0.019751102            5 
  197000   0.96647689   -7.7800407     43.80595  0.018530436  0.019673634            6 
  198000   0.95574492    -7.765206    43.946618  0.018496051  0.019595939            7 
  199000   0.97336682   -7.7438218    44.122042  0.018476567  0.019519482            3 
  200000    0.9357628   -7.7480215    44.279623  0.018449843  0.019445185            3 
  201000   0.95452885   -7.7516818     44.55158  0.018470804  0.019372196            4 
  202000   0.95500202   -7.7691123    44.530777  0.018370783  0.019300401            3 
  203000   0.93602937    -7.761341    44.728895  0.018361615   0.01922945            5 
  204000    0.9446277   -7.7642381    44.936306  0.018356334   0.01915964            5 
  205000   0.93249894   -7.7688041    44.980746  0.018284856  0.019090211            4 
  206000   0.95018602   -7.7627621    45.149624  0.018264411  0.019019699            5 
  207000   0.93134115   -7.7356288    45.249926  0.018216556  0.018950611           11 
  208000   0.92773805   -7.7938053    45.353153  0.018170334  0.018881635            5 
  209000    0.9334865    -7.817372    45.202447  0.018023304  0.018812286           15 
  210000   0.95112339   -7.8348007    45.239994  0.017952379  0.018742335            7 
  211000   0.92502885   -7.8234993    45.384178  0.017924241  0.018672281            7 
  212000   0.92444552   -7.8428809    45.429293  0.017857426  0.018603352            9 
  213000   0.92601992   -7.8575403      45.5192  0.017808764  0.018534412           10 
  214000   0.92592392   -7.8317849    45.656526  0.017779021  0.018466148           22 
  215000   0.93192274   -7.8782485    45.741708  0.017729344  0.018397924           11 
  216000   0.92776445    -7.866617    45.724126  0.017640481  0.018330039            6 
  217000   0.92660011   -7.8225523     45.91867  0.017633898  0.018262364            3 
  218000   0.93819248   -7.8427865    46.087135  0.017617406  0.018195125           13 
  219000   0.92189492   -7.8497609    45.842641  0.017443927  0.018127756           10 
  220000   0.92039887   -7.8422245    46.087968  0.017457564  0.018060359            7 
  221000   0.90917788   -7.8596272    46.195461  0.017419103  0.017993277            8 
  222000   0.89701289   -7.8216943    46.191684  0.017339221  0.017926905            8 
  223000   0.91828437   -7.8638491    46.369295  0.017327838  0.017860235            5 
  224000   0.89301422   -7.8834369    46.167643  0.017175462  0.017793499            4 
  225000   0.90696127   -7.8603833    46.304083   0.01714966  0.017726464            7 
  226000   0.91477721   -7.8514557    46.332407  0.017084221   0.01765992            5 
  227000   0.90532604   -7.8759083    46.378024  0.017025706  0.017594116           14 
  228000   0.89209194   -7.8752836    46.573961  0.017022646  0.017529025            3 
  229000   0.90732083   -7.8812885    46.649672  0.016975863  0.017464253            4 
  230000   0.90333429    -7.885099     46.76035  0.016942156  0.017399073            5 
  231000   0.90587186   -7.8895701    46.639053  0.016825055  0.017333555            3 
  232000   0.90828314   -7.9478019    46.583378  0.016732535  0.017267086            6 
  233000   0.87872755   -7.9445714    46.631787  0.016678035  0.017200044           10 
  234000   0.90927186   -7.9526887    46.784264  0.016661063  0.017134344            6 
  235000   0.88383355   -7.9415956    46.748365  0.016577434  0.017068624            6 
  236000   0.88048638   -8.0032149     46.64954  0.016472295  0.017003198            8 
  237000   0.90755764   -7.9750388    46.872372  0.016481143  0.016938302            8 
  238000   0.88146858   -7.9865889    47.075566  0.016483041  0.016873618           14 
  239000   0.88521588   -7.9935487    46.902706  0.016353803  0.016809845            9 
  240000   0.86870245   -7.9480176    47.200457  0.016389047  0.016746134            4 
  241000   0.88195969   -7.9603877    47.220292  0.016327902  0.016683291           10 
  242000   0.89202973   -7.9522729    47.382202  0.016316185  0.016621128           10 
  243000   0.88077242    -7.974768    47.339028  0.016234235  0.016558802           12 
  244000   0.87112458   -8.0249651    47.104335  0.016087546   0.01649595            9 
  245000    0.8695772   -8.0006907    47.188407  0.016050479  0.016431956           17 
  246000   0.87328823   -8.0069343     47.33689  0.016035532  0.016368297           21 
  247000   0.88080075   -7.9979475    47.308597  0.015961065  0.016305383           11 
  248000   0.86157732   -7.9970918    47.391728   0.01592464  0.016242401            7 
  249000   0.87986194   -7.9896233    47.496785  0.015895845  0.016179883            6 
  250000   0.85201556   -8.0074643    47.555567  0.015851856  0.016117356            3 
  251000   0.85182916   -8.0027053    47.503446  0.015771396  0.016054588            9 
  252000   0.85502128   -8.0037274    47.490534  0.015704541  0.015991979            3 
  253000    0.8536107   -8.0762454     47.49134  0.015642734  0.015929592           10 
  254000   0.85666505   -8.0474993    47.488725   0.01558029  0.015867315            7 
  255000   0.85622206   -8.0818369    47.507023  0.015525171   0.01580537            8 
  256000   0.86777011   -8.0534374    47.618131  0.015500694   0.01574328            4 
  257000     0.850953   -8.0313878    47.634234  0.015445601   0.01568128            6 
  258000   0.86721374   -8.0699948    47.541214  0.015355689  0.015619602           10 
  259000   0.84681024   -8.0787658    47.658004  0.015333978  0.015557799            9 
  260000   0.84763943   -8.0574114     47.68199  0.015282689  0.015496636            8 
  261000   0.86604031   -8.0711957    47.682607  0.015224332  0.015435492            8 
  262000   0.85507945    -8.060482    47.773805  0.015195231  0.015375224            4 
  263000   0.83968348   -8.0719624    47.928491  0.015186467  0.015315157           11 
  264000   0.84316556   -8.0772353    47.926761  0.015128397   0.01525596            7 
  265000   0.84675351   -8.0549564    47.951008  0.015078933  0.015196746           12 
  266000   0.84620096   -8.0960898    48.077114  0.015061752   0.01513781           10 
  267000   0.83199116   -8.0578936    48.173177  0.015035324  0.015079508           11 
  268000   0.84851536   -8.0913762     48.15925  0.014974891  0.015021493           10 
  269000   0.84471847   -8.0911791    48.103421  0.014901927  0.014963862           13 
  270000   0.83951604   -8.1499902     48.09094  0.014842883  0.014905877           11 
  271000   0.83371463   -8.1499869    48.087809  0.014787149  0.014847859           10 
  272000   0.84950616   -8.1043485    48.214533  0.014771609  0.014790362            3 
  273000    0.8134118   -8.1017494    48.295333  0.014742165  0.014733723           15 
  274000   0.81841775   -8.1225847    48.375801  0.014712835  0.014677245           10 
  275000   0.84507176   -8.1557806    48.184516  0.014601368  0.014620784            8 
  276000   0.82810693   -8.1475123    48.375385  0.014606095  0.014564753            8 
  277000   0.82601693   -8.1262516    48.412672  0.014564582  0.014508913            8 
  278000   0.83730368   -8.1382669     48.50731  0.014540561  0.014453453           10 
  279000    0.8180458   -8.1173186     48.53968  0.014498112  0.014398313           18 
  280000   0.82143306    -8.148827    48.499306  0.014434317    0.0143432           11 
  281000   0.82328284   -8.1692101    48.643248  0.014425637  0.014288048           24 
  282000   0.81621497   -8.1650201    48.559904  0.014349853  0.014233358           21 
  283000    0.8121854    -8.172876    48.661841  0.014329164  0.014178934           26 
  284000    0.8349282   -8.1533315    48.668317  0.014280609  0.014124688           61 
  285000   0.80686793   -8.1562879    48.621277  0.014216748  0.014070301           36 
  286000   0.80853878   -8.1757258    48.678949  0.014183843  0.014016078           48 
  287000   0.81006991   -8.1862056     48.65773  0.014128261  0.013962114           12 
  288000   0.82197747   -8.1891837    48.689088  0.014088278  0.013908367           18 
  289000   0.80941129   -8.1848013    48.637276  0.014024589  0.013854534           16 
  290000   0.78855952   -8.1886542      48.7176   0.01399931  0.013800876           13 
  291000   0.77970816   -8.1944407    48.662416    0.0139354  0.013747727            8 
  292000   0.79248805   -8.2173885    48.717625  0.013903432  0.013694597           21 
  293000   0.79098726   -8.1948348    48.714292  0.013855032  0.013641578           19 
  294000   0.80818014   -8.2085528    48.724979  0.013810935  0.013588935           14 
  295000   0.81225195   -8.2522922    48.815401  0.013789661  0.013536345           13 
  296000   0.78987683   -8.2615994     48.73851  0.013721427  0.013483958           15 
  297000   0.78601132   -8.2289241    48.856628  0.013708369  0.013432022           28 
  298000   0.77155932   -8.2018603    48.767636  0.013637482  0.013380679           34 
  299000   0.79579255   -8.2531002    48.784764  0.013596646  0.013329277           23 
  300000   0.78557588   -8.2376618    48.925861  0.013590517  0.013278115           31 
  301000   0.78863974   -8.2707156    48.872805  0.013530677  0.013227141           54 
  302000   0.77473675   -8.2762341    48.768854  0.013457189   0.01317606           35 
  303000   0.79503713    -8.292062    48.867774  0.013439982  0.013124943           33 
  304000   0.76535386   -8.2999166    48.870881  0.013396623  0.013073849           33 
  305000   0.77072774   -8.2918335    48.816651  0.013337883  0.013023052           64 
  306000   0.78782484   -8.2886007    48.906646  0.013318803  0.012972734           52 
  307000   0.76546377   -8.2918325    48.900484  0.013273747  0.012922813           35 
  308000   0.75591224   -8.2907927    49.010889  0.013260522  0.012872868           68 
  309000   0.77655958   -8.2948748    48.999014  0.013214405   0.01282335           37 
  310000   0.78438769   -8.3299959    48.969352  0.013163804  0.012773884           60 
  311000   0.77110067   -8.2941564    48.985384  0.013125773  0.012724583           53 
  312000   0.76895291   -8.3124306    48.979552  0.013082145   0.01267521           44 
  313000    0.7643494   -8.3108859    49.046954  0.013058294  0.012626017           33 
  314000   0.76756044   -8.3286308    48.996343  0.013003276  0.012576986           39 
  315000   0.76486043   -8.3320011    48.957224  0.012951647  0.012528269           54 
  316000   0.77035784   -8.3182681    49.006472  0.012923648  0.012479819           36 
  317000   0.77686792   -8.3504802     49.03674  0.012890836  0.012431582           47 
  318000   0.77193405   -8.3593202    48.949452  0.012827425  0.012383555           50 
  319000   0.76039406   -8.3461739    48.910242   0.01277697  0.012335603           56 
  320000   0.75384159    -8.351243    49.036304  0.012769871  0.012287813           43 
  321000   0.75426191   -8.3512848    49.076607  0.012740552  0.012240487           59 
  322000   0.75016141   -8.3722527    48.923639  0.012661397  0.012192972           42 
  323000   0.75173186   -8.3812371    48.994082  0.012640372  0.012145457           36 
  324000   0.77244572   -8.4241265    48.912156  0.012580287  0.012098092           59 
  325000   0.74067265   -8.3871448     48.82097  0.012518198  0.012050953           68 
  326000   0.74288692   -8.3918568     49.01876  0.012530358  0.012003886           56 
  327000    0.7549871   -8.3952251    49.078232  0.012507195   0.01195703           86 
  328000   0.76362772   -8.3947162     49.04352  0.012460244  0.011910361           73 
  329000   0.74630441   -8.3987577    49.039598  0.012421377  0.011864029           62 
  330000   0.75223587   -8.4117906    49.085205  0.012395254  0.011818092           49 
  331000   0.74110891   -8.4450832    49.097767  0.012360969  0.011772274           55 
  332000   0.74196774   -8.4069999    49.006848  0.012300916  0.011726658           50 
  333000   0.74166748   -8.4173576    49.079163  0.012282073  0.011681123           25 
  334000   0.71782711   -8.4135122    49.116655  0.012254654  0.011635897           46 
  335000   0.74755307   -8.4301637    48.971536  0.012181974  0.011591132           41 
  336000   0.74496513   -8.4045989    49.213634  0.012205762  0.011546453           54 
  337000   0.72674538   -8.4494297    49.137479  0.012150712  0.011501808           53 
  338000   0.72747952   -8.4312695    49.133959  0.012113895   0.01145733           46 
  339000   0.72556959   -8.4068097    49.153778  0.012083033  0.011413028           61 
  340000    0.7139918   -8.4513943    49.222028  0.012064222  0.011369077           59 
  341000   0.71272036   -8.4327837    49.120149  0.012003947  0.011325314           53 
  342000   0.74059225   -8.4242438    49.093465  0.011962345  0.011281621          113 
  343000   0.71380547   -8.4382686    49.098693   0.01192874  0.011238203           55 
  344000   0.70896097   -8.4356744    49.069819  0.011887068   0.01119499           43 
  345000   0.71606685   -8.4744783    49.113852  0.011863249  0.011151983           49 
  346000   0.71125445   -8.4621181    49.204984  0.011850911  0.011108871           43 
  347000   0.72515513   -8.4513608    49.298953  0.011839326  0.011066199           51 
  348000   0.71875174   -8.4705494     49.16959  0.011774327  0.011023763           55 
  349000   0.72590138   -8.4705615    49.248089  0.011759334  0.010981415           98 
  350000   0.71155981   -8.4957466    49.047129  0.011677888  0.010939103           82 
  351000   0.70236094   -8.5337041     49.06603  0.011649105  0.010896967           75 
  352000   0.70351999   -8.5029134    49.113473  0.011627243  0.010854976           79 
  353000   0.71470186   -8.4826433    49.097712  0.011590584  0.010813076           90 
  354000   0.68745721   -8.5260215    49.199908  0.011581899  0.010771412           67 
  355000   0.70985872   -8.4780835    49.063765  0.011517316  0.010729825           64 
  356000   0.69239221   -8.5211991    49.070011  0.011486426  0.010688362           88 
  357000    0.6877624    -8.527922    49.056004  0.011450981  0.010647141          109 
  358000   0.67858989   -8.5111607    49.051004  0.011417831  0.010606103           81 
  359000   0.69832877   -8.5313511    49.127536  0.011403792  0.010565252           85 
  360000   0.69819279    -8.540094    49.043279  0.011352611  0.010524374           89 
  361000    0.7025561   -8.5224329    49.068014  0.011326873  0.010483833          100 
  362000   0.69058318   -8.5541584    49.089263  0.011300475  0.010443354           69 
  363000   0.68990066   -8.5262116    49.126764  0.011277953  0.010403343           91 
  364000   0.67595567   -8.5259228    49.132322  0.011248242  0.010363364           95 
  365000   0.67402597   -8.5436783    49.144425  0.011220188  0.010323537          106 
  366000   0.67909985    -8.550039    49.085862  0.011176198  0.010283906           93 
  367000   0.66511743   -8.5234891    49.064107  0.011140805  0.010244563          100 
  368000   0.68067038   -8.5596702    49.085243  0.011115318  0.010205168          106 
  369000   0.67366003   -8.5331455    49.037872  0.011074497  0.010166071          153 
  370000   0.66810396    -8.548324    49.101675  0.011058936  0.010127118           84 
  371000   0.68517434   -8.5966661    49.079226  0.011024085  0.010088258          123 
  372000   0.67396667   -8.5769781    49.079062  0.010994414  0.010049697           83 
  373000   0.67087801   -8.5709889     49.12241  0.010974623   0.01001133          146 
  374000   0.68627593    -8.567592    49.043911  0.010927788 0.0099729767          109 
  375000   0.67800221   -8.5883473    49.025461  0.010894547 0.0099346825           96 
  376000   0.68284713   -8.5960649    48.993533  0.010858496 0.0098964134          116 
  377000   0.67755087   -8.6020044    48.964446  0.010823264 0.0098582668          124 
  378000   0.65876758   -8.6053197     49.10979  0.010826673 0.0098204612          118 
  379000   0.65815633   -8.6183872    49.005112   0.01077509 0.0097828753          177 
  380000   0.64848568   -8.6042332    49.018019  0.010749566  0.009745398           97 
  381000   0.67358616   -8.6096117    48.955873  0.010707759 0.0097081882           91 
  382000   0.65250218   -8.6184864    48.976718  0.010684275 0.0096709636          110 
  383000   0.65819719   -8.6228944    48.954829  0.010651616 0.0096340692           91 
  384000   0.65199668   -8.6312246    48.981369  0.010629637 0.0095972211          104 
  385000   0.64948277   -8.6388031    49.044452  0.010615682 0.0095605572          105 
  386000   0.62879451   -8.6304852    48.920572  0.010561436 0.0095241289          173 
  387000   0.64793183   -8.6390822    48.962743  0.010543226 0.0094876579          223 
  388000   0.66462049   -8.6260142    48.931798  0.010509407 0.0094513694          121 
  389000   0.64396155   -8.6382264    48.928018  0.010481581 0.0094152292          123 
  390000   0.64178061   -8.6399901    48.900136  0.010448747 0.0093791695          194 
  391000   0.64630374   -8.6631892     48.88674  0.010419169 0.0093432149          232 
  392000   0.63557977   -8.6400013    48.919885  0.010399635 0.0093073859          146 
  393000   0.64523032    -8.657288    48.841235  0.010356496 0.0092716121          104 
  394000   0.63054244   -8.6737278    48.791297  0.010319648 0.0092359064          282 
  395000   0.65148087   -8.6792556      48.8437  0.010304578 0.0092005478          208 
  396000   0.62826102   -8.6827091    48.783719  0.010265934 0.0091653693          155 
  397000   0.64736729   -8.6628543    48.829336  0.010249651 0.0091303359          355 
  398000   0.63216638   -8.6593884     48.91231  0.010241271 0.0090955085          183 
  399000   0.63378654   -8.7059018    48.759451  0.010183678 0.0090607582          114 
  400000   0.63699962    -8.668316    48.844179  0.010175871 0.0090261652          229 
  401000   0.63961259   -8.6748605    48.831622  0.010147885 0.0089918096          165 
  402000   0.63072815   -8.6785979    48.781544   0.01011226 0.0089574563          216 
  403000    0.6196621   -8.6856004    48.769594  0.010084697 0.0089233339          124 
  404000    0.6253246    -8.678174    48.855071  0.010077366 0.0088894468          173 
  405000   0.61956864   -8.6984318    48.836539  0.010048671 0.0088556139          120 
  406000   0.61750192   -8.7153699    48.881168  0.010033081 0.0088220091          170 
  407000   0.61905206   -8.6849743    48.830377 0.0099980297 0.0087886111          129 
  408000   0.60970023   -8.6898749     48.84763 0.0099770486 0.0087553362          228 
  409000   0.62289041   -8.7144138    48.789243 0.0099407586 0.0087222367          118 
  410000   0.60665548   -8.7107583    48.805444 0.0099198057  0.008689195          112 
  411000   0.60976796   -8.7329083     48.77499 0.0098894952 0.0086563182          113 
  412000   0.60521388   -8.7032889     48.77573 0.0098656411 0.0086235574          124 
  413000   0.61464406   -8.7413283    48.740435 0.0098346317 0.0085909782          153 
  414000   0.59003063   -8.6948399    48.736246 0.0098100334 0.0085585563          128 
  415000   0.61895289   -8.7397019    48.724393 0.0097840147 0.0085263774          152 
  416000   0.60444354   -8.7360467    48.696501  0.009754908 0.0084941889          122 
  417000   0.59189898    -8.734736    48.696974 0.0097316096 0.0084621427          246 
  418000   0.59772757   -8.7171805    48.743943 0.0097176919 0.0084302429          126 
  419000   0.60115611   -8.7438381    48.657455 0.0096772982 0.0083985041          132 
  420000   0.59320906   -8.7269977    48.801064 0.0096827507 0.0083670394          137 
  421000   0.59777357   -8.7558152     48.74031 0.0096477257  0.008335646          205 
  422000   0.58573094   -8.7622698    48.628808 0.0096028452 0.0083044231          113 
  423000   0.59910821   -8.7210997    48.681409  0.009590506 0.0082733627          119 
  424000   0.60398802   -8.7433819    48.778369 0.0095869436 0.0082424665          123 
  425000   0.57093948   -8.7709594    48.719156 0.0095527757  0.008211773          136 
  426000   0.57688543    -8.759881    48.753635 0.0095370961 0.0081811904          145 
  427000   0.58837279    -8.753458    48.751693 0.0095143819 0.0081507303          117 
  428000   0.58234697   -8.7747678    48.713969  0.009484807 0.0081203858          133 
  429000   0.58764364   -8.7796489    48.694915 0.0094589968 0.0080902721          118 
  430000   0.58184723   -8.7588035    48.640693  0.009426491 0.0080602273          108 
  431000   0.58406706   -8.7759497    48.617212 0.0094000796 0.0080303089          106 
  432000   0.57148259    -8.760113    48.614381 0.0093777742 0.0080005217          127 
  433000   0.56223122   -8.7880908    48.589788 0.0093513835 0.0079708737          121 
  434000   0.56692995   -8.7745823    48.721635 0.0093551526 0.0079413501          101 
  435000   0.58663029   -8.7813706      48.7188 0.0093331034 0.0079119321          114 
  436000   0.56904939   -8.8095258    48.548222 0.0092790943  0.007882697          162 
  437000   0.56215138   -8.7896926    48.593876 0.0092665668 0.0078535528          123 
  438000   0.57542878    -8.786109    48.552272 0.0092374947 0.0078245123          119 
  439000   0.56185619   -8.7776508    48.616259 0.0092285988  0.007795611          118 
  440000   0.57633017   -8.8073842    48.573848 0.0091995924 0.0077668744           98 
  441000   0.56195005   -8.7965129    48.572359 0.0091784502 0.0077382252          119 
  442000   0.55902364   -8.7889886    48.552598 0.0091539588 0.0077097297          250 
  443000   0.56022564   -8.8145586    48.627012 0.0091472935 0.0076813456          231 
  444000   0.56897489   -8.8008846    48.600702 0.0091217533 0.0076531211          174 
  445000   0.57054916   -8.8240759    48.520446 0.0090862258 0.0076249887          119 
  446000   0.54673332   -8.8120185    48.497639 0.0090615918 0.0075969698          113 
  447000    0.5610197   -8.8182674    48.504571 0.0090426121 0.0075691168          111 
  448000   0.54145368   -8.8329301    48.489731 0.0090196672 0.0075414489          163 
  449000   0.54530537   -8.8137092    48.579596 0.0090162575 0.0075138812          125 
  450000   0.54590303   -8.8284156    48.547554 0.0089902877 0.0074864223          141 
  451000   0.53996082   -8.8269167    48.619226 0.0089835968 0.0074591805          125 
  452000   0.54701895   -8.8255171    48.557873 0.0089524103 0.0074319833          130 
  453000   0.53278579   -8.8402173    48.524595  0.008926526 0.0074048449          131 
  454000   0.53612854    -8.831215    48.508996 0.0089040008 0.0073778422          108 
  455000   0.55093045   -8.8396296    48.431723 0.0088702789 0.0073510031          243 
  456000   0.54976019   -8.8416656    48.547974 0.0088720713 0.0073242851          257 
  457000   0.53939739   -8.8490275    48.548095 0.0088526796 0.0072977116          127 
  458000   0.54300802   -8.8457236    48.497945 0.0088242258  0.007271203          293 
  459000   0.51905487   -8.8371857    48.420987 0.0087910288 0.0072447797          119 
  460000   0.54556837   -8.8450615    48.409253 0.0087697922 0.0072185309          160 
  461000   0.52503178   -8.8490378    48.488768 0.0087651424 0.0071924549          110 
  462000   0.52782022   -8.8520973      48.3839 0.0087272546 0.0071664003          222 
  463000   0.52062098    -8.867272    48.438361 0.0087182075 0.0071404876           94 
  464000   0.52764514   -8.8677289    48.441153 0.0086999197 0.0071147257          127 
  465000    0.5206762   -8.8492685    48.431877 0.0086795478 0.0070890493          128 
  466000   0.52415025   -8.8643473    48.452016 0.0086645235 0.0070635286          106 
  467000   0.52962603   -8.8554173    48.470633 0.0086492921 0.0070380783          137 
  468000   0.51906524   -8.8703176     48.43986 0.0086253313 0.0070128244          130 
  469000   0.51208048   -8.8664385    48.462404 0.0086109459 0.0069876159          157 
  470000   0.50856005   -8.8740567    48.390774 0.0085799245 0.0069625191          145 
  471000   0.51208514   -8.8723583    48.425206 0.0085678001 0.0069375898          131 
  472000   0.50174003    -8.887975     48.41044  0.008547041 0.0069127966          109 
  473000    0.5051051   -8.8890408    48.415881 0.0085299297 0.0068880412          131 
  474000   0.51327767   -8.8786808    48.462384 0.0085201097 0.0068634593          134 
  475000   0.51476198   -8.8798593    48.336586 0.0084801027 0.0068389878          127 
  476000   0.51186123   -8.8934765    48.391517 0.0084719043 0.0068146334           95 
  477000   0.50942628   -8.9012058     48.39926 0.0084554962 0.0067903543          129 
  478000   0.50275862   -8.8936615    48.353205 0.0084297777 0.0067661609          195 
  479000   0.49961768   -8.9076145    48.354082 0.0084123315 0.0067420706          139 
  480000   0.49993871   -8.8865741     48.34502 0.0083932327 0.0067181487          310 
  481000   0.49557514   -8.9114099    48.359317   0.00837826 0.0066942596          178 
  482000   0.49546072   -8.9203753    48.334769 0.0083566336 0.0066705292          170 
  483000   0.50712174   -8.9256286     48.31345 0.0083356539 0.0066468663          146 
  484000   0.49105711   -8.9150803    48.351715 0.0083250197 0.0066233027          144 
  485000   0.49506169   -8.9261022    48.421451  0.008319837 0.0065998831          126 
  486000   0.49793574    -8.911416    48.299423 0.0082817941 0.0065765286          163 
  487000   0.49450504    -8.919332    48.311383 0.0082668349 0.0065532925          135 
  488000   0.48902731   -8.9292844    48.372552 0.0082603401 0.0065301562          283 
  489000   0.48133698   -8.9298684    48.341479 0.0082381526 0.0065071198          179 
  490000   0.47723441   -8.9166647    48.273475 0.0082097746 0.0064842415          140 
  491000   0.48491645   -8.9363419     48.25996 0.0081907603 0.0064614409          122 
  492000   0.47504729    -8.930734    48.282291 0.0081778947 0.0064386945          143 
  493000   0.46962867   -8.9481028    48.278905 0.0081607345 0.0064160697          228 
  494000   0.47583397   -8.9370859    48.353983 0.0081568797 0.0063935536          202 
  495000   0.47907276   -8.9371218    48.294393 0.0081303691 0.0063711958          245 
  496000   0.48245652   -8.9424952    48.301222 0.0081151247 0.0063489203          131 
  497000   0.47016199   -8.9323614    48.297451 0.0080981641  0.006326737          171 
  498000   0.48019601   -8.9475371    48.290989 0.0080808215 0.0063046556          126 
  499000   0.46976861   -8.9388531    48.294195 0.0080651629 0.0062826877          146 
  500000   0.45821234    -8.947859    48.199447 0.0080332412 0.0062608242          128 
  501000   0.47690754   -8.9753489    48.176123 0.0080133271 0.0062390117          124 
  502000   0.46187067   -8.9494239    48.303423 0.0080184965 0.0062173267          161 
  503000   0.46820967   -8.9602725    48.177968 0.0079817708 0.0061957362          186 
  504000   0.46760898   -8.9608438    48.195464 0.0079688266 0.0061742446          169 
  505000   0.46313372   -8.9564164    48.215711  0.007956388 0.0061528378          164 
  506000   0.45005528   -8.9831498    48.204222 0.0079387717 0.0061315068          124 
  507000    0.4625233   -8.9699519    48.178609 0.0079189035 0.0061103086          177 
  508000   0.46149379   -8.9801506    48.158497 0.0079000159  0.006089172          201 
  509000   0.46211491   -8.9781205    48.218145 0.0078942608 0.0060681023          115 
  510000   0.45518283    -8.988491    48.141384 0.0078662392 0.0060471606          237 
  511000   0.44876289   -8.9828728    48.165321 0.0078547491 0.0060263391          172 
  512000   0.45837315   -8.9829013    48.171085 0.0078403459 0.0060055963          373 
Loop time of 1302.55 on 48 procs for 500000 steps with 4000 atoms

Performance: 66331.534 tau/day, 383.863 timesteps/s
99.4% CPU use with 48 MPI tasks x no OpenMP threads

MPI task timing breakdown:
Section |  min time  |  avg time  |  max time  |%varavg| %total
---------------------------------------------------------------
Pair    | 89.075     | 98.323     | 104.34     |  33.9 |  7.55
Neigh   | 8.8251     | 9.1899     | 9.5395     |   6.4 |  0.71
Comm    | 81.758     | 89.127     | 97.977     |  37.3 |  6.84
Output  | 0.94494    | 0.9457     | 0.96758    |   0.3 |  0.07
Modify  | 1089.4     | 1092.8     | 1097.7     |   5.7 | 83.90
Other   |            | 12.14      |            |       |  0.93

Nlocal:        83.3333 ave          90 max          77 min
Histogram: 2 5 2 10 6 5 11 5 1 1
Nghost:        2368.81 ave        2384 max        2352 min
Histogram: 3 2 2 8 9 4 3 10 6 1
Neighs:        16288.1 ave       18447 max       14003 min
Histogram: 3 4 6 6 5 5 6 5 2 6
FullNghs:      32574.6 ave       35409 max       30070 min
Histogram: 2 7 1 8 8 7 8 5 1 1

Total # of neighbors = 1563579
Ave neighs/atom = 390.89475
Neighbor list builds = 26617
Dangerous builds = 0

#clear
#
#next RN
#
#jump SELF
Total wall time: 0:21:46
