
units lj                  # Use reduced LJ style units
atom_style atomic         # Uncharged point particles
atom_modify map hash      # Needed for indexing of clusters etc
                          # Used to be able to find where atoms are in relation to each other.

lattice fcc 1.0 spacing 1 1 1
Lattice spacing in x,y,z = 1.5874011 1.5874011 1.5874011
region box block 0 10 0 10 0 10 units lattice
create_box 2 box
Created orthogonal box = (0.0000000 0.0000000 0.0000000) to (15.874011 15.874011 15.874011)
  3 by 4 by 4 MPI processor grid
create_atoms 1 box
Created 4000 atoms
  using lattice units in orthogonal box = (0.0000000 0.0000000 0.0000000) to (15.874011 15.874011 15.874011)
  create_atoms CPU = 0.003 seconds
set type 1 type/fraction 2 0.59 78393
Setting atom values ...
  2375 settings made for type/fraction
mass 1 1.0
mass 2 1.0
pair_style lj/cut  3.5
pair_modify tail  yes
pair_coeff 1  1  1.0  1.0   # Intearaction between 1 and 1 set with epsilon = 1 and sigma = 1
pair_coeff 1  2  1.5  0.8
pair_coeff 2  2  0.5  0.88

write_data data.0
System init for write_data ...
Neighbor list info ...
  update every 1 steps, delay 10 steps, check yes
  max neighbors/atom: 2000, page size: 100000
  master list distance cutoff = 3.8
  ghost atom cutoff = 3.8
  binsize = 1.9, bins = 9 9 9
  1 neighbor lists, perpetual/occasional/extra = 1 0 0
  (1) pair lj/cut, perpetual
      attributes: half, newton on
      pair build: half/bin/atomonly/newton
      stencil: half/bin/3d
      bin: standard
WARNING: Not all mixed pair coeffs generated from mixing. Use write_data with 'pair ij' option to store all pair coeffs. (../write_data.cpp:312)


#############################
#   M E L T   S Y S T E M   #
#############################

velocity all create 2.4 3143649 mom yes dist gaussian # Assign velocities
                                                    # Temperature 2.4, random number seed, zero linear momentum
                                                                                # Gaussian distribution

timestep 0.002   # simulation timestep
thermo 1000       # output thermodynamic data every 1000 steps bf 100

# Define a fix  in this case with index 1 applied to all
# particles in the simulation. This fix is for simulations
# in the anisotropic NPT ensemble. Note that we use the MTK
# correction.
fix 1 all npt temp 2.4 2.4 0.1 iso 5.68 5.68 0.5 mtk yes tchain 5 pchain 5 # Use NPT ensemble
                                                                         # Set temperature and pressure and damping
                                                                         # Numbers of thermostats in chain and in barostat
run 10000          # run for 10000 steps
Per MPI rank memory allocation (min/avg/max) = 3.642 | 3.644 | 3.648 Mbytes
Step Temp E_pair E_mol TotEng Press Volume 
       0          2.4   -4.7762807            0   -1.1771807   -4.0862689         4000 
    1000    2.3934312   -4.5064692            0  -0.91722001     5.471494    3642.6392 
    2000     2.405977   -4.5233176            0  -0.91525437     5.378664    3636.2024 
    3000    2.3874248   -4.4933269            0  -0.91308501    5.5322384    3631.8408 
    4000    2.3926422   -4.5497254            0  -0.96165931    5.4890684    3617.3193 
    5000    2.4101946   -4.4468107            0  -0.83242266    6.0635485    3634.1624 
    6000     2.374922   -4.5582819            0  -0.99678947    5.5205049    3611.1976 
    7000    2.3642117      -4.5651            0   -1.0196689     6.012535    3576.7316 
    8000    2.4044458   -4.4625823            0  -0.85681526    5.7676983    3637.1649 
    9000    2.3917372   -4.5297634            0  -0.94305449    5.8496771    3599.1065 
   10000    2.3659709   -4.5349404            0  -0.98687126    5.6373626    3612.9416 
Loop time of 2.73996 on 48 procs for 10000 steps with 4000 atoms

Performance: 630666.473 tau/day, 3649.690 timesteps/s
99.6% CPU use with 48 MPI tasks x no OpenMP threads

MPI task timing breakdown:
Section |  min time  |  avg time  |  max time  |%varavg| %total
---------------------------------------------------------------
Pair    | 1.2074     | 1.2738     | 1.444      |   3.3 | 46.49
Neigh   | 0.2172     | 0.22552    | 0.25697    |   1.3 |  8.23
Comm    | 0.7848     | 0.92491    | 1.0394     |   5.7 | 33.76
Output  | 0.00024899 | 0.00025276 | 0.00032088 |   0.0 |  0.01
Modify  | 0.22444    | 0.29983    | 0.36946    |   8.6 | 10.94
Other   |            | 0.01563    |            |       |  0.57

Nlocal:        83.3333 ave          92 max          75 min
Histogram: 3 2 4 6 11 10 4 3 3 2
Nghost:        1757.17 ave        1781 max        1738 min
Histogram: 3 6 6 6 6 6 9 3 2 1
Neighs:        10570.4 ave       12365 max        9006 min
Histogram: 2 3 3 7 12 9 7 3 1 1

Total # of neighbors = 507379
Ave neighs/atom = 126.84475
Neighbor list builds = 909
Dangerous builds = 208

# Equilibrate just above the melting temperature to avoid step fn in T

fix 1 all npt temp 1.25 1.25 0.1 iso 5.68 5.68 0.5 mtk yes tchain 5 pchain 5
run 2000
Per MPI rank memory allocation (min/avg/max) = 3.644 | 3.646 | 3.650 Mbytes
Step Temp E_pair E_mol TotEng Press Volume 
   10000    2.3659709   -4.5349404            0  -0.98687126    5.6373626    3612.9416 
   11000    1.2494572   -6.6109854            0   -4.7372681    5.7028731    2769.5734 
   12000    1.2375717   -6.6696874            0   -4.8137939    5.5772964    2760.1177 
Loop time of 0.667696 on 48 procs for 2000 steps with 4000 atoms

Performance: 517600.775 tau/day, 2995.375 timesteps/s
99.6% CPU use with 48 MPI tasks x no OpenMP threads

MPI task timing breakdown:
Section |  min time  |  avg time  |  max time  |%varavg| %total
---------------------------------------------------------------
Pair    | 0.29726    | 0.32531    | 0.35053    |   2.1 | 48.72
Neigh   | 0.041771   | 0.04447    | 0.051309   |   0.8 |  6.66
Comm    | 0.21262    | 0.24674    | 0.27975    |   2.8 | 36.95
Output  | 5.4727e-05 | 5.6029e-05 | 7.2299e-05 |   0.0 |  0.01
Modify  | 0.042966   | 0.045849   | 0.048714   |   0.8 |  6.87
Other   |            | 0.00527    |            |       |  0.79

Nlocal:        83.3333 ave          93 max          76 min
Histogram: 2 7 4 5 10 15 1 2 1 1
Nghost:        2114.35 ave        2152 max        2090 min
Histogram: 1 8 5 15 6 6 4 2 0 1
Neighs:        13842.2 ave       15015 max       12085 min
Histogram: 2 0 2 6 5 6 10 9 4 4

Total # of neighbors = 664426
Ave neighs/atom = 166.10650
Neighbor list builds = 145
Dangerous builds = 11

#############################
# L I N E A R  Q U E N C H  #
#############################

# Define solid atoms. This closely follows ten Wolde  Ruiz-Montero and Frenkel  Faraday Discuss  1996  104  93-110
# Compute components of the per-atom q6 vector
compute q6 all orientorder/atom degrees 1 6 components 6 nnn NULL cutoff 1.3 # compute the Q6 parameter.
                                                                             # Use all neighbours within 1.3 unit cell.

# get number of connections
compute coord_number all coord/atom orientorder q6 0.5

# An atom is solid if it has 8 or more connections (of a possible 14)
variable is_solid atom c_coord_number>=8
group solid dynamic all var is_solid    # Must be dynamic to update
dynamic group solid defined

# do clustering
compute cluster solid cluster/atom 1.3 # Create a cluster where all atoms within are solid and max 1.3 units from another member

# define chunks one chunk per cluster
compute clus_chunks solid chunk/atom c_cluster nchunk every compress yes  # Says which atoms are in which chunk

# count the size of each chunk
compute size_chunks solid property/chunk clus_chunks count


# Find the maximum entry in the vector of chunk sizes
variable max_n equal max(c_size_chunks)


# Thermo style which includes this variable
# thermo_style custom step temp pe vol v_max_n

thermo ${N}  # Print the thermo information every 100 steps
thermo 1000  

# Reset the npt fix at a lower temperature (below freezing)
fix 1  all npt temp  ${temp} ${temp}  0.1  iso  5.68  5.68  0.5  mtk yes tchain  5  pchain  5
fix 1  all npt temp  0.45 ${temp}  0.1  iso  5.68  5.68  0.5  mtk yes tchain  5  pchain  5
fix 1  all npt temp  0.45 0.45  0.1  iso  5.68  5.68  0.5  mtk yes tchain  5  pchain  5

dump dmp2 all dcd ${N} traj.dcd
dump dmp2 all dcd 1000 traj.dcd


compute msd all msd com yes
variable twopoint equal c_msd[4]/6/(step*dt+1.0e-6)
fix 9 all vector 10 c_msd[4]
variable fit equal slope(f_9)/6/(10*dt)
thermo_style custom step temp pe c_msd[4] v_twopoint v_fit v_max_n

fix 1 all npt temp 1.25 ${temp} 0.1 iso 5.68 5.68 0.5 mtk yes tchain 5 pchain 5
fix 1 all npt temp 1.25 0.45 0.1 iso 5.68 5.68 0.5 mtk yes tchain 5 pchain 5
run 500000 # 5000000  # Run for this many steps
Neighbor list info ...
  update every 1 steps, delay 10 steps, check yes
  max neighbors/atom: 2000, page size: 100000
  master list distance cutoff = 3.8
  ghost atom cutoff = 3.8
  binsize = 1.9, bins = 8 8 8
  4 neighbor lists, perpetual/occasional/extra = 1 3 0
  (1) pair lj/cut, perpetual
      attributes: half, newton on
      pair build: half/bin/atomonly/newton
      stencil: half/bin/3d
      bin: standard
  (2) compute orientorder/atom, occasional
      attributes: full, newton on
      pair build: full/bin/atomonly
      stencil: full/bin/3d
      bin: standard
  (3) compute coord/atom, occasional
      attributes: full, newton on
      pair build: full/bin/atomonly
      stencil: full/bin/3d
      bin: standard
  (4) compute cluster/atom, occasional
      attributes: full, newton on
      pair build: full/bin/atomonly
      stencil: full/bin/3d
      bin: standard
Per MPI rank memory allocation (min/avg/max) = 9.848 | 9.852 | 9.858 Mbytes
Step Temp PotEng c_msd[4] v_twopoint v_fit v_max_n 
   12000    1.2375717   -6.6696874 8.4210902e-31 5.847979e-33 8.3333333e+20            1 
   13000    1.2241829   -6.7410002   0.50289588 0.0032236914  0.040991176            2 
   14000    1.2526283   -6.6861786   0.92078189 0.0054808444   0.03806457            4 
   15000    1.2649811   -6.6864876    1.3382352 0.0074346395  0.036188224            3 
   16000    1.2276611   -6.7429512    1.7639921 0.0091874587  0.035816659            2 
   17000    1.2683811   -6.7197223    2.1513205  0.010545688  0.035494452            3 
   18000     1.251398   -6.7357977    2.6076085  0.012072261  0.035188162            8 
   19000    1.2217301    -6.753794    3.0277529  0.013279618  0.035193402            2 
   20000    1.2031598   -6.7288583     3.442322  0.014343008  0.035082381            2 
   21000    1.2403254   -6.7469489    3.8438638  0.015253427  0.035052063            2 
   22000    1.2112994    -6.765398    4.1610438  0.015761529  0.034773322            3 
   23000    1.2673384   -6.7118221    4.5596191  0.016520359  0.034421018            6 
   24000    1.2283331   -6.7519147    4.9184397  0.017077915  0.034141748            2 
   25000    1.1910226   -6.7712111    5.3747251   0.01791575  0.033948803            4 
   26000    1.2166718   -6.8022163    5.7796012  0.018524362  0.033834165            6 
   27000     1.235952     -6.79149    6.1671135  0.019034301  0.033769927            2 
   28000    1.2491771   -6.7558128    6.5248509  0.019419199  0.033701473            3 
   29000    1.2370721   -6.7692049    6.9128205  0.019864426  0.033574905            3 
   30000    1.2055231    -6.750503    7.2425754  0.020118265  0.033359583            3 
   31000    1.2236131   -6.7458782    7.5831521  0.020384817  0.033146334            8 
   32000    1.2130987   -6.7378196    7.9952346  0.020820923  0.032965812            3 
   33000    1.2146779   -6.7487437    8.3569412  0.021103387  0.032815935            3 
   34000    1.1936471   -6.8080906    8.6731334   0.02125768  0.032669612            2 
   35000    1.2146767   -6.7517458    8.9807071  0.021382636   0.03246132            7 
   36000    1.2059186     -6.76907    9.3040309  0.021537108  0.032229748            4 
   37000     1.219647   -6.7970478    9.7281073  0.021910151  0.032055975            2 
   38000    1.2013449   -6.8003727    10.090221  0.022127677  0.031898413            1 
   39000    1.2131147   -6.8169884    10.381852  0.022183444  0.031767105            4 
   40000    1.1970701   -6.7829824    10.860274  0.022625571  0.031662726            2 
   41000     1.187388   -6.7838086    11.208326   0.02278115  0.031587197            3 
   42000    1.2007442   -6.7870172    11.477304  0.022772427  0.031485182            2 
   43000    1.1982552   -6.8397252    11.879267  0.023021835  0.031389851            2 
   44000    1.2119028     -6.76866     12.40432   0.02349303  0.031339349            1 
   45000    1.1897539   -6.7754808    12.718656  0.023553067  0.031316154            2 
   46000    1.1964531   -6.7980092    13.168672  0.023856289  0.031312999            2 
   47000    1.2117747   -6.8291256    13.483027  0.023906076  0.031318483            4 
   48000    1.1944986   -6.8549271    13.900656  0.024133082  0.031316832            3 
   49000    1.1908612   -6.8506744    14.305938  0.024329826   0.03131849            2 
   50000    1.1914683    -6.870808    14.624784   0.02437464  0.031327085            3 
   51000    1.2097305   -6.8442537    15.011607  0.024528769  0.031322079            2 
   52000     1.192767    -6.854742    15.373079  0.024636345  0.031325771            3 
   53000     1.161057   -6.8720402    15.674283  0.024645099  0.031318415            1 
   54000    1.1693018    -6.968086     15.81487  0.024405663  0.031270755            4 
   55000    1.1844969   -6.8676128    16.183427  0.024520343  0.031188886            2 
   56000    1.1866241    -6.886764    16.523612  0.024588709  0.031104962            4 
   57000    1.1594038   -6.8753486    16.879235  0.024677243   0.03102967            3 
   58000    1.1872881   -6.9008597    17.184322  0.024690118  0.030950958            3 
   59000    1.1711826   -6.8884886     17.55371  0.024793376   0.03088058            4 
   60000    1.1770746   -6.9108192    17.795714  0.024716269  0.030810236            2 
   61000    1.1597753   -6.9102276    18.069382  0.024684948  0.030718376            2 
   62000    1.1669343   -6.8971675    18.399816  0.024730936  0.030623521            2 
   63000     1.166816   -6.9168445    18.659952  0.024682476  0.030516245            1 
   64000     1.169202   -6.9072724    19.038351  0.024789519  0.030420868            2 
   65000    1.1738473   -6.8821954    19.363875  0.024825481  0.030337238            2 
   66000    1.1590903    -6.975329     19.52774  0.024656237  0.030248499            2 
   67000    1.1428925   -6.8989642     19.77527  0.024596106  0.030138794            3 
   68000    1.1964254    -6.907374    20.195279  0.024749117  0.030032136            2 
   69000    1.1741747   -6.9575534    20.434097  0.024678861  0.029922502            4 
   70000    1.1578424   -6.9400148    20.737792  0.024687847  0.029820122            3 
   71000    1.1517834   -7.0021802      21.0124  0.024662441  0.029720525            2 
   72000     1.162508   -6.9404677    21.336301  0.024694793  0.029622553            4 
   73000    1.1637301   -6.9872372    21.607526  0.024666125   0.02952003            4 
   74000    1.1611985   -6.9348603    21.927793   0.02469346  0.029417462            2 
   75000    1.1700372   -6.9223327    22.318556  0.024798395  0.029331128            3 
   76000    1.1316027   -6.9700761    22.633871  0.024817841  0.029248959            1 
   77000    1.1521102   -6.9787273    22.962488  0.024851177  0.029179666            3 
   78000    1.1505875   -6.9729533    23.201439  0.024787862  0.029100292            3 
   79000    1.1184066   -7.0129126    23.459158  0.024745947  0.029020045            2 
   80000     1.153078   -6.9867777    23.812073  0.024804242  0.028947657            4 
   81000    1.1437302   -6.9922566    24.361106  0.025062866  0.028887504            7 
   82000    1.1286215   -6.9625339    24.724867  0.025126897  0.028841703            3 
   83000    1.1464439   -7.0335099    24.829039  0.024928754  0.028794444            4 
   84000    1.1238645   -7.0189912     25.28535  0.025084672  0.028748249            3 
   85000    1.1370131   -6.9845835    25.614352  0.025112109  0.028700654            2 
   86000    1.1205698   -6.9730968    25.845432  0.025044023  0.028651381            3 
   87000    1.1253922   -7.0057301    26.067639  0.024969003  0.028596841            4 
   88000    1.1072759   -6.9891762    26.502017  0.025096607  0.028549199            5 
   89000    1.1665232    -7.027625    26.813364  0.025106146  0.028506204            3 
   90000    1.1344713   -7.0171527    27.080238  0.025074294  0.028460282            2 
   91000    1.1387751   -7.0701339    27.315542  0.025014232  0.028411731            1 
   92000    1.1126941    -7.023183    27.602429    0.0250022  0.028361783            2 
   93000    1.0931117   -7.0846801     27.87014  0.024973244   0.02831526            3 
   94000    1.1283932   -7.0436149    28.419322  0.025194434  0.028271528            2 
   95000    1.1195342   -7.0256669    28.646286  0.025128321  0.028236884            5 
   96000    1.1018408   -7.0355417     28.93765  0.025119488  0.028197279            3 
   97000    1.1152555   -7.0442938    29.231245  0.025112754  0.028150626            4 
   98000    1.1048727   -7.0918036    29.306344   0.02492036  0.028101431            5 
   99000    1.0919136   -7.0433044    29.748271  0.025040632  0.028050846            2 
  100000    1.1176556   -7.0542479    29.957527  0.024964606  0.028000083            2 
  101000    1.0923682   -7.0634523    30.155001  0.024880364  0.027945484            3 
  102000    1.1055619   -7.0650556    30.424552   0.02485666  0.027893023            6 
  103000    1.1088312    -7.085641    30.540263  0.024708951   0.02783427            3 
  104000    1.0940472     -7.09096    30.805382  0.024683799  0.027771225            3 
  105000    1.0683584    -7.056196    31.149406  0.024721751  0.027707748            2 
  106000    1.0777434   -7.0772201     31.44728  0.024722704  0.027643824            2 
  107000    1.0875046   -7.0638759    31.524361  0.024551683   0.02757806            2 
  108000    1.1199624   -7.1580204    31.674496  0.024440198  0.027506616           10 
  109000    1.1117772   -7.1615774    31.802332  0.024313709  0.027429426            3 
  110000    1.0957225   -7.1561449     32.12004  0.024333363  0.027351393            4 
  111000    1.0962218   -7.1330116    32.463263  0.024371819  0.027284164            4 
  112000    1.0795729   -7.1236689    32.813244  0.024414616  0.027215876            4 
  113000    1.0942912   -7.1487025    32.897873  0.024260968   0.02714535            8 
  114000    1.0924861   -7.1122114    33.304986   0.02434575   0.02707446            2 
  115000    1.1026734   -7.1451936    33.415581  0.024214189  0.027005146            6 
  116000    1.1040017   -7.1618472    33.663145  0.024183294  0.026935317            4 
  117000    1.0829277   -7.1701944    33.918766  0.024158665   0.02686602            9 
  118000    1.0918082   -7.1064819    34.433373  0.024317354  0.026802101            7 
  119000    1.0780567   -7.1536757    34.467358  0.024136805  0.026738976            1 
  120000    1.0668952   -7.1995416    34.567579  0.024005263  0.026670622           12 
  121000    1.0765099   -7.1805108    34.845902  0.023998555  0.026599121            9 
  122000    1.0632598    -7.165765    35.103438  0.023977758  0.026530108            8 
  123000    1.0689899   -7.1769151    35.076844  0.023764799  0.026457804            4 
  124000    1.0750563   -7.1603182     35.36451  0.023766472  0.026381897            2 
  125000    1.0575452   -7.1937995    35.644948  0.023763299  0.026308624            8 
  126000    1.0646608   -7.2268666    35.736402  0.023635186  0.026233737            3 
  127000    1.0712032   -7.1977089    36.183571  0.023742501  0.026163379            3 
  128000    1.0786433   -7.2395874    36.263407  0.023608989  0.026091936            2 
  129000    1.0655445   -7.2003501    36.573138  0.023626058  0.026019183            5 
  130000    1.0518599   -7.2296171    36.518805   0.02340949  0.025946506            2 
  131000    1.0469237   -7.1733164    37.048871  0.023567984  0.025873028            4 
  132000    1.0981938   -7.1790276    37.068557  0.023401867  0.025797274            2 
  133000    1.0360255   -7.1932176     37.29999  0.023370921  0.025719401            7 
  134000    1.0694989    -7.259012    37.467306  0.023300564  0.025645188            3 
  135000    1.0861723   -7.2445248    37.603495  0.023212034  0.025569333            7 
  136000    1.0542402    -7.262155    37.730717  0.023119312  0.025491384            2 
  137000    1.0625885   -7.1975031      38.0977  0.023173784  0.025412367            2 
  138000    1.0295879   -7.2054613    38.109577  0.023013029  0.025332536            2 
  139000    1.0450477   -7.2262085    38.240004  0.022925662  0.025250578            2 
  140000    1.0327384   -7.2207523    38.323362  0.022811525  0.025169948            5 
  141000    1.0588641   -7.2864837    38.448758  0.022723852  0.025087499            3 
  142000    1.0489604   -7.2621142    38.582115  0.022642086   0.02500183            5 
  143000     1.060189   -7.2347055    38.977293   0.02271404  0.024916721            2 
  144000    1.0555687   -7.2252324    38.925304  0.022526217  0.024832411            8 
  145000     1.021187   -7.3054496    39.118763  0.022482048  0.024747368           10 
  146000    1.0158849   -7.2767972    39.345741  0.022457615   0.02466406            5 
  147000    1.0296593   -7.2867503    39.616421  0.022458289  0.024580614            5 
  148000    1.0402468   -7.2553382    39.649474  0.022325154  0.024497418            4 
  149000    1.0232616   -7.3051333    39.748904  0.022230931  0.024414699            5 
  150000    1.0350275   -7.2980028    40.149906  0.022305503  0.024334061            3 
  151000    1.0163337   -7.3228796    40.408173  0.022300316  0.024257183            4 
  152000    1.0332245   -7.3298734    40.565857  0.022240053  0.024180901            4 
  153000    1.0250764   -7.2980333    40.784247  0.022213642  0.024106769            3 
  154000   0.99969708   -7.3245294     41.06923  0.022223609  0.024033847           10 
  155000    1.0303706   -7.2981441    41.208841  0.022155291  0.023962186            3 
  156000    1.0162353   -7.2960432    41.463125  0.022149105  0.023889815            4 
  157000   0.99576929   -7.3210383    41.448622   0.02200033  0.023817231            4 
  158000    1.0205995   -7.3454462    41.668545   0.02197708   0.02374465            4 
  159000    1.0264355   -7.3525655    41.834358  0.021925764  0.023674054            7 
  160000    1.0363271   -7.3233517    42.045913  0.021898913  0.023602722            5 
  161000    1.0026179   -7.3332369    42.275064  0.021881503  0.023532753            4 
  162000   0.99334211   -7.3541097    42.474443  0.021848993  0.023461388            7 
  163000   0.99539953   -7.3414582    42.622632  0.021790712  0.023391507            2 
  164000   0.99277138   -7.3629699    42.731939  0.021713383  0.023322742            2 
  165000    1.0114404    -7.399779    43.050861  0.021742859  0.023253466            5 
  166000    1.0093922   -7.4012822     42.91191  0.021542123  0.023184151            4 
  167000    1.0116485   -7.3905365     43.20483  0.021559297  0.023113928            3 
  168000    0.9841152   -7.3880589    43.362082  0.021508969  0.023045494            8 
  169000   0.99576433   -7.3453135    43.716319   0.02155637  0.022978391            6 
  170000     1.002496   -7.3653718     43.79367  0.021467485  0.022914694            3 
  171000    1.0081603   -7.4066337    43.973066   0.02142937   0.02284861            4 
  172000    1.0048784   -7.4561378    43.872151  0.021255887  0.022782806            3 
  173000   0.97977917   -7.4007213    44.279437  0.021329209  0.022716432            4 
  174000   0.98253025   -7.3679874    44.426777  0.021277192  0.022651634            4 
  175000    1.0095557   -7.4216163     44.62423  0.021249633  0.022587302            9 
  176000   0.97253004   -7.4143193    44.826042  0.021224452  0.022523583            4 
  177000   0.98257568   -7.3830481    45.122999   0.02124435  0.022461455            3 
  178000   0.98915515   -7.4159064    45.144524  0.021135077  0.022397974            2 
  179000   0.96957338   -7.3803881    45.551425  0.021206436  0.022337013            2 
  180000   0.98531079   -7.4439915    45.466784  0.021049437   0.02227575           11 
  181000   0.96562826    -7.415848     45.66315   0.02102355  0.022213544            4 
  182000   0.97455107   -7.4325024    45.619251  0.020887935  0.022151175            7 
  183000   0.99510475   -7.4488687    45.647011  0.020786435  0.022085601            4 
  184000   0.97862469   -7.4466363    45.757042  0.020723298  0.022019889           10 
  185000   0.95169553   -7.4358567    45.927627   0.02068812  0.021953151            5 
  186000     0.973687   -7.4614253    46.089726  0.020649519  0.021886846            5 
  187000   0.97182762    -7.468265    46.337898  0.020649687  0.021821848            4 
  188000   0.95989512   -7.4617154    46.411866  0.020572635  0.021756306            4 
  189000   0.96119334   -7.4761626    46.479981  0.020493819  0.021691014            2 
  190000    0.9680188   -7.4337663    46.739388  0.020499731  0.021626083            6 
  191000   0.96316896   -7.5036238    46.607019   0.02033465  0.021560366            8 
  192000    0.9712458    -7.509649    46.755852  0.020293338  0.021494543            6 
  193000   0.96825169   -7.5200449    46.879816  0.020241717  0.021428194            5 
  194000   0.95619127   -7.4974057    46.873444  0.020134641  0.021360318            7 
  195000    0.9519149   -7.5153541     46.93154  0.020056213  0.021290949            8 
  196000   0.93327816   -7.4942511    47.040532  0.020000226  0.021220753            3 
  197000   0.97580149   -7.5429849       47.122  0.019933164   0.02115103            5 
  198000   0.95227293   -7.5013421    47.311129  0.019912091  0.021082763            5 
  199000   0.96421129   -7.5053132    47.519655  0.019899353  0.021015211            3 
  200000   0.95259444   -7.4789654    47.591563  0.019829818  0.020947829            3 
  201000   0.92796885   -7.5307094    47.502487  0.019694232  0.020879241           10 
  202000   0.92942803   -7.5137006    47.641766  0.019654194  0.020811588            3 
  203000   0.95897378   -7.5315026    47.888132  0.019658511  0.020744522            7 
  204000   0.95438494   -7.5672092    47.833047  0.019539643  0.020676684            5 
  205000    0.9486998   -7.5120975    48.091742  0.019549488  0.020608709            6 
  206000     0.939805   -7.5347404    48.091794  0.019454609  0.020541509            5 
  207000   0.94609283   -7.5568144     48.07796  0.019355057   0.02047417            5 
  208000   0.92774735   -7.5805943    48.106529  0.019273449  0.020406049            6 
  209000   0.92794458   -7.5777688    48.318174  0.019265619  0.020337912            7 
  210000   0.93672879   -7.5859217    48.268587  0.019154201  0.020269838            5 
  211000    0.9211431   -7.5874858    48.549002  0.019174171  0.020200873            4 
  212000   0.93840714   -7.6056308    48.493512  0.019061915  0.020132427            6 
  213000   0.94133611   -7.5786877    48.686877  0.019048074  0.020063176           18 
  214000   0.91565397   -7.5586728    48.853114  0.019023798  0.019995669            7 
  215000   0.91682966   -7.5673027    48.968624  0.018980087  0.019929399            9 
  216000   0.91559586   -7.5918602    49.049108  0.018923267  0.019864146            8 
  217000   0.92536958   -7.5972404    49.133992  0.018868661  0.019797475            5 
  218000   0.92732687    -7.606139    49.211091  0.018811579  0.019730907            7 
  219000    0.9313012   -7.6351711     49.22753  0.018731937  0.019664882            9 
  220000   0.92982419   -7.6384501    49.380228  0.018704632  0.019599294            9 
  221000   0.92829473   -7.5861146    49.642959  0.018719064  0.019534602            5 
  222000   0.91327784   -7.6414259    49.719583  0.018663507  0.019471436           22 
  223000   0.91711398   -7.6375671    49.627913  0.018545558  0.019408338            5 
  224000   0.90739622   -7.6034852    49.853885  0.018546832  0.019344289            8 
  225000   0.91018049   -7.6260206    49.881637   0.01847468  0.019280026            9 
  226000   0.91022223   -7.6659549     49.87251  0.018389569  0.019213778           11 
  227000   0.89853166   -7.6715564    49.829989  0.018292948  0.019147907           10 
  228000   0.90228082   -7.6794496    49.792313  0.018198945  0.019082373            4 
  229000   0.92079623   -7.6569229    50.058015  0.018216163  0.019017536           15 
  230000   0.91014008   -7.6755568    49.974126  0.018106568  0.018952488           12 
  231000   0.90880799   -7.6513974    50.174488  0.018100465  0.018887471           16 
  232000   0.91147717     -7.68295     50.16476  0.018018951  0.018823069            3 
  233000   0.90781075   -7.6784016    50.364967  0.018013221  0.018757561           15 
  234000   0.90418098   -7.7004248    50.196167  0.017876128  0.018692235            5 
  235000   0.88807104   -7.6959372    50.198464  0.017800874  0.018626366            8 
  236000   0.88473347   -7.7042245    50.355098  0.017780755  0.018560569            9 
  237000   0.86562205   -7.7062394    50.280956  0.017679661  0.018494058           11 
  238000   0.89518237   -7.7294064    50.374099   0.01763799  0.018428098           10 
  239000   0.87468276   -7.7390924    50.421901  0.017580858  0.018362647            7 
  240000   0.86637204   -7.7544599     50.56438  0.017557076  0.018297091            5 
  241000   0.89091833   -7.7329042     50.51855  0.017468378   0.01823187            7 
  242000   0.88309809   -7.7247817    50.733547   0.01747023  0.018166825            8 
  243000   0.86668219   -7.7392536     50.59095  0.017349434  0.018101117            4 
  244000   0.86437396   -7.7775346    50.718679  0.017321953  0.018035779            7 
  245000      0.89379   -7.7356027    50.760637  0.017265523  0.017970416            6 
  246000   0.88699571   -7.7322264    50.842507  0.017223072  0.017905435            4 
  247000   0.89029738   -7.7669511    50.856511  0.017158067   0.01784028            5 
  248000   0.87984242   -7.8224612    50.658028  0.017022187  0.017774338           14 
  249000    0.8591781   -7.8217663    50.775898  0.016993273  0.017708826            9 
  250000    0.8491282   -7.7642229    51.050498  0.017016833  0.017643964            4 
  251000   0.87489816   -7.8016733    50.952513  0.016916505  0.017579352            5 
  252000   0.85995172   -7.8086814    50.887842   0.01682799  0.017513946            8 
  253000   0.86967302   -7.7727061    51.002518  0.016799248  0.017448651           11 
  254000    0.8585346    -7.800482    51.030534  0.016742301    0.0173841            5 
  255000   0.85958384   -7.7902234    51.252487  0.016749179  0.017319722            7 
  256000   0.85706749   -7.7940066    51.095929  0.016632789  0.017255898            5 
  257000   0.84825967   -7.7919115    51.215783  0.016606933  0.017191977            8 
  258000   0.84115079   -7.8359596    51.143348  0.016519169  0.017127696            4 
  259000   0.85976809   -7.8173933    51.248661  0.016489273   0.01706383            9 
  260000   0.84914228   -7.8254541    51.256069  0.016428227  0.017000302           12 
  261000    0.8464607   -7.8446962    51.223685  0.016354944  0.016936852           12 
  262000   0.85190942   -7.8588877    51.470359  0.016370979  0.016873916            7 
  263000    0.8461376   -7.9007472     51.41116  0.016289975  0.016810593           33 
  264000   0.85599268   -7.8602604    51.454339    0.0162419  0.016747955           25 
  265000   0.86094597   -7.8832537    51.459251  0.016182154  0.016685718           12 
  266000   0.85132821   -7.8774772    51.526963  0.016142532  0.016623295            6 
  267000   0.84893079    -7.861313    51.675304  0.016128372  0.016561865           22 
  268000   0.83854722   -7.8770049    51.549341  0.016029024  0.016500622           21 
  269000   0.84444765   -7.8964089    51.645078  0.015999095  0.016438934           30 
  270000   0.84034513    -7.883059    51.618683  0.015931692  0.016377625            9 
  271000    0.8463483   -7.8696384     51.85398  0.015945258  0.016316441           19 
  272000   0.84481984   -7.8884287    51.634824  0.015819493  0.016255241           17 
  273000    0.8190448   -7.8581468    51.762939  0.015800653  0.016193612           17 
  274000   0.83145207   -7.9016427    51.775068  0.015746675  0.016132061           16 
  275000   0.84093083   -7.9172574    51.589738  0.015633254  0.016070665           21 
  276000   0.83786241   -7.9356072    51.799649  0.015639991  0.016009787           15 
  277000   0.84497705   -7.9261083    51.726667  0.015561573  0.015949689           23 
  278000    0.8285659   -7.9252135    51.810654  0.015530771  0.015889397           12 
  279000   0.82833238   -7.9279743    52.018341  0.015537139  0.015829328           17 
  280000    0.8131655   -7.9290832    51.981106  0.015470567  0.015770224           15 
  281000   0.83477278   -7.9443882    51.841123  0.015373998  0.015710522           17 
  282000   0.80252417   -7.9358576    52.052035  0.015381807  0.015651533            6 
  283000    0.8108712   -7.9537621    51.968833  0.015302954  0.015592527           11 
  284000   0.82315253   -7.9475813    51.952598  0.015244307  0.015533559           12 
  285000   0.80927109   -7.9610021    52.033586  0.015214499  0.015474654           11 
  286000   0.81979311   -7.9458638    52.028234  0.015159742  0.015416198            9 
  287000   0.82907199   -7.9557171    52.000069  0.015098742  0.015357594           18 
  288000   0.81461432   -7.9876384    51.924524  0.015024457   0.01529929           13 
  289000   0.79560036   -7.9765219    51.982666  0.014989235  0.015240518           17 
  290000   0.82059083   -7.9831915     51.99609  0.014941405  0.015182034           12 
  291000   0.80479876    -8.006518     51.94538  0.014875538  0.015123743           11 
  292000   0.81394292   -7.9948326    52.070574  0.014860324  0.015065939           12 
  293000   0.79829737   -7.9721824    52.063897  0.014807707  0.015007908           19 
  294000   0.80343209   -8.0208097    51.985119  0.014735011  0.014950203           29 
  295000   0.80514531   -7.9925873    52.084101  0.014713023  0.014892494           21 
  296000   0.81405375   -7.9990724    52.157823  0.014684072  0.014835171           12 
  297000   0.80498509   -8.0424229     52.00941  0.014592988   0.01477818           41 
  298000   0.80111426   -8.0228013    52.175077  0.014590346   0.01472113           18 
  299000   0.80811985   -8.0637378    52.144386  0.014532995  0.014664275           22 
  300000   0.78739903     -8.05193    52.028802  0.014452445  0.014607489           14 
  301000   0.77980407   -8.0582151    52.006384  0.014398224  0.014550637           49 
  302000   0.78096724   -8.0649136    52.037458  0.014359122  0.014493821           20 
  303000   0.78868502   -8.0615163    52.048201  0.014314687  0.014437128           11 
  304000   0.78386756   -8.0701869     51.97321  0.014247042   0.01438049           18 
  305000   0.78219475   -8.0866865    52.071444   0.01422717   0.01432404           16 
  306000   0.75899367   -8.0780118    51.997936  0.014160658  0.014267525           23 
  307000    0.7668765   -8.0688126    51.943597  0.014099782   0.01421086           12 
  308000   0.77331648   -8.0708488    52.038513  0.014079684  0.014154556           26 
  309000   0.77596428   -8.0801353    52.058659  0.014039552  0.014098783           44 
  310000   0.77759265   -8.0990743    52.244748  0.014044287  0.014043171          109 
  311000   0.77051185   -8.1028528    52.184602  0.013983012  0.013987748           44 
  312000   0.77046732    -8.103665    52.034623  0.013898136  0.013932503           40 
  313000   0.75212189   -8.1113109    52.001712  0.013844971  0.013877225           43 
  314000   0.76756179    -8.124587    52.088063  0.013823796  0.013821973           38 
  315000   0.76179139   -8.1187203    52.057986  0.013771954  0.013766965           90 
  316000   0.76366936   -8.1268435    51.986378  0.013709488  0.013711922          124 
  317000    0.7537572   -8.1522041     52.06296  0.013686372  0.013657477           84 
  318000   0.73558549   -8.1604365     51.95419   0.01361483  0.013603031           78 
  319000   0.75682484   -8.1846645    51.984155  0.013579978  0.013548911          106 
  320000   0.77124243   -8.1405014    52.164949  0.013584622  0.013495202          150 
  321000   0.74270111   -8.1683851    52.050833  0.013512677  0.013441574          139 
  322000   0.72986393   -8.1931579    52.092052   0.01348138  0.013387956          124 
  323000    0.7552017   -8.1707322    52.059647  0.013431282  0.013334523          136 
  324000   0.74136182   -8.1874269    52.053306  0.013388196  0.013281209          181 
  325000   0.74488432    -8.185649    52.010036  0.013335907  0.013228379          234 
  326000   0.74068131   -8.2040211     52.11981   0.01332306  0.013175866          165 
  327000    0.7450545   -8.2078277    51.965739  0.013243053  0.013123312          129 
  328000    0.7318059   -8.2037048    52.012402  0.013214533  0.013070739          161 
  329000   0.73801564   -8.1950601    52.072504  0.013189591  0.013018711          185 
  330000    0.7507112   -8.1803355    52.181052  0.013177033  0.012967103          216 
  331000    0.7438626   -8.2022945    52.105544  0.013118213  0.012915837          207 
  332000   0.74376564   -8.2134031    52.124418  0.013083438  0.012864812          153 
  333000   0.74438022    -8.236129    52.045242  0.013024335  0.012813847          188 
  334000   0.72753046   -8.2165923    52.031861  0.012982001  0.012763207          250 
  335000   0.73141445   -8.2136069    52.122709  0.012965848  0.012712894          211 
  336000   0.73713357   -8.2127129    52.138397   0.01293115  0.012662613          196 
  337000   0.72303876   -8.2198478    52.227408  0.012914789  0.012612413          258 
  338000   0.72950873   -8.2333635    52.132694  0.012853228  0.012562253          289 
  339000   0.72307043   -8.2438019    52.121964  0.012812675  0.012512379          213 
  340000   0.74358453   -8.2506017    52.128364   0.01277656  0.012462645          294 
  341000   0.73576826   -8.2492064     52.08363   0.01272816  0.012413111          316 
  342000   0.70703254   -8.2592426    52.063651  0.012686075   0.01236367          300 
  343000   0.72592087   -8.2881719    52.068968  0.012650381  0.012314605          220 
  344000   0.71596703   -8.2623791    51.987265  0.012593814  0.012265687          188 
  345000    0.7075465   -8.2764763    52.034176  0.012568642  0.012216939          232 
  346000   0.69559102   -8.2993067    51.811938   0.01247879  0.012168195          194 
  347000   0.70151377   -8.2758499    51.982852  0.012483874  0.012119664          242 
  348000   0.71222047   -8.2729473     52.07386  0.012469794  0.012071414          231 
  349000   0.71227619   -8.2921268    51.999702  0.012416357  0.012023373          213 
  350000   0.71577076   -8.2864417      52.1558  0.012418048  0.011975549          291 
  351000   0.73026031   -8.2801004    51.985987  0.012342352   0.01192787          266 
  352000   0.72898495   -8.3065739    51.966952  0.012302782  0.011880486          265 
  353000   0.70772022   -8.2624042    52.109885  0.012301673  0.011833021          307 
  354000    0.6955947   -8.3017002    51.933758  0.012225461  0.011785898          296 
  355000   0.71016421   -8.2974418    51.875709  0.012177396  0.011738887          226 
  356000   0.69799519   -8.3057526    51.929758  0.012155842  0.011692019          230 
  357000   0.70413878   -8.2941516     51.98082  0.012133711  0.011645445          278 
  358000   0.70291678   -8.3267503    51.933369  0.012088773  0.011599175          222 
  359000   0.68902642   -8.3202433    51.933211  0.012055063   0.01155305          187 
  360000   0.70278571   -8.3401248    51.975721  0.012031417  0.011507153          291 
  361000   0.67732332   -8.3216186    51.946233  0.011991282  0.011461452          252 
  362000   0.68216389   -8.3193955    52.035553  0.011978719  0.011416092          218 
  363000   0.70516403   -8.3438529    51.920821   0.01191938  0.011370942          313 
  364000    0.6796678   -8.3201853    51.975471  0.011899146  0.011326199          267 
  365000   0.69258293    -8.353144    52.007206  0.011873791   0.01128146          292 
  366000   0.67113439   -8.3266525    51.896518  0.011816147  0.011237071          246 
  367000   0.68620341   -8.3502961    51.984426  0.011803911  0.011192727          247 
  368000    0.6790939   -8.3478189    51.902581  0.011753302  0.011148459          263 
  369000   0.66487407    -8.362073     51.87675  0.011715617  0.011104257          335 
  370000   0.68914909   -8.3718043    51.833104  0.011674123  0.011060232          293 
  371000   0.67679325   -8.3800059    51.743229  0.011622468  0.011016503          289 
  372000   0.68421607   -8.3718981    51.817391  0.011607838  0.010972934          358 
  373000   0.67078812   -8.3453033    51.927825  0.011601391  0.010929552          339 
  374000   0.65629693   -8.3579589    51.857601  0.011554724  0.010886326          268 
  375000   0.67979083    -8.362192    51.841998  0.011520444  0.010843385          287 
  376000   0.68145012   -8.3970205    51.890466  0.011500547  0.010800591          286 
  377000   0.65823791   -8.4029169    51.824437  0.011455446  0.010758175          330 
  378000    0.6699178   -8.3889967    51.904248  0.011442735  0.010715927          193 
  379000   0.66157961   -8.3935699    51.886094  0.011408552  0.010673901          257 
  380000   0.66607725   -8.4027585    51.881393  0.011377499  0.010631961          274 
  381000   0.65403615   -8.3958124    51.893682  0.011350324  0.010590339          202 
  382000   0.65464275   -8.4188658    51.845266  0.011310049  0.010548815          286 
  383000   0.64129611   -8.4004057    51.836589  0.011278631  0.010507435          284 
  384000   0.66052557   -8.4064027    51.827184  0.011247219  0.010466296          286 
  385000   0.65060023   -8.4359663    51.827845  0.011218148   0.01042546          211 
  386000   0.65334027   -8.4180434    51.832631  0.011190119  0.010384745          253 
  387000     0.652652   -8.4357332    51.874695  0.011170262   0.01034416          247 
  388000   0.64789729   -8.4385848    51.896595  0.011146176   0.01030386          261 
  389000   0.63415652   -8.4337353    51.744149  0.011084865  0.010263686          218 
  390000    0.6355179   -8.4384519    51.852582  0.011079612  0.010223731          300 
  391000     0.637504   -8.4502813     51.82193  0.011044742  0.010184012          311 
  392000    0.6658809   -8.4564963    51.798494  0.011011585  0.010144406          281 
  393000   0.63725548   -8.4395703    51.745986  0.010972431  0.010104916          232 
  394000   0.65496075   -8.4510136    51.825157  0.010961328  0.010065586          274 
  395000   0.64128347   -8.4336462    51.812727  0.010930955  0.010026485          237 
  396000   0.64164858   -8.4820382    51.619083  0.010862602 0.0099875408          355 
  397000   0.63373349   -8.4636314    51.721924  0.010856827 0.0099487119          377 
  398000   0.64499729   -8.4456881    51.820467  0.010850182 0.0099101822          320 
  399000   0.62716491   -8.4608168    51.726763  0.010803417 0.0098717852          265 
  400000   0.62397277   -8.4667689    51.761468  0.010783639 0.0098335401          235 
  401000   0.62384969   -8.4810243    51.707566  0.010745546 0.0097956046          275 
  402000   0.62823065   -8.4817833    51.673027  0.010711656 0.0097577003          326 
  403000   0.62020913     -8.49019    51.781683  0.010707544 0.0097200048          302 
  404000   0.61315299   -8.4604781    51.712229  0.010666714 0.0096824543          273 
  405000   0.61332401   -8.4841585    51.639983  0.010625511 0.0096450418          383 
  406000   0.62073134   -8.4873575    51.750271  0.010621977 0.0096077279          320 
  407000     0.630588   -8.4944092    51.556613  0.010556227 0.0095707087          438 
  408000   0.61726297     -8.48463    51.670486  0.010553612 0.0095337374          290 
  409000   0.63220994   -8.5126019    51.632082  0.010519984 0.0094970354          296 
  410000   0.60648662    -8.486975    51.694466  0.010507005 0.0094604183          291 
  411000    0.6188993   -8.5094204    51.657038  0.010473852 0.0094240765          285 
  412000   0.61251938   -8.4973578    51.721174  0.010461402 0.0093878448          368 
  413000   0.60888703   -8.5244591    51.498354  0.010391113 0.0093518197          347 
  414000   0.60050475   -8.5066611    51.693697  0.010405334 0.0093160058          305 
  415000   0.59809078    -8.502218    51.589444  0.010359326 0.0092803215          297 
  416000   0.60670558   -8.5057612    51.590447  0.010334625 0.0092447454          394 
  417000   0.60474503   -8.5085609     51.65306  0.010322354 0.0092094088          336 
  418000   0.59250153   -8.5137446    51.433679  0.010253923  0.009174149          295 
  419000   0.59792276   -8.5252408    51.618951  0.010266299 0.0091390575          297 
  420000   0.57956937   -8.5385074    51.460209  0.010210359 0.0091041332          302 
  421000   0.59466867   -8.5351909    51.597961  0.010213373 0.0090693333          377 
  422000   0.58910662     -8.53938    51.544196  0.010178554 0.0090346925          337 
  423000   0.58394328   -8.5195569    51.542129  0.010154084 0.0090002846          352 
  424000   0.59779356   -8.5354971    51.502896  0.010122425 0.0089660517          303 
  425000    0.5852683   -8.5583676    51.397478  0.010077937 0.0089318942          391 
  426000   0.57218978   -8.5424256    51.484323  0.010071268 0.0088979782          295 
  427000   0.58429419   -8.5334207    51.502936  0.010051315  0.008864166          363 
  428000   0.57337903   -8.5515731     51.48942  0.010025199 0.0088305105          329 
  429000   0.57518089   -8.5564099    51.480238  0.010000046 0.0087969186          342 
  430000   0.57742339   -8.5482117    51.557163 0.0099916982  0.008763514          354 
  431000   0.57397557   -8.5577591    51.525109 0.0099623181 0.0087302882          429 
  432000   0.57580971   -8.5731859    51.404603 0.0099160113 0.0086971761          447 
  433000    0.5842164   -8.5799571    51.445269  0.009900937 0.0086642783          374 
  434000   0.56634088   -8.5743042    51.479956 0.0098847841 0.0086314361          393 
  435000   0.57623801   -8.5683125    51.430843 0.0098526519 0.0085987621          356 
  436000   0.55113936    -8.568652    51.418455 0.0098276863 0.0085662867          363 
  437000    0.5785652   -8.5898133    51.361087 0.0097942575 0.0085339691          503 
  438000   0.57562503   -8.5988219    51.403806 0.0097800239 0.0085018543          421 
  439000   0.58110476   -8.5770322    51.434328 0.0097635398 0.0084698855          435 
  440000   0.55344807   -8.5843537    51.393315 0.0097335824 0.0084380936          395 
  441000   0.56613587   -8.5781221    51.392597  0.009711375 0.0084064006          399 
  442000   0.55847792   -8.5969591    51.364377 0.0096840832 0.0083748791          406 
  443000   0.56428007   -8.5925474    51.416083 0.0096719493 0.0083434566          352 
  444000   0.55678022   -8.6064062    51.413398 0.0096496617 0.0083122483          413 
  445000   0.55330356   -8.6112344    51.444813 0.0096338602 0.0082812309          494 
  446000   0.54960536   -8.5986802    51.468834 0.0096167477 0.0082502916          465 
  447000   0.55936849   -8.6027743     51.43013 0.0095880183 0.0082195324          380 
  448000   0.55696452   -8.6227666    51.369253 0.0095552926 0.0081889811          350 
  449000    0.5406256   -8.6161157    51.352965 0.0095309883 0.0081585284          414 
  450000   0.54679546   -8.6006125    51.443578 0.0095265885 0.0081282746          381 
  451000    0.5463769   -8.6101126     51.40248 0.0094978713 0.0080981555          423 
  452000   0.54518508   -8.6156212    51.366955 0.0094703088 0.0080682033          405 
  453000   0.54230179   -8.5993919    51.353656 0.0094469566  0.008038357          456 
  454000   0.54027938   -8.6212201    51.341194 0.0094238609 0.0080086482          461 
  455000     0.540124   -8.6092696    51.430727  0.009419547 0.0079790387          383 
  456000   0.54610756   -8.6273836    51.329381 0.0093803694 0.0079495662          416 
  457000   0.53237249   -8.6431625    51.238756  0.009343318 0.0079202603          453 
  458000   0.53277966    -8.628302    51.321965 0.0093380576  0.007891115          409 
  459000   0.53503008   -8.6434443    51.268089 0.0093079318    0.0078621          364 
  460000   0.53489636   -8.6400301    51.182767 0.0092722403 0.0078332048          400 
  461000   0.52279032   -8.6376011    51.317282 0.0092764429 0.0078044323          376 
  462000   0.52717789   -8.6406507    51.216985 0.0092382728 0.0077757915          489 
  463000   0.53514302   -8.6546325    51.290737 0.0092315941  0.007747356          389 
  464000   0.53013349   -8.6321564    51.307185 0.0092146525 0.0077190687          512 
  465000   0.52168833   -8.6332581    51.308854  0.009195135 0.0076908668          434 
  466000   0.51719402    -8.645319    51.294259  0.009172793 0.0076627572          383 
  467000   0.52598096   -8.6565956    51.316372 0.0091570971 0.0076348229          428 
  468000   0.52722885   -8.6614138    51.290337 0.0091328948 0.0076069714          316 
  469000   0.52478616   -8.6342097    51.279348 0.0091114691 0.0075793204          398 
  470000   0.51508651   -8.6712098    51.266314 0.0090897719 0.0075517698          388 
  471000   0.51813358   -8.6617514    51.193308 0.0090575562 0.0075243346          373 
  472000   0.51591128   -8.6617237    51.211903 0.0090416496 0.0074970537          425 
  473000   0.50919098   -8.6864385    51.259695 0.0090309539 0.0074698411          491 
  474000    0.5174283   -8.6824212    51.241477 0.0090086985 0.0074427942          454 
  475000   0.51018611   -8.6698656    51.172989 0.0089777174 0.0074158606          465 
  476000   0.50018097   -8.6980235    51.210096 0.0089653529 0.0073890795          443 
  477000   0.49819003    -8.691881    51.274612 0.0089578288 0.0073624809          500 
  478000   0.50633952   -8.6839531    51.224254 0.0089303092 0.0073359693          431 
  479000   0.50408297   -8.6836425    51.154225 0.0088994825 0.0073095694          376 
  480000   0.50003091   -8.6988749    51.110768 0.0088733972 0.0072832367          425 
  481000   0.50549356   -8.7063837    51.116257 0.0088559004 0.0072570606          474 
  482000   0.49836182   -8.7088833    51.080475 0.0088313407 0.0072310034          495 
  483000   0.49738425   -8.6975561    51.156507 0.0088261744  0.007205071          495 
  484000   0.49753807    -8.730383    51.201865 0.0088157481  0.007179243          393 
  485000   0.50388494   -8.7171801    51.164011 0.0087910672 0.0071535124          416 
  486000   0.49666159   -8.7173853    51.160351  0.008772351 0.0071279195          435 
  487000    0.4959272   -8.7217629     51.13133 0.0087493719 0.0071024201          486 
  488000   0.49201903   -8.7029223    51.108771 0.0087275907 0.0070770742          425 
  489000   0.48038827   -8.7339243    51.138106 0.0087147419 0.0070518497          432 
  490000   0.47590085   -8.7123579    51.144797 0.0086980946 0.0070267361          418 
  491000   0.48029782   -8.7231381    51.156341 0.0086823389 0.0070017238          474 
  492000   0.47890082   -8.7128868    51.101053 0.0086553273 0.0069768084          402 
  493000   0.49139546   -8.7280673     51.08131 0.0086344338 0.0069519971          399 
  494000   0.47772233   -8.7357146    51.164352 0.0086309635 0.0069273263          496 
  495000   0.48327852   -8.7403017    51.029242 0.0085907814 0.0069027142          479 
  496000   0.47397807   -8.7499467    50.970098 0.0085635245 0.0068782149          410 
  497000   0.47072114   -8.7561805    51.026397 0.0085557339 0.0068538144          381 
  498000   0.46636136   -8.7448788     50.99578 0.0085334304 0.0068295003          400 
  499000   0.47777949   -8.7381944    50.957685 0.0085099675 0.0068053008          387 
  500000    0.4721503   -8.7529985    50.927591 0.0084879319 0.0067812752          481 
  501000   0.46765239   -8.7458351    50.991472 0.0084816155 0.0067573316          399 
  502000    0.4654789   -8.7514645    51.065646 0.0084770328 0.0067334967          437 
  503000   0.46393231   -8.7526892    50.938279 0.0084390787 0.0067097859          515 
  504000    0.4642973   -8.7690021     50.98929 0.0084307689 0.0066861637          443 
  505000   0.46503629   -8.7540034    51.009638  0.008417432 0.0066626643          375 
  506000   0.46533642    -8.765281    50.984956 0.0083967319  0.006639328          482 
  507000   0.46016046   -8.7605327    51.039026 0.0083890576 0.0066160984          534 
  508000   0.44735255   -8.7697119    51.023468 0.0083699914 0.0065929771          486 
  509000   0.44241233   -8.7708098    50.987321 0.0083476296 0.0065698895          438 
  510000   0.44492344   -8.7593171    50.929531 0.0083218188 0.0065469889          506 
  511000   0.44790758   -8.7887418    50.918429  0.008303723 0.0065242023          461 
  512000   0.45174436   -8.7679762    51.010693 0.0083025217 0.0065014788          432 
Loop time of 1301.96 on 48 procs for 500000 steps with 4000 atoms

Performance: 66361.509 tau/day, 384.037 timesteps/s
99.4% CPU use with 48 MPI tasks x no OpenMP threads

MPI task timing breakdown:
Section |  min time  |  avg time  |  max time  |%varavg| %total
---------------------------------------------------------------
Pair    | 91.962     | 101.56     | 111.82     |  44.8 |  7.80
Neigh   | 9.0785     | 9.3987     | 9.8562     |   6.1 |  0.72
Comm    | 86.124     | 94.791     | 104.73     |  43.0 |  7.28
Output  | 1.1356     | 1.1366     | 1.1634     |   0.4 |  0.09
Modify  | 1076.8     | 1082.4     | 1087.1     |   7.0 | 83.14
Other   |            | 12.66      |            |       |  0.97

Nlocal:        83.3333 ave          90 max          78 min
Histogram: 5 5 7 3 4 13 3 3 1 4
Nghost:        2400.90 ave        2420 max        2387 min
Histogram: 4 5 5 9 7 8 6 0 1 3
Neighs:        16547.9 ave       19698 max       14070 min
Histogram: 2 6 6 7 10 4 6 5 1 1
FullNghs:      33095.6 ave       36097 max       30916 min
Histogram: 4 7 7 3 11 4 6 2 3 1

Total # of neighbors = 1588587
Ave neighs/atom = 397.14675
Neighbor list builds = 26612
Dangerous builds = 0

#clear
#
#next RN
#
#jump SELF
Total wall time: 0:21:45
