
units lj                  # Use reduced LJ style units
atom_style atomic         # Uncharged point particles
atom_modify map hash      # Needed for indexing of clusters etc
                          # Used to be able to find where atoms are in relation to each other.

lattice fcc 1.0 spacing 1 1 1
Lattice spacing in x,y,z = 1.5874011 1.5874011 1.5874011
region box block 0 10 0 10 0 10 units lattice
create_box 2 box
Created orthogonal box = (0.0000000 0.0000000 0.0000000) to (15.874011 15.874011 15.874011)
  3 by 4 by 4 MPI processor grid
create_atoms 1 box
Created 4000 atoms
  using lattice units in orthogonal box = (0.0000000 0.0000000 0.0000000) to (15.874011 15.874011 15.874011)
  create_atoms CPU = 0.026 seconds
set type 1 type/fraction 2 0.56 78393
Setting atom values ...
  2252 settings made for type/fraction
mass 1 1.0
mass 2 1.0
pair_style lj/cut  3.5
pair_modify tail  yes
pair_coeff 1  1  1.0  1.0   # Intearaction between 1 and 1 set with epsilon = 1 and sigma = 1
pair_coeff 1  2  1.5  0.8
pair_coeff 2  2  0.5  0.88

write_data data.0
System init for write_data ...
Neighbor list info ...
  update every 1 steps, delay 10 steps, check yes
  max neighbors/atom: 2000, page size: 100000
  master list distance cutoff = 3.8
  ghost atom cutoff = 3.8
  binsize = 1.9, bins = 9 9 9
  1 neighbor lists, perpetual/occasional/extra = 1 0 0
  (1) pair lj/cut, perpetual
      attributes: half, newton on
      pair build: half/bin/atomonly/newton
      stencil: half/bin/3d
      bin: standard
WARNING: Not all mixed pair coeffs generated from mixing. Use write_data with 'pair ij' option to store all pair coeffs. (../write_data.cpp:312)


#############################
#   M E L T   S Y S T E M   #
#############################

velocity all create 2.4 2750902 mom yes dist gaussian # Assign velocities
                                                    # Temperature 2.4, random number seed, zero linear momentum
                                                                                # Gaussian distribution

timestep 0.002   # simulation timestep
thermo 1000       # output thermodynamic data every 1000 steps bf 100

# Define a fix  in this case with index 1 applied to all
# particles in the simulation. This fix is for simulations
# in the anisotropic NPT ensemble. Note that we use the MTK
# correction.
fix 1 all npt temp 2.4 2.4 0.1 iso 5.68 5.68 0.5 mtk yes tchain 5 pchain 5 # Use NPT ensemble
                                                                         # Set temperature and pressure and damping
                                                                         # Numbers of thermostats in chain and in barostat
run 10000          # run for 10000 steps
Per MPI rank memory allocation (min/avg/max) = 3.642 | 3.644 | 3.648 Mbytes
Step Temp E_pair E_mol TotEng Press Volume 
       0          2.4   -4.9459583            0   -1.3468583   -4.1435722         4000 
    1000    2.4164195   -4.6420021            0   -1.0182789    5.9458171    3633.9651 
    2000    2.4549038   -4.7089463            0   -1.0275113    5.5475135    3625.6307 
    3000    2.4221119   -4.7019292            0   -1.0696696    5.2128886    3660.1474 
    4000    2.4362315   -4.6716331            0   -1.0181994    5.7791917    3624.4266 
    5000    2.4306203   -4.7025702            0   -1.0575513    5.7622492    3600.7962 
    6000    2.4423134   -4.6490356            0  -0.98648141    5.6015522    3658.9516 
    7000    2.3546679   -4.7010446            0   -1.1699259    5.4542895    3641.4991 
    8000    2.3891787   -4.6592079            0   -1.0763358    6.1487272    3601.8191 
    9000    2.4227473   -4.6289865            0  -0.99577408    5.6337265    3651.8247 
   10000    2.3870263     -4.63227            0   -1.0526257    5.4693947    3658.1495 
Loop time of 2.63337 on 48 procs for 10000 steps with 4000 atoms

Performance: 656193.862 tau/day, 3797.418 timesteps/s
99.6% CPU use with 48 MPI tasks x no OpenMP threads

MPI task timing breakdown:
Section |  min time  |  avg time  |  max time  |%varavg| %total
---------------------------------------------------------------
Pair    | 1.2019     | 1.2672     | 1.3528     |   2.9 | 48.12
Neigh   | 0.21584    | 0.22382    | 0.23922    |   1.1 |  8.50
Comm    | 0.77602    | 0.87465    | 0.94592    |   4.3 | 33.21
Output  | 0.00024419 | 0.0002517  | 0.00031509 |   0.0 |  0.01
Modify  | 0.22008    | 0.25129    | 0.27847    |   3.5 |  9.54
Other   |            | 0.01615    |            |       |  0.61

Nlocal:        83.3333 ave          90 max          76 min
Histogram: 3 4 4 5 3 8 5 12 1 3
Nghost:        1742.50 ave        1763 max        1716 min
Histogram: 3 4 3 3 4 8 7 6 4 6
Neighs:        10432.8 ave       11625 max        9246 min
Histogram: 4 3 1 6 7 12 7 4 2 2

Total # of neighbors = 500772
Ave neighs/atom = 125.19300
Neighbor list builds = 901
Dangerous builds = 180

# Equilibrate just above the melting temperature to avoid step fn in T

fix 1 all npt temp 1.25 1.25 0.1 iso 5.68 5.68 0.5 mtk yes tchain 5 pchain 5
run 2000
Per MPI rank memory allocation (min/avg/max) = 3.644 | 3.646 | 3.650 Mbytes
Step Temp E_pair E_mol TotEng Press Volume 
   10000    2.3870263     -4.63227            0   -1.0526257    5.4693947    3658.1495 
   11000    1.2263804   -6.7876948            0   -4.9485841    5.6240179    2795.7557 
   12000    1.2366842   -6.8784503            0   -5.0238878    5.3517137     2785.397 
Loop time of 0.66553 on 48 procs for 2000 steps with 4000 atoms

Performance: 519285.134 tau/day, 3005.122 timesteps/s
99.7% CPU use with 48 MPI tasks x no OpenMP threads

MPI task timing breakdown:
Section |  min time  |  avg time  |  max time  |%varavg| %total
---------------------------------------------------------------
Pair    | 0.30229    | 0.32439    | 0.37271    |   2.4 | 48.74
Neigh   | 0.042803   | 0.045027   | 0.051378   |   0.8 |  6.77
Comm    | 0.19296    | 0.2462     | 0.27519    |   3.4 | 36.99
Output  | 5.3365e-05 | 5.4565e-05 | 6.845e-05  |   0.0 |  0.01
Modify  | 0.039766   | 0.045022   | 0.049406   |   1.5 |  6.76
Other   |            | 0.004835   |            |       |  0.73

Nlocal:        83.3333 ave          91 max          77 min
Histogram: 3 2 9 7 8 10 0 3 2 4
Nghost:        2101.69 ave        2120 max        2082 min
Histogram: 1 3 6 8 5 7 6 4 7 1
Neighs:        13726.5 ave       15251 max       12317 min
Histogram: 3 4 6 7 5 7 6 4 2 4

Total # of neighbors = 658873
Ave neighs/atom = 164.71825
Neighbor list builds = 146
Dangerous builds = 15

#############################
# L I N E A R  Q U E N C H  #
#############################

# Define solid atoms. This closely follows ten Wolde  Ruiz-Montero and Frenkel  Faraday Discuss  1996  104  93-110
# Compute components of the per-atom q6 vector
compute q6 all orientorder/atom degrees 1 6 components 6 nnn NULL cutoff 1.3 # compute the Q6 parameter.
                                                                             # Use all neighbours within 1.3 unit cell.

# get number of connections
compute coord_number all coord/atom orientorder q6 0.5

# An atom is solid if it has 8 or more connections (of a possible 14)
variable is_solid atom c_coord_number>=8
group solid dynamic all var is_solid    # Must be dynamic to update
dynamic group solid defined

# do clustering
compute cluster solid cluster/atom 1.3 # Create a cluster where all atoms within are solid and max 1.3 units from another member

# define chunks one chunk per cluster
compute clus_chunks solid chunk/atom c_cluster nchunk every compress yes  # Says which atoms are in which chunk

# count the size of each chunk
compute size_chunks solid property/chunk clus_chunks count


# Find the maximum entry in the vector of chunk sizes
variable max_n equal max(c_size_chunks)


# Thermo style which includes this variable
# thermo_style custom step temp pe vol v_max_n

thermo ${N}  # Print the thermo information every 100 steps
thermo 1000  

# Reset the npt fix at a lower temperature (below freezing)
fix 1  all npt temp  ${temp} ${temp}  0.1  iso  5.68  5.68  0.5  mtk yes tchain  5  pchain  5
fix 1  all npt temp  0.45 ${temp}  0.1  iso  5.68  5.68  0.5  mtk yes tchain  5  pchain  5
fix 1  all npt temp  0.45 0.45  0.1  iso  5.68  5.68  0.5  mtk yes tchain  5  pchain  5

dump dmp2 all dcd ${N} traj.dcd
dump dmp2 all dcd 1000 traj.dcd


compute msd all msd com yes
variable twopoint equal c_msd[4]/6/(step*dt+1.0e-6)
fix 9 all vector 10 c_msd[4]
variable fit equal slope(f_9)/6/(10*dt)
thermo_style custom step temp pe c_msd[4] v_twopoint v_fit v_max_n

fix 1 all npt temp 1.25 ${temp} 0.1 iso 5.68 5.68 0.5 mtk yes tchain 5 pchain 5
fix 1 all npt temp 1.25 0.45 0.1 iso 5.68 5.68 0.5 mtk yes tchain 5 pchain 5
run 500000 # 5000000  # Run for this many steps
Neighbor list info ...
  update every 1 steps, delay 10 steps, check yes
  max neighbors/atom: 2000, page size: 100000
  master list distance cutoff = 3.8
  ghost atom cutoff = 3.8
  binsize = 1.9, bins = 8 8 8
  4 neighbor lists, perpetual/occasional/extra = 1 3 0
  (1) pair lj/cut, perpetual
      attributes: half, newton on
      pair build: half/bin/atomonly/newton
      stencil: half/bin/3d
      bin: standard
  (2) compute orientorder/atom, occasional
      attributes: full, newton on
      pair build: full/bin/atomonly
      stencil: full/bin/3d
      bin: standard
  (3) compute coord/atom, occasional
      attributes: full, newton on
      pair build: full/bin/atomonly
      stencil: full/bin/3d
      bin: standard
  (4) compute cluster/atom, occasional
      attributes: full, newton on
      pair build: full/bin/atomonly
      stencil: full/bin/3d
      bin: standard
Per MPI rank memory allocation (min/avg/max) = 9.846 | 9.849 | 9.851 Mbytes
Step Temp PotEng c_msd[4] v_twopoint v_fit v_max_n 
   12000    1.2366842   -6.8784503 1.8112246e-30 1.2577948e-32 8.3333333e+20            3 
   13000    1.2322911   -6.8640657   0.45378015  0.002908847  0.036920904            1 
   14000    1.2562805   -6.8732116   0.87891404  0.005231631  0.035440146            2 
   15000    1.2402282   -6.9683844    1.2906404 0.0071702243  0.035483065            2 
   16000    1.2478868   -6.8898148    1.6805311  0.008752766  0.034938567            1 
   17000    1.2395228   -6.9226221    2.0965316  0.010277115  0.034372282            3 
   18000    1.2278341   -6.8874919    2.5097534  0.011619229   0.03447518            1 
   19000     1.238086   -6.8831223     2.916359  0.012791048  0.034281268            4 
   20000    1.2016362   -6.8982487    3.3416767  0.013923652  0.034049429            2 
   21000    1.2546888   -6.9465104    3.7007509  0.014685519  0.033978584            2 
   22000    1.2419681    -6.922864    4.1044073  0.015546997  0.033841793            1 
   23000    1.2259949   -6.8865409    4.5078911  0.016332939  0.033745974            2 
   24000    1.2431838   -6.9479017    4.8996664   0.01701273  0.033652628            2 
   25000    1.2360885   -6.9592376    5.3766556  0.017922185  0.033738417            4 
   26000    1.2248958   -6.9488277    5.7561227  0.018449111  0.033827174            2 
   27000    1.2313968   -6.8983382    6.1778663  0.019067488    0.0339124            2 
   28000    1.2294888   -6.9356896    6.5617385  0.019528983  0.033919366            2 
   29000     1.269114   -6.9774236    6.9282113  0.019908653  0.033821841            1 
   30000    1.2328144   -7.0110814     7.399756  0.020554877  0.033828119            2 
   31000    1.2417604   -6.9756061    7.7222926  0.020758851   0.03382848            4 
   32000    1.2036711   -6.9621682    8.0741025  0.021026308  0.033747668            3 
   33000    1.2057328   -6.9273144    8.6022085  0.021722748  0.033672938            4 
   34000     1.202347   -7.0099055    8.8225933  0.021624003  0.033626128            3 
   35000    1.2150791   -6.9833952    9.0757368  0.021608897  0.033451444            3 
   36000    1.2424325   -6.9600103    9.4053484   0.02177164  0.033201429            1 
   37000    1.1932616   -6.9964479    9.7231039  0.021898882  0.032954418            4 
   38000    1.2256165   -7.0073166    10.011612  0.021955289  0.032695237            2 
   39000    1.2340136   -6.9962589    10.397804   0.02221753  0.032447552            2 
   40000    1.2193054   -7.0079176    10.755864  0.022408051  0.032246637            3 
   41000    1.2024922   -6.9552958    11.060081  0.022479838   0.03205727            3 
   42000    1.1838436   -7.0230671    11.271401  0.022363891  0.031831864            3 
   43000    1.2204477   -7.0670722    11.629177  0.022537164  0.031596308            5 
   44000    1.1865546   -7.0296815    11.912983  0.022562468  0.031375933            2 
   45000    1.1768177   -7.0053541    12.177881  0.022551631  0.031157561            3 
   46000    1.2096455   -6.9607422    12.606441  0.022837755  0.030963899            2 
   47000    1.1943043     -7.02245    12.888469  0.022851895  0.030777888            2 
   48000    1.1902291   -7.0652399    13.090585  0.022726709   0.03058817            2 
   49000    1.1972885   -6.9847104    13.447842  0.022870479  0.030392703            4 
   50000    1.1705727   -7.0755175    13.658226  0.022763709  0.030183887            2 
   51000    1.1752478   -7.0345969    14.026106  0.022918474  0.030004677            3 
   52000     1.175945   -7.0492602    14.358209   0.02300995   0.02983297            5 
   53000    1.1683927   -7.0451986     14.67026  0.023066446  0.029681083            1 
   54000    1.1438563   -7.0840768      14.9968  0.023143209   0.02953539            2 
   55000    1.2014096   -7.0445199    15.377708  0.023299558  0.029414875            3 
   56000    1.2010992   -7.0803536    15.727826  0.023404502  0.029314384            2 
   57000    1.2054185   -7.0310417    15.990657  0.023378153  0.029217052            5 
   58000    1.1721441    -7.064925    16.344274  0.023483153  0.029123865            3 
   59000    1.1996227   -7.0765261    16.646545  0.023512068  0.029033905            8 
   60000    1.1877165   -7.0911657    16.897835  0.023469216  0.028945537            3 
   61000    1.2006863   -7.1020704    17.323515  0.023666004  0.028860145            1 
   62000    1.1866952   -7.0911105     17.61562  0.023676908  0.028782496            4 
   63000    1.1565591   -7.0844209      18.0561  0.023883729  0.028721209            2 
   64000    1.1695946   -7.0693805    18.431641  0.023999533  0.028679248            3 
   65000    1.1541239   -7.0654506    18.697523  0.023971183  0.028627497            4 
   66000    1.1401034   -7.1477494    18.867094  0.023822088  0.028560632            3 
   67000    1.1806058   -7.1411807    19.203045  0.023884384  0.028495093            2 
   68000    1.1404818    -7.139467    19.586175  0.024002665  0.028436483            4 
   69000    1.1640646   -7.0614374    19.990791  0.024143467  0.028392137            3 
   70000    1.1439907   -7.1295804    20.232911  0.024086799  0.028346817            3 
   71000    1.1541562   -7.1388484    20.564627  0.024136886  0.028301998            1 
   72000    1.1354593    -7.151525     20.85196  0.024134212  0.028263104            4 
   73000    1.1649987   -7.0910731    21.370049  0.024395033  0.028225873            4 
   74000    1.1492058   -7.1687944    21.601824  0.024326378  0.028201608            3 
   75000    1.1499213   -7.1925297     21.90586  0.024339845  0.028168948            2 
   76000    1.1597941   -7.1210478    22.336319  0.024491577  0.028144689            2 
   77000    1.1464309   -7.1696078    22.585314   0.02444298  0.028121687            2 
   78000    1.1542953   -7.1732178    22.995274    0.0245676  0.028095874            9 
   79000    1.1532594   -7.1952641    23.290639  0.024568185  0.028083715            3 
   80000    1.1227576   -7.2127549    23.594217  0.024577309  0.028071008            8 
   81000    1.1448087   -7.1903294    23.805362  0.024491113  0.028050224            4 
   82000    1.1400759   -7.1775847    24.140197  0.024532721  0.028019081            3 
   83000     1.137524    -7.152329    24.440586  0.024538741  0.027989082            4 
   84000    1.1414311   -7.1279189    24.650185  0.024454549  0.027955154            3 
   85000    1.1445126   -7.2022542    24.921238  0.024432586  0.027913414            2 
   86000    1.1195726   -7.2093473    25.174366  0.024393765  0.027861791            3 
   87000    1.1246194   -7.2529836     25.40076   0.02433023  0.027813399            3 
   88000     1.148131   -7.2326559    25.889391  0.024516468  0.027768847            3 
   89000    1.1256277   -7.2432026    26.144413  0.024479788  0.027725646            2 
   90000    1.1322837   -7.1906087    26.380107  0.024426025   0.02768667            3 
   91000    1.1036685   -7.1896932    26.718959  0.024467911   0.02764412            2 
   92000    1.1181671   -7.2597405    26.639443   0.02412993  0.027591957            2 
   93000    1.1373362    -7.199904     27.00308  0.024196308   0.02752878            6 
   94000    1.1204405   -7.2041046    27.399086   0.02428997  0.027469995            4 
   95000    1.1170313   -7.2043367     27.62802  0.024235105  0.027416047            7 
   96000    1.1208695   -7.1941836    27.851259   0.02417644  0.027356433            1 
   97000     1.123733   -7.2534521     28.11156  0.024150825   0.02729644            3 
   98000    1.0828023   -7.2249051    28.507862  0.024241379  0.027236665            1 
   99000    1.1289904   -7.2242299    28.705068  0.024162515  0.027179091            3 
  100000    1.0943427   -7.3122468    28.884903  0.024070752  0.027125351            4 
  101000    1.0940439   -7.2646772    29.158487  0.024058157  0.027061456            3 
  102000    1.1347228   -7.2322557     29.33146  0.023963611  0.026996933            1 
  103000    1.0977478   -7.2390924     29.53181   0.02389305  0.026927506            3 
  104000    1.1146366   -7.2909232    29.850535  0.023918698  0.026860864            2 
  105000    1.1155882   -7.2577314    29.908215  0.023736678  0.026791447            2 
  106000    1.1069682   -7.2697561    30.111542  0.023672596  0.026716031            3 
  107000    1.0982718   -7.2680729    30.503671  0.023756753   0.02664134            4 
  108000    1.0962924   -7.3179811    30.729501  0.023711035  0.026577101            4 
  109000    1.0932025   -7.3070245    30.952429  0.023663937  0.026510382            1 
  110000    1.0843864   -7.2657966    31.312554  0.023721631   0.02644614            2 
  111000    1.0918452   -7.3365854    31.358733  0.023542592  0.026376817            4 
  112000    1.0785808   -7.3282044     31.49106  0.023430848  0.026301815           10 
  113000    1.0882956   -7.3202621    31.749299  0.023413937  0.026225015            2 
  114000    1.1090465    -7.324237    32.026724  0.023411348  0.026146083            2 
  115000    1.0890106   -7.2824276    32.241366  0.023363309  0.026074025            2 
  116000    1.0938788   -7.3501654    32.358312  0.023245914  0.025996853            4 
  117000    1.0722612   -7.3347734    32.651182  0.023255828  0.025919814            5 
  118000    1.0839907   -7.4007395    32.869567  0.023212971  0.025845221            2 
  119000    1.0874081   -7.3502898    33.152134   0.02321578  0.025772841            2 
  120000    1.0384439   -7.3792909    33.410133  0.023201481  0.025700468            6 
  121000    1.0538426   -7.3503141    33.451093  0.023037943  0.025625096            2 
  122000     1.055248    -7.307218    33.587415  0.022942224  0.025546117            4 
  123000    1.0691279   -7.3430894    33.712351  0.022840346  0.025464424            3 
  124000    1.0747853   -7.3698478    33.901404  0.022783202  0.025384661            3 
  125000    1.0503218   -7.3667155    34.058551  0.022705701  0.025299642            4 
  126000    1.0600392   -7.4094229     34.21177  0.022626832   0.02521334            9 
  127000    1.0681988   -7.4149122    34.270028  0.022486895   0.02512497            4 
  128000    1.0558296     -7.39747    34.573243  0.022508622  0.025037573            1 
  129000    1.0589173    -7.407282    34.669877  0.022396561  0.024952771            5 
  130000    1.0625731   -7.4178982    35.098793  0.022499226  0.024868317            5 
  131000    1.0619725   -7.4148346    35.144819  0.022356755  0.024786988            3 
  132000    1.0640056   -7.3781637    35.360232  0.022323379  0.024702429            7 
  133000    1.0492514   -7.4080973    35.454991  0.022214907  0.024617968            2 
  134000    1.0477525   -7.3815297     35.53714  0.022100211  0.024530531            3 
  135000    1.0463937   -7.4124641    35.696214    0.0220347  0.024442226            9 
  136000    1.0744396   -7.3697666    35.868897  0.021978491   0.02435251            8 
  137000    1.0641721   -7.4432425    36.010228  0.021904031  0.024261953            3 
  138000    1.0470878   -7.4310429    36.272162  0.021903479  0.024174914            3 
  139000    1.0530756   -7.4100894    36.288459  0.021755671  0.024085994            4 
  140000    1.0440751   -7.4453402    36.448887  0.021695766  0.023997241            3 
  141000    1.0408532   -7.4427293    36.602718  0.021632812  0.023906917            3 
  142000     1.042674   -7.4673833    37.053528  0.021745028  0.023821014            3 
  143000    1.0512848   -7.4342586    37.316777  0.021746374   0.02374053            3 
  144000    1.0394732   -7.4567868     37.48901  0.021695029  0.023662196            4 
  145000    1.0148167   -7.4646582    37.615047  0.021617843   0.02358255            5 
  146000     1.037335     -7.40619    37.840519   0.02159847  0.023504261            3 
  147000    1.0513795    -7.459229    37.922096  0.021497787  0.023424503            7 
  148000    1.0303954   -7.4616485    38.149003  0.021480295  0.023346616            6 
  149000    1.0084809   -7.5121063    38.161435  0.021343084  0.023267247            4 
  150000    1.0357265   -7.5020827    38.359931  0.021311073  0.023189415            4 
  151000    1.0232869   -7.4745755    38.480521  0.021236491   0.02311059            1 
  152000    1.0215917   -7.5390307    38.671144  0.021201285  0.023032127            4 
  153000    1.0198949   -7.5228153    38.796006  0.021130722  0.022953363            4 
  154000    1.0644791   -7.5229934    39.023438  0.021116579   0.02287615            3 
  155000    1.0328286   -7.4444939    39.373964  0.021168798  0.022800676            4 
  156000    1.0161415     -7.45847    39.515908  0.021108925  0.022725135            3 
  157000    1.0158369   -7.5126787    39.559259  0.020997483   0.02265252            3 
  158000    1.0341578   -7.5038153    39.894476   0.02104139  0.022580164            4 
  159000     1.028526   -7.4776143    40.084712  0.021008759   0.02250968            2 
  160000    1.0088067   -7.4992565    40.083382  0.020876761  0.022437678            3 
  161000    1.0127955    -7.517773    40.045876  0.020727679  0.022362345            3 
  162000    1.0244911   -7.5059082    40.305979  0.020733528  0.022286246            4 
  163000     1.023734   -7.5483315    40.275053  0.020590518  0.022210879            6 
  164000    1.0106567   -7.5428018    40.643594  0.020652233   0.02213815            5 
  165000    1.0138517   -7.4896696    40.764301  0.020588031  0.022066712            8 
  166000   0.99403274   -7.5523879    40.854346   0.02050921  0.021994006           12 
  167000    1.0036897   -7.5445543    41.033495  0.020475796  0.021922589            3 
  168000   0.99316933   -7.5586443    41.131544  0.020402551  0.021850595            3 
  169000    1.0169384   -7.5432417    41.435584  0.020431747  0.021778885            3 
  170000    0.9954928   -7.5215365    41.635165  0.020409395  0.021709517            4 
  171000   0.99499712   -7.5699062    41.995325  0.020465558  0.021642003            5 
  172000     1.022286   -7.5644804    41.890547  0.020295808  0.021575587            3 
  173000   0.98182506   -7.5685133    41.989599  0.020226204  0.021508597            7 
  174000     1.005523   -7.6140573    42.142166   0.02018303  0.021440187            3 
  175000    1.0012525   -7.6202432    42.334427  0.020159251  0.021372819            9 
  176000    1.0196717   -7.5990548    42.505539  0.020125728  0.021304867            5 
  177000     0.987248   -7.5990161    42.608247   0.02006038  0.021237807            7 
  178000   0.96924149   -7.5924926    42.709824  0.019995236  0.021170671            8 
  179000   0.98687339   -7.6107249    42.711604  0.019884359  0.021101942            3 
  180000   0.95003688   -7.6112237    42.929701  0.019874861  0.021034172            3 
  181000   0.98248368   -7.6142968    42.802295  0.019706397  0.020965738            4 
  182000   0.99448504   -7.6571018    42.790004  0.019592493   0.02089523            4 
  183000     0.994711   -7.6040778    42.990787  0.019576861   0.02082398            7 
  184000   0.97666366   -7.6535824     43.16802  0.019550734  0.020753143            7 
  185000   0.98091295   -7.6414914    43.236163  0.019475749  0.020681497            3 
  186000     0.965387   -7.6327815    43.312768  0.019405362  0.020609591            2 
  187000   0.97196228   -7.5909175     43.42727  0.019352616  0.020538835            3 
  188000   0.96701435   -7.5910181    43.486851  0.019276086  0.020468194            4 
  189000   0.97195801   -7.6647425    43.581524  0.019215839   0.02039669            4 
  190000   0.96819893   -7.6177766    43.655822   0.01914729  0.020326171            3 
  191000   0.97652527   -7.6411214    43.851783  0.019132541  0.020254903            2 
  192000   0.94781531   -7.6857777    43.875746  0.019043293  0.020184029            5 
  193000   0.96840863   -7.7201836    43.930943  0.018968456  0.020112685            2 
  194000   0.97291436   -7.7084425    43.889249   0.01885277  0.020040483            9 
  195000   0.97582094    -7.652674    44.060111  0.018829107  0.019969395           12 
  196000   0.94550944   -7.6910548    44.279835   0.01882646  0.019897935            4 
  197000   0.97020265   -7.7151327    44.158115  0.018679406  0.019825928            6 
  198000   0.93938335   -7.7171252    44.245253   0.01862174  0.019754362            5 
  199000   0.95809234   -7.7117918    44.378664   0.01858403  0.019682483            4 
  200000   0.91801063   -7.7932395    44.504634  0.018543597  0.019611076            4 
  201000   0.94218145   -7.7131545    44.736604  0.018547514  0.019541285            6 
  202000   0.95404415   -7.7159129    45.040665  0.018581132   0.01947299            4 
  203000   0.94396945   -7.7298694    44.986436  0.018467338  0.019404402            4 
  204000   0.92933848   -7.7160999    45.077957  0.018414198  0.019335734            2 
  205000   0.94143468   -7.7175845    45.192253  0.018370835  0.019267684            6 
  206000   0.95134523   -7.7551571    45.252057  0.018305848  0.019200911            4 
  207000   0.92710436    -7.715106    45.493848  0.018314754  0.019135058            7 
  208000   0.92165779   -7.7304008    45.435582  0.018203358  0.019068123            3 
  209000   0.93900567   -7.7242114    45.672906  0.018210888  0.019001212            4 
  210000   0.93661979   -7.7283996    45.792415  0.018171593  0.018935773            8 
  211000   0.94277545   -7.7672799    45.715829  0.018055225  0.018869752            6 
  212000   0.94778468   -7.7425772    46.136323  0.018135347  0.018805808            7 
  213000   0.92399531    -7.776703    45.904536  0.017959521  0.018741653            6 
  214000   0.93011995   -7.7935687    46.103618  0.017953122   0.01867761            5 
  215000   0.91908474   -7.7665575    46.047409  0.017847833  0.018613692            4 
  216000   0.89981406   -7.7688616    46.305016  0.017864589  0.018549309            3 
  217000   0.91887385   -7.7597624    46.331906   0.01779259  0.018485435            8 
  218000   0.92833441   -7.8083254    46.321981  0.017707179  0.018421854            6 
  219000    0.9311078   -7.8357973     46.27696  0.017609193   0.01835756            7 
  220000   0.90615026   -7.8362414    46.710351  0.017693315  0.018293491            7 
  221000    0.9064461   -7.8121883    46.536986  0.017547883  0.018230062           12 
  222000   0.89776014   -7.8153209     46.58752  0.017487808  0.018166031            5 
  223000   0.90588104   -7.8692306     46.52881  0.017387448  0.018101997            4 
  224000   0.91044398   -7.8744539     46.58405  0.017330376  0.018037323           15 
  225000   0.89572815    -7.883835    46.676404  0.017287557  0.017973216            9 
  226000   0.90541784   -7.8526376     46.85943  0.017278551  0.017909116            9 
  227000   0.89629355   -7.8739099    46.857283  0.017201646  0.017845297            3 
  228000   0.89864447    -7.834968    46.851794  0.017124194  0.017780783            8 
  229000   0.88314347   -7.8330151    46.913148  0.017071742  0.017715719            3 
  230000   0.91219591   -7.8897743    46.897923  0.016992001  0.017650847           10 
  231000   0.89438645   -7.8862834    47.028656  0.016965605  0.017585729            7 
  232000   0.89029254   -7.9089277    46.923682  0.016854771   0.01752127           16 
  233000   0.89422219   -7.8688982    47.084274  0.016839869  0.017456617           16 
  234000   0.89111692   -7.8903195    47.314577  0.016849921    0.0173937            9 
  235000   0.88927509   -7.8582374    47.351199  0.016791205  0.017330576            6 
  236000   0.90113549   -7.8438324     47.51197  0.016776826  0.017268171            6 
  237000   0.88359066   -7.8746096    47.343376  0.016646757  0.017205804            7 
  238000   0.88257628   -7.8850249    47.438821  0.016610231  0.017142473            9 
  239000   0.88923716   -7.9040087     47.40514  0.016528989  0.017079481            6 
  240000   0.86939251   -7.9220587    47.513364  0.016497696  0.017016874            8 
  241000      0.88267   -7.9329542    47.591704  0.016456329   0.01695398            8 
  242000   0.87525958   -7.9123674    47.694831   0.01642384  0.016891731            7 
  243000    0.8625827   -7.9093361     47.71352  0.016362661  0.016829847            9 
  244000   0.88524672   -7.9136039    47.855041  0.016343935  0.016768956            4 
  245000   0.87312422   -7.9627943    47.828614  0.016268236   0.01670758            6 
  246000   0.87340211   -7.9725541    47.788564  0.016188538  0.016646027           11 
  247000   0.86056012    -7.979575    47.763745  0.016114624  0.016584267            7 
  248000   0.87610624   -7.9827959    47.931818  0.016106122  0.016522268            5 
  249000   0.86682979   -7.9603422    47.960931  0.016051182   0.01646091            7 
  250000   0.85314657   -7.9579437    47.986605  0.015995535  0.016399943            6 
  251000   0.86200103   -7.9800893    48.050098  0.015952888  0.016339415            9 
  252000   0.85111374   -7.9367867    48.063854  0.015894132  0.016279128           21 
  253000   0.86635459    -8.010979    48.077999  0.015835968  0.016218966            7 
  254000   0.87070023   -7.9987875    48.152045  0.015797915  0.016159102            8 
  255000   0.85399523   -7.9747701    48.381825  0.015811054  0.016099112           10 
  256000   0.86890688   -8.0194209    48.284678  0.015717669  0.016039399            7 
  257000   0.87320249   -7.9903012    48.362557  0.015681763  0.015979395           12 
  258000   0.83827781   -8.0352217    48.154085  0.015553645  0.015919466            9 
  259000   0.85226001   -8.0173107    48.318451  0.015546477  0.015859702           10 
  260000   0.85514895   -8.0107782    48.378228  0.015505842  0.015800238           30 
  261000   0.86252105   -8.0482273    48.304931   0.01542303  0.015740903           28 
  262000   0.84501119   -7.9947909    48.309151  0.015365506  0.015681734           16 
  263000    0.8625307   -8.0370308    48.401927  0.015336479  0.015622942            9 
  264000   0.85165016   -8.0262202    48.515157  0.015314128  0.015564113            4 
  265000   0.85422022   -8.0148101    48.508441  0.015254227  0.015505285            5 
  266000   0.85750996   -8.0604151    48.407067  0.015165121  0.015446584            7 
  267000   0.85201954   -8.0496488    48.629873  0.015177863  0.015387946            5 
  268000   0.81772014   -8.0634692    48.715969     0.015148  0.015330108           12 
  269000   0.83770337   -8.0753766    48.706616  0.015088791   0.01527226            8 
  270000   0.84372194   -8.0668911    48.689041  0.015027482  0.015214776           11 
  271000   0.83356104    -8.082384      48.6797  0.014969157  0.015156876           14 
  272000   0.82171808    -8.090351     48.50083  0.014859323   0.01509844           13 
  273000   0.81120698   -8.1149773     48.61746  0.014840494  0.015040022           10 
  274000   0.84198943   -8.1157483    48.485676  0.014746252  0.014982009           15 
  275000   0.84048182   -8.1081426    48.676567  0.014750475  0.014923709            8 
  276000   0.83208533   -8.0879156    48.659254  0.014691804  0.014866124           14 
  277000   0.82485431   -8.0979188    48.696234   0.01464989  0.014808506           26 
  278000   0.82673705   -8.0815514    48.724956  0.014605802   0.01475136           28 
  279000   0.83593145   -8.1263534    48.755908  0.014562697  0.014694416           16 
  280000   0.81622627   -8.0783828    48.837081  0.014534846  0.014637817           12 
  281000   0.81975851    -8.141493    48.673892  0.014434725  0.014581286           10 
  282000   0.83562443    -8.150557    48.754662  0.014407406  0.014524569           18 
  283000   0.81423066   -8.1333765    48.715549  0.014344979  0.014468262           12 
  284000    0.8148394   -8.1499144    48.881385  0.014343129  0.014412191           21 
  285000   0.82509472   -8.1518447    49.082445  0.014351592  0.014356384            9 
  286000   0.82597311   -8.1689639     48.85903  0.014236314  0.014300896           14 
  287000   0.82612292    -8.160466    48.834193  0.014179499  0.014245639            7 
  288000   0.81937486     -8.17062    48.768108  0.014111142  0.014189868            5 
  289000   0.80231243   -8.1765286    48.953318   0.01411572  0.014134301            7 
  290000   0.80907034   -8.1791653    48.949343  0.014065903  0.014079574           20 
  291000    0.8065898   -8.1850251    48.911868  0.014006835  0.014024788           12 
  292000   0.80773857    -8.174968    48.860649  0.013944249  0.013969899           13 
  293000   0.79798281   -8.1735517    49.029985  0.013944819  0.013915281           15 
  294000   0.78689384   -8.1632344     48.98805  0.013885502  0.013861006           20 
  295000   0.81267406   -8.2143614    48.827372  0.013793043  0.013806609           12 
  296000   0.78493072   -8.1937398    48.940573  0.013778314  0.013752363           11 
  297000   0.80767571   -8.2080414    48.873871  0.013713207  0.013698053            6 
  298000   0.79776801   -8.1988896    49.023544  0.013709045  0.013643947           10 
  299000   0.80346131    -8.235327    48.871607  0.013620849  0.013590117           12 
  300000   0.78721986   -8.2498294    48.889187   0.01358033  0.013536312            7 
  301000   0.77617648   -8.2242889    48.936642   0.01354835  0.013482918           13 
  302000   0.78602794   -8.2557435    48.897176  0.013492598  0.013429595            8 
  303000   0.78400369   -8.2403587    49.005337  0.013477815  0.013376547           29 
  304000   0.80645552   -8.2446079    48.986993  0.013428452  0.013323888           10 
  305000   0.77389566   -8.2315362    49.022171  0.013394036  0.013271639            5 
  306000   0.76819554   -8.2417721    48.995983  0.013343133  0.013219478           11 
  307000   0.78370998   -8.1916008    49.178554  0.013349227   0.01316756           23 
  308000   0.76137229   -8.2239645    49.151799  0.013298647  0.013115797            9 
  309000   0.76575269   -8.2464841    49.084322  0.013237412   0.01306408           16 
  310000    0.7696277    -8.266613    49.145421  0.013211135  0.013012329           17 
  311000   0.76231412   -8.2544462    49.001455  0.013130079   0.01296087           11 
  312000   0.76746836     -8.27036     48.96851  0.013079196  0.012909548           13 
  313000   0.75725716   -8.2764793    48.989558  0.013043013  0.012858663           20 
  314000   0.78362474   -8.2504874    49.050116  0.013017547  0.012807745           18 
  315000   0.77140461   -8.2873593    49.071527  0.012981885  0.012757023           18 
  316000   0.74890486   -8.3261065    48.840879  0.012879979  0.012706118           13 
  317000   0.76730332    -8.303888    49.062227  0.012897536  0.012655312           11 
  318000   0.77358366    -8.308859    48.962955  0.012830963  0.012604764            8 
  319000   0.74852339   -8.3182545     48.89904  0.012774044  0.012554472            5 
  320000   0.75694882    -8.314904    48.895642   0.01273324  0.012504391           11 
  321000    0.7608529   -8.3252492    48.945928  0.012706627  0.012454356           17 
  322000   0.74827631    -8.336869    48.996252  0.012680189  0.012404599           24 
  323000   0.75305137   -8.3274487    48.990924  0.012639557   0.01235514           18 
  324000   0.74016294   -8.3017327    48.958082  0.012592099   0.01230575           14 
  325000   0.75034835   -8.3346442    49.164884   0.01260638  0.012256805           13 
  326000   0.76069165   -8.3337198    48.990119  0.012523036  0.012207897           10 
  327000    0.7890258    -8.373573    48.967405  0.012478951  0.012159118            9 
  328000   0.74122031   -8.3284388    49.169661  0.012492292   0.01211076            7 
  329000   0.76148581   -8.3688208    48.947188  0.012397971  0.012062381           10 
  330000   0.75419944   -8.3528845    48.979914  0.012368665  0.012014168           13 
  331000   0.71814628   -8.3778516    48.993422  0.012334698  0.011966223           12 
  332000   0.73561976   -8.3838708    49.006333  0.012300786  0.011918507           15 
  333000   0.74473832   -8.3700958     49.12228  0.012292863  0.011870893           19 
  334000    0.7400262   -8.3812599    48.884255   0.01219667  0.011823482            9 
  335000    0.7268238   -8.4008618    49.039896  0.012198979  0.011775823           14 
  336000   0.73272711   -8.3916609    49.005327  0.012154099    0.0117287           13 
  337000   0.72846832   -8.3940271    48.975359  0.012110623  0.011681709           13 
  338000   0.73498099    -8.406304    48.950759  0.012068728  0.011635062           15 
  339000    0.7398298   -8.4175707    48.968417  0.012037467  0.011588428           11 
  340000   0.70618284   -8.4223177    48.956072  0.011999037  0.011541964            9 
  341000   0.73063949    -8.397707    48.994278  0.011973186  0.011495673           11 
  342000   0.72995278   -8.4332051    48.942463  0.011925551  0.011449682           17 
  343000   0.72956551   -8.4002254    48.949525  0.011892499  0.011403746           10 
  344000   0.72895881   -8.4222671    48.870334  0.011838744  0.011357938           15 
  345000    0.7247905    -8.438894    48.900689  0.011811761  0.011312342           11 
  346000   0.72908149   -8.4277757    48.955151   0.01179074  0.011267002           64 
  347000   0.72681566   -8.4281012    48.968307   0.01175992  0.011221952           18 
  348000    0.7179527   -8.4321373     48.84208    0.0116959  0.011177011           18 
  349000   0.71170622   -8.4193348    48.949596   0.01168806  0.011132257           31 
  350000   0.70789245   -8.4468031    48.863122  0.011634077  0.011087609           23 
  351000    0.6938972   -8.4649977    48.776158  0.011580284  0.011043138           48 
  352000   0.70823158   -8.4699566     48.83523  0.011561371  0.010998993           37 
  353000   0.70282592   -8.4791303    48.800338  0.011520382  0.010954966           43 
  354000   0.70944142   -8.4405081    48.934247  0.011519361  0.010911122           45 
  355000   0.71995744   -8.4926319    48.884312  0.011475191  0.010867501           37 
  356000   0.70620837   -8.4589444    48.878114  0.011441506  0.010824024           50 
  357000   0.69742619   -8.5072533    48.864776  0.011406344  0.010780637           38 
  358000   0.71326194    -8.499784    48.809391   0.01136159  0.010737611           35 
  359000    0.6873319   -8.4900494    48.784267   0.01132411  0.010694803           33 
  360000   0.69589173   -8.4686622    48.955983  0.011332403  0.010652179           46 
  361000   0.67911414   -8.5098799    48.845997  0.011275623  0.010609734           20 
  362000   0.67983351   -8.4927847    48.739757  0.011220018  0.010567303           71 
  363000   0.68570281   -8.5040859    48.798214  0.011202529  0.010525022           49 
  364000   0.68804177   -8.4871036    48.900624  0.011195198  0.010483225           54 
  365000   0.68775797   -8.5097275    48.807311  0.011143222  0.010441492           36 
  366000   0.67172921   -8.5196237    48.840341  0.011120296  0.010399728           78 
  367000   0.69467366   -8.5126612    48.777824    0.0110758  0.010358211           45 
  368000   0.68556934   -8.5101448    48.844559  0.011060815  0.010316996           44 
  369000   0.65747086   -8.5090379    48.833387  0.011028317  0.010275961           47 
  370000   0.68248792   -8.5003592    48.801609  0.010991353  0.010235108           33 
  371000   0.67363941   -8.5270155     48.84148  0.010970683  0.010194413           28 
  372000   0.66895073   -8.5159416    48.770799  0.010925358  0.010153681           44 
  373000   0.66180757   -8.5162117    48.826098  0.010908422  0.010113183           49 
  374000   0.66766208   -8.5346431    48.722967  0.010856276  0.010072898           38 
  375000   0.67518235   -8.5323787     48.86492  0.010858871  0.010032847           51 
  376000   0.66826713   -8.5588484    48.718262  0.010797487 0.0099928485           33 
  377000   0.65506831   -8.5452679    48.711955  0.010767453 0.0099530995           21 
  378000    0.6741598   -8.5360297    48.721976  0.010741176   0.00991348           52 
  379000   0.66307913   -8.5601405    48.628035   0.01069218 0.0098740204           58 
  380000   0.65384847   -8.5616015    48.642419  0.010667197  0.009834635           87 
  381000   0.66253925   -8.5635659    48.675152  0.010646359 0.0097955779           56 
  382000   0.66618657   -8.5675489    48.620544  0.010606576 0.0097567197           53 
  383000   0.66147001    -8.566989    48.662753  0.010588066 0.0097180817           37 
  384000   0.64384285   -8.5601703    48.608721  0.010548768 0.0096796315           41 
  385000   0.66095277   -8.5551675    48.717275  0.010544865 0.0096412863           95 
  386000   0.63740705   -8.5903977     48.49861  0.010470339 0.0096030708           93 
  387000   0.64791032   -8.5596358    48.591007   0.01046318 0.0095649719           71 
  388000   0.64336104    -8.574484    48.640954   0.01044694 0.0095270083           82 
  389000    0.6414048    -8.580287    48.695084   0.01043168 0.0094892547           50 
  390000   0.64220923   -8.5809799    48.549712   0.01037387 0.0094517767           77 
  391000   0.65633411   -8.5881584    48.652905  0.010369332  0.009414496           53 
  392000   0.63685242    -8.596853    48.551606  0.010321345 0.0093773611           59 
  393000   0.64124223    -8.616287    48.601192  0.010305596 0.0093403914           72 
  394000   0.63511516   -8.6043549    48.643211  0.010288327 0.0093036688           62 
  395000   0.63462098   -8.6232712    48.590061  0.010251068 0.0092670161           85 
  396000   0.63137102    -8.597043     48.56905   0.01022076 0.0092305827           61 
  397000    0.6442261   -8.5865695    48.580903  0.010197503 0.0091943524          117 
  398000   0.64226672   -8.6335176    48.554344   0.01016632 0.0091581947          115 
  399000   0.63804772   -8.6329529    48.600427  0.010150465 0.0091222127          228 
  400000   0.62940232   -8.6428775    48.486746  0.010101406 0.0090863317           92 
  401000    0.6358221   -8.6207537      48.6162  0.010103117  0.009050652          141 
  402000   0.61660522   -8.6252749    48.612778  0.010077276  0.009015062           91 
  403000   0.61891348   -8.6368981    48.523171  0.010033741  0.008979652           94 
  404000   0.62613183    -8.629529    48.558631  0.010016219 0.0089445508           72 
  405000   0.61900561   -8.6239513    48.437687 0.0099666023 0.0089096121          118 
  406000    0.6115701   -8.6315272    48.569623 0.0099691344 0.0088748165           36 
  407000   0.60980797    -8.641308      48.5793 0.0099466215 0.0088402423          111 
  408000    0.6041174   -8.6462129    48.502111  0.009906477 0.0088058522           69 
  409000   0.61606072   -8.6399576    48.454891 0.0098726346 0.0087714974           61 
  410000   0.61717884   -8.6440803    48.527614 0.0098633362  0.008737358           63 
  411000    0.6194398   -8.6565948    48.481908 0.0098300706 0.0087034062           81 
  412000   0.60980439   -8.6379019    48.509999 0.0098118929 0.0086696631           80 
  413000   0.59272202   -8.6709424    48.511026 0.0097883426 0.0086361572           91 
  414000   0.60184474   -8.6533446    48.476678 0.0097577853 0.0086027736           82 
  415000   0.61373196   -8.6690808    48.447668 0.0097284473 0.0085693503          138 
  416000   0.61221717    -8.666153     48.52515 0.0097205829 0.0085362662           78 
  417000   0.60142618   -8.6683622    48.507496 0.0096937443 0.0085033153           94 
  418000   0.58704198   -8.6890165    48.459619 0.0096610085 0.0084704445           75 
  419000   0.60124665   -8.6849183    48.472822 0.0096405772 0.0084378233           92 
  420000   0.60073822   -8.6884875    48.491681 0.0096213652 0.0084053261           87 
  421000   0.58566056   -8.6742697    48.487443 0.0095976727  0.008372951           88 
  422000   0.59919951   -8.7058995    48.477987 0.0095730621 0.0083407583          118 
  423000   0.59494144   -8.7148689    48.375676 0.0095302751 0.0083086901          115 
  424000   0.58008222   -8.7008566    48.320233 0.0094969011 0.0082767559           79 
  425000   0.59562886   -8.7081284    48.356915  0.009481748 0.0082449184          113 
  426000   0.58383852   -8.7098232    48.368822 0.0094618196 0.0082131926          186 
  427000   0.57230346   -8.7244639     48.37367 0.0094406069 0.0081816579          126 
  428000    0.5772118   -8.7462318     48.28996 0.0094022507 0.0081502348           82 
  429000   0.58225436    -8.714729    48.332815 0.0093886587 0.0081189414           91 
  430000   0.58621753   -8.7219483     48.33251 0.0093667655 0.0080877955          198 
  431000   0.58324155    -8.722875    48.329915 0.0093445311 0.0080568507          144 
  432000      0.58795    -8.736247    48.310191 0.0093190955 0.0080260544           97 
  433000    0.5764885   -8.7092633    48.384296 0.0093118352 0.0079954032           90 
  434000   0.56522682   -8.7507931    48.308812 0.0092758855 0.0079649058          113 
  435000   0.57270461   -8.7292573    48.328262 0.0092582876 0.0079344728          136 
  436000   0.55830905   -8.7521461    48.324117 0.0092362608 0.0079042047           52 
  437000   0.57292463   -8.7463821    48.259626 0.0092028273 0.0078740337          139 
  438000   0.56344896   -8.7417994    48.253282 0.0091806092 0.0078440475          173 
  439000   0.56709974   -8.7227795    48.193279 0.0091483065 0.0078141336          103 
  440000   0.57101449   -8.7472023    48.270978 0.0091422306 0.0077844167          140 
  441000   0.56860126   -8.7436228    48.202418 0.0091085446 0.0077548497           99 
  442000   0.57931537   -8.7626309    48.264993 0.0090997348 0.0077254478          164 
  443000   0.56231423   -8.7509214    48.217852 0.0090703258 0.0076961868          135 
  444000   0.57304964   -8.7678845    48.175404 0.0090419301 0.0076669528          120 
  445000   0.56114979   -8.7426849    48.218606 0.0090297016 0.0076379392           79 
  446000   0.56583019   -8.7523175    48.212975 0.0090084034 0.0076089927          157 
  447000   0.56123382   -8.7452278    48.230812 0.0089915757 0.0075802734          128 
  448000   0.56042363   -8.7658888    48.212037 0.0089680128 0.0075517325          102 
  449000    0.5584556   -8.7564756    48.187165 0.0089434233 0.0075233203          110 
  450000   0.53797428   -8.7702171    48.144966 0.0089157345 0.0074950683          205 
  451000    0.5380526   -8.7878943    48.212789 0.0089084977 0.0074669348          209 
  452000   0.53934794     -8.78467    48.176748 0.0088821439 0.0074389684          205 
  453000   0.54449874   -8.7709676    48.086291  0.008845896 0.0074111612          147 
  454000   0.53655712   -8.7821547    48.173185 0.0088423615 0.0073834232          320 
  455000   0.53339179    -8.772542    48.179334 0.0088240539  0.007355833          168 
  456000   0.53959447   -8.7771386    48.164087 0.0088019166 0.0073283734          203 
  457000   0.53616083   -8.7680452    48.248515 0.0087980515 0.0073010755          167 
  458000   0.54087492   -8.8057788    48.182961 0.0087669143 0.0072738987          189 
  459000    0.5365512   -8.7941472    48.116806 0.0087358035 0.0072467856          189 
  460000   0.53167853   -8.7930245    48.213858 0.0087343945 0.0072198573          219 
  461000   0.53043471   -8.7971648    48.199249 0.0087128071  0.007193026          178 
  462000   0.53193688   -8.7926668    48.217214 0.0086971886 0.0071663604           89 
  463000   0.52948295   -8.7844843    48.069502 0.0086518182 0.0071398446          195 
  464000   0.52520218   -8.8103493    48.192892 0.0086553326 0.0071134415          159 
  465000   0.51852387   -8.8042828    48.124208 0.0086244101 0.0070871781          174 
  466000    0.5209048   -8.8093654    48.116405 0.0086045073 0.0070610293          201 
  467000   0.51948399   -8.8041921      48.1548 0.0085929336 0.0070349897          158 
  468000   0.52365599   -8.8340024    48.089549 0.0085629539 0.0070090582          238 
  469000   0.51998363   -8.8194007    48.096965 0.0085460137 0.0069832321          200 
  470000   0.51267632    -8.825451    48.096538  0.008527755 0.0069575631          265 
  471000   0.50579926   -8.8262729    48.079642   0.00850666 0.0069320593          148 
  472000   0.50972603   -8.8389113    48.085325 0.0084896407 0.0069066593          186 
  473000   0.50768957   -8.8334845    48.072949 0.0084695117 0.0068813716          196 
  474000   0.51670613   -8.8398723    48.051356 0.0084478474 0.0068562045          158 
  475000   0.51143055   -8.8392765    48.030771 0.0084264511 0.0068311446          190 
  476000    0.5044129   -8.8397107     48.06624 0.0084149579 0.0068061708          207 
  477000   0.51227238   -8.8463372    47.961232 0.0083789713 0.0067812913          127 
  478000   0.50288819   -8.8449411    48.059749 0.0083786174 0.0067565664          176 
  479000   0.51026306    -8.845137    48.094469 0.0083671658 0.0067319741          202 
  480000   0.51043493    -8.852361    48.060852  0.008343898 0.0067075044          227 
  481000   0.48820753   -8.8573049     48.02153 0.0083197384 0.0066831036          224 
  482000   0.49510521   -8.8719065    47.968032 0.0082932282 0.0066588298          296 
  483000   0.49664167   -8.8663796    47.966382 0.0082757732 0.0066346492          258 
  484000    0.5045246   -8.8509075    48.052767  0.008273548 0.0066106355          162 
  485000   0.49047052   -8.8472465    48.044803 0.0082551207  0.006586683          144 
  486000   0.48668519   -8.8727481    48.055444 0.0082399595  0.006562871          204 
  487000   0.48551857   -8.8771237    47.990738 0.0082119675 0.0065391828          167 
  488000   0.48976472   -8.8629293     47.98784 0.0081946449 0.0065156168          185 
  489000   0.48021287   -8.8818807    48.038758  0.008186564 0.0064921889          265 
  490000   0.48843898    -8.879204    47.942826 0.0081535418 0.0064688013          165 
  491000   0.48342124   -8.8802458    47.946902 0.0081376277 0.0064455355          150 
  492000   0.47657495   -8.8919442    48.008454 0.0081315131 0.0064223773          153 
  493000   0.48230943   -8.8770292    47.962933 0.0081073247 0.0063993431          212 
  494000   0.47451899   -8.9040178    47.917716 0.0080832854 0.0063764113          198 
  495000   0.45643665   -8.8808644    47.903693 0.0080645947  0.006353633           92 
  496000   0.48036685   -8.8828907    47.957448  0.008057367 0.0063309491           84 
  497000   0.47547231   -8.8939126    47.930629 0.0080366582 0.0063083413          219 
  498000   0.48167998   -8.8968959    47.887324 0.0080132737 0.0062858565           97 
  499000   0.48124483    -8.895879    47.956172 0.0080087128 0.0062634832          146 
  500000   0.47072683   -8.9093813     47.87554 0.0079792566 0.0062412175          114 
  501000   0.46268063   -8.8977249    47.870401 0.0079624751 0.0062190339          226 
  502000   0.46330355   -8.9017065    47.883276  0.007948751 0.0061969072          184 
  503000   0.46108009   -8.9147304     47.89013 0.0079340838 0.0061749096          216 
  504000   0.46241261   -8.9087393    47.918213  0.007922985 0.0061530462           85 
  505000   0.44716363    -8.921444    47.964856 0.0079149927 0.0061312951          106 
  506000   0.45792768   -8.9098403    47.846934 0.0078799298 0.0061096436          203 
  507000   0.46428747   -8.9338708    47.888485 0.0078712172 0.0060881071          202 
  508000   0.45213337   -8.9155939     47.88451 0.0078550706 0.0060666439          127 
  509000   0.45721802   -8.9264613    47.845147 0.0078331936  0.006045312          150 
  510000   0.45057068   -8.9164082    47.827113 0.0078148877 0.0060240393          117 
  511000   0.43606077   -8.9289066    47.807568  0.007796407 0.0060028591          171 
  512000   0.45031344   -8.9276373    47.809563 0.0077815044 0.0059817845          173 
Loop time of 1295.25 on 48 procs for 500000 steps with 4000 atoms

Performance: 66705.048 tau/day, 386.025 timesteps/s
99.4% CPU use with 48 MPI tasks x no OpenMP threads

MPI task timing breakdown:
Section |  min time  |  avg time  |  max time  |%varavg| %total
---------------------------------------------------------------
Pair    | 93.508     | 99.154     | 103.76     |  26.6 |  7.66
Neigh   | 8.8151     | 9.1944     | 9.5534     |   5.7 |  0.71
Comm    | 83.804     | 89.304     | 96.465     |  31.2 |  6.89
Output  | 0.94304    | 0.94383    | 0.96662    |   0.3 |  0.07
Modify  | 1080.8     | 1084.8     | 1088.1     |   5.0 | 83.76
Other   |            | 11.81      |            |       |  0.91

Nlocal:        83.3333 ave          90 max          78 min
Histogram: 5 3 1 8 7 16 4 2 1 1
Nghost:        2375.31 ave        2393 max        2358 min
Histogram: 1 3 7 7 5 11 4 2 5 3
Neighs:        16381.2 ave       19047 max       14135 min
Histogram: 3 2 9 7 9 4 5 4 4 1
FullNghs:      32761.9 ave       35351 max       30645 min
Histogram: 3 5 4 5 9 11 7 2 1 1

Total # of neighbors = 1572571
Ave neighs/atom = 393.14275
Neighbor list builds = 26604
Dangerous builds = 0

#clear
#
#next RN
#
#jump SELF
Total wall time: 0:21:38
