
units lj                  # Use reduced LJ style units
atom_style atomic         # Uncharged point particles
atom_modify map hash      # Needed for indexing of clusters etc
                          # Used to be able to find where atoms are in relation to each other.

lattice fcc 1.0 spacing 1 1 1
Lattice spacing in x,y,z = 1.5874011 1.5874011 1.5874011
region box block 0 10 0 10 0 10 units lattice
create_box 2 box
Created orthogonal box = (0.0000000 0.0000000 0.0000000) to (15.874011 15.874011 15.874011)
  3 by 4 by 4 MPI processor grid
create_atoms 1 box
Created 4000 atoms
  using lattice units in orthogonal box = (0.0000000 0.0000000 0.0000000) to (15.874011 15.874011 15.874011)
  create_atoms CPU = 0.003 seconds
set type 1 type/fraction 2 0.51 78393
Setting atom values ...
  2042 settings made for type/fraction
mass 1 1.0
mass 2 1.0
pair_style lj/cut  3.5
pair_modify tail  yes
pair_coeff 1  1  1.0  1.0   # Intearaction between 1 and 1 set with epsilon = 1 and sigma = 1
pair_coeff 1  2  1.5  0.8
pair_coeff 2  2  0.5  0.88

write_data data.0
System init for write_data ...
Neighbor list info ...
  update every 1 steps, delay 10 steps, check yes
  max neighbors/atom: 2000, page size: 100000
  master list distance cutoff = 3.8
  ghost atom cutoff = 3.8
  binsize = 1.9, bins = 9 9 9
  1 neighbor lists, perpetual/occasional/extra = 1 0 0
  (1) pair lj/cut, perpetual
      attributes: half, newton on
      pair build: half/bin/atomonly/newton
      stencil: half/bin/3d
      bin: standard
WARNING: Not all mixed pair coeffs generated from mixing. Use write_data with 'pair ij' option to store all pair coeffs. (../write_data.cpp:312)


#############################
#   M E L T   S Y S T E M   #
#############################

velocity all create 2.4 5833274 mom yes dist gaussian # Assign velocities
                                                    # Temperature 2.4, random number seed, zero linear momentum
                                                                                # Gaussian distribution

timestep 0.002   # simulation timestep
thermo 1000       # output thermodynamic data every 1000 steps bf 100

# Define a fix  in this case with index 1 applied to all
# particles in the simulation. This fix is for simulations
# in the anisotropic NPT ensemble. Note that we use the MTK
# correction.
fix 1 all npt temp 2.4 2.4 0.1 iso 5.68 5.68 0.5 mtk yes tchain 5 pchain 5 # Use NPT ensemble
                                                                         # Set temperature and pressure and damping
                                                                         # Numbers of thermostats in chain and in barostat
run 10000          # run for 10000 steps
Per MPI rank memory allocation (min/avg/max) = 3.642 | 3.644 | 3.648 Mbytes
Step Temp E_pair E_mol TotEng Press Volume 
       0          2.4   -5.2404118            0   -1.6413118   -4.2035775         4000 
    1000    2.4188175   -4.8314423            0   -1.2041231    5.5639887    3707.5947 
    2000    2.4833545   -4.7972681            0   -1.0731675    5.9305526    3711.0062 
    3000    2.4256675   -4.9040771            0   -1.2664854    5.3812507    3692.7941 
    4000    2.4136881   -4.9065002            0   -1.2868732    5.5138431    3678.2185 
    5000    2.4407059   -4.8887553            0   -1.2286118    5.5475519    3689.5827 
    6000    2.4219161   -4.8992605            0   -1.2672946    5.3601603    3699.0242 
    7000    2.4612135   -4.9114533            0    -1.220556    5.8491513    3654.8237 
    8000    2.3999991   -4.8145619            0   -1.2154632    5.4665129    3724.8709 
    9000    2.3755583   -4.9155616            0    -1.353115    5.6656923    3660.6275 
   10000    2.4339584   -4.8442962            0   -1.1942713    5.6012669    3696.2719 
Loop time of 2.70549 on 48 procs for 10000 steps with 4000 atoms

Performance: 638701.229 tau/day, 3696.188 timesteps/s
99.6% CPU use with 48 MPI tasks x no OpenMP threads

MPI task timing breakdown:
Section |  min time  |  avg time  |  max time  |%varavg| %total
---------------------------------------------------------------
Pair    | 1.1574     | 1.246      | 1.4359     |   3.9 | 46.05
Neigh   | 0.21412    | 0.2221     | 0.25049    |   1.3 |  8.21
Comm    | 0.70207    | 0.89529    | 1.0107     |   5.8 | 33.09
Output  | 0.00023776 | 0.00024468 | 0.00031462 |   0.0 |  0.01
Modify  | 0.22683    | 0.32656    | 0.40604    |   7.0 | 12.07
Other   |            | 0.01531    |            |       |  0.57

Nlocal:        83.3333 ave          96 max          73 min
Histogram: 3 2 7 11 7 4 8 3 1 2
Nghost:        1730.02 ave        1770 max        1708 min
Histogram: 6 11 5 9 5 4 4 1 1 2
Neighs:        10325.5 ave       12432 max        8853 min
Histogram: 4 2 11 5 11 8 2 2 1 2

Total # of neighbors = 495622
Ave neighs/atom = 123.90550
Neighbor list builds = 905
Dangerous builds = 204

# Equilibrate just above the melting temperature to avoid step fn in T

fix 1 all npt temp 1.25 1.25 0.1 iso 5.68 5.68 0.5 mtk yes tchain 5 pchain 5
run 2000
Per MPI rank memory allocation (min/avg/max) = 3.644 | 3.646 | 3.649 Mbytes
Step Temp E_pair E_mol TotEng Press Volume 
   10000    2.4339584   -4.8442962            0   -1.1942713    5.6012669    3696.2719 
   11000     1.238542   -7.0119416            0   -5.1545931    5.6679896    2859.7842 
   12000    1.2417425   -7.0820696            0   -5.2199215    5.5690103    2846.4722 
Loop time of 0.679741 on 48 procs for 2000 steps with 4000 atoms

Performance: 508428.677 tau/day, 2942.296 timesteps/s
99.5% CPU use with 48 MPI tasks x no OpenMP threads

MPI task timing breakdown:
Section |  min time  |  avg time  |  max time  |%varavg| %total
---------------------------------------------------------------
Pair    | 0.28301    | 0.31234    | 0.36149    |   2.6 | 45.95
Neigh   | 0.040555   | 0.043326   | 0.048183   |   0.8 |  6.37
Comm    | 0.18789    | 0.2417     | 0.27125    |   3.3 | 35.56
Output  | 4.9221e-05 | 5.0805e-05 | 6.628e-05  |   0.0 |  0.01
Modify  | 0.045051   | 0.077711   | 0.082894   |   2.0 | 11.43
Other   |            | 0.004622   |            |       |  0.68

Nlocal:        83.3333 ave          91 max          74 min
Histogram: 1 3 1 6 5 15 6 6 3 2
Nghost:        2070.19 ave        2089 max        2051 min
Histogram: 2 0 6 7 6 12 5 7 1 2
Neighs:        13413.2 ave       15013 max       11544 min
Histogram: 2 1 2 9 6 7 9 8 3 1

Total # of neighbors = 643834
Ave neighs/atom = 160.95850
Neighbor list builds = 144
Dangerous builds = 8

#############################
# L I N E A R  Q U E N C H  #
#############################

# Define solid atoms. This closely follows ten Wolde  Ruiz-Montero and Frenkel  Faraday Discuss  1996  104  93-110
# Compute components of the per-atom q6 vector
compute q6 all orientorder/atom degrees 1 6 components 6 nnn NULL cutoff 1.3 # compute the Q6 parameter.
                                                                             # Use all neighbours within 1.3 unit cell.

# get number of connections
compute coord_number all coord/atom orientorder q6 0.5

# An atom is solid if it has 8 or more connections (of a possible 14)
variable is_solid atom c_coord_number>=8
group solid dynamic all var is_solid    # Must be dynamic to update
dynamic group solid defined

# do clustering
compute cluster solid cluster/atom 1.3 # Create a cluster where all atoms within are solid and max 1.3 units from another member

# define chunks one chunk per cluster
compute clus_chunks solid chunk/atom c_cluster nchunk every compress yes  # Says which atoms are in which chunk

# count the size of each chunk
compute size_chunks solid property/chunk clus_chunks count


# Find the maximum entry in the vector of chunk sizes
variable max_n equal max(c_size_chunks)


# Thermo style which includes this variable
# thermo_style custom step temp pe vol v_max_n

thermo ${N}  # Print the thermo information every 100 steps
thermo 1000  

# Reset the npt fix at a lower temperature (below freezing)
fix 1  all npt temp  ${temp} ${temp}  0.1  iso  5.68  5.68  0.5  mtk yes tchain  5  pchain  5
fix 1  all npt temp  0.45 ${temp}  0.1  iso  5.68  5.68  0.5  mtk yes tchain  5  pchain  5
fix 1  all npt temp  0.45 0.45  0.1  iso  5.68  5.68  0.5  mtk yes tchain  5  pchain  5

dump dmp2 all dcd ${N} traj.dcd
dump dmp2 all dcd 1000 traj.dcd


compute msd all msd com yes
variable twopoint equal c_msd[4]/6/(step*dt+1.0e-6)
fix 9 all vector 10 c_msd[4]
variable fit equal slope(f_9)/6/(10*dt)
thermo_style custom step temp pe c_msd[4] v_twopoint v_fit v_max_n

fix 1 all npt temp 1.25 ${temp} 0.1 iso 5.68 5.68 0.5 mtk yes tchain 5 pchain 5
fix 1 all npt temp 1.25 0.45 0.1 iso 5.68 5.68 0.5 mtk yes tchain 5 pchain 5
run 2000000 # 5000000  # Run for this many steps
Neighbor list info ...
  update every 1 steps, delay 10 steps, check yes
  max neighbors/atom: 2000, page size: 100000
  master list distance cutoff = 3.8
  ghost atom cutoff = 3.8
  binsize = 1.9, bins = 8 8 8
  4 neighbor lists, perpetual/occasional/extra = 1 3 0
  (1) pair lj/cut, perpetual
      attributes: half, newton on
      pair build: half/bin/atomonly/newton
      stencil: half/bin/3d
      bin: standard
  (2) compute orientorder/atom, occasional
      attributes: full, newton on
      pair build: full/bin/atomonly
      stencil: full/bin/3d
      bin: standard
  (3) compute coord/atom, occasional
      attributes: full, newton on
      pair build: full/bin/atomonly
      stencil: full/bin/3d
      bin: standard
  (4) compute cluster/atom, occasional
      attributes: full, newton on
      pair build: full/bin/atomonly
      stencil: full/bin/3d
      bin: standard
Per MPI rank memory allocation (min/avg/max) = 9.840 | 9.846 | 9.850 Mbytes
Step Temp PotEng c_msd[4] v_twopoint v_fit v_max_n 
   12000    1.2417425   -7.0820696 1.7980112e-30 1.2486188e-32 8.3333333e+20            1 
   13000    1.2489589   -7.0857265   0.45169547 0.0028954837  0.037091181            2 
   14000    1.2261403   -7.1061896   0.86914908 0.0051735062  0.035041674            3 
   15000    1.2545663   -7.0939124    1.2726881 0.0070704892  0.034882654            2 
   16000    1.2543172   -7.0594589    1.7097168 0.0089047747  0.034802492            1 
   17000    1.2636474   -7.0684344    2.0575885  0.010086218  0.034287463            2 
   18000    1.2628618   -7.0742059    2.4412787  0.011302216  0.033523512            1 
   19000    1.2500437   -7.0856006    2.8547826  0.012520976  0.033396662            2 
   20000    1.2325626    -7.085732    3.2769398  0.013653915  0.033424679            2 
   21000    1.2406875   -7.1045155    3.6304365  0.014406494  0.033415446            2 
   22000    1.2384677   -7.0786378    4.0706489  0.015419124  0.033282768            1 
   23000    1.2489848   -7.0604412    4.4758136  0.016216716    0.0333913            5 
   24000    1.2392363   -7.0935735    4.8433004  0.016817015  0.033368382            4 
   25000    1.2665722    -7.111999    5.2285895  0.017428631  0.033275162       -1e+20 
   26000    1.2535776   -7.1089318    5.5935284  0.017927975  0.033154118            1 
   27000    1.2594498   -7.0889363    5.9839942  0.018469117  0.033038775            3 
   28000    1.2233449   -7.0834633    6.3958939  0.019035398  0.032908187            3 
   29000     1.261866   -7.0936744    6.8527341  0.019691764  0.032927969            3 
   30000    1.2528639   -7.0724495    7.2506458  0.020140682  0.032991188            1 
   31000    1.2257482   -7.0871687    7.6879499  0.020666532  0.033058838            1 
   32000    1.2316287   -7.0975499    8.0795755  0.021040561  0.033142759            2 
   33000    1.2526282   -7.0912686    8.4290546  0.021285491  0.033181526            2 
   34000     1.227009   -7.0807603    8.8914071  0.021792664  0.033197897            4 
   35000    1.2791802    -7.131093    9.1896776  0.021880184  0.033197928            4 
   36000    1.2291966   -7.1216352    9.4825903   0.02195044  0.033126028            1 
   37000    1.2619039   -7.1115246    9.8016971  0.022075894  0.032974535            2 
   38000    1.2234618   -7.1158063    10.114303  0.022180488   0.03283822            2 
   39000    1.2437987   -7.0884674    10.638537  0.022731916  0.032722103            2 
   40000    1.2522139   -7.1062149    10.974111  0.022862731  0.032651166            2 
   41000    1.2414682   -7.1511588    11.221404  0.022807732  0.032542893            2 
   42000    1.2348943   -7.1025421    11.534161   0.02288524  0.032409242            2 
   43000    1.2378691   -7.1242669    11.870525  0.023004892  0.032263519            2 
   44000    1.2784631   -7.1543152     12.15204  0.023015228  0.032100301            4 
   45000     1.267529   -7.1102974    12.564497  0.023267587  0.031957239            2 
   46000    1.2246138   -7.1158901    12.861469  0.023299762  0.031809158            2 
   47000    1.2113835   -7.1762789    13.229183  0.023455998  0.031679328            1 
   48000    1.2336146   -7.1013378    13.667305  0.023727959  0.031571718            1 
   49000    1.2082905   -7.1100718    14.048525   0.02389205  0.031473236            3 
   50000    1.2120245   -7.1451286    14.361896  0.023936494  0.031390993            1 
   51000    1.2292037   -7.0920874    14.755576  0.024110418  0.031309503            2 
   52000    1.2555851   -7.1199482    15.063092   0.02413957  0.031229275            1 
   53000    1.2476438   -7.1091892    15.526563  0.024412835  0.031189475            3 
   54000    1.2512978   -7.0965105     15.94933  0.024613163  0.031158062            2 
   55000    1.2348327   -7.1436016    16.213933  0.024566564  0.031124373            2 
   56000    1.2392238   -7.1585732    16.643547  0.024767183   0.03109721            3 
   57000    1.2239185    -7.132191    17.158479  0.025085495  0.031095074            2 
   58000    1.2241425   -7.1265115    17.607932  0.025298752  0.031103368            2 
   59000    1.2428255   -7.1031838    17.968295  0.025378948  0.031118538            2 
   60000    1.2282382   -7.1324808    18.227555  0.025316049  0.031125507            1 
   61000    1.2565207   -7.1241728    18.630937  0.025452099  0.031111463            2 
   62000    1.2042719   -7.1706049    18.893741  0.025394813  0.031108942            1 
   63000    1.2254817   -7.1293494    19.153656  0.025335524  0.031079386            3 
   64000    1.2417528   -7.0693675    19.570851  0.025482879  0.031033266            2 
   65000    1.2407642    -7.103146    19.740086  0.025307803  0.030982006            4 
   66000    1.2301105   -7.1010088    20.145208  0.025435869  0.030918966            5 
   67000    1.2465356   -7.1065375    20.490026  0.025485106  0.030870513            2 
   68000    1.2235699   -7.1631757    20.707847  0.025377264  0.030816262            1 
   69000    1.2395217     -7.12804    21.278789   0.02569902  0.030769456            1 
   70000    1.2233826   -7.1638477    21.584441  0.025695762  0.030736098            1 
   71000    1.2310395   -7.0977908    21.997483  0.025818642  0.030710124            1 
   72000    1.2112918   -7.1620749    22.423377  0.025952982  0.030693827            1 
   73000    1.2149865   -7.1180079    22.877473  0.026115836  0.030691842            2 
   74000    1.2194618   -7.1297257     23.22338  0.026152455   0.03068752            2 
   75000    1.2431233   -7.1804251    23.379708  0.025977453  0.030671745            1 
   76000    1.2492866   -7.1662554    23.682569  0.025967729  0.030641381            3 
   77000    1.2214377   -7.0941139    24.012858  0.025987941  0.030601768            2 
   78000    1.2352344   -7.1470346    24.408362  0.026077309  0.030571176            1 
   79000    1.1953948   -7.1458766    24.698025  0.026052769  0.030543146            5 
   80000    1.2315521   -7.1550275     25.03416   0.02607725   0.03051448            2 
   81000    1.2112056   -7.1437238    25.411734  0.026143759    0.0304831            4 
   82000    1.2145452   -7.1658067    25.810961  0.026230651  0.030454874            3 
   83000    1.2315023   -7.1507189    26.143258  0.026248251  0.030428297            1 
   84000    1.2283302   -7.1296406    26.474959   0.02626484  0.030406028            3 
   85000    1.2530526   -7.1615251    26.691803  0.026168434  0.030373888            3 
   86000    1.2273941   -7.0784139    27.216699   0.02637277  0.030339493            3 
   87000      1.21413   -7.2136373    27.279874  0.026130147  0.030305949            2 
   88000    1.1972886   -7.1148095    27.536234  0.026075979  0.030260404            3 
   89000    1.2153748   -7.1837849    27.875923  0.026101051  0.030208383            3 
   90000    1.2403389   -7.1424977    28.371105  0.026269541   0.03015957            3 
   91000    1.2134844   -7.1935082    28.776722  0.026352309  0.030121202            2 
   92000    1.2018465   -7.1770254     29.04534  0.026309185  0.030087761            2 
   93000    1.2387952   -7.1802014    29.282108  0.026238448   0.03004751            7 
   94000    1.1984434    -7.130518    29.549632  0.026196482  0.030003713            1 
   95000    1.2200593   -7.1251976    30.218453  0.026507415  0.029968336            4 
   96000    1.2217755   -7.1127011    30.562675  0.026530099  0.029939792            3 
   97000    1.2122779   -7.1414925     30.89858  0.026545172  0.029915041            2 
   98000    1.2006813   -7.1338985    31.105737  0.026450457   0.02989179            3 
   99000    1.1932353   -7.1490035     31.51203  0.026525278  0.029861059            2 
  100000    1.2034896   -7.1807657    31.757851  0.026464876  0.029837107            3 
  101000    1.2351719   -7.1646491    32.185729  0.026555882  0.029812773            3 
  102000    1.2043564   -7.2041512    32.417256  0.026484686  0.029788768            2 
  103000    1.2162562   -7.1564278     32.75868  0.026503787  0.029759534            2 
  104000    1.2213435   -7.2461153    32.984692  0.026430041  0.029727699            4 
  105000     1.210592    -7.225124    33.154131  0.026312802  0.029689233            1 
  106000    1.2479218   -7.1338321     33.76019   0.02654103  0.029661124            2 
  107000    1.2145176   -7.1620308    34.087961  0.026548256  0.029634992            3 
  108000    1.2301938   -7.1858361    34.399787  0.026543046  0.029602994            3 
  109000    1.2023913    -7.182727    34.599997  0.026452597  0.029569023            1 
  110000    1.2036959   -7.1702342     34.98087  0.026500659  0.029535087            4 
  111000    1.2101166   -7.1889619     35.13208  0.026375435  0.029502244            2 
  112000    1.1864524   -7.1907216    35.273588  0.026245229  0.029464275            1 
  113000    1.2306184   -7.1652386    35.687486  0.026318205  0.029427503            2 
  114000    1.2162508   -7.1651538     36.21834  0.026475395  0.029391786            3 
  115000    1.1929757   -7.1945263    36.312374  0.026313314  0.029353872            4 
  116000    1.2181212   -7.1953589    36.673487  0.026345895  0.029314591            3 
  117000    1.2207993   -7.2037208    36.962093  0.026326277  0.029282035            1 
  118000    1.2273929   -7.2107538    37.477368  0.026467067  0.029253203            2 
  119000    1.2049281   -7.2205551    37.657117   0.02637053  0.029223999            4 
  120000    1.1838927   -7.1317961    38.242288  0.026557145  0.029199101            1 
  121000    1.1794988   -7.2280969     38.48641  0.026505792  0.029175986            3 
  122000    1.2043928   -7.1697917    38.823361  0.026518689  0.029154751            1 
  123000     1.201515   -7.1749358    39.294863  0.026622536  0.029133002            1 
  124000    1.1928439   -7.1983502    39.720491  0.026693878   0.02911534            3 
  125000    1.1918246   -7.1730706    40.112435  0.026741623  0.029099511            3 
  126000    1.1923197   -7.2043123    40.593279  0.026847407  0.029087141            3 
  127000    1.2000781   -7.2220283     40.72867  0.026724849  0.029076155            3 
  128000    1.2003091   -7.1864654    40.978509  0.026678717  0.029064552            1 
  129000    1.1848865   -7.2404355    41.436055  0.026767477  0.029052002            2 
  130000     1.196055    -7.202936    41.655268  0.026702094  0.029040183            3 
  131000    1.2101727   -7.1937785    42.233281  0.026865955  0.029027808            6 
  132000    1.2073476   -7.2050938    42.433733  0.026788973  0.029016914            2 
  133000    1.1956068   -7.1873956    42.783868  0.026806934  0.029011886            3 
  134000    1.2013032   -7.2137535    43.278165  0.026914282   0.02900428            3 
  135000    1.2072768   -7.2076217    43.743338   0.02700206  0.028995395            1 
  136000    1.1933652    -7.169021    44.055659  0.026994889  0.028989301            2 
  137000    1.2191144   -7.2485767    44.039255  0.026787868  0.028980177            2 
  138000     1.210156   -7.2175854     44.56023  0.026908352  0.028971818            3 
  139000    1.2310082   -7.2523688    44.609065  0.026744043  0.028961391            2 
  140000     1.222501    -7.224552    45.152398  0.026876427  0.028949541            3 
  141000    1.1698853   -7.2150149     45.56256  0.026928227  0.028939933            2 
  142000    1.1949604   -7.1655325    45.907656  0.026941113  0.028930915            1 
  143000    1.1675703   -7.1961647    46.175923  0.026909046   0.02891909            1 
  144000    1.1971363    -7.192592    46.262622  0.026772351  0.028904679            2 
  145000    1.1822295   -7.1992794    46.703246  0.026840946  0.028889411            3 
  146000    1.1999622   -7.1828352    46.997261  0.026824921  0.028872801            8 
  147000      1.20252   -7.2303447    47.250385  0.026785932  0.028857943            1 
  148000    1.1989442   -7.1887175    47.915678  0.026979548  0.028845267            2 
  149000    1.1902051   -7.1987458    48.299209   0.02701298  0.028837739            1 
  150000    1.1827072   -7.2107898    48.629757  0.027016531  0.028829793            1 
  151000    1.1639122    -7.255411    48.833631  0.026950128  0.028821134            1 
  152000    1.1973493   -7.2124333    49.277752  0.027016311    0.0288149            1 
  153000    1.1690642    -7.221679    49.592067   0.02701093  0.028807833            1 
  154000    1.1893221   -7.2229848    49.913121  0.027009264  0.028801665            2 
  155000    1.1727125   -7.2400257    50.442202  0.027119464  0.028798563            2 
  156000    1.1787471   -7.2225107    51.023764  0.027256284  0.028799013            1 
  157000    1.2000541   -7.2561318    51.410481  0.027287941  0.028805295            5 
  158000    1.2067803   -7.1952808    51.774687  0.027307324  0.028809172            4 
  159000    1.2189978   -7.2189983    52.143875  0.027329075  0.028810732            2 
  160000    1.1922143    -7.224497    52.193553  0.027184142  0.028812709            2 
  161000    1.1869543   -7.2244254    52.617158  0.027234554  0.028810067            2 
  162000    1.1878337   -7.1806406    53.106164  0.027317985  0.028809175            2 
  163000    1.2091078   -7.2382555     53.06689  0.027130312  0.028805905            3 
  164000     1.194204    -7.232767    53.339159  0.027103231  0.028799996            2 
  165000     1.199575   -7.2176877    53.657414  0.027099704  0.028791918            3 
  166000    1.1884407     -7.22449       53.843  0.027029618  0.028785158            4 
  167000    1.1802166   -7.2537121    54.109036  0.027000517  0.028775519            3 
  168000    1.1996183   -7.2518389    54.610334  0.027088459  0.028763182            1 
  169000    1.1948906   -7.2010593    54.947537  0.027094446   0.02875431            2 
  170000    1.1758174   -7.2753726    55.140771   0.02702979  0.028744984            2 
  171000    1.1972772   -7.2079007    55.700841  0.027144659  0.028738191            2 
  172000    1.1765329   -7.2104097    56.028512  0.027145597  0.028732907            1 
  173000    1.1997911   -7.2648193    56.517007  0.027223992  0.028728782            2 
  174000    1.1864449     -7.21639    56.602525  0.027108489  0.028725541            2 
  175000    1.1801292   -7.2286594    57.077678  0.027179846  0.028720623            1 
  176000     1.205293   -7.2020188    57.676293  0.027308851  0.028715993            2 
  177000    1.1451263   -7.2867349    57.911326  0.027265219  0.028715063            2 
  178000    1.1643665   -7.2003343     58.41234  0.027346601  0.028713493            1 
  179000     1.157017   -7.2286495    58.664214  0.027311087  0.028712657            2 
  180000    1.1821849   -7.2300373    58.888375  0.027263137  0.028711401            1 
  181000    1.1877595   -7.2417108    59.362591  0.027330843  0.028711687            2 
  182000    1.1854278   -7.2282263    59.932769  0.027441744  0.028712923            2 
  183000    1.1815468    -7.238685    59.910997  0.027281875  0.028713694            3 
  184000    1.1735832   -7.2642869    60.554778  0.027425171  0.028711374            3 
  185000    1.2054234   -7.2602004    60.531025  0.027266228  0.028710284            2 
  186000    1.1670808   -7.2827553    60.882674  0.027277184  0.028706322            2 
  187000    1.1926967   -7.2786351    61.233425  0.027287622  0.028702932            2 
  188000    1.1938899   -7.2665469    61.547013  0.027281477  0.028697307            2 
  189000    1.1696192   -7.2615079    61.967266  0.027322428  0.028691514            4 
  190000    1.1648792   -7.2570209    62.184746  0.027274011  0.028688892            1 
  191000      1.18247   -7.2108278    62.612307   0.02731776  0.028686508            2 
  192000    1.1637405   -7.2659038    62.776998  0.027246961  0.028681885            1 
  193000    1.1950318   -7.2354808    62.974393  0.027191016  0.028676581            5 
  194000    1.1700769   -7.2846683    63.351825  0.027212983  0.028669504            3 
  195000    1.1680093   -7.2547044    63.641558  0.027197247  0.028662625            2 
  196000    1.1651927   -7.2423566    64.081624  0.027245588  0.028654885            4 
  197000    1.1836518   -7.2314796    64.415817  0.027248654  0.028648889            2 
  198000    1.1520834   -7.2831279    64.531231  0.027159609  0.028641234            1 
  199000    1.1437316   -7.2417791    64.897719  0.027176599  0.028630719            3 
  200000    1.2020518   -7.2847141    64.881723  0.027034051  0.028618803            2 
  201000    1.1704341   -7.2636362    65.019653  0.026956738   0.02860395            5 
  202000    1.1688077   -7.2673027    65.368472  0.026967192  0.028590678            1 
  203000    1.1910559   -7.2948984    65.666328  0.026956621  0.028575117            3 
  204000    1.1968014   -7.3045746    65.906876  0.026922743  0.028560316            2 
  205000    1.1843438   -7.2950975    66.252629  0.026931963  0.028543877            3 
  206000    1.1665583   -7.2461869    66.630465  0.026954071   0.02852772            1 
  207000    1.1706481   -7.2899347    66.669504  0.026839575   0.02851197            2 
  208000     1.165004   -7.3102109    66.907014  0.026805695  0.028493993            5 
  209000    1.1499986   -7.3095963    67.154513  0.026776121  0.028473651            2 
  210000    1.1953882     -7.26327    67.268615  0.026693895  0.028453043            7 
  211000    1.1427346   -7.2598995    67.870085  0.026804931  0.028432715            2 
  212000     1.142427    -7.267466    68.213335  0.026813418  0.028414319            1 
  213000    1.1741401   -7.3028627    68.283746  0.026715081  0.028394773            1 
  214000     1.170399   -7.2912741    68.612281  0.026718178  0.028373514            2 
  215000    1.1816359   -7.2714433    69.007958   0.02674727  0.028353635            3 
  216000    1.1679574   -7.2839199    69.295555  0.026734396  0.028334398            3 
  217000    1.1532008   -7.3039084    69.588139  0.026723556   0.02831518            1 
  218000    1.1613758   -7.2890473    70.008217  0.026761551  0.028298186            4 
  219000    1.1880609   -7.2904643    70.311512  0.026754761  0.028282026            1 
  220000    1.1562682    -7.297016    70.582145  0.026735661  0.028265234            3 
  221000     1.163411   -7.2945785     70.93648  0.026748295  0.028248975            3 
  222000    1.1404156   -7.2944652    71.097278  0.026688167  0.028232231            4 
  223000    1.1668756   -7.2931367     71.33533  0.026657448  0.028213365            2 
  224000    1.1856711    -7.272464    71.667438  0.026661993  0.028195628            2 
  225000    1.1570162   -7.2628727    71.902222  0.026630452  0.028176313            1 
  226000    1.1509443   -7.3244111    72.175326  0.026613321  0.028157758            2 
  227000    1.1730621   -7.2915682    72.405534  0.026580593  0.028139293            1 
  228000    1.1853334   -7.3189309    72.676809  0.026563161  0.028120324            3 
  229000    1.1532487   -7.2873184    73.195081  0.026635765  0.028103057            3 
  230000    1.1595493   -7.3559716    73.417996  0.026600723  0.028087356            2 
  231000    1.1622183   -7.3526887    73.921975  0.026667379  0.028070773            3 
  232000    1.1499906   -7.2808423    74.343008  0.026703667  0.028056178            3 
  233000    1.1637532   -7.3074185     74.72647  0.026726205  0.028040294            2 
  234000     1.152575    -7.332204    74.855398  0.026657905  0.028024261            2 
  235000    1.1584482   -7.2629585    75.366985  0.026725881  0.028008598            5 
  236000    1.1588038   -7.2855302    75.424878  0.026633078  0.027994522            3 
  237000    1.1447237   -7.2796714    75.994673  0.026721052  0.027979599            2 
  238000    1.1532043   -7.3314446    76.237567  0.026693826  0.027964551            4 
  239000    1.1358421   -7.2785005    76.846966  0.026794618  0.027951056            2 
  240000    1.1657935   -7.3178159    76.685074  0.026626762  0.027937709            4 
  241000    1.1620482   -7.3337354    77.136251  0.026672286  0.027923877            3 
  242000    1.1638731   -7.3303443    77.364746  0.026640753  0.027910194            3 
  243000    1.1430074   -7.3270275    78.208845  0.026820592  0.027898808            1 
  244000    1.1540736   -7.2862752    78.442457  0.026790456  0.027889293            2 
  245000    1.1773965   -7.3175012    78.733739  0.026780183  0.027877857            4 
  246000    1.1633696   -7.3168646    79.077546  0.026787787  0.027867131            2 
  247000     1.157955   -7.3360942    79.128562  0.026696546  0.027856771            1 
  248000     1.175159   -7.3544658    79.209243  0.026616009  0.027845511            2 
  249000    1.1647725   -7.3241478    79.714139  0.026678092  0.027833796            4 
  250000    1.1669441   -7.3077538    80.317592  0.026772531  0.027824552            2 
  251000    1.1642233   -7.2953518     80.74122  0.026806514  0.027815993            1 
  252000    1.1538777   -7.3336805    81.070737  0.026809106  0.027808081            3 
  253000    1.1813755   -7.3460863    81.130564  0.026722847  0.027799038            4 
  254000    1.1470414   -7.3216724    81.760694  0.026824375  0.027789747            2 
  255000    1.1709738   -7.3342883    82.202531  0.026863572  0.027781871            2 
  256000    1.1297016   -7.3291165     82.59998  0.026888014  0.027774748            3 
  257000    1.1571865    -7.371886    82.459009  0.026737681  0.027766606            3 
  258000    1.1440054    -7.373423    82.702065  0.026712553  0.027756859            3 
  259000    1.1607805   -7.3425204    83.390649  0.026830968  0.027747448            2 
  260000    1.1315939    -7.328462     83.56032  0.026782154  0.027738549            3 
  261000    1.1312184   -7.3904757    83.803725  0.026757256  0.027730373            3 
  262000    1.1431584   -7.3215099     84.18909    0.0267777  0.027722719            2 
  263000    1.1756054   -7.3682944     84.15756  0.026665894  0.027713669            2 
  264000    1.1443615   -7.3905555    84.309526  0.026612855  0.027703371            2 
  265000    1.1223341    -7.365493    84.907033  0.026700325  0.027694609            2 
  266000    1.1627079   -7.3678245    85.304049  0.026724326  0.027685276            2 
  267000    1.1534046   -7.3683331    85.361363  0.026642123  0.027676365            5 
  268000    1.1499617   -7.3572645    85.772043  0.026670411  0.027666056            3 
  269000    1.1734702   -7.3587554    85.996807  0.026640894  0.027655827            5 
  270000    1.1568745   -7.3422341    86.233551  0.026615294  0.027645183            4 
  271000     1.121981    -7.361911    86.150352  0.026491498   0.02763314            2 
  272000    1.1327495    -7.332861    86.631935  0.026541647   0.02762097            4 
  273000    1.1642215   -7.3508201    86.799809  0.026495668  0.027608183            1 
  274000    1.1345627   -7.3070886    87.369531  0.026572242  0.027595205            2 
  275000    1.1509146   -7.3595996    87.254102  0.026440637  0.027581957            2 
  276000    1.1489929   -7.3461095    87.489725   0.02641598  0.027567672            3 
  277000    1.1666002   -7.3778397    87.862159  0.026432659  0.027554056            3 
  278000    1.1196604   -7.2986732    88.615139  0.026563291  0.027541033            2 
  279000    1.1515674   -7.3550756    88.704523   0.02649478  0.027528214            3 
  280000    1.1336467   -7.3699347     88.86811  0.026448842  0.027515856            2 
  281000    1.1416101   -7.3727944    89.412963    0.0265163  0.027503689            3 
  282000    1.1247473   -7.3783125    89.570013   0.02646868  0.027491785            2 
  283000    1.1476043   -7.3521534    89.624081  0.026391072  0.027479953            4 
  284000     1.155522   -7.3937702     89.95038  0.026393891  0.027467635            1 
  285000    1.1340659   -7.3899135    90.119182  0.026350638  0.027455833            2 
  286000    1.1269223   -7.3460011    90.824925  0.026464139  0.027444593            4 
  287000    1.1756645   -7.3659972    91.041955  0.026434946  0.027434236            2 
  288000    1.1474631   -7.3753806    91.659344  0.026521801  0.027424709            5 
  289000    1.1328466    -7.402973    91.735465  0.026451979  0.027413744            3 
  290000    1.1605423   -7.3915177    91.974261  0.026429385  0.027401187            2 
  291000    1.1188317   -7.3398185    92.403948  0.026461612  0.027389536            2 
  292000    1.1682061   -7.3497931    92.598836  0.026426608  0.027377651            1 
  293000    1.1398408   -7.3885875    92.873939  0.026414658  0.027365323            6 
  294000    1.1139345   -7.3852642     92.66901  0.026266726  0.027352732            2 
  295000    1.1509919   -7.3708465    93.494163   0.02641078  0.027340341            2 
  296000    1.1597281   -7.3388036    94.111693  0.026495409  0.027328448            2 
  297000    1.1418464   -7.3988341    93.505863  0.026236213  0.027315607            4 
  298000     1.155748   -7.3749868    94.263575   0.02636006  0.027302547            4 
  299000    1.1379673    -7.391598    94.363423  0.026299728  0.027290049            2 
  300000    1.1170163   -7.3544578    94.905144   0.02636254  0.027277927            1 
  301000    1.1441271   -7.3865417      95.0408  0.026312514  0.027266901            7 
  302000    1.0979538    -7.328177     95.45833  0.026340599  0.027255846            3 
  303000    1.1509955   -7.3771004    95.296372  0.026209123  0.027243294            1 
  304000    1.1231974   -7.3966553    95.653616  0.026220838  0.027230173            1 
  305000    1.1196404   -7.4158299    95.705627  0.026149078  0.027217366            2 
  306000    1.1337127   -7.3912068    96.338811   0.02623606   0.02720426            3 
  307000    1.1486288   -7.4155125    96.512752  0.026197815   0.02719272            2 
  308000    1.1614204   -7.3976942    97.234693  0.026308088  0.027180791            2 
  309000    1.1324198    -7.412607    96.864416   0.02612309  0.027168154            2 
  310000    1.1311194   -7.3560158    97.724801  0.026270108  0.027155522            2 
  311000    1.1195834   -7.3375627    97.931161  0.026240933  0.027143922            2 
  312000    1.1351199   -7.4058788    97.898353  0.026148064  0.027130807            6 
  313000    1.1152494   -7.4152442    97.656304  0.026000081   0.02711638            3 
  314000    1.1555586   -7.3899237    98.146032  0.026047248  0.027101269            3 
  315000    1.1460828   -7.3936696    98.180042  0.025973556  0.027086147            4 
  316000    1.1229348   -7.3753607    98.587424  0.025998793  0.027070998            5 
  317000    1.1374387   -7.4443623    99.035445  0.026034554  0.027055833            1 
  318000    1.1366723   -7.4223203    98.878043  0.025911437  0.027040945            2 
  319000    1.1421513   -7.4009028    99.494194  0.025991169  0.027026235            1 
  320000    1.1392049   -7.4509216    99.626515  0.025944405  0.027011914            3 
  321000    1.1078985    -7.410721    100.29251  0.026036476  0.026997174            2 
  322000    1.1372358   -7.3984247     100.6079   0.02603724  0.026983711            5 
  323000    1.1180935   -7.3996449    100.75199  0.025993806  0.026970535            3 
  324000    1.1237085   -7.3814356     101.2887   0.02605162  0.026957075            2 
  325000    1.1378204   -7.3807003    101.36048  0.025989866  0.026943149            2 
  326000    1.1394001   -7.4287842    101.76033  0.026012354  0.026929599            2 
  327000    1.1298368   -7.4072427     102.2037  0.026045795  0.026916526            3 
  328000     1.148959   -7.3985464     102.7464  0.026104268  0.026904286            3 
  329000    1.1524814   -7.4186931    102.89979  0.026063775  0.026892837            6 
  330000    1.0911054   -7.3959365    103.04987  0.026022694  0.026880227            1 
  331000      1.15866   -7.4036821    103.17984  0.025976798  0.026867715            3 
  332000     1.113184   -7.4263035    103.53356  0.025987338  0.026854816            3 
  333000    1.1195178   -7.4106125    103.94258  0.026011657   0.02684234            4 
  334000     1.123431   -7.4248529      104.002  0.025948603  0.026829272            4 
  335000    1.1173538   -7.4179683    104.32712  0.025952021  0.026816517            1 
  336000    1.1230301   -7.4336954    104.81056  0.025994683  0.026804519            3 
  337000    1.1004097   -7.4477652    105.20287  0.026014558  0.026791712            3 
  338000    1.1056974   -7.4110355     104.8841  0.025858999  0.026779872            2 
  339000    1.1145654    -7.405145    105.33747  0.025894166   0.02676758            4 
  340000    1.0989525   -7.4209413    105.97083  0.025973242  0.026755621            2 
  341000    1.1260385   -7.4379959    106.28056  0.025972765  0.026743834            2 
  342000    1.1113703   -7.4162301    106.40985  0.025928327  0.026731709            2 
  343000    1.1376092   -7.4604245    106.72424  0.025929115  0.026720245            4 
  344000    1.1325677   -7.4450426     107.1911  0.025966835  0.026708134            1 
  345000     1.111121   -7.4132333    107.04693  0.025856747   0.02669645            6 
  346000      1.12676   -7.4173368    107.67867  0.025934168  0.026684624            3 
  347000    1.1156843   -7.4293442     108.0125  0.025939603  0.026672867            4 
  348000    1.1243792   -7.4613887    107.63243   0.02577405  0.026661106            8 
  349000    1.1108678   -7.4040881    108.46902  0.025899956  0.026649458            1 
  350000    1.0989034   -7.4454186    108.95158  0.025940853  0.026638488            4 
  351000    1.0987701   -7.4052774    109.66602  0.026036566  0.026628098            1 
  352000    1.1196996     -7.40628    109.95732  0.026031562  0.026619389            2 
  353000    1.1069488   -7.4082276    110.15596  0.026004712  0.026611265            2 
  354000    1.1224438   -7.4252879    110.29966  0.025965079  0.026601251            2 
  355000    1.1389809   -7.4187393    110.42432  0.025921202  0.026591773            2 
  356000    1.1247178   -7.4542358    111.06393  0.025998112  0.026582716           10 
  357000    1.1097191    -7.456181    110.89422  0.025885673  0.026574575            2 
  358000    1.1310697   -7.4606544    111.48623  0.025951171  0.026565899            2 
  359000    1.1178786   -7.3875282    112.28409  0.026064087  0.026556998            1 
  360000    1.1134246   -7.4361475    111.92101  0.025907641  0.026548032            1 
  361000    1.1068192   -7.4312472    112.25496  0.025912965  0.026538242            5 
  362000    1.0838525   -7.4678003    112.70614  0.025945244  0.026528643            1 
  363000    1.0809564   -7.4702714    112.70776  0.025874141  0.026519563            2 
  364000    1.1068649    -7.421312    113.26713  0.025931118  0.026510602            3 
  365000    1.1282031   -7.4247286    113.73852  0.025967698  0.026501996            1 
  366000    1.0964552   -7.4544969    113.99929  0.025956123   0.02649248            2 
  367000    1.1007601   -7.4229744     114.1014  0.025908583  0.026482649            6 
  368000    1.1049968   -7.4245118    114.27544  0.025877592  0.026473645            3 
  369000    1.0915307   -7.4503552    114.41468  0.025838906  0.026464169            2 
  370000    1.1251183   -7.4560135    114.45848  0.025778937  0.026454521            5 
  371000    1.0929558   -7.4247802    114.62934   0.02574783  0.026444134            4 
  372000    1.1141147   -7.4933218    114.87764  0.025734238  0.026433769            2 
  373000    1.1025305   -7.4402389    115.27666  0.025754392  0.026422737            6 
  374000     1.101209   -7.4452284    115.14595  0.025656406  0.026411382            7 
  375000    1.1260259   -7.4783468    115.42049  0.025648997  0.026399533            3 
  376000    1.0830627   -7.4570443    115.72649  0.025648602  0.026387523            2 
  377000    1.0941222   -7.4617529     115.7107  0.025577078  0.026375276            2 
  378000    1.1177395   -7.4487546    116.58426  0.025701998  0.026363584            2 
  379000     1.099125   -7.4246928    116.45089  0.025604856    0.0263513            2 
  380000    1.1137497   -7.5048406    116.26761  0.025497282  0.026338854            4 
  381000    1.0741162     -7.47919    116.88168  0.025564672  0.026326254            2 
  382000    1.0789793   -7.4398447    117.28749  0.025586276   0.02631349            2 
  383000    1.0824306   -7.4725254    117.39876  0.025543682  0.026301017            3 
  384000    1.0691458   -7.4653313    117.87632  0.025580798  0.026288274            7 
  385000    1.1199454   -7.4487656    118.10759  0.025564414  0.026275875            2 
  386000    1.1066669    -7.494106    118.15726  0.025508908  0.026263412            4 
  387000    1.0763012   -7.4534508    118.64821  0.025548711  0.026250794            4 
  388000    1.0867846   -7.4339867    119.04388  0.025567843  0.026238791            2 
  389000    1.0809615   -7.4438344    119.27562   0.02555176   0.02622677            2 
  390000    1.0901691   -7.5027526    119.13452  0.025456094  0.026214895            1 
  391000    1.1036752   -7.4498498    119.69883   0.02551126  0.026202202            3 
  392000     1.108467   -7.4171917    120.10615  0.025532771  0.026190553            2 
  393000    1.0872555   -7.5097389    119.76978  0.025396477  0.026178499            3 
  394000    1.0973872   -7.5071103    120.45094  0.025476086  0.026165623            4 
  395000    1.1081684   -7.5033402    120.53165  0.025428617  0.026153608            3 
  396000    1.0801671   -7.4056886    121.20502  0.025506106  0.026141758            4 
  397000    1.0841941   -7.4686138    121.37781   0.02547813  0.026130018            3 
  398000    1.0759183   -7.4597825    121.38354  0.025415315  0.026117886            3 
  399000    1.0884925   -7.4902432    121.90061  0.025459609  0.026106201            3 
  400000    1.1095632   -7.5179141     121.8578  0.025387042  0.026094493            4 
  401000    1.1249262   -7.5284929     122.3759  0.025431401  0.026083391            3 
  402000    1.0947148   -7.4832164    122.58889   0.02541229  0.026071799            1 
  403000    1.0759722   -7.4667037    122.94509  0.025422888  0.026060537            6 
  404000    1.0944456   -7.4742224    123.07813  0.025387402  0.026049098            2 
  405000    1.0859174   -7.4937717    123.37733  0.025386282  0.026037451            2 
  406000    1.0935595   -7.5025501    123.16507  0.025280187  0.026025305            3 
  407000     1.120609   -7.5385459    123.18831  0.025222833   0.02601213            3 
  408000    1.0745082    -7.524298    122.86362  0.025094694  0.025998571            6 
  409000    1.0901941   -7.5079858    123.89217  0.025242903  0.025984766            2 
  410000    1.0954258   -7.4606246    123.83446  0.025169605  0.025971256            2 
  411000    1.1017952   -7.4993219    124.23539  0.025189658  0.025957959            3 
  412000    1.0682701   -7.4890589    124.46357  0.025174671  0.025944429            5 
  413000    1.0845411   -7.5065019    124.99141   0.02522022  0.025930386            2 
  414000    1.0787376   -7.4621708    125.10747  0.025182662  0.025916466            6 
  415000    1.0815609   -7.5144496    124.90143  0.025080609  0.025902558            3 
  416000    1.0873356   -7.4804038    125.66441  0.025173159   0.02588813            2 
  417000    1.0926474   -7.5425246    125.16933  0.025013855  0.025873287            4 
  418000    1.0765534   -7.4832987    125.80577  0.025080895  0.025859053            1 
  419000    1.1054321   -7.5206335    125.60498  0.024981101  0.025843852            2 
  420000    1.0588008   -7.5212945    125.35075  0.024871181  0.025828084            2 
  421000    1.0801231   -7.5323706    126.13199  0.024966744  0.025812214            1 
  422000    1.0947524   -7.4925165    126.59597  0.024999204  0.025796585            6 
  423000    1.0854358   -7.4994167    126.71058  0.024962682  0.025781212            3 
  424000    1.1036047   -7.5001457    126.53778  0.024869848   0.02576506            1 
  425000    1.0767985   -7.5765549    126.21174    0.0247474  0.025748281            4 
  426000    1.0766463      -7.4811    127.13726  0.024870357  0.025731467            3 
  427000    1.1065943   -7.5005751    127.26587  0.024837212  0.025714848            3 
  428000    1.0710879   -7.5254613    127.38299  0.024801985  0.025698234            6 
  429000    1.0638015   -7.4873387    127.57764  0.024781981  0.025681229            2 
  430000     1.100358    -7.513842    127.75921  0.024759536  0.025664096            6 
  431000    1.0837248   -7.5125209    127.89308  0.024727973  0.025646946            4 
  432000    1.0857933   -7.5580602    128.04943  0.024700893  0.025629653            5 
  433000    1.0957175   -7.5341289    128.33699  0.024699189  0.025612663            2 
  434000    1.0786989   -7.5274971    128.29124  0.024633495  0.025595948            1 
  435000    1.0838911   -7.5537002    128.87874  0.024689413    0.0255797            6 
  436000    1.0751465   -7.4938025    129.53373  0.024757977  0.025563607            4 
  437000    1.0516887   -7.4889415    129.32353  0.024661238  0.025547617            2 
  438000    1.0735867   -7.5132497    129.63675  0.024664527  0.025531386            3 
  439000    1.0807913   -7.5770958    129.79284  0.024637972  0.025514732            3 
  440000     1.092281   -7.5387769    130.08032  0.024636424  0.025498087            1 
  441000    1.0956078   -7.5303218    129.93523  0.024553143  0.025481871            2 
  442000     1.085342   -7.5615874    130.56288  0.024615928  0.025465726            2 
  443000     1.075859   -7.5585236    130.15618  0.024483856  0.025448788            1 
  444000    1.0719168   -7.5898287     130.4689  0.024487407  0.025431849            5 
  445000    1.0785469   -7.5359499    131.07478  0.024545839  0.025414875            4 
  446000    1.0524594   -7.5237746    131.38377  0.024548537  0.025397682            8 
  447000    1.0709233   -7.5067317    132.09687  0.024626561  0.025381592            2 
  448000    1.0720857   -7.5797849    131.88804  0.024532746  0.025365603            3 
  449000    1.0713383   -7.5459592    132.11546  0.024520315  0.025349442            4 
  450000    1.0416029   -7.5455369    132.43457   0.02452492  0.025333441            2 
  451000    1.0722042   -7.5500369    132.78377  0.024535064    0.0253177            3 
  452000    1.0689809   -7.5255338    132.50504  0.024429396  0.025302055            6 
  453000     1.056818   -7.5495046    133.37928  0.024536291  0.025286145            7 
  454000    1.0864887   -7.5259724    133.29786  0.024467302  0.025270618            1 
  455000    1.0827206    -7.553763    133.82732  0.024510499  0.025255034            2 
  456000    1.0979004   -7.5155774     133.7739  0.024446985  0.025239521            4 
  457000    1.0740815   -7.5879158    133.38851  0.024323216  0.025223323            3 
  458000    1.0829478   -7.5968261    133.53055  0.024295952  0.025205969            7 
  459000    1.0670456   -7.5346276    134.15188  0.024355825  0.025188807            1 
  460000    1.0799401   -7.5578442     133.9778   0.02427134  0.025171776            4 
  461000    1.0693628   -7.5451344    134.68789  0.024347052  0.025154785            4 
  462000    1.0677928   -7.6076668    134.14206  0.024195898  0.025137974            5 
  463000    1.0665176   -7.5428879     135.2659  0.024345914  0.025121236            1 
  464000    1.0710686   -7.6056809     135.3811  0.024314134  0.025104694            1 
  465000    1.0993327    -7.601176    135.09222  0.024210075  0.025088037            4 
  466000    1.0832898    -7.544958    136.25986  0.024366928  0.025072048            4 
  467000    1.0622829   -7.5372119     136.1632  0.024297502  0.025056046            1 
  468000    1.0707421   -7.5703506    136.36554  0.024281614  0.025039925            2 
  469000    1.0884373   -7.5576098    136.35351  0.024227702  0.025023427            4 
  470000    1.0559803   -7.5435408    136.52651  0.024206828  0.025006559            2 
  471000      1.05885   -7.5896652    136.94729  0.024229881  0.024989922            4 
  472000    1.0455682   -7.6029983    136.43729  0.024088504  0.024973077            2 
  473000    1.0658028   -7.5707033     136.7093    0.0240855  0.024956205            4 
  474000     1.065544   -7.5207196    137.16193  0.024114263  0.024939424            2 
  475000    1.0674216   -7.5756884    137.75515   0.02416757  0.024923006            4 
  476000    1.0591888   -7.6039533    137.20154  0.024019877  0.024906599            2 
  477000    1.0542413   -7.5829306    137.59965  0.024039073  0.024890398            4 
  478000    1.0713912   -7.5968084    137.96769  0.024052944  0.024873777            3 
  479000    1.0550757   -7.6048017    138.12708  0.024030459  0.024856711            2 
  480000     1.058689   -7.5670244    138.55406  0.024054524  0.024840128            2 
  481000    1.0610149   -7.5497484    138.76373  0.024040841  0.024823345            1 
  482000    1.0744678   -7.5562807    138.97576  0.024027621  0.024806873            5 
  483000    1.0674565   -7.5746642    139.47161  0.024063425  0.024790895            1 
  484000    1.0585828   -7.5917117     139.7344  0.024058953  0.024775267            2 
  485000     1.071873   -7.5500441    140.34494   0.02411425  0.024759991            3 
  486000    1.0555124   -7.5915425    140.20505  0.024040646  0.024744721            2 
  487000    1.0669498   -7.6095403    140.52839  0.024046609  0.024729171            5 
  488000    1.0720304   -7.6004595    140.61745  0.024012543  0.024713907            4 
  489000    1.0413757   -7.5577864    141.08545  0.024043192  0.024698781            4 
  490000    1.0674291    -7.596774    141.32624  0.024035075   0.02468362            3 
  491000    1.0716967   -7.5439232    141.72406  0.024053642  0.024668729            3 
  492000    1.0388919   -7.5905134    141.47825  0.023963117  0.024653847            5 
  493000    1.0796507   -7.5944032    141.95858  0.023995704  0.024638574            2 
  494000     1.086804   -7.6083076    142.03427  0.023959896  0.024623053            4 
  495000    1.0678118   -7.5744022    142.66297  0.024017335   0.02460799            3 
  496000    1.0583269   -7.6322648    142.26719  0.023902418  0.024593002            9 
  497000     1.044767   -7.5861397    143.06183  0.023987565  0.024578144            4 
  498000    1.0510881   -7.5964155    142.96284  0.023922832  0.024562966            3 
  499000    1.0498615   -7.5687965     143.3461  0.023938894  0.024548453            2 
  500000    1.0489428   -7.6252593    143.53312  0.023922186  0.024533585            3 
  501000    1.0504475   -7.6062689    143.64545  0.023893121  0.024518543            2 
  502000    1.0776577   -7.6014267    143.68425  0.023851966   0.02450388            3 
  503000    1.0650572   -7.6015215    143.99067  0.023855312  0.024488881            3 
  504000    1.0449907   -7.6065077    144.38565  0.023873289  0.024474435            2 
  505000    1.0269213   -7.5711424     145.0096  0.023928978  0.024459988            2 
  506000    1.0509846   -7.5793727    144.83124  0.023852312  0.024445643            2 
  507000    1.0453777   -7.5714574    145.54149  0.023922007  0.024431091            3 
  508000    1.0598619    -7.569992    145.42825   0.02385634  0.024416602            3 
  509000    1.0718759   -7.6074238    145.23958  0.023778582  0.024401886            1 
  510000    1.0696539   -7.5909982    145.49733  0.023774074  0.024387376            3 
  511000    1.0674747    -7.574261    146.54543  0.023898472   0.02437375            2 
  512000    1.0585924    -7.620931    146.22972   0.02380041  0.024359572            3 
  513000     1.063696   -7.5803399    145.97366  0.023712421  0.024345009            5 
  514000    1.0619157   -7.6222816    146.08708  0.023684676  0.024330114            2 
  515000    1.0651967   -7.6322631    146.49963  0.023705441  0.024315213            4 
  516000    1.0467866   -7.5590451    147.06351  0.023750567  0.024300588            5 
  517000    1.0318028   -7.6146523    146.95773  0.023687577  0.024285852            3 
  518000    1.0537822   -7.6012659    146.99633  0.023648058  0.024270667            4 
  519000    1.0358164    -7.617316    147.40369  0.023667902   0.02425559            1 
  520000    1.0210137   -7.6535547    147.02076  0.023561019  0.024240307            2 
  521000     1.032308   -7.6523135    147.41523  0.023578891  0.024225042            4 
  522000    1.0521282   -7.5745814    148.28561  0.023672671  0.024209856            2 
  523000    1.0596806   -7.6368583    147.99193  0.023580613  0.024194812            7 
  524000    1.0593464   -7.6070384    148.33644  0.023590401  0.024179366            4 
  525000    1.0441507   -7.6372807    148.14102  0.023514447  0.024164249            2 
  526000    1.0516652   -7.6205972      148.859  0.023583492  0.024148814            3 
  527000    1.0377607   -7.6217182     149.1649  0.023587112  0.024133373            2 
  528000    1.0220844   -7.6361349    148.97373  0.023512268  0.024117989            8 
  529000    1.0544349   -7.6392557    148.42739  0.023381756  0.024102451            2 
  530000    1.0490085   -7.6489628    149.25696  0.023468075  0.024086459            2 
  531000    1.0584105   -7.6129423     149.6852  0.023491086  0.024071169            2 
  532000    1.0558406   -7.6462471    149.34775  0.023394071  0.024055572            4 
  533000    1.0480543   -7.6474994    149.71125  0.023407012   0.02403992            5 
  534000    1.0247449   -7.6559273    149.85109  0.023385001  0.024024347            5 
  535000    1.0357698   -7.6191298    149.96528  0.023359077  0.024008858            2 
  536000    1.0274512   -7.6584038    149.84034  0.023296073  0.023993145            3 
  537000    1.0532442   -7.6192138    150.24444    0.0233154  0.023977203            3 
  538000    1.0334641   -7.6245214    150.77141  0.023353688  0.023961501            2 
  539000    1.0487351   -7.6583943    150.44687  0.023260184  0.023946278            3 
  540000    1.0288875   -7.6289323    151.27618  0.023345089  0.023930991            5 
  541000    1.0342147   -7.5848569    151.51839  0.023339247    0.0239154            6 
  542000    1.0400007   -7.6304637     151.0479  0.023223847  0.023899602            7 
  543000    1.0262217     -7.60908    152.09667  0.023342031  0.023884314            3 
  544000    1.0263919   -7.6095662    152.41223  0.023347462  0.023868976            3 
  545000    1.0549931   -7.6318264    152.35753  0.023296259  0.023853927            3 
  546000    1.0304894   -7.6284961    151.64361  0.023144629  0.023838625            2 
  547000    1.0077398   -7.6229896    152.41074  0.023219186  0.023823138            3 
  548000     1.039163   -7.6494626    153.09817  0.023281352  0.023807628            2 
  549000    1.0219022   -7.5924697     152.9198   0.02321187  0.023792457            4 
  550000    1.0527916   -7.6794726    152.70102  0.023136518  0.023777182            1 
  551000    1.0154536   -7.6396173    152.93857  0.023130455  0.023761372            2 
  552000    1.0359933   -7.6363614    153.15645  0.023121445  0.023745499            3 
  553000     1.026575   -7.6476971    153.25313  0.023094202   0.02372981            2 
  554000    1.0404284   -7.6569022    153.48238  0.023087001  0.023714164            2 
  555000    1.0099753   -7.6404496    153.60008  0.023063076  0.023698559            3 
  556000    1.0545094   -7.6871118    153.52893  0.023010931  0.023682712            3 
  557000    1.0195185   -7.6315396    154.51396   0.02311699   0.02366703            2 
  558000    1.0564164   -7.6588328    154.17726  0.023025277  0.023651461            3 
  559000    1.0354319   -7.6917376     154.4495  0.023024671  0.023635819            5 
  560000     1.010123   -7.6570574    154.35845  0.022970008  0.023619629            2 
  561000    1.0205772   -7.6324856    154.78278  0.022992095  0.023603692            3 
  562000    1.0248712   -7.6749212    154.59423  0.022923225  0.023587829            4 
  563000    1.0383477   -7.7014404    154.36679  0.022848843  0.023571518            2 
  564000     1.026141    -7.717792    154.82769  0.022876432  0.023555378            5 
  565000    1.0326279   -7.6856059    155.18223  0.022888234    0.0235392            4 
  566000    1.0477796    -7.661694    155.79814  0.022938478  0.023523062            3 
  567000    1.0336458   -7.6114439    156.49079  0.022999822  0.023507486            2 
  568000    1.0387396   -7.7068384    155.92287  0.022876007  0.023491788            6 
  569000    1.0225897   -7.6565501    156.30972  0.022892461  0.023476015            3 
  570000    1.0290982   -7.6737343    156.15382  0.022829506  0.023460083            3 
  571000    1.0385993   -7.6996611    155.95246  0.022760137   0.02344384            9 
  572000    1.0204985   -7.6813074    156.36959  0.022781117  0.023427476            4 
  573000    1.0114117   -7.7062184    156.30633  0.022732159  0.023411255            5 
  574000    1.0312275   -7.6805324    156.71198  0.022751449  0.023394815            8 
  575000    1.0419736    -7.675367    156.90369  0.022739666  0.023378419            3 
  576000    1.0194478   -7.6489484    156.90664  0.022700613  0.023361899            3 
  577000     1.027352   -7.6666202     156.8443  0.022652267  0.023345091            2 
  578000    1.0343688   -7.6739279    157.62707  0.022725933  0.023328259            4 
  579000    1.0317333   -7.6684993    157.77052  0.022707329  0.023311262            2 
  580000    1.0013717   -7.7286022    156.90989  0.022544524  0.023294333            3 
  581000    1.0114724    -7.668559    158.08773   0.02267466  0.023277252            2 
  582000    1.0356377   -7.6856129    157.71905  0.022582912  0.023260453            4 
  583000    1.0056402   -7.6773689    157.84553  0.022562254  0.023243425            6 
  584000    1.0229211    -7.673976    157.95143  0.022538732  0.023226294            1 
  585000    1.0110085   -7.6896129     157.8368  0.022483875  0.023209201            2 
  586000    1.0348456   -7.7237559     157.7615  0.022434798  0.023191905            4 
  587000    1.0195845   -7.6836037    158.12968  0.022448847  0.023174575            3 
  588000     1.008283   -7.6837472    158.53203  0.022467691  0.023157502            3 
  589000    1.0135188    -7.715318    158.75228  0.022460708  0.023140263            3 
  590000    1.0254992   -7.6982328    158.59581  0.022400539   0.02312308            3 
  591000    1.0036266   -7.6674807    159.36492  0.022471082  0.023105885            2 
  592000    1.0235923   -7.6994844    159.18194  0.022407368  0.023088659            4 
  593000    1.0262727   -7.7134297    158.65763  0.022295901  0.023071357            9 
  594000    1.0230496   -7.6720782    159.33231  0.022353017  0.023053816            2 
  595000    1.0080734   -7.7064925    159.37578  0.022321537  0.023036265            4 
  596000    1.0074652   -7.7430802    158.66025  0.022184039  0.023018497            6 
  597000    1.0294611   -7.7333645    159.47442  0.022260528    0.0230005            7 
  598000    1.0105649   -7.6998455    160.05896   0.02230476  0.022982601            3 
  599000    1.0080469   -7.7360896    159.51656  0.022192064  0.022964572            9 
  600000    1.0286707   -7.6946789    160.26675  0.022259271   0.02294648           13 
  601000    1.0117506   -7.7182517     159.5818   0.02212726  0.022928273            2 
  602000    1.0377265    -7.719102    159.84537   0.02212699  0.022910135            3 
  603000     1.012785   -7.6829864    160.30947  0.022154431  0.022892016            4 
  604000    1.0142927   -7.7322757    160.07313  0.022085145  0.022873864            4 
  605000   0.99674404   -7.6934667    160.44912   0.02210043  0.022855855            5 
  606000    1.0167496   -7.6936052    160.85615  0.022119932  0.022838068            3 
  607000    1.0014603   -7.7186467    160.25871   0.02200147  0.022820044            2 
  608000    1.0188604   -7.7005368    160.85036  0.022046376   0.02280187            5 
  609000    1.0070505   -7.6791754    161.31534  0.022073801  0.022783709            2 
  610000    1.0070323   -7.7105178    161.23466  0.022026593  0.022765689            4 
  611000    1.0049853   -7.7188556    161.63989  0.022045812  0.022747828           10 
  612000    1.0010888   -7.7043553    161.52354  0.021993946  0.022729677            5 
  613000    1.0169527   -7.7498654    161.22106  0.021916946  0.022711106           12 
  614000    1.0265567   -7.7515509    161.36037  0.021900159  0.022692721            4 
  615000    1.0128296   -7.7548709     161.2435  0.021848712  0.022674096            8 
  616000   0.99801142   -7.7133905    161.82424  0.021891807  0.022655561            3 
  617000    1.0076781   -7.7191686    162.39765  0.021933772  0.022637446            3 
  618000    1.0066573   -7.7321133    161.91763  0.021833553  0.022619172            2 
  619000    0.9994173   -7.7340347    162.38343  0.021860989  0.022600854            6 
  620000    1.0033892   -7.7143655    162.80226  0.021882024  0.022582525            3 
  621000   0.99781842   -7.7473427    162.22234  0.021768967  0.022564339            3 
  622000   0.98731284   -7.7446448    163.21434  0.021866873  0.022546707            3 
  623000    1.0002227   -7.6976727     163.2935  0.021842362  0.022528969            5 
  624000    1.0194896   -7.7364745     163.3818  0.021819151  0.022511234            3 
  625000    1.0115631   -7.7252788    163.37112  0.021782816  0.022493393            3 
  626000    1.0080186   -7.7350889    163.81771   0.02180747  0.022475391            2 
  627000   0.99907365   -7.7234227    163.71649  0.021759236  0.022457475           11 
  628000     1.004983   -7.7600474    163.47497  0.021692539  0.022438948            3 
  629000   0.99659228   -7.7279585    164.00915  0.021728823  0.022420857            2 
  630000   0.99626894   -7.6780827    164.23831  0.021724644  0.022402839            2 
  631000    1.0095553   -7.6824172    164.50411  0.021725318  0.022384943           11 
  632000    1.0131742   -7.7233499    164.34241  0.021669621  0.022366922            4 
  633000    1.0068243   -7.7352319    164.37797   0.02164007  0.022348841            4 
  634000    1.0211585   -7.7541012    164.41914  0.021611349  0.022330747            5 
  635000   0.98906043   -7.7401226     164.4479  0.021581089   0.02231272            5 
  636000    1.0264571   -7.7300839    164.94429  0.021612197  0.022294701            6 
  637000   0.99631418   -7.7711852    164.30952  0.021495227  0.022276338            7 
  638000   0.97982391   -7.7726335    164.83957  0.021530769  0.022258102            2 
  639000   0.98658987     -7.74956    165.52071  0.021585904  0.022240192            3 
  640000   0.98500718   -7.7289585    165.35272  0.021530302  0.022222444            7 
  641000   0.97085258   -7.7348556    165.96102  0.021575795  0.022204769            3 
  642000   0.98318085    -7.732465    166.24858  0.021579515  0.022187238            6 
  643000     1.015847   -7.7304108    166.38679  0.021563866  0.022169831            3 
  644000      1.03187   -7.7234377    166.86228   0.02159191  0.022152588            3 
  645000   0.98195918    -7.725194     166.6987    0.0215373  0.022135836            4 
  646000     1.007129   -7.7411507     166.7163   0.02150623  0.022119008            4 
  647000   0.99502543   -7.7498781    167.14978  0.021528823   0.02210207            5 
  648000   0.96776006   -7.7841046    166.59505  0.021424261  0.022085099            5 
  649000   0.99972691   -7.8098782    167.37756  0.021491726  0.022067833            4 
  650000   0.98168991   -7.7357205    167.86838  0.021521587  0.022051074            3 
  651000   0.99219255   -7.7628395    168.00345  0.021505818  0.022034523            5 
  652000   0.98244158    -7.755502    167.88306  0.021457446  0.022017916            3 
  653000    1.0030177   -7.7451007    168.49275  0.021502393  0.022001496            9 
  654000    0.9890487   -7.7672171    168.82767   0.02151219  0.021985006            4 
  655000   0.96189006    -7.750563    168.47056  0.021433913  0.021968506            8 
  656000   0.97908193   -7.8203224    168.57531  0.021414547  0.021951847            4 
  657000   0.97706436   -7.7577348    168.92663  0.021426513  0.021935344            8 
  658000   0.99357862   -7.7629525    169.06296  0.021411216  0.021918794            3 
  659000   0.97636118   -7.8151511    168.55411  0.021314379  0.021902315            3 
  660000    0.9848303   -7.7453811    169.38772  0.021387339  0.021885573            2 
  661000   0.97024974   -7.7332237    169.68686  0.021392696  0.021869131            5 
  662000   0.99810256   -7.7366089    169.84635  0.021380457  0.021852682            4 
  663000    1.0066446   -7.7766035     169.0876  0.021252841  0.021836258            5 
  664000   0.96532427   -7.7878458    169.71885  0.021300056  0.021819707            5 
  665000    1.0017327   -7.7832793    169.69794  0.021265406   0.02180331            2 
  666000    1.0050428   -7.7419309    170.64895  0.021352472  0.021786866            4 
  667000    0.9975424   -7.7701158    170.35704  0.021283988  0.021770603            2 
  668000   0.99891737   -7.7758537    170.42507  0.021260613   0.02175463            5 
  669000   0.98696064   -7.7733854    171.07843  0.021310218  0.021738465            4 
  670000    0.9797277   -7.7633616    171.08935   0.02127977  0.021722204            3 
  671000   0.98692025   -7.7863129    170.94887   0.02123061  0.021706112            4 
  672000   0.99082902   -7.7740936    171.13386  0.021221957  0.021689727            3 
  673000    0.9830259   -7.7960668    171.05002  0.021180042   0.02167356            3 
  674000   0.97888592   -7.8303291     171.0325  0.021146452  0.021657559            6 
  675000    1.0041043   -7.8459684    170.67209  0.021070628  0.021641128            9 
  676000   0.97624019   -7.8246073    170.86224  0.021062899  0.021624632            5 
  677000    1.0019872   -7.8297337     171.3329  0.021089722  0.021608013            4 
  678000   0.96440088   -7.7756287    171.25996  0.021049651  0.021591587            2 
  679000   0.97811097   -7.7858676    171.73807  0.021077328  0.021575041            3 
  680000   0.97258994   -7.8295333    171.64218  0.021034581  0.021558478            4 
  681000   0.95321925   -7.7670131    171.76699  0.021018965  0.021541835            2 
  682000   0.99190743   -7.7911339    172.09368  0.021028065  0.021525377            3 
  683000   0.99394692    -7.752881    172.15388  0.021004622  0.021509067            3 
  684000   0.97048776    -7.799474     172.2545  0.020986172  0.021492733            5 
  685000   0.97338789   -7.7740136    172.15465  0.020943388  0.021476321            5 
  686000   0.97298462   -7.7912839    172.08349  0.020904214   0.02145967            4 
  687000   0.98629598   -7.8181877    172.10562   0.02087647  0.021443096            4 
  688000   0.96621624   -7.8218917    172.45143  0.020888012  0.021426106            5 
  689000   0.97701666   -7.8248383    172.71065  0.020889048  0.021409103            3 
  690000     0.982399   -7.8395052    172.31616   0.02081113  0.021392371            4 
  691000   0.98610411   -7.8036621    173.08741  0.020874025  0.021375536            5 
  692000   0.96765682   -7.8134626    173.04923  0.020839262  0.021358914            5 
  693000   0.97369723   -7.7881935    173.28182  0.020837159  0.021342246            2 
  694000   0.95764277   -7.7704214    173.51742  0.020835426  0.021325779            5 
  695000   0.97853391   -7.8286098    173.54913  0.020809248  0.021308864            5 
  696000   0.96926882   -7.8323316     173.6896  0.020796169  0.021291921            3 
  697000   0.97277457   -7.8333535    173.74381  0.020772813  0.021275067            8 
  698000   0.95949374   -7.8098313    174.31322  0.020811034  0.021258205            4 
  699000   0.96475606   -7.8471151    174.44754  0.020797274  0.021241514            3 
  700000    0.9837351   -7.8090735    174.47904  0.020771314  0.021225019            3 
  701000   0.98565166   -7.8383567    174.71142  0.020769309    0.0212085            2 
  702000   0.97283802   -7.8409096    174.60037   0.02072654  0.021191987            6 
  703000   0.97002949   -7.8125147    174.74076  0.020713699  0.021175812           13 
  704000   0.97214866   -7.7992866    174.82001  0.020693656  0.021159366           13 
  705000   0.96195063   -7.7915601    175.09014  0.020696233   0.02114322            8 
  706000   0.96881297   -7.8636924    175.09627  0.020667642  0.021126828           10 
  707000   0.98710465   -7.8461287    175.12544  0.020641848  0.021110196            7 
  708000   0.97064487   -7.7980672    175.50394  0.020657244  0.021093582            6 
  709000   0.98225518   -7.8062059    175.51505  0.020629413  0.021077159            5 
  710000   0.98160108   -7.8071743    175.20598  0.020564082  0.021060921            2 
  711000   0.95419216   -7.8310128    175.96804  0.020624478   0.02104456            2 
  712000   0.98088589   -7.8605074    175.64738   0.02055798  0.021028543            4 
  713000   0.97054039   -7.8277828    176.10607  0.020582757  0.021012464            8 
  714000   0.98530484   -7.8631156    175.73764  0.020510929  0.020996367            3 
  715000   0.96904864   -7.8466141     175.7155  0.020479662  0.020980056            2 
  716000   0.95724912   -7.8449092    176.49869  0.020542213  0.020963925            4 
  717000    0.9619361   -7.8471683    176.71049  0.020538178  0.020947889            2 
  718000   0.97163997   -7.8570478    176.80732  0.020520813  0.020931672            3 
  719000   0.97491397   -7.8714895    176.17629  0.020419134  0.020915294            4 
  720000   0.98462558   -7.8408487    176.68363  0.020449494  0.020898782           11 
  721000    0.9954882   -7.8273339    177.36582   0.02049998  0.020882454            6 
  722000    0.9522052   -7.8557463    176.55603   0.02037812  0.020866185            4 
  723000   0.96625765   -7.8457029    176.81026  0.020379237  0.020849683            3 
  724000    0.9595475   -7.8580044     177.1962  0.020395511  0.020833374            8 
  725000   0.97072184   -7.8596346    177.59786  0.020413547  0.020817032            4 
  726000   0.96235917   -7.8771285    177.01474  0.020318496  0.020800819            8 
  727000   0.97517794   -7.8947525    177.67489  0.020366218  0.020784727            3 
  728000    0.9800404   -7.8490967    178.09971  0.020386871  0.020768829           11 
  729000    0.9840384   -7.8384015    177.90321  0.020336444  0.020752838           11 
  730000   0.97085845   -7.8502177    178.53433  0.020380631  0.020736744            6 
  731000   0.94911958   -7.8794517     177.9117  0.020281772  0.020720653            4 
  732000   0.96692669   -7.8981605    178.01946  0.020266332  0.020704352            6 
  733000   0.98820399    -7.862868    178.48907  0.020292073  0.020687951            5 
  734000   0.96740608   -7.8916079    178.30659  0.020243709  0.020671681            4 
  735000    0.9845937   -7.8511603     178.4056  0.020227392  0.020655505            5 
  736000   0.95274668   -7.8542068    178.56566  0.020218033  0.020639252            3 
  737000   0.98309771   -7.8778499     178.5981  0.020194268  0.020622988            9 
  738000   0.95949551   -7.8693508     178.6005  0.020167174  0.020606818            7 
  739000   0.96066285   -7.8611286    178.92508  0.020176486  0.020590677            5 
  740000   0.96312296   -7.8780201    179.59346  0.020224489  0.020574608           14 
  741000   0.95545216   -7.8573449    179.00235  0.020130718  0.020558672            4 
  742000   0.94594319   -7.8906198    179.18369  0.020123954  0.020542705            2 
  743000   0.96493092    -7.864499    179.57342  0.020140581  0.020526686            3 
  744000   0.96885786   -7.9110519    179.46449  0.020101309  0.020510722            5 
  745000    0.9355849   -7.8755281    179.59642  0.020089085  0.020494769            3 
  746000   0.95483133   -7.8774976    179.82899  0.020088136  0.020478964            3 
  747000   0.94873602   -7.8903397    180.03149  0.020083835  0.020463069            3 
  748000   0.95933803   -7.8853798    180.37302  0.020095034  0.020447164            7 
  749000   0.96277952   -7.8877191    179.20739  0.019938517  0.020431044            5 
  750000   0.95999671   -7.8829946    180.44209  0.020049121  0.020414804            3 
  751000   0.95249137   -7.8370724    180.83266  0.020065763  0.020399047            3 
  752000   0.95634154   -7.8271848    180.23069  0.019972373  0.020383119            5 
  753000    0.9605101   -7.8469718    180.69556  0.019997295  0.020367248            5 
  754000   0.94545232   -7.8817787    180.34007  0.019931484  0.020351353            3 
  755000   0.93890781   -7.8903732    180.83519  0.019959734  0.020335502            4 
  756000   0.95296349   -7.8936847    180.37602  0.019882719  0.020319338           10 
  757000   0.94400268   -7.8605767    180.69307  0.019891355  0.020303099            3 
  758000   0.93750775   -7.9063753     180.7529  0.019871691    0.0202867           11 
  759000   0.95229731   -7.8947322    181.27827  0.019903192  0.020270461            8 
  760000   0.93678201   -7.8652528     181.3359  0.019883323  0.020254165            5 
  761000   0.94513016   -7.8801299    181.37342  0.019861303  0.020237989            2 
  762000   0.95349431   -7.9017154    181.27942  0.019824958  0.020221981            3 
  763000   0.95650786   -7.8951021    180.92809  0.019760604  0.020205612            6 
  764000   0.96054129   -7.9105296    180.96923  0.019739227   0.02018911            7 
  765000   0.95751537   -7.8968642     181.3016   0.01974963  0.020172702            8 
  766000   0.94919099   -7.8817035    181.58848  0.019755057  0.020156214            4 
  767000   0.94997907   -7.8548593     182.1374   0.01978894  0.020139924            2 
  768000   0.94752672   -7.8695238    182.15153  0.019764706   0.02012381            4 
  769000   0.96751457    -7.894299    182.14971  0.019738807  0.020107754            2 
  770000   0.93708019    -7.874185     182.4485  0.019745509  0.020091856           10 
  771000   0.96146432   -7.8996021    182.94293  0.019773339   0.02007584            4 
  772000   0.94737809   -7.9313646     181.9591  0.019641526  0.020059899            3 
  773000   0.93104251    -7.877177    182.39003  0.019662573  0.020043947            5 
  774000   0.94968099   -7.8571249    182.09349  0.019605242  0.020027919            6 
  775000   0.92441934   -7.8702291    183.32136  0.019711974  0.020011871            2 
  776000    0.9397856   -7.9017689    182.88103  0.019639286  0.019995946            7 
  777000   0.94599519   -7.8646441    183.34059  0.019663298  0.019979949            5 
  778000   0.93599655   -7.9018026    183.28882  0.019632478  0.019964111            5 
  779000   0.93318477   -7.9072085    183.52277  0.019632303  0.019948433            8 
  780000   0.94642934   -7.9396778    183.05065  0.019556694  0.019932602            9 
  781000   0.93367715   -7.9389166    182.91199  0.019516858  0.019916613           14 
  782000   0.94625625   -7.9171934    182.92302  0.019493076  0.019900726            6 
  783000     0.935292   -7.9262599    184.20331  0.019604439  0.019884876            2 
  784000   0.95894137   -7.9639658    183.22694  0.019475652  0.019868917            9 
  785000   0.92764915   -7.9140984    183.95995  0.019528658  0.019853063            3 
  786000   0.95484987   -7.9290884    184.35934  0.019546156  0.019837293            3 
  787000   0.95197765   -7.9504246    184.16075  0.019500291  0.019821352            4 
  788000   0.95771793   -7.9375253    184.39559  0.019500379  0.019805577            3 
  789000   0.94643499   -7.8915803    184.88627   0.01952749  0.019789844            3 
  790000   0.91608034   -7.9073652    184.35652   0.01944689  0.019774128            3 
  791000   0.94692086   -7.9458885    184.41703   0.01942868  0.019758384            9 
  792000   0.94013918   -7.8975625    184.27563   0.01938927  0.019742466            4 
  793000   0.91765137   -7.9175708    184.66229  0.019405452  0.019726529            3 
  794000   0.95271745   -7.9335514    184.51904  0.019365978  0.019710535            3 
  795000    0.9323527   -7.9298345    184.35003  0.019323902  0.019694403            3 
  796000   0.95256482    -7.931412    184.58719  0.019324454  0.019678269            3 
  797000   0.92419502   -7.9000334    184.62339  0.019303993  0.019662175            6 
  798000    0.9470883   -7.9196536    184.55809  0.019272984  0.019646092            2 
  799000   0.93565814   -7.9286964    184.89341  0.019283835  0.019629999           11 
  800000    0.9473903   -7.9326173    184.82645  0.019252755  0.019613872            5 
  801000   0.93855596   -7.9630475     184.2876  0.019172659  0.019597577           12 
  802000   0.94285921    -7.971093    183.88395  0.019106811  0.019581093            6 
  803000   0.94473167   -7.9695582    184.28898   0.01912505  0.019564647            4 
  804000   0.94862455     -7.95463    184.49052  0.019122152  0.019548147            5 
  805000    0.9277729   -7.9798535    184.24637  0.019073123  0.019531427           12 
  806000   0.92664669   -7.9371349    184.44637  0.019070137  0.019514668            7 
  807000   0.94073324   -7.9641287    184.54546  0.019056739  0.019498093            7 
  808000   0.91194418   -7.9528596     184.7922  0.019058601  0.019481445           13 
  809000   0.93681896   -7.9730515    184.31297  0.018985679  0.019464694            4 
  810000   0.92620594   -7.9445601    184.84906  0.019017393  0.019447977            3 
  811000   0.94612832   -7.9754584    184.98776  0.019008195  0.019431345            7 
  812000   0.90390906   -7.9161121     185.2821  0.019014994  0.019414775           11 
  813000   0.94206155   -7.9799688     185.4942  0.019013346  0.019398265            4 
  814000   0.91910218   -7.9780042    185.07286  0.018946853  0.019381623            1 
  815000    0.9332823   -7.9734073    185.31585  0.018948451  0.019364926            3 
  816000   0.92593357   -7.9357546    185.26957  0.018920504  0.019348298            2 
  817000   0.92594119   -7.9692612    184.65352  0.018834509  0.019331535            8 
  818000   0.91366366   -7.9776368    185.06382  0.018853282  0.019314748            4 
  819000   0.91589939   -7.9771453    185.61741  0.018886591  0.019298133            4 
  820000   0.91197075   -7.9187123    185.63895  0.018865747  0.019281658            4 
  821000   0.94543529   -7.9510071    186.26975  0.018906796  0.019265295            7 
  822000    0.9339081   -7.9683646    186.16381  0.018873054  0.019248859            8 
  823000   0.92620248   -7.9763601    185.79886  0.018813169  0.019232172           10 
  824000    0.9240342   -7.9560494    185.75294  0.018785694  0.019215395           11 
  825000   0.92536284   -7.9771959    185.66783  0.018754326  0.019198697           12 
  826000   0.93348563   -7.9748727    185.77793  0.018742729   0.01918197           12 
  827000   0.91196733   -7.9784461    186.28694  0.018771356   0.01916528           13 
  828000   0.91921121   -7.9901752    186.28122   0.01874811  0.019148525           11 
  829000   0.91656229   -8.0004893    185.65006  0.018662048  0.019131969            5 
  830000   0.90450121   -7.9831389     186.2204  0.018696828  0.019115362            8 
  831000   0.92771425    -8.009593    186.33166  0.018685485  0.019098715            9 
  832000   0.90935181   -7.9634559    186.72182  0.018702105  0.019082174           11 
  833000   0.92749066   -7.9560366    187.26439  0.018733933  0.019065575            2 
  834000   0.91823446    -7.966362    186.92756  0.018677814  0.019048997            5 
  835000   0.92330318   -7.9428814    186.85416   0.01864812  0.019032415            6 
  836000    0.9194509   -7.9889403    186.59015  0.018599497  0.019015863            6 
  837000   0.91715618   -7.9901645    186.92593  0.018610706  0.018998984            4 
  838000   0.90745542   -8.0179556    186.46052  0.018542215   0.01898217            8 
  839000   0.94258888   -8.0033402    186.70857  0.018544753  0.018965239            6 
  840000    0.9108718   -7.9903407    187.06736   0.01855827  0.018948415            3 
  841000   0.93725088   -7.9660369    187.63147  0.018592099  0.018931819            4 
  842000   0.91798318   -7.9794382    187.58304  0.018565225  0.018915276            5 
  843000   0.92022478   -7.9665425    186.94723   0.01848035  0.018898664            5 
  844000   0.90805618   -7.9783217    187.42129  0.018505261  0.018882097            2 
  845000   0.91880362   -7.9746855    187.52563  0.018493652  0.018865581            2 
  846000   0.92771456   -8.0066202    187.53298  0.018472515  0.018849057            6 
  847000   0.93305353   -8.0250131    187.24951  0.018422817  0.018832407            6 
  848000   0.90780353   -8.0145437    187.33225  0.018409223  0.018815832            4 
  849000   0.90668154   -7.9981996    187.34286  0.018388581  0.018799334            4 
  850000   0.91378244   -7.9727608    188.04713  0.018435993  0.018782958            7 
  851000   0.93196379   -7.9946815    187.39949   0.01835091  0.018766514            6 
  852000   0.91449854   -7.9900501    187.84994  0.018373429  0.018749954            6 
  853000   0.91955969   -8.0127966    187.91062  0.018357818  0.018733493            5 
  854000   0.90880549    -7.998346    188.43487  0.018387477  0.018717047            5 
  855000   0.91839323   -7.9967653    188.28568  0.018351431  0.018700508           10 
  856000   0.93056919   -7.9678315    188.78713  0.018378809  0.018684035            4 
  857000   0.92009267   -8.0350847    188.16719  0.018297082  0.018667682            5 
  858000   0.89956902   -7.9818375    188.49031   0.01830714  0.018651343           15 
  859000    0.9062935   -7.9825103    188.16406  0.018254177  0.018634986            7 
  860000   0.91487089   -8.0312781    188.28458  0.018244629  0.018618434            8 
  861000   0.90496204   -8.0132693     188.6093  0.018254868  0.018601982            7 
  862000   0.89244783   -8.0177652    188.41795  0.018215192  0.018585616            8 
  863000   0.94309415   -8.0095857    188.50643  0.018202629  0.018569172            5 
  864000   0.92247825   -8.0050674    189.18162  0.018246684   0.01855268           10 
  865000   0.92161814   -8.0180377    188.47121  0.018157149  0.018536241            4 
  866000   0.90847608   -8.0256266    188.61508  0.018150027  0.018519605            8 
  867000   0.90738683   -8.0283132    188.65926  0.018133339  0.018503154            4 
  868000   0.89489443   -8.0002172    189.09046  0.018153846  0.018486714            3 
  869000   0.89693952   -8.0197627    188.85453  0.018110331  0.018470192            5 
  870000   0.90719801   -8.0273308    188.85327  0.018089394  0.018453645            8 
  871000   0.92634771   -8.0185901    189.58991  0.018139104  0.018437253            4 
  872000   0.89404888    -8.031313    189.17877  0.018079011  0.018420996            6 
  873000   0.88143284   -8.0431793     188.9942  0.018040684   0.01840463            4 
  874000   0.89376799   -8.0392429    189.51231  0.018069442  0.018388257           11 
  875000   0.92544817   -8.0300165    189.57272  0.018054545  0.018371844           10 
  876000   0.90633268   -8.0189368    189.70644  0.018046656  0.018355446           10 
  877000   0.92540235   -8.0552143    189.51904   0.01800827  0.018339056           25 
  878000   0.91098742   -8.0450578    189.83155  0.018017421  0.018322737           18 
  879000   0.90995611   -8.0244592    189.56696  0.017971839  0.018306464           10 
  880000   0.90542673   -8.0714426    189.67913  0.017962039  0.018290133            4 
  881000   0.90103596   -8.0521734    189.74047  0.017947453  0.018273684           12 
  882000    0.9012104   -8.0300055    190.16676  0.017967381  0.018257337            8 
  883000   0.90451132   -7.9825598     190.5414   0.01798239  0.018241253           17 
  884000   0.91959903   -8.0271812    190.44505  0.017952964  0.018225263            6 
  885000   0.90153908   -8.0142381      190.447  0.017932862  0.018209251           12 
  886000   0.88346762   -8.0256214    190.46279  0.017914108  0.018193296           15 
  887000   0.88922191   -8.0476313     189.8811  0.017839261  0.018177252           38 
  888000   0.88357883   -8.0441194    190.64948   0.01789128  0.018161076            6 
  889000   0.90341951   -8.0252167    190.49355  0.017856538  0.018144998            5 
  890000   0.89260647   -8.0486742    190.24093  0.017812821  0.018128835            7 
  891000   0.91395634   -8.0346782    190.93698  0.017857929  0.018112669           17 
  892000   0.88615682   -8.0386092    190.60906  0.017807274  0.018096564            7 
  893000   0.90588843   -8.0499678    190.48735  0.017775975  0.018080436            6 
  894000   0.88742514   -8.0575509    190.73201  0.017778897  0.018064415           13 
  895000   0.90374476   -8.0789671    190.30247  0.017719038  0.018048206            4 
  896000   0.90982238    -8.062239    190.78731  0.017744356  0.018032022            8 
  897000   0.89421469   -8.0482977    190.84304  0.017729751  0.018015965            6 
  898000   0.90341349   -8.0657299    190.69286   0.01769607  0.017999959            3 
  899000   0.89253553   -8.0310237     191.3246  0.017734947  0.017983967            4 
  900000   0.90406223   -8.0795713    190.86301  0.017672501  0.017967934            4 
  901000   0.88764165   -8.0426651    191.34975  0.017697905  0.017951912            6 
  902000   0.88354451   -8.0553198    191.25811  0.017669818  0.017935939            8 
  903000   0.88875744   -8.0720428    191.20888  0.017645707   0.01791998            6 
  904000   0.89470591   -8.0512629    191.72026  0.017673328  0.017904011            5 
  905000    0.8738854   -8.0335626    191.43741  0.017627754  0.017888043            9 
  906000   0.88546124   -8.0160484       191.53  0.017616814  0.017872137            5 
  907000   0.90715666   -8.0553855    191.30141  0.017576388  0.017856252            3 
  908000   0.87182512   -8.0761036    191.02769  0.017531909  0.017840352            6 
  909000   0.89266877    -8.095741    191.70896  0.017575078  0.017824378            4 
  910000   0.87776851    -8.087432    191.76496  0.017560893  0.017808425            4 
  911000    0.8819951   -8.0747391    191.36113  0.017504677  0.017792479            3 
  912000   0.89321126   -8.0840525    192.06412  0.017549719  0.017776608            4 
  913000   0.89007363   -8.0641584    191.73601  0.017500549  0.017760632            3 
  914000   0.87789122   -8.0945756    191.57479  0.017466703  0.017744586            9 
  915000   0.87402521   -8.1169917    191.72387  0.017461191  0.017728654           10 
  916000   0.89471136    -8.044313    192.66568  0.017527809  0.017712847            5 
  917000   0.89624374   -8.0582161    192.39077  0.017483712  0.017697186            2 
  918000   0.88191739   -8.0653686    192.45241  0.017470262  0.017681545            2 
  919000   0.88474787   -8.0781201    192.57146  0.017462047  0.017665926            6 
  920000    0.8994743   -8.0613745    192.78145  0.017462088  0.017650339            4 
  921000   0.88139054   -8.0503126    193.12665  0.017474362  0.017634751            4 
  922000   0.87673792   -8.0941402    192.74187  0.017420632    0.0176191            4 
  923000   0.87558276   -8.0792125     192.6536  0.017393788  0.017603428            9 
  924000   0.88984758   -8.0858699    193.07562  0.017413025  0.017587756            6 
  925000   0.87680715   -8.0750967    193.02449  0.017389594  0.017572239            7 
  926000   0.90102412   -8.0515985    192.97947  0.017366763  0.017556686            5 
  927000   0.88857534   -8.0491327    193.46306  0.017391501  0.017541149            4 
  928000   0.88954113   -8.0720764    193.00086  0.017331255   0.01752558            7 
  929000   0.89433245   -8.0817499    193.27637  0.017337314  0.017510035            2 
  930000   0.89261325   -8.0772068    192.84256    0.0172798   0.01749448            6 
  931000   0.90066158   -8.0797884    193.30453   0.01730259  0.017479009           18 
  932000   0.86231148   -8.0617059    193.26497  0.017280487  0.017463395            5 
  933000   0.86716919   -8.1006825    193.03468  0.017241397  0.017447831            4 
  934000   0.89357639   -8.0813107    193.00643  0.017220417  0.017432258            5 
  935000   0.87092273   -8.0731847    193.36293  0.017233772  0.017416633            4 
  936000   0.87927771   -8.0827033    193.63819  0.017239867   0.01740105            5 
  937000   0.87911414   -8.1183481    193.18773  0.017181406  0.017385501            6 
  938000   0.88024341   -8.0880021    193.37816  0.017180007  0.017369941           16 
  939000   0.88663807   -8.0936121    193.35988  0.017160089  0.017354431            7 
  940000   0.87240069   -8.1218721    194.02298  0.017200619  0.017338867           18 
  941000   0.86116197   -8.1044225     193.3715  0.017124646  0.017323293            7 
  942000   0.86383775   -8.0850098    193.48117  0.017116168  0.017307712           15 
  943000   0.86927143   -8.1067071    193.85374  0.017130942  0.017292093            6 
  944000   0.87184934   -8.0817579    193.81914  0.017109741  0.017276524            5 
  945000   0.86407195   -8.1305904     193.2199  0.017038792  0.017260931            5 
  946000   0.85604513   -8.1454036    193.45784   0.01704174  0.017245283            5 
  947000   0.85366296    -8.126471    193.18975  0.017000154  0.017229672            4 
  948000   0.85939876   -8.1107482    193.87172   0.01704217  0.017214095            4 
  949000   0.86576903   -8.1352761    193.33754  0.016977304  0.017198468            4 
  950000   0.88894908   -8.1248112    194.06967  0.017023655  0.017182803            5 
  951000   0.85113348   -8.0768207    194.36976   0.01703205  0.017167201            4 
  952000   0.85178956   -8.1102646    194.06419  0.016987412  0.017151655            5 
  953000   0.87473479   -8.1339748    193.74984  0.016942098  0.017136031            9 
  954000   0.86712271   -8.0835441    193.95981  0.016942681  0.017120432            6 
  955000   0.88520355   -8.0961759    194.12906  0.016939709  0.017104866            6 
  956000   0.86101729   -8.1711636    193.60322  0.016876152  0.017089303            5 
  957000   0.85976307   -8.1296789    193.46986  0.016846906  0.017073674            9 
  958000   0.86012107   -8.1339977    193.81519  0.016859359  0.017058143            6 
  959000   0.85287909   -8.1274286    194.06823  0.016863767  0.017042537           16 
  960000   0.85725734   -8.1462391    194.14072  0.016852493  0.017026876           10 
  961000   0.87982232   -8.1460157    194.17313  0.016837767  0.017011221            8 
  962000   0.86168835   -8.1190811    193.68243  0.016777757  0.016995497           15 
  963000   0.87702171   -8.1241875    194.74939  0.016852665  0.016979906           12 
  964000    0.8559869   -8.1347405    194.56572  0.016819305   0.01696429            7 
  965000   0.87754509   -8.1690601    193.96374  0.016749891  0.016948658            7 
  966000   0.87862083   -8.1501961    194.07995  0.016742577  0.016933083           18 
  967000   0.86446094   -8.1608046    193.54702  0.016679336  0.016917506           32 
  968000   0.86280977   -8.1444861    194.93779  0.016781834  0.016901962           24 
  969000   0.84927295   -8.1677986    193.86693  0.016672423  0.016886496           23 
  970000   0.87652905   -8.1653555    194.47888  0.016707807  0.016870965           30 
  971000    0.8667839   -8.1139249    195.11378  0.016745089   0.01685555            6 
  972000    0.8577074   -8.1480763    194.93329  0.016712388  0.016840233           12 
  973000   0.85363302   -8.1600893    195.24683  0.016722065  0.016824895           23 
  974000    0.8538542   -8.1527387    194.66187  0.016654848   0.01680955           46 
  975000   0.88702733   -8.1523735    194.85127  0.016653954  0.016794229           29 
  976000   0.85885137   -8.1408508    195.06608  0.016655232  0.016778935           24 
  977000   0.86481414   -8.1435174    195.32513   0.01666028  0.016763633           44 
  978000   0.85429625   -8.1596549     194.7103  0.016590857  0.016748363           49 
  979000   0.86795286   -8.1244193     195.3607  0.016629273   0.01673311           26 
  980000   0.87175417   -8.1667732    195.00595  0.016582138  0.016717945           34 
  981000   0.85948986   -8.1516883    194.73672  0.016542365  0.016702693           15 
  982000   0.84428202   -8.1167089    195.69156  0.016606548  0.016687508           13 
  983000   0.87710595   -8.1574872    195.00511  0.016531461  0.016672383           10 
  984000   0.85213446    -8.168091    195.25046  0.016535439  0.016657249           10 
  985000   0.84613279   -8.1341206    195.53673  0.016542871  0.016642168            8 
  986000   0.87193506   -8.1576488    195.81263  0.016549411  0.016627126           20 
  987000   0.84758628   -8.1858624     195.5414  0.016509743  0.016612014           13 
  988000   0.84509213    -8.115414    196.02208  0.016533576  0.016596938           30 
  989000   0.84124677   -8.1921661    195.49376  0.016472343   0.01658183           20 
  990000    0.8647517   -8.1689376     195.7382  0.016476279  0.016566713           31 
  991000   0.84416806   -8.1832577    195.75237  0.016460845  0.016551633           14 
  992000   0.85088581   -8.1940327    195.89576  0.016456297  0.016536519           15 
  993000   0.85669623   -8.1776888    195.95158  0.016444409  0.016521436            5 
  994000   0.84760816   -8.1704471    196.55924  0.016478809  0.016506531           11 
  995000   0.84686842   -8.1483605     196.5623  0.016462504  0.016491597           23 
  996000   0.85584235   -8.1821922    195.91373  0.016391711  0.016476642           17 
  997000   0.84018106   -8.1662653     196.4138  0.016417068  0.016461678           17 
  998000    0.8565488   -8.1556155    196.23431   0.01638563  0.016446875           11 
  999000   0.85470717   -8.1626268    196.15345  0.016362483  0.016432027            9 
 1000000   0.84581407   -8.1537713    196.74534  0.016395445  0.016417154           14 
 1001000   0.85950037   -8.1960458    196.01718  0.016318447   0.01640228           12 
 1002000   0.84281455   -8.1952712    196.04797  0.016304722  0.016387332            7 
 1003000   0.86410378   -8.1880284    196.45656  0.016322413  0.016372412           15 
 1004000   0.85572731   -8.2077736    195.63781  0.016238198  0.016357389           12 
 1005000   0.85733132   -8.1910344    196.37964  0.016283552  0.016342443            8 
 1006000   0.86200676   -8.1936068    196.11832  0.016245719  0.016327427           14 
 1007000   0.83573985   -8.1822073    196.20017   0.01623636  0.016312478           10 
 1008000   0.85693398   -8.1866466    196.60072  0.016253367  0.016297538           15 
 1009000   0.84134001   -8.1842968     196.7356  0.016248398  0.016282628            5 
 1010000   0.84204147    -8.159409     196.4962  0.016212558  0.016267701           33 
 1011000    0.8326337   -8.2053789    196.68924  0.016212433  0.016252718           30 
 1012000   0.83981493   -8.1853525     196.9018  0.016213916  0.016237883           38 
 1013000   0.85383641   -8.1464195    196.88904  0.016196861  0.016223082           19 
 1014000   0.83814027   -8.1537633    197.16012  0.016203166  0.016208285           35 
 1015000   0.85724957   -8.1903001    196.19824   0.01610823  0.016193515           42 
 1016000   0.84335961   -8.1664712    197.02444  0.016160141  0.016178738           15 
 1017000    0.8530726   -8.1932504    196.92041  0.016135727  0.016163937           36 
 1018000   0.84170269    -8.174374    197.32808  0.016153248  0.016149129           20 
 1019000   0.85215571   -8.2089199    196.48883  0.016068762  0.016134247           28 
 1020000   0.85334398   -8.1902949    196.16833  0.016026824  0.016119372           42 
 1021000   0.82661916   -8.2131389    196.56314  0.016043351  0.016104485           21 
 1022000   0.86477152   -8.2242395    196.67459  0.016036741  0.016089611            7 
 1023000   0.82927388   -8.2062187    196.47986  0.016005202    0.0160748           21 
 1024000   0.84794061   -8.2023776    196.98263  0.016030488  0.016059937           47 
 1025000   0.83481999   -8.1888496      197.085  0.016023171  0.016045187           34 
 1026000   0.84656721   -8.2223536    196.91459  0.015993713  0.016030441            9 
 1027000   0.84863881   -8.2016161    196.97076  0.015982697  0.016015613            7 
 1028000   0.83656909     -8.19296    196.88924  0.015960542  0.016000793            9 
 1029000   0.83232434   -8.2189186    196.81085  0.015938683  0.015985917            7 
 1030000   0.84192011   -8.2423044    196.85954  0.015927147  0.015971061           10 
 1031000   0.84728347   -8.2192792    197.19158  0.015938537  0.015956283           17 
 1032000   0.84083202   -8.2102278    197.10541  0.015916135  0.015941424           13 
 1033000   0.82913569   -8.2192511    196.81528  0.015877322  0.015926676           14 
 1034000   0.83834111   -8.2066621    196.99114  0.015876139  0.015911866           21 
 1035000   0.85277026   -8.1927442    197.53408  0.015904515  0.015897026           12 
 1036000    0.8396774    -8.233491    197.27099  0.015868001  0.015882276            8 
 1037000   0.82390658   -8.1883994    197.37743  0.015861252  0.015867527            4 
 1038000   0.83357224   -8.2117815    197.67276  0.015869682  0.015852811           13 
 1039000   0.85248003   -8.1799623    197.57532  0.015846593  0.015838077           20 
 1040000   0.83869492    -8.181983    197.61024  0.015834154  0.015823459           12 
 1041000   0.83671864   -8.2262144    197.66925  0.015823667  0.015808719           11 
 1042000   0.84406449   -8.2151265    197.36085  0.015783817  0.015794012           15 
 1043000    0.8414209   -8.2404037    196.84358  0.015727356  0.015779251            9 
 1044000   0.83474858   -8.2308484    197.24759  0.015744539  0.015764556           19 
 1045000   0.85202903   -8.2559996    196.99381  0.015709235   0.01574975           15 
 1046000   0.83476784   -8.2574753    197.32311  0.015720452  0.015734932           10 
 1047000   0.83622203    -8.235397    197.05606  0.015684182   0.01572017           11 
 1048000   0.84887215    -8.253212     197.3709  0.015694251  0.015705463            5 
 1049000   0.83110025   -8.3029416    196.97624  0.015647938  0.015690779           14 
 1050000   0.83854453   -8.2516318    197.03888  0.015638007  0.015676045           19 
 1051000    0.8559488   -8.2584504    197.20813  0.015636547  0.015661323           13 
 1052000   0.84598858   -8.2857106    197.40853  0.015637558  0.015646619           10 
 1053000   0.84008608   -8.2322323    197.80033  0.015653714  0.015631988           11 
 1054000   0.84020464   -8.2604352    197.49867  0.015615012  0.015617318            5 
 1055000   0.82079398    -8.246824    197.63131  0.015610688  0.015602611            9 
 1056000   0.83064315   -8.2662523    197.77396  0.015607162  0.015587971            5 
 1057000   0.83726722   -8.2726141    197.57046  0.015576353  0.015573387            6 
 1058000   0.83333737   -8.2921284    197.89619  0.015587287  0.015558855           34 
 1059000   0.82380372   -8.2315416    198.23324   0.01559909  0.015544384           15 
 1060000   0.82955419   -8.2610008    198.02358  0.015567891  0.015529942            6 
 1061000   0.82622191   -8.2810647    197.64188  0.015523239  0.015515434           10 
 1062000   0.81774564   -8.3033074    197.84305  0.015524407  0.015500959            9 
 1063000   0.84073913   -8.2820857    197.93259  0.015516822  0.015486555           12 
 1064000   0.83290927   -8.2699216    197.92349  0.015501526   0.01547215            6 
 1065000   0.83469282    -8.244644    198.25701  0.015513068  0.015457772            9 
 1066000   0.84022631   -8.2643022     198.4308  0.015512101  0.015443396           14 
 1067000   0.81918878   -8.2578643    197.94534  0.015459649  0.015429057           11 
 1068000   0.82588509   -8.2574425    198.07006  0.015454905   0.01541475            9 
 1069000   0.82519913   -8.2716447    198.04275  0.015438318  0.015400457           17 
 1070000   0.81632592   -8.2637013      198.306  0.015444392  0.015386147           10 
 1071000   0.80566565   -8.2345879    198.52066  0.015446674  0.015371891           13 
 1072000   0.83253392    -8.249116    198.76616   0.01545135  0.015357756            9 
 1073000   0.82786235   -8.2759034    198.84604  0.015443153   0.01534363           15 
 1074000   0.81224577   -8.2707529    198.19756  0.015378458  0.015329359           22 
 1075000   0.81348234   -8.2891879     198.6747  0.015401139  0.015315137           15 
 1076000   0.83539747   -8.3156845    198.18257  0.015348712  0.015300838           13 
 1077000   0.82801745   -8.2817111    198.80272  0.015382445  0.015286644           10 
 1078000    0.8321079   -8.2631198    198.90887  0.015376381   0.01527249            7 
 1079000   0.83785955   -8.2847513    198.75615  0.015350336  0.015258372           15 
 1080000   0.82474225   -8.2438436    199.32368  0.015379914  0.015244367            9 
 1081000   0.80408567   -8.2812126    198.42772  0.015296618  0.015230301            7 
 1082000   0.81445426   -8.2218786     199.0024  0.015326741  0.015216292           11 
 1083000   0.82977883   -8.2560777    199.56334  0.015355751  0.015202367            7 
 1084000   0.82187831   -8.2835844     198.8851  0.015289445  0.015188418           11 
 1085000   0.82941822   -8.2630525     198.7306  0.015263487  0.015174486           10 
 1086000   0.81087582   -8.2715124    199.20228  0.015285627    0.0151605            6 
 1087000    0.8465726   -8.2757168     199.0833  0.015262442  0.015146524           16 
 1088000   0.82685489   -8.2317753    199.43585  0.015275417  0.015132577           14 
 1089000   0.80282347   -8.2958099    199.22873  0.015245541  0.015118689            8 
 1090000   0.81806398   -8.2714859    199.27268  0.015234914  0.015104805            7 
 1091000   0.81131931   -8.2733617    199.03266  0.015202617  0.015090977           10 
 1092000   0.81034468   -8.2387074    199.55232  0.015228351  0.015077165           14 
 1093000    0.8035437   -8.2581024    199.81023  0.015234083  0.015063404            7 
 1094000   0.82288194   -8.2513725    200.37844   0.01526344  0.015049702           13 
 1095000   0.81159353    -8.266591     200.0514  0.015224612   0.01503602           12 
 1096000   0.81583407    -8.268832    199.56158  0.015173478   0.01502229           11 
 1097000   0.82931072   -8.2883538     199.3882  0.015146475  0.015008515            9 
 1098000   0.83130218   -8.2862871    199.29332   0.01512548   0.01499472           15 
 1099000   0.81343067   -8.2847062    199.33028  0.015114519  0.014980902           10 
 1100000   0.79757192   -8.3219386    199.42169  0.015107704  0.014967081            6 
 1101000   0.80024618   -8.3238292    199.52457  0.015101769  0.014953324           13 
 1102000   0.79561919   -8.2846415    199.42985  0.015080902  0.014939535            9 
 1103000   0.81236276   -8.2748357     199.8058  0.015095633  0.014925727           24 
 1104000   0.80947899    -8.257975    199.74974  0.015077728  0.014911927            9 
 1105000   0.80004751   -8.2853867    199.45462  0.015041827  0.014898212           11 
 1106000   0.83402071   -8.2794703    199.50302  0.015031873   0.01488453           18 
 1107000   0.81482394   -8.2900178    199.44328  0.015013797  0.014870774            8 
 1108000   0.81944634   -8.2874595    199.81517  0.015028217  0.014856998           10 
 1109000    0.8160608   -8.2867191    199.66502  0.015003383  0.014843172           15 
 1110000   0.80539115   -8.3233726    199.31987  0.014963955  0.014829368           17 
 1111000   0.80718258   -8.3197075    199.17129  0.014939341  0.014815552           38 
 1112000   0.82892196   -8.3166901    199.68112  0.014964113  0.014801716           26 
 1113000   0.81003428   -8.3199079    199.51624  0.014938323  0.014787897           36 
 1114000   0.82219069   -8.3199595    199.41234  0.014917141  0.014774101           61 
 1115000   0.81801379   -8.3040795    199.32512  0.014897244  0.014760322           49 
 1116000   0.81546291   -8.3152001    199.72621  0.014913845  0.014746504           43 
 1117000   0.81153574   -8.3375952    199.72349   0.01490029  0.014732719           48 
 1118000   0.80924593   -8.3311271    200.02471  0.014909415  0.014718929           59 
 1119000   0.79035696   -8.3219605    199.61856  0.014865845  0.014705116           40 
 1120000   0.79461988   -8.3478906      199.625  0.014853051   0.01469138           47 
 1121000   0.79588099   -8.3151396    199.30774  0.014816216  0.014677716           48 
 1122000    0.8085177   -8.3561282    199.18947  0.014794227   0.01466398           28 
 1123000   0.79559185   -8.3363787    199.41772  0.014797991  0.014650191           34 
 1124000   0.80251933   -8.3291906    199.53822  0.014793759  0.014636477           70 
 1125000   0.80319091   -8.3234271    199.78557  0.014798931  0.014622808           45 
 1126000   0.78359956   -8.3581376    199.87541  0.014792437   0.01460915           69 
 1127000   0.80738893   -8.3371076    199.81675  0.014774974  0.014595471           57 
 1128000   0.81588909   -8.3111092     199.9954  0.014775074  0.014581838           68 
 1129000   0.78844931   -8.3447565     199.6511  0.014736574  0.014568196           81 
 1130000   0.79975899   -8.3111929    199.73816  0.014729953  0.014554558           87 
 1131000   0.80055552   -8.3438662    200.12761  0.014745624   0.01454098           94 
 1132000   0.79422579   -8.3570278    199.83841  0.014711308  0.014527364          107 
 1133000   0.81470658   -8.3460926    199.66929  0.014685885  0.014513713           79 
 1134000   0.80632088   -8.3487156    199.85535  0.014686607  0.014500032           87 
 1135000    0.8038496   -8.3754821    199.59576  0.014654608  0.014486451           84 
 1136000   0.81376927    -8.362921    199.66261  0.014646611  0.014472843           73 
 1137000   0.80709031   -8.3578977    199.45073  0.014618201  0.014459248           75 
 1138000   0.81265562   -8.3557813     199.6599  0.014620672  0.014445598           64 
 1139000   0.81556481   -8.3507525    200.07851  0.014638463  0.014431979           57 
 1140000   0.79491393   -8.3773534    199.75845  0.014602226  0.014418359          111 
 1141000   0.78889757   -8.3678212    199.27478  0.014554103  0.014404663          110 
 1142000   0.78178402   -8.3441863    199.61544  0.014566217  0.014391018           99 
 1143000   0.79256116   -8.3960181    200.13316  0.014591219  0.014377385          155 
 1144000   0.79653195   -8.3836724    199.40696  0.014525565  0.014363753          146 
 1145000   0.79320212   -8.3624718    199.37946  0.014510878  0.014350141          147 
 1146000   0.80479718   -8.3768696    199.43756   0.01450244  0.014336596          141 
 1147000   0.78649961   -8.3692166    199.50057  0.014494375  0.014323093          219 
 1148000   0.78237196    -8.377214    199.95962  0.014515071  0.014309586          180 
 1149000   0.79357482   -8.3580109    199.42863  0.014463928  0.014296055          173 
 1150000   0.78709219   -8.3537973    200.38673  0.014520777  0.014282524          195 
 1151000   0.79767838   -8.3579931    199.79225  0.014465121  0.014269007          183 
 1152000   0.78889056   -8.3360017     200.5557  0.014507791  0.014255555          210 
 1153000   0.78480641   -8.3932604    199.85309  0.014444427  0.014242099          229 
 1154000   0.79695952    -8.396123     199.5444  0.014409619   0.01422859          192 
 1155000   0.79844139   -8.3744814    200.16051  0.014441595  0.014215079          263 
 1156000   0.79228492   -8.3448063    199.75069  0.014399559  0.014201588          261 
 1157000     0.798426   -8.4217149    199.80182  0.014390797  0.014188059          276 
 1158000   0.78020792   -8.3845038    200.01605  0.014393786   0.01417458          296 
 1159000   0.79434711   -8.3954959     200.1073  0.014387928  0.014161094          287 
 1160000    0.7950227   -8.4101869    199.82562  0.014355289   0.01414761          288 
 1161000   0.79350074   -8.3982887    199.64207   0.01432975  0.014134134          322 
 1162000   0.77498473   -8.4286872      199.057  0.014275459  0.014120596          339 
 1163000   0.78724393    -8.415673    199.72149  0.014310797  0.014107076          370 
 1164000   0.78102528   -8.4345259    199.49305  0.014282149   0.01409361          379 
 1165000   0.78365809   -8.4161879    199.41656  0.014264418  0.014080186          400 
 1166000   0.79466873   -8.4000919    200.67979  0.014342467  0.014066787          403 
 1167000   0.79980979   -8.4474786     199.4148  0.014239846   0.01405332          415 
 1168000   0.80068879   -8.4233141     199.6102  0.014241595  0.014039851          432 
 1169000   0.79127368   -8.4545922    199.25043  0.014203766  0.014026355          444 
 1170000   0.79728383   -8.4483489    199.52394  0.014211107   0.01401284          483 
 1171000    0.7863792    -8.475176    199.54772  0.014200663  0.013999386          472 
 1172000   0.79523993   -8.4785259    199.29028  0.014170242  0.013985873          469 
 1173000   0.77647715   -8.4702119    199.21802  0.014153028  0.013972311          545 
 1174000    0.8099157    -8.462154    199.63206  0.014170362  0.013958794          453 
 1175000   0.78148875   -8.4617166    199.23922  0.014130441  0.013945292          536 
 1176000   0.79793241   -8.4955454    199.13854  0.014111291  0.013931795          517 
 1177000   0.78544576   -8.5295769    199.03137  0.014091714  0.013918282          620 
 1178000   0.79306952   -8.4838641    199.17477  0.014089896  0.013904741          588 
 1179000   0.80133475   -8.5122187    199.32033  0.014088234  0.013891231          640 
 1180000   0.75573297   -8.5110419    199.52424  0.014090695  0.013877776          631 
 1181000   0.77612459   -8.5293638    199.42526   0.01407178  0.013864235          693 
 1182000   0.78515294   -8.5242928    199.35756  0.014055101  0.013850674          691 
 1183000   0.79730458   -8.5197666    199.39567  0.014045905  0.013837166          732 
 1184000   0.78504252   -8.5131423    199.19246   0.01401974  0.013823656          707 
 1185000   0.77668052   -8.5347652    199.00505  0.013994729   0.01381015          759 
 1186000   0.77596927   -8.5422693    199.44161  0.014013604  0.013796725          751 
 1187000   0.77770107   -8.4937468    199.57038  0.014010838  0.013783236          798 
 1188000   0.78034946   -8.5264672    199.25129  0.013976662  0.013769808          801 
 1189000   0.79070119   -8.5551607    199.36752  0.013973053  0.013756327          879 
 1190000   0.77142705   -8.5658981    199.20813  0.013950149  0.013742825          856 
 1191000   0.76604539   -8.5400909    199.14009  0.013933676   0.01372928          919 
 1192000    0.7891198   -8.5794343    198.83564  0.013900702  0.013715773          971 
 1193000   0.80455144   -8.5530406    198.84439  0.013889661  0.013702234         1008 
 1194000   0.78069032   -8.5835057    198.51103  0.013854762  0.013688699         1038 
 1195000   0.79779481   -8.5984733    198.51786  0.013843644  0.013675139         1060 
 1196000   0.77340657   -8.5889204    198.96323  0.013863102  0.013661587         1089 
 1197000    0.7535579   -8.5680079    198.82166  0.013841664  0.013647973         1095 
 1198000   0.77935139   -8.5807621    198.78577  0.013827613   0.01363439         1074 
 1199000   0.76542638   -8.6023935    198.52649   0.01379806  0.013620834         1114 
 1200000   0.77178856   -8.6018262     198.1486  0.013760319  0.013607254         1201 
 1201000   0.79080477   -8.6079095    198.63413  0.013782552  0.013593641         1175 
 1202000   0.76331927   -8.6130397    198.34247  0.013750864  0.013580058         1204 
 1203000   0.77639311   -8.6024253    198.48554  0.013749345  0.013566453         1233 
 1204000   0.77292974   -8.6246287    197.90815  0.013697962  0.013552856         1350 
 1205000   0.78152626   -8.6438089     197.8369  0.013681667  0.013539177         1378 
 1206000   0.77648875   -8.6801396    197.80271   0.01366796  0.013525478         1421 
 1207000   0.78009794   -8.6657812    198.22541  0.013685819  0.013511781         1429 
 1208000   0.78843415   -8.6774934     198.0613  0.013663169  0.013498079         1406 
 1209000   0.76328259   -8.6975027    197.74311  0.013629936  0.013484344         1510 
 1210000   0.77436562   -8.6865703    197.80714  0.013623081  0.013470618         1494 
 1211000   0.76093153   -8.6576461    197.84965  0.013614757  0.013456877         1497 
 1212000   0.77510045   -8.7435839    197.37862  0.013571138  0.013443154         1686 
 1213000   0.76312099   -8.7363313    197.52335  0.013569892  0.013429386         1717 
 1214000   0.77318562   -8.7083546    197.89244   0.01358405  0.013415643         1728 
 1215000   0.78570051   -8.7356337    197.51168  0.013546754  0.013401896         1790 
 1216000   0.77754753   -8.7425738    197.52248  0.013536354   0.01338814         1782 
 1217000   0.76570706   -8.7398529    197.60224  0.013530693  0.013374328         1832 
 1218000   0.76657817   -8.7286547    197.40838  0.013506321  0.013360519         1817 
 1219000   0.76675758    -8.771948    197.00651  0.013467768  0.013346659         1858 
 1220000   0.77597533   -8.7685559    197.03365  0.013458583  0.013332875         1903 
 1221000    0.7754839   -8.7838629    197.01537  0.013446313  0.013319054         1962 
 1222000   0.76477616    -8.798791    196.94122  0.013430252  0.013305196         2006 
 1223000   0.75743897   -8.7944341    196.73128  0.013404966   0.01329134         2058 
 1224000   0.75921904   -8.8156238    196.66939  0.013389801  0.013277433         2112 
 1225000   0.76888621   -8.8125196    196.37066  0.013358548  0.013263503         2137 
 1226000    0.7553149   -8.8549187    195.98203  0.013321236  0.013249567         2249 
 1227000   0.76860699   -8.8497544    196.44507  0.013341827  0.013235616         2239 
 1228000    0.7694819   -8.8665839    196.55127   0.01333817  0.013221645         2379 
 1229000   0.75988091   -8.8995474    196.09939  0.013296677   0.01320763         2394 
 1230000   0.76442091   -8.8958499    195.82965  0.013267592  0.013193623         2476 
 1231000   0.77116632   -8.8941963    196.01697  0.013269494  0.013179588         2458 
 1232000   0.76291039   -8.9106766    196.21728  0.013272273  0.013165536         2503 
 1233000   0.76504453   -8.9020385    196.13093  0.013255673  0.013151479         2543 
 1234000   0.74517058   -8.9254491    196.31675  0.013257479  0.013137411         2607 
 1235000   0.75829086    -8.950171    195.70635  0.013205557  0.013123341         2599 
 1236000   0.75112261   -8.9666507    195.28726  0.013166617  0.013109273         2740 
 1237000   0.76316454   -8.9438889    195.88613  0.013196317   0.01309518         2716 
 1238000   0.77427915   -8.9753141    195.60133  0.013166487  0.013081025         2923 
 1239000   0.76486391   -8.9622789    195.43756  0.013144846  0.013066889         2867 
 1240000   0.77276108    -9.010454     194.9143  0.013099079   0.01305273         2930 
 1241000   0.75856801   -9.0223496    195.07915  0.013099593  0.013038566         3048 
 1242000   0.74521244   -9.0107537    195.22045  0.013098527  0.013024381         3073 
 1243000   0.75737109   -9.0372601    194.84508  0.013062824  0.013010174         3180 
 1244000   0.76288993   -9.0498054    194.70131  0.013042692  0.012995899         3235 
 1245000   0.77692835   -9.0523901    194.53786  0.013021276  0.012981655         3252 
 1246000    0.7490761   -9.0795586    194.67037  0.013019688  0.012967377         3256 
 1247000    0.7686536   -9.0853213    194.77225  0.013016055  0.012953073         3413 
 1248000   0.75642671    -9.051523    194.44355  0.012983677  0.012938781         3409 
 1249000    0.7611665   -9.1049081    194.07259  0.012948532  0.012924485         3431 
 1250000   0.75607985   -9.0849917    194.37512  0.012958341  0.012910193         3407 
 1251000   0.75465595   -9.1244924    194.16592  0.012934047  0.012895942         3420 
 1252000   0.74780765   -9.1067493    194.44476  0.012942276   0.01288168         3482 
 1253000   0.75756518   -9.1179512    194.04703  0.012905495  0.012867408         3477 
 1254000   0.74242658   -9.0957237    194.57774  0.012930472  0.012853146         3505 
 1255000   0.75589333   -9.1260564    194.29674   0.01290151  0.012838914         3461 
 1256000    0.7364255   -9.1271407    194.24297   0.01288767  0.012824672         3561 
 1257000    0.7486154   -9.1437983    194.10981   0.01286859  0.012810427         3538 
 1258000   0.75246745   -9.1525607     193.9372  0.012846926  0.012796204         3567 
 1259000   0.74024157   -9.1459786    193.74502  0.012824002  0.012781955         3570 
 1260000   0.75697955   -9.1659483    193.99059  0.012830065  0.012767743         3613 
 1261000   0.74405189   -9.1491782    193.81298  0.012808153  0.012753566         3563 
 1262000   0.74492376   -9.1501764     193.8692  0.012801717   0.01273941         3590 
 1263000   0.75272706   -9.1625389    194.12764  0.012808633  0.012725247         3634 
 1264000   0.75535666   -9.1615802    194.12725  0.012798474  0.012711107         3669 
 1265000   0.76306394   -9.1582252    193.63866   0.01275617  0.012696966         3620 
 1266000   0.75393569   -9.1586693    194.19475  0.012782698  0.012682825         3641 
 1267000   0.73582066   -9.1737278    193.57901  0.012732111  0.012668724         3673 
 1268000   0.74448381   -9.1515284    193.77092  0.012734682  0.012654607         3651 
 1269000   0.74933285    -9.174974    193.84993  0.012729835  0.012640491         3642 
 1270000   0.75497064   -9.1886999    193.29409  0.012683339  0.012626401         3628 
 1271000   0.75796253   -9.1892984    193.48468  0.012685856  0.012612311         3669 
 1272000   0.74039241   -9.2208073    193.76831  0.012694464  0.012598224         3705 
 1273000   0.72771488     -9.18111    193.54028  0.012669565  0.012584137         3662 
 1274000   0.75007833    -9.197388    193.57014  0.012661574  0.012570071         3690 
 1275000   0.72987086   -9.2163694    193.00184  0.012614499  0.012556018         3703 
 1276000    0.7476851     -9.22599    193.37298  0.012628852  0.012541953         3683 
 1277000   0.75920368   -9.2078462    193.56775  0.012631672  0.012527924         3704 
 1278000   0.75902261   -9.2146919    193.34797  0.012607457  0.012513895         3707 
 1279000    0.7429425   -9.1933754    193.42713  0.012602758  0.012499888         3711 
 1280000   0.76133408    -9.207183    193.43577  0.012593475  0.012485872         3710 
 1281000   0.74133162   -9.2156385    193.25046  0.012571588  0.012471881         3715 
 1282000   0.73539377   -9.2169135     193.1771  0.012557014  0.012457905         3713 
 1283000   0.73901639   -9.2162349    193.23064  0.012550704  0.012443954         3717 
 1284000   0.73872118   -9.2178181    193.17399  0.012537252  0.012430015         3701 
 1285000    0.7352473   -9.2062964    193.17181  0.012527354  0.012416081         3725 
 1286000   0.74051642   -9.2439852    193.15212  0.012516338   0.01240214         3768 
 1287000   0.74622929   -9.2211326     192.9949  0.012496432  0.012388217         3794 
 1288000   0.73789421   -9.2359083    193.32174  0.012507876  0.012374343         3782 
 1289000   0.71150021   -9.2273072    193.41051  0.012503912  0.012360453         3783 
 1290000   0.73099433   -9.2316933    193.31792  0.012488238  0.012346582         3761 
 1291000   0.72107435   -9.2270069    193.43254  0.012485963   0.01233272         3751 
 1292000   0.73750584   -9.2204676     193.5914  0.012486546  0.012318882         3778 
 1293000   0.74048701   -9.2529726    193.49238  0.012470506  0.012305072         3742 
 1294000   0.73650178   -9.2587678    193.00301  0.012429354  0.012291283         3786 
 1295000   0.73463769   -9.2401725    193.05317  0.012422984  0.012277499         3757 
 1296000   0.74675723   -9.2323533    193.26184  0.012426816   0.01226374         3802 
 1297000   0.74193258   -9.2246774    193.05038  0.012403648   0.01224999         3755 
 1298000   0.72022625   -9.2508514    193.24397  0.012406521  0.012236252         3784 
 1299000   0.72714038   -9.2818556    193.08924  0.012387044  0.012222512         3776 
 1300000   0.72425715   -9.2244233     193.2107  0.012385302  0.012208822         3779 
 1301000   0.73875248   -9.2456178    193.23592  0.012377397  0.012195115         3797 
 1302000   0.74429295   -9.2519193    193.11649  0.012360246  0.012181446         3776 
 1303000    0.7315074   -9.2674604    193.23846  0.012358561  0.012167786         3769 
 1304000   0.73751002   -9.2956921    193.10694  0.012340679  0.012154122         3772 
 1305000   0.73188239   -9.2670493    193.12754  0.012332537   0.01214048         3791 
 1306000   0.73319081     -9.25783    192.99068  0.012314362  0.012126882         3762 
 1307000   0.73291278   -9.2514546    193.04533  0.012308425  0.012113279         3784 
 1308000   0.72989414   -9.2675319    193.03161   0.01229814  0.012099676         3822 
 1309000   0.71624686   -9.2774437    193.00761  0.012287218  0.012086084         3772 
 1310000   0.72146529   -9.2725621    192.76817  0.012262606  0.012072521         3814 
 1311000   0.73050471   -9.2703956    193.10656  0.012274762  0.012058951         3796 
 1312000    0.7303875   -9.2917955    192.81453  0.012246858  0.012045421         3792 
 1313000   0.72490361   -9.2777757    193.00412  0.012249563  0.012031897         3833 
 1314000   0.71871043   -9.2911764    192.64466  0.012217444  0.012018398         3840 
 1315000    0.7244426     -9.26125    192.93029  0.012226254  0.012004883         3826 
 1316000   0.72014155   -9.2716933    192.59783  0.012195911  0.011991387         3815 
 1317000   0.74304218   -9.2959895    192.53559  0.012182713  0.011977935         3825 
 1318000   0.73644365   -9.2825585    192.88079  0.012195295  0.011964495         3814 
 1319000   0.72018087   -9.2821172    193.12999  0.012201794  0.011951051         3807 
 1320000   0.71059827     -9.29302    192.59966  0.012159069  0.011937628         3813 
 1321000   0.74305293   -9.2784572    192.72956   0.01215806  0.011924227         3822 
 1322000   0.73372472   -9.2671086     192.8921  0.012159109  0.011910832         3822 
 1323000   0.72048667   -9.2800016    193.14523  0.012165862  0.011897463         3832 
 1324000   0.73644885   -9.2814916    193.08849  0.012153103  0.011884125         3837 
 1325000   0.70650454   -9.2873885    193.00444  0.012138644  0.011870795         3850 
 1326000   0.73526401   -9.3009475    192.83473  0.012118824  0.011857471         3871 
 1327000   0.74484337   -9.2938453    192.90171  0.012113898   0.01184418         3879 
 1328000   0.72294501   -9.2861591    192.96409   0.01210869  0.011830897         3841 
 1329000   0.70768881   -9.3318955    192.41145  0.012064926  0.011817634         3863 
 1330000   0.71237474    -9.284312    192.49274  0.012060949   0.01180437         3859 
 1331000   0.72197962   -9.3404585    192.68949  0.012064205  0.011791125         3850 
 1332000   0.70242373   -9.3069761    192.55853  0.012046955  0.011777902         3863 
 1333000   0.71719388   -9.3183885    192.69568  0.012046492  0.011764691         3848 
 1334000   0.69915268   -9.3274089    192.51226  0.012026003  0.011751503         3839 
 1335000   0.71488957   -9.3233472    192.44364  0.012012711   0.01173832         3860 
 1336000   0.72510277    -9.326228    192.86763  0.012030166  0.011725154         3874 
 1337000   0.72470134   -9.3210845     192.6515  0.012007698  0.011712004         3847 
 1338000   0.71768616   -9.3104277    192.68247  0.012000652  0.011698858         3860 
 1339000   0.70978821   -9.3126159    192.57641  0.011985089  0.011685739         3847 
 1340000   0.70991487   -9.3314975    192.46096  0.011968965   0.01167264         3868 
 1341000   0.72271603    -9.319978    192.93157  0.011989285  0.011659537         3846 
 1342000   0.70856135   -9.3413282    192.40227  0.011947483  0.011646477         3854 
 1343000   0.74395166   -9.3137025    192.43373  0.011940539  0.011633423         3838 
 1344000   0.72260139   -9.3209843    192.09749  0.011910806  0.011620392         3876 
 1345000   0.72667503   -9.3136702    192.70548  0.011939621  0.011607383         3849 
 1346000   0.72083594   -9.3090766    192.69101  0.011929855   0.01159437         3886 
 1347000   0.70485582   -9.3401053    192.49987  0.011909173  0.011581378         3871 
 1348000   0.70437988   -9.3205438    192.27329  0.011886331  0.011568423         3870 
 1349000   0.71384418   -9.3365859    192.57975  0.011896451   0.01155547         3835 
 1350000   0.71412237   -9.3279598    192.38683   0.01187573  0.011542539         3850 
 1351000   0.70285269   -9.3463862    192.36489  0.011865586  0.011529609         3865 
 1352000   0.70354608   -9.3405893    192.17411  0.011845051  0.011516711         3834 
 1353000   0.71291831    -9.330949    192.21922  0.011839075  0.011503828         3854 
 1354000   0.70017018   -9.3340613    192.37042  0.011839637   0.01149097         3878 
 1355000   0.71594912   -9.3178356    192.39987   0.01183271   0.01147812         3849 
 1356000   0.70647924   -9.3281521     192.2882  0.011817121  0.011465298         3830 
 1357000   0.70618117   -9.3323492    192.48094  0.011820249  0.011452498         3852 
 1358000   0.71812674   -9.3262145    192.66056  0.011822568  0.011439702         3850 
 1359000   0.71054604   -9.3230732    192.46016  0.011801579  0.011426929         3853 
 1360000   0.71292315   -9.3304392    192.33308  0.011785115  0.011414151         3832 
 1361000   0.70241382   -9.3036305    192.94767  0.011814087   0.01140141         3789 
 1362000   0.70922824   -9.3337668    192.15946  0.011757186  0.011388679         3853 
 1363000   0.70556016   -9.3337466    192.72041  0.011782857  0.011375973         3857 
 1364000   0.70716715    -9.325695    192.44922  0.011757651   0.01136329         3817 
 1365000     0.720263   -9.3427683    192.10911  0.011728273  0.011350629         3845 
 1366000   0.72143402   -9.3515268    192.18489   0.01172431  0.011337984         3843 
 1367000   0.70824073   -9.3152135    192.60595  0.011741401  0.011325338         3842 
 1368000   0.71396875   -9.3361601     191.9703  0.011694097  0.011312718         3874 
 1369000   0.71076784   -9.3444573    192.03515  0.011689502  0.011300113         3838 
 1370000   0.70106679   -9.3143928    191.90069  0.011672791  0.011287519         3841 
 1371000   0.70325895   -9.3498192    191.95634   0.01166766  0.011274936         3857 
 1372000   0.70517664   -9.3453035    192.15069   0.01167096  0.011262389         3874 
 1373000   0.71891508   -9.3457747     192.3917  0.011677088  0.011249853         3870 
 1374000   0.70763079   -9.3655888    192.23011  0.011658789  0.011237324         3863 
 1375000   0.69483385   -9.3286591    192.66321  0.011676558  0.011224809         3842 
 1376000   0.69490304   -9.3644834    191.99248  0.011627451  0.011212313         3817 
 1377000    0.7069353   -9.3538693    192.26165  0.011635297  0.011199854         3833 
 1378000   0.71569091   -9.3561249    192.02554  0.011612575  0.011187401         3840 
 1379000   0.69802121     -9.35345    192.09965  0.011608632  0.011174957         3856 
 1380000   0.69608944   -9.3476567    192.21971   0.01160747  0.011162536         3842 
 1381000   0.70185106   -9.3234018    191.97915  0.011584549  0.011150124         3871 
 1382000   0.69925282   -9.3829936     192.3644  0.011599397  0.011137729         3862 
 1383000    0.6962137   -9.3560568    192.25416  0.011584367  0.011125349         3850 
 1384000   0.70275808   -9.3683567    191.83624  0.011550833  0.011112987         3867 
 1385000   0.69825584   -9.3289976    192.21984  0.011565574  0.011100655         3853 
 1386000    0.7058009   -9.3759129    192.30541  0.011562374  0.011088341         3870 
 1387000   0.72630191   -9.3603458     191.8138  0.011524501   0.01107604         3853 
 1388000   0.69782477   -9.3786383    191.92719  0.011523006  0.011063752         3866 
 1389000     0.699857   -9.3642696    192.19289  0.011530651  0.011051469         3849 
 1390000   0.70631367   -9.3651978    192.16546  0.011520711  0.011039203         3850 
 1391000   0.69406511   -9.3656664    192.18856  0.011513812  0.011026953         3861 
 1392000   0.71306993   -9.3706233    191.94639  0.011491044   0.01101472         3853 
 1393000   0.69983343    -9.371917      192.227  0.011499582  0.011002517         3848 
 1394000   0.70663137   -9.3470836    192.12882  0.011485463   0.01099032         3848 
 1395000   0.70843342    -9.351652    192.07788  0.011474186  0.010978144         3861 
 1396000   0.68364144   -9.3879509     192.0834  0.011466297  0.010965974         3862 
 1397000   0.69655641   -9.3767535     192.3275  0.011472649  0.010953831         3852 
 1398000   0.69602789   -9.3915373    191.94219  0.011441475  0.010941696         3893 
 1399000   0.70411601   -9.3803725    192.12946  0.011444452  0.010929593         3874 
 1400000   0.70412797   -9.3552321     191.9263  0.011424184  0.010917504         3865 
 1401000   0.69928246   -9.3655761    192.22006  0.011433503  0.010905418         3877 
 1402000   0.70180281   -9.3867316    191.80089  0.011400433  0.010893348         3890 
 1403000   0.70370591   -9.3762192    191.79502  0.011391959  0.010881282         3843 
 1404000   0.69714818   -9.3719244    192.08377  0.011400983  0.010869235         3867 
 1405000   0.70350599    -9.392634    191.81511  0.011376934  0.010857202         3867 
 1406000   0.69921609   -9.3862958    191.65903  0.011359592  0.010845186         3866 
 1407000   0.68383661   -9.3934949    191.89152  0.011365288   0.01083319         3865 
 1408000   0.69115824   -9.3595332    192.02546  0.011365143  0.010821215         3820 
 1409000   0.69881706   -9.3817332    191.22414  0.011309684  0.010809252         3843 
 1410000   0.68510939   -9.3858117    191.94778  0.011344432    0.0107973         3858 
 1411000   0.68125942   -9.4016054    191.92586  0.011335097  0.010785366         3826 
 1412000   0.68227303   -9.3833541    192.14139  0.011339789  0.010773455         3851 
 1413000   0.68703282   -9.3917276     191.6582  0.011303267  0.010761555         3840 
 1414000   0.68409516    -9.378448    191.71912  0.011298864  0.010749665         3836 
 1415000   0.68981626   -9.4056027    191.82205   0.01129694  0.010737804         3850 
 1416000     0.691345   -9.4166433    191.35515  0.011261485   0.01072597         3818 
 1417000   0.68235116   -9.4056149    191.81244   0.01128043  0.010714131         3825 
 1418000   0.69502183   -9.4238537    191.70994  0.011266451  0.010702318         3852 
 1419000   0.67234936   -9.3914396    191.96881  0.011273715  0.010690515         3853 
 1420000   0.68995915   -9.3773348    191.88384  0.011260789  0.010678729         3878 
 1421000   0.68749167   -9.3776291    192.13697  0.011267709  0.010666969         3859 
 1422000   0.67653732   -9.4032869    191.77329  0.011238472  0.010655217         3870 
 1423000    0.6852294    -9.399683    191.47283  0.011212979  0.010643484         3879 
 1424000   0.68477786   -9.3680753    191.70431  0.011218651  0.010631761         3861 
 1425000   0.69276706    -9.402466     191.9393   0.01122452  0.010620054         3861 
 1426000   0.68321194    -9.403864    192.03722  0.011222371  0.010608364         3859 
 1427000   0.67902872   -9.3983462    191.79414  0.011200312  0.010596695         3842 
 1428000    0.6887845   -9.3917266    191.73596  0.011189073  0.010585034         3846 
 1429000   0.67008889   -9.3741337    191.87776  0.011189512  0.010573384         3887 
 1430000   0.67894169   -9.3922735    191.75699   0.01117465  0.010561755         3847 
 1431000   0.68784832   -9.3711217    191.71524  0.011164409  0.010550146         3883 
 1432000   0.66669915   -9.4250097    191.46156  0.011141851  0.010538549         3877 
 1433000   0.67826721    -9.405967    191.75955  0.011151404  0.010526981         3874 
 1434000   0.69235222   -9.4072209    191.97148  0.011155944  0.010515428         3854 
 1435000   0.68351744   -9.3969988    191.69698  0.011132229  0.010503889         3866 
 1436000   0.68909988   -9.4066001    192.10516  0.011148164  0.010492368         3870 
 1437000   0.68036596   -9.3913361    191.95531  0.011131716  0.010480862         3877 
 1438000   0.68892584   -9.3929292    191.88782  0.011120064  0.010469369         3860 
 1439000   0.67419268   -9.4272006    191.76127  0.011105007  0.010457905         3837 
 1440000   0.66519105   -9.4023827    191.78704  0.011098787  0.010446451         3877 
 1441000   0.68530661    -9.407579    191.89566  0.011097366  0.010435011         3852 
 1442000   0.66788754   -9.3976116    191.50045  0.011066832  0.010423586         3881 
 1443000   0.66503873   -9.3995882    191.84722  0.011079188  0.010412173         3863 
 1444000   0.66883344   -9.3981729    191.82883  0.011070454  0.010400798         3849 
 1445000   0.68548332   -9.4006615    191.74885  0.011058181  0.010389435         3868 
 1446000   0.66946472   -9.4096857    191.81465  0.011054325  0.010378071         3866 
 1447000   0.67674424   -9.4306256    191.39458  0.011022494  0.010366717         3846 
 1448000   0.68532576   -9.4055962    191.41074  0.011015811  0.010355381         3856 
 1449000   0.68659079   -9.4379078    191.64615  0.011021748  0.010344064         3893 
 1450000    0.6641459   -9.4064912    191.88696  0.011027986  0.010332759         3870 
 1451000   0.66037147   -9.4071993    191.76477  0.011013369  0.010321454         3871 
 1452000   0.67145328   -9.4224177     191.3604  0.010982576  0.010310186         3884 
 1453000   0.67472369   -9.4436364    191.21078  0.010966436  0.010298928         3892 
 1454000   0.67130738   -9.4130207    191.51822  0.010976514  0.010287682         3893 
 1455000   0.65748674   -9.4117207    191.71615  0.010980307  0.010276462         3880 
 1456000   0.66718811   -9.4152513    191.97384  0.010987514  0.010265262         3845 
 1457000   0.66970251   -9.3993453    191.50213  0.010952993  0.010254079         3863 
 1458000   0.67145066   -9.4323191    191.92442  0.010969617  0.010242893         3869 
 1459000   0.67330622   -9.4200334    191.39986  0.010932137  0.010231719         3874 
 1460000   0.66597096    -9.422019    191.28232  0.010917941  0.010220579         3875 
 1461000   0.67467139   -9.4280942    191.37635  0.010915831  0.010209433         3852 
 1462000   0.67651069   -9.4289942    191.85829  0.010935835  0.010198318         3860 
 1463000   0.66859218   -9.4278068    191.32216  0.010897822  0.010187226         3861 
 1464000   0.66460536   -9.4078575    191.25184  0.010886375  0.010176128         3873 
 1465000   0.67655473   -9.4104018       191.55  0.010895904  0.010165063         3847 
 1466000   0.67389274   -9.4104169    191.53536   0.01088764  0.010154006         3854 
 1467000   0.66779478   -9.4299148    191.76831  0.010893451  0.010142969         3890 
 1468000   0.66688818   -9.4223035    191.48573  0.010869989  0.010131953         3871 
 1469000   0.69111525   -9.4220266    191.51576  0.010864293  0.010120943         3875 
 1470000    0.6658426   -9.4259276     191.6306  0.010863413  0.010109969         3851 
 1471000   0.66422439   -9.4296182    191.61244  0.010854999  0.010098991         3865 
 1472000   0.65347484   -9.4394501    191.44629  0.010838219  0.010088031         3877 
 1473000   0.64656066   -9.4243342    191.41786  0.010829252  0.010077087         3878 
 1474000   0.67160918   -9.4339067    191.86841  0.010847377  0.010066153         3873 
 1475000   0.67468609   -9.4102588    191.55728  0.010822445  0.010055258         3875 
 1476000    0.6678798   -9.4374655    191.39204  0.010805784  0.010044376         3863 
 1477000    0.6690062   -9.4132965    192.29944  0.010849664  0.010033495         3864 
 1478000   0.66899524   -9.4259488    191.46016  0.010795002  0.010022622         3839 
 1479000   0.65837424   -9.4486458    191.24742  0.010775717  0.010011768         3836 
 1480000   0.65812666   -9.4551232    191.21011  0.010766335  0.010000915         3859 
 1481000   0.65777027   -9.4327985    191.44046  0.010772027 0.0099900887         3851 
 1482000   0.67016261    -9.461811    191.10976  0.010746163 0.0099792672         3866 
 1483000   0.65513009   -9.4506099    191.17959  0.010742841 0.0099684697         3871 
 1484000   0.65625738   -9.4127327    191.47561  0.010752224 0.0099576772         3862 
 1485000   0.66003868   -9.4418394    191.55096  0.010749212 0.0099469114         3862 
 1486000   0.66435778   -9.4459882     191.2983  0.010727809 0.0099361519         3857 
 1487000   0.67814043   -9.4392318     191.6793  0.010741947 0.0099254172         3883 
 1488000   0.66295768   -9.4067323    191.45986  0.010722438 0.0099147028         3877 
 1489000   0.66712168   -9.4210995    191.52297  0.010718769 0.0099040046         3884 
 1490000   0.65630452   -9.4339458    192.13339  0.010745715 0.0098933113         3911 
 1491000   0.65890562   -9.4530244    191.66523  0.010712342 0.0098826393         3871 
 1492000   0.65710457   -9.4529547    191.74449   0.01070959 0.0098719717         3870 
 1493000   0.66400831    -9.425515    191.59985  0.010694343 0.0098613251         3866 
 1494000   0.65754381   -9.4579313    191.21024  0.010665453 0.0098506835         3884 
 1495000   0.66481961   -9.4478164    191.39097  0.010668393 0.0098400508         3889 
 1496000   0.65608017   -9.4442662    191.73522  0.010680438  0.009829437         3861 
 1497000   0.64389284   -9.4574415     191.4049  0.010654915 0.0098188385         3877 
 1498000   0.64757337    -9.435703    191.31708  0.010642917 0.0098082612         3864 
 1499000   0.64563712   -9.4419585    191.14907  0.010626477 0.0097976889         3882 
 1500000   0.66829891   -9.4474452    190.99352  0.010610751 0.0097871329         3883 
 1501000   0.65793768   -9.4592266    191.21871  0.010616184 0.0097765896         3872 
 1502000   0.65129354   -9.4510246    191.22525  0.010609479 0.0097660591         3860 
 1503000   0.65125117   -9.4655093    191.27853  0.010605374 0.0097555516         3858 
 1504000   0.66571639   -9.4776582    191.26558  0.010597605 0.0097450564         3865 
 1505000   0.64864425   -9.4630371    191.28624  0.010591708 0.0097345845         3845 
 1506000   0.64747455   -9.4479609    191.37491  0.010589581 0.0097241243         3847 
 1507000   0.65762797   -9.4415786    191.35362  0.010581377 0.0097136778         3864 
 1508000   0.65265082   -9.4677697    191.21466  0.010566681 0.0097032352         3860 
 1509000     0.646095   -9.4507268    191.36103  0.010567762 0.0096928157         3862 
 1510000    0.6415223   -9.4526373    191.28612  0.010556629 0.0096824041         3853 
 1511000   0.65617396   -9.4476206     190.6664  0.010515464 0.0096720091         3857 
 1512000   0.63916152   -9.4298055    191.30644  0.010543785 0.0096616268         3832 
 1513000   0.63625541   -9.4499368     191.3786  0.010540791 0.0096512551         3872 
 1514000   0.66161846   -9.4563038    191.27552  0.010528155 0.0096409064         3850 
 1515000   0.65737266   -9.4545005    191.19026  0.010516516 0.0096305714         3852 
 1516000   0.66789687   -9.4694864    190.99017   0.01049858 0.0096202455         3864 
 1517000   0.63798653   -9.4674708    191.37935  0.010513039  0.009609941         3870 
 1518000     0.639964   -9.4317252    191.42545  0.010508643 0.0095996524         3873 
 1519000    0.6345269   -9.4653442      191.162  0.010487273  0.009589365         3881 
 1520000   0.63157723   -9.4716175    191.15784  0.010480145 0.0095790944         3883 
 1521000   0.64716679   -9.4579752    191.18084  0.010474514 0.0095688331         3859 
 1522000    0.6532882   -9.4653912     191.3805  0.010478564 0.0095585872         3855 
 1523000   0.63927087   -9.4685487    190.73545  0.010436389 0.0095483503         3873 
 1524000   0.64976643   -9.4500783    191.09408  0.010449152 0.0095381352         3847 
 1525000   0.64618165   -9.4646739    191.55723  0.010467608 0.0095279524         3885 
 1526000   0.66157797   -9.4696311    191.15751  0.010438921 0.0095177775         3877 
 1527000   0.64470993   -9.4617623    191.09973  0.010428931  0.009507607         3862 
 1528000   0.65018391   -9.4512131    190.97224  0.010415153 0.0094974599         3863 
 1529000   0.64943777   -9.4535531    191.18287  0.010419821 0.0094873188         3853 
 1530000   0.64599301   -9.4734897    191.36021  0.010422669 0.0094771918         3845 
 1531000   0.64984376   -9.4543934    191.46767  0.010421711 0.0094670849         3863 
 1532000   0.64013768   -9.4664024    191.24022  0.010402536 0.0094569907         3880 
 1533000   0.63447787    -9.470671    191.10261   0.01038827 0.0094469081         3861 
 1534000   0.63602366   -9.4476664    191.01353  0.010376658 0.0094368326         3872 
 1535000   0.64769428   -9.4600253    191.12131   0.01037575 0.0094267739         3877 
 1536000   0.64401472   -9.4728103    191.00994  0.010362952 0.0094167275         3873 
 1537000   0.61972847   -9.4680226    191.22844  0.010368057 0.0094067108         3840 
 1538000   0.63448409   -9.4728047    191.05002  0.010351648 0.0093967082         3853 
 1539000   0.63360625   -9.4678518    191.41467  0.010364667 0.0093867119         3857 
 1540000   0.63977567   -9.4749991    191.04275  0.010337811 0.0093767402         3855 
 1541000   0.65344456   -9.4654819    191.07775  0.010332995 0.0093667707         3860 
 1542000   0.63286141   -9.4684177    190.92293  0.010317927 0.0093568076         3848 
 1543000   0.64739217   -9.4736076    191.30059  0.010331637 0.0093468686         3883 
 1544000   0.65379039    -9.471519    190.90822  0.010303768 0.0093369449         3879 
 1545000    0.6355471   -9.4644167    191.34513  0.010320665 0.0093270337         3850 
 1546000    0.6318619   -9.4869442    191.18328  0.010305265 0.0093171368         3854 
 1547000   0.62519474   -9.4769163    191.23469  0.010301373 0.0093072566         3847 
 1548000   0.63983361   -9.4883649    190.95213  0.010279508 0.0092973863         3870 
 1549000   0.63675181   -9.4791493    191.14271  0.010283124   0.00928752         3859 
 1550000   0.61633228   -9.4796533    191.18207  0.010278606 0.0092776704         3871 
 1551000   0.61599873   -9.4842748    191.28108  0.010277298 0.0092678326         3879 
 1552000   0.64418347   -9.4921749    191.03104  0.010257251 0.0092580091         3864 
 1553000   0.63876509   -9.4904858    191.34652  0.010267574 0.0092482074         3872 
 1554000   0.63163746    -9.489569    191.04469  0.010244782 0.0092384179         3875 
 1555000    0.6340697   -9.5150038    191.03976  0.010237929 0.0092286403         3876 
 1556000   0.64880342   -9.4842836    191.11088  0.010235159 0.0092188762         3860 
 1557000   0.61953388   -9.4791892    191.16051  0.010231241 0.0092091327         3870 
 1558000   0.63559893   -9.4857376    191.06282  0.010219449 0.0091994013         3891 
 1559000   0.64435465   -9.4677774    190.82181  0.010200011 0.0091896764         3842 
 1560000      0.63143   -9.5237129    190.99586   0.01020277  0.009179953         3869 
 1561000   0.62303755   -9.4704697    190.98599  0.010195707 0.0091702641         3866 
 1562000   0.61941054   -9.4968654    191.06995  0.010193659 0.0091605736         3882 
 1563000   0.64012257   -9.4737121    191.10347  0.010188924 0.0091508981         3854 
 1564000   0.62818587   -9.4970546    190.85821  0.010169342  0.009141232         3856 
 1565000   0.62877835   -9.4925811    190.90633  0.010165406 0.0091315862         3880 
 1566000   0.62237438   -9.5098644    190.65752  0.010145675 0.0091219534         3861 
 1567000    0.6081489   -9.5067449    190.78353  0.010145901 0.0091123252         3881 
 1568000   0.62656897   -9.5058663    190.75913  0.010138134 0.0091027114         3875 
 1569000   0.62089861   -9.5111114    190.77655  0.010132598 0.0090931146         3878 
 1570000   0.62202566   -9.4895841    190.82177  0.010128544  0.009083527         3891 
 1571000   0.62680937   -9.4919552    190.74266  0.010117901 0.0090739591         3869 
 1572000   0.61939477   -9.4939429    191.07284  0.010128967  0.009064403         3866 
 1573000   0.62759464   -9.5035111    190.75392  0.010105632 0.0090548612         3872 
 1574000   0.62984703   -9.4994489    191.02393  0.010113507 0.0090453347         3866 
 1575000    0.6213812   -9.5121051    190.85589  0.010098195 0.0090358128         3897 
 1576000   0.64421878   -9.5017169    190.60792  0.010078676 0.0090263081         3881 
 1577000   0.61673456   -9.5160081    190.60466  0.010072112 0.0090168066         3882 
 1578000    0.6382122   -9.5200946    190.72224  0.010071939 0.0090073169         3875 
 1579000   0.63559397   -9.5172291    190.90519  0.010075216 0.0089978444         3874 
 1580000   0.62590965   -9.5008113    190.61491  0.010053529 0.0089883802         3894 
 1581000   0.63152176   -9.5092983    190.84025  0.010059047 0.0089789346         3888 
 1582000   0.61730346   -9.5117682    190.92029  0.010056905 0.0089695005         3869 
 1583000   0.61350859   -9.4840796    190.89095  0.010049008 0.0089600897         3870 
 1584000   0.63321199   -9.5157841    190.93937  0.010045211   0.00895068         3878 
 1585000   0.62689838   -9.5085059    190.74844  0.010028835 0.0089412932         3878 
 1586000   0.61808066   -9.4970435    190.87472  0.010029146 0.0089319182         3893 
 1587000   0.62227485   -9.5072417    190.81258  0.010019564 0.0089225519         3877 
 1588000   0.61391619   -9.5042795     190.8619  0.010015843 0.0089132046         3876 
 1589000   0.63270073   -9.5174416    190.40644 0.0099856535 0.0089038656         3879 
 1590000   0.60850625   -9.5204844    190.67371 0.0099933811 0.0088945414         3873 
 1591000   0.61371384   -9.5022603    190.86299 0.0099970139 0.0088852362         3867 
 1592000   0.61472751   -9.4960557    190.49828 0.0099716435 0.0088759395         3871 
 1593000   0.61034086   -9.5184755    190.53514 0.0099673121 0.0088666516         3898 
 1594000   0.62754573   -9.5136752     190.8291  0.009976427  0.008857375         3903 
 1595000    0.6244534   -9.4946912    190.60946 0.0099586969   0.00884811         3889 
 1596000   0.62861655   -9.5232903    190.85894 0.0099654837 0.0088388572         3880 
 1597000   0.64042006   -9.5328882    190.79766 0.0099560457 0.0088296144         3895 
 1598000   0.62683502   -9.5006909    190.94004 0.0099572405 0.0088203909         3886 
 1599000   0.62398612   -9.5065331    190.67371 0.0099371333 0.0088111884         3862 
 1600000   0.60678422   -9.5110257    190.82541 0.0099388237 0.0088019821         3877 
 1601000   0.62529377   -9.5192006    190.57668 0.0099196689 0.0087927965         3876 
 1602000   0.61630884   -9.5118127     190.5822 0.0099137639 0.0087836178         3890 
 1603000   0.60942563   -9.5131691    190.67574 0.0099124425 0.0087744555         3886 
 1604000   0.61760965   -9.5374222    190.52953 0.0098986664 0.0087653062         3876 
 1605000   0.61118445   -9.5261581    190.46813  0.009889311 0.0087561713         3897 
 1606000   0.61249254   -9.5179551    190.67727 0.0098940054 0.0087470499         3881 
 1607000   0.62187899   -9.4969883    190.73332 0.0098907552 0.0087379419         3899 
 1608000   0.60437501   -9.5368899    190.53336 0.0098742412 0.0087288393         3882 
 1609000   0.61434426   -9.5395574    190.78955 0.0098813732 0.0087197444         3880 
 1610000   0.62530347   -9.5345233    189.90093 0.0098292409 0.0087106596         3880 
 1611000   0.60100636   -9.5367409    190.63717 0.0098612232 0.0087015836         3873 
 1612000   0.60756935   -9.5250886    190.51581  0.009848832 0.0086925256         3885 
 1613000   0.60082708   -9.5131452    190.67943 0.0098511795 0.0086834737         3888 
 1614000   0.59972081   -9.5270741    190.55314 0.0098385556 0.0086744338         3904 
 1615000   0.60677988   -9.5400966    190.69743 0.0098399084 0.0086654064         3886 
 1616000   0.60026486   -9.5417973    190.55798 0.0098266285 0.0086563883         3868 
 1617000   0.59657706   -9.5318135    190.52075 0.0098186328 0.0086473816         3881 
 1618000   0.59662468   -9.5096034    190.63286 0.0098183387 0.0086383858         3883 
 1619000   0.60549894   -9.5220907    190.42919 0.0098017909 0.0086294045         3891 
 1620000   0.60236455   -9.5217247    190.20532 0.0097842244 0.0086204398         3895 
 1621000   0.61524691   -9.5267096    190.47042 0.0097918166 0.0086114812         3884 
 1622000   0.61213273   -9.5402908    190.39333 0.0097818191 0.0086025495         3902 
 1623000   0.61579359   -9.5360315      190.443 0.0097783426 0.0085936165         3885 
 1624000   0.60775315   -9.5160501    190.52669 0.0097766157 0.0085846955         3893 
 1625000   0.60433527   -9.5392521    190.54396 0.0097714849 0.0085758002         3896 
 1626000   0.60801116   -9.5317773    190.46577 0.0097614682 0.0085669124         3896 
 1627000    0.6229401   -9.5369327    190.52171 0.0097583337 0.0085580317         3882 
 1628000   0.58990084   -9.5411345    190.67751 0.0097603146 0.0085491705         3890 
 1629000   0.59437999   -9.5562055    190.42071 0.0097411862 0.0085403101         3894 
 1630000   0.60075003   -9.5422206    190.19082 0.0097234572 0.0085314688         3891 
 1631000   0.60954862   -9.5577018    190.36477 0.0097263833 0.0085226477         3875 
 1632000   0.59759523    -9.518836     190.6888 0.0097369688 0.0085138262         3872 
 1633000   0.60307082   -9.5354911    190.36986 0.0097147306 0.0085050139         3873 
 1634000   0.59068663   -9.5324935    190.83065 0.0097322852  0.008496217         3889 
 1635000   0.61028483   -9.5375901     190.0154 0.0096847808 0.0084874382         3883 
 1636000   0.59344775   -9.5389538    190.31207 0.0096939724 0.0084786737         3879 
 1637000   0.58888274   -9.5444982    190.31241 0.0096880679 0.0084699128         3891 
 1638000   0.60383704    -9.531141    190.42673 0.0096879697 0.0084611762         3916 
 1639000   0.59481792   -9.5492744    190.37854 0.0096796087 0.0084524447         3880 
 1640000   0.59243502   -9.5412576       190.44 0.0096768294 0.0084437313         3884 
 1641000   0.60729676   -9.5384802    190.29473 0.0096635551 0.0084350267         3892 
 1642000   0.60829253   -9.5547475    190.44702 0.0096653989 0.0084263302         3890 
 1643000    0.5958784   -9.5528622    190.32212 0.0096531811 0.0084176467         3888 
 1644000   0.59319236   -9.5530403    190.25286 0.0096437985  0.008408977         3853 
 1645000   0.60065401   -9.5369755    190.18005 0.0096342478 0.0084003031         3888 
 1646000   0.59624251   -9.5391041    190.48188 0.0096436755 0.0083916395         3894 
 1647000   0.60131991   -9.5530194    190.27821 0.0096275151 0.0083830006         3880 
 1648000   0.59705823   -9.5567558    190.36822 0.0096262246 0.0083743773         3867 
 1649000   0.59837996   -9.5444795    190.64682 0.0096344663  0.008365774         3880 
 1650000   0.58109139   -9.5680092    190.20636  0.009606382  0.008357178         3888 
 1651000   0.58848351   -9.5606349    190.23614 0.0096020664 0.0083485842         3857 
 1652000   0.58324389   -9.5530727    190.45044 0.0096070643 0.0083400038         3870 
 1653000   0.59182669   -9.5641043    190.31207 0.0095942766  0.008331435         3876 
 1654000   0.59367634   -9.5469309    190.47933  0.009596903 0.0083228781         3889 
 1655000   0.59280092   -9.5744003    190.12554 0.0095732899 0.0083143288         3879 
 1656000   0.60587187   -9.5580311    190.03306 0.0095628554 0.0083057924         3906 
 1657000   0.59615575   -9.5716784    190.51187 0.0095811645 0.0082972714         3864 
 1658000   0.58895987   -9.5600365    190.34629 0.0095670633  0.008288765         3886 
 1659000   0.59819811   -9.5372347    190.48628 0.0095683285 0.0082802733         3865 
 1660000   0.58755509   -9.5635563     190.6122 0.0095688855 0.0082717866         3874 
 1661000   0.60766526   -9.5555313    190.15375  0.009540124 0.0082633105         3866 
 1662000   0.58311316   -9.5459879    190.36861 0.0095451571 0.0082548431         3889 
 1663000   0.59671865   -9.5458775    190.19504 0.0095307198 0.0082463891         3877 
 1664000   0.57248136   -9.5547794    190.59308  0.009544926 0.0082379448         3884 
 1665000   0.59972171   -9.5671558    190.13262 0.0095161473 0.0082295131         3903 
 1666000   0.59575399   -9.5625826    190.36083 0.0095218504 0.0082210926         3871 
 1667000   0.57491277   -9.5621289    190.06242  0.009501221 0.0082126844         3893 
 1668000   0.58779488   -9.5622504    190.19559 0.0095021776 0.0082042874         3885 
 1669000   0.58766042    -9.592742    190.11333 0.0094923774 0.0081958958         3892 
 1670000   0.59219002    -9.540375    190.45093 0.0095035394 0.0081875138         3882 
 1671000   0.58579347   -9.5728766    189.91703 0.0094712261 0.0081791464         3890 
 1672000   0.59428792   -9.5713273    190.20364 0.0094798466 0.0081707819         3901 
 1673000   0.58405221   -9.5743496    189.83691 0.0094559132 0.0081624287         3887 
 1674000   0.57933996   -9.5764153    189.93586 0.0094551902 0.0081540828         3894 
 1675000   0.58356067   -9.5677082    190.21259  0.009463313 0.0081457533         3887 
 1676000   0.58455102   -9.5648206    190.10775 0.0094524539 0.0081374257         3892 
 1677000   0.57608287   -9.5755382    190.23555 0.0094531679 0.0081291147         3894 
 1678000   0.58312244   -9.5607964    190.51991 0.0094616561 0.0081208232         3901 
 1679000   0.57056713   -9.5715473    190.04184 0.0094322928 0.0081125373         3886 
 1680000    0.5939204   -9.5958326    190.22354 0.0094356913 0.0081042645         3883 
 1681000   0.57178087   -9.5788782    190.20298  0.009429059 0.0080959981         3889 
 1682000   0.59477528   -9.5750554    190.12733 0.0094197053 0.0080877505         3887 
 1683000   0.58154817   -9.5696025    190.02432 0.0094090075   0.00807951         3884 
 1684000   0.59559878   -9.5583581    190.18207 0.0094112269 0.0080712887         3889 
 1685000   0.57920159   -9.5557043    189.85786 0.0093896074 0.0080630744         3896 
 1686000   0.56609116   -9.5655923    189.82092 0.0093822124 0.0080548682         3879 
 1687000   0.57015365   -9.5504209    190.15096 0.0093929538 0.0080466755         3893 
 1688000   0.58419065   -9.5793497    189.93853 0.0093769022 0.0080385012         3880 
 1689000   0.57274412   -9.5883943    189.77644 0.0093633532 0.0080303242         3890 
 1690000   0.58376045   -9.5804626    190.11099 0.0093743091 0.0080221634         3888 
 1691000   0.59432731   -9.5840494    189.88163 0.0093574626 0.0080140126         3887 
 1692000   0.57962501   -9.5869444    189.78703  0.009347273 0.0080058711         3872 
 1693000   0.60783937   -9.5896085    190.08202 0.0093562717 0.0079977454         3887 
 1694000   0.58110782   -9.5823682    190.24466 0.0093587495 0.0079896331         3888 
 1695000   0.57304998   -9.5814081    189.83696 0.0093331841  0.007981526         3901 
 1696000   0.57460748   -9.6056369    189.85697 0.0093286642 0.0079734312         3893 
 1697000   0.57923446   -9.6058639    190.29578  0.009344715 0.0079653492         3906 
 1698000   0.58838887   -9.5881544    190.26374 0.0093376395  0.007957276         3898 
 1699000   0.57351921    -9.594001    189.98064 0.0093182579 0.0079492124         3900 
 1700000   0.58018662   -9.5894703    190.08409 0.0093178478 0.0079411661         3903 
 1701000   0.57648152   -9.5826932    190.04416 0.0093104133 0.0079331387         3896 
 1702000   0.57229279   -9.5881539    190.14938 0.0093100948 0.0079251101         3902 
 1703000   0.58646451   -9.5831196    190.39766 0.0093167772 0.0079171008         3890 
 1704000    0.5630744   -9.5879737    190.20051 0.0093016681 0.0079091025         3906 
 1705000   0.57454308   -9.6035051    189.95826 0.0092843725 0.0079011092         3888 
 1706000   0.56388238   -9.5936728    190.05462 0.0092836374  0.007893128         3898 
 1707000   0.56787789   -9.5822535    189.78824 0.0092651941 0.0078851598         3872 
 1708000   0.56274329   -9.5816838    189.96919 0.0092685981 0.0078771979         3904 
 1709000   0.58507305   -9.6049064    190.03929 0.0092665932 0.0078692488         3905 
 1710000   0.57616422   -9.5803261    190.24383 0.0092711419 0.0078613156         3907 
 1711000   0.57910743   -9.5834199    189.78474 0.0092433637 0.0078533867         3872 
 1712000   0.57810484   -9.6131849    189.88467 0.0092428287 0.0078454706         3916 
 1713000   0.57186791   -9.6051187    189.88762 0.0092375762 0.0078375697         3885 
 1714000   0.56529106   -9.6043105    189.56001 0.0092162585 0.0078296726         3881 
 1715000   0.56565109   -9.5933313    189.94334  0.009229511 0.0078217815         3875 
 1716000   0.57019071   -9.6057226     189.8177 0.0092180314 0.0078138992         3901 
 1717000   0.56883868   -9.5901196    190.26649 0.0092344444 0.0078060365         3878 
 1718000   0.57583565   -9.6056349    189.67884 0.0092005645 0.0077981808         3893 
 1719000   0.57722601   -9.5924571    189.76074 0.0091991829 0.0077903343         3888 
 1720000   0.57353458   -9.5860343    189.54125 0.0091832002 0.0077825014         3887 
 1721000   0.56992885   -9.6107897    189.83477 0.0091920767 0.0077746815         3903 
 1722000   0.57521624   -9.5804596    190.00719 0.0091950826 0.0077668648         3906 
 1723000   0.56754923   -9.5918948    189.85999 0.0091826268  0.007759065         3896 
 1724000   0.56773452   -9.6161999    189.42733 0.0091563866 0.0077512686         3917 
 1725000   0.57518699   -9.6128442    190.01272 0.0091793584 0.0077434837         3895 
 1726000   0.57132474   -9.6031231    189.64865 0.0091564624 0.0077357103         3888 
 1727000   0.57408621   -9.5984137    189.69577  0.009153434 0.0077279456         3863 
 1728000   0.57220216   -9.5984413    190.05167 0.0091653006  0.007720199         3889 
 1729000   0.56393767   -9.6179964    189.62875  0.009139616 0.0077124554         3896 
 1730000   0.56040545   -9.6200825    189.53737 0.0091299312 0.0077047226         3902 
 1731000   0.57582862    -9.605142    189.56162 0.0091258243 0.0076969996         3906 
 1732000    0.5522659   -9.5864749    189.68748 0.0091266108 0.0076892916         3880 
 1733000   0.55309354   -9.6205589    189.75758 0.0091247154 0.0076815907         3919 
 1734000   0.55096177     -9.60271     189.8434 0.0091235774 0.0076738953         3884 
 1735000   0.56783983   -9.6020037    190.01599 0.0091266083 0.0076662128         3889 
 1736000    0.5618585   -9.5972328    189.94793  0.009118084 0.0076585456         3902 
 1737000   0.55854716   -9.6092208    189.48737 0.0090907394 0.0076508917         3891 
 1738000   0.56237064   -9.6099854    189.68355 0.0090949152 0.0076432414         3898 
 1739000   0.57037469   -9.6023684    189.52908 0.0090822828 0.0076355947         3882 
 1740000   0.57091383   -9.6269526    189.50891 0.0090760973 0.0076279548         3908 
 1741000   0.55459336   -9.6154459    189.59695 0.0090750982 0.0076203267         3927 
 1742000   0.55701262   -9.6058054    189.78807 0.0090790311 0.0076127133         3890 
 1743000    0.5683688   -9.5990686    189.83219 0.0090759319 0.0076051144         3896 
 1744000   0.56189062   -9.6108667    189.66884 0.0090629222 0.0075975278         3908 
 1745000   0.55788679   -9.6250615     189.6735 0.0090579514 0.0075899538         3898 
 1746000   0.55729313   -9.6202245      189.785 0.0090580851 0.0075823805         3910 
 1747000   0.54987587   -9.6047207    189.68473 0.0090481171 0.0075748165         3899 
 1748000    0.5496182   -9.6241371    189.78759 0.0090478445 0.0075672667         3893 
 1749000   0.55940146   -9.6316535    189.70697 0.0090388304  0.007559732         3893 
 1750000   0.57187256   -9.6350783    189.62211 0.0090296245 0.0075522015         3900 
 1751000   0.55824611   -9.6230756    189.92123 0.0090387032 0.0075446758         3895 
 1752000   0.55925376   -9.6047667    189.81595 0.0090285366 0.0075371629         3916 
 1753000   0.54813215   -9.6133043    189.20627 0.0089944032  0.007529665         3898 
 1754000   0.55723423   -9.6272797    189.68929  0.009012224 0.0075221758         3896 
 1755000   0.55221144   -9.6274042    189.57719 0.0090017657 0.0075147022         3893 
 1756000    0.5405168   -9.6123416    189.79531  0.009006991  0.007507237         3887 
 1757000   0.55199864   -9.6203911    189.75421  0.008999915 0.0074997743         3894 
 1758000   0.54903922   -9.6264678    189.56695 0.0089859189 0.0074923276         3899 
 1759000    0.5448838   -9.6245412    189.64157 0.0089843457 0.0074848904         3886 
 1760000   0.55846192   -9.6330718    189.31307 0.0089636871 0.0074774616         3910 
 1761000    0.5320672   -9.6151818    189.74743 0.0089791516 0.0074700494         3907 
 1762000   0.54805821   -9.6447278    189.49813 0.0089622651 0.0074626441         3913 
 1763000   0.53374422   -9.6224001    189.62291 0.0089630794 0.0074552466         3901 
 1764000   0.54470873   -9.6219672    189.62678 0.0089581814 0.0074478567         3874 
 1765000   0.54615402     -9.63571    189.58905 0.0089513243 0.0074404807         3906 
 1766000   0.54057294   -9.6411745    189.46925 0.0089406025  0.007433111         3912 
 1767000    0.5323859   -9.6261705    189.49701  0.008936852 0.0074257456         3916 
 1768000   0.54231128   -9.6206082    189.70939 0.0089418076 0.0074183955         3909 
 1769000   0.54145122    -9.621068    189.44134 0.0089241259 0.0074110482         3895 
 1770000   0.55512872   -9.6157985    189.59614 0.0089263719 0.0074037198         3884 
 1771000   0.54945451   -9.6263325    189.76934 0.0089294814 0.0073963989         3894 
 1772000    0.5436359   -9.6227246    189.57254 0.0089151874 0.0073890821         3907 
 1773000   0.53838664   -9.6290877    189.64589 0.0089136062 0.0073817818         3917 
 1774000   0.53867176     -9.62621     189.6463 0.0089086011 0.0073744882         3899 
 1775000   0.54527153   -9.6458242    189.44537  0.008894149 0.0073672022         3921 
 1776000   0.54378745   -9.6206146    189.75863 0.0089038397 0.0073599313         3890 
 1777000   0.53804383    -9.628641    189.63146 0.0088928653 0.0073526687         3926 
 1778000   0.54321895   -9.6360085    189.61257 0.0088869783 0.0073454145         3900 
 1779000   0.55279086   -9.6333892    189.65261 0.0088838585  0.007338165         3907 
 1780000   0.54630553   -9.6336675    189.72511 0.0088822618 0.0073309277         3896 
 1781000    0.5354153   -9.6459474     189.5007 0.0088667745 0.0073236969         3899 
 1782000   0.55394141   -9.6345092    189.36063 0.0088552483 0.0073164766         3898 
 1783000   0.53843493   -9.6319526    189.48345 0.0088560223 0.0073092677         3899 
 1784000   0.54689697   -9.6401156    189.28006 0.0088415573 0.0073020697         3915 
 1785000   0.53812406   -9.6602146     189.3913 0.0088417972 0.0072948741         3888 
 1786000   0.53711031   -9.6488953    189.69706 0.0088511131 0.0072876947         3918 
 1787000   0.53924591   -9.6579618    189.29518 0.0088274192  0.007280521         3921 
 1788000   0.53667471    -9.639566    189.62884 0.0088380333 0.0072733632         3899 
 1789000   0.52917922   -9.6303529    189.45104  0.008824811 0.0072662139         3891 
 1790000   0.54298361    -9.641744    189.21208 0.0088087559 0.0072590744         3887 
 1791000   0.53869796   -9.6438156    189.19347 0.0088029717 0.0072519452         3903 
 1792000   0.54192609   -9.6540359    189.61582 0.0088177001 0.0072448328         3903 
 1793000   0.54161578   -9.6350689    189.48828 0.0088068545  0.007237719         3922 
 1794000   0.54369473   -9.6469102     189.4424  0.008799814 0.0072306185         3899 
 1795000   0.53314817   -9.6331817     189.5722 0.0088009379 0.0072235272         3913 
 1796000   0.53636648   -9.6475344    189.39947 0.0087880231 0.0072164402         3918 
 1797000   0.52695969   -9.6597255    189.03045 0.0087660198 0.0072093619         3910 
 1798000   0.53476963   -9.6560954    189.33128 0.0087750872 0.0072022955         3897 
 1799000   0.54416711   -9.6464786    189.17728 0.0087630758 0.0071952369         3908 
 1800000   0.54201037   -9.6503785    189.51341 0.0087737691 0.0071881917         3899 
 1801000   0.53126487    -9.633482    189.31945  0.008759923 0.0071811529         3919 
 1802000   0.53583582   -9.6448371    189.49206 0.0087630439 0.0071741288         3922 
 1803000   0.52953919   -9.6489434    189.31237 0.0087498784 0.0071671075         3904 
 1804000   0.52925542   -9.6482553    189.81001 0.0087680159 0.0071600979         3901 
 1805000   0.52318541   -9.6596119    189.39128 0.0087438266 0.0071530918         3899 
 1806000   0.52990894   -9.6585735    189.59186 0.0087482401 0.0071460992         3914 
 1807000   0.52287552   -9.6466323    189.24617 0.0087274565  0.007139114         3903 
 1808000   0.53262575   -9.6460811    189.39643 0.0087295552  0.007132136         3908 
 1809000   0.53522711   -9.6363881    189.62259 0.0087351478 0.0071251762         3911 
 1810000   0.53109754   -9.6403653    189.35715  0.008718101 0.0071182228         3911 
 1811000    0.5261577   -9.6292363    189.41216 0.0087158183 0.0071112757         3911 
 1812000   0.52441922   -9.6611162    189.32967 0.0087072145 0.0071043385         3909 
 1813000   0.51711893   -9.6468657    189.11601 0.0086925908 0.0070974105         3892 
 1814000    0.5142456   -9.6588272     189.2056 0.0086919149 0.0070904875         3901 
 1815000   0.52011462   -9.6713443    189.52657 0.0087018628 0.0070835775         3913 
 1816000   0.53703442   -9.6376183    189.24674 0.0086842299 0.0070766803         3898 
 1817000    0.5178027   -9.6514802    189.25778 0.0086799568 0.0070697877         3890 
 1818000   0.53617356   -9.6510052     189.1396 0.0086697655 0.0070629064         3900 
 1819000   0.52475556   -9.6728629    189.33721 0.0086740522 0.0070560367         3919 
 1820000   0.52258547    -9.669089    189.22779  0.008664276 0.0070491737         3904 
 1821000   0.53091313   -9.6516912    189.38026 0.0086664954 0.0070423197         3899 
 1822000    0.5294986   -9.6645838    189.22381 0.0086545832 0.0070354747         3917 
 1823000    0.5082103   -9.6591852    189.17225  0.008647479 0.0070286333         3917 
 1824000   0.52317933   -9.6753583    189.18308 0.0086432328 0.0070218038         3898 
 1825000   0.52704846    -9.668905    189.57028 0.0086561773 0.0070149826         3892 
 1826000   0.52191051   -9.6634033     189.0432 0.0086273822 0.0070081725         3893 
 1827000   0.53037332   -9.6640855    188.79582 0.0086113765 0.0070013771         3914 
 1828000   0.52219123   -9.6690738     189.2355 0.0086267094 0.0069945844         3885 
 1829000   0.52722196   -9.6900101    189.17682 0.0086193192 0.0069878051         3907 
 1830000   0.51842325   -9.6815293    189.23296 0.0086171658 0.0069810336         3904 
 1831000   0.53160531   -9.6634503    189.22684 0.0086121811 0.0069742678         3886 
 1832000   0.52762762   -9.6713419    189.47766  0.008618889 0.0069675093         3894 
 1833000   0.52947067   -9.6785583    189.21696 0.0086023352 0.0069607618         3883 
 1834000   0.51793866   -9.6614455    189.28549 0.0086007585 0.0069540224         3908 
 1835000   0.52816495   -9.6578871     189.2525 0.0085945733 0.0069472946         3923 
 1836000   0.51726634   -9.6723374    189.37988 0.0085956736 0.0069405785         3921 
 1837000    0.5217171   -9.6621958    189.16363 0.0085811846 0.0069338702         3922 
 1838000   0.49960402   -9.6729619    188.87348 0.0085633606   0.00692717         3903 
 1839000   0.52586494   -9.6707321    189.17186 0.0085722251 0.0069204768         3912 
 1840000   0.51430757   -9.6774124    189.12517 0.0085654514 0.0069137907         3915 
 1841000   0.52359864     -9.67662    189.04533 0.0085571849 0.0069071123         3906 
 1842000   0.51712009   -9.6818189    189.03339  0.008551999 0.0069004516         3897 
 1843000    0.5175766   -9.6777215    189.06787 0.0085489178  0.006893798         3896 
 1844000   0.50745815   -9.6579053    189.25552 0.0085527619 0.0068871461         3897 
 1845000   0.52637196   -9.6690536    189.12195 0.0085420934 0.0068805018         3889 
 1846000   0.50960369   -9.6740455    189.19592 0.0085408053 0.0068738787         3895 
 1847000   0.51570238   -9.6835382    189.19884 0.0085363132 0.0068672553         3904 
 1848000    0.5173915   -9.6529303    189.09959  0.008527218 0.0068606386         3884 
 1849000   0.52912908   -9.6743951    189.00741 0.0085184518 0.0068540344         3894 
 1850000   0.52101141   -9.6665116    189.18753 0.0085219607 0.0068474356         3900 
 1851000   0.51120808   -9.6812825    189.16746 0.0085164531 0.0068408462         3926 
 1852000    0.5132837   -9.6780748    189.04598 0.0085063886 0.0068342648         3924 
 1853000   0.50850859   -9.6690157    189.34585 0.0085152836 0.0068276956         3929 
 1854000    0.5154951   -9.6684218    189.06876 0.0084982361 0.0068211321         3903 
 1855000   0.50754414   -9.6646707    188.99129 0.0084901748 0.0068145773         3914 
 1856000   0.50729706   -9.6671677     188.9759 0.0084849094 0.0068080292         3916 
 1857000   0.51889476   -9.6907391    188.87556 0.0084758373 0.0068014987         3911 
 1858000   0.50584566    -9.684473    189.05164  0.008479173 0.0067949676         3919 
 1859000   0.51185808   -9.6829037     189.3114 0.0084862558 0.0067884499         3911 
 1860000   0.51832187   -9.6812096    189.00481 0.0084679575 0.0067819411         3909 
 1861000   0.50502318   -9.6803863    188.91446 0.0084593612 0.0067754361         3899 
 1862000   0.50592082   -9.6895271    189.25706 0.0084701512   0.00676894         3917 
 1863000   0.50861157   -9.6830685    189.02107 0.0084550488 0.0067624612         3894 
 1864000   0.50672074   -9.6886406    188.54784  0.008429356  0.006755981         3907 
 1865000   0.51900571   -9.6873442    189.01778 0.0084458345 0.0067495093         3900 
 1866000   0.51596627   -9.7007519    188.88023 0.0084351659 0.0067430446         3899 
 1867000   0.51846296   -9.6886306    188.77924 0.0084261398  0.006736597         3907 
 1868000   0.49869652   -9.6861491    189.17244 0.0084391701 0.0067301527         3913 
 1869000   0.50417971   -9.6775699    189.14038 0.0084332255 0.0067237207         3906 
 1870000   0.49088303   -9.6841664    189.21022  0.008431828 0.0067172958         3911 
 1871000   0.51875712   -9.7039235    188.87112 0.0084122182 0.0067108787         3917 
 1872000   0.50941088   -9.6957124    188.68548 0.0083994606 0.0067044685         3916 
 1873000   0.51324181   -9.6961937    189.03007 0.0084103072  0.006698065         3901 
 1874000   0.51778157   -9.7052672    189.02603 0.0084056398 0.0066916745         3903 
 1875000   0.50727292    -9.676718     188.9902 0.0083995644 0.0066852937         3924 
 1876000   0.50042186   -9.6975527    189.16616 0.0084029032 0.0066789219         3903 
 1877000   0.50273648   -9.7174802    188.89307  0.008386302 0.0066725545         3925 
 1878000   0.49872453   -9.7037828    189.14296 0.0083929253 0.0066661938         3893 
 1879000   0.50870703   -9.6922057    189.15076 0.0083888043 0.0066598401         3930 
 1880000   0.51249488   -9.6911757    189.00175 0.0083777372 0.0066534934         3918 
 1881000   0.50769755   -9.6996526    188.93763 0.0083704427 0.0066471604         3920 
 1882000    0.5001254   -9.7129775    188.94405 0.0083662793 0.0066408324         3915 
 1883000   0.49420928   -9.7141018    189.04914 0.0083664868 0.0066345135         3911 
 1884000   0.50402115   -9.7010221    188.66804 0.0083451892 0.0066282042         3897 
 1885000    0.5048764   -9.7020481    188.98711  0.008354868 0.0066219012         3906 
 1886000   0.50363078   -9.7068559     188.9203  0.008347486 0.0066156051         3912 
 1887000   0.50091041   -9.7098668    189.00698 0.0083468902  0.006609321         3907 
 1888000    0.5031305   -9.7059846    189.22954 0.0083522925 0.0066030434         3912 
 1889000   0.49544788   -9.6906368    189.15506 0.0083445853 0.0065967669         3912 
 1890000   0.48930447   -9.7036316    189.01446 0.0083339707 0.0065905047         3933 
 1891000   0.50353755    -9.685192    189.23792 0.0083394114 0.0065842532         3904 
 1892000   0.50155296    -9.701935    188.70519 0.0083115393 0.0065780088         3925 
 1893000   0.49195341   -9.7018738    189.04739  0.008322213  0.006571768         3910 
 1894000   0.50409392    -9.698764    188.61274 0.0082986948 0.0065655387         3910 
 1895000   0.48512309   -9.6985069     188.9978 0.0083112491 0.0065593158         3900 
 1896000     0.489138   -9.6890783    188.96673 0.0083054999 0.0065531005         3907 
 1897000   0.49907682   -9.7166471    189.18418 0.0083106739 0.0065468923         3903 
 1898000   0.50911677   -9.6900215    188.68808 0.0082845133 0.0065406924         3903 
 1899000   0.48997081   -9.6995845    188.77584 0.0082840023 0.0065345024         3916 
 1900000    0.4871956   -9.7160849    189.02006 0.0082903535 0.0065283176         3905 
 1901000   0.49661833   -9.7163841    188.79738 0.0082762311 0.0065221429         3915 
 1902000   0.49453904   -9.7146091    189.07779 0.0082841653 0.0065159709         3892 
 1903000   0.49205893   -9.7075586      188.747 0.0082653268 0.0065098108         3922 
 1904000    0.4970204   -9.7132099    188.80625 0.0082635787  0.006503655         3898 
 1905000   0.50043191    -9.701069    188.98176 0.0082669186 0.0064975106         3913 
 1906000   0.48854717   -9.6988465    188.97973 0.0082624924 0.0064913721         3898 
 1907000   0.50187135   -9.7126731    188.94881 0.0082568086 0.0064852419         3924 
 1908000   0.49964726   -9.7129299    188.86389 0.0082487722 0.0064791219         3908 
 1909000   0.49620115   -9.7170718    188.97469  0.008249288 0.0064730044         3915 
 1910000   0.48352828   -9.7126698     189.0546 0.0082484554 0.0064669011         3915 
 1911000   0.47938612   -9.7175047    188.73281  0.008230107 0.0064608015         3919 
 1912000   0.49638707   -9.7020691    188.87175  0.008231858 0.0064547099         3923 
 1913000   0.49764729   -9.7243386    188.69476 0.0082198448 0.0064486246         3905 
 1914000   0.48752713    -9.704484    188.92704 0.0082256636 0.0064425523         3902 
 1915000    0.4801121   -9.7141519    188.84475  0.008217787 0.0064364848         3923 
 1916000   0.48556376   -9.7352647    188.63307 0.0082042916 0.0064304249         3911 
 1917000   0.49863768   -9.7135615    188.90999 0.0082120497  0.006424376         3922 
 1918000   0.49224246    -9.725478    188.77199 0.0082017722 0.0064183312         3908 
 1919000   0.48464705    -9.730642     188.7399 0.0081961048 0.0064122982         3917 
 1920000   0.47824656   -9.7250938    188.75199 0.0081923608 0.0064062673         3904 
 1921000   0.48821908   -9.7221995    188.22384 0.0081651847 0.0064002461         3923 
 1922000   0.48536445   -9.7219364    188.80328 0.0081860598 0.0063942354         3917 
 1923000   0.48921347   -9.7307223    188.76688 0.0081802253 0.0063882276         3914 
 1924000   0.49216431   -9.7160564    189.01248 0.0081866112 0.0063822306         3905 
 1925000   0.49471686     -9.71293     188.8198 0.0081740174 0.0063762406         3930 
 1926000   0.48117352   -9.7200599    188.68817 0.0081640781 0.0063702619         3910 
 1927000   0.48287461   -9.7268692    188.91967 0.0081698527 0.0063642865         3910 
 1928000   0.47907184   -9.7154927    188.70818  0.008156474 0.0063583222         3893 
 1929000   0.48773791   -9.7139826    188.90308 0.0081606651  0.006352362         3904 
 1930000    0.4789537   -9.7240959    188.85634 0.0081544189 0.0063464107         3918 
 1931000   0.48361218   -9.7153143    188.75066 0.0081456355 0.0063404685         3923 
 1932000    0.4852746   -9.7251927    188.48566 0.0081299886 0.0063345287         3930 
 1933000   0.48747336    -9.723367    188.83825 0.0081409833 0.0063286026         3910 
 1934000   0.47363379   -9.7167259    188.83007 0.0081364213 0.0063226816         3899 
 1935000   0.48345433    -9.714525     188.4761 0.0081169723 0.0063167665         3906 
 1936000   0.48366572    -9.732412     188.7077 0.0081227488 0.0063108578         3899 
 1937000   0.48211317   -9.7280473    188.90552 0.0081270659 0.0063049589         3912 
 1938000   0.48629804   -9.7000937    188.62483 0.0081108028 0.0062990674         3913 
 1939000   0.48921862   -9.7333626    188.84845 0.0081162303 0.0062931853         3927 
 1940000   0.48364746   -9.7327977    188.43641 0.0080943475 0.0062873095         3905 
 1941000    0.4819907   -9.7254854    188.59963 0.0080971848 0.0062814406         3901 
 1942000   0.48857901   -9.7345401    188.67692  0.008096332  0.006275578         3909 
 1943000   0.47838256   -9.7485401    188.78941 0.0080969896 0.0062697256         3918 
 1944000   0.48560577   -9.7385502    188.77775 0.0080923245 0.0062638802         3924 
 1945000   0.47802426   -9.7328742    188.46092 0.0080745894 0.0062580425         3922 
 1946000   0.47394306   -9.7372935    188.43124 0.0080691693 0.0062522088         3902 
 1947000   0.47083807   -9.7342029    188.76839 0.0080794552 0.0062463829         3904 
 1948000   0.47191731   -9.7308895    188.97996 0.0080843581 0.0062405656         3912 
 1949000   0.47735821   -9.7393145    188.46125  0.008058032 0.0062347543         3910 
 1950000   0.49157239   -9.7339002    188.57834 0.0080589035 0.0062289527         3918 
 1951000   0.48359491   -9.7470595    188.45255 0.0080493998 0.0062231568         3922 
 1952000   0.48079795   -9.7488532    188.73883 0.0080574979 0.0062173708         3910 
 1953000   0.48401669   -9.7292773    188.52039 0.0080440515 0.0062115858         3905 
 1954000   0.46987106   -9.7306234    188.65151 0.0080455268 0.0062058136         3891 
 1955000   0.47050524    -9.744726     188.6664  0.008042046 0.0062000433         3920 
 1956000    0.4655473   -9.7365343    188.66791 0.0080379989 0.0061942864         3923 
 1957000   0.47757075    -9.750296    188.62838 0.0080322085 0.0061885366         3897 
 1958000   0.47691531   -9.7421279    188.71661 0.0080318613 0.0061827951         3898 
 1959000   0.46725354   -9.7432623    188.63192 0.0080241584 0.0061770583         3918 
 1960000   0.46814552   -9.7288576    188.85394 0.0080295041 0.0061713285         3915 
 1961000   0.46778498   -9.7564766    188.88058 0.0080265416 0.0061656092         3922 
 1962000   0.46008238     -9.74367    188.36582 0.0080005869 0.0061598927         3929 
 1963000   0.46169359   -9.7352536    188.46403 0.0080006804 0.0061541837         3926 
 1964000   0.46291383   -9.7541865    188.45135 0.0079960688  0.006148488         3927 
 1965000   0.45979445   -9.7390739     188.5885  0.007997816 0.0061427947         3916 
 1966000   0.46050988    -9.752563    188.64522  0.007996152 0.0061371095         3918 
 1967000   0.47632959   -9.7589068    188.42023  0.007982555 0.0061314324         3906 
 1968000   0.46518634   -9.7415656    188.71033 0.0079907828 0.0061257585         3915 
 1969000   0.47340357   -9.7360846    188.69975 0.0079862769 0.0061200949         3905 
 1970000   0.47601966   -9.7546158    188.51678 0.0079744829 0.0061144379         3911 
 1971000   0.45770248   -9.7481663    188.58636 0.0079733788 0.0061087872         3912 
 1972000   0.47014465     -9.74634    188.56981 0.0079686361 0.0061031399         3912 
 1973000   0.47370899   -9.7431577    188.55331 0.0079639006 0.0060975039         3916 
 1974000   0.47671186   -9.7573278    188.46796 0.0079562633 0.0060918764         3918 
 1975000   0.46177102   -9.7409357     188.4146  0.007949983 0.0060862495         3933 
 1976000   0.46857515   -9.7403317    188.39277 0.0079450393 0.0060806347         3916 
 1977000    0.4655245   -9.7497476    188.44031 0.0079430242 0.0060750242         3903 
 1978000   0.45610033   -9.7393541     188.5934 0.0079454582 0.0060694251         3909 
 1979000   0.45899075   -9.7684419    188.52118 0.0079384025 0.0060638273         3916 
 1980000   0.46101845   -9.7428516    188.58326 0.0079370061 0.0060582393         3922 
 1981000   0.45763744   -9.7390886    188.55632 0.0079318661 0.0060526586         3919 
 1982000   0.46532034   -9.7614183    188.48216 0.0079247461  0.006047086         3918 
 1983000   0.46898517    -9.756457    188.64949 0.0079277815 0.0060415185         3922 
 1984000    0.4550909   -9.7421279     188.3284  0.007910299 0.0060359589         3917 
 1985000   0.45683409   -9.7455855    188.72344 0.0079228985  0.006030408         3898 
 1986000     0.464254    -9.763496     188.3533 0.0079033777 0.0060248645         3919 
 1987000   0.45218739   -9.7593664    188.32723 0.0078983071 0.0060193244         3919 
 1988000   0.46181786   -9.7561091    188.48595 0.0079009872 0.0060137914         3913 
 1989000   0.44973669    -9.760725     188.3876 0.0078928943 0.0060082657         3897 
 1990000   0.45944748   -9.7473849    188.24298 0.0078828718 0.0060027479         3920 
 1991000   0.46858199   -9.7541509    188.43353  0.007886888 0.0059972342         3927 
 1992000   0.46077979   -9.7545424    188.47278 0.0078845707 0.0059917308         3925 
 1993000   0.45727948   -9.7673036    188.61388 0.0078865145  0.005986233         3913 
 1994000    0.4526856   -9.7592728    188.39501 0.0078734122 0.0059807397         3921 
 1995000    0.4599895   -9.7486561    188.34187 0.0078672458 0.0059752532         3925 
 1996000   0.45530642   -9.7569972    188.55851 0.0078723492 0.0059697761         3921 
 1997000   0.44943624   -9.7686048    188.29965 0.0078576051 0.0059643047         3920 
 1998000   0.44927837   -9.7603842    188.05663 0.0078435363 0.0059588412         3925 
 1999000   0.45302502     -9.76018    188.24875 0.0078476218 0.0059533812         3915 
 2000000   0.44688235   -9.7516501    188.44435  0.007851848 0.0059479316         3914 
 2001000   0.45096293   -9.7524846    188.52586 0.0078513184 0.0059424865         3911 
 2002000   0.45391329   -9.7544953    188.28406 0.0078373318 0.0059370485         3922 
 2003000   0.45385447   -9.7635638    188.50483 0.0078426039 0.0059316183         3918 
 2004000    0.4400563    -9.765772    188.48308 0.0078377859 0.0059261957         3908 
 2005000   0.44921786   -9.7666428    188.43648   0.00783194 0.0059207819         3929 
 2006000   0.44860318   -9.7713996    188.16603 0.0078168007 0.0059153675         3907 
 2007000   0.44532002    -9.777974    188.53736 0.0078283243 0.0059099631         3912 
 2008000   0.45057671   -9.7733282    188.32256 0.0078155115 0.0059045671         3906 
 2009000   0.44704513   -9.7639324    188.31447 0.0078112856 0.0058991768         3920 
 2010000   0.44934209   -9.7799798    188.11592 0.0077991677 0.0058937914         3904 
 2011000   0.45680536   -9.7582578    188.32641 0.0078040116 0.0058884145         3927 
 2012000   0.45380429   -9.7873659    188.29678 0.0077989057  0.005883045         3930 
Loop time of 5343.9 on 48 procs for 2000000 steps with 4000 atoms

Performance: 64671.862 tau/day, 374.258 timesteps/s
99.4% CPU use with 48 MPI tasks x no OpenMP threads

MPI task timing breakdown:
Section |  min time  |  avg time  |  max time  |%varavg| %total
---------------------------------------------------------------
Pair    | 354.13     | 394.32     | 427.36     |  76.5 |  7.38
Neigh   | 36.08      | 38         | 40.44      |  14.2 |  0.71
Comm    | 315.07     | 358.27     | 413.83     | 118.0 |  6.70
Output  | 5.676      | 5.6777     | 5.7146     |   0.2 |  0.11
Modify  | 4461.4     | 4493.7     | 4526.5     |  28.8 | 84.09
Other   |            | 53.92      |            |       |  1.01

Nlocal:        83.3333 ave          89 max          72 min
Histogram: 1 2 0 1 6 7 3 13 11 4
Nghost:        2404.25 ave        2436 max        2379 min
Histogram: 4 9 8 3 4 3 5 5 6 1
Neighs:        16507.7 ave       19203 max       13855 min
Histogram: 3 5 4 5 8 4 8 4 4 3
FullNghs:      33016.8 ave       35603 max       27123 min
Histogram: 2 1 0 0 5 8 5 9 10 8

Total # of neighbors = 1584805
Ave neighs/atom = 396.20125
Neighbor list builds = 106459
Dangerous builds = 0

#clear
#
#next RN
#
#jump SELF
Total wall time: 1:29:07
