
units lj                  # Use reduced LJ style units
atom_style atomic         # Uncharged point particles
atom_modify map hash      # Needed for indexing of clusters etc
                          # Used to be able to find where atoms are in relation to each other.

lattice fcc 1.0 spacing 1 1 1
Lattice spacing in x,y,z = 1.5874011 1.5874011 1.5874011
region box block 0 10 0 10 0 10 units lattice
create_box 2 box
Created orthogonal box = (0.0000000 0.0000000 0.0000000) to (15.874011 15.874011 15.874011)
  3 by 4 by 4 MPI processor grid
create_atoms 1 box
Created 4000 atoms
  using lattice units in orthogonal box = (0.0000000 0.0000000 0.0000000) to (15.874011 15.874011 15.874011)
  create_atoms CPU = 0.034 seconds
set type 1 type/fraction 2 0.02 78393
Setting atom values ...
  77 settings made for type/fraction
mass 1 1.0
mass 2 1.0
pair_style lj/cut  3.5
pair_modify tail  yes
pair_coeff 1  1  1.0  1.0   # Intearaction between 1 and 1 set with epsilon = 1 and sigma = 1
pair_coeff 1  2  1.5  0.8
pair_coeff 2  2  0.5  0.88

write_data data.0
System init for write_data ...
Neighbor list info ...
  update every 1 steps, delay 10 steps, check yes
  max neighbors/atom: 2000, page size: 100000
  master list distance cutoff = 3.8
  ghost atom cutoff = 3.8
  binsize = 1.9, bins = 9 9 9
  1 neighbor lists, perpetual/occasional/extra = 1 0 0
  (1) pair lj/cut, perpetual
      attributes: half, newton on
      pair build: half/bin/atomonly/newton
      stencil: half/bin/3d
      bin: standard
WARNING: Not all mixed pair coeffs generated from mixing. Use write_data with 'pair ij' option to store all pair coeffs. (../write_data.cpp:312)


#############################
#   M E L T   S Y S T E M   #
#############################

velocity all create 2.4 8172548 mom yes dist gaussian # Assign velocities
                                                    # Temperature 2.4, random number seed, zero linear momentum
                                                                                # Gaussian distribution

timestep 0.002   # simulation timestep
thermo 1000       # output thermodynamic data every 1000 steps bf 100

# Define a fix  in this case with index 1 applied to all
# particles in the simulation. This fix is for simulations
# in the anisotropic NPT ensemble. Note that we use the MTK
# correction.
fix 1 all npt temp 2.4 2.4 0.1 iso 5.68 5.68 0.5 mtk yes tchain 5 pchain 5 # Use NPT ensemble
                                                                         # Set temperature and pressure and damping
                                                                         # Numbers of thermostats in chain and in barostat
run 10000          # run for 10000 steps
Per MPI rank memory allocation (min/avg/max) = 3.642 | 3.644 | 3.648 Mbytes
Step Temp E_pair E_mol TotEng Press Volume 
       0          2.4   -8.2581388            0   -4.6590388   -2.3989133         4000 
    1000    2.3638646   -4.4686638            0  -0.92375335    5.6238473    5123.2541 
    2000      2.40162   -4.4467823            0  -0.84525291    5.5266877    5157.5712 
    3000    2.4236861   -4.3479794            0  -0.71335919     5.754954    5190.2973 
    4000    2.4587979   -4.4057568            0  -0.71848197    5.7721116    5150.6294 
    5000    2.3724807   -4.3953024            0  -0.83747106    5.9208685    5112.9486 
    6000    2.3897447   -4.4068117            0  -0.82309085    5.9669372    5126.0065 
    7000    2.3791937   -4.4413189            0  -0.87342063    5.7882467    5118.7479 
    8000    2.3899758    -4.405263            0  -0.82119561    5.7355428    5154.2496 
    9000    2.4025435   -4.3985342            0  -0.79561981    5.9370724    5134.7034 
   10000    2.3883257   -4.3459335            0  -0.76434056    5.8577379     5162.786 
Loop time of 2.09429 on 48 procs for 10000 steps with 4000 atoms

Performance: 825102.043 tau/day, 4774.896 timesteps/s
99.6% CPU use with 48 MPI tasks x no OpenMP threads

MPI task timing breakdown:
Section |  min time  |  avg time  |  max time  |%varavg| %total
---------------------------------------------------------------
Pair    | 0.84995    | 0.91348    | 1.0012     |   3.2 | 43.62
Neigh   | 0.1678     | 0.17371    | 0.18924    |   1.0 |  8.29
Comm    | 0.62672    | 0.73092    | 0.7917     |   3.8 | 34.90
Output  | 0.00024324 | 0.00024848 | 0.00030631 |   0.0 |  0.01
Modify  | 0.20142    | 0.26194    | 0.31608    |   7.0 | 12.51
Other   |            | 0.01398    |            |       |  0.67

Nlocal:        83.3333 ave          95 max          75 min
Histogram: 1 2 9 10 6 14 3 1 0 2
Nghost:        1387.35 ave        1429 max        1368 min
Histogram: 7 7 14 8 4 4 0 2 0 2
Neighs:        7366.94 ave        8645 max        6383 min
Histogram: 1 3 4 14 15 4 2 3 1 1

Total # of neighbors = 353613
Ave neighs/atom = 88.403250
Neighbor list builds = 909
Dangerous builds = 242

# Equilibrate just above the melting temperature to avoid step fn in T

fix 1 all npt temp 1.25 1.25 0.1 iso 5.68 5.68 0.5 mtk yes tchain 5 pchain 5
run 2000
Per MPI rank memory allocation (min/avg/max) = 3.643 | 3.644 | 3.648 Mbytes
Step Temp E_pair E_mol TotEng Press Volume 
   10000    2.3883257   -4.3459335            0  -0.76434056    5.8577379     5162.786 
   11000    1.2540736    -5.925051            0   -4.0444109    5.8058387    4260.7498 
   12000    1.2676793   -5.9049375            0    -4.003894     5.750997    4274.1841 
Loop time of 0.445326 on 48 procs for 2000 steps with 4000 atoms

Performance: 776060.346 tau/day, 4491.090 timesteps/s
99.7% CPU use with 48 MPI tasks x no OpenMP threads

MPI task timing breakdown:
Section |  min time  |  avg time  |  max time  |%varavg| %total
---------------------------------------------------------------
Pair    | 0.19843    | 0.20976    | 0.21993    |   1.1 | 47.10
Neigh   | 0.030304   | 0.031662   | 0.032847   |   0.3 |  7.11
Comm    | 0.1365     | 0.1523     | 0.16496    |   1.5 | 34.20
Output  | 9.3968e-05 | 9.5658e-05 | 0.000108   |   0.0 |  0.02
Modify  | 0.041218   | 0.047064   | 0.052136   |   1.5 | 10.57
Other   |            | 0.004449   |            |       |  1.00

Nlocal:        83.3333 ave          89 max          76 min
Histogram: 4 0 1 9 4 7 9 5 4 5
Nghost:        1579.17 ave        1615 max        1558 min
Histogram: 4 3 11 12 7 4 4 2 0 1
Neighs:        8910.81 ave        9652 max        8071 min
Histogram: 3 2 1 9 6 6 10 3 5 3

Total # of neighbors = 427719
Ave neighs/atom = 106.92975
Neighbor list builds = 141
Dangerous builds = 13

#############################
# L I N E A R  Q U E N C H  #
#############################

# Define solid atoms. This closely follows ten Wolde  Ruiz-Montero and Frenkel  Faraday Discuss  1996  104  93-110
# Compute components of the per-atom q6 vector
compute q6 all orientorder/atom degrees 1 6 components 6 nnn NULL cutoff 1.3 # compute the Q6 parameter.
                                                                             # Use all neighbours within 1.3 unit cell.

# get number of connections
compute coord_number all coord/atom orientorder q6 0.5

# An atom is solid if it has 8 or more connections (of a possible 14)
variable is_solid atom c_coord_number>=8
group solid dynamic all var is_solid    # Must be dynamic to update
dynamic group solid defined

# do clustering
compute cluster solid cluster/atom 1.3 # Create a cluster where all atoms within are solid and max 1.3 units from another member

# define chunks one chunk per cluster
compute clus_chunks solid chunk/atom c_cluster nchunk every compress yes  # Says which atoms are in which chunk

# count the size of each chunk
compute size_chunks solid property/chunk clus_chunks count


# Find the maximum entry in the vector of chunk sizes
variable max_n equal max(c_size_chunks)


# Thermo style which includes this variable
# thermo_style custom step temp pe vol v_max_n

thermo ${N}  # Print the thermo information every 100 steps
thermo 1000  

# Reset the npt fix at a lower temperature (below freezing)
fix 1  all npt temp  ${temp} ${temp}  0.1  iso  5.68  5.68  0.5  mtk yes tchain  5  pchain  5
fix 1  all npt temp  0.45 ${temp}  0.1  iso  5.68  5.68  0.5  mtk yes tchain  5  pchain  5
fix 1  all npt temp  0.45 0.45  0.1  iso  5.68  5.68  0.5  mtk yes tchain  5  pchain  5

dump dmp2 all dcd ${N} traj.dcd
dump dmp2 all dcd 1000 traj.dcd


compute msd all msd com yes
variable twopoint equal c_msd[4]/6/(step*dt+1.0e-6)
fix 9 all vector 10 c_msd[4]
variable fit equal slope(f_9)/6/(10*dt)
thermo_style custom step temp pe c_msd[4] v_twopoint v_fit v_max_n

fix 1 all npt temp 1.25 ${temp} 0.1 iso 5.68 5.68 0.5 mtk yes tchain 5 pchain 5
fix 1 all npt temp 1.25 0.45 0.1 iso 5.68 5.68 0.5 mtk yes tchain 5 pchain 5
run 2000000 # 5000000  # Run for this many steps
Neighbor list info ...
  update every 1 steps, delay 10 steps, check yes
  max neighbors/atom: 2000, page size: 100000
  master list distance cutoff = 3.8
  ghost atom cutoff = 3.8
  binsize = 1.9, bins = 9 9 9
  4 neighbor lists, perpetual/occasional/extra = 1 3 0
  (1) pair lj/cut, perpetual
      attributes: half, newton on
      pair build: half/bin/atomonly/newton
      stencil: half/bin/3d
      bin: standard
  (2) compute orientorder/atom, occasional
      attributes: full, newton on
      pair build: full/bin/atomonly
      stencil: full/bin/3d
      bin: standard
  (3) compute coord/atom, occasional
      attributes: full, newton on
      pair build: full/bin/atomonly
      stencil: full/bin/3d
      bin: standard
  (4) compute cluster/atom, occasional
      attributes: full, newton on
      pair build: full/bin/atomonly
      stencil: full/bin/3d
      bin: standard
Per MPI rank memory allocation (min/avg/max) = 9.732 | 9.738 | 9.744 Mbytes
Step Temp PotEng c_msd[4] v_twopoint v_fit v_max_n 
   12000    1.2676793   -5.9049375 8.7090244e-31 6.0479334e-33 8.3333333e+20            4 
   13000     1.247462   -5.9080621   0.53916548 0.0034561888  0.043886445            2 
   14000     1.275034   -5.9141208    1.0857046 0.0064625272  0.044320585            1 
   15000    1.2797994   -5.9517063    1.6391461 0.0091063668  0.045524912            6 
   16000    1.2333688    -5.927442    2.1981739  0.011448822  0.045861843            4 
   17000    1.2798047   -5.8977759    2.7933523  0.013692903  0.046493974            2 
   18000    1.2302249    -5.944232    3.3130988   0.01533842   0.04656224            3 
   19000    1.2233192   -5.9298267    3.8417721  0.016849877  0.046319393            4 
   20000    1.2775765   -5.9075828    4.3999869  0.018333278  0.046031128            3 
   21000    1.2591424   -5.9139933    4.8629987  0.019297613   0.04571657            6 
   22000    1.2419951   -5.8847695    5.4133136  0.020504975   0.04537711            4 
   23000    1.2335974   -5.9087832    6.0330625  0.021858922   0.04531289            4 
   24000      1.27075   -5.9242947    6.6544899  0.023105867  0.045649046            2 
   25000    1.2120971   -5.9114009    7.1496456  0.023832152  0.045774985            5 
   26000     1.242038   -5.8985376    7.6560498  0.024538621  0.045717688            2 
   27000    1.2378831   -5.9336058     8.131985  0.025098719  0.045550008            3 
   28000    1.2266563   -5.9100447     8.694626  0.025876863  0.045431127            4 
   29000    1.2464418   -5.9271902    9.2565853  0.026599382   0.04535888            2 
   30000    1.2468762   -5.9293089    9.7983362    0.0272176  0.045323994            3 
   31000    1.2417163   -5.9000054    10.356929  0.027841206  0.045299307            4 
   32000    1.2615218   -5.9286115    10.770242  0.028047504  0.045227985            3 
   33000    1.2658882   -5.9130085    11.439669  0.028888053  0.045212784            2 
   34000    1.2287862   -5.9174169    11.986492  0.029378657  0.045231335            4 
   35000    1.2597846   -5.9039031    12.715953  0.030276077  0.045343957            3 
   36000    1.2158547    -5.909543    13.251758  0.030675365  0.045489695            4 
   37000    1.2510676   -5.9163414    13.869547  0.031237719  0.045597904            3 
   38000    1.2254018   -5.9268034    14.416033  0.031614107  0.045725637            5 
   39000     1.239805   -5.9375544    15.050822  0.032159876  0.045878965            4 
   40000    1.2155154   -5.9621065    15.522369  0.032338268  0.045981351            4 
   41000    1.2336808   -5.9409721    16.024676   0.03257048  0.046038085            6 
   42000    1.2360058   -5.9244982    16.579933  0.032896692  0.046103001            2 
   43000    1.2203527    -5.906313    17.004081  0.032953645   0.04607455            2 
   44000    1.1999872   -5.9143777    17.633872  0.033397484  0.046022042            4 
   45000    1.2190105   -5.9312773    18.256607  0.033808532  0.046020012            3 
   46000    1.2060156   -5.9376687     18.56647  0.033634908  0.045994533            4 
   47000    1.2476122    -5.923345    18.920709  0.033547356   0.04589851            6 
   48000    1.2485548   -5.9188757    19.528258  0.033903225  0.045778162            3 
   49000    1.2303338   -5.9468979    20.050329  0.034099198  0.045679584            2 
   50000     1.239428   -5.9051276    20.669806  0.034449676  0.045620397            3 
   51000    1.2469564   -5.9416079    21.223277  0.034678557  0.045581294            2 
   52000    1.2331189   -5.9237605     21.80848  0.034949488  0.045553608            4 
   53000    1.2290896   -5.9637669    22.292096  0.035050466  0.045528633            4 
   54000    1.2453313    -5.949352    22.780362   0.03515488  0.045482438            3 
   55000    1.2061834   -5.9657392    23.260695  0.035243477  0.045429755            2 
   56000    1.2246086   -5.9181804    23.694008   0.03525894  0.045372216            4 
   57000    1.2559301   -5.9216853     24.12316  0.035267777  0.045285961            5 
   58000    1.2332906   -5.9456434    24.659349  0.035430099  0.045179293            3 
   59000    1.2264829   -5.9268059    25.315893   0.03575691  0.045100422            3 
   60000    1.2255422   -5.9754529    25.581881   0.03553039  0.045015559            3 
   61000    1.2350262   -5.9301648    26.193571  0.035783566  0.044936953            2 
   62000    1.2231979   -5.9262611    26.877721  0.036125969  0.044874658            4 
   63000    1.2480203   -5.9034852    27.377582  0.036213732  0.044820221            3 
   64000    1.2090537   -5.9606315    27.809162  0.036209846  0.044773035            1 
   65000    1.2276299   -5.9257145    28.492366  0.036528674   0.04472279            4 
   66000    1.2593598   -5.9588728    29.144548  0.036798671  0.044703773            6 
   67000    1.2025485   -5.9676905    29.519755  0.036716113  0.044689622            5 
   68000    1.2288623   -5.9410343    30.160178  0.036961002  0.044689331            5 
   69000    1.2241986   -5.9568979    30.687427   0.03706211  0.044668672            7 
   70000    1.2175958   -5.9342711    31.243904  0.037195124  0.044662077            4 
   71000    1.2107104   -5.9176526    31.945097  0.037494245  0.044666836            2 
   72000     1.253345   -5.9510097    32.307545  0.037392991   0.04467472            4 
   73000    1.2311575   -5.9537217    33.040425  0.037717379   0.04469401            2 
   74000    1.2182814   -5.9493939    33.637976  0.037880603  0.044718473            3 
   75000     1.231393   -5.9452024    34.113699  0.037904109  0.044734908            3 
   76000     1.224452   -5.9257245     34.57765  0.037914089  0.044750036            2 
   77000    1.2354096   -5.9511589    35.327608  0.038233341  0.044776085            5 
   78000    1.2229292   -5.9696219    35.863356  0.038315551  0.044809681            6 
   79000    1.2402261   -5.9615435    36.475631  0.038476403   0.04484519            4 
   80000    1.2232805    -5.938924    37.256744  0.038809108  0.044891625            6 
   81000    1.2115076   -5.9147938    37.740686  0.038827866  0.044932416            5 
   82000    1.1867316    -5.936711    38.169116  0.038789752  0.044962744            4 
   83000    1.1914095   -5.9456627    38.598605  0.038753619  0.044984719            4 
   84000    1.2433567   -5.9707646     39.23268  0.038921309  0.044999663            4 
   85000    1.2348167   -5.9575958    39.889341  0.039107197   0.04502874            4 
   86000    1.2279966    -5.930214    40.236938  0.038989281  0.045054827            4 
   87000    1.2177374   -5.9485089    40.864847  0.039142574  0.045071535            6 
   88000     1.235791   -5.9522074     41.42363  0.039226922  0.045092861            9 
   89000    1.2224844   -5.9519459    42.059561  0.039381611  0.045114359            6 
   90000    1.1972648   -5.9605743    42.608587  0.039452395  0.045144011            3 
   91000    1.2134578   -5.9701043    43.355911  0.039703215  0.045181468            3 
   92000    1.2185528   -5.9643255    43.790809  0.039665587  0.045221724            7 
   93000    1.2147162   -5.9472775    44.478032  0.039854867  0.045262423            4 
   94000    1.2085697   -5.9111194    44.923944  0.039826192  0.045304502            5 
   95000    1.2463554   -5.9612315    45.453933  0.039871871   0.04533235            4 
   96000    1.2263539   -5.9791812    45.911199  0.039853471  0.045355942            6 
   97000    1.2156975    -5.965908     46.62108  0.040052474  0.045382653            7 
   98000    1.2324582   -5.9608638    47.184104  0.040122537   0.04540445            3 
   99000    1.2291255   -5.9756747    47.515942  0.039996584  0.045421103            5 
  100000    1.1680444   -5.9362784     48.33815  0.040281792  0.045438638            3 
  101000    1.2004227   -5.9749731    48.817951  0.040278837  0.045461033            3 
  102000    1.2107582   -5.9568483    49.395977   0.04035619  0.045477586            2 
  103000    1.2050658   -5.9575784    50.123049  0.040552629  0.045499952            4 
  104000    1.1996012   -5.9635155    50.854872  0.040749096  0.045533501            4 
  105000    1.2104787   -5.9664665    51.188178  0.040625538  0.045565326            3 
  106000    1.2184079    -6.005339    51.713753  0.040655466  0.045588015            3 
  107000    1.1988698   -5.9504189    52.530549  0.040911643  0.045609285            2 
  108000     1.212988   -5.9478483    52.912721  0.040827717  0.045630415            3 
  109000    1.1923944   -5.9631719    53.680221  0.041039924  0.045663313            2 
  110000    1.2021308   -5.9570232    54.272736  0.041115709  0.045692809            2 
  111000    1.2070285   -6.0186534    54.535062  0.040942239  0.045721653            3 
  112000    1.2274861   -6.0144804    55.165067  0.041045436   0.04574096            3 
  113000    1.2045549   -5.9669644    55.729741  0.041098629  0.045762019            6 
  114000    1.2250949    -5.976687    56.268761  0.041132135  0.045778613            3 
  115000    1.2055006   -5.9910235    56.544118  0.040973999  0.045785112            3 
  116000    1.2129636   -5.9605489    56.997536  0.040946506  0.045780975            1 
  117000    1.2012031   -6.0034615    57.241593  0.040770365  0.045769258            3 
  118000    1.2310169    -5.949953    57.842748  0.040849398  0.045759551            2 
  119000    1.2180256   -5.9804744     58.34936  0.040860896  0.045750855            4 
  120000    1.2016023    -5.981428    58.574875  0.040676996  0.045736073            4 
  121000    1.1938023    -5.988154    59.020661  0.040647838  0.045710965            3 
  122000    1.2314472   -5.9699097    59.597325  0.040708555   0.04568483            6 
  123000    1.2145169    -5.989217    60.088434  0.040710321  0.045655007            2 
  124000    1.2189431   -6.0160439    60.631301  0.040746842  0.045629572            4 
  125000    1.2133866   -5.9685872    61.186378  0.040790919  0.045604479            2 
  126000    1.1844207   -5.9749348    61.749978  0.040839932   0.04558133            2 
  127000    1.1964431   -5.9391304    62.339024  0.040904871  0.045560194            3 
  128000    1.2397314   -5.9870181    62.752368  0.040854406  0.045538522            3 
  129000    1.1880146   -6.0360773    63.178401   0.04081292  0.045516741            3 
  130000    1.1729134   -6.0101788     63.60744     0.040774  0.045490633            3 
  131000    1.1802509   -5.9744677    64.482722  0.041019543   0.04547096            3 
  132000    1.1958787   -5.9992894    64.781572  0.040897457  0.045451396            3 
  133000    1.2056932    -5.972663    65.175676   0.04083689  0.045425299            2 
  134000    1.2095309   -5.9617643    65.820149  0.040932928  0.045398285            4 
  135000    1.2199482   -6.0172635    66.013296  0.040748948  0.045366612            3 
  136000    1.1971672   -5.9641439     66.42032  0.040698726  0.045331221            3 
  137000    1.1933797   -5.9580115    67.040546  0.040778921  0.045293338            3 
  138000    1.1958533   -5.9860616    67.305956  0.040643693  0.045259391            2 
  139000    1.2026829   -6.0031736     67.83794  0.040670228  0.045223525            4 
  140000    1.2212554    -5.974523     68.43793  0.040736863  0.045191062            3 
  141000    1.2098809   -5.9672631    68.885995  0.040712763  0.045157592            2 
  142000    1.1885779   -6.0018868     69.17537  0.040595874  0.045122103            4 
  143000    1.1974482   -5.9679037    69.918612  0.040745112  0.045084144            4 
  144000    1.1752897    -5.952114    70.213617   0.04063288  0.045045275            2 
  145000    1.2103319   -6.0361102    70.423646   0.04047336  0.045004434            5 
  146000    1.1892963   -5.9566147    71.420937  0.040765375   0.04496626            8 
  147000    1.2164017   -6.0574779    71.871313  0.040743375  0.044930655            3 
  148000    1.1968237   -6.0008309    72.276543  0.040696252  0.044897356            2 
  149000    1.1829835   -6.0170048    73.014054  0.040835601  0.044865958            3 
  150000    1.2090253   -5.9901694    73.197513  0.040665285  0.044838509            3 
  151000    1.1982155   -6.0262715    73.816509  0.040737588  0.044804683            2 
  152000    1.1812151   -5.9954749    74.084157  0.040616314  0.044768573            3 
  153000    1.2042036   -5.9886825     74.36657  0.040504668  0.044727567            6 
  154000    1.2043523   -6.0039055    74.910935   0.04053622  0.044687269            5 
  155000    1.1919235   -5.9907515    75.426214  0.040551728  0.044646974            3 
  156000     1.162397   -6.0255001    76.193446  0.040701627  0.044612115            3 
  157000    1.1947288   -6.0093872    76.795337  0.040761856    0.0445799            4 
  158000    1.2145036   -6.0182727    77.148077  0.040689914  0.044549196           10 
  159000    1.1910847   -6.0129966      77.5544   0.04064696  0.044520129            3 
  160000    1.1994052   -6.0114066    78.027911  0.040639537  0.044489766            2 
  161000    1.1696336   -5.9883617     78.96076  0.040869958  0.044463952            6 
  162000    1.2208077   -5.9814073    79.524786  0.040907812   0.04444006            2 
  163000    1.2031461   -5.9933177    80.072125  0.040936669   0.04441465            3 
  164000    1.2152417   -5.9908852    80.187939  0.040745904  0.044384473            4 
  165000     1.187326    -6.020129    80.463352  0.040638056  0.044355275            6 
  166000    1.1788373   -6.0165007    81.092141  0.040708906  0.044323228            2 
  167000    1.1991999   -6.0039626       81.846  0.040841317  0.044297125            2 
  168000    1.1671718   -6.0067771      82.1536  0.040750794  0.044270422            4 
  169000    1.1978506   -6.0193611    82.620857  0.040740068  0.044246652            3 
  170000    1.1603846    -6.020868    83.148388  0.040759013  0.044219327            7 
  171000    1.1759069   -6.0346794    83.548868  0.040715822  0.044190527            4 
  172000    1.1945625   -6.0037391    84.102259  0.040747218  0.044162213            5 
  173000    1.1870644   -6.0281043    84.254717  0.040585124  0.044133946            4 
  174000    1.1700198   -6.0045622    85.077106   0.04074574  0.044104395            5 
  175000    1.1838523   -6.0183925    85.592771  0.040758462   0.04407479            2 
  176000    1.1798712   -6.0309199    86.035198  0.040736363  0.044045503            4 
  177000    1.1652794   -6.0004598    86.342286  0.040650794  0.044016159            3 
  178000    1.1601012   -6.0086019    86.984336  0.040723004  0.043986459            3 
  179000    1.1923895   -5.9782022    87.330407  0.040656614  0.043959748            2 
  180000    1.1821419   -6.0287358    87.800166  0.040648225  0.043932506            2 
  181000    1.2101194   -5.9897823    88.355735  0.040679436  0.043904988            2 
  182000    1.1660169   -6.0328766    88.775056  0.040647919  0.043876296            4 
  183000    1.1833954   -6.0159996    88.941577  0.040501629  0.043844527            6 
  184000    1.1851355   -6.0062026     89.35892  0.040470525  0.043807962            2 
  185000    1.1850364   -6.0365092    89.343439  0.040244792  0.043772916            4 
  186000    1.1556016   -6.0012898    90.213917  0.040418422  0.043737028            2 
  187000     1.179396   -6.0408985    90.860755  0.040490532   0.04370533            3 
  188000    1.1745114   -6.0414038    91.150784  0.040403716   0.04367149            3 
  189000    1.1993198   -6.0313258    91.516016  0.040350977  0.043638004            5 
  190000    1.1596031   -6.0252809    92.150944   0.04041708  0.043606172            2 
  191000    1.1758437   -6.0110052    92.535801  0.040373386  0.043574315            4 
  192000    1.1655522   -6.0244683    93.314136  0.040500927  0.043544466            4 
  193000     1.200058   -6.0401665    93.741227  0.040475487  0.043516444            2 
  194000    1.1554387   -6.0767611    94.265198  0.040491923  0.043486588            3 
  195000    1.1811991    -6.056902    94.692548  0.040466901  0.043456732            4 
  196000    1.1681115   -6.0004544    94.975273  0.040380643  0.043426518            7 
  197000    1.1649058   -6.0379161    95.541497  0.040415185   0.04339519            7 
  198000    1.1548771   -6.0238762      96.1194  0.040454293   0.04336548            3 
  199000    1.1849842   -6.0109459    96.776283  0.040526082  0.043338943            6 
  200000    1.1989059   -6.0650249    97.155418  0.040481424  0.043311172            3 
  201000    1.1698339   -6.0277359    97.614527  0.040470368  0.043286009            4 
  202000    1.1650194   -6.0601672    98.105425  0.040472535  0.043261794            7 
  203000    1.1791157   -6.0705373    98.398704  0.040393556  0.043234747            3 
  204000    1.1844383   -6.0054358    99.021236  0.040449851  0.043207492            5 
  205000    1.1800908   -6.0320377    98.866586  0.040189669  0.043177373            4 
  206000    1.1510213   -6.0287373    99.129041  0.040100745  0.043145979            2 
  207000    1.1671841   -6.0606045     99.95327  0.040238836  0.043114367            9 
  208000    1.1713335   -6.0072839    100.85421  0.040406335  0.043086931            5 
  209000    1.1782986   -6.0742324    100.77758  0.040182448  0.043058125            4 
  210000    1.1620354   -6.0369659    101.43688  0.040252729  0.043029728            6 
  211000    1.1596338   -6.0511651    101.87489   0.04023495  0.042998048            2 
  212000    1.1677525   -6.0939874    101.95292  0.040075834  0.042967219            3 
  213000    1.1851071   -6.0259308    102.84243  0.040235694   0.04293553            2 
  214000    1.1468073    -6.038615    102.86202  0.040055303  0.042902894            3 
  215000    1.1639427   -6.0499902    103.68882  0.040189465  0.042871114            6 
  216000    1.1623807   -6.0081772    104.37181  0.040266903  0.042841944            2 
  217000    1.1895346   -6.0145295    105.02394  0.040331773  0.042818107            6 
  218000    1.1490999   -6.0402184    105.98821   0.04051537  0.042799244            5 
  219000    1.1467499    -6.043652    106.45847  0.040509309  0.042781945            7 
  220000    1.1364847   -6.0431844    106.47855  0.040332785  0.042761566            6 
  221000    1.1882034   -6.0300098    107.25884  0.040444508  0.042742255            4 
  222000    1.1962811   -6.0837744    107.62264  0.040398889  0.042721541            6 
  223000    1.1480205   -6.0559282    107.74642  0.040263982  0.042699671            4 
  224000    1.1465717   -6.0282452    108.78382  0.040470172  0.042677597            2 
  225000    1.1754856   -6.0342466    109.03826   0.04038454  0.042656941            3 
  226000    1.1779136   -6.0716857    109.09683  0.040227443  0.042635277            7 
  227000    1.1682709   -6.0146901    110.00314  0.040382944  0.042611911            2 
  228000    1.1611833   -6.0095677    110.10864  0.040244386   0.04258855            5 
  229000    1.1538679   -6.0493263    110.62224  0.040255546  0.042563466            3 
  230000    1.1595174   -6.0162022    111.02845    0.0402277  0.042540435            2 
  231000    1.1610981   -6.0714804    111.58518  0.040254395   0.04251856            4 
  232000    1.1656636   -6.0634199    112.09134  0.040262694  0.042498596            2 
  233000     1.167021   -6.0570227    112.47529  0.040227213  0.042476254            2 
  234000    1.1770655   -6.0522298    112.37498   0.04001958  0.042452386            4 
  235000    1.1571632    -6.075908    113.15724  0.040126682  0.042427607            2 
  236000    1.1633904   -6.0837877    113.72272  0.040156328   0.04240271            4 
  237000    1.1582263    -6.067819    113.48492  0.039903277  0.042376505            4 
  238000    1.1717224   -6.0911136    114.23267  0.039997435  0.042349515            3 
  239000    1.1240328   -6.0526333    114.44568  0.039904352   0.04232176            9 
  240000    1.1396535   -6.0748845    115.01394  0.039935396  0.042294669            4 
  241000    1.1817473   -6.0489781    115.26157  0.039855313  0.042267207            2 
  242000    1.1671477   -6.0810962    115.83463  0.039887957  0.042239713            2 
  243000    1.1393691    -6.044687     116.0913  0.039811832  0.042211683            5 
  244000    1.1404905   -6.0735417    116.14926  0.039668464  0.042182535            2 
  245000    1.1588873   -6.0456663    116.80463  0.039729465  0.042152435            4 
  246000     1.161599   -6.0629179    117.10431  0.039669482  0.042121256            5 
  247000    1.1349435   -6.0630023    117.08251  0.039501523  0.042087709            3 
  248000    1.1690558   -6.0693748    117.93398  0.039628354  0.042053712            6 
  249000     1.149421   -6.0856872    117.71116  0.039394632  0.042019588            3 
  250000    1.1985657   -6.0793215    118.94735  0.039649117  0.041986107            5 
  251000    1.1458594    -6.095997     119.2351  0.039586687  0.041953858            4 
  252000    1.1552181   -6.0333103    120.29643  0.039780564  0.041923934            4 
  253000    1.1384435   -6.0833005    119.88065   0.03948638  0.041894205            2 
  254000    1.1463601   -6.0654695    120.99118   0.03969527  0.041864929            3 
  255000    1.1783206    -6.071106     121.1193  0.039581471  0.041836047            2 
  256000    1.1582272   -6.0563833    121.55469  0.039568585  0.041808065            2 
  257000    1.1512924   -6.1088415    121.78282  0.039488593  0.041779319            4 
  258000    1.1616647   -6.0748701    122.40444  0.039536317  0.041750452            6 
  259000    1.1510674   -6.0568515    122.87345  0.039534573  0.041721896            4 
  260000    1.1346445   -6.0655235    123.15563  0.039472957  0.041693739            6 
  261000    1.1361944   -6.0994468     123.6336  0.039474328  0.041665297            3 
  262000    1.1768937   -6.0577158     124.3159  0.039540679  0.041638063            4 
  263000    1.1490904   -6.0625554    124.48029  0.039442423  0.041611907            6 
  264000    1.1641279   -6.0356293    125.36221  0.039571406  0.041585153           10 
  265000    1.1448256   -6.0886768    125.05643  0.039325923  0.041557965            4 
  266000    1.1376741    -6.063577    125.92822  0.039451195  0.041530887            2 
  267000    1.1612003   -6.1024222    126.47401  0.039473787  0.041504926            4 
  268000    1.1610313   -6.0977844    127.18949   0.03954897  0.041480163            8 
  269000    1.1526399   -6.0866976     127.7744  0.039583146  0.041455249            3 
  270000    1.1609227   -6.0516328    128.01159  0.039509751  0.041429757            3 
  271000    1.1608212   -6.0539084    128.30378  0.039453808  0.041405828            3 
  272000    1.1524818   -6.0663457    128.69172  0.039427611  0.041381267            6 
  273000    1.1360534   -6.0770169    129.12998  0.039416966  0.041356295            3 
  274000    1.1225531   -6.0877504    129.49297  0.039383506  0.041331227            3 
  275000    1.1476048   -6.0611788    130.02127  0.039400386  0.041306146            6 
  276000    1.1396244   -6.0596594     130.1084  0.039283938  0.041281957            4 
  277000    1.1397683    -6.059602    130.20295  0.039170561   0.04125441            4 
  278000    1.1498004   -6.0808669    131.01296  0.039272471  0.041227347            5 
  279000    1.1672824   -6.0617306     132.0196  0.039432377  0.041200166            4 
  280000    1.1553815   -6.0544014    131.52315  0.039143794  0.041171628            6 
  281000    1.1528734   -6.1130947    132.03672  0.039156798  0.041143579            8 
  282000    1.1264016    -6.099016     132.0515  0.039022311  0.041114183            4 
  283000    1.1459009   -6.0549996    132.78032  0.039099033   0.04108376            5 
  284000    1.1528172   -6.1151897    132.88063  0.038990795  0.041053202            4 
  285000    1.1476312   -6.0874601    133.59623  0.039063226  0.041023196            4 
  286000    1.1307758   -6.0990964    133.92365  0.039022043  0.040992768            4 
  287000    1.1207019    -6.079565    133.93193   0.03888848  0.040963102            3 
  288000    1.1133697   -6.0972843    134.52082  0.038923847  0.040933106            3 
  289000    1.1608947    -6.109034    134.60674  0.038813938  0.040902968            4 
  290000    1.1306399    -6.093844    135.19411  0.038848883  0.040873546            7 
  291000     1.125324    -6.093466    135.67665  0.038853566  0.040843989            4 
  292000    1.1497199   -6.0761918    136.62766  0.038991913  0.040814478            4 
  293000    1.1285347   -6.1108576     136.7353  0.038889448  0.040785078            5 
  294000    1.1160356    -6.094641    136.82345  0.038782158  0.040755997            2 
  295000    1.1500551   -6.1015781    137.43391  0.038823138  0.040727613            2 
  296000    1.1303791   -6.1211627    137.20217  0.038626738   0.04069979            2 
  297000    1.1316913   -6.1390024     137.9487  0.038706146  0.040670587            3 
  298000    1.1405841   -6.1256371    138.82515   0.03882135  0.040641592            2 
  299000    1.1211813   -6.1025802    139.06139  0.038757356  0.040612726            5 
  300000      1.15026   -6.0715082    139.23153  0.038675426  0.040585108            4 
  301000    1.1126467   -6.1205647    139.63458  0.038658521  0.040556225            5 
  302000    1.1322342    -6.126534      140.162  0.038676048  0.040527388            5 
  303000    1.1351411   -6.0750084    140.39514  0.038612524  0.040497647            5 
  304000    1.1363181   -6.0970091    140.24102  0.038443261  0.040467224            7 
  305000    1.1234696   -6.0898852    141.07006  0.038543732  0.040436799            4 
  306000    1.1367032   -6.0918738    141.64829  0.038575241  0.040406281            6 
  307000     1.126802   -6.1115009    142.37342  0.038646423  0.040375804            8 
  308000    1.1659328   -6.0931294    142.32212  0.038507067  0.040345666            4 
  309000    1.1454509   -6.1302001    142.21835  0.038354463  0.040314355            9 
  310000     1.158244   -6.0855563    142.87681  0.038407745  0.040282902            3 
  311000     1.121753   -6.1123541     143.2039  0.038371892  0.040252256            4 
  312000    1.1074871    -6.110231    143.88411  0.038430585  0.040223098            3 
  313000    1.1507067   -6.1022588    144.51558  0.038475926  0.040193562            5 
  314000     1.137152   -6.0792241    145.05414  0.038496322  0.040165121            8 
  315000    1.1293753    -6.127147    144.75106  0.038293932  0.040136338            8 
  316000    1.1232108   -6.1244158    145.61321  0.038400108  0.040107118            4 
  317000    1.1229499   -6.0895728    145.96034  0.038370226  0.040079598            7 
  318000    1.1445705   -6.1261173    146.25894  0.038327814  0.040052224            3 
  319000     1.143524   -6.1067961    146.36459  0.038235263  0.040024943            3 
  320000    1.1197699   -6.1303436    146.97326  0.038274285  0.039997163            7 
  321000    1.1270644   -6.1119139    147.57437  0.038311103  0.039968344            7 
  322000    1.1426646   -6.1134765    147.91901  0.038281317  0.039940171            3 
  323000     1.124552   -6.1083525     147.9733  0.038176805   0.03991332            4 
  324000    1.1422325   -6.1461602    148.44546  0.038180417  0.039885772            4 
  325000    1.1227724   -6.1009929    148.76792   0.03814562   0.03985682            3 
  326000    1.1231203   -6.1051813    149.37401   0.03818354  0.039827041            9 
  327000    1.1184303    -6.132434    149.90876  0.038203049  0.039798407            5 
  328000    1.1109524   -6.1393885    149.36492  0.037948403  0.039769341            6 
  329000    1.1333872   -6.0865696    150.22913  0.038051957  0.039739731            5 
  330000    1.1168245   -6.1129481     150.1593  0.037919016  0.039709581            5 
  331000    1.1203824   -6.0891338    150.99929  0.038015934  0.039680457            4 
  332000    1.1391021   -6.1018188    151.78683  0.038099104  0.039651286            3 
  333000    1.1024954   -6.1495571    151.79848  0.037987609  0.039622593            7 
  334000    1.1227905   -6.1405428    152.17054  0.037966702  0.039592943            4 
  335000    1.1206571    -6.105664    152.29008  0.037883105  0.039563557            3 
  336000    1.1336171   -6.0888266    152.27437  0.037766461  0.039532858            2 
  337000    1.1472946   -6.1521822    152.52111  0.037715408  0.039502308            7 
  338000    1.1223891   -6.1209452    153.24321  0.037781856   0.03947067            6 
  339000    1.1230721   -6.1487503    152.99899  0.037610372  0.039439155            5 
  340000    1.1336314   -6.1320616    154.14153  0.037779786  0.039408479            4 
  341000    1.1279034   -6.1625403    154.29892  0.037707458    0.0393781            2 
  342000    1.1024314   -6.1508617    154.99152  0.037765964  0.039349075            5 
  343000     1.112766   -6.1122277    155.63975   0.03781335  0.039320619            5 
  344000    1.1240516   -6.1336744      156.052  0.037803295  0.039292264            5 
  345000     1.117128   -6.1713414    155.79808  0.037632387  0.039264102            5 
  346000    1.1183974    -6.161827     156.6233  0.037722374  0.039236395            3 
  347000    1.1160859   -6.1090379    156.76218  0.037647016  0.039208062            4 
  348000    1.1266532   -6.1410436     156.9375  0.037580819   0.03917915            3 
  349000    1.1350419   -6.1303456    157.25347  0.037548584  0.039149986            5 
  350000    1.0932639   -6.1294223    157.53373  0.037508032  0.039121597            6 
  351000     1.115858   -6.1192587    158.15715  0.037549181  0.039093119            5 
  352000    1.1324659   -6.1683511    158.39778  0.037499475  0.039065216            3 
  353000    1.1154925   -6.1666302    159.21613  0.037586432   0.03903782            7 
  354000    1.1156031   -6.1331606    160.03562   0.03767317  0.039011149            5 
  355000    1.1069706   -6.1286414    159.48488  0.037437765  0.038983828            7 
  356000    1.1105782   -6.1421885    160.18867  0.037497347  0.038956582            4 
  357000    1.1165223    -6.173345    160.47728  0.037459683  0.038929942            5 
  358000     1.127884   -6.1322554    160.84665  0.037441027  0.038902612            1 
  359000    1.1061214   -6.1313153    161.60159  0.037511976  0.038875499            3 
  360000    1.1047752   -6.1449473    162.13423  0.037531071   0.03884931           12 
  361000    1.1407039      -6.1326    162.60423  0.037535602  0.038822925            6 
  362000    1.1097622   -6.1542988    162.55083  0.037419619  0.038796308            5 
  363000    1.1204462   -6.1461793    163.07512  0.037436896  0.038770613            8 
  364000     1.110904   -6.1396028    163.40251     0.037409  0.038744943            4 
  365000    1.1083622    -6.176589    164.06231  0.037457148  0.038719893            5 
  366000     1.101603   -6.1609367    164.54417   0.03746452  0.038695467            4 
  367000    1.1126851   -6.1560664    165.02868  0.037472452  0.038671302            4 
  368000    1.1245188   -6.1186817     165.4115  0.037457313  0.038646969            4 
  369000     1.102526   -6.1468791    165.35772  0.037343658  0.038623042            5 
  370000    1.1175255   -6.1180762    166.56683  0.037515052  0.038598887            3 
  371000    1.1342822   -6.1672049    166.71228  0.037446604  0.038575007            3 
  372000    1.0951776   -6.1669809    167.12543  0.037438492  0.038551602            5 
  373000    1.0869331   -6.1768355    166.80842  0.037267296  0.038527017            3 
  374000    1.0905702   -6.1415641    167.52489  0.037327294  0.038502195            6 
  375000    1.1203161   -6.1676963    167.66743  0.037259429  0.038478391            7 
  376000    1.0974735    -6.142725    168.31006   0.03730276  0.038454943            5 
  377000    1.0975687   -6.1101603    169.00443    0.0373573  0.038432088            8 
  378000     1.075337   -6.1723217    169.18997  0.037299376  0.038409485            6 
  379000    1.0998831   -6.1347412    169.52499  0.037274625  0.038386514            3 
  380000    1.1108739   -6.1752137    169.78732  0.037234062  0.038363423            2 
  381000    1.1061761    -6.191587    169.82327  0.037144198  0.038339353            2 
  382000    1.0998871   -6.1503823    170.67319  0.037232371  0.038316248            9 
  383000    1.1369829   -6.1867174    171.09472  0.037226876  0.038292724            7 
  384000    1.0849228   -6.1702967    171.34647  0.037184564  0.038269784            2 
  385000    1.1122244    -6.148892    172.22391  0.037277903  0.038246873            6 
  386000    1.1106698    -6.162699    171.60703  0.037048149  0.038223537            7 
  387000    1.0884848   -6.1724402    172.81339  0.037212185  0.038200439            3 
  388000    1.1037685   -6.1442893    172.55968  0.037061787  0.038176217            5 
  389000    1.1006116    -6.150755    172.65475  0.036986879  0.038152657            5 
  390000    1.1016572   -6.1727962    173.09205  0.036985481  0.038128439            4 
  391000    1.0898091   -6.1301063    173.51343  0.036980697  0.038104347            8 
  392000    1.1023201    -6.166627    174.09373   0.03700972  0.038081313            5 
  393000    1.1079864   -6.1933219    174.36133  0.036972291  0.038058186           14 
  394000    1.1003083   -6.1934075    174.57146  0.036922898  0.038034607            8 
  395000    1.0960848   -6.1407141    174.91175  0.036901214  0.038010724            5 
  396000    1.0978354   -6.1783133    176.06595  0.037050916  0.037987641            3 
  397000     1.099799   -6.1576274    176.26237  0.036998819  0.037964268            5 
  398000    1.0821675   -6.1566321    176.44711  0.036944538  0.037940587            4 
  399000    1.0776707   -6.1404736    176.89605  0.036945709   0.03791697            3 
  400000     1.116418   -6.1929468     176.5416    0.0367795  0.037893012            4 
  401000    1.1101706   -6.1353008    177.65265  0.036918673  0.037869287            4 
  402000    1.0778255   -6.1777777    177.32635  0.036759194  0.037845965            5 
  403000    1.0623571   -6.1546985    177.81217  0.036768439  0.037822553            7 
  404000    1.0776635   -6.1715625    178.24313  0.036766323  0.037799218            9 
  405000    1.0876062   -6.1780514    178.85395  0.036801223  0.037776454            6 
  406000     1.094279   -6.2050539    179.10785  0.036762696  0.037753363            2 
  407000    1.1121463   -6.1680215    179.64126  0.036781584  0.037730503            5 
  408000    1.0944925   -6.1643509     180.1034  0.036785826  0.037707906            5 
  409000    1.1169364   -6.2039766    180.49122  0.036774902  0.037685856            3 
  410000    1.0929029   -6.1775327    181.48121  0.036886426  0.037665403            7 
  411000    1.0906058   -6.2230005    181.10104  0.036719594  0.037643778            3 
  412000    1.0898759   -6.1920412     181.4067  0.036692294  0.037621616            6 
  413000    1.0930847   -6.1487378     181.8781  0.036698567  0.037600023            4 
  414000    1.0795256   -6.1858493    182.25806  0.036686405  0.037578229            3 
  415000    1.0992495   -6.1811245    183.00548  0.036748088  0.037557699            4 
  416000     1.074157   -6.1811225     182.7391  0.036606391  0.037536562            4 
  417000    1.0968456    -6.185998    183.67084  0.036704804  0.037515486           20 
  418000    1.0742834   -6.1944943    183.82182  0.036647094  0.037493821           14 
  419000    1.0780023   -6.1764138    184.19416  0.036633683  0.037472237            3 
  420000    1.0840369   -6.2277949    184.31173  0.036569788   0.03745137            6 
  421000    1.0859588   -6.1544635    185.45011  0.036708255  0.037430808            7 
  422000      1.11605   -6.2174219    185.28684  0.036589028  0.037410474            4 
  423000    1.0982272   -6.1747636    186.38212  0.036718306  0.037390441            6 
  424000    1.0931547   -6.1694846    186.35757  0.036626881  0.037370649            4 
  425000    1.0795354   -6.1772834    186.59758  0.036587761  0.037350762            2 
  426000    1.0679293   -6.1919251    187.42569  0.036663868  0.037331486            6 
  427000    1.1014195   -6.1596669    187.74275  0.036639881  0.037312213            4 
  428000    1.0831309    -6.198135    187.81207   0.03656777  0.037292718            4 
  429000    1.0719878   -6.2006086    188.07791  0.036534171  0.037273485            4 
  430000    1.0780955   -6.2185288    188.70423  0.036570587  0.037253621            7 
  431000    1.0712862   -6.1792152    188.48382  0.036443121  0.037233672            2 
  432000     1.075751   -6.1645241    189.43334  0.036541925  0.037214061            3 
  433000    1.0824451   -6.1604828    189.85009  0.036537738  0.037194991            4 
  434000    1.0955125   -6.2025889    190.21654  0.036523912  0.037175524            6 
  435000      1.08886    -6.245111    190.24198  0.036444825   0.03715616            4 
  436000    1.0879873   -6.1589379    190.30722  0.036373704  0.037136566            4 
  437000    1.0609701   -6.2222869    191.43973  0.036506432  0.037118077            4 
  438000    1.1042626   -6.1760945    192.39656   0.03660513  0.037100096            5 
  439000    1.0636615   -6.2097515    191.77618  0.036403982  0.037081272            3 
  440000    1.0962406   -6.2099994    192.69295  0.036494877  0.037062352            2 
  441000    1.0537135    -6.188052    192.65004  0.036404014  0.037044211            4 
  442000    1.0822175   -6.2185541    193.38358  0.036459951  0.037026111            4 
  443000    1.0795213   -6.2219751    193.86914  0.036468989  0.037008139            2 
  444000    1.0831435   -6.1884751    194.73642  0.036549629  0.036990604            5 
  445000    1.0750987   -6.2079002     195.2196  0.036557978  0.036973589            4 
  446000    1.0695078   -6.2225583    195.45903  0.036520745  0.036956964            3 
  447000    1.0832519   -6.1967489    195.14226  0.036379989  0.036939381            4 
  448000    1.0757643   -6.2182561    195.72295  0.036406798  0.036921392           13 
  449000    1.0776586   -6.2049177    195.87659  0.036354231  0.036903682            3 
  450000     1.065427   -6.2026913     196.5599  0.036399982   0.03688632            3 
  451000    1.0643799   -6.2058857    196.60425  0.036327466  0.036868895            8 
  452000     1.078714   -6.2105391    197.15904   0.03634938  0.036851146            5 
  453000    1.0976784   -6.1735805    197.54072  0.036339353  0.036833621           14 
  454000    1.0758419   -6.2320029    197.67163  0.036283339  0.036815005            6 
  455000    1.0644826   -6.2377609    197.89961   0.03624535  0.036796851            4 
  456000    1.0851093    -6.211624     198.2928   0.03623772  0.036779268            2 
  457000    1.0785299   -6.1731621    198.71186   0.03623484  0.036762062            9 
  458000    1.0458392   -6.1730945    199.60895  0.036318949  0.036745109           10 
  459000    1.0702882   -6.2055637    199.36635  0.036195779  0.036727948            2 
  460000    1.0794337    -6.196115    199.93208  0.036219579  0.036711026            3 
  461000    1.0569591   -6.2230008    200.23932  0.036196551  0.036693896            3 
  462000    1.0893982   -6.2289679    200.62834  0.036188373  0.036676576            4 
  463000    1.0837707   -6.2188079    200.42144  0.036072974   0.03665947            4 
  464000    1.0630412   -6.1909702    201.74793  0.036233465  0.036641672            5 
  465000    1.0556737   -6.2351681    200.91662  0.036006563  0.036623645            9 
  466000    1.0744491   -6.2239498    201.48467  0.036030879  0.036605742            3 
  467000    1.0570087   -6.2161114    202.28681  0.036096862  0.036588478            2 
  468000    1.0723205   -6.2013005    202.56626   0.03606949  0.036571337            4 
  469000    1.0621058   -6.2024462    203.07356  0.036082722  0.036554392            4 
  470000    1.0593849   -6.2242165    203.62663  0.036104012  0.036536751            6 
  471000    1.0596838   -6.2328101    203.89585  0.036074992  0.036519601            3 
  472000    1.0690828    -6.203929    204.22189  0.036056124  0.036503128            5 
  473000    1.0604178   -6.2072289    204.54138  0.036036183  0.036486447            4 
  474000    1.0714272   -6.2204389    204.90029  0.036023259  0.036469469            4 
  475000    1.0419654   -6.2235372     205.0108  0.035966807  0.036452459            3 
  476000     1.069569   -6.2329118    205.69255    0.0360106  0.036435349            7 
  477000    1.0854949   -6.1997804    206.14326  0.036013847  0.036417522            4 
  478000      1.05571   -6.1767384    206.63876  0.036024888  0.036400184            3 
  479000    1.0463931   -6.2476505     206.4262    0.0359127  0.036382882            4 
  480000    1.0605595   -6.2285642     206.8503   0.03591151  0.036365193            7 
  481000    1.0601809   -6.2266847    207.14157  0.035887312  0.036347511            4 
  482000    1.0981128   -6.1906107    207.07217  0.035800859  0.036329637            8 
  483000    1.0490738   -6.2485817    207.19014  0.035747091  0.036310821            5 
  484000    1.0652153   -6.2282554     206.9024  0.035623692  0.036291895            9 
  485000    1.0765993   -6.2162606    207.84547   0.03571228   0.03627256            5 
  486000    1.0741399   -6.2539965    207.73493  0.035619845  0.036253595            4 
  487000    1.0798108   -6.2033569     207.8605  0.035568189  0.036234871            7 
  488000    1.0478987   -6.2238719    209.08458  0.035704334  0.036216613            8 
  489000     1.049854   -6.2394727    208.58168  0.035545617  0.036197856            3 
  490000    1.0547634    -6.236846    209.38699  0.035610032  0.036178683           10 
  491000    1.0857417   -6.2362595     209.7775  0.035603784  0.036159868            9 
  492000    1.0561323   -6.2296231     210.0439  0.035576542  0.036141548            3 
  493000    1.0519887   -6.2348164    210.63549  0.035604376  0.036123034            6 
  494000    1.0581469   -6.2267842    211.30589  0.035645394  0.036104555            4 
  495000    1.0620754   -6.2173181    210.84994  0.035496623  0.036085469           12 
  496000    1.0768146   -6.2130424    211.53229  0.035539699  0.036066828            9 
  497000    1.0526281    -6.219199    211.66299  0.035490106  0.036048775            4 
  498000    1.0580762   -6.2233376    212.68657  0.035590123  0.036030143            7 
  499000    1.0589701   -6.2509265    212.81481  0.035540216  0.036011271            5 
  500000      1.03292   -6.2457949    212.80411  0.035467352  0.035993003            4 
  501000    1.0446837   -6.2277779    213.39819  0.035495374  0.035974313            4 
  502000    1.0506738   -6.2651551    212.34677  0.035250128  0.035955463            9 
  503000    1.0704306   -6.2570928    214.05043  0.035462297  0.035936659            5 
  504000    1.0583999   -6.2797768    213.88251  0.035364172   0.03591855           12 
  505000     1.048661   -6.3368978    214.33615  0.035369002  0.035900757            6 
  506000    1.0500307   -6.2904201     215.0279  0.035413028   0.03588288            6 
  507000    1.0660459   -6.2244814    215.63841  0.035443525  0.035865451            3 
  508000    1.0536251   -6.2709249    216.07674   0.03544566  0.035848665            7 
  509000    1.0577726   -6.2422806    216.77011   0.03548954  0.035831685            3 
  510000    1.0244215   -6.2567109    216.82257  0.035428525  0.035814857           11 
  511000    1.0377466   -6.2264881    217.90819  0.035536235  0.035798198            7 
  512000     1.076379   -6.2584253    218.02437  0.035485737  0.035781224            4 
  513000    1.0588534   -6.2554666    218.06913  0.035423835  0.035764304            5 
  514000    1.0633989   -6.2574098    218.61502   0.03544342  0.035748161            5 
  515000    1.0691747   -6.2444346    218.46024  0.035349554  0.035731901            3 
  516000    1.0410216    -6.233679    218.65777  0.035312947  0.035715013            3 
  517000    1.0643263   -6.2245726    218.96159  0.035293615  0.035698994            6 
  518000    1.0451956   -6.2708805    219.96545  0.035386978  0.035682807            6 
  519000    1.0477221   -6.2432004    219.28063  0.035208836  0.035666498           15 
  520000    1.0437501    -6.270984     219.9197  0.035243541   0.03565004           13 
  521000    1.0741464   -6.2715267    220.30796  0.035237997  0.035633791            6 
  522000    1.0467821   -6.2667891    221.32738  0.035333234  0.035617394            8 
  523000    1.0512982   -6.2481192    221.34231  0.035268055  0.035601217            4 
  524000    1.0553567   -6.2771805    221.65401  0.035250319  0.035585231           12 
  525000    1.0472459   -6.2372665    222.13014  0.035258753  0.035568548           12 
  526000    1.0505106   -6.2449169    222.04141  0.035177663  0.035551985            4 
  527000    1.0307692   -6.2349387    223.27186  0.035305481  0.035535383            4 
  528000    1.0467365   -6.2773155    222.15192  0.035061856   0.03551857           10 
  529000    1.0647087   -6.2638437     223.0649  0.035139399  0.035501437            4 
  530000    1.0443296   -6.2667755    224.08771  0.035233917  0.035484496            7 
  531000    1.0472419   -6.2675517    223.67511  0.035102811  0.035467404            4 
  532000    1.0502307   -6.2626766    224.71534  0.035199771  0.035450831            2 
  533000    1.0333742   -6.2751419    223.72888    0.0349795  0.035433814            5 
  534000    1.0174975   -6.2862244    224.76161  0.035075158  0.035416858            3 
  535000    1.0405508   -6.2487922    224.92468  0.035034996  0.035400171            5 
  536000    1.0463638   -6.2306199    225.18164  0.035009584  0.035383224            7 
  537000    1.0406812   -6.2935735    225.62834  0.035013709     0.035366            3 
  538000    1.0737617   -6.2968278     225.9012  0.034990893  0.035349002            5 
  539000    1.0121839   -6.2644334    225.11028  0.034803692  0.035331129            5 
  540000    1.0463521   -6.2555584    226.28079  0.034919876  0.035313432            5 
  541000    1.0638304   -6.2603593    226.38344  0.034871139  0.035295691            4 
  542000    1.0116773   -6.2934523    226.52876  0.034829146  0.035278355            9 
  543000    1.0441036   -6.2841424    226.54465  0.034767442  0.035260572            4 
  544000    1.0473551      -6.3224    226.94482  0.034764832  0.035243273            9 
  545000    1.0536704   -6.3140895    227.42377  0.034774276  0.035225458            7 
  546000    1.0441695   -6.2594582    227.49568  0.034721563  0.035206964            8 
  547000    1.0365083   -6.3004714     228.1591  0.034759156  0.035189029            6 
  548000    1.0110645   -6.2445466    228.88742  0.034806481  0.035171513            3 
  549000    1.0429567   -6.2436474    228.65264  0.034707444  0.035153765            2 
  550000    1.0289192    -6.299604    228.48358  0.034618725  0.035135351            5 
  551000    1.0516044   -6.2630231    229.17579  0.034660585  0.035116819            4 
  552000    1.0108593   -6.2678369     229.2153  0.034603759  0.035097622            8 
  553000    1.0260313   -6.3217064    229.24132  0.034545106  0.035078407            6 
  554000    1.0407205   -6.3228438    229.25098  0.034484202  0.035059737            3 
  555000    1.0247804   -6.2865891    230.56956  0.034620054   0.03504116            4 
  556000    1.0366876   -6.2737682    229.88899  0.034455784  0.035022552           13 
  557000    1.0206116   -6.2690359    230.54959  0.034492757  0.035003843            4 
  558000    1.0093302   -6.2895451    231.74307   0.03460918  0.034985062            6 
  559000    1.0162723   -6.2917342      230.889  0.034419946  0.034966548            7 
  560000     1.018751   -6.2859332    231.75237  0.034486959  0.034948037            4 
  561000    1.0304825   -6.2483075    232.27934  0.034503764  0.034929577            3 
  562000    1.0287893   -6.3071034    231.36808  0.034307248  0.034911106            4 
  563000     1.028862   -6.2778188    232.55596  0.034422138  0.034892176            4 
  564000    1.0160025   -6.2845664    233.98988  0.034572973  0.034873345            4 
  565000    1.0232756   -6.2742413    233.34141  0.034416138  0.034855001            7 
  566000    1.0227419   -6.3239317    233.05447  0.034313084  0.034837034            6 
  567000    1.0141569   -6.2895185    234.37055  0.034445995  0.034818867            3 
  568000    1.0064231   -6.3264162    234.39074  0.034388313  0.034800883            6 
  569000    1.0201724   -6.2920197    234.75701  0.034381518  0.034782467            9 
  570000    1.0165719     -6.28788    235.31876  0.034403328  0.034764503            6 
  571000    1.0378383   -6.2836821    235.43591  0.034360174  0.034746296            7 
  572000    1.0567722   -6.3145521    235.13531  0.034256309  0.034728241           13 
  573000    1.0220847   -6.3006615    236.09787  0.034336514   0.03471015            5 
  574000    1.0105186   -6.3187564    235.61646  0.034206803  0.034691628            4 
  575000    1.0215201   -6.2725985    236.62112  0.034292916  0.034673551            7 
  576000    1.0033949   -6.2683794    236.93707   0.03427909  0.034655893           10 
  577000    1.0400444   -6.3148823    236.80677  0.034200862  0.034637716            7 
  578000    1.0606357   -6.2550058    236.57877   0.03410882  0.034619251            9 
  579000    1.0206744    -6.293267    237.04317  0.034116749   0.03460101           13 
  580000    1.0259763   -6.3187069    237.64139  0.034143877  0.034582914            8 
  581000    1.0280855   -6.3077425    238.20813  0.034166398  0.034564851            4 
  582000    1.0107686   -6.2930901    237.93245   0.03406822  0.034546982            2 
  583000    1.0419482   -6.2751736    239.11536  0.034178868  0.034528707            5 
  584000    1.0433282   -6.2855815    238.46301  0.034027256    0.0345104            6 
  585000    1.0214759   -6.3274334    237.90407  0.033889468     0.034492           18 
  586000    1.0369432   -6.2899217    239.52276  0.034061826    0.0344728            2 
  587000    1.0080997   -6.2743458     238.9476  0.033922146  0.034453533            4 
  588000    1.0120388   -6.2996325    239.26801  0.033909866  0.034434148            4 
  589000    1.0326257   -6.3205556    239.07801  0.033825412  0.034414696            5 
  590000    1.0227906   -6.3419846    240.14814  0.033919229  0.034395215            6 
  591000    0.9964376   -6.3264663    240.45517  0.033905129  0.034376127            6 
  592000    1.0289267    -6.333576    240.29959  0.033825956  0.034357015           10 
  593000    1.0034233   -6.3493064    241.57029  0.033947484  0.034338207            5 
  594000    1.0363082   -6.3189564    240.64145  0.033760024  0.034319159            5 
  595000    1.0177014   -6.3232156    241.42811   0.03381346  0.034300006            9 
  596000     1.026123   -6.3361662    242.25343  0.033872123  0.034281068            5 
  597000    1.0320428   -6.3107922    242.09824  0.033793725  0.034262631            5 
  598000    1.0142055   -6.2911777    243.08315  0.033874463  0.034244105           13 
  599000    1.0094869     -6.31129    243.25623  0.033841991  0.034225222            5 
  600000    1.0318907   -6.3054897    243.27098  0.033787635  0.034206627            4 
  601000    1.0203944   -6.2967413    243.83745  0.033809962  0.034188247            3 
  602000     1.017409   -6.3516015    242.94681   0.03363051   0.03416984           12 
  603000    1.0236845   -6.2787066     243.1768  0.033606523  0.034151107            3 
  604000    1.0233846     -6.30226    243.43828  0.033586959  0.034131809            4 
  605000   0.99133132   -6.3248378    244.29755    0.0336498   0.03411205            4 
  606000    1.0220125   -6.2958353     243.7173   0.03351448  0.034092272            6 
  607000    1.0141957    -6.337281    244.59145  0.033579277  0.034072204            5 
  608000    1.0034203    -6.312483    243.77147  0.033411659  0.034052199            4 
  609000    1.0025158   -6.3220499    244.59551  0.033469555  0.034032438            9 
  610000    1.0125717   -6.3388079    244.95655  0.033464009  0.034012896            5 
  611000    0.9998665   -6.3302163    245.56566  0.033492316  0.033993045            3 
  612000    1.0016628   -6.2914856      245.689  0.033454384  0.033973456            6 
  613000     1.000365   -6.3387546    246.26289  0.033477826   0.03395417            3 
  614000    1.0246842   -6.3434821    246.34106  0.033433912  0.033935126            5 
  615000   0.99708175   -6.3341272    247.24819  0.033502465  0.033916201            2 
  616000    1.0262958   -6.3416088    247.29286  0.033454121  0.033897079            4 
  617000    1.0075159   -6.3357213    248.10445  0.033509515  0.033878257            8 
  618000     1.027312     -6.34001    248.36753  0.033490767    0.0338595            4 
  619000    1.0007998   -6.2904653    248.99486  0.033521117  0.033840905            7 
  620000     1.008263    -6.310703     249.1742  0.033491156  0.033822607            3 
  621000    1.0064875   -6.3171345    249.74457  0.033513763  0.033804481            7 
  622000    1.0084989   -6.3303729    249.48994   0.03342577  0.033785911           25 
  623000    1.0137783   -6.2877853    249.41217  0.033361713  0.033767541            3 
  624000   0.98809391   -6.3364838    250.14871  0.033406612  0.033748827            3 
  625000    1.0080441    -6.320276    250.02517  0.033336689  0.033730415            5 
  626000    1.0112429   -6.3565418    249.66551  0.033235558  0.033711664            8 
  627000    1.0107836   -6.3324348    250.83693  0.033338242  0.033692971            5 
  628000   0.99107338   -6.3284028    250.45527  0.033234511  0.033674443            6 
  629000    1.0068026   -6.3734437    250.84911  0.033233851  0.033656231           16 
  630000    1.0023324   -6.3234045    251.57717  0.033277404  0.033638055            5 
  631000   0.99707977   -6.3416886    250.71273  0.033110503  0.033619762            5 
  632000   0.99642932    -6.314214    253.15802  0.033380541  0.033601674            5 
  633000   0.99724714   -6.3194467     252.8035  0.033281135  0.033583737           10 
  634000   0.98163201   -6.3606827    253.23091   0.03328482  0.033565795           10 
  635000    1.0025348   -6.3828213    252.97218  0.033198449  0.033547888            9 
  636000   0.99051074    -6.359088    253.21179  0.033177645  0.033530027            5 
  637000    1.0269386   -6.3754324    253.42565  0.033153539   0.03351237            5 
  638000    0.9983863   -6.3228732    254.37398  0.033225442  0.033494597           20 
  639000   0.99542704   -6.3315513    254.86786  0.033237854  0.033476923            6 
  640000    1.0088586   -6.3510738    255.05183  0.033209873  0.033459309            4 
  641000    1.0287137   -6.3673524    254.16291    0.0330425  0.033441564            6 
  642000    1.0142103   -6.3420376    254.78462  0.033071732  0.033423474            9 
  643000   0.99212696   -6.3617389    256.00476  0.033178429  0.033405972           10 
  644000   0.99849275   -6.3535276    255.64604  0.033080492  0.033388273            4 
  645000   0.99125172   -6.3615393    256.00648  0.033075772  0.033370514            9 
  646000   0.98232996   -6.3719817    256.22821  0.033053175  0.033352891            7 
  647000   0.96460097   -6.3552521    257.20765  0.033128239   0.03333552            5 
  648000   0.99479636   -6.3648392    257.27026  0.033085167  0.033318277            3 
  649000    1.0019104   -6.3550678     257.0124  0.033001078   0.03330092            9 
  650000    1.0082799   -6.3417842     257.8347   0.03305573  0.033283747            5 
  651000    1.0018197   -6.3455936    257.66579  0.032983332  0.033266358            6 
  652000    1.0304985    -6.359651    258.23964  0.033006089  0.033248798            7 
  653000   0.99602094   -6.3984064    258.05145  0.032931528  0.033231101            9 
  654000   0.97170383   -6.3463848    258.28336  0.032910723  0.033213206            8 
  655000    1.0079036   -6.3515336       258.14  0.032842239  0.033195064            8 
  656000    1.0047992   -6.3975422     258.4149  0.032827096  0.033176933            5 
  657000    1.0071825    -6.379367     258.8403  0.032831089  0.033158654            8 
  658000      1.01433   -6.3514009    258.98637  0.032799692  0.033140425            8 
  659000   0.96823657    -6.359391    259.60643   0.03282833  0.033122031            5 
  660000   0.98833865   -6.3761501    259.61129  0.032779204  0.033103476            5 
  661000    1.0096499   -6.3738428    259.53019  0.032719389  0.033084999           11 
  662000    1.0162961   -6.3488937    259.73608  0.032695881  0.033066422            9 
  663000   0.99325355   -6.3427784    260.13123  0.032696232  0.033047736            5 
  664000   0.99641531   -6.3756466    259.93551  0.032622428   0.03302891            8 
  665000   0.99047804   -6.3907259    260.39361  0.032630778  0.033010395            7 
  666000   0.97970801   -6.3069733    261.00741  0.032658585  0.032991692            7 
  667000    1.0080861   -6.3429411    260.47454  0.032543046  0.032973124            6 
  668000    1.0086225   -6.3402978    260.79914  0.032534822  0.032954462            7 
  669000   0.95861543   -6.4214986    260.89722  0.032498409  0.032935749           13 
  670000   0.99175344    -6.370143    261.27291   0.03249663   0.03291664            6 
  671000   0.98469215   -6.3557475    261.95398  0.032532785  0.032897435            7 
  672000   0.99327655   -6.3863941    261.91976  0.032480129  0.032878227            4 
  673000    1.0204693    -6.353594    261.30886  0.032356224  0.032859137            6 
  674000    1.0002402   -6.3828898    261.87296  0.032377962  0.032839859            5 
  675000   0.97952107   -6.3653962    261.47279  0.032280591   0.03282099            4 
  676000   0.99164572   -6.3392594    263.24907  0.032451808  0.032801942            5 
  677000   0.97000166   -6.3612542    262.94595  0.032366562  0.032782733            4 
  678000    1.0080439   -6.3672897    263.77318  0.032420499  0.032763629            4 
  679000   0.97339532   -6.3718036    263.08037  0.032287724  0.032744451            7 
  680000   0.99701007   -6.3667966    262.82689  0.032209178  0.032725057           10 
  681000   0.99174443   -6.3684242    262.75657  0.032153276  0.032705383            4 
  682000   0.97618241   -6.3697949      263.928  0.032249267  0.032685724            6 
  683000   0.99698844   -6.3506393    265.34065  0.032374408  0.032666416            7 
  684000   0.97219419   -6.3834959    264.68064  0.032246667  0.032647389            4 
  685000   0.98972164   -6.3837771    264.87458  0.032223185  0.032628188            5 
  686000   0.97100421    -6.382459    264.23933  0.032099043  0.032608827            4 
  687000   0.96948682   -6.3561298    264.96081  0.032139836  0.032589554            5 
  688000   0.95589936   -6.3792004    265.73714  0.032187153  0.032570466            4 
  689000   0.95328144    -6.372384    266.27194  0.032205121  0.032551333            3 
  690000    0.9803613   -6.4002343    265.97059  0.032122052   0.03253219           10 
  691000    0.9784072   -6.3832584    266.81323  0.032177187  0.032513116            5 
  692000   0.98484813   -6.3779716    267.02076  0.032155679  0.032493967            9 
  693000   0.98559839   -6.3880001     267.3545   0.03214941  0.032474863            5 
  694000   0.99122894   -6.3755077    267.95998   0.03217579  0.032455989           15 
  695000    1.0004618   -6.3565259    267.42811   0.03206572  0.032436983            8 
  696000   0.97241851   -6.4066348    267.36672  0.032012299  0.032417798            6 
  697000   0.99102187   -6.3882619    267.30234  0.031958672  0.032398675           12 
  698000   0.97049149   -6.3736505    268.46983  0.032052272  0.032379827           17 
  699000   0.97589504   -6.3650928    268.64867  0.032027738  0.032361244            3 
  700000   0.95356373   -6.3822871    269.25908  0.032054653  0.032342558            9 
  701000   0.98666765   -6.3579591    268.66566  0.031938381  0.032323868            8 
  702000   0.97883754   -6.4013872    269.06272  0.031940019   0.03230511            8 
  703000   0.97608211   -6.4042818    269.00904  0.031888222  0.032286188            5 
  704000   0.98153594    -6.376433    269.37808   0.03188661  0.032267264            7 
  705000   0.95485919   -6.4030528    269.47034  0.031852286   0.03224803            5 
  706000   0.95253991   -6.3850298    269.81601  0.031847971  0.032229053            7 
  707000   0.97184864   -6.4226868     270.3538  0.031866314  0.032210149            4 
  708000   0.95425185   -6.3894826    270.22849  0.031806554   0.03219129           10 
  709000   0.96303511   -6.4014799    270.35513  0.031776578  0.032171999            8 
  710000   0.96829575   -6.4217287    269.90008  0.031678413   0.03215245           10 
  711000   0.98262296   -6.3871587    270.46286  0.031699819  0.032132575            7 
  712000   0.96600449   -6.4417441    269.80111  0.031577845  0.032112526           11 
  713000   0.96224996     -6.40556    270.74661  0.031644063  0.032092669           19 
  714000   0.97029438   -6.4060175    270.12758  0.031527495  0.032072591           13 
  715000   0.96784477    -6.408959    270.65633  0.031545027  0.032052271            7 
  716000   0.96398094    -6.396586    270.31288  0.031460996  0.032032061            7 
  717000   0.96956829   -6.4027815    271.75012   0.03158416  0.032011923            9 
  718000   0.96377696   -6.3922515    271.47761  0.031508543  0.031991746            6 
  719000   0.97770794    -6.409278    271.63339  0.031482776  0.031971259           15 
  720000   0.95826633   -6.3896925     272.0952    0.0314925  0.031951106            6 
  721000   0.99201115   -6.4093037    271.29753  0.031356627  0.031930901            4 
  722000   0.95016743   -6.3936075    272.24632  0.031422706  0.031910784            5 
  723000   0.93834693   -6.3996498     272.3079  0.031386342  0.031890842            6 
  724000   0.98390426   -6.4163164    272.74387  0.031393171  0.031870791            5 
  725000   0.93671491   -6.4256808    272.67311  0.031341736  0.031850454           13 
  726000   0.98908393   -6.4334274    273.21201  0.031360423   0.03183028           14 
  727000    0.9748284   -6.4003381    273.03411  0.031296895  0.031810495           12 
  728000   0.94985942   -6.3960583     274.0492    0.0313701  0.031790802            4 
  729000   0.95444057   -6.4437015    273.96538  0.031317487  0.031771348            3 
  730000   0.94408822   -6.4591912    273.90415  0.031267597  0.031751599            5 
  731000   0.97164752   -6.4245041    274.55451  0.031298964     0.031732           12 
  732000   0.94571546   -6.3893498    274.35468  0.031233456  0.031712531           11 
  733000   0.97538212   -6.4307434    274.97337  0.031261183  0.031692927            6 
  734000    0.9675111     -6.37746    275.88091   0.03132163  0.031673484            5 
  735000   0.95668344   -6.3979993    275.32433   0.03121591  0.031653681            9 
  736000   0.97000952   -6.4490751    275.11032  0.031149266  0.031633867            8 
  737000   0.94669297   -6.4052798    275.55574  0.031157366  0.031613773            4 
  738000   0.97457487   -6.4157173    275.62807  0.031123314  0.031594068            6 
  739000   0.93610068   -6.4239536    276.03039  0.031126566  0.031574373            4 
  740000   0.96982047   -6.3929443    277.40654  0.031239475  0.031554736            7 
  741000   0.96126833    -6.391158    276.02774  0.031042256  0.031534917            6 
  742000   0.97555619   -6.4142676    276.48833  0.031052149  0.031514985            8 
  743000   0.94389172   -6.4426056    276.13418  0.030970635  0.031494814            5 
  744000   0.95051939   -6.4638923     276.4833  0.030968112  0.031474418           10 
  745000   0.97102349   -6.4321484    276.67982  0.030948525  0.031453906            5 
  746000    0.9577613   -6.4809516    276.88429  0.030929881  0.031433364            5 
  747000   0.97332667   -6.4142561    277.08516  0.030910883  0.031412937            5 
  748000   0.94020408    -6.386607    278.06307  0.030978506  0.031392707            8 
  749000   0.95197661   -6.4221045    277.05059  0.030824498  0.031372581            9 
  750000    0.9345763   -6.4470744    277.35274  0.030816971  0.031352094            8 
  751000   0.95043698   -6.4245819    278.36506  0.030888267  0.031331589            9 
  752000   0.95060078   -6.4317449    278.35544  0.030846126  0.031311695           11 
  753000   0.92839184   -6.4173632    279.15014   0.03089311  0.031291961            9 
  754000   0.95464706   -6.4304892     279.5094  0.030891844  0.031272226            6 
  755000   0.95892706   -6.4426147    279.50332  0.030850256  0.031252622            5 
  756000   0.95365646   -6.4054581     279.6625  0.030826995  0.031232678            5 
  757000   0.93420592   -6.4253468    280.10775  0.030835288  0.031212939            7 
  758000   0.97925027   -6.4042683    279.78371  0.030758984  0.031193347            7 
  759000    0.9428158   -6.4445077    279.11745  0.030645307  0.031173439           18 
  760000   0.95106805   -6.4415154    280.31642   0.03073645  0.031153376            9 
  761000   0.94205643   -6.4800904    280.39784  0.030704975  0.031133624           12 
  762000   0.96227122   -6.4783654    280.13179  0.030635585  0.031113502            5 
  763000   0.95349369   -6.4324544    280.98314  0.030688417  0.031093605           10 
  764000   0.93493854   -6.4511879    280.64332  0.030611182  0.031073895           22 
  765000   0.95968729   -6.4304153     280.9328  0.030602702  0.031053878            4 
  766000   0.96117906   -6.4495239    281.69184  0.030645327   0.03103403           11 
  767000    0.9457046   -6.4728118    281.74249  0.030610874  0.031014299            6 
  768000   0.96376299   -6.4319304    281.50782  0.030545554  0.030994735           15 
  769000    0.9417298   -6.4407811    282.84258  0.030650474  0.030975053            9 
  770000   0.94201927   -6.4849386    282.12738  0.030533266   0.03095541           12 
  771000   0.95359081   -6.4813573    282.97035  0.030584776  0.030935899           15 
  772000   0.92513289   -6.4553489     283.0294  0.030551533  0.030916595            7 
  773000   0.95964184   -6.4162215    283.97079  0.030613497  0.030897414            7 
  774000   0.92278786   -6.4066667    284.26846  0.030605992  0.030878243            7 
  775000   0.94644572   -6.4536671    283.67402  0.030502583  0.030858792           10 
  776000   0.94944387   -6.4281433    284.20096  0.030519863  0.030839416            4 
  777000   0.94818923   -6.4529031    284.03585  0.030462875  0.030820042            6 
  778000   0.96237106    -6.448526     284.8285  0.030508623  0.030800937            6 
  779000   0.95167911   -6.4253938    285.46085  0.030537104  0.030781786            7 
  780000    0.9494322   -6.4440832    285.91091  0.030546037  0.030762895           15 
  781000   0.92480709   -6.4423583    284.92088  0.030401289   0.03074404            4 
  782000   0.93010408   -6.4428808    284.83678  0.030353451  0.030724927            6 
  783000   0.93577964   -6.4420981    285.54133  0.030389669  0.030705917            5 
  784000   0.94661599   -6.4715555    284.95536  0.030288623  0.030686541            8 
  785000   0.93178471   -6.4421177    286.16132  0.030378059  0.030667203            4 
  786000   0.92224781   -6.4531099    286.32731  0.030357009  0.030647982            5 
  787000   0.93586778   -6.4563947    286.79719   0.03036819  0.030628903            4 
  788000   0.94879134   -6.4553962    286.65226  0.030314325  0.030609942           10 
  789000   0.92577088   -6.4450216    287.04631  0.030317523  0.030590798            5 
  790000   0.93137712   -6.4443739    287.10183  0.030285003  0.030571606            6 
  791000   0.92191046   -6.4793317    287.12227   0.03024887  0.030552587            7 
  792000   0.94572881   -6.4717138    286.93481  0.030190952  0.030533397           17 
  793000   0.91834596   -6.4898834    286.83951  0.030142866  0.030514491            7 
  794000    0.9076012   -6.4542782    288.06888  0.030233929  0.030495544            4 
  795000   0.91919328   -6.4505153    287.97058  0.030185595  0.030476793            6 
  796000   0.92231353   -6.4564653    287.76425  0.030126073  0.030457883            2 
  797000   0.93526939   -6.4447454    287.77516  0.030089414  0.030438948           12 
  798000   0.94628755   -6.4580976    287.72204  0.030046161  0.030419947            5 
  799000   0.92753972   -6.4455332    289.26569  0.030169554  0.030400995           11 
  800000   0.93795739   -6.4392067    288.98458   0.03010256  0.030382143            8 
  801000   0.92346282   -6.4832999    288.09181  0.029972098  0.030362996           14 
  802000    0.9228468   -6.4486427    289.52327  0.030083465  0.030343815           12 
  803000    0.9372005   -6.4650126     288.5581  0.029945839  0.030324616            6 
  804000    0.9288705   -6.4726877    289.09311  0.029964045  0.030305406           11 
  805000   0.95041344   -6.4604883    289.95488  0.030016033   0.03028647           12 
  806000   0.91814031   -6.4712327    289.96484  0.029979822  0.030267598            9 
  807000   0.93599106   -6.4773297    290.55317  0.030003425  0.030248686           10 
  808000   0.92979041   -6.4860846    290.78641  0.029990347  0.030230004           12 
  809000   0.92919373   -6.4751956    290.75736  0.029950284  0.030211386           14 
  810000   0.90306221    -6.460662    291.43252   0.02998277  0.030192587           14 
  811000   0.91781705   -6.4867639    291.10381  0.029912023  0.030173687            5 
  812000   0.94147067   -6.4430309    291.45815  0.029911551  0.030154992            4 
  813000    0.9175923   -6.4714239     291.5915  0.029888427  0.030136331            7 
  814000   0.94314164   -6.4712978    291.51161  0.029843531  0.030117408           10 
  815000   0.92266122    -6.495192    291.58155  0.029814064  0.030098635            4 
  816000   0.94464427   -6.4810505    291.76084  0.029795837  0.030079488           13 
  817000    0.9312405   -6.4828653    292.21594  0.029805787  0.030060588            4 
  818000   0.93892725   -6.4997171    291.89007  0.029736152  0.030041542            9 
  819000   0.92642713   -6.4556381    293.08762  0.029821695  0.030022353            4 
  820000    0.9400427   -6.4620103     291.9822  0.029672988  0.030003261            9 
  821000   0.92280348   -6.4966475    292.70355  0.029710064  0.029984106            5 
  822000   0.91387654   -6.4917754    292.88923  0.029692745  0.029965028            4 
  823000   0.93828872   -6.4688491    292.95839  0.029663669  0.029946038            5 
  824000   0.92313303   -6.4571468    293.64005  0.029696607    0.0299271            9 
  825000   0.93536568   -6.4687693    294.15476  0.029712602  0.029908226           11 
  826000   0.91970011   -6.5006357    293.30469  0.029590869  0.029889521           10 
  827000   0.93421291   -6.4857508     294.7383  0.029699547  0.029870975            6 
  828000   0.91402531    -6.478199     295.2797  0.029718166  0.029852564            4 
  829000   0.92799505   -6.4723304    294.76062  0.029630139  0.029834156           14 
  830000   0.92375521   -6.5009469    294.92366   0.02961081  0.029815575           10 
  831000   0.91424928   -6.5205285    294.64383  0.029547115  0.029797067           21 
  832000   0.91091048   -6.4794175    295.51904  0.029599263   0.02977837           13 
  833000   0.92519718   -6.4832626    295.69721  0.029581553  0.029760008           10 
  834000   0.92864319   -6.4751726    295.70157   0.02954652  0.029741384            7 
  835000   0.93426437   -6.4860113    296.09112  0.029550012  0.029722811            7 
  836000   0.90854593   -6.5014432    295.73698  0.029479364  0.029704317            6 
  837000   0.92141526   -6.4711972     296.0896  0.029479251  0.029685739           11 
  838000   0.91821189    -6.477987    296.81359  0.029516069  0.029667219           11 
  839000   0.91978903   -6.4684352    297.05565  0.029504932  0.029648937            3 
  840000   0.91211492   -6.5084681     295.9552  0.029360635  0.029630517           15 
  841000   0.91681924    -6.527759    297.24429  0.029453457  0.029612046            6 
  842000   0.92104577    -6.473925    297.10879  0.029405067  0.029593526           16 
  843000   0.91470762   -6.4807736     297.1344  0.029372716  0.029575356            6 
  844000   0.91505329   -6.5225857    297.34651  0.029358858  0.029557004           18 
  845000   0.92461623   -6.4917802    298.23533  0.029411768  0.029538772            4 
  846000   0.93063364   -6.4912194    297.78902   0.02933304   0.02952052            7 
  847000    0.8954762    -6.497712    298.26672  0.029345407  0.029502287            5 
  848000   0.91917071   -6.4869172    298.85623  0.029368733   0.02948404            4 
  849000   0.90391913   -6.5005179    298.39111  0.029288488  0.029465702            8 
  850000   0.90634736   -6.5080074    299.25867  0.029339085  0.029447243            9 
  851000   0.92281941   -6.5017858    299.23886  0.029302669  0.029429181            9 
  852000   0.92927433   -6.4956734      299.231  0.029267507  0.029411333           10 
  853000   0.93050754   -6.5179903    299.05091  0.029215603  0.029393254           16 
  854000   0.91775766   -6.5106791    299.77102   0.02925166  0.029375142           12 
  855000   0.91227214   -6.4997029    300.08341  0.029247896  0.029357161            5 
  856000   0.89228123   -6.4997334    301.32282  0.029334386  0.029339365            7 
  857000   0.92344059   -6.5039481    300.51318  0.029221429  0.029321598            7 
  858000   0.92751024   -6.5067763     301.8226  0.029314549  0.029304003            5 
  859000    0.9233108   -6.5217197    300.11451  0.029114718  0.029286251           10 
  860000   0.89897498   -6.5134461    300.79468  0.029146771  0.029268601            8 
  861000   0.90463152   -6.5033387    301.19768  0.029151924  0.029251136            9 
  862000   0.89311168   -6.4984515    301.38025  0.029135755  0.029233361           10 
  863000   0.90811864   -6.5402133    301.14811  0.029079578  0.029215591            9 
  864000   0.92257767   -6.5091144    300.56124  0.028989317  0.029197517            5 
  865000    0.9285621   -6.5206749    301.73314  0.029068703   0.02917949            8 
  866000     0.894318   -6.5266196    301.98787  0.029059649    0.0291614            8 
  867000   0.90196694   -6.5235853    302.59661  0.029084642  0.029143546            8 
  868000   0.89936537   -6.5126628    303.41124  0.029129344  0.029126049           12 
  869000   0.90942833   -6.5082435    302.58533  0.029016621  0.029108579            9 
  870000   0.89502108    -6.518294    304.36838  0.029154059  0.029090935            8 
  871000   0.90084647   -6.5310158    303.45468  0.029033169  0.029073402            5 
  872000   0.90517833   -6.5492413    302.62939  0.028921005  0.029055905           29 
  873000   0.89056261   -6.5373142     303.3269  0.028954458  0.029038231            5 
  874000   0.91278445   -6.5789365    303.22308   0.02891143  0.029020613            8 
  875000   0.88161686   -6.5086167    304.10173   0.02896207  0.029002931           10 
  876000   0.89007745    -6.525627    304.12578  0.028931296  0.028985299            7 
  877000   0.89429889    -6.528624    304.48014  0.028931979  0.028967714           10 
  878000   0.90380822   -6.5479733    303.84961  0.028839181  0.028949977            4 
  879000   0.91589341     -6.52496    303.82982  0.028804496  0.028932425           10 
  880000   0.90569813   -6.5100982    304.42403  0.028828033  0.028914909            7 
  881000   0.92274093   -6.5165528    306.14373  0.028957977  0.028897471            6 
  882000   0.88798751   -6.5013098    305.61669  0.028875349  0.028879911           20 
  883000   0.89812323   -6.5343392    304.54274  0.028741293  0.028862319           11 
  884000    0.8893607   -6.4950092    305.43876  0.028793247  0.028844788           15 
  885000   0.89731095   -6.5344752    305.17843  0.028736198  0.028827371           12 
  886000   0.88013938   -6.5308575    305.18514  0.028704397  0.028809705           27 
  887000   0.89793898   -6.5677787    304.95479  0.028650394  0.028791908           17 
  888000   0.91156507   -6.5360356    306.37849  0.028751735   0.02877413            3 
  889000   0.88779085   -6.5214934    305.75939   0.02866136  0.028756266            7 
  890000   0.90015877   -6.5175417    306.33725  0.028683263  0.028738325            6 
  891000   0.89204333   -6.5207929     304.9843  0.028524532  0.028720367            6 
  892000   0.89406603   -6.5422826    305.45428  0.028536461  0.028702343           10 
  893000   0.88011502   -6.5345871    305.24659  0.028485124  0.028684416            9 
  894000   0.89380853   -6.5038634    306.59839  0.028579268  0.028666455            7 
  895000   0.90281184   -6.5667321    306.35614   0.02852478  0.028648483            5 
  896000   0.88103261   -6.5114214    306.49673   0.02850602  0.028630386           15 
  897000   0.88589911   -6.5278391     307.5307  0.028570299  0.028612438            9 
  898000   0.88505014   -6.5130851    307.42926   0.02852907  0.028594441            9 
  899000   0.90491134   -6.5460308    306.70494  0.028430194  0.028576382            7 
  900000   0.88207137    -6.526317    307.36419  0.028459647  0.028558356            6 
  901000    0.8986898   -6.5233265    307.86172  0.028474077  0.028540439           20 
  902000   0.88246571   -6.5198174    307.95535   0.02845116  0.028522622           14 
  903000    0.8996852   -6.5398527    307.74581  0.028400314  0.028505028           13 
  904000   0.88433204   -6.5660258    308.08642  0.028400297  0.028487328            5 
  905000   0.88420846   -6.5517718    308.35726  0.028393855  0.028469435           17 
  906000   0.90554384   -6.5327943    308.65667  0.028390055   0.02845148            8 
  907000   0.90904739   -6.5494048     308.5663   0.02835045  0.028433664            7 
  908000   0.87056618   -6.5768846    308.56845  0.028319424  0.028415749           10 
  909000   0.88771939   -6.5486602     308.9611  0.028324267  0.028397826           15 
  910000   0.90241323   -6.5418339    309.17494  0.028312723  0.028379939           13 
  911000   0.88979765   -6.5665456    308.86659  0.028253439  0.028362031            9 
  912000    0.9094046    -6.566562    309.37746  0.028269139  0.028344121           20 
  913000   0.89900105   -6.5690649    308.75168  0.028181059     0.028326            5 
  914000   0.87952392   -6.5664946    308.51213  0.028128385  0.028307853            7 
  915000   0.87991894   -6.5438164    309.79736  0.028214696  0.028289655            8 
  916000   0.87117214   -6.5454789    308.91959  0.028104039  0.028271505            9 
  917000   0.89676019   -6.5693653    310.10385  0.028181012  0.028253598           11 
  918000   0.87835078   -6.5650025    310.42818  0.028179755  0.028235585           13 
  919000   0.89503917   -6.5279219    309.33714  0.028050158  0.028217472            7 
  920000   0.87989138   -6.5717307    309.28095  0.028014579  0.028199159            8 
  921000   0.88609919    -6.556816    309.60959  0.028013897  0.028180725           17 
  922000   0.89068037   -6.5614547    309.86637  0.028006722   0.02816216           10 
  923000    0.8863744   -6.5770556    310.31807  0.028017161  0.028143632           11 
  924000     0.881814   -6.5775882     310.2213  0.027978112  0.028125143           10 
  925000    0.8900037    -6.609263    310.31669  0.027956458  0.028106734            9 
  926000   0.87177751   -6.5792906    310.44233  0.027937575  0.028088257           15 
  927000   0.90296239   -6.5903372    310.48232  0.027911032  0.028069893            5 
  928000   0.86628137   -6.5762732    311.42857  0.027965928  0.028051753           12 
  929000   0.88585188   -6.5626447    311.57929  0.027949344  0.028033805           11 
  930000   0.90437797   -6.5480956     311.6653  0.027926998   0.02801588           11 
  931000   0.88668051   -6.5344232    312.34192  0.027957565  0.027997997            6 
  932000   0.89012842   -6.5746195    312.54593  0.027945809  0.027980178            6 
  933000   0.89361342   -6.5716498    312.62823  0.027923207  0.027962201            6 
  934000    0.8913898   -6.5761547    313.07381  0.027933067  0.027944421           17 
  935000   0.86657152   -6.5697921    313.10709  0.027906158  0.027926711           11 
  936000   0.89042823   -6.5570509    313.29184  0.027892792  0.027909142            8 
  937000   0.88408066   -6.5607276    313.28152  0.027862106  0.027891394           19 
  938000   0.86283589   -6.5427362    313.20175  0.027825316   0.02787366            7 
  939000   0.89362441   -6.5840854    313.40771   0.02781396  0.027855914           12 
  940000    0.8851476   -6.5861559    313.34236  0.027778578  0.027838043           13 
  941000   0.86178095   -6.5701383    313.11665   0.02772907  0.027820064            6 
  942000   0.87391491   -6.5671582     313.5389  0.027736987  0.027802471            7 
  943000   0.85819651   -6.5562108    313.99615  0.027747981  0.027784963           24 
  944000     0.879563   -6.6127655    313.10888  0.027640261  0.027767137           10 
  945000   0.88268687   -6.5899677    313.47965  0.027643708  0.027749201           12 
  946000   0.88542803   -6.5994676    313.74675  0.027638015  0.027731218            7 
  947000    0.8629311   -6.5874773    314.57228  0.027681474  0.027713336            7 
  948000   0.88027021   -6.6015398    314.09448  0.027610274    0.0276955           13 
  949000   0.85466623    -6.584128    315.05191  0.027665254  0.027677593           13 
  950000    0.8955704   -6.5453244    314.76354  0.027610837  0.027659823            7 
  951000   0.87261286    -6.570144    315.73121  0.027666597  0.027642234           10 
  952000   0.86261482   -6.5676172    314.98593  0.027572298  0.027624441           17 
  953000   0.86623289   -6.5840557    315.55685  0.027593289  0.027606716           12 
  954000   0.87283733   -6.5822797    315.94039  0.027597868  0.027589033           13 
  955000   0.87371119   -6.5939554    315.26789  0.027510287  0.027571394            4 
  956000   0.85857982   -6.5996917    316.08996  0.027553169  0.027553906            6 
  957000   0.85496085   -6.5916951    316.35153  0.027547155  0.027536466           60 
  958000   0.85580938   -6.5941661    316.52917  0.027533853  0.027518995           14 
  959000   0.88208752   -6.6045661    315.94491  0.027454372  0.027501376            9 
  960000   0.87396907   -6.5793197    316.77018  0.027497412  0.027483948            8 
  961000   0.86713204    -6.581164    316.34456   0.02743189  0.027466599            5 
  962000    0.8596002   -6.5515794     317.3773  0.027492836  0.027449134            6 
  963000   0.86902736   -6.5968523    316.61383   0.02739822  0.027431597            8 
  964000   0.85393461   -6.5896568    316.55541  0.027364748  0.027414105           17 
  965000   0.87069267   -6.5917133     317.2411  0.027395604  0.027396559            7 
  966000   0.86157409   -6.6069636    317.19778  0.027363508  0.027379122            8 
  967000   0.86178545    -6.612231    316.84831  0.027305094  0.027361478            8 
  968000   0.85481461   -6.5881698    317.83117  0.027361499  0.027343949            9 
  969000   0.87467747   -6.6126905    317.41224  0.027297234  0.027326384           10 
  970000   0.86420296   -6.5800318    317.09752  0.027242055  0.027308808           13 
  971000   0.84915292   -6.5847257      317.864   0.02727978  0.027291497            7 
  972000   0.85992576   -6.5813902    317.44881  0.027216119  0.027274095            5 
  973000   0.86320635   -6.5874873    317.94397  0.027230555  0.027256787           12 
  974000    0.8920565   -6.5938883    317.50818  0.027165313  0.027239298           20 
  975000   0.86149072   -6.6185283    318.37754  0.027211756  0.027221776            9 
  976000   0.86411385   -6.5862001    318.28973  0.027176377  0.027204077            3 
  977000   0.85770878   -6.6242816    317.86122  0.027112011  0.027186372            5 
  978000   0.86083614   -6.5902575    318.65065  0.027151555  0.027168547           13 
  979000   0.86578581   -6.6062087    318.41753  0.027103978  0.027150755           11 
  980000   0.86482671   -6.6116636     318.7189  0.027101947  0.027132897           10 
  981000   0.85281783   -6.6162991    318.11544  0.027023058  0.027115173           13 
  982000   0.86032056   -6.5833356    317.60904  0.026952567  0.027097246           10 
  983000   0.87351902    -6.628503    319.11345  0.027052683   0.02707944            4 
  984000   0.86305698   -6.5873881    318.70857  0.026990902  0.027061697           13 
  985000   0.86351369   -6.5928361    319.40116  0.027022094    0.0270439           17 
  986000   0.87218573   -6.5979582    319.84811  0.027032464   0.02702622           19 
  987000   0.87177043    -6.585437    319.87106  0.027007013   0.02700857           12 
  988000   0.84791137   -6.5960459    319.09702  0.026914391  0.026990855            8 
  989000   0.85437767   -6.5987871    319.88899  0.026953909  0.026973103            9 
  990000   0.84230371   -6.6092729    319.48423  0.026892612   0.02695522           20 
  991000   0.84498661   -6.6111502     318.2973  0.026765666  0.026937327           17 
  992000   0.87743405   -6.6143692     320.0935  0.026889575  0.026919365           13 
  993000   0.86780799   -6.6324463    319.49282  0.026812086  0.026901494            6 
  994000   0.86846264   -6.6127827    319.35434  0.026773502   0.02688346            6 
  995000   0.85971902   -6.6017401    319.83846   0.02678714  0.026865486           30 
  996000   0.86162735   -6.5872581    320.28644  0.026797727  0.026847844            7 
  997000   0.86953649   -6.6153055    321.04962  0.026834639   0.02683013           13 
  998000   0.85812135   -6.5874166     321.1407  0.026815356  0.026812343           19 
  999000   0.85883811     -6.62274    320.45614   0.02673141   0.02679449            8 
 1000000   0.85612377   -6.5984895    320.47893  0.026706577  0.026776668           31 
 1001000   0.85999286   -6.6257448    321.06056  0.026728318  0.026758869           12 
 1002000     0.863906   -6.6133312    321.27113  0.026719156  0.026741138           16 
 1003000   0.82833765   -6.6194371    321.78812   0.02673547  0.026723399            7 
 1004000    0.8357561   -6.5803688    321.47633  0.026682963  0.026705859           11 
 1005000   0.82636536   -6.6056231      321.115  0.026626451  0.026688313            7 
 1006000   0.86012001   -6.6020295    322.06566  0.026678733  0.026670554            5 
 1007000   0.84974828   -6.6251125    321.69841  0.026621848  0.026652756            9 
 1008000   0.84452694   -6.6077912    321.91025  0.026612951  0.026634896            8 
 1009000   0.86575851   -6.6073549    322.10023  0.026602265  0.026617095           33 
 1010000   0.84012202   -6.6422423    321.93257  0.026562093  0.026599312            8 
 1011000   0.85287269   -6.6313069    322.50651  0.026583128  0.026581437           10 
 1012000   0.83684714   -6.6219966     321.9649  0.026512261  0.026563695           18 
 1013000   0.83473378   -6.6164035    322.90968   0.02656381   0.02654591           13 
 1014000   0.83908087   -6.6537138    322.40463  0.026496107  0.026528078           10 
 1015000   0.85515975    -6.624821    321.53177  0.026398339  0.026510266           12 
 1016000   0.85887891    -6.633119    322.60102  0.026460058  0.026492506            8 
 1017000   0.84450339   -6.6267956    322.47629  0.026423819  0.026474684           14 
 1018000   0.85204998   -6.6649323    322.92655  0.026434721   0.02645685           10 
 1019000   0.86006085   -6.6477831    323.43631  0.026450467  0.026439219            7 
 1020000    0.8511857   -6.6406813     322.8751  0.026378685  0.026421539           12 
 1021000   0.84950467   -6.6063336    322.75317  0.026342896  0.026403803            7 
 1022000   0.83291801   -6.6175655     322.6339  0.026307396  0.026386076           28 
 1023000   0.84992965   -6.6385724    322.34037  0.026257769  0.026368259           10 
 1024000   0.86434512   -6.6375022    323.18544  0.026300898  0.026350561           18 
 1025000   0.84177356   -6.6287886    323.76665  0.026322492  0.026332876           39 
 1026000   0.84408686   -6.6484994    323.78738   0.02629852  0.026315134           10 
 1027000   0.85014038   -6.6629066    323.23254  0.026227892  0.026297369           17 
 1028000   0.83707996   -6.6323807    324.47482  0.026303082  0.026279706           13 
 1029000   0.83782724   -6.6248845    324.24203  0.026258668  0.026262107           13 
 1030000    0.8394898   -6.6256397    324.70313  0.026270479  0.026244634            8 
 1031000   0.85000413   -6.6698546    324.19999  0.026204332  0.026227248           12 
 1032000     0.862179   -6.6314685    324.43704  0.026198081  0.026209808           21 
 1033000   0.84049372   -6.6776864    324.78949  0.026201153  0.026192378            9 
 1034000   0.83381504    -6.646129    324.27242  0.026134141  0.026174828           11 
 1035000   0.84758822   -6.6284047    325.43634  0.026202604  0.026157503            6 
 1036000   0.83556921   -6.6326538    326.16989  0.026236317  0.026140206           10 
 1037000     0.817565   -6.6528161    325.72472  0.026175243  0.026122905           23 
 1038000   0.84047542   -6.6430076    325.44121  0.026127265  0.026105488            9 
 1039000   0.84675441   -6.6516975    325.74145  0.026126199  0.026088238           20 
 1040000   0.84217303   -6.6679864    324.98236  0.026040253  0.026070703           14 
 1041000   0.83015237   -6.6348336    325.65325  0.026068944  0.026053305            8 
 1042000   0.85486054   -6.6539164    326.03034  0.026074083  0.026036052           30 
 1043000   0.81710542   -6.6456033    325.79254  0.026030085  0.026018835           53 
 1044000   0.82023854   -6.6364833    326.32375  0.026047553  0.026001567           31 
 1045000   0.84149036   -6.6719114     327.1491  0.026088445  0.025984309           46 
 1046000   0.83947396   -6.6547431    326.42407  0.026005741  0.025966959           15 
 1047000   0.83550534      -6.6986    325.79702  0.025930995  0.025949679           16 
 1048000   0.82632467    -6.657976    325.74205  0.025901881  0.025932311           26 
 1049000   0.81962703   -6.6769491    325.91028  0.025890553  0.025914819           65 
 1050000   0.83636641   -6.6355409    326.01517   0.02587422  0.025897309           29 
 1051000    0.8517728   -6.6600851    326.64646  0.025899656  0.025879816           13 
 1052000   0.84252134   -6.6429223    327.17243  0.025916701  0.025862542           20 
 1053000   0.84218216    -6.649339    327.82117  0.025943429  0.025845239           11 
 1054000    0.8197473   -6.6386296    327.76555  0.025914417  0.025828182           14 
 1055000   0.85125616   -6.6408326    328.40517  0.025940377  0.025811124           10 
 1056000   0.84292002   -6.6353295    327.60348  0.025852547  0.025794172            8 
 1057000   0.82784456   -6.6603234    327.82295  0.025845392  0.025777254           10 
 1058000   0.83644529   -6.6722086    328.16439  0.025847857  0.025760246           19 
 1059000   0.83069384   -6.6437903    328.08186  0.025816955  0.025743191           25 
 1060000   0.84468574   -6.6465664    328.53435  0.025828172   0.02572624           21 
 1061000   0.82622481     -6.65401    329.45934  0.025876479  0.025709403           13 
 1062000   0.82410533   -6.6793582    328.51156  0.025777743  0.025692504           12 
 1063000   0.84007604   -6.6602867    328.52712  0.025754713  0.025675544           25 
 1064000   0.81778361   -6.6969064    329.12341   0.02577721  0.025658467           56 
 1065000    0.8248123   -6.6928033    328.11188  0.025673856  0.025641325           24 
 1066000   0.83740853   -6.6816717    328.77499   0.02570161  0.025624199           15 
 1067000   0.83079251   -6.6755382    328.66926  0.025669264  0.025607135           14 
 1068000   0.83957751   -6.6431486    329.32667  0.025696525  0.025590128           12 
 1069000   0.82229816   -6.6942534    329.72674  0.025703675  0.025573136           14 
 1070000   0.83281774   -6.6786172    329.23628  0.025641455  0.025556168           11 
 1071000   0.81716537   -6.6451388    329.71866  0.025655047  0.025539209           16 
 1072000   0.83102384   -6.6644605    330.52626  0.025693894  0.025522439           15 
 1073000   0.84454927   -6.6823656    329.91281  0.025622305  0.025505618           21 
 1074000   0.80786454   -6.6532503    329.92425  0.025599337  0.025488775            9 
 1075000   0.83599306   -6.6683632    329.31665  0.025528423  0.025471931           11 
 1076000    0.8210049   -6.6665746    329.89194  0.025549252  0.025454981            7 
 1077000   0.81978952   -6.6495353    330.20714  0.025549918  0.025438092           14 
 1078000   0.84364851   -6.6669635    330.98388  0.025586262  0.025421272            7 
 1079000   0.81871577   -6.6693677    330.93526  0.025558794  0.025404433            9 
 1080000   0.82092869   -6.6492485    330.75113  0.025520921   0.02538754            8 
 1081000   0.80509739   -6.6656418    330.21454  0.025455947  0.025370614           27 
 1082000   0.81964703   -6.6394575    330.70988   0.02547057  0.025353743            7 
 1083000   0.81486914   -6.6728859    330.52553  0.025432867  0.025336942           10 
 1084000   0.83466021   -6.6799796    330.35894  0.025396598  0.025320066           41 
 1085000   0.81494274   -6.6618831    330.68308  0.025398086  0.025303141            7 
 1086000   0.81190405   -6.7174985    330.97369  0.025396999  0.025286169            7 
 1087000   0.81391269   -6.6828908    330.69175   0.02535202   0.02526915           19 
 1088000   0.80760368   -6.6853387    331.12621  0.025361995  0.025252147           15 
 1089000   0.81469806   -6.6753665    332.50487  0.025444205  0.025235416           11 
 1090000   0.82030964   -6.6891064    331.89235  0.025374033   0.02521873           11 
 1091000   0.83424929   -6.6860433    332.07399   0.02536465  0.025201948            8 
 1092000   0.82246253   -6.7065627    331.86782  0.025325688    0.0251851            6 
 1093000   0.82749966   -6.7037927    331.39224  0.025266258  0.025168229           32 
 1094000   0.81896538   -6.6771736    331.71146  0.025267478  0.025151333            7 
 1095000   0.83967324    -6.687905    332.42181  0.025298464  0.025134532           16 
 1096000   0.82388899   -6.6837744    332.12994  0.025253189  0.025117762           10 
 1097000   0.80067886   -6.6975282    331.49528  0.025181957   0.02510095            7 
 1098000    0.8269211     -6.68361     332.2218  0.025214162  0.025084204            5 
 1099000    0.8106507   -6.6825658    333.03548  0.025252918  0.025067545           24 
 1100000   0.80880382   -6.7008601    332.60092   0.02519704   0.02505072           21 
 1101000   0.80529362   -6.7041926    332.16033  0.025140806  0.025033854           12 
 1102000   0.80085609   -6.7171637    331.85551  0.025094942  0.025016901           14 
 1103000   0.81512345   -6.7049653    332.73604  0.025138715   0.02499999           12 
 1104000    0.8240669   -6.6833729     332.6754  0.025111368  0.024983077           23 
 1105000   0.82874179   -6.6897984    332.19504  0.025052417  0.024966315            6 
 1106000   0.80893441   -6.6855319    333.12255   0.02509965  0.024949555           17 
 1107000   0.82093785   -6.7100409    332.92452  0.025062068   0.02493278           34 
 1108000   0.82652827   -6.7182877    332.97959  0.025043591  0.024915894           24 
 1109000   0.81157104   -6.7209752    333.58514  0.025066512  0.024898993           11 
 1110000   0.80544544   -6.6899916    333.84449    0.0250634  0.024882165           22 
 1111000   0.78879814   -6.6961276    332.55377  0.024944027  0.024865234           22 
 1112000   0.80126692   -6.6886231     333.2991   0.02497745  0.024848272            9 
 1113000   0.80104128   -6.6973248    332.81374  0.024918669    0.0248313           20 
 1114000   0.80069315    -6.686396    333.09584  0.024917403  0.024814367           19 
 1115000   0.80034409   -6.7315202    333.25494  0.024906946  0.024797532           12 
 1116000    0.7911738   -6.7031492    333.97999  0.024938769  0.024780697           17 
 1117000   0.81554701   -6.6920183    333.77504  0.024901152  0.024763883           14 
 1118000   0.82003647   -6.6961799    333.90053  0.024888233  0.024747079           30 
 1119000   0.80119561    -6.677452    333.77161  0.024856391   0.02473032            5 
 1120000   0.79892464   -6.6794224    334.41376  0.024881976  0.024713569           11 
 1121000   0.78856242   -6.6911229     334.2587  0.024848253  0.024696876           16 
 1122000   0.79109264   -6.7307235    334.06837   0.02481197  0.024680245            8 
 1123000   0.79659851   -6.6997619    334.47561  0.024820096  0.024663547            8 
 1124000   0.81889147   -6.7013212    333.84811  0.024751491  0.024646869           10 
 1125000   0.80543616   -6.7204998    334.46844   0.02477544  0.024630092           35 
 1126000   0.80328317   -6.7237447     334.7355  0.024773202  0.024613351           22 
 1127000   0.80734312   -6.7159999    334.41564  0.024727569  0.024596549           25 
 1128000   0.78861593   -6.7198763    334.90273  0.024741632  0.024579666           24 
 1129000   0.80473412   -6.7046363    334.81007  0.024712878  0.024562656           13 
 1130000   0.81532743   -6.7409785      334.984  0.024703835  0.024545775           12 
 1131000   0.79570615   -6.6970534    334.46725  0.024643917   0.02452883           17 
 1132000   0.80454789   -6.6910214    335.40723  0.024691345  0.024512022           15 
 1133000   0.78116964   -6.7135014    335.91999  0.024707266   0.02449528           31 
 1134000   0.80442932   -6.7267656    335.22956  0.024634741  0.024478539           16 
 1135000   0.80252138   -6.7002776    335.98529  0.024668524  0.024461826           15 
 1136000   0.79888639   -6.7100891    335.11266  0.024582795  0.024445041           10 
 1137000   0.79122964   -6.7129781    334.63384  0.024526081  0.024428146           15 
 1138000   0.79284942      -6.7401    334.81554  0.024517834  0.024411305           24 
 1139000   0.80411913   -6.7117245      335.009  0.024510462  0.024394386           33 
 1140000   0.79407049   -6.7363064    335.26597  0.024507747  0.024377615           21 
 1141000   0.79848593   -6.7104828    335.26417  0.024486136  0.024360811           20 
 1142000   0.81688477   -6.7268183    335.35276  0.024471159  0.024343914           27 
 1143000   0.79644609   -6.7410127    336.18598  0.024510497  0.024327016           34 
 1144000   0.79785663   -6.7387033    335.65805  0.024450615  0.024310218           52 
 1145000    0.7940669    -6.714561    335.26549  0.024400691  0.024293409           46 
 1146000   0.79854802   -6.7233236    335.15651  0.024371474   0.02427663           11 
 1147000   0.78137887   -6.7206178    335.71671  0.024390926  0.024259935           19 
 1148000   0.79565623   -6.7231337    335.63583  0.024363809  0.024243182           28 
 1149000   0.79155986   -6.7499093    336.31305  0.024391721   0.02422632           65 
 1150000   0.77376448    -6.747805    335.69503  0.024325727  0.024209519           55 
 1151000   0.79556911   -6.7365196    335.48788  0.024289595  0.024192616           58 
 1152000   0.81102009   -6.7163419    336.60952  0.024349647  0.024175729           37 
 1153000   0.80089524   -6.7166404    336.25645   0.02430301  0.024159004           42 
 1154000   0.79001176   -6.7301581    335.99702  0.024263217  0.024142224           13 
 1155000   0.80731753   -6.7169917    337.23146  0.024331274  0.024125644           31 
 1156000   0.79718017     -6.73097    336.49103   0.02425685  0.024109074           20 
 1157000   0.79307877   -6.7184234    337.32363  0.024295853  0.024092454           21 
 1158000   0.78845445   -6.7529164    337.41043  0.024281119   0.02407579           15 
 1159000   0.78459298   -6.7199191    337.27174  0.024250197  0.024059086           15 
 1160000   0.77996159   -6.7497929    336.72636  0.024190112  0.024042417           13 
 1161000    0.7924953   -6.7648163    336.62826  0.024162235   0.02402569           10 
 1162000   0.79184406   -6.7217648    336.96656  0.024165703  0.024009027           26 
 1163000   0.80797903   -6.7473598    337.12751  0.024156457  0.023992314           25 
 1164000   0.78153456   -6.7361972    336.87475  0.024117608  0.023975603           76 
 1165000   0.77710098   -6.7280046    336.81932  0.024092942  0.023958937           26 
 1166000   0.77974977   -6.7465123    337.16775   0.02409718  0.023942311           43 
 1167000   0.80192241   -6.7418732    337.23628  0.024081425  0.023925632           20 
 1168000   0.79557656   -6.7412598    338.47972  0.024149524  0.023908946           37 
 1169000   0.79157101    -6.758692    337.00314  0.024023605  0.023892356           30 
 1170000   0.78643327    -6.735121    337.62035  0.024047034  0.023875662           45 
 1171000   0.79784991   -6.7346567    337.73526  0.024034676  0.023859062           13 
 1172000   0.78517611   -6.7325609    337.60644  0.024005009  0.023842538           10 
 1173000    0.7906619   -6.7242341    338.28936  0.024033061  0.023826173           17 
 1174000   0.79162948   -6.7244316    337.65763  0.023967747  0.023809759           14 
 1175000   0.79493169   -6.7615012    339.26148  0.024061098  0.023793422           15 
 1176000   0.80421137    -6.762105    339.04856   0.02402555   0.02377705           11 
 1177000   0.78550769    -6.753695    338.82177   0.02398908  0.023760748            7 
 1178000   0.77901127   -6.7528224    339.00714  0.023981829  0.023744496           12 
 1179000   0.80207399   -6.7570171    338.94099  0.023956813    0.0237282           31 
 1180000   0.77839415   -6.7510183     338.8105  0.023927295  0.023711856           21 
 1181000   0.79584177    -6.755582    339.41694  0.023949827  0.023695576            9 
 1182000   0.79331133   -6.7608371    339.50571  0.023935823  0.023679304           15 
 1183000   0.77102669   -6.7497518     339.1472  0.023890335  0.023663085           26 
 1184000   0.79148286   -6.7737296    339.42852  0.023889958  0.023646925           16 
 1185000   0.79443215   -6.7817674    339.32576  0.023862571  0.023630678           11 
 1186000   0.76987633   -6.7560592    340.12547  0.023898642  0.023614544           33 
 1187000   0.77939543   -6.7703587    340.09809  0.023876586  0.023598477           20 
 1188000   0.77961578   -6.7613123    339.67703  0.023826952  0.023582338           10 
 1189000   0.78417241    -6.748967    340.17247  0.023841637  0.023566257           11 
 1190000   0.76103823   -6.7557443    340.46874  0.023842349  0.023550245           11 
 1191000   0.76046397   -6.7725415    340.12185  0.023798058  0.023534109            8 
 1192000   0.78842185   -6.7634907    339.51593  0.023735733  0.023518039           12 
 1193000   0.78182907   -6.7795689    339.56999  0.023719613    0.0235019           30 
 1194000   0.78713979   -6.7669154    340.26023  0.023747922  0.023485781           13 
 1195000   0.77424563   -6.7780403    340.61106  0.023752515  0.023469675           12 
 1196000   0.77119927   -6.7693692    340.61988  0.023733269  0.023453554           20 
 1197000   0.74390722   -6.7864274    340.73641  0.023721555  0.023437428           27 
 1198000    0.7620778   -6.7974798    340.27549  0.023669692  0.023421295           85 
 1199000    0.7740657   -6.7804161    340.86761  0.023691104  0.023405151           19 
 1200000   0.77620851   -6.7867191    340.44524   0.02364203  0.023389096           16 
 1201000   0.78302642   -6.7765875    340.74119  0.023642881  0.023373146           34 
 1202000    0.7709669   -6.7589461    341.53872  0.023678502   0.02335731           24 
 1203000   0.77927071   -6.7832759    341.49654  0.023655898  0.023341505           36 
 1204000   0.76694821   -6.7702965    341.58762  0.023642554  0.023325592           33 
 1205000   0.78118529   -6.7803335    341.27941  0.023601619  0.023309706           37 
 1206000   0.77968994   -6.7641489    341.42998  0.023592453  0.023293842           39 
 1207000   0.77418064   -6.7563504    341.47652   0.02357612   0.02327804           38 
 1208000   0.77203989   -6.7820687    341.83318  0.023581207  0.023262193           29 
 1209000   0.76728019    -6.787299    341.70186  0.023552651  0.023246251           18 
 1210000   0.77464073   -6.7916975    341.66003  0.023530305  0.023230368           10 
 1211000   0.76898432   -6.7915756    341.37655  0.023491367  0.023214426           14 
 1212000   0.77750078   -6.8070025    341.17329  0.023458009  0.023198448           42 
 1213000   0.76537603   -6.8011403    342.14451  0.023505394  0.023182489           24 
 1214000   0.78362878   -6.7698387     341.4983  0.023441674  0.023166477           30 
 1215000   0.75941746   -6.7910105    341.86787  0.023447727  0.023150442           54 
 1216000   0.75071463   -6.7940863    341.01028  0.023369674  0.023134488           28 
 1217000    0.7846469   -6.8071098    341.85713  0.023408459  0.023118553           12 
 1218000   0.76783809   -6.8012848    342.96007  0.023464701  0.023102579           21 
 1219000   0.76485923   -6.7804757     342.9261  0.023443129  0.023086764           32 
 1220000   0.76275891   -6.7501643    343.42355  0.023457893  0.023071091           38 
 1221000   0.75880217   -6.7937875    342.80164  0.023396235  0.023055373           24 
 1222000    0.7954205   -6.7940754    343.15897  0.023401457  0.023039698           14 
 1223000   0.76436689   -6.8021838    343.17673  0.023383533  0.023024077           34 
 1224000   0.74999342   -6.7865051    343.53366  0.023388729  0.023008411           85 
 1225000    0.7587557   -6.7896823    344.24824  0.023418248  0.022992783           62 
 1226000   0.78206044    -6.790391    343.87572  0.023373826  0.022977191           50 
 1227000   0.75328488   -6.7846574     343.3452  0.023318745  0.022961547           27 
 1228000   0.75782846   -6.7979338    343.28887  0.023295933   0.02294593           31 
 1229000    0.7662165   -6.7840779    343.55312  0.023294895  0.022930297           20 
 1230000   0.77643251   -6.7734965     342.8138  0.023225867  0.022914691           27 
 1231000   0.76615885   -6.7925348    343.78156  0.023272513  0.022899089           17 
 1232000    0.7698156   -6.7761065    343.82827  0.023256782  0.022883445           79 
 1233000   0.76048879   -6.7579521     343.0555  0.023185692  0.022867801           54 
 1234000   0.77890837   -6.8053196    343.93526  0.023226314  0.022852201           25 
 1235000   0.75875283   -6.8091553    343.88412  0.023204056  0.022836589           10 
 1236000   0.75026955   -6.7870628    344.37559  0.023218419   0.02282108           17 
 1237000   0.77113258   -6.7977339    344.39447  0.023200921  0.022805591           17 
 1238000   0.76860582   -6.7977616    343.66315  0.023132953  0.022790159           13 
 1239000   0.74539721   -6.8244297    344.04815  0.023140177  0.022774662           32 
 1240000   0.76846839   -6.7825143    345.41362  0.023213281  0.022759192           19 
 1241000    0.7393286   -6.7796591    344.42311  0.023128063  0.022743846           34 
 1242000    0.7563103   -6.8152436    344.45093  0.023111307  0.022728405           18 
 1243000   0.76517881   -6.8226758    344.51279  0.023096862  0.022712953           24 
 1244000    0.7678302   -6.7891014    345.03711  0.023113418  0.022697498           48 
 1245000   0.75169801   -6.7992498      345.701  0.023139291  0.022682061           17 
 1246000   0.74487822   -6.7731614    344.77996   0.02305912  0.022666698           27 
 1247000    0.7404968   -6.7932663    344.70955  0.023035923  0.022651273           19 
 1248000   0.73193535   -6.8409582    345.29951  0.023056858  0.022635738           16 
 1249000   0.75103402   -6.8222915    344.69454  0.022998034  0.022620184           27 
 1250000   0.75625527   -6.8470085    345.18318  0.023012212  0.022604629           72 
 1251000   0.76497149   -6.8134807    343.95488  0.022911996  0.022589027           29 
 1252000   0.75908092   -6.7951258    345.27933  0.022981851  0.022573345           29 
 1253000   0.76394351   -6.8186596    345.78888  0.022997398  0.022557792           48 
 1254000   0.73054401   -6.8197113    344.76077  0.022910737  0.022542158           55 
 1255000   0.75913178   -6.8290127    344.99705  0.022908171  0.022526604           38 
 1256000   0.75676625    -6.807467    344.35192  0.022847129   0.02251113           80 
 1257000   0.74399602   -6.8383751    344.54253  0.022841589  0.022495471           71 
 1258000   0.75701701   -6.8124384    344.85845   0.02284436   0.02247975           47 
 1259000   0.76583138   -6.8051023    344.74763  0.022818879  0.022464015           50 
 1260000   0.75320596   -6.8154224    344.73208  0.022799741  0.022448317           40 
 1261000   0.75039108   -6.8016944    344.74661   0.02278262  0.022432609          121 
 1262000   0.75653937   -6.8193853    344.63847  0.022757426  0.022416833           42 
 1263000   0.74617908   -6.8119055    344.76275  0.022747608  0.022401082           68 
 1264000   0.74838355   -6.8448144    345.09889  0.022751772  0.022385334           61 
 1265000   0.75073101   -6.8293906     345.0539  0.022730823  0.022369659           40 
 1266000   0.74382225   -6.8215859    344.79979  0.022696142   0.02235402           27 
 1267000   0.76447309   -6.8055186    345.48627   0.02272338  0.022338379           25 
 1268000    0.7391104   -6.8148013    345.08707  0.022679224  0.022322718           49 
 1269000   0.75000696   -6.8338378    344.96318  0.022653217  0.022307174           62 
 1270000   0.75691112   -6.8137535    345.63837  0.022679683  0.022291562           41 
 1271000   0.74026817   -6.8077695    344.69892  0.022600244  0.022275918           19 
 1272000   0.75164888   -6.8342789    345.01326   0.02260307  0.022260162           33 
 1273000   0.74952348   -6.8239691    344.25879  0.022535925  0.022244416           52 
 1274000   0.74275706   -6.8201508    344.66465  0.022544784  0.022228669           21 
 1275000   0.74492292   -6.8452374    345.65907  0.022592096  0.022212924           40 
 1276000   0.74679336   -6.8086579    345.51903  0.022565245  0.022197309           15 
 1277000   0.75483277   -6.8493903    345.58602  0.022551946  0.022181676           20 
 1278000   0.74773814   -6.8551526    345.00675  0.022496528   0.02216608           17 
 1279000   0.73923365   -6.8277313    346.44795   0.02257284  0.022150505           24 
 1280000   0.75413218   -6.8234327    345.80875  0.022513591  0.022134984           37 
 1281000   0.73883571   -6.8392342    345.11931  0.022451165  0.022119478           17 
 1282000   0.75616137   -6.8456966    346.08057  0.022496137  0.022104012           37 
 1283000   0.74807226     -6.83632    345.90047  0.022466905  0.022088495           17 
 1284000   0.76024836      -6.8503     345.3824  0.022415784  0.022072969           18 
 1285000   0.72969545   -6.8489763    346.22954  0.022453277  0.022057445           17 
 1286000   0.73591266   -6.8519921    345.82205  0.022409412  0.022041902           42 
 1287000   0.74190839   -6.8289952    346.02328   0.02240503  0.022026449           35 
 1288000   0.73219958   -6.8350254    346.03397  0.022388326  0.022010986           46 
 1289000   0.75774905     -6.83894    345.55059  0.022339707  0.021995502           35 
 1290000      0.72215   -6.8521073     346.4297   0.02237918  0.021980048           56 
 1291000   0.73488972   -6.8381843    346.20715  0.022347479  0.021964611           70 
 1292000   0.74492271   -6.8508175    346.71413  0.022362882  0.021949147          116 
 1293000   0.73805381   -6.8321715    346.80651  0.022351541  0.021933695           70 
 1294000   0.73322622    -6.850384    346.40829  0.022308622  0.021918222          144 
 1295000   0.72813447   -6.8771269    346.88473  0.022322055  0.021902813           78 
 1296000   0.74709939   -6.8465393    346.86925  0.022303836  0.021887441           56 
 1297000   0.72087719   -6.8508537    345.88679  0.022223515  0.021872058           66 
 1298000   0.74583675   -6.8326385    347.16266  0.022288306  0.021856682           29 
 1299000    0.7272393    -6.851474    346.40432    0.0222225  0.021841299           35 
 1300000   0.72874924   -6.8553589    346.34247   0.02220144  0.021825856           62 
 1301000   0.73419103   -6.9061102    346.38884  0.022187346  0.021810371           50 
 1302000   0.73430226   -6.8904849    346.99994  0.022209417  0.021794888          121 
 1303000   0.73973831    -6.860591    346.78459    0.0221786  0.021779478           41 
 1304000   0.73646112   -6.8670556    346.69996  0.022156184  0.021764051          109 
 1305000   0.74471602   -6.8641691    346.16037  0.022104749  0.021748635           78 
 1306000   0.73542993   -6.8633263    346.03603   0.02207989  0.021733184          346 
 1307000   0.71660645   -6.8769713     347.1571  0.022134475  0.021717725          407 
 1308000   0.72923606   -6.8980697    346.41831  0.022070484  0.021702259          442 
 1309000   0.73814244   -6.8805043    347.09924  0.022096972  0.021686832          318 
 1310000   0.73358319   -6.8830257    347.08324  0.022079087  0.021671417          450 
 1311000   0.73359194    -6.873959    347.10062   0.02206335  0.021655978          455 
 1312000   0.72447925   -6.8890972    347.57696  0.022076789   0.02164059          241 
 1313000   0.71742566   -6.8956115    345.86666  0.021951426  0.021625124          386 
 1314000   0.72791628   -6.8984182    346.68128  0.021986382   0.02160962          365 
 1315000   0.73127367   -6.8904783    346.77732  0.021975749  0.021594146          417 
 1316000   0.71610247   -6.9036637    347.00378   0.02197339  0.021578653          401 
 1317000   0.72843048   -6.8863031    347.58377  0.021993405  0.021563185          259 
 1318000   0.72530333   -6.8658228    346.99505  0.021939495  0.021547739          262 
 1319000   0.72905873   -6.8724012    347.19495  0.021935491  0.021532308          251 
 1320000   0.73158153   -6.8880263     347.0733  0.021911193  0.021516945           95 
 1321000   0.73594499   -6.8859028    345.84616  0.021817194  0.021501576          152 
 1322000   0.72836537   -6.9258773    346.79961  0.021860793  0.021486217           71 
 1323000   0.71108913   -6.8795526    347.69411  0.021900612  0.021470845          241 
 1324000   0.72376883    -6.878742    347.75016  0.021887598  0.021455553          158 
 1325000   0.72478832   -6.8691764    348.26134  0.021903229  0.021440226          138 
 1326000   0.72032499   -6.8921953    347.90611  0.021864386  0.021424991          130 
 1327000   0.72167631   -6.8866835    347.69653  0.021834748  0.021409752           89 
 1328000   0.72795132   -6.9134637    347.12862  0.021782669  0.021394441          285 
 1329000   0.72838785   -6.9063948    347.42073  0.021784596  0.021379099          345 
 1330000   0.72654352   -6.9124049    347.38805  0.021766168  0.021363778          233 
 1331000   0.73155736   -6.9367618    347.43477  0.021752741  0.021348388          367 
 1332000   0.72932262   -6.9104159    347.52736  0.021742202  0.021333063          183 
 1333000   0.72286294   -6.9139987    347.32328  0.021713133  0.021317759          443 
 1334000   0.70568163   -6.9199511    346.83546  0.021666383  0.021302358          471 
 1335000   0.71672667   -6.9178907    347.33126  0.021681102  0.021286922          564 
 1336000   0.71150614    -6.899947    347.10912  0.021651018  0.021271581          425 
 1337000   0.71557746    -6.919537    347.04652  0.021630922  0.021256155          507 
 1338000   0.72765295   -6.8948868    347.80314   0.02166188  0.021240801          162 
 1339000   0.73997456   -6.9097688    346.94854  0.021592515   0.02122547          410 
 1340000   0.72187994   -6.9387641    347.18705  0.021591234  0.021210088          193 
 1341000   0.71457802   -6.9178764     347.7137  0.021607861  0.021194712          273 
 1342000   0.71735122   -6.9079308    348.26365   0.02162591  0.021179399          332 
 1343000   0.73125656   -6.9010857     347.3815   0.02155507   0.02116409          335 
 1344000    0.7242429   -6.9067671    347.02747   0.02151708  0.021148756          363 
 1345000   0.72076155   -6.9206961    347.89143  0.021554612  0.021133424          428 
 1346000   0.72782111   -6.9213298    346.90943    0.0214778  0.021118064          432 
 1347000   0.71318536   -6.9491627    347.63029  0.021506452  0.021102619          518 
 1348000   0.72539523   -6.9298652    347.35974  0.021473772  0.021087198          497 
 1349000   0.72661036   -6.9470041    347.41397  0.021461204  0.021071805          568 
 1350000   0.71180726   -6.9336761    347.85771  0.021472698  0.021056444          598 
 1351000    0.7178959   -6.9201132    347.40227  0.021428711  0.021041032          589 
 1352000   0.70957987   -6.9632112    346.96806  0.021386098  0.021025659          658 
 1353000    0.7301833   -6.9420547    346.58607  0.021346765  0.021010253          711 
 1354000   0.71732281   -6.9525157    347.63146  0.021395338  0.020994812          678 
 1355000   0.71310578   -6.9627455    346.79017  0.021327809  0.020979379          661 
 1356000   0.70773923   -6.9569976    347.05975  0.021328648  0.020963932          840 
 1357000   0.71919361   -6.9529663    348.35787  0.021392647    0.0209485          697 
 1358000   0.71652839   -6.9499358    347.25654  0.021309312  0.020933113          915 
 1359000   0.70611412   -6.9485068    347.43645  0.021304664  0.020917693          881 
 1360000   0.70695358   -6.9663178    346.85073  0.021253108  0.020902213          981 
 1361000   0.71505015   -6.9592554    347.80701  0.021296045   0.02088677          955 
 1362000   0.69850001   -6.9781274    347.43078   0.02125739  0.020871312          986 
 1363000   0.71094473   -6.9877501    347.57482  0.021250601  0.020855805          984 
 1364000   0.70917479    -6.977647    347.62073  0.021237826  0.020840294         1084 
 1365000   0.69748819   -6.9964639    347.31751  0.021203755  0.020824785         1013 
 1366000   0.71154481   -7.0011326    346.59488  0.021144148  0.020809188         1273 
 1367000   0.71312251   -6.9948415    346.61754  0.021130062  0.020793596         1233 
 1368000   0.70433034   -6.9864191    347.07931  0.021142745  0.020778014         1267 
 1369000   0.70352461   -6.9993195    347.13984  0.021130986  0.020762442         1325 
 1370000   0.70375709   -7.0129005    346.18159  0.021057274  0.020746816         1513 
 1371000   0.71138386   -7.0118633    346.21174  0.021043748   0.02073116         1469 
 1372000   0.70333447   -7.0291116    347.41765  0.021101655  0.020715484         1547 
 1373000   0.69750865   -7.0398446    346.40853  0.021025038  0.020699743         1657 
 1374000   0.70432777   -7.0330273    346.20877   0.02099762  0.020683984         1655 
 1375000   0.71074194   -7.0432771    345.88784    0.0209629  0.020668225         1579 
 1376000   0.67991165    -7.032631    345.85985   0.02094597  0.020652488         1626 
 1377000   0.69113845   -7.0587352    346.02175  0.020940556  0.020636712         1795 
 1378000   0.70716562   -7.0720611    346.23133  0.020938034  0.020620884         1798 
 1379000   0.70854234   -7.0411695    345.90605  0.020903194  0.020605106         1865 
 1380000   0.70462867   -7.0750074    345.87549  0.020886201  0.020589242         1820 
 1381000   0.70599427   -7.0777299    345.18449   0.02082938  0.020573361         1848 
 1382000   0.69679818   -7.1101414    345.65572  0.020842723  0.020557437         1941 
 1383000   0.69170646     -7.06601    345.63147  0.020826191   0.02054154         1931 
 1384000   0.70064934   -7.0925148    345.56524  0.020807156  0.020525599         1963 
 1385000   0.71157834   -7.1079144    344.21821  0.020711083  0.020509633         2173 
 1386000    0.7024502   -7.1103544    345.33021     0.020763  0.020493666         2144 
 1387000   0.69577801   -7.1304064    344.63729  0.020706398  0.020477653         2242 
 1388000   0.72167785   -7.1057085    344.26587  0.020669181  0.020461622         2290 
 1389000   0.69319304   -7.1229267    344.54557   0.02067108  0.020445565         2293 
 1390000   0.70356308    -7.155629    344.55934  0.020657035  0.020429514         2327 
 1391000   0.69690817   -7.1234039    345.03621  0.020670753  0.020413387         2315 
 1392000   0.69431874   -7.1140382    345.32888  0.020673425  0.020397333         2348 
 1393000   0.69198926   -7.1585657    345.06144  0.020642585  0.020381267         2500 
 1394000   0.70389811   -7.1582284    344.35449  0.020585515  0.020365154         2564 
 1395000   0.69897548   -7.1428853    343.44652  0.020516519  0.020349045         2564 
 1396000   0.69889103   -7.1516641    343.99056  0.020534298  0.020332895         2693 
 1397000   0.68007871    -7.196529    343.79345  0.020507841  0.020316771         2622 
 1398000   0.69004412   -7.1628049    343.44345  0.020472309  0.020300621         2725 
 1399000   0.70214192   -7.1810595     344.2168  0.020503741  0.020284451         2710 
 1400000    0.6957426   -7.1416019    343.73233  0.020460258  0.020268275         2641 
 1401000   0.69476771   -7.1538984    343.72454  0.020445191  0.020252056         2817 
 1402000   0.70220712   -7.1876842    343.28558  0.020404516  0.020235784         2871 
 1403000   0.69297902   -7.2004528    344.02727  0.020434027  0.020219519         2846 
 1404000   0.68760704   -7.1707998     343.7146  0.020400914   0.02020323         2859 
 1405000   0.68737944   -7.1946234    343.12649  0.020351512  0.020186938         2879 
 1406000   0.69048689   -7.2118671    343.63085  0.020366931  0.020170642         2887 
 1407000   0.68996111   -7.1917508    343.06053  0.020318676  0.020154342         2954 
 1408000   0.69695422    -7.208052    342.69011  0.020282322  0.020138063         2928 
 1409000   0.70503241   -7.2025071    342.95203  0.020283418  0.020121779         2984 
 1410000    0.6871737   -7.2075692    343.72259  0.020314574  0.020105508         2865 
 1411000   0.69282045   -7.1904516    343.54177  0.020289498  0.020089261         2931 
 1412000   0.70100948   -7.2379719     343.5665  0.020276588  0.020073007         3024 
 1413000   0.69665639   -7.2183312    344.16089  0.020297292   0.02005673         2975 
 1414000   0.68767039   -7.2604692    342.98778  0.020213801  0.020040455         3121 
 1415000   0.71114925   -7.2336377    343.29992  0.020217899  0.020024177         3035 
 1416000   0.68588532   -7.2240084    343.33159  0.020205484  0.020007919         3062 
 1417000   0.70269733    -7.240834    343.17618  0.020182085  0.019991633         3096 
 1418000   0.69124254   -7.2189253    341.91188  0.020093552  0.019975351         3064 
 1419000   0.68682752   -7.2355547    342.96343  0.020141146  0.019959081         3096 
 1420000   0.68912188    -7.248139    342.74602  0.020114203  0.019942808         3086 
 1421000   0.67122977   -7.2381661    343.54545   0.02014693  0.019926543         3112 
 1422000   0.68305895   -7.2438772    343.49663  0.020129901  0.019910263         3101 
 1423000   0.68646072   -7.2497737    343.60383  0.020122033  0.019894004         3042 
 1424000   0.69155208   -7.2502678    342.69196  0.020054539  0.019877752         3056 
 1425000   0.69044227   -7.2363608    343.49463  0.020087405  0.019861517         3102 
 1426000   0.69561232   -7.2467941    342.61208  0.020021744  0.019845275         3112 
 1427000   0.68023388   -7.2567197    343.14871  0.020039051  0.019829044         3046 
 1428000   0.69659952   -7.2431959    343.21678  0.020028991  0.019812829         3001 
 1429000   0.67786995   -7.2717954    343.68507  0.020042283  0.019796629         3087 
 1430000   0.67414179   -7.2495393    343.07981  0.019992996  0.019780433         3075 
 1431000   0.67615736    -7.237367    343.28602  0.019991033  0.019764255         3040 
 1432000   0.68025649   -7.2586157    343.31262  0.019978621  0.019748081         3011 
 1433000   0.67244839   -7.2752158    342.80246  0.019935012  0.019731931         3116 
 1434000   0.67795419   -7.2523252    343.39149   0.01995534  0.019715759         3074 
 1435000   0.67289608   -7.2491119    343.81724  0.019966158  0.019699635         3074 
 1436000   0.66913568   -7.2622605    342.68185  0.019886366  0.019683499         3084 
 1437000   0.67483857   -7.2695743    342.79549  0.019879117  0.019667379         3069 
 1438000   0.66813098   -7.2494761    343.21025  0.019889328  0.019651294         3054 
 1439000   0.69959727   -7.2545394    342.64562  0.019842809  0.019635201         3112 
 1440000   0.68220495   -7.2334256    342.93896  0.019846004  0.019619093         3082 
 1441000   0.67863361   -7.2588529    342.89457  0.019829665  0.019603003         3056 
 1442000   0.69804149   -7.2624899    342.88834  0.019815554  0.019586902         3040 
 1443000   0.67354693   -7.2371322     342.9681  0.019806427  0.019570843         3133 
 1444000   0.68318977   -7.2838339    342.73855  0.019779464  0.019554786         3134 
 1445000   0.68736271   -7.2554969    343.40615  0.019804276  0.019538748         3098 
 1446000   0.67714659   -7.2757107    343.19683  0.019778517  0.019522685         3118 
 1447000   0.67894395   -7.2711412    343.24026   0.01976735   0.01950664         3147 
 1448000   0.66069582   -7.2526782    342.93082   0.01973589  0.019490605         3154 
 1449000   0.68602586   -7.2740208    342.95072  0.019723414  0.019474552         3158 
 1450000   0.66842193   -7.2554535    343.45016  0.019738515  0.019458567         3065 
 1451000   0.66265546   -7.2529549    342.91299  0.019694061  0.019442586         3186 
 1452000   0.66679653    -7.252778    343.18851   0.01969631  0.019426611         3151 
 1453000   0.68287672   -7.2713249    343.16923  0.019681649  0.019410649         3165 
 1454000   0.66658956   -7.2725476    342.79754   0.01964681  0.019394722         3115 
 1455000   0.67696909    -7.272006    342.79952   0.01963342  0.019378773         3156 
 1456000   0.66909305   -7.2754631    342.98943  0.019630805  0.019362815         3223 
 1457000   0.69551882   -7.2870371    343.38306  0.019639846  0.019346877         3160 
 1458000   0.68341669   -7.2794647     342.8943   0.01959844  0.019330911         3237 
 1459000   0.68532302   -7.2809362    342.73454  0.019575882   0.01931496         3211 
 1460000   0.66906519   -7.2847796    342.55669  0.019552323  0.019298994         3238 
 1461000   0.67383897   -7.2944477    343.15543  0.019573091  0.019283088         3227 
 1462000   0.66626132   -7.2655987    343.26353  0.019565865  0.019267148         3213 
 1463000   0.65234563   -7.2879482    342.76081  0.019523856  0.019251233         3235 
 1464000   0.67267331    -7.288206    343.26215  0.019539057  0.019235325         3204 
 1465000   0.67038972   -7.3082554    343.05778  0.019514095  0.019219427         3243 
 1466000   0.65984499   -7.2782353    342.81389   0.01948692  0.019203543         3166 
 1467000   0.68067266   -7.3018706    342.64369  0.019463968  0.019187647         3281 
 1468000    0.6711305   -7.3038928    342.39999  0.019436875  0.019171716         3215 
 1469000   0.66738674   -7.3138244    342.18164  0.019411257  0.019155788         3299 
 1470000   0.68128496   -7.2927276    342.39603  0.019410206  0.019139877         3295 
 1471000   0.67240566   -7.3002846      341.936  0.019370949  0.019123988         3258 
 1472000   0.65966641   -7.3085954    342.61916  0.019396465  0.019108142         3221 
 1473000   0.66331785   -7.3174826    342.29796  0.019365125  0.019092258         3228 
 1474000    0.6819395   -7.3156781    342.42015  0.019358896  0.019076419         3274 
 1475000   0.65874292   -7.3164603     342.2596    0.0193367  0.019060584         3217 
 1476000   0.66134011   -7.2821648    342.05159  0.019311856  0.019044766         3202 
 1477000   0.65393895   -7.2951453    342.72247  0.019336632  0.019028964         3246 
 1478000   0.66472855   -7.3061682    342.15023  0.019291285  0.019013144         3233 
 1479000   0.66760764   -7.3043764    342.15819   0.01927869   0.01899732         3201 
 1480000   0.67166381   -7.3230372    342.82368  0.019303135  0.018981513         3241 
 1481000   0.65878337   -7.3106708    342.17732  0.019253732  0.018965706         3223 
 1482000   0.66630644   -7.3181946    342.32002  0.019248764  0.018949889         3255 
 1483000   0.64772889   -7.3142588     342.7748   0.01926134  0.018934126         3222 
 1484000   0.66773475   -7.3144697     342.4136  0.019228077  0.018918342         3199 
 1485000   0.63948953   -7.3139222    343.11844  0.019254683  0.018902558         3243 
 1486000   0.67703282   -7.3087826    342.70622  0.019218608   0.01888681         3231 
 1487000   0.66193299   -7.2962616    342.39693  0.019188351  0.018871071         3232 
 1488000   0.64768174   -7.3244068    342.43042  0.019177331  0.018855306         3316 
 1489000   0.66328767   -7.3115046    342.14054  0.019148228   0.01883956         3303 
 1490000   0.65649526   -7.3241353    342.05226   0.01913044  0.018823831         3293 
 1491000   0.66840809   -7.3084587    342.20425  0.019126104  0.018808088         3265 
 1492000   0.66123837   -7.3202963    341.92276  0.019097562  0.018792374         3286 
 1493000   0.65105979   -7.3403269    342.44048  0.019113668  0.018776672         3282 
 1494000   0.65545828   -7.3288208    342.18917  0.019086857  0.018760977         3313 
 1495000    0.6505311   -7.3204352    342.49233  0.019090988  0.018745292         3297 
 1496000   0.66827458   -7.3275213    342.28648   0.01906676  0.018729622         3303 
 1497000   0.65508699   -7.3256391    342.07613  0.019042314  0.018713953         3267 
 1498000   0.66795533   -7.3348029    341.90811  0.019020256  0.018698303         3318 
 1499000   0.65967762   -7.3249956    341.60562   0.01899075  0.018682641         3324 
 1500000   0.64228478   -7.3435383    341.80864  0.018989369  0.018667003         3359 
 1501000   0.65407919   -7.3280612    342.39365  0.019009197  0.018651367         3326 
 1502000   0.67030216   -7.3310296    342.32252  0.018992594  0.018635748         3334 
 1503000   0.66225919   -7.3498843    341.60819  0.018940352  0.018620157         3292 
 1504000   0.66213285    -7.348192     341.2701  0.018909026  0.018604584         3326 
 1505000   0.64218801   -7.3014363    342.24692  0.018950549  0.018589015         3262 
 1506000   0.64086713   -7.3326027    342.17362   0.01893391  0.018573411         3335 
 1507000   0.65089074   -7.3246147    341.72113  0.018896324  0.018557834         3368 
 1508000   0.65988134    -7.330588    342.11535  0.018905579  0.018542255         3312 
 1509000    0.6362483   -7.3406637    341.77207  0.018874092   0.01852671         3395 
 1510000   0.65064886   -7.3304661    342.05519  0.018877218  0.018511154         3353 
 1511000   0.65266573   -7.3430567    341.30805  0.018823519  0.018495611         3373 
 1512000   0.65235187   -7.3200942    342.17181  0.018858676  0.018480089         3337 
 1513000   0.65011088   -7.3600111    341.59324  0.018814345  0.018464572         3350 
 1514000   0.64184792   -7.3413069    342.38869  0.018845701  0.018449065         3301 
 1515000   0.65956957   -7.3328261    342.74833  0.018853043  0.018433581         3340 
 1516000   0.62871711   -7.3323292    341.52804  0.018773529  0.018418122         3375 
 1517000   0.64393578   -7.3273497    341.65407  0.018768077  0.018402648         3282 
 1518000   0.64653811   -7.3508732    341.53898  0.018749395  0.018387209         3293 
 1519000   0.65955054   -7.3357448    341.97968  0.018761229  0.018371761         3370 
 1520000   0.66003821   -7.3326451    341.94682  0.018747084  0.018356345         3291 
 1521000   0.64615201   -7.3299346    341.97316  0.018736202  0.018340938         3349 
 1522000   0.62699064   -7.3303289    342.03001  0.018727004  0.018325524         3357 
 1523000   0.64609585   -7.3537645    341.71949  0.018697718  0.018310123         3280 
 1524000   0.64266851   -7.3639755    341.91465  0.018696121  0.018294751         3362 
 1525000   0.64186546   -7.3337075    342.19817  0.018699354  0.018279387         3285 
 1526000   0.65662533   -7.3311197    341.64838  0.018657076  0.018264015         3319 
 1527000    0.6567534   -7.3215296    341.65321  0.018645122  0.018248693         3293 
 1528000   0.64069599   -7.3474295    341.81755  0.018641882  0.018233389         3312 
 1529000    0.6471347   -7.3226648    341.87934  0.018633057  0.018218095         3274 
 1530000   0.64922502   -7.3433865    342.08729  0.018632205  0.018202813         3294 
 1531000   0.63263284   -7.3626944    341.80241  0.018604529  0.018187519         3270 
 1532000   0.63731073   -7.3450706    342.11311  0.018609286  0.018172232         3272 
 1533000   0.64250705   -7.3280089    342.54521  0.018620635  0.018156992         3259 
 1534000   0.64499294   -7.3325992     341.3971  0.018546127  0.018141764         3251 
 1535000   0.64156439   -7.3437681    341.20864  0.018523813  0.018126542         3285 
 1536000   0.63240901   -7.3526068     341.8761  0.018547965  0.018111304         3299 
 1537000   0.63234361   -7.3603869    342.39713  0.018564147  0.018096081         3335 
 1538000   0.63280159   -7.3359083    341.23424  0.018489068  0.018080885         3343 
 1539000    0.6399793   -7.3545783    342.03578  0.018520456  0.018065686         3330 
 1540000   0.63575229   -7.3560086    341.50313  0.018479607  0.018050497         3397 
 1541000   0.63322667   -7.3439994    341.89259  0.018488676  0.018035319         3257 
 1542000     0.647422   -7.3442928    342.50712  0.018509896   0.01802016         3323 
 1543000   0.63322896   -7.3569529    341.94032  0.018467289  0.018005016         3306 
 1544000   0.65304371   -7.3281716    341.76912  0.018446088  0.017989858         3312 
 1545000   0.64020764   -7.3364606    341.92853  0.018442747  0.017974738         3318 
 1546000   0.62994522   -7.3541123    341.51977  0.018408785  0.017959608         3341 
 1547000   0.62814328   -7.3530108    341.55909  0.018399003  0.017944502         3326 
 1548000   0.64583235   -7.3417278    341.92424  0.018406774  0.017929403         3277 
 1549000   0.63980283   -7.3587477    341.51432  0.018372839  0.017914316         3352 
 1550000   0.64071648   -7.3420369    341.65728  0.018368671  0.017899225         3337 
 1551000   0.63275588   -7.3594541    341.66705  0.018357353  0.017884155         3343 
 1552000   0.63970644   -7.3727297    341.33545  0.018327719  0.017869083         3331 
 1553000   0.62596003   -7.3637942    341.81762  0.018341791  0.017853992         3302 
 1554000   0.63818198   -7.3816003    341.93105  0.018336071  0.017838932         3345 
 1555000   0.63668991    -7.358645    342.22513  0.018340039  0.017823891         3321 
 1556000   0.63476349   -7.3759716    341.94163  0.018313069  0.017808863         3309 
 1557000   0.62128745   -7.3791534    341.38862   0.01827171  0.017793833         3330 
 1558000    0.6411628   -7.3407408    341.22476  0.018251217  0.017778803         3273 
 1559000   0.63709676   -7.3656661    341.74476  0.018267306  0.017763804         3242 
 1560000   0.62833588   -7.3635945    341.47584  0.018241231  0.017748808         3317 
 1561000   0.64044017    -7.361081    340.89225   0.01819839  0.017733848         3344 
 1562000   0.64147522   -7.3808633    341.61401  0.018225246  0.017718888         3344 
 1563000   0.63389049     -7.37637    340.49785  0.018154076  0.017703911         3339 
 1564000   0.62438892   -7.3754522    341.23941  0.018181981  0.017688974         3338 
 1565000   0.60882352   -7.3690952    341.02091  0.018158728  0.017674014         3291 
 1566000   0.62858813   -7.3631403    341.57987  0.018176877  0.017659084         3395 
 1567000   0.63333966   -7.3889972    341.51258  0.018161699  0.017644179         3344 
 1568000   0.63405799    -7.389624    341.15289     0.018131  0.017629282         3330 
 1569000   0.63306367   -7.3819171    341.01731  0.018112243  0.017614399         3386 
 1570000   0.63437494   -7.3587541    341.08186  0.018104133  0.017599499         3340 
 1571000    0.6279477    -7.347411    341.02897  0.018089803  0.017584642         3325 
 1572000   0.62803975   -7.3712253    341.84239  0.018121416  0.017569793         3358 
 1573000   0.63952011   -7.3523542     340.6698  0.018047775  0.017554953         3359 
 1574000   0.62219957   -7.4028694    341.44127  0.018077153  0.017540122         3358 
 1575000   0.61876386   -7.3747899    340.72303  0.018027673  0.017525293         3374 
 1576000   0.61595611    -7.355838    341.92697  0.018079895  0.017510477         3341 
 1577000   0.62805673   -7.3735726     341.7087  0.018056896  0.017495685         3340 
 1578000   0.61757837    -7.382908    341.30078  0.018023911  0.017480907         3330 
 1579000   0.62462769   -7.3702678    341.63238  0.018029997  0.017466141         3361 
 1580000   0.62987526   -7.3856302    341.31831  0.018002021  0.017451392         3345 
 1581000   0.61126091   -7.3764339     340.9061  0.017968907  0.017436665         3361 
 1582000   0.61521035   -7.3783109    340.44167  0.017933084  0.017421931         3370 
 1583000   0.62510348   -7.3941151     340.9631  0.017949205  0.017407199         3409 
 1584000   0.63015264   -7.3780108    341.25482  0.017953221    0.0173925         3367 
 1585000   0.62408058   -7.3909352    340.90016  0.017923247  0.017377806         3367 
 1586000   0.61562873   -7.3826833    341.11653  0.017923315  0.017363111         3342 
 1587000   0.59744361   -7.3825621    341.44667  0.017929357  0.017348439         3319 
 1588000   0.61863546   -7.3787621    340.62986  0.017875203   0.01733377         3372 
 1589000    0.6221992   -7.3815356    341.12895  0.017890127  0.017319133         3384 
 1590000   0.62190435   -7.3825917    340.85142   0.01786433  0.017304493         3369 
 1591000    0.6123912    -7.395819    340.67745   0.01784399  0.017289872         3367 
 1592000   0.62449558   -7.3870297    341.68072  0.017885297  0.017275263         3387 
 1593000   0.62021778   -7.3704046    340.84652  0.017830431  0.017260676         3392 
 1594000    0.6075013   -7.3721894    341.25336  0.017840515  0.017246069         3315 
 1595000   0.62778191   -7.3719699    341.25052  0.017829181  0.017231495         3355 
 1596000   0.62434403   -7.3715575    340.78743   0.01779383  0.017216938         3347 
 1597000   0.61453335   -7.4118569    341.04437  0.017796096  0.017202376         3337 
 1598000   0.61704542   -7.3907348    341.37562  0.017802233  0.017187822         3322 
 1599000   0.61703196   -7.3799611    341.15484  0.017779594  0.017173283         3303 
 1600000   0.61602004   -7.3720733    340.87144  0.017753721  0.017158738         3366 
 1601000   0.62027857   -7.4295424     341.7664  0.017789215  0.017144223         3400 
 1602000   0.63546986   -7.3834184    340.40827  0.017707463  0.017129722         3378 
 1603000   0.60656242   -7.3951471    341.02175  0.017728309  0.017115223         3390 
 1604000   0.60153544   -7.3777144    340.58991  0.017694821  0.017100732         3391 
 1605000   0.61693852   -7.3819511    341.07654  0.017709063  0.017086234         3354 
 1606000   0.61487095   -7.3871625    341.35495  0.017712482  0.017071769         3367 
 1607000   0.61592341   -7.3907356    340.19875  0.017641503  0.017057309         3388 
 1608000   0.62349047   -7.4013475    340.81249  0.017662339   0.01704286         3363 
 1609000    0.6077559   -7.4165542    340.54292    0.0176374  0.017028421         3367 
 1610000   0.60529877   -7.4053493    341.10244  0.017655406  0.017014005         3369 
 1611000   0.62128506   -7.3775755    341.21806  0.017650427  0.016999588         3407 
 1612000   0.60030382   -7.4078681    340.88392  0.017622204  0.016985208         3384 
 1613000   0.60400632   -7.3980642    340.75002  0.017604361  0.016970819         3364 
 1614000   0.60741724   -7.4131923    341.04619  0.017608746  0.016956455         3353 
 1615000   0.61196165   -7.3823127    340.92005  0.017591334  0.016942118         3326 
 1616000   0.60823093   -7.4007041    340.89294   0.01757905  0.016927786         3360 
 1617000    0.6089296   -7.4036514    340.81888  0.017564362   0.01691346         3365 
 1618000   0.60163433   -7.4075769    341.19858  0.017573062  0.016899143         3341 
 1619000   0.60842151   -7.3968421    341.01796  0.017552911  0.016884841         3356 
 1620000   0.61086039   -7.4142212    340.90314   0.01753617  0.016870544         3362 
 1621000    0.6060703   -7.4188682    340.63168  0.017511396  0.016856263         3381 
 1622000   0.60540762   -7.4096754    340.58393  0.017498147  0.016841986         3355 
 1623000   0.60655613   -7.3908371    340.43593  0.017479766   0.01682772         3394 
 1624000    0.5925008   -7.4210651    341.00885  0.017498401  0.016813467         3364 
 1625000   0.59778314   -7.4055854    340.81548  0.017477717  0.016799223         3387 
 1626000   0.61295152   -7.4033559    340.52405  0.017452032  0.016784983         3400 
 1627000   0.61627317   -7.4277642    340.46052  0.017438052  0.016770763         3429 
 1628000   0.61748646   -7.4133235    340.67441  0.017438289  0.016756561         3402 
 1629000   0.60732807    -7.401323      340.383  0.017412676  0.016742359         3390 
 1630000   0.60753273   -7.3988527    340.60153  0.017413166  0.016728183         3403 
 1631000   0.58704618   -7.4089042      340.407  0.017392551  0.016714022         3412 
 1632000   0.61160503   -7.4120583    340.98799   0.01741156  0.016699875         3381 
 1633000   0.59932029   -7.4025541    340.83518    0.0173931  0.016685739         3426 
 1634000   0.59918516   -7.4173556    340.12043  0.017346003  0.016671599         3388 
 1635000   0.61137972    -7.427238    340.99799  0.017380122  0.016657475         3387 
 1636000   0.59765591   -7.4237597    340.61332  0.017349904   0.01664335         3441 
 1637000   0.60306418   -7.4204208    340.13411  0.017314911  0.016629248         3401 
 1638000   0.60264622   -7.4075858    340.27506  0.017311511  0.016615166         3383 
 1639000    0.6126016   -7.4285992    340.65677  0.017320356  0.016601098         3381 
 1640000   0.60648059   -7.4016402    340.18624  0.017285886  0.016587045         3391 
 1641000   0.59964451   -7.4085335    340.22585  0.017277364  0.016572996         3404 
 1642000   0.59983546   -7.4175569    340.70069   0.01729094   0.01655896         3383 
 1643000   0.59912155   -7.3851119    340.82014  0.017286475  0.016544948         3391 
 1644000   0.59362294   -7.4223853    340.34597  0.017251925  0.016530945         3402 
 1645000   0.60468589   -7.4154315    340.59286  0.017253944  0.016516955         3423 
 1646000   0.59378943   -7.4175763    339.69119  0.017197812  0.016502965         3374 
 1647000   0.58464584    -7.427932    340.76207  0.017241554  0.016488993         3408 
 1648000   0.59839219   -7.4309676    340.75512   0.01723074  0.016475021         3451 
 1649000   0.59593983   -7.4004758    340.11165  0.017187773  0.016461065         3389 
 1650000   0.59506206   -7.3894863    339.82544  0.017162901  0.016447135         3434 
 1651000    0.5918472   -7.4312266    340.53057  0.017188096  0.016433217         3411 
 1652000   0.58456098   -7.4412637    340.34601  0.017168382  0.016419303         3388 
 1653000   0.59916022   -7.4188932    340.44911  0.017163194  0.016405392         3404 
 1654000   0.58911986   -7.4212265    340.28435  0.017144516  0.016391493         3397 
 1655000   0.58924653    -7.425051    339.95301  0.017117473  0.016377623         3408 
 1656000   0.61256509   -7.4163089    340.55851  0.017137606  0.016363761         3357 
 1657000   0.59328879    -7.433558    340.13426  0.017105927  0.016349928         3372 
 1658000   0.60420317   -7.4238752    339.87216  0.017082437  0.016336117         3412 
 1659000   0.60378219   -7.4431819    340.23193  0.017090212  0.016322289         3368 
 1660000   0.59091278    -7.436854    339.97362  0.017066949  0.016308489         3365 
 1661000   0.60249372   -7.4090714    340.27842  0.017071966  0.016294699         3334 
 1662000   0.59557557   -7.4053615    340.15483  0.017055497  0.016280925         3332 
 1663000   0.58843093   -7.4282783     340.1903  0.017047018  0.016267157         3378 
 1664000   0.58698657   -7.4358152    340.63373  0.017058981  0.016253402         3400 
 1665000   0.59387432   -7.4325198    340.35599  0.017034834  0.016239658         3397 
 1666000   0.59055924   -7.4289661    340.14716  0.017014164  0.016225921         3399 
 1667000   0.59791611   -7.4145315     340.2522  0.017009208  0.016212206         3409 
 1668000   0.58932053   -7.4387811    339.76632  0.016974736   0.01619849         3425 
 1669000   0.58175181   -7.4039518    340.27768  0.016990098  0.016184779         3403 
 1670000   0.59244953   -7.4414477    340.06673  0.016969398  0.016171103         3393 
 1671000   0.58537913   -7.4308008    340.26068  0.016968915  0.016157423         3415 
 1672000   0.57282189   -7.4471136     339.9939   0.01694547  0.016143747         3428 
 1673000   0.58275551   -7.4302842    339.88723  0.016930028  0.016130098         3417 
 1674000   0.58608865   -7.4268391    340.49337  0.016950088  0.016116462         3425 
 1675000   0.58549284   -7.4253641    339.78321  0.016904637  0.016102825         3426 
 1676000    0.5887191   -7.4249308    340.14728  0.016912653  0.016089213         3384 
 1677000   0.57419777   -7.4404008     340.5629  0.016923221  0.016075609         3381 
 1678000   0.57947782   -7.4156935    339.84267  0.016877367  0.016062027         3404 
 1679000   0.58234644   -7.4411796    339.74902  0.016862667  0.016048452         3431 
 1680000    0.5882249   -7.4345381    340.73716  0.016901645  0.016034891         3389 
 1681000   0.58745959   -7.4463148    340.18023  0.016863981  0.016021343         3457 
 1682000   0.58355765   -7.4465191    339.83772  0.016836986  0.016007798         3408 
 1683000   0.58375058   -7.4357659    339.72136   0.01682122  0.015994274         3416 
 1684000   0.57606517   -7.4398505     339.7664   0.01681346  0.015980764         3419 
 1685000   0.56513207   -7.4318732    340.15733  0.016822815  0.015967257         3417 
 1686000   0.58893578   -7.4516147    340.97348  0.016853177  0.015953773         3416 
 1687000   0.57905164   -7.4385239     340.1639  0.016803196  0.015940285         3393 
 1688000   0.58299945   -7.4343899    339.75774   0.01677319  0.015926825         3402 
 1689000   0.58022749   -7.4342151    339.90602  0.016770575   0.01591336         3405 
 1690000   0.57730664   -7.4311203    339.96434  0.016763527  0.015899928         3419 
 1691000   0.58969664   -7.4478053    339.89566   0.01675023  0.015886488         3386 
 1692000   0.57492924   -7.4350504    339.99024  0.016744988  0.015873072         3377 
 1693000   0.58753687   -7.4624318    340.16222  0.016743563  0.015859668         3407 
 1694000   0.57652739   -7.4305718    339.45448  0.016698863  0.015846276         3429 
 1695000   0.58007926   -7.4585802    339.74932  0.016703506  0.015832898         3397 
 1696000   0.57578722   -7.4596513    339.87975  0.016700067   0.01581953         3437 
 1697000   0.57554331   -7.4109546     340.0723  0.016699681  0.015806174         3404 
 1698000   0.57827783   -7.4535756    340.20364  0.016696292  0.015792834         3377 
 1699000   0.56212114   -7.4505932    339.83582  0.016668424  0.015779517         3385 
 1700000   0.57508316   -7.4601636    340.35014   0.01668383  0.015766193         3379 
 1701000   0.57846869   -7.4642985    339.85128  0.016649583  0.015752884         3460 
 1702000   0.56589869   -7.4698101     339.7885  0.016636727  0.015739609         3438 
 1703000   0.58165165   -7.4592851    339.95914  0.016635307  0.015726327         3406 
 1704000   0.56985401   -7.4695026    340.24989  0.016639764  0.015713071         3433 
 1705000    0.5732534   -7.4670894    339.69771  0.016603016   0.01569982         3440 
 1706000   0.57335666   -7.4486048    339.57104  0.016587096  0.015686591         3429 
 1707000   0.56931232   -7.4600508    340.12386  0.016604367   0.01567338         3435 
 1708000   0.57664931   -7.4554589     339.4662  0.016562559  0.015660177         3442 
 1709000   0.58188664   -7.4674707    339.57453  0.016558149  0.015646979         3410 
 1710000   0.58023498   -7.4496274    339.89476  0.016564072  0.015633808         3428 
 1711000    0.5599975   -7.4404622    340.32113  0.016575157  0.015620647         3396 
 1712000   0.55972908   -7.4615539     339.7596  0.016538143  0.015607505         3404 
 1713000   0.57887994   -7.4587769    339.74142  0.016527604  0.015594374         3428 
 1714000   0.56756591   -7.4599024    340.00549    0.0165308  0.015581251         3429 
 1715000   0.55901433   -7.4641778    340.09149   0.01652534  0.015568132         3377 
 1716000   0.58013046   -7.4717726     339.6304  0.016493318  0.015555019         3420 
 1717000   0.58317993   -7.4652456     339.8128  0.016492565  0.015541934         3389 
 1718000   0.57311595   -7.4494476     339.9191  0.016488121  0.015528855         3385 
 1719000   0.56524806   -7.4597461    340.03479  0.016484138  0.015515772         3408 
 1720000   0.56361014   -7.4507278    339.92363  0.016469168  0.015502724         3414 
 1721000   0.55950568    -7.470844    339.80301  0.016453758  0.015489679         3399 
 1722000   0.55774866   -7.4785517      339.501  0.016429588  0.015476635         3396 
 1723000   0.56434987   -7.4768306    339.44719   0.01641745   0.01546362         3446 
 1724000   0.56653009   -7.4603273    339.54593    0.0164127  0.015450617         3433 
 1725000   0.56393787    -7.479855    339.81537  0.016416201  0.015437628         3427 
 1726000   0.56167648   -7.4664113    340.01822  0.016416484  0.015424644         3448 
 1727000    0.5745415   -7.4830663    339.50029  0.016381987  0.015411672         3480 
 1728000   0.55913483   -7.4814985    339.80832  0.016387361  0.015398709         3435 
 1729000   0.55906326   -7.4627494    340.18212  0.016395899  0.015385769         3423 
 1730000   0.56596526   -7.4760504    339.56694  0.016356789  0.015372829         3414 
 1731000   0.55212282   -7.4571388    339.47984  0.016343147   0.01535991         3414 
 1732000   0.56458826   -7.4779583    340.15331  0.016366114  0.015347014         3394 
 1733000    0.5550352   -7.4583655    339.48155  0.016324367  0.015334117         3396 
 1734000   0.55804018   -7.4636395    340.01484  0.016340582  0.015321235         3428 
 1735000   0.55331475    -7.451019    339.95161  0.016328127  0.015308372         3405 
 1736000   0.55933278   -7.4760554    340.03829  0.016322882  0.015295526         3450 
 1737000   0.56539437   -7.4818152    340.01785  0.016312505  0.015282667         3440 
 1738000    0.5497189   -7.4627263    339.37529  0.016272309   0.01526983         3363 
 1739000   0.56852735   -7.4601942    339.87012  0.016286665  0.015257015         3450 
 1740000   0.55955465   -7.4937399    340.05241  0.016286035  0.015244192         3416 
 1741000   0.56302665   -7.4794541    339.59859  0.016254958  0.015231389         3430 
 1742000   0.54527068   -7.4839119    339.22879  0.016227937  0.015218596         3428 
 1743000   0.56699275   -7.4758174    339.78624  0.016245278  0.015205797         3429 
 1744000   0.55594815   -7.5046359    339.13815  0.016204996  0.015193025         3437 
 1745000   0.56547123   -7.4745707    339.24945  0.016201024  0.015180258         3418 
 1746000    0.5544142   -7.4776317    339.22094  0.016190385  0.015167502         3426 
 1747000   0.57309606   -7.4920498    339.24502  0.016182266  0.015154762         3436 
 1748000   0.54877651   -7.4775577    339.36713   0.01617883  0.015142036         3407 
 1749000   0.56068774   -7.4888692     339.8103  0.016190695  0.015129325         3427 
 1750000   0.56331611   -7.4927037    339.27651  0.016156024  0.015116632         3438 
 1751000   0.56122839   -7.4591376    339.38975  0.016152187  0.015103938         3439 
 1752000   0.55730284   -7.4972876    340.17472  0.016180304  0.015091265         3421 
 1753000   0.55311048   -7.4853918    339.61121  0.016144286  0.015078593         3453 
 1754000   0.56520055   -7.4776942    339.24498  0.016117682  0.015065938         3399 
 1755000   0.55419422   -7.4774131    339.16469  0.016104686  0.015053305         3429 
 1756000   0.54181744   -7.4647457    339.54004  0.016113328  0.015040673         3418 
 1757000   0.53418973   -7.4717501    339.29803  0.016092678  0.015028073         3454 
 1758000   0.56952154   -7.4752876    339.62956   0.01609924   0.01501548         3429 
 1759000   0.54400349   -7.4904896    339.72242  0.016094487  0.015002902         3450 
 1760000   0.53602396   -7.4851937    339.26111    0.0160635  0.014990314         3421 
 1761000   0.55012389   -7.4714849    339.33378  0.016057817  0.014977752         3413 
 1762000   0.56114164   -7.4718788    339.28223  0.016046265  0.014965203         3390 
 1763000    0.5327068    -7.486162    339.39461  0.016042475  0.014952663         3418 
 1764000   0.54796116   -7.4875661    339.65121  0.016045503  0.014940132         3394 
 1765000   0.55505252   -7.4898333    339.29299  0.016019499   0.01492762         3419 
 1766000   0.54839988     -7.48319    338.88213  0.015991041  0.014915122         3419 
 1767000   0.55306978   -7.4922644    338.94063   0.01598475  0.014902622         3445 
 1768000   0.54200628   -7.4971308    339.42189  0.015998392  0.014890134         3420 
 1769000   0.54374449   -7.4941978    339.40339  0.015988477  0.014877655         3396 
 1770000   0.53863118   -7.5052818    339.67612  0.015992284  0.014865189         3400 
 1771000   0.54004388   -7.4874391    339.11821  0.015957002  0.014852739         3429 
 1772000   0.54911224   -7.4968622     339.5042  0.015966149  0.014840304         3412 
 1773000   0.55262344   -7.5034971    339.11033  0.015938632  0.014827878         3414 
 1774000    0.5441684   -7.4996545    338.81108   0.01591559  0.014815466         3445 
 1775000   0.53473564   -7.5024329    339.10691  0.015920512  0.014803063         3458 
 1776000   0.54069106   -7.5089391    339.53925  0.015931834  0.014790679         3432 
 1777000   0.53858476   -7.4882374     339.7886  0.015934562  0.014778312         3447 
 1778000   0.53400492   -7.4848332    338.84834  0.015881531  0.014765944         3429 
 1779000   0.55317288   -7.4902049    339.03797  0.015881487  0.014753589         3443 
 1780000   0.53812411   -7.4967145    338.84311  0.015863442  0.014741245         3414 
 1781000   0.53505305   -7.5038364    338.89628  0.015857022  0.014728927         3428 
 1782000   0.54437646   -7.4884331    338.98233  0.015852148  0.014716619         3443 
 1783000   0.55450745   -7.4968517    338.89096  0.015838987  0.014704308         3470 
 1784000   0.54145346   -7.5072309    338.82964  0.015827244  0.014692004         3421 
 1785000   0.53968279   -7.5081107    339.11682  0.015831784   0.01467971         3426 
 1786000   0.52845554   -7.4897601    338.49326  0.015793825  0.014667433         3449 
 1787000   0.53537199   -7.4972893    338.62221     0.015791  0.014655172         3407 
 1788000    0.5415282   -7.4923603    339.07744  0.015803386  0.014642933         3446 
 1789000   0.54087786   -7.4962434    339.36465   0.01580793  0.014630693         3420 
 1790000   0.54429522   -7.4992573    339.14069  0.015788673   0.01461847         3414 
 1791000   0.53134525   -7.5027358    339.75314  0.015808354  0.014606276         3423 
 1792000   0.53774211   -7.4981951     339.0716  0.015767839   0.01459408         3421 
 1793000    0.5335006   -7.4883181    338.70492  0.015742002  0.014581898         3435 
 1794000   0.54679361   -7.5184163    338.66388  0.015731321  0.014569725         3448 
 1795000   0.54382201   -7.5054818    338.87488  0.015732353  0.014557568         3416 
 1796000   0.54400068   -7.5061031    338.77744  0.015719072  0.014545414         3433 
 1797000   0.54341992   -7.5014141    338.91385   0.01571665  0.014533272         3425 
 1798000   0.53098074   -7.5229666    339.06632  0.015714976  0.014521157         3428 
 1799000     0.542937   -7.5005235     338.8268  0.015695146  0.014509043         3405 
 1800000   0.55184011    -7.507643    339.16626  0.015702142  0.014496945         3443 
 1801000   0.52582617   -7.5122781    338.32243  0.015654379  0.014484855         3431 
 1802000   0.52483984   -7.5266461    339.04457  0.015679087  0.014472781         3401 
 1803000   0.52780567   -7.4959138    339.18841  0.015677039  0.014460715         3438 
 1804000   0.51860912   -7.5187907    339.20717  0.015669215  0.014448643         3414 
 1805000   0.53053259   -7.5155316    338.81116  0.015642251  0.014436594         3433 
 1806000   0.54999203   -7.5190473    337.85163  0.015589315  0.014424567         3456 
 1807000   0.52807049   -7.5182555    338.65673  0.015617816   0.01441255         3440 
 1808000    0.5361576   -7.5077073    339.48025  0.015647135   0.01440054         3431 
 1809000   0.52737398   -7.5023688     338.0891  0.015574401  0.014388537         3409 
 1810000   0.53948405   -7.5061381    339.30793  0.015621912  0.014376561         3426 
 1811000   0.52788728   -7.5199555    339.28234  0.015612108  0.014364599         3434 
 1812000   0.53252643   -7.5044653    338.71372  0.015577342  0.014352633         3386 
 1813000   0.53024678   -7.5200683    338.55459  0.015561436  0.014340687         3409 
 1814000   0.52708961   -7.5050752    339.15889  0.015580618  0.014328758         3441 
 1815000   0.52884094   -7.5270464    338.36368  0.015535522   0.01431683         3440 
 1816000   0.51751992   -7.5370843    339.01391  0.015556806  0.014304916         3452 
 1817000   0.53399074   -7.5209604    338.51427  0.015525329  0.014293003         3457 
 1818000   0.51958509   -7.5083444     338.7263  0.015526508  0.014281111         3410 
 1819000   0.52784903   -7.5138646    338.61626  0.015512931  0.014269226         3434 
 1820000   0.53274934   -7.5204054     338.9664  0.015520439  0.014257343         3427 
 1821000   0.52414828   -7.5109735     338.4914  0.015490179  0.014245501         3448 
 1822000   0.52283572   -7.5045099    338.39078  0.015477075  0.014233642         3457 
 1823000    0.5167657   -7.5346445    338.75068  0.015485038  0.014221797         3436 
 1824000   0.51514925   -7.5236438    338.81134  0.015479319  0.014209972         3470 
 1825000    0.5386454    -7.519164    338.85443  0.015472805  0.014198156         3441 
 1826000   0.51353314   -7.5398731    339.09181  0.015475165  0.014186352         3461 
 1827000   0.51915565   -7.5182769    338.51906   0.01544057  0.014174562         3463 
 1828000   0.53062416   -7.5268185    337.88579  0.015403255  0.014162772         3476 
 1829000   0.51803816    -7.538131    338.26667  0.015412186  0.014150999         3420 
 1830000   0.51592217   -7.5215778    338.59956  0.015418924  0.014139246         3439 
 1831000   0.52309606   -7.5359768    338.67805  0.015414075  0.014127489         3481 
 1832000   0.51922655   -7.5333413    338.89788  0.015415661  0.014115757         3429 
 1833000   0.52250292   -7.5292076    338.75658  0.015400827  0.014104042         3453 
 1834000   0.53487182   -7.5351969    338.29853  0.015371616  0.014092325         3424 
 1835000   0.51366998   -7.5315344    338.71137  0.015381988  0.014080623         3429 
 1836000   0.52206092   -7.5538701    338.40637  0.015359766  0.014068937         3454 
 1837000   0.51943385   -7.5436335    339.07344  0.015381666  0.014057258         3483 
 1838000   0.52455266   -7.5281677    338.97257  0.015368724  0.014045592         3453 
 1839000   0.51734558   -7.5305947    338.13862  0.015322576  0.014033938         3449 
 1840000   0.53136437    -7.522804    338.07862  0.015311532  0.014022288         3441 
 1841000   0.52361716   -7.5290322     338.5075  0.015322628  0.014010662         3475 
 1842000   0.51212603   -7.5459459    338.54295  0.015315913  0.013999053         3424 
 1843000   0.51429992   -7.5293303    338.77533  0.015318111  0.013987451         3468 
 1844000   0.51962526   -7.5233226    338.46273  0.015295676  0.013975856         3423 
 1845000   0.51573801   -7.5337053    337.93174  0.015263403  0.013964268         3434 
 1846000   0.53526662     -7.52277    338.42523  0.015277412  0.013952693         3452 
 1847000    0.5101917   -7.5293487    338.23182  0.015260414  0.013941142         3417 
 1848000    0.5134327   -7.5393277    338.82854  0.015279065  0.013929592         3411 
 1849000   0.51162858   -7.5357074    338.58257  0.015259716  0.013918053         3453 
 1850000   0.51711791    -7.531533    338.34977  0.015240981   0.01390653         3437 
 1851000   0.50578145   -7.5378294    338.50938  0.015239932  0.013895022         3478 
 1852000   0.50382671   -7.5522486    338.96549  0.015252227  0.013883524         3455 
 1853000   0.50872049   -7.5258855    338.52936  0.015224382  0.013872037         3474 
 1854000   0.52166997   -7.5391121    338.60181  0.015219427  0.013860549         3420 
 1855000    0.5062379   -7.5401851    338.31278  0.015198238  0.013849083         3439 
 1856000   0.51876588   -7.5495827    338.34187  0.015191355  0.013837618         3488 
 1857000    0.5259416   -7.5517312    338.43165  0.015187204  0.013826178         3421 
 1858000   0.51563812   -7.5322844    338.10031  0.015164169  0.013814746         3423 
 1859000   0.51828068   -7.5402718    338.05404  0.015153938  0.013803317         3448 
 1860000   0.51654826   -7.5439029    338.57335  0.015169057  0.013791905         3459 
 1861000   0.52417853    -7.522538    338.13338  0.015141204  0.013780507         3482 
 1862000   0.52580533   -7.5271865    338.28979  0.015140073  0.013769121         3450 
 1863000   0.51122776   -7.5355736    338.13702  0.015125113  0.013757748         3448 
 1864000     0.499592   -7.5414558    338.46161   0.01513151  0.013746381         3461 
 1865000   0.49919255   -7.5398962    338.44133   0.01512249  0.013735032         3435 
 1866000   0.50056769   -7.5383487    338.31343  0.015108674  0.013723687         3462 
 1867000   0.49891586   -7.5339006    338.09015  0.015090615  0.013712351         3440 
 1868000   0.50745412   -7.5418149    338.15034  0.015085222  0.013701034         3437 
 1869000    0.5053191   -7.5400181    337.90356  0.015066148  0.013689726         3465 
 1870000   0.50200403   -7.5428677    338.36553  0.015078678  0.013678435         3465 
 1871000   0.49932119   -7.5453454    338.01333  0.015054932  0.013667156         3488 
 1872000   0.50181662   -7.5441207    338.32017  0.015060549  0.013655877         3465 
 1873000   0.50594874   -7.5487586    338.06689  0.015041239  0.013644621         3470 
 1874000   0.49606137   -7.5456882    338.60659  0.015057212  0.013633365         3451 
 1875000   0.49796142   -7.5372847    338.49913  0.015044406  0.013622126         3480 
 1876000   0.51007416   -7.5464299    337.91731  0.015010541  0.013610894         3471 
 1877000   0.50817067   -7.5500997    338.13262  0.015012104  0.013599686         3442 
 1878000   0.49836289   -7.5524746    338.17997  0.015006211  0.013588481         3437 
 1879000   0.50476427   -7.5564384    338.19807  0.014999027  0.013577288         3477 
 1880000   0.50929734   -7.5709326    337.76887  0.014972024  0.013566104         3473 
 1881000    0.4991499    -7.552463    338.08712  0.014978164  0.013554929         3474 
 1882000   0.50481257   -7.5444006    338.26217  0.014977957  0.013543772         3455 
 1883000   0.49751132   -7.5543625      338.293  0.014971367  0.013532611         3471 
 1884000   0.49886869   -7.5425955    338.07963  0.014953982  0.013521462         3475 
 1885000   0.49930481   -7.5501663    338.07847  0.014945998  0.013510325         3471 
 1886000   0.50507233   -7.5532217    337.94589  0.014932215  0.013499199         3466 
 1887000   0.49787858   -7.5491297    338.05659  0.014929191  0.013488083         3419 
 1888000    0.5000432   -7.5544628    337.80637  0.014910239  0.013476982         3476 
 1889000   0.49890654   -7.5677031    338.12083  0.014916218  0.013465899         3486 
 1890000   0.49823943   -7.5792125    338.11736  0.014908173  0.013454823         3442 
 1891000   0.49297985    -7.557226    338.10472  0.014899732  0.013443755         3474 
 1892000   0.48920544   -7.5483442    337.78901  0.014877952  0.013432695         3452 
 1893000   0.49722953   -7.5482572    337.05674  0.014837856  0.013421643         3484 
 1894000   0.50460091   -7.5604469    338.31527  0.014885395  0.013410603         3425 
 1895000   0.49034085   -7.5698219    337.46332  0.014840076  0.013399586         3462 
 1896000   0.49703944   -7.5639378    337.83783  0.014848709  0.013388573         3471 
 1897000   0.49935637   -7.5696841    337.57456  0.014829317  0.013377575         3477 
 1898000   0.50404992   -7.5519875    337.76613  0.014829914  0.013366591         3456 
 1899000   0.48965756   -7.5639872     338.2396  0.014842882  0.013355612         3468 
 1900000   0.48487909   -7.5827444    337.94007  0.014821933  0.013344651         3430 
 1901000    0.4900904   -7.5645779    338.18929  0.014825061   0.01333369         3471 
 1902000   0.48547686   -7.5547633    337.80013  0.014800216   0.01332275         3458 
 1903000   0.49640549   -7.5662762    337.98424  0.014800501   0.01331181         3484 
 1904000   0.49441352   -7.5598595    337.89517  0.014788829  0.013300883         3470 
 1905000   0.49043005   -7.5600433    337.32198  0.014755992  0.013289982         3443 
 1906000   0.49508953   -7.5770307    337.74955  0.014766944  0.013279088         3462 
 1907000   0.49582374   -7.5580913    337.72145  0.014757973  0.013268197         3468 
 1908000    0.4765868    -7.557458    338.08745  0.014766223  0.013257324         3424 
 1909000   0.49706705   -7.5670323    338.24222  0.014765244  0.013246453         3430 
 1910000   0.48934084   -7.5723149    338.00446   0.01474714  0.013235601         3431 
 1911000     0.491667   -7.5525857     338.2901   0.01475188  0.013224757         3452 
 1912000   0.48987345   -7.5511371    337.94272  0.014729024  0.013213928         3468 
 1913000   0.48567196   -7.5550965    337.37337  0.014696522  0.013203099         3453 
 1914000   0.47897449    -7.576479    337.90938  0.014712181  0.013192288         3443 
 1915000   0.48841863   -7.5723964    337.79982  0.014699731  0.013181486         3453 
 1916000   0.48833474   -7.5598512    337.77799   0.01469111  0.013170689         3437 
 1917000   0.47569274   -7.5647172    337.28213   0.01466189  0.013159909         3473 
 1918000   0.48151304   -7.5753441    337.60069  0.014668087  0.013149141         3471 
 1919000    0.4821186   -7.5736046    337.75552  0.014667167  0.013138389         3426 
 1920000   0.48131168   -7.5719514    337.38448  0.014643423  0.013127643         3457 
 1921000   0.48339323   -7.5576716    337.59906  0.014645109  0.013116905         3452 
 1922000   0.47861435   -7.5797496     337.6324  0.014638935  0.013106181         3444 
 1923000   0.48028456   -7.5853068    337.68884  0.014633768  0.013095466         3445 
 1924000   0.47874414   -7.5849556    337.60509  0.014622535  0.013084758         3463 
 1925000   0.48596594   -7.5696142    337.71422  0.014619663  0.013074067         3470 
 1926000    0.4866493   -7.5744991    337.66931   0.01461013   0.01306338         3459 
 1927000   0.48702675    -7.568428    337.58887  0.014599069  0.013052708         3436 
 1928000   0.48060453    -7.593787    337.86327  0.014603357  0.013042042         3449 
 1929000    0.4715625   -7.5739931    337.48936  0.014579634  0.013031393         3473 
 1930000    0.4868371   -7.5771517    337.52837  0.014573764  0.013020748         3486 
 1931000   0.48666134   -7.5822657    337.19106   0.01455166  0.013010115         3452 
 1932000    0.4778273   -7.5724023    337.53206  0.014558836  0.012999503         3454 
 1933000   0.48106618   -7.5709375    337.76095  0.014561172  0.012988897         3474 
 1934000   0.48094108   -7.5907586    337.26175  0.014532133  0.012978302         3462 
 1935000   0.48261486   -7.5733064    337.55014  0.014537043  0.012967719         3447 
 1936000   0.47503815   -7.5894315    337.63914  0.014533365  0.012957144         3472 
 1937000   0.47277974   -7.5765146     337.7075  0.014528803  0.012946587         3467 
 1938000   0.48375093   -7.5927086     337.5442  0.014514284  0.012936039         3469 
 1939000   0.48678999   -7.5740208    337.18264   0.01449126  0.012925503         3503 
 1940000   0.48556619   -7.5806364    338.38258  0.014535334  0.012914971         3466 
 1941000   0.48508827   -7.5859099    337.80544  0.014503067  0.012904458         3473 
 1942000   0.47466495   -7.5780055    337.49118  0.014482114  0.012893949         3459 
 1943000   0.47245387   -7.5706232     337.5765   0.01447832  0.012883446         3467 
 1944000   0.48075254   -7.5674081    338.13151  0.014494664  0.012872959         3476 
 1945000   0.49543024    -7.582482    337.75691  0.014471162  0.012862482         3472 
 1946000   0.47098092   -7.5947574    337.53943  0.014454412  0.012852017         3472 
 1947000   0.48622095   -7.5754164    337.16546  0.014430982   0.01284156         3460 
 1948000   0.46440568   -7.5849226    337.33606  0.014430872  0.012831113         3458 
 1949000   0.47915715   -7.5954979    337.76115  0.014441643  0.012820678         3477 
 1950000   0.47959657   -7.5857041    337.70192  0.014431706  0.012810247         3491 
 1951000   0.46871409   -7.5871335    337.61073  0.014420414   0.01279983         3491 
 1952000   0.48594477   -7.5769184    337.35174   0.01440197  0.012789428         3492 
 1953000   0.48384579   -7.5867462    337.18342  0.014387413  0.012779035         3473 
 1954000   0.47389601   -7.5968675    337.89828  0.014410538  0.012768648         3463 
 1955000    0.4716487     -7.59631    336.91549  0.014361274  0.012758265         3483 
 1956000   0.46711655   -7.5970362    336.84948   0.01435112  0.012747896         3488 
 1957000   0.46903417   -7.5945143    337.37176  0.014366026  0.012737536         3474 
 1958000   0.46979857   -7.5996209    337.36292  0.014358313  0.012727185         3455 
 1959000   0.46633959   -7.5689198    337.53727    0.0143584  0.012716852         3470 
 1960000   0.47080231   -7.5884309    337.78749  0.014361713  0.012706526         3462 
 1961000   0.47118567   -7.5942902    336.87558  0.014315637  0.012696215         3472 
 1962000   0.47729667   -7.6086898    337.25575  0.014324488  0.012685916         3459 
 1963000   0.46972184   -7.6040625    338.04679  0.014350772  0.012675631         3463 
 1964000   0.46834243    -7.595855    337.19562   0.01430735  0.012665351         3480 
 1965000   0.47376815   -7.5874896     337.2391  0.014301912  0.012655087         3479 
 1966000   0.46068767   -7.6104271    337.22146   0.01429389  0.012644814         3494 
 1967000   0.47131566   -7.5897046    337.08551  0.014280864  0.012634563         3493 
 1968000   0.46577579    -7.598168    336.99825  0.014269912  0.012624318         3474 
 1969000   0.47132268   -7.5965546     337.2707  0.014274196  0.012614086         3478 
 1970000   0.46835689   -7.5967977    337.31223  0.014268707  0.012603864         3482 
 1971000   0.47105471   -7.5972997    337.18676  0.014256163  0.012593658         3486 
 1972000   0.47437053   -7.5951265     337.2551  0.014251821  0.012583452         3480 
 1973000   0.46450339   -7.5913046    337.05927  0.014236327  0.012573256         3457 
 1974000    0.4640637   -7.6063807    336.99932  0.014226584  0.012563075         3469 
 1975000   0.45841044   -7.6058258    337.30529  0.014232291  0.012552906         3462 
 1976000   0.46407781   -7.6077666    337.13018  0.014217703  0.012542748         3463 
 1977000    0.4585707   -7.5917846    336.88969  0.014200375  0.012532597         3485 
 1978000   0.46797925   -7.6073382    337.43338  0.014216101  0.012522464         3485 
 1979000   0.47097323   -7.6104375    336.95462  0.014188758  0.012512338         3503 
 1980000   0.45881199    -7.610952    337.36862  0.014199016   0.01250222         3489 
 1981000   0.46333663   -7.6115491    337.06772  0.014179191  0.012492111         3488 
 1982000   0.45826449   -7.5921356    336.98046  0.014168368  0.012482014         3500 
 1983000   0.46090628   -7.6163156    336.94901  0.014159901  0.012471926         3518 
 1984000   0.46630112   -7.5974282    336.90989  0.014151121   0.01246185         3497 
 1985000   0.46520842   -7.6062819    337.45395  0.014166833  0.012451774         3471 
 1986000   0.45792356   -7.6002914    337.20878  0.014149412  0.012441715         3457 
 1987000   0.46539613   -7.6078751    336.90361  0.014129492  0.012431668         3478 
 1988000    0.4602968   -7.5954043    337.13842  0.014132227  0.012421629         3491 
 1989000   0.45526246   -7.6065395    336.92966  0.014116376  0.012411601         3494 
 1990000   0.44728135   -7.5986201    337.79316  0.014145442  0.012401585         3516 
 1991000   0.45589604   -7.6257689    337.05087  0.014107269  0.012391581         3461 
 1992000   0.45582349   -7.6116976    336.42568  0.014074033  0.012381579         3471 
 1993000   0.45774101   -7.6075304    336.45516  0.014068204  0.012371583         3500 
 1994000    0.4584823   -7.6005064    336.81049  0.014075998  0.012361608         3480 
 1995000   0.46086789   -7.6096552    336.97883  0.014075975  0.012351641         3481 
 1996000   0.45283519   -7.6221389    337.24864  0.014080187  0.012341682         3505 
 1997000   0.45509216    -7.605386    336.65152  0.014048219  0.012331738         3453 
 1998000   0.44723857   -7.6135325    336.92651  0.014052657  0.012321805         3452 
 1999000   0.44836932   -7.6233889    337.14977  0.014054935  0.012311878         3494 
 2000000   0.45875935   -7.6361098    336.98633  0.014041097  0.012301966         3459 
 2001000   0.44712007   -7.6149408    336.96143  0.014033043  0.012292057         3476 
 2002000   0.45225265   -7.6092922    337.03265  0.014028998  0.012282169         3512 
 2003000   0.45872731   -7.6084867    336.99858  0.014020577  0.012272286         3489 
 2004000   0.44725788   -7.6096396    336.55009   0.01399493  0.012262412         3473 
 2005000   0.45757183   -7.6253106    336.94431  0.014004335  0.012252551         3468 
 2006000   0.44915424   -7.5935864    336.70583  0.013987447  0.012242695         3473 
 2007000   0.44830456   -7.6295423    337.02586  0.013993766  0.012232847         3455 
 2008000   0.45201062   -7.6281063    336.77729  0.013976481  0.012223012         3458 
 2009000   0.45917054   -7.6122306    336.91755  0.013975342  0.012213189         3437 
 2010000   0.44584344   -7.6162007    336.60156  0.013955288  0.012203375         3448 
 2011000   0.44249751   -7.6400812    337.19669  0.013973011  0.012193574         3476 
 2012000   0.44845275   -7.6107085    337.16026  0.013964557  0.012183778         3468 
Loop time of 4252.86 on 48 procs for 2000000 steps with 4000 atoms

Performance: 81262.875 tau/day, 470.271 timesteps/s
99.4% CPU use with 48 MPI tasks x no OpenMP threads

MPI task timing breakdown:
Section |  min time  |  avg time  |  max time  |%varavg| %total
---------------------------------------------------------------
Pair    | 273.6      | 291.95     | 307.6      |  64.5 |  6.86
Neigh   | 26.793     | 27.167     | 28.19      |   4.9 |  0.64
Comm    | 226.61     | 244.7      | 266.27     |  64.9 |  5.75
Output  | 4.5416     | 4.5436     | 4.5757     |   0.2 |  0.11
Modify  | 3622.5     | 3639.3     | 3656.1     |  13.2 | 85.57
Other   |            | 45.17      |            |       |  1.06

Nlocal:        83.3333 ave          89 max          77 min
Histogram: 3 0 2 6 6 16 5 5 1 4
Nghost:        1745.42 ave        1762 max        1733 min
Histogram: 4 9 3 6 6 3 11 2 3 1
Neighs:        10509.2 ave       11369 max        9576 min
Histogram: 2 2 1 7 9 11 9 2 3 2
FullNghs:      21019.1 ave       22463 max       19263 min
Histogram: 3 0 1 7 8 9 10 4 3 3

Total # of neighbors = 1008918
Ave neighs/atom = 252.22950
Neighbor list builds = 108035
Dangerous builds = 0

#clear
#
#next RN
#
#jump SELF
Total wall time: 1:10:55
