
units lj                  # Use reduced LJ style units
atom_style atomic         # Uncharged point particles
atom_modify map hash      # Needed for indexing of clusters etc
                          # Used to be able to find where atoms are in relation to each other.

lattice fcc 1.0 spacing 1 1 1
Lattice spacing in x,y,z = 1.5874011 1.5874011 1.5874011
region box block 0 10 0 10 0 10 units lattice
create_box 2 box
Created orthogonal box = (0.0000000 0.0000000 0.0000000) to (15.874011 15.874011 15.874011)
  3 by 4 by 4 MPI processor grid
create_atoms 1 box
Created 4000 atoms
  using lattice units in orthogonal box = (0.0000000 0.0000000 0.0000000) to (15.874011 15.874011 15.874011)
  create_atoms CPU = 0.002 seconds
set type 1 type/fraction 2 0.54 78393
Setting atom values ...
  2170 settings made for type/fraction
mass 1 1.0
mass 2 1.0
pair_style lj/cut  3.5
pair_modify tail  yes
pair_coeff 1  1  1.0  1.0   # Intearaction between 1 and 1 set with epsilon = 1 and sigma = 1
pair_coeff 1  2  1.5  0.8
pair_coeff 2  2  0.5  0.88

write_data data.0
System init for write_data ...
Neighbor list info ...
  update every 1 steps, delay 10 steps, check yes
  max neighbors/atom: 2000, page size: 100000
  master list distance cutoff = 3.8
  ghost atom cutoff = 3.8
  binsize = 1.9, bins = 9 9 9
  1 neighbor lists, perpetual/occasional/extra = 1 0 0
  (1) pair lj/cut, perpetual
      attributes: half, newton on
      pair build: half/bin/atomonly/newton
      stencil: half/bin/3d
      bin: standard
WARNING: Not all mixed pair coeffs generated from mixing. Use write_data with 'pair ij' option to store all pair coeffs. (../write_data.cpp:312)


#############################
#   M E L T   S Y S T E M   #
#############################

velocity all create 2.4 9580093 mom yes dist gaussian # Assign velocities
                                                    # Temperature 2.4, random number seed, zero linear momentum
                                                                                # Gaussian distribution

timestep 0.002   # simulation timestep
thermo 1000       # output thermodynamic data every 1000 steps bf 100

# Define a fix  in this case with index 1 applied to all
# particles in the simulation. This fix is for simulations
# in the anisotropic NPT ensemble. Note that we use the MTK
# correction.
fix 1 all npt temp 2.4 2.4 0.1 iso 5.68 5.68 0.5 mtk yes tchain 5 pchain 5 # Use NPT ensemble
                                                                         # Set temperature and pressure and damping
                                                                         # Numbers of thermostats in chain and in barostat
run 10000          # run for 10000 steps
Per MPI rank memory allocation (min/avg/max) = 3.642 | 3.644 | 3.648 Mbytes
Step Temp E_pair E_mol TotEng Press Volume 
       0          2.4   -5.0605359            0   -1.4614359   -4.1673139         4000 
    1000    2.3795278   -4.7747639            0   -1.2063645    5.5891802    3648.5188 
    2000    2.3756241    -4.748966            0   -1.1864206    5.6361366    3655.7003 
    3000    2.3422122   -4.8015942            0   -1.2891543    5.4874981    3638.6212 
    4000    2.4362978   -4.7777197            0   -1.1241866    5.6499203    3647.6061 
    5000    2.3910794   -4.8165573            0    -1.230835    5.4684017    3630.6466 
    6000    2.4391798   -4.7410522            0   -1.0831971     6.047364    3628.7309 
    7000    2.4099881   -4.7034615            0   -1.0893831    5.8813905    3657.4549 
    8000     2.417383    -4.744171            0    -1.119003    6.0254875    3640.6919 
    9000    2.4429546   -4.7257052            0   -1.0621894    5.8910941    3652.7478 
   10000    2.4272689   -4.7186605            0   -1.0786673    5.8764114    3651.1264 
Loop time of 2.68844 on 48 procs for 10000 steps with 4000 atoms

Performance: 642751.090 tau/day, 3719.624 timesteps/s
99.6% CPU use with 48 MPI tasks x no OpenMP threads

MPI task timing breakdown:
Section |  min time  |  avg time  |  max time  |%varavg| %total
---------------------------------------------------------------
Pair    | 1.1908     | 1.2697     | 1.3405     |   2.7 | 47.23
Neigh   | 0.21822    | 0.22527    | 0.24141    |   0.8 |  8.38
Comm    | 0.82496    | 0.90933    | 1.0066     |   3.8 | 33.82
Output  | 0.00024678 | 0.00025397 | 0.00032296 |   0.0 |  0.01
Modify  | 0.22773    | 0.26831    | 0.30788    |   3.3 |  9.98
Other   |            | 0.01556    |            |       |  0.58

Nlocal:        83.3333 ave          95 max          73 min
Histogram: 2 4 7 3 8 11 6 3 3 1
Nghost:        1745.58 ave        1775 max        1729 min
Histogram: 8 6 5 11 6 5 1 4 0 2
Neighs:        10454.0 ave       12209 max        8757 min
Histogram: 2 3 3 9 9 7 9 3 0 3

Total # of neighbors = 501794
Ave neighs/atom = 125.44850
Neighbor list builds = 908
Dangerous builds = 214

# Equilibrate just above the melting temperature to avoid step fn in T

fix 1 all npt temp 1.25 1.25 0.1 iso 5.68 5.68 0.5 mtk yes tchain 5 pchain 5
run 2000
Per MPI rank memory allocation (min/avg/max) = 3.644 | 3.646 | 3.650 Mbytes
Step Temp E_pair E_mol TotEng Press Volume 
   10000    2.4272689   -4.7186605            0   -1.0786673    5.8764114    3651.1264 
   11000    1.2586144      -6.8568            0   -4.9693503     5.633287    2827.5865 
   12000    1.2376666   -6.9450264            0   -5.0889906    5.4632095    2811.7034 
Loop time of 0.689543 on 48 procs for 2000 steps with 4000 atoms

Performance: 501201.207 tau/day, 2900.470 timesteps/s
99.5% CPU use with 48 MPI tasks x no OpenMP threads

MPI task timing breakdown:
Section |  min time  |  avg time  |  max time  |%varavg| %total
---------------------------------------------------------------
Pair    | 0.29962    | 0.32231    | 0.34828    |   2.3 | 46.74
Neigh   | 0.041738   | 0.043747   | 0.046461   |   0.6 |  6.34
Comm    | 0.22726    | 0.25837    | 0.28793    |   3.1 | 37.47
Output  | 5.4854e-05 | 5.6157e-05 | 7.4565e-05 |   0.0 |  0.01
Modify  | 0.04407    | 0.059994   | 0.067041   |   3.5 |  8.70
Other   |            | 0.005064   |            |       |  0.73

Nlocal:        83.3333 ave          90 max          78 min
Histogram: 6 4 5 4 6 12 1 6 2 2
Nghost:        2082.29 ave        2108 max        2062 min
Histogram: 4 6 3 8 6 7 7 4 1 2
Neighs:        13564.6 ave       15071 max       12336 min
Histogram: 3 3 7 4 12 7 8 2 0 2

Total # of neighbors = 651102
Ave neighs/atom = 162.77550
Neighbor list builds = 143
Dangerous builds = 10

#############################
# L I N E A R  Q U E N C H  #
#############################

# Define solid atoms. This closely follows ten Wolde  Ruiz-Montero and Frenkel  Faraday Discuss  1996  104  93-110
# Compute components of the per-atom q6 vector
compute q6 all orientorder/atom degrees 1 6 components 6 nnn NULL cutoff 1.3 # compute the Q6 parameter.
                                                                             # Use all neighbours within 1.3 unit cell.

# get number of connections
compute coord_number all coord/atom orientorder q6 0.5

# An atom is solid if it has 8 or more connections (of a possible 14)
variable is_solid atom c_coord_number>=8
group solid dynamic all var is_solid    # Must be dynamic to update
dynamic group solid defined

# do clustering
compute cluster solid cluster/atom 1.3 # Create a cluster where all atoms within are solid and max 1.3 units from another member

# define chunks one chunk per cluster
compute clus_chunks solid chunk/atom c_cluster nchunk every compress yes  # Says which atoms are in which chunk

# count the size of each chunk
compute size_chunks solid property/chunk clus_chunks count


# Find the maximum entry in the vector of chunk sizes
variable max_n equal max(c_size_chunks)


# Thermo style which includes this variable
# thermo_style custom step temp pe vol v_max_n

thermo ${N}  # Print the thermo information every 100 steps
thermo 1000  

# Reset the npt fix at a lower temperature (below freezing)
fix 1  all npt temp  ${temp} ${temp}  0.1  iso  5.68  5.68  0.5  mtk yes tchain  5  pchain  5
fix 1  all npt temp  0.45 ${temp}  0.1  iso  5.68  5.68  0.5  mtk yes tchain  5  pchain  5
fix 1  all npt temp  0.45 0.45  0.1  iso  5.68  5.68  0.5  mtk yes tchain  5  pchain  5

dump dmp2 all dcd ${N} traj.dcd
dump dmp2 all dcd 1000 traj.dcd


compute msd all msd com yes
variable twopoint equal c_msd[4]/6/(step*dt+1.0e-6)
fix 9 all vector 10 c_msd[4]
variable fit equal slope(f_9)/6/(10*dt)
thermo_style custom step temp pe c_msd[4] v_twopoint v_fit v_max_n

fix 1 all npt temp 1.25 ${temp} 0.1 iso 5.68 5.68 0.5 mtk yes tchain 5 pchain 5
fix 1 all npt temp 1.25 0.45 0.1 iso 5.68 5.68 0.5 mtk yes tchain 5 pchain 5
run 500000 # 5000000  # Run for this many steps
Neighbor list info ...
  update every 1 steps, delay 10 steps, check yes
  max neighbors/atom: 2000, page size: 100000
  master list distance cutoff = 3.8
  ghost atom cutoff = 3.8
  binsize = 1.9, bins = 8 8 8
  4 neighbor lists, perpetual/occasional/extra = 1 3 0
  (1) pair lj/cut, perpetual
      attributes: half, newton on
      pair build: half/bin/atomonly/newton
      stencil: half/bin/3d
      bin: standard
  (2) compute orientorder/atom, occasional
      attributes: full, newton on
      pair build: full/bin/atomonly
      stencil: full/bin/3d
      bin: standard
  (3) compute coord/atom, occasional
      attributes: full, newton on
      pair build: full/bin/atomonly
      stencil: full/bin/3d
      bin: standard
  (4) compute cluster/atom, occasional
      attributes: full, newton on
      pair build: full/bin/atomonly
      stencil: full/bin/3d
      bin: standard
Per MPI rank memory allocation (min/avg/max) = 9.841 | 9.847 | 9.851 Mbytes
Step Temp PotEng c_msd[4] v_twopoint v_fit v_max_n 
   12000    1.2376666   -6.9450264 3.154852e-30 2.1908693e-32 8.3333333e+20            2 
   13000    1.2304139   -6.9915799   0.45085828 0.0028901171  0.035909214            2 
   14000    1.2122845   -6.9841419   0.83867514 0.0049921137  0.033646215            4 
   15000    1.2617829   -6.9715076     1.238498 0.0068805441  0.033154971            2 
   16000     1.231567   -6.9396829     1.591576  0.008289458  0.032438018            3 
   17000    1.2416191   -6.9913699    1.9569341 0.0095928138  0.032016427            2 
   18000     1.214316   -7.0167668    2.3733753  0.010987848  0.031933262            2 
   19000    1.2433552   -7.0243837    2.7470476  0.012048454  0.031986478            1 
   20000    1.2423888   -7.0026602    3.1130058  0.012970857  0.031910138            2 
   21000    1.2467117   -7.0262928     3.502879  0.013900313  0.031993741            2 
   22000     1.240836   -6.9965792    3.8994018  0.014770461  0.031914833            1 
   23000    1.2048697   -7.0668474    4.2929159  0.015554043  0.031997688            3 
   24000    1.2229192   -7.0170326    4.6715194  0.016220553  0.031989359            2 
   25000      1.22595   -7.0416099    5.1129809  0.017043269  0.032124869            2 
   26000    1.2195493   -7.0204945    5.5507829  0.017790971  0.032383826            2 
   27000    1.2082707   -6.9921629    5.9272351  0.018293935  0.032473491            1 
   28000    1.2389808   -7.0620828     6.244018  0.018583386  0.032532993            1 
   29000    1.2218605   -6.9649373     6.621799  0.019028158   0.03243183            3 
   30000    1.2012218   -7.0335414    6.9230411  0.019230669  0.032301585            2 
   31000    1.2228556   -7.0415737    7.4087332  0.019915949  0.032242754            3 
   32000    1.2141306    -7.022736    7.8421227  0.020422194  0.032268783            2 
   33000    1.2102332   -7.0747366    8.1801013  0.020656821  0.032292699            1 
   34000     1.231317   -7.0643648    8.7042811  0.021334022  0.032342232            1 
   35000    1.2046612   -7.0873312    9.0864675  0.021634446  0.032450895            2 
   36000    1.2387015   -7.1017446    9.5592233  0.022127831  0.032591313            3 
   37000    1.2249971   -7.1024706    9.8301532  0.022139984  0.032682365            3 
   38000    1.1830078   -7.1226753    10.231385  0.022437248  0.032713596            2 
   39000    1.2373517   -7.1030775    10.575936  0.022598154  0.032731205            1 
   40000    1.2247699   -7.0662707    10.941263  0.022794298  0.032702605            2 
   41000    1.1863726   -7.0902831    11.138326  0.022638874  0.032625711            4 
   42000    1.1802671   -7.1145308    11.450355  0.022718959  0.032478519            3 
   43000    1.1876975   -7.0972039    11.775273  0.022820296  0.032329358            3 
   44000    1.2003479   -7.0990851    12.160385  0.023031031  0.032183296            3 
   45000    1.1948831   -7.1122862    12.419797  0.022999625  0.032029927            3 
   46000    1.1782397   -7.1348351    12.769568  0.023133275  0.031874621            3 
   47000    1.1994788   -7.1023938    13.108288  0.023241645  0.031734098            1 
   48000    1.1966996   -7.1209002    13.411237  0.023283397  0.031591705            2 
   49000    1.2038592   -7.0858525    13.754479  0.023391971  0.031447815            3 
   50000    1.1916875   -7.1109391    13.983134  0.023305224  0.031293025            2 
   51000    1.1952532   -7.1480562    14.271522   0.02331948  0.031128954            3 
   52000    1.1955874   -7.1639424    14.616846  0.023424432  0.030967549            3 
   53000    1.1998103   -7.1559502    14.971064  0.023539408  0.030828094            2 
   54000    1.1648318   -7.2036006    15.103896  0.023308481  0.030658029            3 
   55000    1.1681272   -7.1819257    15.471154  0.023441142  0.030500617            3 
   56000    1.1822569   -7.1843395     15.87378  0.023621697  0.030363213            2 
   57000    1.1678195   -7.1874314     16.17297  0.023644693  0.030228142            3 
   58000    1.1851337   -7.1940997    16.482825  0.023682219  0.030107514            3 
   59000    1.1667708   -7.1666654    16.850556  0.023800219  0.029992118            1 
   60000    1.2047109   -7.2236976    17.148293  0.023817074  0.029881015            4 
   61000     1.173913   -7.1838528    17.546771  0.023970999  0.029783921            2 
   62000    1.1696585   -7.1606646    17.903441  0.024063765  0.029710121            5 
   63000    1.1772621   -7.1784316    18.217123  0.024096724  0.029629429            3 
   64000    1.1646411    -7.207258    18.523307  0.024118889  0.029546904            2 
   65000    1.1368191   -7.1961329    18.782547  0.024080188   0.02947398            5 
   66000    1.1873073   -7.1834559    19.094439   0.02410914  0.029390272            4 
   67000    1.1684574   -7.2033127    19.345222  0.024061221  0.029286405            2 
   68000    1.1533146   -7.2305042    19.510729  0.023910207  0.029183834            2 
   69000    1.1543303    -7.248124    19.813359  0.023929178  0.029082423            6 
   70000     1.159533   -7.2311673    20.179867  0.024023651   0.02898511            2 
   71000    1.1483043   -7.2287451    20.366304  0.023904113  0.028896404            2 
   72000    1.1545275   -7.2134807    20.633816  0.023881731  0.028790434            6 
   73000    1.1445847   -7.2950822    20.880221  0.023835869  0.028685634            3 
   74000     1.134118   -7.1921215    21.287508  0.023972419  0.028589369            2 
   75000    1.1366534   -7.2177488    21.520845   0.02391205  0.028500052            2 
   76000    1.1499144   -7.2172748    21.795701  0.023898795  0.028409214            4 
   77000    1.1344829   -7.2618848     22.14043  0.023961504   0.02831746            3 
   78000    1.1398149   -7.2569882    22.366873  0.023896231  0.028225781            3 
   79000    1.1397123   -7.2554297    22.687218  0.023931665  0.028132687            3 
   80000      1.12666    -7.283162    22.821365  0.023772255  0.028034116            4 
   81000    1.1651087   -7.3307231    23.082125  0.023747042  0.027932842            3 
   82000    1.1538051   -7.2791846     23.42821  0.023809156  0.027843509            2 
   83000     1.141282   -7.2662659    23.734293  0.023829611   0.02776272            4 
   84000    1.1640921   -7.2692486    23.989186  0.023798795  0.027683146            3 
   85000    1.0978122   -7.2637572    24.338223  0.023861002  0.027602615            3 
   86000    1.1419093   -7.3258889     24.43614   0.02367843  0.027519543            4 
   87000    1.1379602   -7.2891177    24.857919  0.023810267  0.027434351            1 
   88000    1.1401411   -7.2814989    25.076875  0.023747041  0.027352821            3 
   89000     1.141736   -7.3382562    25.386461  0.023770095   0.02727515            4 
   90000    1.1327534   -7.3191847    25.644032  0.023744474  0.027204769            5 
   91000    1.1395138   -7.3091606    25.963188  0.023775813  0.027134214            3 
   92000    1.1071897   -7.3468194    26.122728  0.023661891  0.027058192            4 
   93000    1.1306633   -7.3195184    26.364497  0.023624101  0.026977338            2 
   94000    1.1304263   -7.3213758    26.531405  0.023520749  0.026895152            3 
   95000    1.1289445   -7.3874094    26.702633  0.023423362  0.026813131            4 
   96000    1.1009556   -7.3747775    26.952845  0.023396567  0.026728967            3 
   97000    1.1328834   -7.3266111    27.257269  0.023416898  0.026644066            3 
   98000     1.114925    -7.312602    27.583615  0.023455454  0.026561923            5 
   99000    1.1123345   -7.3586777    27.771556   0.02337673  0.026481294            3 
  100000    1.0878494   -7.4043434    27.936025  0.023280021  0.026396027            2 
  101000    1.1116126   -7.3586741     28.31809  0.023364761  0.026315858            3 
  102000     1.093945   -7.3841644     28.48238  0.023269918  0.026238108            4 
  103000    1.0906687   -7.3740925    28.584517  0.023126632  0.026157967            2 
  104000    1.0950943    -7.360635    28.922156  0.023174804  0.026076582            4 
  105000    1.1019625   -7.3612042    29.149537  0.023134553   0.02599645            3 
  106000    1.0640468   -7.3728294    29.332924  0.023060475  0.025917196            5 
  107000    1.0870033   -7.4062802    29.465923  0.022948538  0.025836227            3 
  108000    1.0986934   -7.3824942    29.832586   0.02301897  0.025754965            3 
  109000    1.0922244   -7.3966766    30.113764  0.023022755  0.025680531            2 
  110000     1.103556   -7.4186035    30.408506  0.023036747  0.025605697            2 
  111000    1.1005412   -7.3642311    30.758618  0.023092055  0.025535202            2 
  112000    1.0673635   -7.4229963    31.018106  0.023078948  0.025469503            3 
  113000    1.0992199   -7.3695909    31.338118  0.023110706  0.025409115            2 
  114000    1.0707108   -7.3626733    31.578919  0.023084005  0.025350506            4 
  115000    1.0960538   -7.4283315    31.760117  0.023014577  0.025292263            4 
  116000    1.0767148   -7.3928241    32.106696  0.023065155  0.025236477            3 
  117000    1.1057273   -7.4240375    32.408713  0.023083129  0.025180994            4 
  118000    1.0964847   -7.4108938    32.583667  0.023011064   0.02512684            2 
  119000    1.0823248   -7.3862329    32.849206  0.023003646  0.025070346            8 
  120000    1.0572512   -7.4431896    32.942264  0.022876572  0.025014678            5 
  121000    1.0940575   -7.3844545     33.20356  0.022867466  0.024955721            5 
  122000    1.0781035   -7.4118035    33.287289  0.022737219  0.024891806            2 
  123000    1.0708884   -7.4635625    33.295564   0.02255797   0.02482332            2 
  124000    1.0491351   -7.4849135    33.469347  0.022492841  0.024751943            3 
  125000    1.0599503   -7.5000007    33.664465  0.022442976  0.024679177            3 
  126000    1.0862867   -7.4794274    33.913441  0.022429524  0.024606474            4 
  127000    1.0608439   -7.4740007    34.283728  0.022495884   0.02453779            2 
  128000    1.0623939   -7.4412652    34.282139  0.022319101  0.024470085            2 
  129000    1.0875791   -7.4786859    34.437387  0.022246374  0.024400051            3 
  130000     1.035357    -7.512497    34.674322  0.022227129  0.024330116            5 
  131000    1.0496411   -7.5235487    34.920295  0.022213928  0.024259447            4 
  132000    1.0364172   -7.5094752    35.164918  0.022200075  0.024189725            3 
  133000    1.0520232   -7.5015765    35.385978  0.022171665  0.024121311           13 
  134000     1.062779   -7.4654477     35.52879  0.022095019  0.024053466            3 
  135000    1.0745342    -7.546061    35.568221  0.021955692  0.023982749            8 
  136000    1.0444794   -7.4911832    35.786228  0.021927836    0.0239104            3 
  137000    1.0365228   -7.5592254    35.969364  0.021879175  0.023838753            6 
  138000    1.0497288   -7.4931813    36.344691  0.021947277  0.023767184            4 
  139000     1.025953   -7.5158993    36.240378  0.021726845  0.023693485            3 
  140000    1.0512398   -7.5190437    36.299407   0.02160679  0.023617108            3 
  141000    1.0362857   -7.5281479    36.481235  0.021561013  0.023541124            4 
  142000     1.043618   -7.5668475     36.66992  0.021519906   0.02346131            6 
  143000    1.0310231   -7.5569187    36.840569  0.021468863  0.023382082            3 
  144000    1.0290448   -7.5688402    36.877707  0.021341265  0.023303442            2 
  145000    1.0487824   -7.5738029    36.946669  0.021233718  0.023226154            1 
  146000    1.0334182   -7.5507607    37.147071  0.021202666  0.023146306            6 
  147000    1.0205342   -7.5265752    37.394396  0.021198637  0.023068399            2 
  148000     1.025599   -7.5340472    37.587688  0.021164239   0.02299102            2 
  149000    1.0181407   -7.5712615    37.878203  0.021184677   0.02291681            1 
  150000   0.98324316   -7.5338402    37.979978  0.021099988  0.022842428            6 
  151000    1.0285258   -7.5677861    38.101941  0.021027561  0.022767659            8 
  152000    1.0172669   -7.5797049      38.4253  0.021066502  0.022695427            2 
  153000    1.0297163   -7.5709122    38.717397  0.021087907  0.022625496            4 
  154000     1.049714   -7.6400978    38.601261  0.020888128  0.022553908            3 
  155000   0.99658154   -7.6128029    38.794635   0.02085733  0.022480266            5 
  156000    1.0296447   -7.6137146    38.853696  0.020755179  0.022407291            4 
  157000    1.0190554    -7.601834    39.174241  0.020793121  0.022334117            3 
  158000    1.0179037   -7.6053807    39.322857  0.020739904  0.022262629            4 
  159000   0.99495029    -7.598198    39.589906  0.020749427  0.022193063            2 
  160000    1.0354901    -7.629451    39.684362  0.020668939  0.022124127            4 
  161000       1.0348   -7.6267222    39.848703  0.020625623  0.022054828            4 
  162000    1.0170967   -7.6326201    39.962699  0.020556944  0.021985635            3 
  163000    1.0105523   -7.6216933    40.153522  0.020528386  0.021918093            4 
  164000    1.0024924   -7.6124003    40.378603  0.020517583  0.021851522            5 
  165000    1.0170883   -7.6358882    40.432511   0.02042046  0.021786681            3 
  166000    1.0142855   -7.6551635    40.594509  0.020378769  0.021721186            3 
  167000    1.0037323   -7.6777038    40.692402   0.02030559  0.021654907            5 
  168000   0.97266352   -7.6778569    40.918504  0.020296877  0.021587753            4 
  169000   0.98845038   -7.6713909    41.021425  0.020227527  0.021521792            7 
  170000   0.97908454   -7.6815675    41.120246  0.020156983  0.021454171            8 
  171000     1.004452   -7.6827448    41.262173  0.020108271  0.021387427            5 
  172000    1.0127779    -7.691008    41.425919  0.020070697  0.021319519            7 
  173000   0.99172724   -7.6630612     41.71631  0.020094562  0.021253624            3 
  174000   0.99705305   -7.6699912    41.570647  0.019909314  0.021186737            2 
  175000    1.0096168   -7.6826574    41.849723   0.01992844  0.021119738            4 
  176000   0.97164519   -7.7164846    42.052538   0.01991124    0.0210538            6 
  177000   0.98774397   -7.6785882    42.301185  0.019915812  0.020990415            7 
  178000   0.98617506   -7.7090178    42.198543  0.019755872  0.020926047            8 
  179000   0.99112327   -7.6682834    42.414769  0.019746168  0.020861786            5 
  180000   0.97509352   -7.6834598    42.643249  0.019742245  0.020798459            2 
  181000   0.98804015   -7.7390013    42.652991  0.019637657  0.020736192            3 
  182000   0.96792532   -7.6876915    42.818319  0.019605457   0.02067232            4 
  183000   0.97920687   -7.7061415    42.982117  0.019572913  0.020608733            4 
  184000   0.98676584   -7.7632952    42.952902  0.019453307   0.02054538            5 
  185000   0.95584847   -7.7471836    43.253757  0.019483674  0.020482094            6 
  186000    0.9653434   -7.7580538    43.276122  0.019388943  0.020418236            8 
  187000   0.99968269   -7.7873953    43.263726  0.019279735  0.020353657           11 
  188000   0.98062064   -7.7590965    43.308098  0.019196852  0.020287463            3 
  189000   0.94093765   -7.7625193    43.502284  0.019180901  0.020221141            5 
  190000   0.97760084   -7.7408126      43.4775  0.019069079   0.02015441            6 
  191000   0.96558656   -7.7824613     43.45737  0.018960458   0.02008665            7 
  192000   0.97379911   -7.8232385    43.647669  0.018944301  0.020019559            6 
  193000   0.97376322   -7.7719012    43.837947  0.018928302   0.01995231            5 
  194000   0.94625966    -7.799366    43.700718  0.018771786  0.019885995            3 
  195000   0.95451798   -7.7919854    43.857408  0.018742482  0.019817681           14 
  196000   0.96285376   -7.8002324    43.933948    0.0186794  0.019749851            5 
  197000   0.95963517   -7.8048604    44.159771  0.018680106  0.019682368            1 
  198000   0.96388835   -7.7670264     44.34454  0.018663527  0.019616096            3 
  199000   0.94924472    -7.792249    44.416738  0.018599974  0.019550517            4 
  200000   0.94120222   -7.8038155    44.480822  0.018533676  0.019485723            4 
  201000   0.94401933   -7.7987706    44.578866  0.018482117  0.019421787            6 
  202000   0.94927604    -7.818585    44.629717  0.018411599  0.019356394            7 
  203000   0.92959614   -7.8325692    44.844949  0.018409256  0.019291445            5 
  204000   0.92459705   -7.8481541    44.860833  0.018325504  0.019226666           10 
  205000   0.95125621   -7.8300893    44.944215  0.018270006  0.019160714            5 
  206000   0.93450616   -7.8570399    45.025414  0.018214164  0.019096509            5 
  207000   0.93232359     -7.85881    45.314002  0.018242352  0.019032247            7 
  208000   0.92823173   -7.8369048    45.432883  0.018202277   0.01896852            7 
  209000   0.94013388    -7.855981    45.336449  0.018076734  0.018904436           18 
  210000   0.93239285    -7.855386    45.437615  0.018030799  0.018840288            7 
  211000   0.95155639   -7.8395422    45.431124  0.017942782  0.018776392            6 
  212000   0.93366673   -7.8557683    45.647474  0.017943189  0.018713593            3 
  213000   0.91454706   -7.9187353    45.687307  0.017874533  0.018650464            5 
  214000   0.92651766   -7.9198258     45.82309  0.017843882  0.018587213            6 
  215000   0.90676183    -7.863652    45.852635  0.017772339   0.01852435            5 
  216000   0.91142129   -7.8861922    45.827338    0.0176803  0.018460462            6 
  217000   0.92256134   -7.9007858    45.993822  0.017662758  0.018396414            3 
  218000   0.92484612   -7.9025458    45.942625  0.017562166   0.01833274            4 
  219000   0.93525383   -7.9120959     46.09087  0.017538383  0.018269254            7 
  220000   0.90216835   -7.9300383    46.029346  0.017435358  0.018205962           11 
  221000   0.94342641   -7.9346366    46.121643  0.017391268  0.018141926           16 
  222000   0.89864643   -7.9171219    46.400343  0.017417546  0.018078534           28 
  223000   0.90242597   -7.9129572    46.284886  0.017296295  0.018015651            9 
  224000    0.9037376   -7.8901083    46.381332   0.01725496  0.017952606            9 
  225000   0.90537263   -7.9266931    46.619378  0.017266436   0.01789053            5 
  226000   0.89338009   -7.9185478    46.588006  0.017178468  0.017828259            4 
  227000   0.90917753   -7.9213295    46.634829  0.017119981  0.017765972            9 
  228000   0.89135382    -7.958953    46.617375  0.017038514   0.01770381            5 
  229000   0.90702877   -7.9336127    46.781304  0.017023764  0.017641781            3 
  230000   0.89120272   -7.9667262    46.813197  0.016961303  0.017579708           28 
  231000   0.91807122   -7.9483038     46.77181  0.016872947  0.017517583           12 
  232000   0.89156807   -7.9490268    46.956265  0.016866474  0.017456013            7 
  233000    0.9087026   -7.9793179    47.031915  0.016821143  0.017395011           15 
  234000   0.87765613   -7.9825213    46.987096  0.016733296   0.01733347           16 
  235000   0.89447379   -7.9709324    47.191863  0.016734703  0.017272095            8 
  236000   0.89561297   -8.0433854    46.995392  0.016594418  0.017210749            4 
  237000   0.89411193   -8.0023539    47.260967   0.01661778  0.017150098            5 
  238000   0.87691525   -7.9892577     47.30422  0.016563102  0.017089643            6 
  239000   0.89923242   -8.0182187    47.212882  0.016461953  0.017028952            6 
  240000   0.89632271   -7.9690185    47.436982  0.016471174  0.016968417            5 
  241000   0.86802801   -7.9955556    47.410942  0.016393825  0.016908092            8 
  242000   0.89729126   -7.9994536    47.604792  0.016392835  0.016847975            7 
  243000    0.8942912    -8.006875    47.709089  0.016361142  0.016788919            4 
  244000   0.87904766   -8.0181741    47.693716  0.016288838  0.016731415            9 
  245000   0.86740489   -7.9881675     47.84865  0.016275051  0.016672968            4 
  246000   0.88111428   -7.9899572    47.866133  0.016214815  0.016613988            8 
  247000   0.87343341   -8.0048143    47.912585   0.01616484  0.016555559            7 
  248000   0.84767616   -8.0177501    48.098024  0.016161971  0.016498258           10 
  249000   0.88037837   -8.0629859    47.971706  0.016054788  0.016440475            8 
  250000    0.8741102   -8.0059462    48.140002  0.016046667  0.016382831            7 
  251000   0.84310541   -8.0290079     48.20475  0.016004233  0.016326107            4 
  252000   0.86723418   -8.0101128    48.236452  0.015951208  0.016269108            4 
  253000    0.8637111   -8.0732219    48.341174  0.015922653  0.016213325            8 
  254000   0.85294018   -8.0388578    48.544417  0.015926646  0.016157587            5 
  255000   0.87169198   -8.0531138    48.436868  0.015829042  0.016101894            6 
  256000   0.85124586   -8.1143807    48.354244  0.015740314  0.016045623            3 
  257000   0.85410743   -8.0921252    48.328328  0.015670664  0.015988876            9 
  258000   0.86346117   -8.0600784    48.533001  0.015676034  0.015933205            8 
  259000   0.84696753   -8.1170926    48.422113   0.01557983  0.015876999           14 
  260000   0.85218582   -8.0908533    48.519239  0.015551038  0.015820528            5 
  261000   0.86172332   -8.0627121    48.476629  0.015477851  0.015764256            6 
  262000   0.85300906    -8.086433    48.433631  0.015405099  0.015707553            7 
  263000    0.8466295   -8.0765898    48.538514  0.015379757  0.015650724           13 
  264000   0.82556923   -8.1288163    48.476009   0.01530177  0.015593925            4 
  265000   0.87678401   -8.1034942    48.567623  0.015272837   0.01553714            7 
  266000   0.87056402   -8.1336408    48.513272  0.015198394  0.015480305           14 
  267000   0.84406239   -8.1141205    48.634343  0.015179258  0.015423508            8 
  268000    0.8394815   -8.1133405    48.599154  0.015111677  0.015367112           14 
  269000   0.83894349   -8.1256365     48.80071   0.01511794  0.015311405            7 
  270000   0.81783766   -8.1381002    48.563897  0.014988857  0.015255004            3 
  271000   0.81642102   -8.1319688    48.787127  0.015002192  0.015199038           14 
  272000   0.83539397    -8.115666    48.822356   0.01495783   0.01514364           15 
  273000   0.80261883   -8.1199951     49.00822  0.014959774  0.015089002            7 
  274000   0.83713776   -8.1229327     49.01895   0.01490844  0.015034716            6 
  275000   0.82185665   -8.1530073    49.022224  0.014855219   0.01498059            6 
  276000   0.82734018   -8.1462015    49.015437  0.014799347  0.014926539            8 
  277000   0.83607772   -8.1868246    48.977199  0.014734416  0.014872291            7 
  278000   0.82903552   -8.1921105    49.032918  0.014698117  0.014818372            8 
  279000   0.82627888   -8.1786187    49.074173  0.014657758  0.014764535            4 
  280000   0.80405295   -8.1915711    49.150271  0.014628057  0.014711177           11 
  281000   0.80622474   -8.1815708    49.107197  0.014563226  0.014657743            7 
  282000   0.82371101   -8.2039541    49.041082  0.014492045  0.014604071           11 
  283000   0.82201296   -8.2011518    49.180677  0.014481943  0.014550679           14 
  284000   0.82476126    -8.196845    49.136969  0.014418125  0.014497187           15 
  285000   0.81714443   -8.1908907    49.228801  0.014394386  0.014444074            7 
  286000   0.82354204   -8.2312894    49.225033  0.014342958  0.014391507           25 
  287000   0.80990485   -8.1882676    49.309927  0.014317633  0.014339145            9 
  288000   0.81010065   -8.2421393    49.299692  0.014264957  0.014286902           14 
  289000   0.79639238   -8.2374741     49.33265  0.014225101   0.01423462           10 
  290000     0.793445   -8.3056053    49.234717  0.014147907  0.014182484           11 
  291000   0.80449895   -8.2377246    49.305916  0.014119678  0.014130076           10 
  292000    0.8300265   -8.2545626    49.342052  0.014081636  0.014078134            9 
  293000   0.79383158   -8.2755558    49.424386  0.014056993  0.014026369           13 
  294000   0.80308878   -8.2618096    49.353203  0.013989003  0.013974675            5 
  295000    0.7971895   -8.2723199    49.332965  0.013935866  0.013923278            8 
  296000   0.78753577   -8.2813632    49.459816  0.013924498  0.013871889            9 
  297000   0.77572211   -8.2669772    49.411423  0.013864036  0.013820806           11 
  298000   0.79999269   -8.3180752    49.418368  0.013819454  0.013769709           18 
  299000   0.78834421   -8.2895513    49.425224  0.013775146  0.013718576           11 
  300000   0.79859325   -8.3015074     49.53548  0.013759855  0.013667817           22 
  301000   0.80701286   -8.3536253    49.413948  0.013680495  0.013616801           18 
  302000   0.75260105   -8.3209152    49.497542  0.013658262  0.013565955           15 
  303000   0.79083262   -8.3422908     49.43368  0.013595621    0.0135155           13 
  304000   0.77713101   -8.3376818    49.441598   0.01355307  0.013465185           17 
  305000   0.76490125   -8.3288974    49.604198   0.01355306  0.013415082           19 
  306000   0.76185706   -8.3099923    49.573371  0.013500373  0.013365099           25 
  307000   0.76795119   -8.3189039    49.522167  0.013442499  0.013315256           20 
  308000   0.76902813   -8.3220213    49.538709   0.01340333  0.013265427           12 
  309000   0.76403837   -8.3456915    49.518945  0.013354624   0.01321577           15 
  310000   0.79003661   -8.3620154    49.533616  0.013315488   0.01316606           23 
  311000    0.7625956   -8.3417545    49.650203  0.013303913  0.013116553           14 
  312000   0.76726662   -8.3725126     49.48076  0.013216015  0.013067118           22 
  313000   0.77001742    -8.358942    49.527077  0.013186123  0.013017726           23 
  314000   0.77271874   -8.3834476    49.400794  0.013110614  0.012968629           15 
  315000   0.77467483   -8.3687254    49.590297  0.013119126  0.012919656           12 
  316000   0.76515859   -8.3690118    49.508815  0.013056122  0.012871197           17 
  317000   0.77394112   -8.3965199    49.469494  0.013004599  0.012822735           22 
  318000   0.75417984     -8.38151    49.643672  0.013009348  0.012774528           21 
  319000   0.77746407   -8.3704708    49.617772  0.012961801  0.012726449           27 
  320000   0.75095923   -8.4055534    49.617094  0.012921118  0.012678108           29 
  321000   0.76944473   -8.3842535    49.596803  0.012875598  0.012629804           33 
  322000   0.75101395   -8.3747059    49.426244  0.012791471  0.012581727           14 
  323000   0.75955687   -8.4001184    49.431223  0.012753153  0.012533618           14 
  324000   0.74744047   -8.4091823    49.456222  0.012720222   0.01248586           28 
  325000   0.74602963   -8.3849874    49.498329  0.012691879  0.012438214           13 
  326000   0.74112734   -8.4038901    49.495846  0.012652312  0.012390736           11 
  327000   0.74256005   -8.4167421    49.455073   0.01260323  0.012343023           19 
  328000    0.7445645   -8.4133205    49.400008  0.012550815  0.012295553           31 
  329000   0.73279425   -8.4451854    49.301142  0.012487624  0.012248174           15 
  330000   0.74539806   -8.4309798    49.382503  0.012470329  0.012200739           19 
  331000   0.72881917   -8.3909182    49.509936  0.012464737  0.012153658           21 
  332000    0.7352315   -8.4260414    49.405583     0.012401  0.012106655           21 
  333000   0.73682092    -8.418975    49.388072  0.012359377   0.01205989           23 
  334000   0.72639985   -8.4432013    49.491218  0.012348108  0.012013341           25 
  335000   0.73713936   -8.4365963    49.348215  0.012275675  0.011967038           19 
  336000   0.74051278   -8.4421877    49.490564  0.012274446  0.011920825           41 
  337000   0.74708061   -8.4125606    49.567486  0.012257044  0.011874813           31 
  338000   0.72328463   -8.4445701    49.487113  0.012200965  0.011829069           18 
  339000   0.71397066   -8.4582131    49.397109  0.012142849  0.011783199           22 
  340000   0.72571996    -8.487127    49.413396  0.012111127  0.011737498           23 
  341000   0.73393493     -8.45663    49.415768   0.01207619  0.011691978           36 
  342000   0.71385914   -8.4991432    49.489872  0.012058936  0.011646559           43 
  343000   0.71200202   -8.4923497    49.408734  0.012004066  0.011601501           39 
  344000   0.71699294   -8.4734379    49.482726  0.011987094  0.011556653           17 
  345000   0.71678426   -8.4904196     49.39835  0.011931968  0.011512091           23 
  346000   0.72426311   -8.4736857    49.458196  0.011911897  0.011467565           30 
  347000   0.69813528   -8.5087204    49.440203  0.011873248  0.011423322           37 
  348000   0.71556608    -8.501443    49.521208  0.011858527  0.011379276           25 
  349000   0.71991998   -8.5099053    49.396971  0.011794883  0.011335395           29 
  350000   0.70768146     -8.47873    49.370927  0.011754983  0.011291521           30 
  351000   0.70775129   -8.5130755    49.392372  0.011726584  0.011247896           43 
  352000   0.71359045   -8.4898575    49.533104  0.011726587  0.011204502           33 
  353000    0.7043231   -8.5034614    49.410093  0.011664328  0.011161185           33 
  354000   0.70539904   -8.5191853    49.361857  0.011620023  0.011117867           67 
  355000   0.69454128   -8.5262632    49.412323  0.011599137  0.011074902           42 
  356000   0.70945301   -8.5554906    49.285297   0.01153682  0.011031897           55 
  357000    0.7188429   -8.5367996    49.357914  0.011521455   0.01098922           52 
  358000   0.70891453   -8.5251913    49.429786  0.011506002  0.010946642           43 
  359000   0.69373614   -8.5298849    49.434802  0.011475117  0.010904273           40 
  360000   0.70695619   -8.5612565    49.437577  0.011443883   0.01086209           37 
  361000   0.69274072   -8.5607822    49.376338  0.011398047  0.010820196           41 
  362000   0.70453065   -8.5640271    49.337392  0.011357595  0.010778498           46 
  363000   0.67639238   -8.5432114    49.376843  0.011335363  0.010736888           59 
  364000   0.68687455   -8.5859625     49.38081  0.011305131  0.010695454           44 
  365000   0.66351228   -8.5656351    49.311089  0.011258239  0.010654215           32 
  366000   0.69080115   -8.5838738    49.346309  0.011235498  0.010613105           48 
  367000   0.67734553   -8.6001435    49.274024   0.01118847  0.010571967           43 
  368000   0.67834298   -8.6040689    49.309166  0.011166025  0.010531106           32 
  369000   0.67643414   -8.5941983    49.369069  0.011149293  0.010490343           35 
  370000   0.68674598   -8.6198245    49.378855  0.011121364  0.010449801           42 
  371000   0.67384049   -8.6026034    49.407879  0.011097906  0.010409571           29 
  372000    0.6637925   -8.6245244    49.362035  0.011057803  0.010369543           87 
  373000   0.66981226   -8.6175261    49.311357  0.011016836  0.010329733           34 
  374000   0.67043529   -8.6376643    49.209573    0.0109647  0.010290041           38 
  375000   0.68255577   -8.6216555    49.267744  0.010948388  0.010250435           52 
  376000   0.67593391   -8.6205337    49.166654  0.010896865  0.010211044           43 
  377000   0.67740947   -8.6175068    49.310634  0.010899786  0.010171768           39 
  378000   0.65710516    -8.637194    49.300267  0.010868665  0.010132646           48 
  379000   0.67562283   -8.6288154    49.375495  0.010856529  0.010093645           52 
  380000   0.64800768   -8.6419189    49.265246  0.010803782   0.01005479           51 
  381000   0.67046764   -8.6406841    49.175387  0.010755771  0.010016071           88 
  382000   0.65613616   -8.6597427    49.215414  0.010736347 0.0099776196           57 
  383000   0.65842105   -8.6474963    49.182642  0.010701184 0.0099393825           40 
  384000    0.6709869   -8.6475578    49.258074  0.010689686 0.0099011844           38 
  385000   0.64538597   -8.6482018    49.287007  0.010668183 0.0098631982           60 
  386000   0.66696244   -8.6391846    49.307907  0.010645058  0.009825453           54 
  387000   0.66054176   -8.6556373    49.188187  0.010591772 0.0097877959           65 
  388000     0.660976   -8.6523316     49.26742   0.01058149 0.0097503164           54 
  389000   0.64900722   -8.6700876    49.218709  0.010543854 0.0097129635           45 
  390000   0.62679856   -8.6599707    49.249914  0.010523486 0.0096758326           43 
  391000   0.63863641   -8.6714662    49.214992  0.010489129  0.009638815           50 
  392000   0.62214003   -8.6754017     49.24565  0.010468888 0.0096019274           65 
  393000   0.64912708   -8.6865485    49.214704  0.010435688 0.0095651828           39 
  394000   0.64139359   -8.6867524    49.277555  0.010422495  0.009528589           43 
  395000   0.64016113   -8.6683895    49.229808  0.010386036 0.0094921108           49 
  396000   0.63150164   -8.6953428    49.201392  0.010353828  0.009455867           62 
  397000   0.64298914   -8.7009662    49.178696  0.010322984 0.0094196856          114 
  398000   0.63528586   -8.6913069    49.139884   0.01028892 0.0093836752           55 
  399000   0.63132462    -8.700681    49.065112  0.010247517 0.0093478688           59 
  400000   0.61658401   -8.6912637    49.120773  0.010233494 0.0093122641           48 
  401000   0.62460486   -8.7125422     49.10267  0.010204212 0.0092766721           35 
  402000   0.62475362   -8.7000056    49.149233  0.010188481 0.0092413313           50 
  403000   0.62154908   -8.7308877    49.087107  0.010150353  0.009206103           50 
  404000   0.63204713   -8.7228046    49.166083  0.010141519 0.0091710444           77 
  405000   0.60908986   -8.7059339    49.119514  0.010106896 0.0091361182           50 
  406000   0.61809206   -8.7368701    49.149741  0.010088206 0.0091014393           42 
  407000    0.6190536   -8.7332942    49.120949  0.010057524 0.0090669429           65 
  408000   0.60904207   -8.7240043    49.043102  0.010016973 0.0090325227           69 
  409000   0.61121564   -8.7380085    49.080694  0.010000141 0.0089982271           83 
  410000   0.61121853   -8.7230321    49.160026 0.0099918753 0.0089641273           65 
  411000   0.60699797   -8.7516815    49.096172 0.0099546172 0.0089302074           41 
  412000   0.58932526   -8.7286207    49.015985 0.0099142364 0.0088964602           52 
  413000   0.60288738   -8.7534089    49.108127 0.0099088231 0.0088628749           59 
  414000   0.59948602   -8.7432671    49.058114 0.0098748217 0.0088294609           69 
  415000   0.60251606   -8.7158354    49.088338  0.009857096 0.0087960972           58 
  416000   0.60870146   -8.7493306    48.972894 0.0098102752 0.0087629624          138 
  417000   0.59709367   -8.7362779    49.077219 0.0098075977 0.0087299543           55 
  418000   0.61177093   -8.7707812    49.031619 0.0097750437 0.0086970962           63 
  419000    0.6095951   -8.7680512    49.006905 0.0097467989 0.0086643893           56 
  420000   0.60404048   -8.7683867      48.9906 0.0097203571 0.0086318034           68 
  421000   0.58346766   -8.7681933    48.926733 0.0096846265 0.0085993404           75 
  422000   0.58408753   -8.7709188    49.018295  0.009679758 0.0085670873           68 
  423000   0.59244754   -8.7597638    48.907291 0.0096350061 0.0085349618           59 
  424000   0.60718441   -8.7555456    48.983575  0.009627275 0.0085030035           49 
  425000   0.61130972   -8.7754301     49.03514 0.0096147333 0.0084712174           51 
  426000   0.59518096   -8.7679829    48.984043  0.009582168 0.0084395503           68 
  427000   0.58448059   -8.7650041     48.96475 0.0095559621 0.0084080342           53 
  428000   0.58640606   -8.7727925    48.930393 0.0095269457 0.0083766294           56 
  429000    0.5927101   -8.7882364    48.958819 0.0095102601  0.008345359           50 
  430000   0.58491615   -8.7793788    48.971033 0.0094905102 0.0083142226           49 
  431000   0.56445981   -8.8018351    48.966305 0.0094675764 0.0082832436           64 
  432000   0.58921082   -8.8163633    48.958322 0.0094441208 0.0082523346           90 
  433000   0.58466303   -8.8140343    48.976655 0.0094258382 0.0082216003           58 
  434000   0.57011329   -8.8249094    48.944982  0.009398038 0.0081910518           47 
  435000   0.58247848   -8.7881649    48.858642 0.0093598931 0.0081605611           50 
  436000   0.56978025   -8.8186076    48.870736  0.009340737 0.0081302588           82 
  437000   0.57592496   -8.8317458    48.879818 0.0093210942  0.008100123           89 
  438000   0.56281657   -8.8154746     48.85655 0.0092953862 0.0080701317           54 
  439000   0.56924616   -8.8132475     48.89959 0.0092823822 0.0080402776           78 
  440000   0.56679598   -8.8124959    48.878285 0.0092572509 0.0080106182           52 
  441000   0.56712704   -8.8249205    48.893831 0.0092391971 0.0079810444           61 
  442000   0.55963493   -8.8387354    48.890067 0.0092175843 0.0079516294           90 
  443000   0.55203752   -8.8122714    48.840902 0.0091875285 0.0079223541           70 
  444000   0.55601449   -8.8368101    48.806534 0.0091603855 0.0078931313          125 
  445000   0.55422781   -8.8367371    48.812811 0.0091409759 0.0078640461           88 
  446000   0.55321127   -8.8413705    48.820765 0.0091219665 0.0078351164           69 
  447000   0.54400446    -8.846011    48.742441 0.0090869577 0.0078063027           74 
  448000   0.55035259   -8.8470681     48.82186 0.0090814472 0.0077776211           80 
  449000    0.5535203   -8.8327228    48.810361 0.0090590871 0.0077490832          116 
  450000   0.55503759   -8.8427251    48.805111 0.0090379834 0.0077207118           65 
  451000   0.55112723   -8.8498758    48.809522 0.0090187587 0.0076924818           94 
  452000   0.55199371   -8.8656623    48.845475 0.0090054342  0.007664395           79 
  453000   0.54130916   -8.8533678    48.798986 0.0089770026 0.0076364695           83 
  454000   0.53276185    -8.865271    48.815634 0.0089602852  0.007608706           67 
  455000   0.54790911   -8.8632071    48.827069 0.0089426866 0.0075810184          117 
  456000   0.53785944   -8.8699784    48.809904 0.0089199386 0.0075534721           84 
  457000   0.53787005   -8.8734374    48.816498 0.0089016225 0.0075260824           65 
  458000   0.53245295   -8.8637797    48.874677 0.0088927723 0.0074988607           71 
  459000   0.53433791   -8.8742842    48.779447 0.0088561087  0.007471724           93 
  460000   0.52558301   -8.8829182     48.74597 0.0088307916 0.0074447028           68 
  461000   0.53071712   -8.8710514    48.840821 0.0088287818 0.0074178168           69 
  462000   0.52451227   -8.8809927    48.808614 0.0088038626 0.0073910435           81 
  463000   0.53191176   -8.8898683    48.774637 0.0087787324 0.0073643813           78 
  464000   0.53278193   -8.9053511    48.728998 0.0087516159 0.0073378695           66 
  465000   0.53584057   -8.8936112    48.763973 0.0087390632 0.0073114227           97 
  466000   0.52261566   -8.8866415    48.749586 0.0087177372 0.0072850713           70 
  467000   0.51509597   -8.8788627    48.755605 0.0087001437 0.0072588921           56 
  468000   0.52319775   -8.9239552    48.727492 0.0086765478 0.0072328042           61 
  469000   0.52406891   -8.8933593    48.789714 0.0086691034 0.0072067972          103 
  470000   0.50348663   -8.9012377    48.821944 0.0086563731 0.0071809524           98 
  471000   0.50485298   -8.9059543    48.689954 0.0086146415 0.0071552323           59 
  472000   0.52350038   -8.9273009    48.738703  0.008604997   0.00712963           92 
  473000   0.50503342   -8.9277064    48.691676 0.0085785194 0.0071041375           94 
  474000   0.51325266   -8.9157696    48.757929 0.0085720691 0.0070787564           82 
  475000   0.50663549   -8.9092039    48.711979 0.0085459612 0.0070534748          118 
  476000   0.48837901   -8.9207073     48.66768 0.0085202521 0.0070283271           82 
  477000   0.49442675   -8.9401292    48.687321 0.0085058213  0.007003326           88 
  478000   0.51113646   -8.9083479    48.701601 0.0084905163   0.00697843          112 
  479000   0.50859174    -8.941424    48.620765 0.0084587274 0.0069536333           79 
  480000   0.51134168   -8.9218249    48.653038  0.008446708 0.0069289346          100 
  481000   0.49816524   -8.9345347    48.745302  0.008445132 0.0069043688           90 
  482000    0.5017435    -8.926742    48.672076 0.0084149508 0.0068799766           88 
  483000   0.49330195    -8.936824    48.714947 0.0084049253 0.0068556451          159 
  484000   0.49284297   -8.9578405    48.645021 0.0083755202 0.0068314363          119 
  485000   0.50181506    -8.955437     48.66878 0.0083623333 0.0068073232          154 
  486000   0.50101968   -8.9400971    48.706639 0.0083516184  0.006783368           80 
  487000   0.48755608   -8.9439836    48.640734 0.0083231919 0.0067595232          105 
  488000   0.48040334   -8.9609222    48.570811 0.0082941959 0.0067357706           81 
  489000   0.48634289   -8.9563682    48.727531 0.0083039418 0.0067121141           92 
  490000   0.48963218   -8.9511118    48.582859  0.008262391 0.0066885624           90 
  491000    0.4774074    -8.952253    48.663159  0.008259192 0.0066651474           92 
  492000   0.48431936   -8.9510109    48.663721 0.0082425001 0.0066418331          103 
  493000   0.47373779   -8.9506094    48.622714 0.0082188495 0.0066186344           88 
  494000   0.48100647   -8.9870955     48.64282  0.008205604 0.0065955562           85 
  495000   0.47346404   -8.9709559    48.549012 0.0081732344 0.0065725278          113 
  496000   0.47592111   -8.9614384    48.580058 0.0081619721 0.0065495837          120 
  497000    0.4662116   -8.9834885    48.635954 0.0081549219 0.0065267707          136 
  498000   0.47209523   -8.9685596    48.670153 0.0081442692 0.0065040965           80 
  499000   0.46928157   -8.9905407    48.694832 0.0081320695 0.0064814679           79 
  500000   0.46431099   -8.9653929    48.608869 0.0081014782 0.0064590001          121 
  501000    0.4608442   -8.9813217    48.595096 0.0080830166 0.0064366038          154 
  502000    0.4674579   -8.9811525    48.625665 0.0080719895 0.0064143457          104 
  503000   0.47544124   -8.9827421     48.61308 0.0080538569 0.0063921893          117 
  504000   0.44978366   -9.0002554    48.521986 0.0080228151 0.0063701147          134 
  505000   0.45686771   -8.9887238    48.621088 0.0080232819 0.0063481115          132 
  506000   0.47270103   -8.9946175    48.508329 0.0079888552 0.0063261975           82 
  507000   0.46053319    -8.997408    48.570857 0.0079833756 0.0063044063           84 
  508000   0.45719098   -8.9945597     48.56391 0.0079665206  0.006282705           56 
  509000   0.45165569   -8.9875415    48.596458 0.0079561981 0.0062611361          118 
  510000   0.45922639   -9.0043088    48.528454 0.0079294859 0.0062396649           94 
  511000   0.45530606   -8.9994654    48.574586 0.0079214915 0.0062182577          175 
  512000   0.44645102   -9.0213142    48.537974 0.0079000609 0.0061969956           91 
Loop time of 1298.42 on 48 procs for 500000 steps with 4000 atoms

Performance: 66542.641 tau/day, 385.085 timesteps/s
99.4% CPU use with 48 MPI tasks x no OpenMP threads

MPI task timing breakdown:
Section |  min time  |  avg time  |  max time  |%varavg| %total
---------------------------------------------------------------
Pair    | 90.678     | 97.669     | 104.42     |  33.3 |  7.52
Neigh   | 8.6209     | 9.0694     | 9.5281     |   7.1 |  0.70
Comm    | 79.266     | 88.533     | 96.75      |  43.3 |  6.82
Output  | 0.89069    | 0.89175    | 0.93067    |   0.6 |  0.07
Modify  | 1084       | 1089.5     | 1095.2     |   8.2 | 83.91
Other   |            | 12.75      |            |       |  0.98

Nlocal:        83.3333 ave          89 max          76 min
Histogram: 2 1 1 8 4 8 14 5 2 3
Nghost:        2363.46 ave        2382 max        2339 min
Histogram: 2 2 3 11 0 6 10 5 2 7
Neighs:        16149.0 ave       17603 max       14214 min
Histogram: 1 1 5 3 7 11 8 5 5 2
FullNghs:      32298.6 ave       34533 max       29433 min
Histogram: 2 1 3 4 6 10 9 7 3 3

Total # of neighbors = 1550334
Ave neighs/atom = 387.58350
Neighbor list builds = 26609
Dangerous builds = 0

#clear
#
#next RN
#
#jump SELF
Total wall time: 0:21:42
