
units lj                  # Use reduced LJ style units
atom_style atomic         # Uncharged point particles
atom_modify map hash      # Needed for indexing of clusters etc
                          # Used to be able to find where atoms are in relation to each other.

lattice fcc 1.0 spacing 1 1 1
Lattice spacing in x,y,z = 1.5874011 1.5874011 1.5874011
region box block 0 10 0 10 0 10 units lattice
create_box 2 box
Created orthogonal box = (0.0000000 0.0000000 0.0000000) to (15.874011 15.874011 15.874011)
  3 by 4 by 4 MPI processor grid
create_atoms 1 box
Created 4000 atoms
  using lattice units in orthogonal box = (0.0000000 0.0000000 0.0000000) to (15.874011 15.874011 15.874011)
  create_atoms CPU = 0.016 seconds
set type 1 type/fraction 2 0.39 78393
Setting atom values ...
  1580 settings made for type/fraction
mass 1 1.0
mass 2 1.0
pair_style lj/cut  3.5
pair_modify tail  yes
pair_coeff 1  1  1.0  1.0   # Intearaction between 1 and 1 set with epsilon = 1 and sigma = 1
pair_coeff 1  2  1.5  0.8
pair_coeff 2  2  0.5  0.88

write_data data.0
System init for write_data ...
Neighbor list info ...
  update every 1 steps, delay 10 steps, check yes
  max neighbors/atom: 2000, page size: 100000
  master list distance cutoff = 3.8
  ghost atom cutoff = 3.8
  binsize = 1.9, bins = 9 9 9
  1 neighbor lists, perpetual/occasional/extra = 1 0 0
  (1) pair lj/cut, perpetual
      attributes: half, newton on
      pair build: half/bin/atomonly/newton
      stencil: half/bin/3d
      bin: standard
WARNING: Not all mixed pair coeffs generated from mixing. Use write_data with 'pair ij' option to store all pair coeffs. (../write_data.cpp:312)


#############################
#   M E L T   S Y S T E M   #
#############################

velocity all create 2.4 2750902 mom yes dist gaussian # Assign velocities
                                                    # Temperature 2.4, random number seed, zero linear momentum
                                                                                # Gaussian distribution

timestep 0.002   # simulation timestep
thermo 1000       # output thermodynamic data every 1000 steps bf 100

# Define a fix  in this case with index 1 applied to all
# particles in the simulation. This fix is for simulations
# in the anisotropic NPT ensemble. Note that we use the MTK
# correction.
fix 1 all npt temp 2.4 2.4 0.1 iso 5.68 5.68 0.5 mtk yes tchain 5 pchain 5 # Use NPT ensemble
                                                                         # Set temperature and pressure and damping
                                                                         # Numbers of thermostats in chain and in barostat
run 10000          # run for 10000 steps
Per MPI rank memory allocation (min/avg/max) = 3.642 | 3.644 | 3.648 Mbytes
Step Temp E_pair E_mol TotEng Press Volume 
       0          2.4   -5.9084669            0   -2.3093669   -4.1681406         4000 
    1000    2.4027869   -5.0137529            0   -1.4104736     5.532093    3926.8344 
    2000    2.3898611   -5.0620946            0   -1.4781991    5.8559688    3874.1223 
    3000     2.446459   -5.0328259            0   -1.3640548    5.7320997    3901.0212 
    4000    2.4431313   -4.9956292            0   -1.3318485    5.8365467    3915.0332 
    5000    2.3556706   -5.0302288            0   -1.4976063    5.4697783    3927.4134 
    6000    2.3793614   -5.0468507            0   -1.4787008     5.549146    3907.4784 
    7000     2.400719   -5.0274478            0   -1.4272695     5.415092    3945.3084 
    8000    2.4324107   -4.9528993            0   -1.3051954     5.545773    3964.8366 
    9000    2.4536541   -5.0206171            0   -1.3410562    5.4294695    3942.2388 
   10000    2.4120933   -5.0424269            0   -1.4251915    5.4751252    3932.2004 
Loop time of 2.49641 on 48 procs for 10000 steps with 4000 atoms

Performance: 692194.183 tau/day, 4005.753 timesteps/s
99.6% CPU use with 48 MPI tasks x no OpenMP threads

MPI task timing breakdown:
Section |  min time  |  avg time  |  max time  |%varavg| %total
---------------------------------------------------------------
Pair    | 1.107      | 1.1681     | 1.2376     |   2.9 | 46.79
Neigh   | 0.20858    | 0.21569    | 0.22674    |   0.8 |  8.64
Comm    | 0.76209    | 0.84514    | 0.92153    |   3.8 | 33.85
Output  | 0.00025612 | 0.00026317 | 0.00041678 |   0.0 |  0.01
Modify  | 0.2186     | 0.25196    | 0.28179    |   3.2 | 10.09
Other   |            | 0.01526    |            |       |  0.61

Nlocal:        83.3333 ave          93 max          75 min
Histogram: 3 8 5 6 2 8 6 2 6 2
Nghost:        1661.35 ave        1691 max        1636 min
Histogram: 1 4 8 11 6 5 5 2 1 5
Neighs:        9702.75 ave       11470 max        8376 min
Histogram: 3 6 5 9 7 9 3 2 2 2

Total # of neighbors = 465732
Ave neighs/atom = 116.43300
Neighbor list builds = 904
Dangerous builds = 203

# Equilibrate just above the melting temperature to avoid step fn in T

fix 1 all npt temp 1.25 1.25 0.1 iso 5.68 5.68 0.5 mtk yes tchain 5 pchain 5
run 2000
Per MPI rank memory allocation (min/avg/max) = 3.643 | 3.645 | 3.649 Mbytes
Step Temp E_pair E_mol TotEng Press Volume 
   10000    2.4120933   -5.0424269            0   -1.4251915    5.4751252    3932.2004 
   11000    1.2418852   -7.0093068            0   -5.1469448    5.4685758    3117.0035 
   12000    1.2713156   -7.0870243            0   -5.1805277    5.6162302    3094.0824 
Loop time of 0.622015 on 48 procs for 2000 steps with 4000 atoms

Performance: 555613.917 tau/day, 3215.358 timesteps/s
99.6% CPU use with 48 MPI tasks x no OpenMP threads

MPI task timing breakdown:
Section |  min time  |  avg time  |  max time  |%varavg| %total
---------------------------------------------------------------
Pair    | 0.2672     | 0.29091    | 0.35274    |   2.6 | 46.77
Neigh   | 0.03815    | 0.041198   | 0.048296   |   0.7 |  6.62
Comm    | 0.17439    | 0.23993    | 0.26275    |   3.1 | 38.57
Output  | 5.1437e-05 | 5.3201e-05 | 6.9424e-05 |   0.0 |  0.01
Modify  | 0.040075   | 0.045062   | 0.049629   |   1.3 |  7.24
Other   |            | 0.004856   |            |       |  0.78

Nlocal:        83.3333 ave          91 max          75 min
Histogram: 2 4 1 6 7 11 6 5 5 1
Nghost:        1949.94 ave        1986 max        1914 min
Histogram: 1 2 1 10 10 12 6 2 1 3
Neighs:        12352.2 ave       13696 max       10731 min
Histogram: 5 0 4 4 8 8 4 5 4 6

Total # of neighbors = 592904
Ave neighs/atom = 148.22600
Neighbor list builds = 142
Dangerous builds = 10

#############################
# L I N E A R  Q U E N C H  #
#############################

# Define solid atoms. This closely follows ten Wolde  Ruiz-Montero and Frenkel  Faraday Discuss  1996  104  93-110
# Compute components of the per-atom q6 vector
compute q6 all orientorder/atom degrees 1 6 components 6 nnn NULL cutoff 1.3 # compute the Q6 parameter.
                                                                             # Use all neighbours within 1.3 unit cell.

# get number of connections
compute coord_number all coord/atom orientorder q6 0.5

# An atom is solid if it has 8 or more connections (of a possible 14)
variable is_solid atom c_coord_number>=8
group solid dynamic all var is_solid    # Must be dynamic to update
dynamic group solid defined

# do clustering
compute cluster solid cluster/atom 1.3 # Create a cluster where all atoms within are solid and max 1.3 units from another member

# define chunks one chunk per cluster
compute clus_chunks solid chunk/atom c_cluster nchunk every compress yes  # Says which atoms are in which chunk

# count the size of each chunk
compute size_chunks solid property/chunk clus_chunks count


# Find the maximum entry in the vector of chunk sizes
variable max_n equal max(c_size_chunks)


# Thermo style which includes this variable
# thermo_style custom step temp pe vol v_max_n

thermo ${N}  # Print the thermo information every 100 steps
thermo 1000  

# Reset the npt fix at a lower temperature (below freezing)
fix 1  all npt temp  ${temp} ${temp}  0.1  iso  5.68  5.68  0.5  mtk yes tchain  5  pchain  5
fix 1  all npt temp  0.45 ${temp}  0.1  iso  5.68  5.68  0.5  mtk yes tchain  5  pchain  5
fix 1  all npt temp  0.45 0.45  0.1  iso  5.68  5.68  0.5  mtk yes tchain  5  pchain  5

dump dmp2 all dcd ${N} traj.dcd
dump dmp2 all dcd 1000 traj.dcd


compute msd all msd com yes
variable twopoint equal c_msd[4]/6/(step*dt+1.0e-6)
fix 9 all vector 10 c_msd[4]
variable fit equal slope(f_9)/6/(10*dt)
thermo_style custom step temp pe c_msd[4] v_twopoint v_fit v_max_n

fix 1 all npt temp 1.25 ${temp} 0.1 iso 5.68 5.68 0.5 mtk yes tchain 5 pchain 5
fix 1 all npt temp 1.25 0.45 0.1 iso 5.68 5.68 0.5 mtk yes tchain 5 pchain 5
run 2000000 # 5000000  # Run for this many steps
Neighbor list info ...
  update every 1 steps, delay 10 steps, check yes
  max neighbors/atom: 2000, page size: 100000
  master list distance cutoff = 3.8
  ghost atom cutoff = 3.8
  binsize = 1.9, bins = 8 8 8
  4 neighbor lists, perpetual/occasional/extra = 1 3 0
  (1) pair lj/cut, perpetual
      attributes: half, newton on
      pair build: half/bin/atomonly/newton
      stencil: half/bin/3d
      bin: standard
  (2) compute orientorder/atom, occasional
      attributes: full, newton on
      pair build: full/bin/atomonly
      stencil: full/bin/3d
      bin: standard
  (3) compute coord/atom, occasional
      attributes: full, newton on
      pair build: full/bin/atomonly
      stencil: full/bin/3d
      bin: standard
  (4) compute cluster/atom, occasional
      attributes: full, newton on
      pair build: full/bin/atomonly
      stencil: full/bin/3d
      bin: standard
Per MPI rank memory allocation (min/avg/max) = 9.823 | 9.829 | 9.836 Mbytes
Step Temp PotEng c_msd[4] v_twopoint v_fit v_max_n 
   12000    1.2713156   -7.0870243 1.828974e-30 1.2701208e-32 8.3333333e+20            1 
   13000     1.275874   -7.0743926   0.47101352 0.0030193173  0.037737445            1 
   14000     1.234753   -7.0748115   0.93779261 0.0055820987  0.038617136            1 
   15000    1.2408618   -7.0974463    1.3882601 0.0077125559  0.038416194            2 
   16000    1.2438876   -7.0855493    1.8469604 0.0096195849  0.037773463            1 
   17000     1.229313   -7.0786863    2.2681814  0.011118536  0.037542778            2 
   18000    1.2447261    -7.103522    2.6631149  0.012329236  0.037236102            1 
   19000      1.24985   -7.1006521    3.1167895  0.013670129  0.036905164            5 
   20000    1.2790316   -7.0751473    3.4907223  0.014544676  0.036472855            1 
   21000    1.2502586   -7.0825207    3.9087091   0.01551075  0.036014219            1 
   22000    1.2610599   -7.0813524    4.2980699  0.016280567   0.03568501            1 
   23000    1.2381133    -7.093633    4.7360837  0.017159723   0.03541295            2 
   24000    1.2092343   -7.1107876    5.1590413  0.017913337  0.035321137            1 
   25000    1.2454829   -7.1094134    5.6481544  0.018827181  0.035349747            1 
   26000    1.1969216   -7.1081775    6.0738603    0.0194675  0.035456157            2 
   27000    1.2125393   -7.1040347    6.5358887  0.020172496  0.035561385            1 
   28000    1.2314189   -7.1073775    7.0232516  0.020902534  0.035731701            1 
   29000    1.2556446   -7.0729113    7.4607457  0.021438924  0.035890728            3 
   30000    1.2532337    -7.089188     7.803975  0.021677708  0.035944015            2 
   31000    1.2250437   -7.0722549    8.3321083   0.02239814  0.035989226            3 
   32000    1.2455831   -7.1320362     8.751677  0.022790825  0.036063264            1 
   33000    1.2452217   -7.0805613    9.1925396  0.023213483  0.036104487            1 
   34000    1.2486024   -7.1194639    9.5892692   0.02350311  0.036139614            1 
   35000    1.2293104   -7.1484697    9.9567163  0.023706467  0.036110136            2 
   36000    1.2576764   -7.0821041    10.423119   0.02412759  0.036058892            1 
   37000    1.2470713   -7.1323617    10.914747  0.024582763  0.036065674            1 
   38000    1.2349188   -7.0984948    11.433278  0.025072978  0.036141041            2 
   39000    1.2720197   -7.0837588    11.869647  0.025362492   0.03621777            1 
   40000    1.2269857   -7.1791778    12.213449  0.025444686    0.0362469            2 
   41000    1.2336024   -7.1343542    12.812457  0.026041579   0.03626275            2 
   42000     1.219416    -7.113427    13.148518   0.02608833  0.036334312            2 
   43000    1.2436223   -7.1077324    13.618183  0.026391828  0.036366236            1 
   44000    1.2418933   -7.0785676     14.20724  0.026907652  0.036429202            2 
   45000    1.2289434   -7.1135216    14.602851  0.027042316    0.0364892            2 
   46000    1.2373598   -7.1154859    14.994625  0.027164175  0.036535648            1 
   47000    1.2485669   -7.1423474    15.423621  0.027346845  0.036568978       -1e+20 
   48000    1.2430833   -7.1520509    15.736088  0.027319598  0.036589374            2 
   49000    1.2284832   -7.1261719    16.202412  0.027555122  0.036571474            2 
   50000    1.2207595   -7.0779987    16.570882  0.027618136  0.036532449            3 
   51000    1.2330296   -7.0953098    17.078397  0.027905878   0.03650288            1 
   52000    1.2120236   -7.1498912    17.481102  0.028014586   0.03648834            1 
   53000    1.2564348   -7.1816147    17.862759  0.028086099  0.036471796            3 
   54000    1.2447205   -7.1063598    18.341019  0.028304042  0.036463753            2 
   55000    1.2207289   -7.1481399    18.968396  0.028739994  0.036488931            1 
   56000    1.2340432   -7.1539979    19.243403  0.028636017  0.036503155            1 
   57000    1.2345343   -7.1315563    19.479211  0.028478379  0.036465313            1 
   58000    1.1993189   -7.1509835    19.638236  0.028215856  0.036385351            1 
   59000    1.2342538   -7.1119384     20.06139  0.028335296  0.036270689            2 
   60000    1.2290603   -7.1304663    20.442132   0.02839185  0.036167645            2 
   61000    1.2282476   -7.1197434    20.742772   0.02833712  0.036069552            1 
   62000    1.2337452   -7.1904672      21.1513  0.028429166  0.035964553            1 
   63000    1.2389735   -7.1366383    21.530612  0.028479645  0.035857175            1 
   64000    1.1964203   -7.1390467    21.999267  0.028644879  0.035767082            2 
   65000    1.2702163   -7.1197401     22.49444  0.028839025  0.035685378            2 
   66000    1.2257064   -7.1370643    22.787894  0.028772593   0.03561491            2 
   67000    1.2160685   -7.1199619    23.208823  0.028866695  0.035535707            2 
   68000    1.2161391   -7.1147796    23.452856  0.028741245   0.03544585            1 
   69000    1.1963312   -7.1014345    23.963194  0.028941056  0.035367711            2 
   70000    1.2210218   -7.1078175    24.417555  0.029068518  0.035315327            2 
   71000    1.2472509   -7.1467495    24.843527  0.029159068  0.035261499            2 
   72000    1.2260721   -7.1651737     25.24177  0.029215012  0.035205072            1 
   73000     1.231308    -7.111524    25.809468  0.029462863  0.035158779            1 
   74000    1.2183116   -7.1550949    26.215982  0.029522502  0.035130955            2 
   75000    1.2376578   -7.1225056    26.568139  0.029520154  0.035100908            1 
   76000    1.2122518   -7.1895795    26.821783   0.02940985  0.035065721            1 
   77000    1.2175028   -7.1668356    27.142595  0.029375103  0.035020497            3 
   78000    1.2095886   -7.1125248    27.658511  0.029549691  0.034967512            1 
   79000    1.2337742   -7.1840131    28.066067  0.029605556  0.034922515            1 
   80000    1.2261284   -7.1052631    28.444024  0.029629191  0.034885845            1 
   81000    1.1998189   -7.1705989    28.674329  0.029500339  0.034836785            1 
   82000    1.2120954   -7.1638586    29.241266  0.029716733  0.034791435            1 
   83000    1.2263321   -7.1609719    29.700233  0.029819511  0.034759495            1 
   84000    1.1849052   -7.1277698    30.165007  0.029925602   0.03473222            1 
   85000    1.2164804   -7.1531818     30.54422  0.029945314  0.034709503            1 
   86000    1.2323809    -7.148575    30.950843  0.029991127  0.034686753            1 
   87000    1.2159062   -7.1390708    31.480603  0.030153834  0.034670603            1 
   88000    1.2099141   -7.1714512    31.750883  0.030067124  0.034655923            1 
   89000    1.2251724   -7.1651121     32.25892  0.030204981  0.034634129            1 
   90000    1.2249753   -7.1135824    32.860577   0.03042646   0.03461757            3 
   91000    1.2171343   -7.2018836    33.074491  0.030287995  0.034611328            2 
   92000    1.1902417    -7.187893    33.472995  0.030319742  0.034609273            2 
   93000    1.2195338   -7.1711457     33.96235  0.030432213  0.034598881            2 
   94000    1.2018343   -7.1636756    34.228572  0.030344478  0.034581945            1 
   95000    1.2212888   -7.1558783    34.782809  0.030511236  0.034568504            1 
   96000    1.2108388   -7.1556324    35.089792  0.030459889  0.034557134            2 
   97000    1.2221839   -7.1448524    35.549823  0.030541085  0.034544383            2 
   98000    1.2277402   -7.1643186    35.851361  0.030485851  0.034530344            1 
   99000    1.2081502   -7.1771506    36.130619  0.030412979   0.03451328            2 
  100000    1.2222108    -7.195578    36.537131  0.030447609  0.034493866            1 
  101000    1.2089717   -7.1939593    36.842112  0.030397782  0.034469307            2 
  102000    1.2118397   -7.1493804    37.302731  0.030476087   0.03444168            1 
  103000    1.2381526   -7.1951583    37.515474  0.030352325  0.034415715            2 
  104000    1.1961661   -7.0846433    37.939181  0.030399984  0.034383413            2 
  105000    1.1839429    -7.190576    38.485732  0.030544232  0.034357916            2 
  106000    1.1949044   -7.1819349    38.928869  0.030604456  0.034338044            1 
  107000    1.2243463   -7.1726792    39.097385  0.030449676  0.034311415            3 
  108000    1.1889453   -7.1897924     39.61603  0.030567924  0.034289738            2 
  109000    1.1950073   -7.1748475    40.003396  0.030583636  0.034264027            1 
  110000     1.214527    -7.186939    40.249322  0.030491911  0.034235542            2 
  111000    1.2264209   -7.1903043     40.82852  0.030652042  0.034209907            1 
  112000    1.2171164   -7.1791988    41.099865  0.030580257  0.034190344            1 
  113000    1.2311065   -7.1620206     41.50535  0.030608665  0.034168313            1 
  114000    1.2036553   -7.2075687    41.771517  0.030534734  0.034142197            1 
  115000    1.2201281   -7.1799994    42.053739  0.030473724  0.034112408            1 
  116000    1.2090703   -7.1986504    42.265402  0.030363076  0.034077277            2 
  117000    1.2153162   -7.1492001    42.834464  0.030508878  0.034037213            2 
  118000     1.181931   -7.1415854    43.279311  0.030564485  0.034004206            4 
  119000     1.181774   -7.2271023    43.458194  0.030432909  0.033972835            2 
  120000    1.2105441    -7.169849    44.077194  0.030609162  0.033946428            1 
  121000    1.1994009   -7.1976483    44.487678  0.030638897  0.033921097            1 
  122000    1.1872749    -7.199026    44.908443  0.030675166   0.03389819            1 
  123000    1.2070122   -7.1955262     45.26006  0.030663997  0.033873829            4 
  124000    1.2166359    -7.142736    45.720027  0.030725825  0.033849135            4 
  125000    1.2075555   -7.1764369     45.77456  0.030516373  0.033822201            1 
  126000    1.1997071   -7.1944556    46.254039  0.030591295  0.033795178            2 
  127000    1.2246214   -7.2123797    46.805741  0.030712428  0.033771274            1 
  128000    1.1953852   -7.2327478    47.182399  0.030717708  0.033744334            2 
  129000     1.176409   -7.2258242     47.64513  0.030778508  0.033725334            1 
  130000    1.2089076   -7.1598694    47.898726  0.030704311   0.03370323            1 
  131000    1.2179039    -7.249043    48.207259  0.030666195  0.033681697            1 
  132000    1.2200144   -7.1798579    48.917732  0.030882407  0.033663079            2 
  133000     1.191945   -7.1888769     49.28474  0.030880163  0.033646255            6 
  134000    1.1993355   -7.1878489    49.809984  0.030976358  0.033634248            1 
  135000    1.2190186   -7.1848995    50.186585  0.030979373  0.033625619            5 
  136000     1.186023   -7.1967483    50.461965  0.030920321  0.033614017            1 
  137000    1.1919426   -7.2101642    50.794656  0.030896993  0.033601866            1 
  138000    1.1968647   -7.1856852    51.161986  0.030894919  0.033589152            1 
  139000    1.2175481   -7.1876325    51.762563  0.031032711  0.033576684            2 
  140000    1.1915263   -7.2446654    52.336295  0.031152556  0.033568371            2 
  141000    1.1834001   -7.2101464    52.592218  0.031082871  0.033564773            1 
  142000    1.2043586    -7.248439    52.855359  0.031018403   0.03355844            4 
  143000    1.1960913   -7.1859671    53.744792  0.031319809  0.033552884            1 
  144000    1.1829108   -7.2110199    53.843127  0.031159217  0.033548275            2 
  145000    1.2260344   -7.1819695     54.24923  0.031177718  0.033540772            1 
  146000    1.1941076   -7.2340929    54.605389   0.03116746  0.033535382            1 
  147000    1.1970174   -7.1907029    55.269836  0.031332106  0.033533203            2 
  148000    1.2382092   -7.2114409    55.393072  0.031189793  0.033528612            2 
  149000    1.1905016   -7.2431558    55.814592  0.031216214  0.033523579            5 
  150000    1.1794261   -7.1907617    55.922508   0.03106806   0.03351696            1 
  151000    1.1998759   -7.2643966    56.271055  0.031054666  0.033507591            1 
  152000    1.2068548   -7.1893352    57.055205  0.031280266   0.03349901            2 
  153000    1.2003997   -7.1631958     57.11457  0.031108153  0.033489109            1 
  154000    1.1674466   -7.2036778    57.259698  0.030984685  0.033472744            3 
  155000    1.1786498    -7.204753     57.88025  0.031118414  0.033455715            1 
  156000    1.2142955   -7.2084444    58.211356   0.03109581  0.033441657            1 
  157000    1.1888891   -7.2008305    58.404122  0.031000065   0.03342588            1 
  158000     1.202503   -7.2426699    58.669589  0.030943876   0.03340998            2 
  159000    1.1879331   -7.1987828    59.089266  0.030969217   0.03338993            1 
  160000    1.2154318   -7.2413051    59.202703  0.030834741  0.033369591            1 
  161000     1.180648   -7.2523391    59.686914  0.030893848  0.033349099            2 
  162000    1.1733907   -7.2234159    60.052406  0.030891155  0.033326848            1 
  163000    1.1829081   -7.2083891    60.335744  0.030846495  0.033307021            1 
  164000    1.1731596   -7.2303639    60.405742  0.030693974  0.033280451            2 
  165000    1.1764127   -7.2201651    61.000539  0.030808353  0.033256107            2 
  166000     1.183207   -7.2603315    61.578927  0.030913116  0.033235403            1 
  167000    1.1958733   -7.2080671    61.997214  0.030936734  0.033215252            1 
  168000    1.1824381   -7.1727591    62.480511  0.030992317  0.033195215            2 
  169000     1.143652   -7.2582445    62.650353  0.030892679  0.033174809            1 
  170000    1.1936889   -7.2250416     63.01074  0.030887617  0.033154933            2 
  171000    1.1936485   -7.2256689    63.639346  0.031013326   0.03313513            1 
  172000    1.1859709   -7.1998443    63.687737  0.030856462  0.033118255            1 
  173000      1.15602    -7.243626    64.071588     0.030863  0.033096616            1 
  174000    1.2074547   -7.2364132    64.386291  0.030836346  0.033074133            1 
  175000    1.1837039   -7.2527213    64.806279  0.030860133  0.033054049            1 
  176000    1.1837909   -7.2049146    65.144618  0.030844989   0.03303414            3 
  177000    1.1826455   -7.2342152    65.234041  0.030712825  0.033011513            3 
  178000    1.1871222   -7.1722372    66.024437  0.030910317  0.032991551            1 
  179000    1.1687931   -7.2381263    66.389852  0.030907752  0.032972997            2 
  180000    1.1807937   -7.2597164    66.519516  0.030796072  0.032953541            2 
  181000     1.218468   -7.2615895    66.764022    0.0307385  0.032934711            1 
  182000    1.1935562   -7.2284799    67.405063  0.030863124  0.032914937            1 
  183000    1.1860789   -7.2419434    67.581272  0.030774714  0.032895713            2 
  184000    1.1597376   -7.2189451    67.801745  0.030707312  0.032874412            1 
  185000    1.1742735    -7.231051    68.494845  0.030853534  0.032852768            1 
  186000     1.199484   -7.2644782    68.883623  0.030861838  0.032832285            1 
  187000    1.1955866   -7.2957867    69.033902  0.030763771  0.032814638            3 
  188000    1.1787298   -7.1927094    69.684543  0.030888538  0.032796996            2 
  189000    1.1724957   -7.2687476    69.840628  0.030793927  0.032779889            4 
  190000    1.1728748     -7.24176    70.234616  0.030804656  0.032761028            1 
  191000    1.1498113   -7.2549316    70.334276  0.030686857  0.032741022            2 
  192000     1.218557   -7.2262895    70.621244  0.030651582  0.032720594            3 
  193000    1.1765316   -7.2801964    71.040944  0.030673983  0.032700108            2 
  194000    1.1692442   -7.2783149    71.835584  0.030857209  0.032684213            3 
  195000    1.1730942   -7.2916035    72.250316  0.030876203  0.032670705            5 
  196000    1.2043297   -7.2650173    72.655332  0.030890872  0.032656185            5 
  197000    1.1924138   -7.2620777    73.307446  0.031009918  0.032644728            2 
  198000    1.1717985   -7.2148646    73.425727  0.030903084   0.03263291            1 
  199000    1.1600232   -7.2778195    73.570433  0.030808389  0.032617437            1 
  200000    1.1769803   -7.2001349    74.053612  0.030855672   0.03260113            1 
  201000    1.1761012   -7.2677775    74.002302  0.030680888  0.032584687            2 
  202000    1.1770856   -7.2594527    74.639223  0.030791759  0.032568561            3 
  203000    1.1812567   -7.2643372    75.021417  0.030796969  0.032552098            2 
  204000     1.166318   -7.3017405    75.354973   0.03078226   0.03253661            2 
  205000    1.1797263   -7.2256214    75.453054  0.030671973  0.032518049            2 
  206000    1.1659857   -7.2231851    76.198326  0.030824565  0.032500263            2 
  207000    1.1773987   -7.2234167    76.367451   0.03074374  0.032483056            2 
  208000    1.1528945   -7.2488966    76.398155  0.030608235  0.032465217            1 
  209000    1.1539353   -7.2719562    77.033322  0.030715041  0.032446077            1 
  210000    1.1527104    -7.277272    77.204375  0.030636657  0.032428314            2 
  211000    1.1755434    -7.298572    77.371203  0.030557347  0.032409167            1 
  212000    1.1751327   -7.3019493    77.654537  0.030524582  0.032389048            2 
  213000    1.1731209   -7.2663664    77.627693  0.030370772  0.032365944            1 
  214000    1.1865178    -7.235981    78.268831  0.030478516  0.032342762            1 
  215000    1.1977675   -7.2307897    78.369641   0.03037583  0.032319616            3 
  216000    1.1654498   -7.3037241    78.599382  0.030323836  0.032295169            1 
  217000    1.1415128   -7.2654655    78.949871  0.030318691  0.032270791            2 
  218000    1.1585122   -7.2829671    79.311848  0.030317985  0.032248309            1 
  219000    1.1482152   -7.2819221    79.705712  0.030329419  0.032221728            2 
  220000    1.1457519   -7.2707735    79.968554  0.030291119  0.032196168            1 
  221000    1.1640766    -7.285439    80.434079  0.030329592  0.032170186            4 
  222000    1.1403179   -7.2838572    80.800209  0.030330409  0.032145934            1 
  223000      1.19116   -7.2468905    80.995106  0.030267229  0.032122402            3 
  224000    1.1649531   -7.2816925    80.992018  0.030130959   0.03209703            2 
  225000     1.156764   -7.2476247     81.38975  0.030144352   0.03206938            1 
  226000    1.1639808   -7.2517617     81.76809  0.030150476   0.03204242            1 
  227000    1.1712557   -7.3054778    81.747763  0.030010192  0.032014041            2 
  228000    1.1603166   -7.3263759     82.11088  0.030011286  0.031985804            2 
  229000    1.1384909   -7.3101412    82.452017  0.030004373  0.031957059            5 
  230000    1.1721718   -7.3059298    82.680968  0.029956872  0.031926623            2 
  231000    1.1654063   -7.2918165    83.048864  0.029959908  0.031896044            1 
  232000    1.1512672   -7.2775438    83.239388  0.029899205  0.031865273            1 
  233000    1.1763439   -7.2857698    83.651208  0.029918172  0.031835192            1 
  234000    1.1661064   -7.3259236    83.803272   0.02984447  0.031806227            1 
  235000    1.1796926   -7.2817212     84.40472  0.029930752  0.031776489            2 
  236000    1.1533242   -7.2884735    84.855906  0.029963243  0.031748484            2 
  237000    1.1693187   -7.3039943    85.051164  0.029905473  0.031720378            1 
  238000    1.1093238   -7.3100566    85.362885  0.029888965  0.031693135            2 
  239000    1.1751917   -7.2975433    85.639075  0.029860208  0.031666573            3 
  240000    1.1642621   -7.2950236    86.209809  0.029933961  0.031639971            2 
  241000    1.1426228   -7.2933372    86.401626  0.029876081  0.031613716            3 
  242000    1.1464594   -7.3022387    86.371991  0.029742421  0.031586157            1 
  243000    1.1499339   -7.3284265    86.880085  0.029794268  0.031558667            3 
  244000       1.1289   -7.3061732    87.328149  0.029825187  0.031532499            2 
  245000    1.1272117   -7.3443688    87.360993  0.029714623  0.031506345            2 
  246000     1.174136   -7.2998405    88.193538   0.02987586  0.031481471            2 
  247000    1.1403548   -7.2847321    88.738774  0.029938857  0.031459847            1 
  248000    1.1637823   -7.2851441    88.975906  0.029897818  0.031437354            2 
  249000    1.1660703   -7.3291999    88.939087  0.029765424  0.031412284            1 
  250000    1.1540098   -7.3300465    89.331665  0.029777221  0.031386138            1 
  251000    1.1720914   -7.2965545    89.825714  0.029822614  0.031361807            1 
  252000    1.1550506   -7.3346092    89.779755  0.029689072  0.031338623            2 
  253000    1.1351388   -7.3192061    90.119416  0.029683602  0.031314172            1 
  254000    1.1381599    -7.339754    90.945197  0.029837663  0.031290329            1 
  255000    1.1356146   -7.3275596    91.229768   0.02981365  0.031268252            3 
  256000    1.1568066   -7.3415985    91.821525  0.029889819   0.03124871            3 
  257000    1.1635076   -7.3255044    91.935756  0.029810556  0.031229627            2 
  258000    1.1615609   -7.3152146    91.875451  0.029675533  0.031207504            1 
  259000    1.1262001    -7.315565    92.461047  0.029749372  0.031184249            2 
  260000    1.1431914   -7.3457023    92.744429  0.029725778  0.031162739            2 
  261000    1.1465535   -7.2899627    93.165903  0.029746457  0.031141086            3 
  262000    1.1433714   -7.3002213    93.886777  0.029862206  0.031121177            1 
  263000    1.1406474    -7.335499    94.043969  0.029798469  0.031102297            1 
  264000    1.1519039   -7.3325173    94.654642  0.029878359   0.03108298            2 
  265000    1.1559446   -7.3458799    95.002842  0.029875108  0.031065188            1 
  266000    1.1511329   -7.3227278    95.577676  0.029942881  0.031049282            2 
  267000    1.1544277   -7.3159097    96.035286   0.02997356  0.031034695            1 
  268000    1.1427435   -7.3205905     96.44584  0.029989378  0.031022152            3 
  269000    1.1553878   -7.3526977    96.795129  0.029986099  0.031007652            2 
  270000    1.1588182   -7.3538113    96.811146  0.029879983   0.03099299            2 
  271000    1.1606152    -7.338848    97.494242  0.029979779  0.030978872            3 
  272000    1.1548145   -7.3099219    97.520815  0.029877701  0.030965411            3 
  273000    1.1620183    -7.297655    97.981798  0.029908974  0.030951607            3 
  274000    1.1528136   -7.3380462    97.947386  0.029789351  0.030937194            2 
  275000    1.1385774   -7.3374447    98.652553  0.029894713  0.030921822            2 
  276000    1.1494711   -7.3362647    98.588761  0.029767138  0.030906387            2 
  277000    1.1368268   -7.3377727    98.924549  0.029760695  0.030891155            3 
  278000    1.1740066   -7.2655376    99.587303  0.029852309  0.030875932            2 
  279000    1.1534097   -7.2912578    99.983473  0.029863642  0.030861158            4 
  280000    1.1446298   -7.3785192    99.677275  0.029665856  0.030845055            2 
  281000    1.1652765   -7.3263004    100.66022  0.029851785  0.030828723            1 
  282000    1.1172142   -7.3371968    100.99093  0.029843657  0.030814617            2 
  283000    1.1405639   -7.3385394    101.17171  0.029791435  0.030800406            3 
  284000    1.1587547   -7.3649023    101.46014  0.029771167   0.03078558            1 
  285000    1.1532763   -7.3088815    101.54912  0.029692725  0.030770513            1 
  286000    1.1590684   -7.2908922     102.3826  0.029831758  0.030755933            1 
  287000    1.1718353   -7.2893338    102.43103  0.029741877  0.030740345            5 
  288000    1.1571353   -7.3336773    102.54949  0.029672886  0.030724479            2 
  289000    1.1510015   -7.3622647    103.01585  0.029704685  0.030708804            2 
  290000    1.1405733   -7.3582745    103.21601  0.029659772  0.030694266            2 
  291000     1.172976   -7.3882947    103.09271   0.02952254  0.030678821            7 
  292000    1.1303805    -7.319816    103.88594  0.029647813  0.030663145            1 
  293000    1.1374046   -7.3605592    104.19761   0.02963527  0.030647364            1 
  294000    1.1408297   -7.3462012    104.84386  0.029717647  0.030631857            5 
  295000    1.1492913   -7.3885938    104.82689  0.029612116  0.030618111            1 
  296000    1.1587499   -7.3718286    104.94931  0.029546541  0.030602981            1 
  297000    1.1306446   -7.3396313    105.73989  0.029668881  0.030588512            3 
  298000    1.1283419   -7.3538923    106.27102  0.029717848  0.030576423            1 
  299000    1.1291294   -7.3768325    106.47058  0.029674075  0.030562826            1 
  300000    1.1488229   -7.3761592    106.31939  0.029533164  0.030549243            2 
  301000    1.1246271   -7.3600663    106.92599  0.029602986  0.030534339            4 
  302000    1.1448019   -7.3778772    107.02471  0.029532206  0.030518881            1 
  303000    1.1324663   -7.3930123    107.42171  0.029543925  0.030503893            2 
  304000    1.1291798   -7.3954914    107.80937  0.029553006  0.030489693            2 
  305000    1.1182205   -7.3390523     108.2498  0.029576447   0.03047662            1 
  306000    1.1329607   -7.3718146     108.6617  0.029591965  0.030463138            1 
  307000    1.1669652   -7.3838494    108.61507  0.029482918  0.030449714            2 
  308000    1.1110276   -7.3654189    109.27941  0.029566941     0.030435            1 
  309000    1.1216997   -7.3308573     109.6465  0.029570254  0.030419809            4 
  310000     1.119632   -7.3901791    109.70919  0.029491718  0.030404738            2 
  311000    1.1134508   -7.4120447    109.44913  0.029327206  0.030389561            2 
  312000    1.1363151   -7.3267556    110.28175  0.029455596  0.030374826            2 
  313000    1.1319811   -7.3419172    111.08958  0.029576565  0.030360861            1 
  314000    1.1432841   -7.3803716    110.89695  0.029431251  0.030347219            1 
  315000     1.129506   -7.3539852    111.55826  0.029512767  0.030333242            2 
  316000    1.1167357    -7.326213    111.79048  0.029480612  0.030319766            1 
  317000     1.140788   -7.3757297    111.76198  0.029380121  0.030304665            2 
  318000    1.1195329   -7.3747249    112.47076  0.029473469  0.030290651            1 
  319000    1.1098119   -7.3506624    112.71425  0.029444683  0.030276002            2 
  320000    1.1124759   -7.3386454    113.41101  0.029534118  0.030262167            2 
  321000      1.14997   -7.3516663     113.2454  0.029399116  0.030248719            1 
  322000    1.1445763   -7.3622252    113.73224  0.029433809  0.030235145            1 
  323000     1.109702   -7.4149441     113.7065  0.029336043  0.030221684            3 
  324000    1.1365867   -7.4028304    114.17586  0.029366218  0.030208778            4 
  325000    1.1124831   -7.3568298    114.91765  0.029466064  0.030195315            5 
  326000    1.1202211   -7.3257097     115.5083  0.029526662  0.030183269       -1e+20 
  327000    1.1212831   -7.3885506    115.49335  0.029432555  0.030171206            2 
  328000    1.1329997   -7.3822373     116.0419   0.02948219  0.030160411            2 
  329000    1.1157705   -7.4171469    116.02781   0.02938901  0.030149076            3 
  330000    1.1455544   -7.3916238    116.76047  0.029484966  0.030137814            2 
  331000    1.1353572   -7.3663786    116.76392  0.029396757  0.030126354            2 
  332000     1.117784   -7.3583533    117.74852  0.029555351  0.030115103            3 
  333000    1.1255808   -7.3784083    117.79636  0.029478569  0.030104736            1 
  334000    1.1325367   -7.4284433    117.70438  0.029367361  0.030093615            2 
  335000    1.1429138   -7.4065873    118.01031  0.029355799  0.030081549            1 
  336000     1.108426   -7.3910479    118.36931  0.029357468  0.030068739            2 
  337000     1.105153   -7.3771946    119.01223  0.029429334   0.03005702            2 
  338000    1.1168277   -7.4050134    119.10437  0.029364983  0.030045323            1 
  339000    1.1261446   -7.3865723    119.24032  0.029311781  0.030033712            1 
  340000     1.104158    -7.346242    119.82874  0.029369789  0.030022016            1 
  341000    1.1126481   -7.3678525    120.09913  0.029349738    0.0300103            1 
  342000    1.1073669    -7.389708    120.16965  0.029281103  0.029999017            1 
  343000    1.1179827   -7.3967519    120.69488  0.029323343   0.02998719            2 
  344000    1.1267163   -7.3165776    120.89646  0.029286934   0.02997473            1 
  345000    1.1487652   -7.4055726    121.06058  0.029241686  0.029962057            2 
  346000    1.1138955   -7.3617033    121.46657  0.029254954  0.029948535            2 
  347000     1.124282   -7.4268807    121.37788  0.029149347  0.029935019            3 
  348000    1.1042363   -7.4213341    121.35761   0.02906073  0.029921002            1 
  349000    1.1119167   -7.4298175    122.19159  0.029176598  0.029907318            2 
  350000    1.0954893   -7.4245367    121.92657  0.029030135  0.029892426            4 
  351000      1.11144   -7.4185565    122.15009  0.029000495  0.029877862            2 
  352000     1.125498    -7.383251     122.9355  0.029104048  0.029863422            1 
  353000    1.0834381   -7.3763557    122.94378  0.029023555  0.029848714            2 
  354000    1.1016582   -7.4264102    123.08714  0.028975316  0.029833977            1 
  355000     1.116434   -7.4310204    122.97325  0.028866961  0.029818227            1 
  356000    1.1222539   -7.4369441    123.40786  0.028887607  0.029802233            2 
  357000    1.0831619    -7.411888    123.69487  0.028873686  0.029785082            3 
  358000    1.1348533   -7.4187067    124.14989   0.02889895   0.02976814            1 
  359000    1.0988627   -7.3880306    124.20623  0.028831529  0.029751301            2 
  360000    1.1061297   -7.4067599    124.39435  0.028794989  0.029734477            1 
  361000    1.1113903   -7.4162401    124.31414  0.028696708  0.029716868            2 
  362000    1.0894976   -7.3521443    124.88863  0.028749684    0.0296988            2 
  363000      1.11645   -7.4282358    125.29547  0.028763882  0.029681607            1 
  364000     1.100691   -7.4370453    124.93739  0.028602881  0.029663004            2 
  365000    1.0890317   -7.4274861    125.48348  0.028649197  0.029643698            1 
  366000    1.1183593    -7.437619    125.55714  0.028587692  0.029624003            1 
  367000    1.1483966   -7.3783939    126.02379  0.028615755  0.029604326            4 
  368000    1.0840978   -7.4514227    125.81995  0.028491837  0.029584512            1 
  369000    1.1191904   -7.4344444    126.47598  0.028562778  0.029564097            2 
  370000    1.0822815   -7.4154106    126.49351  0.028489528  0.029544229            1 
  371000    1.0966868   -7.4742052     126.6649  0.028451234  0.029524413       -1e+20 
  372000    1.0990235   -7.3852922    127.53974   0.02857073  0.029504908            1 
  373000    1.1109128   -7.4324306    127.70044  0.028530035  0.029486273            3 
  374000    1.0984062   -7.4181024     127.9072  0.028499822  0.029466729            1 
  375000    1.1017447   -7.4488732    127.60959  0.028357688  0.029446208            2 
  376000    1.1163334   -7.4292555    128.12698  0.028396936   0.02942638            1 
  377000    1.1161218   -7.4367999    128.32626  0.028365663  0.029406148            3 
  378000    1.1035234   -7.4616251    128.78732  0.028392267  0.029386828            5 
  379000    1.0881939   -7.4321177    129.69124  0.028516103  0.029368116            2 
  380000    1.0814388   -7.4229834    129.87646   0.02848168  0.029350058            4 
  381000    1.0983604   -7.3960002    130.27116  0.028493254  0.029331806            1 
  382000    1.1003805   -7.4225179     130.6411  0.028499368  0.029313704            2 
  383000    1.0810022   -7.4022473    130.50358  0.028395036  0.029296334            3 
  384000    1.0795314   -7.4078027    130.75528  0.028375712  0.029278179            1 
  385000     1.094335   -7.4368241    131.02807  0.028361054  0.029259917            1 
  386000    1.1017235   -7.4700811    131.55434  0.028401196  0.029241052            3 
  387000    1.0885017   -7.4167484    131.47814  0.028311399  0.029222221            2 
  388000    1.1340977   -7.4293798    132.09546  0.028371018  0.029203884            1 
  389000    1.1024118   -7.4109819    132.25028  0.028331251   0.02918567            2 
  390000    1.0827075   -7.4250498    132.39524  0.028289581  0.029167713            1 
  391000    1.0924572   -7.3926536     132.6566  0.028272932  0.029150113            1 
  392000    1.0957367   -7.4255841    133.39253  0.028357256  0.029132126            2 
  393000    1.0847438   -7.4881982    132.97512   0.02819659  0.029114216            2 
  394000    1.1039875   -7.4572101    133.21657  0.028176093  0.029095409            1 
  395000     1.083123   -7.4784574    133.29768  0.028121873   0.02907663            2 
  396000    1.0924236   -7.4344447    134.19793  0.028240305  0.029057847            5 
  397000    1.1068557   -7.4219127    134.31274   0.02819327  0.029040166            1 
  398000    1.0909126   -7.3972276    134.69412  0.028202287  0.029022522            1 
  399000    1.1000633   -7.4660099    135.14534  0.028225844  0.029005366            1 
  400000    1.0857685   -7.4863953    135.50011  0.028229189  0.028988422            1 
  401000    1.1127234   -7.4594748    135.14126  0.028084218   0.02897053            1 
  402000     1.100046   -7.4298388    135.54207  0.028097445  0.028952589            2 
  403000    1.1144315   -7.4568033    136.14585  0.028152575  0.028934756            1 
  404000    1.0983188   -7.4813614    136.52185  0.028160448  0.028917034            4 
  405000    1.0826966   -7.4500665    136.37348  0.028060386   0.02889943            2 
  406000    1.0896762   -7.4460353    136.95827  0.028111303  0.028882092            4 
  407000    1.0792578   -7.4701296    137.14483  0.028080432  0.028864571            1 
  408000    1.0734724   -7.4622926    137.35181  0.028053884  0.028847806            1 
  409000    1.1157944   -7.4914434    137.91984  0.028101027  0.028830463            1 
  410000    1.0998313   -7.4022115    138.13277  0.028075766  0.028814184            1 
  411000    1.0822843   -7.4880035    137.96471   0.02797338  0.028796639            1 
  412000    1.1009014   -7.4578957    138.62717  0.028039476  0.028779541            2 
  413000    1.1001373   -7.4686378    138.48642  0.027943184  0.028762476            2 
  414000    1.0853166   -7.4769661    139.32704  0.028044896  0.028745794            2 
  415000    1.1098164   -7.4619784    139.44028  0.028000057  0.028728966            1 
  416000    1.1017358   -7.4335188     139.7004  0.027984856  0.028712268            1 
  417000    1.0898951   -7.4765406    140.12687  0.028002971  0.028695524            8 
  418000    1.0838453   -7.4439543    140.26905  0.027964325  0.028678627            2 
  419000    1.0856932   -7.4457774    140.89066  0.028021214  0.028663002            1 
  420000    1.0887726   -7.5065788    141.11248  0.027998508  0.028647077            2 
  421000    1.1057738   -7.4567993    141.11984  0.027933459  0.028631437            2 
  422000    1.0905133   -7.4890946    141.18769  0.027880666  0.028615373            3 
  423000    1.0763149   -7.4675924    141.61547   0.02789903  0.028598722            1 
  424000    1.0766529   -7.4544892    141.75973  0.027861583  0.028582728            2 
  425000    1.0935745   -7.4793919    142.44569  0.027930527  0.028566344            2 
  426000    1.0638365    -7.497653    142.15403   0.02780791  0.028550114            1 
  427000    1.0967353   -7.4919294    142.88242  0.027884938  0.028533576            1 
  428000    1.0925977   -7.4670968    143.14598  0.027871103  0.028516981            2 
  429000    1.0783685   -7.4920935    143.33675  0.027843191  0.028500885            3 
  430000    1.0820226    -7.481809    143.68775  0.027846463  0.028484805            2 
  431000    1.0708086   -7.4253587     144.0201  0.027846114   0.02846852            2 
  432000    1.0773778   -7.5049187    143.72037  0.027723837  0.028451919            1 
  433000     1.093902   -7.4925452    143.44235  0.027606304  0.028434818            1 
  434000    1.0568446   -7.4967824    144.60827  0.027766566   0.02841659            2 
  435000    1.0766685   -7.5257395    144.21301  0.027627014  0.028398466            3 
  436000    1.0801431   -7.4635701    144.79796  0.027675452  0.028380051            2 
  437000      1.07108   -7.4739165    144.33033  0.027522945  0.028361993            1 
  438000    1.0673624   -7.4919277    144.44309  0.027481562  0.028343699            2 
  439000    1.0722821   -7.4808701    145.62503  0.027643323  0.028325723            1 
  440000    1.0904161   -7.4233971    145.80611  0.027614793  0.028308998            1 
  441000    1.0809665   -7.4387371    146.18708  0.027624166  0.028291511            5 
  442000    1.0841863   -7.4930177    146.24617  0.027572807  0.028273709            2 
  443000    1.0821057   -7.4912272    146.46088  0.027550956  0.028256146            2 
  444000     1.057074   -7.4507458    146.99257  0.027588696    0.0282384            2 
  445000    1.0848128   -7.4391703    147.03415  0.027534484  0.028220542            2 
  446000    1.0974824   -7.4984408    147.22903  0.027509161  0.028203455            2 
  447000    1.0703271   -7.4627865    147.58449  0.027513888  0.028185531            1 
  448000     1.075771   -7.4972338    147.23637  0.027387717  0.028167935            2 
  449000    1.0742763   -7.4998494    147.81795  0.027434661  0.028150504            1 
  450000    1.0967261   -7.5024743     148.3259  0.027467759  0.028133143            1 
  451000    1.1123376   -7.5009802    148.47085  0.027433638  0.028116096            3 
  452000    1.0776047   -7.5602313    148.52948  0.027383754  0.028099126            2 
  453000     1.051039   -7.5129397     149.2057    0.0274477  0.028082216            2 
  454000    1.0825738   -7.4946145    149.44879  0.027431863  0.028066052            1 
  455000     1.059236   -7.5133929    149.41917  0.027366148  0.028049777            2 
  456000    1.0444335   -7.5084212    149.69593  0.027356713  0.028032335            2 
  457000    1.0749278   -7.5093488    150.13296  0.027376542  0.028014877            2 
  458000    1.0693836   -7.5012843    149.94358  0.027282312  0.027996851            2 
  459000    1.0788781   -7.5195587    150.71021  0.027362056  0.027979146            2 
  460000    1.0742742    -7.520291    150.83644  0.027325443  0.027962356            2 
  461000    1.0628733   -7.4818318    151.41647  0.027371018  0.027945464            1 
  462000    1.0911369   -7.5227844    151.06895  0.027249089  0.027929012            1 
  463000    1.0643735   -7.5277368    151.05834  0.027188327  0.027912083            3 
  464000    1.0443172   -7.5529896     151.5426  0.027216702  0.027895103            3 
  465000    1.0639731   -7.5395542    152.33161  0.027299571  0.027878694            1 
  466000    1.0806937   -7.4898896    152.46873   0.02726551  0.027862559            2 
  467000     1.069075   -7.5223326    152.78391  0.027263368  0.027846076            2 
  468000    1.0812687   -7.5441622    152.87362  0.027221085  0.027829475            5 
  469000    1.0707031    -7.522208    153.34532  0.027246858  0.027813232            1 
  470000    1.0761884   -7.5340273    153.34523  0.027188871  0.027796916            1 
  471000    1.0626498   -7.4568281    154.23242  0.027288114  0.027780188            2 
  472000    1.0989406   -7.5063747    153.69046  0.027134615  0.027763611            3 
  473000    1.0769704   -7.5000302    154.06767  0.027143705  0.027746517            2 
  474000    1.0561311   -7.4952674    154.68714  0.027195348  0.027729391            1 
  475000    1.0460522   -7.5027949    154.18651  0.027050265  0.027711846            6 
  476000    1.0484659   -7.4830605    154.70456  0.027084132  0.027694356            2 
  477000     1.072716   -7.5510863    154.07626  0.026917585  0.027676501            2 
  478000    1.0725991   -7.5157232    154.50271   0.02693562  0.027658552            2 
  479000    1.0605861   -7.5106837    155.36478  0.027029363   0.02764062            3 
  480000    1.0451828   -7.5470526     154.9564  0.026902153  0.027622528            2 
  481000    1.0479978    -7.566322     155.0903  0.026869421  0.027603887            2 
  482000    1.0640407    -7.523761    155.78535  0.026933843  0.027585569            2 
  483000    1.0626489    -7.530916    155.93571  0.026904021  0.027567789            1 
  484000    1.0668254   -7.5251715     156.1927  0.026892683  0.027550414            2 
  485000    1.0677881    -7.518898    156.21052  0.026840296    0.0275325            2 
  486000    1.0416852   -7.5419181    156.58115  0.026848619  0.027514982            1 
  487000    1.0913316   -7.5460634    156.51078  0.026781448  0.027497126            1 
  488000     1.074326   -7.5387076     156.6352  0.026747814  0.027479063            3 
  489000      1.06559    -7.537497    157.52108  0.026844084  0.027460905            2 
  490000    1.0548366   -7.5540677    157.29659  0.026751121  0.027442375            1 
  491000    1.0454826   -7.5315042    157.51041  0.026732928   0.02742404            2 
  492000    1.0743992   -7.5238092    157.81816  0.026730717  0.027405532            1 
  493000    1.0715231   -7.5162427     157.9348  0.026696213  0.027386547            1 
  494000    1.0805963   -7.5371347    158.20828  0.026688307  0.027368046            2 
  495000    1.0519157   -7.5026862    158.24194  0.026640057  0.027349486            2 
  496000    1.0745869   -7.5292673    159.00199  0.026714044   0.02733128            1 
  497000    1.0231222   -7.4799907    159.12008  0.026680094  0.027313298            2 
  498000    1.0434247   -7.5606024    159.13821  0.026629553  0.027295177            2 
  499000    1.0539362   -7.5662849     158.8273  0.026524265  0.027276983            1 
  500000    1.0865244   -7.5463955    158.96757  0.026494596  0.027257901            1 
  501000    1.0670545   -7.5692277     159.7253  0.026567748  0.027239544            1 
  502000    1.0831025    -7.586728    159.77637  0.026523302  0.027221112            1 
  503000    1.0718013   -7.5379509    159.43456  0.026413943  0.027202218            1 
  504000    1.0616699   -7.5176536    159.99166  0.026453648  0.027183352            1 
  505000    1.0758257    -7.549813    159.76046  0.026363113  0.027164035            1 
  506000     1.061469   -7.5226995     160.4603  0.026426268  0.027144497            1 
  507000    1.0499394   -7.5617142    160.53364  0.026386201    0.0271256            1 
  508000    1.0598446   -7.5536821    160.68732  0.026359468  0.027106808            1 
  509000    1.0555029   -7.5752712    161.19696  0.026391119  0.027087637            3 
  510000    1.0482948   -7.5851348    161.10192  0.026323843  0.027068543            2 
  511000    1.0428491   -7.5613718    161.29432  0.026303705  0.027048971            3 
  512000    1.0228871   -7.5542695    161.44358  0.026276624  0.027029216            2 
  513000    1.0499385   -7.5970462    161.65001  0.026258936    0.0270094            3 
  514000    1.0412553   -7.5625283    162.18332  0.026294312  0.026990311            1 
  515000    1.0606482   -7.5793699     161.9848  0.026211133  0.026970993            2 
  516000    1.0440802   -7.5918792    161.83285  0.026135795  0.026951517            2 
  517000    1.0416203   -7.5795704    162.52617  0.026196998  0.026932016            4 
  518000    1.0462415   -7.5897081    162.61499  0.026160713   0.02691247            3 
  519000    1.0661678   -7.5918058    162.71361  0.026126141  0.026893107            2 
  520000    1.0302653   -7.6032309    163.07143  0.026133242  0.026873894            2 
  521000    1.0540304   -7.5796818    163.12643  0.026091879  0.026854049            2 
  522000    1.0202575   -7.6131156    162.45677  0.025934989   0.02683381            3 
  523000    1.0225614   -7.6260351    163.35733  0.026028893  0.026813764            1 
  524000     1.046817   -7.5387604    163.86929  0.026060638  0.026794326            3 
  525000    1.0415846   -7.5831692    164.49689  0.026110618  0.026775436            2 
  526000    1.0325177   -7.5633846    164.39466  0.026044781  0.026756212            2 
  527000    1.0682986    -7.563203    164.28787  0.025978474  0.026736774            2 
  528000      1.05201   -7.6134904    164.93145  0.026030848  0.026717359            1 
  529000    1.0367575   -7.5841226    165.29283  0.026038567  0.026698281            2 
  530000    1.0396607    -7.584776     165.7779  0.026065708  0.026679738            4 
  531000    1.0224913   -7.5873738    165.56241  0.025982801  0.026661599            2 
  532000    1.0543829   -7.5827519    166.10131  0.026018376  0.026643771            2 
  533000    1.0140743   -7.5442808    166.43504  0.026021739  0.026626025            2 
  534000    1.0502887   -7.5943452    166.26865  0.025947042  0.026607976            1 
  535000    1.0325342   -7.5487564    166.79619  0.025980716  0.026589627            2 
  536000    1.0381918   -7.6128456    166.82779  0.025937156  0.026571234            2 
  537000    1.0446793   -7.6049392    166.57254  0.025849246  0.026552476            2 
  538000     1.042006   -7.6003695     167.2299  0.025903021  0.026533779            1 
  539000    1.0403748   -7.5461126    167.77606  0.025939403  0.026515215            3 
  540000    1.0482546   -7.5409238    167.85668  0.025903809  0.026497157            4 
  541000    1.0415111   -7.5744737    168.45995  0.025948852  0.026479012            2 
  542000    1.0381049   -7.5515216    168.50643  0.025908122  0.026460573            1 
  543000     1.030483   -7.5939531    168.20797  0.025814605  0.026442532            3 
  544000    1.0401037   -7.5767203    168.47112  0.025807464  0.026424475            1 
  545000    1.0169426   -7.5901165    168.89577  0.025825041  0.026405843            4 
  546000    1.0327561   -7.5848976    168.30118  0.025686994  0.026387009            2 
  547000    1.0395758   -7.6121618    168.95559  0.025739731  0.026367982            2 
  548000     1.025182   -7.5774123    169.11997  0.025717757  0.026349152            3 
  549000    1.0159213   -7.5869875    170.09183  0.025818432   0.02633073            3 
  550000    1.0237754   -7.5828884    170.12006  0.025775767   0.02631269            3 
  551000    1.0285182   -7.5713325    170.15347   0.02573404  0.026294835            2 
  552000    1.0421103   -7.6103134    170.54178  0.025746042  0.026276586            2 
  553000    1.0240737   -7.5706061    170.74064  0.025729452  0.026258674            1 
  554000    1.0302997   -7.5822276    171.20439  0.025752766   0.02624096            1 
  555000    1.0447238   -7.5890803    171.39291  0.025734671  0.026223185            2 
  556000    1.0239812   -7.6085714    171.18693  0.025657513  0.026205319            3 
  557000    1.0138424   -7.5930149    171.59326  0.025672241  0.026187224            3 
  558000    1.0385429   -7.6280522     171.2645  0.025577136  0.026169454            1 
  559000    1.0068947   -7.6142752    172.12954  0.025660337  0.026151739            1 
  560000    1.0307818   -7.5960642    172.26791  0.025635105  0.026133986            3 
  561000    1.0207025   -7.6291098     172.3878  0.025607219  0.026116271            4 
  562000     1.040785   -7.6349533    172.46447  0.025573024  0.026098727            1 
  563000    1.0311594   -7.6328161    172.61737  0.025550232  0.026081161            1 
  564000    1.0344376   -7.5822182     173.3377  0.025611362  0.026063553            2 
  565000    1.0356708   -7.6015787    173.55942  0.025598735  0.026046198            2 
  566000      1.04023   -7.5965654      173.619  0.025562279  0.026028943            4 
  567000    1.0319537    -7.620896    173.24736  0.025462576  0.026011453            1 
  568000    1.0319311   -7.6336129    173.97234  0.025524112  0.025993982            2 
  569000    1.0367017   -7.6302501    173.98646  0.025481321  0.025976429            1 
  570000    1.0425662   -7.6346128    174.29406  0.025481588  0.025958513            1 
  571000    1.0294243   -7.5991278    174.04464   0.02540056  0.025940431            4 
  572000     1.031177   -7.6197275    174.09324  0.025363234  0.025922478            1 
  573000    1.0359768   -7.6437471    174.71826  0.025409869  0.025904582            3 
  574000    1.0294155   -7.6140578    174.77212   0.02537342  0.025886536            2 
  575000   0.99677098   -7.6136071    174.96487  0.025357227  0.025868614            2 
  576000     1.028467    -7.642198    174.73801  0.025280384   0.02585062            5 
  577000    1.0317806   -7.6288954    174.84097   0.02525144  0.025832888            2 
  578000    1.0371754   -7.5919252     175.7441  0.025337962  0.025814949            3 
  579000    1.0280627   -7.6013752    175.40422  0.025245281  0.025797166            2 
  580000    1.0299428   -7.6069416    175.81478  0.025260744  0.025778968            1 
  581000    1.0176948   -7.6098154     175.4604  0.025166438  0.025760445            5 
  582000    1.0310349   -7.6162531    176.24858  0.025236051  0.025741766            3 
  583000    1.0210927   -7.6001385    176.26308  0.025194838  0.025723413            2 
  584000    1.0357208   -7.6155922    176.21712  0.025145137  0.025705011            3 
  585000    1.0201873   -7.6473957    176.09253  0.025084405  0.025686556            2 
  586000    1.0355173    -7.597375    177.25678  0.025207164  0.025668319            1 
  587000    1.0433882   -7.6411804    176.96395  0.025122651  0.025650052            1 
  588000    1.0319132   -7.6461332    175.92172  0.024932217  0.025631448            4 
  589000     1.022792   -7.6271002      177.566  0.025122524  0.025612928            1 
  590000    1.0631306   -7.6578843    176.98678  0.024998132  0.025594775            3 
  591000    1.0297767   -7.6256466    178.02395   0.02510208  0.025576622            2 
  592000   0.99035648   -7.6400472    177.70101  0.025014218  0.025558592            2 
  593000    1.0105441   -7.6476135     177.6501  0.024964882  0.025540503            2 
  594000    1.0129142   -7.6265928    177.94995   0.02496492  0.025522731            2 
  595000    1.0433578   -7.6408589     179.1097  0.025085392  0.025504794            4 
  596000    1.0027991   -7.6226541    178.97323  0.025024222  0.025487107            2 
  597000    1.0181851   -7.6268868    179.79276  0.025096701  0.025469591            1 
  598000    1.0125017   -7.6300925    179.25757  0.024980152  0.025451802            2 
  599000    1.0122659   -7.6281796    179.50941  0.024973484  0.025433994            1 
  600000     1.029247   -7.6777219     178.8446  0.024839528  0.025416145            4 
  601000     1.012168   -7.6365881    179.82096  0.024933577  0.025398409            1 
  602000    1.0112381    -7.694008    179.78995  0.024887867  0.025380975            2 
  603000    1.0114499   -7.6419084     179.7295  0.024838239  0.025363242            2 
  604000    1.0007316   -7.6801203    180.46246  0.024898243  0.025345423            3 
  605000   0.99674955   -7.6828656    180.13964  0.024812623  0.025327572            3 
  606000    1.0028328    -7.656467    180.66385  0.024843764  0.025309885            3 
  607000    1.0272261   -7.6467784    181.07417  0.024859166  0.025292329            3 
  608000   0.97893504   -7.6464601    181.39904  0.024862807  0.025274772            1 
  609000    1.0188557   -7.6622245     181.6533  0.024856773  0.025257183            2 
  610000    1.0126947   -7.6849414    181.02518  0.024730215  0.025239374            2 
  611000   0.99682623   -7.6223867     181.6406  0.024773678  0.025221823            2 
  612000   0.98136225   -7.6706433    181.92116    0.0247714  0.025204031            1 
  613000   0.99723036   -7.6746404    182.11487  0.024757323  0.025186525            3 
  614000   0.99927724   -7.6286314    182.44555  0.024761882  0.025168983            3 
  615000   0.99512344   -7.6802486    182.61979  0.024745229  0.025151237            1 
  616000    1.0001777   -7.6301327    182.89128  0.024741786  0.025133837            1 
  617000    1.0163697   -7.6473546    182.71985  0.024678531  0.025116241            1 
  618000    1.0047526   -7.6768417    182.85073  0.024656247  0.025098482            1 
  619000    1.0053001   -7.6482201    182.88055   0.02462043  0.025080821            1 
  620000    1.0113576   -7.6472951    182.99638  0.024596287  0.025062835            1 
  621000     1.031853   -7.6684497    182.91789  0.024546147  0.025044832            1 
  622000   0.99837335   -7.6984211    183.38599  0.024569399  0.025027028            1 
  623000    1.0073698   -7.6800447    183.78812  0.024583751   0.02500937            2 
  624000     1.011824   -7.6448323    183.78185  0.024543516  0.024991582            3 
  625000   0.99045694   -7.6698811    183.58664  0.024478219  0.024973674            1 
  626000   0.98113697   -7.6896115    184.02668  0.024497694  0.024955538            1 
  627000    1.0122449   -7.6393339    184.26128  0.024489803   0.02493782            2 
  628000     1.001829   -7.6812903     184.8794  0.024532829  0.024920545            4 
  629000   0.99037083   -7.6891093    184.80324  0.024483736  0.024903419            1 
  630000    1.0103813   -7.6695763    185.22475  0.024500629  0.024886246            2 
  631000   0.99165714   -7.6890827     185.1719   0.02445482  0.024868758            1 
  632000   0.99231486   -7.7085565    185.34464  0.024438903  0.024851287            1 
  633000    1.0025435   -7.6598386    185.56976  0.024429932   0.02483406            3 
  634000    1.0027241   -7.6548787    185.95652  0.024442235  0.024816831            3 
  635000    1.0225894   -7.6612365    185.64989  0.024363502  0.024799645            1 
  636000   0.98906205   -7.6897754    185.73808  0.024336751  0.024782237            2 
  637000    1.0132178   -7.6676192    186.00884  0.024333966  0.024764956            1 
  638000    1.0089231    -7.675784    185.65858  0.024250076   0.02474736            2 
  639000    0.9937285   -7.6920726     186.1758  0.024279577   0.02472953            1 
  640000    1.0237238   -7.6813499     187.0101  0.024350273  0.024711805            1 
  641000    1.0074822   -7.6865997    186.60175  0.024259198  0.024693815            2 
  642000    1.0230568   -7.6895472    187.05817  0.024280655  0.024676188            2 
  643000   0.96732248   -7.6730364    187.42815  0.024290843   0.02465859            4 
  644000    0.9845231   -7.6837996    187.73635  0.024293006   0.02464126            2 
  645000    1.0051997   -7.6741524    188.17466  0.024311971  0.024624215            4 
  646000   0.99698696   -7.6950138    188.46023  0.024311176   0.02460699            1 
  647000   0.99257046   -7.6853817    188.32709  0.024256452  0.024589837            2 
  648000    1.0010461   -7.6837685    188.01519  0.024178908  0.024572776            3 
  649000   0.99146386   -7.6604043    188.59434  0.024216017  0.024555689            2 
  650000   0.99616148   -7.6945915    188.55313  0.024173479  0.024538831            2 
  651000    1.0089982   -7.7046165    188.86689   0.02417651  0.024521749            1 
  652000    1.0240609   -7.7047347    188.50899  0.024093685  0.024504661            2 
  653000   0.98622783    -7.678768    188.76979   0.02409007  0.024487485            2 
  654000    1.0311446   -7.7075186     189.1133  0.024097006  0.024470204            2 
  655000   0.97621821   -7.7386432     189.0326   0.02404995  0.024452987            2 
  656000    1.0062491   -7.7006144    189.51804  0.024074954  0.024436014            2 
  657000   0.99417698   -7.6851697    189.96757  0.024095328  0.024418795            2 
  658000    1.0215852   -7.6488054    190.33236  0.024104909  0.024401832            2 
  659000   0.98006255    -7.718081    189.75594   0.02399544  0.024384783            1 
  660000   0.99734431    -7.679149    190.56809  0.024061628  0.024367782            1 
  661000   0.99073954   -7.7314504    189.86315  0.023936352  0.024350581            3 
  662000    1.0096819   -7.7549947    190.37719  0.023964903  0.024333412            2 
  663000   0.97607491   -7.7374864     191.0849  0.024017709  0.024316154            4 
  664000    0.9956617   -7.6812238    190.66639  0.023929015  0.024298851            2 
  665000   0.98555624   -7.6764863    190.99868  0.023934671  0.024281273            2 
  666000   0.98854053   -7.7068152    191.01963  0.023901356  0.024263613            2 
  667000   0.98593543   -7.7065472    190.97501  0.023859946  0.024246126            2 
  668000   0.97996574   -7.6825145    191.37967   0.02387471  0.024228749            3 
  669000   0.97679227   -7.7270386    191.81943    0.0238938  0.024211362            1 
  670000    1.0090717   -7.6888973    191.21425  0.023782867  0.024193956            2 
  671000   0.97834805   -7.7234703     192.0405  0.023850037  0.024176527            3 
  672000   0.97227299   -7.7206464    191.84155  0.023789875  0.024159263            2 
  673000   0.98590444   -7.7329492    191.87703  0.023758919  0.024141775            4 
  674000   0.98834044   -7.7285936    192.93209  0.023854116  0.024124749            3 
  675000   0.98339012   -7.7116115    193.11497  0.023841355  0.024107724            4 
  676000   0.96891011   -7.7129603    192.91774  0.023781772  0.024090504            2 
  677000   0.97356679   -7.7049765      193.415  0.023807853  0.024073217            1 
  678000    0.9768273   -7.7239941    192.50603  0.023661016   0.02405597            1 
  679000    0.9675415   -7.6901241    192.75807  0.023657102  0.024038601            2 
  680000   0.97092343    -7.722199    192.92689  0.023643001  0.024021127            1 
  681000   0.97436199   -7.7197051    193.52664  0.023681674  0.024003783            3 
  682000   0.98644878   -7.7220157    193.70764  0.023669067   0.02398673            1 
  683000     0.999467    -7.690315    194.08766  0.023680778  0.023969685            3 
  684000   0.98139319   -7.7486314    193.87967  0.023620818  0.023952839            1 
  685000    0.9789972   -7.7218647    193.86629  0.023584707  0.023935905            1 
  686000    0.9903657    -7.727235    194.57229  0.023636089  0.023918673            3 
  687000   0.98873327   -7.7426087    194.17635  0.023553657  0.023901461            1 
  688000   0.98524822   -7.7361746    194.44236  0.023551642  0.023884384            1 
  689000   0.96845985   -7.7106219    195.03324  0.023588926  0.023867035            2 
  690000   0.96198374   -7.7174303    194.62501  0.023505436    0.0238497            2 
  691000   0.96431786   -7.7656334    194.32979  0.023435817  0.023832173            2 
  692000   0.98382536   -7.7290698    194.68367  0.023444566  0.023814691            1 
  693000   0.96469666   -7.7143292    194.71833  0.023414903  0.023797212       -1e+20 
  694000   0.99316781   -7.7297891    195.08667  0.023425392  0.023779788            2 
  695000   0.98307228   -7.7547576    195.96925  0.023497512  0.023762604            2 
  696000   0.98632477   -7.7495024    195.28802  0.023382186  0.023745413            3 
  697000   0.98673363   -7.7734333    194.83204  0.023294123   0.02372798            3 
  698000   0.97065082   -7.7660036    195.47078  0.023337008  0.023710401            1 
  699000   0.95972589   -7.7505373    195.39873  0.023295032  0.023692461            2 
  700000   0.98917806   -7.7743305    195.51796  0.023275948   0.02367444            2 
  701000   0.99159758   -7.7421505     195.9812  0.023297812  0.023656645            2 
  702000   0.95493411   -7.7753992    195.58194  0.023217229  0.023638767            1 
  703000   0.98317844   -7.7526383    196.18905   0.02325617  0.023621146            2 
  704000   0.97089494   -7.7624046    196.02606  0.023203842  0.023603337            5 
  705000   0.97221902   -7.7053658    196.61009  0.023239963  0.023585716            1 
  706000   0.97858028   -7.7140182    196.36856  0.023178536  0.023567792            2 
  707000   0.97819443    -7.751672    196.02661  0.023105446   0.02354983            1 
  708000    1.0019611   -7.7461585    196.43333  0.023120684  0.023531856            2 
  709000   0.96691939   -7.7580321    195.95874  0.023032292  0.023513547            2 
  710000   0.97113204    -7.760481    195.81546  0.022983035  0.023495104            3 
  711000   0.98176703   -7.7626144    196.63182  0.023046392  0.023476908            1 
  712000   0.95556028   -7.7523127     197.5276  0.023118867  0.023458738            1 
  713000   0.96800741    -7.748692    197.19752  0.023047864  0.023440582            2 
  714000   0.98244198   -7.7655833    196.82288  0.022971858  0.023422517            2 
  715000   0.95120345    -7.791511    197.28301  0.022993358  0.023404156            4 
  716000   0.98964877   -7.7521459    196.47811  0.022867565  0.023385915            3 
  717000   0.95433108   -7.7511315    197.25212   0.02292563  0.023367484            2 
  718000   0.96853303   -7.7568735    198.12837    0.0229954  0.023349246            5 
  719000   0.98562808   -7.7308703    197.79175  0.022924403  0.023331246            4 
  720000   0.96218502   -7.7697929    198.30003  0.022951392  0.023313229            2 
  721000   0.97750548   -7.8098883    197.68241  0.022848174  0.023294943            3 
  722000    1.0002899   -7.7404531    198.37317  0.022896257  0.023276748            2 
  723000   0.94540643   -7.7603496    198.22361   0.02284735  0.023258726            3 
  724000   0.96954125   -7.7669925     198.8841  0.022891816   0.02324067            2 
  725000    0.9549092    -7.777815    198.37506  0.022801731  0.023222709            3 
  726000   0.97573924   -7.8086153    198.43682  0.022777413  0.023204622            1 
  727000   0.97507272   -7.7709622    198.93793  0.022803522  0.023186642            2 
  728000   0.96295134   -7.7783515    198.67764  0.022742404  0.023168832            3 
  729000   0.97864096   -7.7446424    199.61606  0.022818479  0.023150842            2 
  730000   0.96709637     -7.79975    199.29909  0.022751038  0.023132931            2 
  731000   0.96258066   -7.7583562    200.17577  0.022819855  0.023115053            1 
  732000   0.95273629   -7.7732963    199.87157   0.02275405   0.02309723            1 
  733000   0.97023093   -7.7795512    199.61888  0.022694279  0.023079151            2 
  734000   0.95043482   -7.7595207    199.50037  0.022649906  0.023061209            2 
  735000   0.96732275   -7.7654897    199.88009  0.022662142    0.0230431            3 
  736000   0.96319523   -7.7472897    199.87882  0.022631207  0.023024965            1 
  737000   0.96104253   -7.7751697    199.94569  0.022608061  0.023006723            2 
  738000   0.95023739   -7.7783319    200.32168  0.022619882  0.022988774            2 
  739000   0.95859322   -7.7682914    200.05479  0.022559178  0.022970758            5 
  740000   0.94730769   -7.7899766    200.84748  0.022617959  0.022952696            3 
  741000   0.93423952   -7.8021004    200.77705  0.022579515  0.022934831            1 
  742000   0.96864209   -7.7673429    201.14281  0.022590163  0.022917021            2 
  743000    0.9478002   -7.7892218    200.83985   0.02252578  0.022898888            3 
  744000   0.96347667   -7.7581509    200.93441  0.022506095  0.022880948            2 
  745000   0.93954807   -7.8368803    201.32364  0.022519423  0.022862913            2 
  746000   0.93434256   -7.8218793    200.66075  0.022415186   0.02284473            1 
  747000   0.96060531   -7.8046674    200.73104  0.022393021  0.022826608            3 
  748000   0.96992916   -7.8242801       201.02  0.022395276  0.022808597            4 
  749000   0.95412082   -7.8142154    201.46201  0.022414554   0.02279064            3 
  750000   0.95871886   -7.7970529    201.88475  0.022431639  0.022772836            2 
  751000   0.95505767   -7.7669507    202.15837  0.022432132  0.022755101            2 
  752000   0.95261891   -7.8252472    202.07428  0.022392983   0.02273749            1 
  753000   0.96987992   -7.8249235    202.49676      0.02241  0.022719804            4 
  754000   0.94753013   -7.8478548    202.38103  0.022367488  0.022702146            2 
  755000   0.96934252   -7.7723087     202.2987  0.022328775  0.022684316           12 
  756000   0.95709539   -7.8188723    201.88975  0.022254161  0.022666435            2 
  757000   0.97729767   -7.8172747    202.20616  0.022259595  0.022648517            2 
  758000   0.95529453   -7.8273412    202.60789  0.022274395  0.022630785            2 
  759000   0.93528803   -7.7754359    203.03041  0.022291437   0.02261308            4 
  760000   0.92748101   -7.8348945    203.31321  0.022293115  0.022595311            2 
  761000   0.92844693   -7.7957999    203.65785   0.02230156  0.022577743            1 
  762000   0.94550471   -7.8384277    203.70067  0.022276976   0.02256053            2 
  763000   0.95108039   -7.7823239    204.32941   0.02231645  0.022543484            1 
  764000   0.95448308   -7.8222547      204.155  0.022268215  0.022526377            1 
  765000   0.94111796   -7.8270406    204.37427  0.022262993  0.022509128            1 
  766000    0.9774405    -7.782415    204.76062   0.02227596  0.022491806            1 
  767000   0.94488435   -7.8205763    204.33219  0.022200368   0.02247452            2 
  768000   0.95736253   -7.7878165    204.68686  0.022209946  0.022457215            1 
  769000   0.94667805   -7.8317585    204.54197  0.022165363  0.022439934            2 
  770000   0.95159739    -7.841978    204.15911  0.022095141  0.022422479            4 
  771000   0.96682525    -7.833434    204.85408    0.0221416   0.02240524            3 
  772000   0.95254512   -7.8048026    205.44248  0.022176434  0.022388124            3 
  773000   0.97085208   -7.8134595    204.95032  0.022094687  0.022371143            2 
  774000   0.93432693   -7.8128452    205.63152  0.022139483  0.022354068            3 
  775000   0.95835244   -7.8292255    204.89711  0.022031947  0.022336876            2 
  776000   0.94752957    -7.867667    204.90668  0.022004583  0.022319665            1 
  777000   0.95290539   -7.8335612    206.16321  0.022111026  0.022302404            3 
  778000   0.96397655   -7.8112837    205.56581  0.022018617  0.022285323            2 
  779000   0.93612258   -7.8051816    205.95493  0.022031978  0.022268165            1 
  780000   0.94305701   -7.8374089    205.58472  0.021964179  0.022251118           10 
  781000   0.94026046   -7.8414054    205.37022  0.021913169  0.022233715            4 
  782000   0.94288079   -7.8372347    205.58475  0.021908009  0.022216116            3 
  783000   0.96413523   -7.8064685    206.10911  0.021935836  0.022198582            2 
  784000   0.95486921    -7.856056    205.57965  0.021851578  0.022181027            1 
  785000   0.93450871   -7.8062106     206.0199  0.021870478  0.022163349            1 
  786000   0.94823147   -7.8332615    205.68159  0.021806785  0.022145734            4 
  787000   0.95099637   -7.8362305     206.0937  0.021822713  0.022127937            2 
  788000   0.95331954    -7.870352    205.85679  0.021769965   0.02211021            2 
  789000   0.92269667   -7.8391574    205.94681  0.021751882  0.022092437            2 
  790000   0.93371721   -7.8391551    206.19679  0.021750716  0.022074746            2 
  791000   0.92657482   -7.8485101    206.84579  0.021791592  0.022057318            1 
  792000   0.93022299   -7.8780121    206.39496  0.021716641  0.022039517            2 
  793000   0.95821776   -7.8630823    206.59865  0.021710661  0.022021769            2 
  794000   0.93739163   -7.8672186    207.03536  0.021729152  0.022004168            2 
  795000   0.93320934   -7.8495629    207.17942  0.021716921  0.021986729            3 
  796000   0.97314775   -7.8542905    207.20394  0.021692205  0.021969353            2 
  797000   0.95136384   -7.8265207    207.21752  0.021666407  0.021952143            2 
  798000   0.94020514   -7.8347509    207.48317  0.021666997  0.021934757            2 
  799000   0.92700166   -7.8672286    207.72291  0.021664884  0.021917302            3 
  800000   0.91439409    -7.845961    208.23145  0.021690776  0.021899967            2 
  801000    0.9483027   -7.8587457    207.45231  0.021582637  0.021882523            2 
  802000   0.92293861   -7.8467219    208.12228  0.021625341  0.021865166            1 
  803000     0.933627   -7.8819457    207.54505  0.021538506  0.021847625            3 
  804000   0.92105293    -7.820714    207.75938  0.021533933  0.021830069            1 
  805000   0.92626635   -7.8616607    207.82086  0.021513546  0.021812545            2 
  806000   0.94788752   -7.8657917    208.12129  0.021517917  0.021795071            2 
  807000   0.94278788   -7.8646636    207.98468  0.021477146   0.02177773            6 
  808000    0.9335254   -7.8409738     208.5589  0.021509788  0.021760505            1 
  809000   0.93579359   -7.8633679    208.80239  0.021508281  0.021743129            1 
  810000   0.91754952   -7.8781119    208.87337   0.02148903   0.02172588            2 
  811000   0.94105691   -7.8347622    209.21096  0.021497221  0.021708646            3 
  812000   0.92372348   -7.8375735    209.61871  0.021512594  0.021691648            2 
  813000   0.92223486   -7.8178668    209.34202  0.021457772  0.021674617            3 
  814000   0.94328348   -7.8472824     210.2393   0.02152327  0.021657874            3 
  815000    0.9340621     -7.86296    209.08711   0.02137905  0.021640827            4 
  816000   0.92853289   -7.9144797    209.46707  0.021391653  0.021623606            2 
  817000   0.93536698   -7.8687957    209.91549  0.021411209  0.021606504            1 
  818000   0.92767848   -7.8267859    210.10738  0.021404582  0.021589451            1 
  819000   0.91466975   -7.8624674    209.58989  0.021325793  0.021572293            2 
  820000   0.92423413   -7.8935914    209.48095  0.021288714  0.021554849            6 
  821000   0.94327755   -7.8496775    209.80751  0.021295931  0.021537523            1 
  822000   0.92425666   -7.8541836    210.37288  0.021327339  0.021520387            3 
  823000   0.91470152   -7.8619718    210.29582  0.021293623  0.021503318            2 
  824000   0.93529793   -7.9256578    209.70718  0.021208251  0.021486276            1 
  825000   0.93489268   -7.9115512    210.50713  0.021263346  0.021469186            2 
  826000    0.9362497   -7.8538512    210.95021  0.021282305  0.021452122            2 
  827000   0.92747711   -7.8749766    210.68017   0.02122936  0.021434999            2 
  828000   0.91699799    -7.895708     210.6515  0.021200835  0.021417818            2 
  829000   0.94034111   -7.8947277    210.89877  0.021200118  0.021400538            6 
  830000   0.92507377   -7.8675116    210.53585  0.021138137  0.021383292            1 
  831000   0.91729122   -7.8474197    211.64512  0.021223939   0.02136626            2 
  832000   0.94017462   -7.9105886    210.57521  0.021091267  0.021349207            4 
  833000   0.92054033   -7.9076893    211.11662   0.02112011  0.021332032            2 
  834000   0.90517843   -7.8813783    211.68836  0.021151915  0.021315023            2 
  835000   0.92399417   -7.8731465    211.76141  0.021133873  0.021298253            2 
  836000   0.92566244    -7.877352    212.26006    0.0211583  0.021281636            1 
  837000   0.93339187   -7.8677618    212.37904  0.021144867  0.021264891            2 
  838000    0.9320026    -7.911452    211.67602  0.021049724  0.021248003            4 
  839000   0.94139747   -7.8676448    212.42864  0.021099388  0.021230948            2 
  840000   0.91552198   -7.9108992    211.81731  0.021013622  0.021213863            2 
  841000   0.92939992   -7.9559821    211.79005  0.020985935  0.021196714            2 
  842000   0.90878668    -7.911812    211.97497  0.020979312  0.021179618            3 
  843000   0.90609882   -7.8982504    212.65717  0.021021863  0.021162759            3 
  844000    0.9122438   -7.9020982    212.38125  0.020969712  0.021145976            1 
  845000   0.92138843     -7.86137    213.21095  0.021026721  0.021129306            2 
  846000   0.90818265   -7.8582918    213.22566  0.021003316  0.021112603            2 
  847000   0.91579959   -7.8888193    212.87537  0.020944055  0.021096048            2 
  848000   0.90993335   -7.8862845    213.06076  0.020937574  0.021079508            4 
  849000   0.90939226    -7.881995    213.32535  0.020938884  0.021063034            1 
  850000   0.92805729   -7.9167369    213.21904  0.020903828  0.021046496            1 
  851000   0.92113328   -7.8964664     213.2446  0.020881766  0.021029909            2 
  852000   0.92510008   -7.8589548    214.28097  0.020958623  0.021013327            2 
  853000   0.89975099   -7.8844762    213.85805  0.020892737  0.020996719            2 
  854000   0.92841226   -7.8886529    213.27908  0.020811776  0.020980057            3 
  855000   0.89948901   -7.9379701    213.07464  0.020767509  0.020963099            1 
  856000   0.90373877   -7.9356853    213.26341  0.020761625  0.020946229            3 
  857000   0.92355539   -7.9214362    213.94609  0.020803781  0.020929461            2 
  858000   0.89668079   -7.9137173    213.90056  0.020775113  0.020912811            2 
  859000   0.92716649   -7.9025267    213.98134  0.020758764  0.020896015            2 
  860000   0.91083975    -7.910762    213.77496  0.020714628  0.020879351            1 
  861000   0.90243003    -7.926309    214.08523  0.020720599   0.02086258            3 
  862000   0.89815095   -7.8924546    214.78536  0.020764246  0.020845868            1 
  863000   0.92266115   -7.9075929    214.62545  0.020724744  0.020829231            2 
  864000   0.90722261   -7.9497112    214.48335  0.020687052  0.020812625            2 
  865000   0.91427542   -7.9249278    214.50026  0.020664765  0.020796042            5 
  866000   0.90711782    -7.912827    214.00004  0.020592768  0.020779393            1 
  867000   0.89285032   -7.8663537    215.09442  0.020674204  0.020762634            2 
  868000   0.91953783   -7.8896588    214.72177   0.02061461  0.020745979            1 
  869000   0.88926543   -7.9308536    214.88059  0.020606117  0.020729241            2 
  870000   0.89574473   -7.9316048    215.00941  0.020594771   0.02071232            8 
  871000   0.89332553   -7.9150617    214.92392  0.020562946  0.020695489            4 
  872000   0.91027197   -7.9325706    215.56909  0.020601021  0.020678692            2 
  873000   0.91282574   -7.9295916    214.34698  0.020460766  0.020661902            2 
  874000   0.91494888   -7.9132985    215.50992  0.020548238  0.020645175            3 
  875000   0.91148772   -7.9199702    215.26142  0.020501088  0.020628603            1 
  876000   0.90007969   -7.9410334    215.01027  0.020453793  0.020611873            4 
  877000   0.89631725    -7.949784    215.04097  0.020433387  0.020595006            2 
  878000   0.90341584   -7.9632978    215.51873   0.02045546  0.020578136            2 
  879000   0.91835481   -7.9491387    215.31949    0.0204133  0.020561277            1 
  880000   0.93002988   -7.9562848    215.52257  0.020409334  0.020544406            1 
  881000   0.88126535   -7.9623638    215.70339  0.020403272  0.020527513            4 
  882000   0.90314259   -7.9683208    215.20133  0.020332703   0.02051064            2 
  883000   0.90739545   -7.9238988    216.05824  0.020390547  0.020493752            2 
  884000   0.91458734   -7.9205982    216.30447  0.020390693  0.020476941            4 
  885000   0.90742763   -7.9427188    216.09782  0.020348194  0.020460207            2 
  886000     0.916315   -7.9565652    215.38821  0.020258484  0.020443382            3 
  887000   0.89064605   -7.9841926    215.41141  0.020237825   0.02042649            5 
  888000   0.90474042   -7.9596156    215.76693  0.020248398  0.020409658            2 
  889000   0.89662877   -7.9432618    216.04929  0.020252089  0.020392784            2 
  890000   0.89912685   -7.9490659    215.93002  0.020218167  0.020375796            2 
  891000   0.89351212   -7.9232954    217.02395  0.020297788  0.020358998            2 
  892000   0.91271535   -7.9067608    216.70754  0.020245473   0.02034252            2 
  893000   0.88348478    -7.935174    215.60804  0.020120197  0.020325837            4 
  894000   0.91823046   -7.9123435    216.86341   0.02021471  0.020309104            3 
  895000   0.87596861    -7.913874    216.14927   0.02012563  0.020292541            2 
  896000   0.89399091    -7.948344    216.51007  0.020136725  0.020275869            4 
  897000   0.87796665   -7.9391661    216.76134   0.02013762  0.020259066            3 
  898000   0.87975205   -7.9252111    217.12657  0.020149088  0.020242182            2 
  899000   0.89239305   -8.0025113    216.57813  0.020075837   0.02022524            2 
  900000   0.91771087   -7.9771005    216.95101  0.020088057  0.020208342            1 
  901000   0.90239774   -7.9777544    216.52445  0.020026309  0.020191556            2 
  902000   0.89849458    -7.917403    216.84363  0.020033595  0.020174786            1 
  903000   0.88189877   -7.9527556    217.10977  0.020035969  0.020158013            2 
  904000   0.88577793   -7.9590158    217.23542  0.020025389  0.020141276            1 
  905000   0.88983897   -7.9654875    217.59151  0.020036051  0.020124417            3 
  906000   0.88439134   -7.9197392    217.70339  0.020024226  0.020107856            1 
  907000   0.90470221   -7.9494789    217.29005  0.019964172   0.02009121            3 
  908000   0.90649625   -7.9334741    217.71164  0.019980878  0.020074473            4 
  909000   0.88563389   -7.9402718    217.54458  0.019943581  0.020058002            3 
  910000   0.88091643    -7.969102    217.71409  0.019937188    0.0200415            3 
  911000    0.8692041    -7.965621    218.61026   0.01999728  0.020024855            2 
  912000   0.90399451   -7.9802197    218.08625  0.019927471  0.020008426            2 
  913000   0.86540141   -7.9741005    218.55426  0.019948362  0.019992069            3 
  914000    0.8947245   -7.9422592    219.02413  0.019969377  0.019975965            1 
  915000   0.88704889   -7.9886251     217.9452  0.019849289  0.019959646            2 
  916000   0.87794743   -7.9467063    218.59236  0.019886496   0.01994326            2 
  917000   0.87821572   -7.9725869    218.72184  0.019876575  0.019926829            5 
  918000   0.87938849    -7.988657    218.52677  0.019837216  0.019910381            2 
  919000   0.89043775   -7.9757839     218.9057  0.019849991  0.019893918            2 
  920000   0.86457743   -7.9816545    218.99913  0.019836877  0.019877457            1 
  921000   0.88330834   -7.9594842    218.35931  0.019757447  0.019861116            2 
  922000   0.89210319   -7.9988198    218.94981   0.01978939   0.01984485            4 
  923000    0.9024193   -8.0025663    218.85254  0.019759168  0.019828503            2 
  924000   0.89148023   -7.9593634    218.89062  0.019741218  0.019812243            3 
  925000   0.89750356   -7.9803446    219.15212  0.019743434  0.019795981            3 
  926000   0.88505861   -7.9701478    218.86272  0.019696069  0.019779729            1 
  927000   0.88224129    -7.961865     219.6573  0.019746252  0.019763503            4 
  928000    0.8760953   -7.9722938    219.46465  0.019707673  0.019747405            2 
  929000   0.87992565   -7.9933324    219.21382  0.019663959  0.019731115            4 
  930000   0.87376052   -7.9885711    219.68448  0.019684989  0.019714848            1 
  931000   0.88394509   -8.0258866    219.63214  0.019659161   0.01969855            3 
  932000    0.8800789   -8.0154772    218.99969  0.019581518  0.019682213            2 
  933000   0.89079614   -8.0007972    219.75697  0.019628168  0.019665947            2 
  934000    0.9015179    -8.041736    219.07301  0.019546129  0.019649688            3 
  935000   0.89323301   -8.0036711    219.87062  0.019596312  0.019633378            2 
  936000   0.88346661   -8.0024293    219.69441  0.019559688  0.019617143            2 
  937000   0.88477535   -8.0046468    221.00256  0.019655155  0.019601102            5 
  938000   0.88223015   -7.9694637    220.51849  0.019591195  0.019585274            2 
  939000   0.87227483    -7.984979    220.45638  0.019564819   0.01956942            2 
  940000   0.88107562   -8.0484767    220.05361  0.019508299  0.019553467            4 
  941000   0.88034902   -7.9822945    220.62703  0.019538348  0.019537583            3 
  942000   0.87158269   -8.0248405    220.45715  0.019502578  0.019521796            4 
  943000   0.89959849   -7.9988762    220.70756  0.019504027  0.019506037            3 
  944000   0.86878428   -7.9636325    221.28182  0.019534059  0.019490284            2 
  945000    0.8908724   -8.0226512    221.09705  0.019497094  0.019474436            3 
  946000   0.87970369    -8.010156    221.13133  0.019479504  0.019458569            3 
  947000   0.86495335    -7.981294    221.44183  0.019486257  0.019442648            4 
  948000   0.87732123    -7.990716    221.68406  0.019486995  0.019426892            3 
  949000    0.9015349   -8.0166339    220.82813    0.0193913  0.019411046            1 
  950000   0.87595818   -8.0320851    221.16696   0.01940061  0.019395171            3 
  951000   0.85778359   -8.0437155    221.77318  0.019433332  0.019379342            2 
  952000   0.85607271   -8.0400006    221.23116  0.019365473   0.01936358            2 
  953000   0.85690034   -8.0391216    221.67278  0.019383768  0.019347846            3 
  954000   0.88235048   -8.0089457    222.18136  0.019407875  0.019332095            5 
  955000   0.88582017   -8.0158936    221.43852  0.019322733  0.019316325            2 
  956000   0.85964259   -8.0374744    221.59732  0.019316363  0.019300597            2 
  957000   0.85100965   -8.0425551    221.95859  0.019327637  0.019284798            2 
  958000    0.8610534      -8.0405    221.77688  0.019291656  0.019268982            2 
  959000   0.88365016   -8.0580157    221.49808  0.019247313  0.019253139            1 
  960000   0.88163541   -8.0189861    221.88604  0.019260941  0.019237273            3 
  961000   0.85884795   -8.0450122    221.64211  0.019219746  0.019221388            2 
  962000   0.84459083   -8.0162775    222.21613  0.019249492  0.019205544            2 
  963000   0.86704221   -8.0233102    221.83757  0.019196743  0.019189732            2 
  964000   0.86196463   -8.0449169    222.08953  0.019198611  0.019173888            2 
  965000    0.8647498   -8.0422719    221.95367  0.019166984  0.019158095            2 
  966000   0.84870684   -8.0210897    222.68272  0.019210034  0.019142264            1 
  967000   0.85072165   -8.0188932    222.41055  0.019166714  0.019126482            1 
  968000   0.88573883   -8.0241635     222.5001  0.019154623  0.019110767            4 
  969000   0.84414737   -7.9995978    222.80815  0.019161348  0.019095211            1 
  970000   0.89418464   -8.0178767    222.60901  0.019124485  0.019079714            3 
  971000   0.85836076   -8.0035708     222.5733  0.019101725  0.019064086            2 
  972000   0.86584536   -8.0418842    222.69328  0.019092359  0.019048373            2 
  973000    0.8561937   -8.0562715    221.98547  0.019012116  0.019032578            2 
  974000   0.86889464   -8.0211297    222.49765  0.019036417  0.019016879            2 
  975000   0.89086887   -8.0547451    222.93211  0.019054026  0.019001319            3 
  976000   0.83013435   -8.0474051    223.13615  0.019051925  0.018985697            3 
  977000   0.87744879   -8.0326941    222.97903  0.019019023  0.018970053            2 
  978000   0.86078541   -8.0617448    223.22909  0.019020883  0.018954466            3 
  979000   0.88105684   -8.0330995    223.62259   0.01903495  0.018939002            3 
  980000   0.85590055   -8.0342452    223.67859  0.019020288  0.018923594            2 
  981000   0.85041303      -8.0296    222.79586  0.018925914  0.018908106            1 
  982000   0.86798378   -8.0279372    223.69626   0.01898305  0.018892614            3 
  983000   0.86015378   -8.0460362    224.11391  0.018999144  0.018877122            3 
  984000   0.88554198   -8.0619948    222.98522  0.018884249  0.018861565            1 
  985000   0.86676129   -8.0544806    223.72618  0.018927765  0.018845914            1 
  986000   0.86933158   -8.0522376    223.45085  0.018885298  0.018830224            1 
  987000   0.86530596   -8.0755218    223.58623  0.018877594  0.018814489            3 
  988000   0.84605364   -8.0565654    223.78299  0.018875084  0.018798877            4 
  989000   0.84216546   -8.0428378     224.0004  0.018874317  0.018783359            1 
  990000   0.84596989   -8.0650076     223.4289  0.018807146  0.018767851            4 
  991000   0.85056875   -8.0624469    224.09093  0.018843839  0.018752402            3 
  992000   0.86325223   -8.0000505    224.79907  0.018884331  0.018737191            1 
  993000   0.85574365   -8.0665255    223.89824  0.018789715   0.01872188            4 
  994000   0.85993559   -8.0612337     224.2782  0.018802666   0.01870665            3 
  995000   0.85730967   -8.0509022     224.4254  0.018796097  0.018691357            5 
  996000   0.84927134   -8.0721207    224.72557   0.01880234   0.01867612            1 
  997000    0.8494149   -8.0781441    225.19452  0.018822678  0.018660925            8 
  998000   0.85134189   -8.0796712    224.30701   0.01872971  0.018645717            4 
  999000   0.85064904   -8.0378503    224.91006  0.018761266  0.018630469            2 
 1000000    0.8636801   -8.0545337    224.77412  0.018731176  0.018615297            3 
 1001000   0.85296805   -8.0280836    225.25265  0.018752302  0.018600213            1 
 1002000   0.86267534   -8.0592838    225.27645  0.018735566  0.018585113            1 
 1003000   0.85677853   -8.0673664    224.88671  0.018684506  0.018569959            1 
 1004000   0.85652763   -8.0974855    225.19213  0.018691246  0.018554699            2 
 1005000   0.83583068   -8.0819396    225.13363  0.018667797  0.018539533            2 
 1006000   0.85046884   -8.0937474    225.12432  0.018648469   0.01852439            4 
 1007000   0.85269288   -8.0947126    224.96729  0.018616955  0.018509371            4 
 1008000   0.81817568   -8.0669147    225.76202  0.018664188  0.018494349            2 
 1009000   0.84062122   -8.0665392    225.40996  0.018616614  0.018479336            1 
 1010000   0.85480103   -8.0918278    225.59621  0.018613548  0.018464206            1 
 1011000   0.85531961   -8.1029204    225.49331  0.018586656  0.018449039            1 
 1012000     0.835178   -8.0882687    225.68069   0.01858372  0.018433905            3 
 1013000   0.85139674   -8.0762358    225.68517  0.018565743  0.018418836            1 
 1014000   0.84359998   -8.1102666    225.78052   0.01855527  0.018403721            2 
 1015000   0.83605615     -8.10026    226.16384   0.01856846  0.018388644            1 
 1016000   0.84298129   -8.0931601     226.2598  0.018558055   0.01837359            1 
 1017000   0.87313902   -8.1170585    225.93046  0.018512821  0.018358586            2 
 1018000   0.85553965   -8.0870286    226.27761  0.018523052  0.018343575            2 
 1019000   0.83282548    -8.089097    226.01601  0.018483482  0.018328622            2 
 1020000   0.84598467   -8.0846772    226.12614  0.018474358  0.018313662            4 
 1021000   0.85385052   -8.0654888    227.42058  0.018561914   0.01829879            4 
 1022000   0.82565001    -8.114422     225.9783   0.01842615  0.018283765            2 
 1023000   0.83375972   -8.1028284    226.37304  0.018440293  0.018268757            1 
 1024000   0.85030372    -8.069948    226.27685  0.018414457  0.018253828            2 
 1025000   0.81566067   -8.0987924    226.69211  0.018430253  0.018238959            2 
 1026000   0.83416866    -8.075143    226.50783  0.018397323  0.018224023            2 
 1027000     0.844156   -8.1163633    225.65666  0.018310342  0.018209091            1 
 1028000   0.84642934   -8.1116045    226.30373  0.018344984  0.018194035            2 
 1029000   0.84394733   -8.0882747    225.88458  0.018293212  0.018179008            1 
 1030000   0.83473106    -8.112292    226.26865  0.018306525   0.01816394            4 
 1031000   0.82963289     -8.12721    226.64492  0.018319182  0.018148943            3 
 1032000   0.84858698   -8.0766562    227.01173  0.018331051  0.018133975            8 
 1033000    0.8273851   -8.0853097    226.83981  0.018299436  0.018119017            4 
 1034000   0.85930728   -8.1004479    227.07196  0.018300448  0.018104021            3 
 1035000   0.83002379    -8.127787    226.51885  0.018238233  0.018088984            2 
 1036000   0.85194782   -8.1109529    226.91511  0.018252503   0.01807394            2 
 1037000   0.83078376    -8.171612    226.29469  0.018185045  0.018058843            2 
 1038000   0.85292301   -8.0951405    226.82996  0.018210498  0.018043695            3 
 1039000   0.84378865   -8.0731072     227.1421  0.018218006  0.018028809            2 
 1040000   0.81211843   -8.0814447    227.27457  0.018211103  0.018013998            4 
 1041000    0.8483775   -8.0876696    226.99248  0.018171028  0.017999186            2 
 1042000   0.82938688   -8.0893375    227.26228  0.018175166  0.017984453            4 
 1043000   0.82247057   -8.0937787    227.86629  0.018205999  0.017969802            2 
 1044000   0.83493663   -8.0655407    228.06467  0.018204396  0.017955193            5 
 1045000   0.84696814   -8.1109105    227.47069  0.018139609  0.017940451            1 
 1046000   0.83340877    -8.077701    228.27471  0.018186322  0.017925835            4 
 1047000   0.84349331   -8.0929508     228.0369  0.018150024  0.017911215            2 
 1048000   0.83538691   -8.0967634    228.02651  0.018131879  0.017896584            1 
 1049000   0.82360601   -8.1032081    227.91772  0.018105952  0.017881974            3 
 1050000   0.83205812   -8.1309219    227.74277  0.018074823  0.017867362            2 
 1051000    0.8285451   -8.0940449    227.84843  0.018066003  0.017852736            6 
 1052000   0.84174028    -8.094817    228.09525  0.018068382  0.017838197            3 
 1053000   0.83227924   -8.0845638     228.2469  0.018063224  0.017823616            3 
 1054000   0.84736741   -8.1071096    228.38021  0.018056626  0.017809166            3 
 1055000   0.83914617   -8.1573454    228.43144  0.018043558  0.017794611            6 
 1056000   0.83073363   -8.1234624    228.29135  0.018015416  0.017780014            4 
 1057000   0.82356972   -8.1269824    227.73517  0.017954523  0.017765324            2 
 1058000   0.83009456   -8.1481694    227.68311  0.017933453  0.017750585            6 
 1059000   0.84795762   -8.1208876    228.68687  0.017995505  0.017735884            2 
 1060000   0.82260902    -8.150234    228.35467  0.017952412   0.01772126            3 
 1061000    0.8478591   -8.1328651    228.11711  0.017916832  0.017706617            6 
 1062000   0.82546222   -8.1439553    228.16816  0.017903967  0.017691874            3 
 1063000   0.83988474   -8.1409133    227.94142  0.017869349  0.017677253            3 
 1064000   0.84386638   -8.1266099    228.49189  0.017895668  0.017662707            2 
 1065000   0.84378596    -8.163809    227.76147  0.017821711  0.017648209            4 
 1066000    0.8320691   -8.1440425    228.31465  0.017848237  0.017633624            5 
 1067000   0.83047688   -8.1535564    229.00894  0.017885734  0.017619046            4 
 1068000   0.84847813   -8.1395103    228.29434  0.017813229  0.017604469           13 
 1069000   0.83216289   -8.1124248    229.15209  0.017863431  0.017589985            7 
 1070000   0.83704511   -8.1505967    229.15458   0.01784693  0.017575624            2 
 1071000   0.80342997   -8.1471859    228.88485  0.017809279  0.017561227            2 
 1072000   0.82008864   -8.1677805    229.44531  0.017836234  0.017546765            3 
 1073000   0.81794606   -8.1668379    229.07435    0.0177908  0.017532341            2 
 1074000   0.81846828    -8.157332    228.55532  0.017733964  0.017517929            1 
 1075000   0.81578478   -8.1427591    229.26881  0.017772776  0.017503565            2 
 1076000   0.81916676   -8.1068061    229.78891  0.017796539  0.017489316            4 
 1077000     0.826782   -8.1275216    229.04666  0.017722583  0.017475042            4 
 1078000    0.8160246   -8.1116732    229.58398  0.017747679   0.01746077            1 
 1079000   0.81660546   -8.1429071    229.58545  0.017731345  0.017446614            3 
 1080000   0.81490224   -8.1498855    229.37462  0.017698659  0.017432405            2 
 1081000   0.83008316   -8.1290049    229.38361  0.017682979  0.017418105            2 
 1082000   0.82530865     -8.18196    229.05941  0.017641668  0.017403761            2 
 1083000   0.81405044   -8.1403918    229.60141  0.017667083  0.017389458            3 
 1084000   0.82302455   -8.1763741    228.82228  0.017590888  0.017375105            1 
 1085000   0.80142771   -8.1758068    229.50837  0.017627371   0.01736076            4 
 1086000   0.82828866   -8.1344516    229.42894  0.017605045   0.01734645            5 
 1087000   0.80917202   -8.1422368     230.0654  0.017637642  0.017332105            3 
 1088000   0.82230355   -8.1555757    229.94332   0.01761208  0.017317803            1 
 1089000   0.81007752   -8.1376117    230.35168  0.017627157  0.017303506            4 
 1090000   0.81596721   -8.1688279    230.08606  0.017590677  0.017289267            5 
 1091000   0.81950425   -8.1642968    229.46864  0.017527394  0.017274975            2 
 1092000   0.82868404   -8.1517383    229.84692  0.017540211  0.017260681            2 
 1093000   0.81447368   -8.1616157    230.08005  0.017541938  0.017246405            1 
 1094000   0.81159515   -8.1730895    230.12741   0.01752951  0.017232159            2 
 1095000   0.81733434   -8.1669987    230.18642  0.017517993  0.017218013            2 
 1096000   0.80535415    -8.210697    229.89228  0.017479644  0.017203754            1 
 1097000   0.81172954   -8.1770454    230.01427  0.017472977  0.017189462            5 
 1098000   0.82430187   -8.1635367    230.08199  0.017462203  0.017175141            3 
 1099000   0.82916403   -8.1634833     230.3315  0.017465234  0.017160842            3 
 1100000   0.82374492   -8.1639022     229.3822   0.01737744  0.017146507            4 
 1101000   0.81069944   -8.1568582    230.06653  0.017413452  0.017132133            2 
 1102000   0.82706124   -8.1805329    229.71358   0.01737096  0.017117828            2 
 1103000   0.79906108   -8.1851996    230.22383  0.017393762  0.017103509            6 
 1104000   0.79604254   -8.1278734    230.26667   0.01738124  0.017089264            6 
 1105000   0.80777067   -8.1636124    230.44567   0.01737901   0.01707511            1 
 1106000   0.82258817   -8.1585619    230.30969  0.017353051   0.01706099            1 
 1107000   0.79857115   -8.1656752    230.92557  0.017383738  0.017046911            3 
 1108000   0.82428396   -8.1955518    231.10906  0.017381849  0.017032894            2 
 1109000   0.82119139   -8.1974034    231.05715  0.017362275  0.017018909            2 
 1110000   0.81137244   -8.1785086    231.12413  0.017351661  0.017004989            2 
 1111000   0.80049942   -8.2080217    230.95355  0.017323249  0.016991052            4 
 1112000     0.822668   -8.1824673    230.92927  0.017305851  0.016977043            3 
 1113000    0.7974585   -8.1887401    230.80914  0.017281307  0.016963115            9 
 1114000   0.81878879    -8.212859    230.20194  0.017220372  0.016949106            5 
 1115000   0.80989996   -8.1956863    230.13907   0.01720023  0.016935052            3 
 1116000   0.81960878   -8.2047901    231.16166  0.017261175  0.016920954            3 
 1117000   0.81648085   -8.2219652    230.69225  0.017210702  0.016906784            4 
 1118000   0.81004117   -8.1771998     231.5547  0.017259593  0.016892709            1 
 1119000   0.81829488   -8.1901526    230.66212  0.017177697  0.016878648            3 
 1120000   0.81920227    -8.200711    231.08206  0.017193606  0.016864513            2 
 1121000   0.81806308   -8.2239625    230.89922  0.017164676  0.016850396            7 
 1122000   0.80719098   -8.2380289    230.68373  0.017133373  0.016836197            4 
 1123000   0.80607768   -8.2135787    231.00559     0.017142  0.016822036            1 
 1124000   0.80176323   -8.1957816    230.64542  0.017100046  0.016807864            4 
 1125000   0.80006822   -8.2376837    230.62496   0.01708333  0.016793663            2 
 1126000   0.80698686   -8.2129901    230.77809  0.017079491  0.016779515            1 
 1127000   0.80432787   -8.1910891    231.06036  0.017085209  0.016765397            3 
 1128000   0.81769154   -8.1855692    230.74935  0.017047086  0.016751296            2 
 1129000   0.80083524   -8.1902904    230.99425  0.017050063  0.016737183            4 
 1130000   0.80140984   -8.1816884    230.84787  0.017024179  0.016723048            5 
 1131000   0.80410193   -8.1851821    231.00228  0.017020504  0.016709004            4 
 1132000   0.79078792   -8.2221118    230.99173  0.017004691  0.016694944            2 
 1133000   0.79224676   -8.2207902    230.95499  0.016986981   0.01668086            1 
 1134000   0.79907382   -8.1888623    231.05866  0.016979619  0.016666691            1 
 1135000    0.7834918   -8.1693489    231.43522  0.016992307  0.016652636            2 
 1136000   0.79107993    -8.231261    230.36094  0.016898543  0.016638546            2 
 1137000     0.799476   -8.2285638    231.35616  0.016956623  0.016624482            2 
 1138000   0.77542898   -8.1953078    231.26794  0.016935262  0.016610441            3 
 1139000   0.80603264   -8.2186198    230.87498  0.016891643  0.016596387            2 
 1140000    0.8056125   -8.2169414    231.38683  0.016914242  0.016582398            2 
 1141000   0.77620628   -8.2380602    230.60776  0.016842518  0.016568445            3 
 1142000   0.80417009   -8.2424541    231.15344  0.016867589  0.016554407            2 
 1143000   0.81134319   -8.2207196    231.28723  0.016862586  0.016540421            3 
 1144000   0.81000271   -8.2112407    231.67092  0.016875795  0.016526393            1 
 1145000   0.79429773   -8.2255279    231.50009  0.016848624  0.016512473            1 
 1146000   0.80124175   -8.2501361    231.01981  0.016798998  0.016498498            1 
 1147000   0.78556322   -8.2210613    231.99203  0.016854986  0.016484578            1 
 1148000   0.79090127   -8.2276472    231.58435  0.016810711  0.016470676            2 
 1149000   0.80667615   -8.2145032    231.21922  0.016769598  0.016456737            1 
 1150000   0.79000989    -8.239812    231.53878  0.016778173   0.01644276            2 
 1151000   0.79630157   -8.2470355    231.74926  0.016778834  0.016428825            5 
 1152000   0.79676265   -8.2388532    231.19093  0.016723881  0.016414877            2 
 1153000   0.81240946   -8.2428167    231.44319  0.016727609  0.016400921            5 
 1154000   0.81876919   -8.2500204     231.6699  0.016729484  0.016386896            2 
 1155000   0.79252158   -8.2645197    231.09257  0.016673346  0.016372923            2 
 1156000   0.77935572   -8.2610847    231.09768  0.016659291   0.01635894            2 
 1157000   0.79788861   -8.2672573    231.10349   0.01664531  0.016344954            2 
 1158000   0.77661846   -8.2248094    231.42709  0.016654224  0.016331043            1 
 1159000   0.78337114   -8.2305137    231.67275  0.016657517  0.016317159            2 
 1160000   0.78888952    -8.226555     231.4647  0.016628211  0.016303311            2 
 1161000   0.79238753    -8.234652    231.71242   0.01663167  0.016289518            2 
 1162000   0.79738498   -8.2340748    231.28822  0.016586935  0.016275696            2 
 1163000   0.80037638   -8.2517293    231.85577   0.01661334  0.016261908            3 
 1164000   0.79093297   -8.2468401    232.14546  0.016619807  0.016248106            3 
 1165000   0.80026986   -8.2441335     232.2266  0.016611345  0.016234357            2 
 1166000   0.78297076   -8.2550251    231.54864  0.016548645  0.016220696            5 
 1167000   0.79777741   -8.2430789    231.85941  0.016556656  0.016206972            2 
 1168000   0.77479152   -8.2607664    232.03784  0.016555211  0.016193261            3 
 1169000   0.79063947   -8.2368532    232.39777  0.016566707  0.016179669            2 
 1170000   0.78332215   -8.2670067    232.18755  0.016537574  0.016166038            2 
 1171000   0.79057569    -8.217397    232.38317  0.016537374  0.016152456            2 
 1172000   0.78828111   -8.2812932    232.00835  0.016496612  0.016138862            6 
 1173000   0.79217493   -8.2473586    232.27383  0.016501409  0.016125231            1 
 1174000   0.79771611   -8.2629101    232.46882  0.016501194  0.016111538            2 
 1175000   0.78556078   -8.2489994    232.41263  0.016483165  0.016097868            3 
 1176000   0.80125409   -8.2632427    232.43819   0.01647096  0.016084228            4 
 1177000   0.78728619   -8.2432639    232.95699  0.016493698  0.016070589            3 
 1178000   0.78612204    -8.241995    232.35688  0.016437244  0.016056967            2 
 1179000   0.79249601   -8.2654627    232.78592  0.016453628  0.016043369            2 
 1180000   0.80139902   -8.2727077    232.58812  0.016425715  0.016029792            1 
 1181000   0.77255969   -8.2442024      232.841   0.01642965  0.016016151            2 
 1182000   0.78396381   -8.2382862    232.53245  0.016393997  0.016002588            2 
 1183000   0.78641813   -8.2591034    233.11799  0.016421386  0.015989087            3 
 1184000   0.78329879    -8.234462     232.7982  0.016385009  0.015975633            2 
 1185000   0.77113294   -8.2459209    233.19396  0.016399012  0.015962169            1 
 1186000   0.77401478   -8.2658844    233.32873  0.016394655  0.015948671            2 
 1187000   0.76717445   -8.2722584    232.57355  0.016327825  0.015935197            3 
 1188000    0.7895331   -8.2748045    233.03848  0.016346695  0.015921725            2 
 1189000   0.77169813   -8.2800637    232.89364  0.016322795  0.015908321            6 
 1190000   0.79203085   -8.2880015    232.87371  0.016307683  0.015894892            2 
 1191000   0.77363741   -8.2567882    232.86244  0.016293202  0.015881417            5 
 1192000   0.79474995   -8.3148088    232.96031  0.016286375  0.015867964            2 
 1193000   0.78069471   -8.3007654    233.12821  0.016284452  0.015854469            1 
 1194000   0.75904536    -8.266584    232.73377  0.016243284  0.015840979            2 
 1195000    0.7758811   -8.2514407    233.29043   0.01626851  0.015827522            3 
 1196000   0.77342796   -8.3201463    232.58353  0.016205653  0.015814081            1 
 1197000   0.77322162    -8.309942    232.88733  0.016213265  0.015800581            1 
 1198000   0.78733474   -8.2858742    232.84201  0.016196578   0.01578708            2 
 1199000   0.77827619   -8.2853964    233.01528  0.016195113  0.015773606            3 
 1200000   0.76763705   -8.2826353    233.01471  0.016181577  0.015760153            1 
 1201000   0.76913322   -8.2890122    232.82931  0.016155239  0.015746686            2 
 1202000   0.77625218   -8.2690955    233.17664  0.016165879  0.015733243            1 
 1203000   0.80113047     -8.30416    232.96354   0.01613768  0.015719785            8 
 1204000   0.78204549    -8.312791    232.71955  0.016107388  0.015706272            6 
 1205000   0.77491583   -8.3061852    232.47369  0.016077019  0.015692738            6 
 1206000   0.78038972   -8.3220296    232.67724  0.016077753  0.015679197            3 
 1207000   0.76831944   -8.2835097    233.14535  0.016096752  0.015665718            2 
 1208000    0.7648267   -8.2793261    232.79806  0.016059468  0.015652271            2 
 1209000   0.76596961    -8.277723    233.29303  0.016080303  0.015638897            3 
 1210000   0.77021844   -8.3015878    232.73294   0.01602844  0.015625437            3 
 1211000   0.78378756   -8.3258914    232.67794  0.016011419  0.015611995            3 
 1212000   0.77054382   -8.2910324    233.82324  0.016076955  0.015598615            5 
 1213000    0.7800379   -8.2999421    233.22899  0.016022876  0.015585171            3 
 1214000   0.77938998   -8.2993748    232.84136   0.01598307  0.015571807            3 
 1215000   0.75746361   -8.2964749    233.08597  0.015986692  0.015558427            3 
 1216000   0.76662647   -8.3019502    233.56838  0.016006605  0.015545042            4 
 1217000   0.76206895   -8.2938811    233.38462  0.015980869  0.015531655            4 
 1218000    0.7667622   -8.3217179    233.12832  0.015950214  0.015518279            2 
 1219000   0.76428652   -8.2895715    233.46199  0.015959939  0.015504952            2 
 1220000   0.77449216   -8.3037719    233.04214  0.015918179   0.01549162            2 
 1221000   0.78275615   -8.2974919     233.1653  0.015913548  0.015478335            4 
 1222000   0.77064872   -8.3010433    232.81616  0.015876716  0.015464996            4 
 1223000   0.77071326   -8.3252689    232.93372  0.015871744    0.0154516            3 
 1224000   0.78051136   -8.2821866    233.17769  0.015875387  0.015438204            2 
 1225000   0.77572498   -8.3225076    232.98695  0.015849453  0.015424871            3 
 1226000   0.76434376   -8.2844834    233.07369   0.01584242  0.015411476            3 
 1227000   0.75677532   -8.3025109    233.34503  0.015847937  0.015398062            4 
 1228000   0.77964905   -8.3012096    232.56868  0.015782348  0.015384656            1 
 1229000   0.75202438   -8.3114865    233.00575  0.015799142   0.01537125            3 
 1230000   0.74677156   -8.3101324    233.01405   0.01578686  0.015357853            2 
 1231000    0.7667994   -8.3491831    232.42662  0.015734269  0.015344445            4 
 1232000   0.77548667   -8.3291131    233.09859   0.01576695  0.015330999            3 
 1233000   0.74347492   -8.3564872    232.32947  0.015702181  0.015317569            3 
 1234000   0.76424053   -8.3459293     233.0558  0.015738506  0.015304165            5 
 1235000   0.75254886   -8.3065011    232.77555  0.015706852   0.01529077            2 
 1236000   0.76795518   -8.3471355    232.97486  0.015707583  0.015277374            2 
 1237000   0.75680737   -8.3395604    233.37448  0.015721805  0.015264034            2 
 1238000   0.75705873   -8.2924039    233.31128  0.015704852  0.015250734            7 
 1239000   0.75930788   -8.3488107    232.57514  0.015642665  0.015237421            3 
 1240000   0.75926487   -8.3382066    233.09085  0.015664708  0.015224131            2 
 1241000   0.74998743   -8.3345167    232.87551  0.015637625   0.01521077            1 
 1242000    0.7719587   -8.3348868    232.96545  0.015631069  0.015197403            5 
 1243000   0.74931277   -8.3493519    232.66945  0.015598649  0.015184056            3 
 1244000   0.76278914   -8.3525121    233.01161  0.015609031  0.015170755            2 
 1245000   0.75553772   -8.3296432    232.38578  0.015554604  0.015157505            2 
 1246000   0.75212147   -8.3454305    232.98197  0.015581994  0.015144261            2 
 1247000   0.75862355   -8.3157134    233.11067  0.015578099  0.015131099            4 
 1248000   0.75118483   -8.3154096    232.87409  0.015549819  0.015117939            4 
 1249000   0.75998264   -8.3339291    233.33305  0.015567991  0.015104768            1 
 1250000   0.76471046   -8.3347431    233.68588  0.015579058  0.015091576            2 
 1251000   0.76370446   -8.3340523    233.55973  0.015558202  0.015078442            2 
 1252000   0.74359651   -8.3463656    233.26179  0.015525945   0.01506529            1 
 1253000    0.7468989   -8.3653881    233.22478  0.015511092  0.015052131            1 
 1254000   0.73743126   -8.3654461    233.27649  0.015502159     0.015039            5 
 1255000   0.75318368   -8.3535764    233.72791  0.015519782  0.015025896            2 
 1256000   0.74431474   -8.3630695    233.39155  0.015485108   0.01501279            3 
 1257000   0.77466131   -8.3500008    233.39365  0.015472928  0.014999715            6 
 1258000   0.75891695   -8.3529386    233.67284  0.015479123  0.014986662            1 
 1259000    0.7345358   -8.3324185    233.80294  0.015475439  0.014973625            1 
 1260000   0.75733669   -8.3648374    233.69252  0.015455855  0.014960566            1 
 1261000   0.74473993   -8.3620564    233.44263  0.015427083  0.014947535            1 
 1262000   0.74330679   -8.3445708    233.74064  0.015434538  0.014934561            2 
 1263000   0.76006393   -8.3297731    233.40655  0.015400274  0.014921614            2 
 1264000   0.76242751   -8.3435307    233.87666  0.015419083  0.014908668            2 
 1265000   0.75489239   -8.3644374    233.16302  0.015359883  0.014895723            1 
 1266000   0.74439477   -8.3588391    233.65414  0.015380078  0.014882722            2 
 1267000   0.73785564   -8.3560739    233.95246   0.01538756  0.014869783            3 
 1268000   0.73486346   -8.3208924    234.31484   0.01539924  0.014856905            2 
 1269000   0.76493669   -8.3526953    233.42223  0.015328489  0.014844007            1 
 1270000   0.75406445   -8.3229045    233.60594  0.015328474  0.014831163            3 
 1271000   0.74403435   -8.3344709    234.31568  0.015362948  0.014818298            3 
 1272000   0.73684087   -8.3463285    234.08307  0.015335631  0.014805477            1 
 1273000   0.78196817   -8.3384037    233.91464  0.015312558  0.014792671            7 
 1274000   0.74419621   -8.3280996     234.2077  0.015319708  0.014779891            5 
 1275000   0.73364444   -8.3496307    233.67729  0.015273026  0.014767068            2 
 1276000   0.73745741   -8.3745435    233.99801  0.015282002  0.014754175            3 
 1277000   0.75975643   -8.3590269    234.00782  0.015270675  0.014741276            2 
 1278000   0.74650639   -8.3712779    233.53777  0.015228076  0.014728387           10 
 1279000   0.74575481   -8.3829077    233.95553  0.015243389  0.014715511            7 
 1280000   0.72982837   -8.3954477     233.4721  0.015200006    0.0147026            5 
 1281000     0.742519   -8.3851425    233.37504  0.015181826  0.014689728            2 
 1282000    0.7706509   -8.3947388    234.05685  0.015214304  0.014676883            3 
 1283000    0.7382857   -8.3536862    233.44376  0.015162624  0.014664059            3 
 1284000   0.73331355   -8.3737815    234.38366  0.015211816  0.014651262            4 
 1285000   0.74123159   -8.3847999    234.09049  0.015180966  0.014638502            3 
 1286000   0.75161611   -8.3794508    234.16156  0.015173766  0.014625775            3 
 1287000   0.73178946   -8.3818596     234.2675  0.015168836  0.014613098            2 
 1288000   0.72481472   -8.3739058    233.60644  0.015114288  0.014600349            5 
 1289000    0.7360315   -8.3528532    234.22428  0.015142506  0.014587643            3 
 1290000    0.7401372   -8.3654467    234.80491  0.015168276   0.01457499            6 
 1291000   0.77207031    -8.374026    234.30692  0.015124382  0.014562343            3 
 1292000   0.73956988   -8.3665812    234.31585  0.015113252  0.014549689            4 
 1293000   0.73750421     -8.39351    233.99357  0.015080792  0.014537074            1 
 1294000   0.73772539   -8.4213468     233.9988  0.015069474  0.014524409            2 
 1295000   0.72358324    -8.402727    233.60096  0.015032237  0.014511724            2 
 1296000   0.72834675   -8.4171173    234.41037  0.015072683  0.014499053            1 
 1297000   0.73412021   -8.4180832    233.96202  0.015032255  0.014486369            2 
 1298000   0.73564789   -8.3782599    234.63656   0.01506398  0.014473752            1 
 1299000   0.72734074   -8.3778312    234.48458  0.015042634  0.014461161            2 
 1300000   0.74823446   -8.3935809    234.39819  0.015025525  0.014448592            6 
 1301000   0.72648185   -8.4110393    234.64456  0.015029757   0.01443603            4 
 1302000   0.74017068   -8.4408793    234.04172  0.014979629  0.014423443            2 
 1303000   0.73058132   -8.4037712    234.35681  0.014988284  0.014410853            2 
 1304000   0.73311318    -8.404189    233.93221  0.014949656  0.014398248            3 
 1305000   0.73134532   -8.4296488    234.31389  0.014962573  0.014385604            2 
 1306000   0.73162045   -8.4212123     234.3867  0.014955762  0.014372978            3 
 1307000   0.72749063    -8.416911    234.04029  0.014922232  0.014360322            3 
 1308000   0.72320128   -8.4182945    233.46493  0.014874167  0.014347624            2 
 1309000   0.72353824   -8.4146444     233.8536  0.014887547  0.014334952            4 
 1310000   0.74222085    -8.422047    233.11314   0.01482908  0.014322265            3 
 1311000   0.72097188   -8.4108021      233.578  0.014847317  0.014309579            6 
 1312000   0.71798594   -8.3973164    233.72473  0.014845321  0.014296923            5 
 1313000   0.70518257   -8.4257397     233.5787  0.014824746  0.014284275            1 
 1314000   0.72992467    -8.411129    233.95932  0.014837603  0.014271646            3 
 1315000   0.71910414   -8.4133827    233.66182  0.014807466  0.014259042            2 
 1316000   0.73204776   -8.4375975    233.95564   0.01481482  0.014246445            2 
 1317000   0.72392355   -8.4099977    233.80865   0.01479427  0.014233852            1 
 1318000   0.72052357     -8.43573    234.03048  0.014797072  0.014221274            4 
 1319000   0.71848835   -8.4221094     234.0319  0.014785943  0.014208686            3 
 1320000   0.73725905   -8.3953019    234.07532  0.014777482  0.014196147            1 
 1321000   0.73423886   -8.4241333    234.38773  0.014786004  0.014183608            6 
 1322000   0.73198235   -8.4391173    234.47718  0.014780458  0.014171103            2 
 1323000   0.71765918     -8.41793    234.26227  0.014755749  0.014158597            5 
 1324000   0.72107032   -8.4311861     234.2342  0.014742837  0.014146096            2 
 1325000   0.72843361    -8.442298    233.82258  0.014705823  0.014133584            2 
 1326000   0.73267764   -8.4185871    233.42648  0.014669839  0.014121088            5 
 1327000   0.70927655    -8.433438    233.43757   0.01465948  0.014108562            2 
 1328000   0.73676679   -8.4580685    233.80961  0.014671788  0.014096042            4 
 1329000   0.71670963   -8.4608309    234.15725  0.014682546  0.014083539            4 
 1330000   0.72295102   -8.4484259    233.99982  0.014661643  0.014071071            1 
 1331000   0.71575581   -8.4742981    233.80869  0.014638661  0.014058586            2 
 1332000   0.72890186   -8.4508763    233.65465  0.014618034  0.014046074            3 
 1333000   0.72190448   -8.4723833    233.72822  0.014611667  0.014033586            2 
 1334000   0.71283419   -8.4655925    233.86172  0.014609053  0.014021072            1 
 1335000   0.71581172   -8.4520511    233.41057  0.014569948  0.014008574            2 
 1336000   0.70371015   -8.4646948    234.08986  0.014601414  0.013996111            3 
 1337000   0.72432523   -8.4488262    234.04719  0.014587833  0.013983638            4 
 1338000   0.71978078    -8.450029      233.851  0.014564711  0.013971197            2 
 1339000   0.70867685   -8.4631685    233.81755  0.014551752  0.013958762            3 
 1340000   0.72713084   -8.4596466    233.05736  0.014493617  0.013946331            3 
 1341000   0.72616111   -8.4870153    233.45848  0.014507736  0.013933933            4 
 1342000   0.70995708   -8.4689661    233.52031  0.014500765  0.013921533            3 
 1343000   0.69664864   -8.4435926    234.51353  0.014551597   0.01390917            1 
 1344000   0.70948567    -8.442109    234.09047  0.014514538  0.013896809            1 
 1345000   0.70868301   -8.4585967    233.99681  0.014497944  0.013884451            4 
 1346000   0.69975536   -8.4711457    233.75125  0.014471969  0.013872097            3 
 1347000   0.70599811   -8.4562501    234.00178  0.014476725  0.013859749            3 
 1348000   0.71288967   -8.4483298    234.45561  0.014494041  0.013847451            2 
 1349000    0.7181135   -8.4461154     234.0124  0.014455918  0.013835167            5 
 1350000   0.69810682   -8.4653982    233.99454  0.014444107  0.013822865            3 
 1351000   0.71169816   -8.4714092    234.13745  0.014442231  0.013810589            2 
 1352000   0.72132457   -8.4692508    234.09979  0.014429227  0.013798296            2 
 1353000     0.709606   -8.4856811    233.94474  0.014409013  0.013785948            3 
 1354000   0.71327325   -8.4758153    234.12157  0.014409255  0.013773639            2 
 1355000   0.72309277   -8.4797885    233.36598  0.014352151  0.013761285            4 
 1356000   0.73051681   -8.4872617    233.24008   0.01433383  0.013748978            3 
 1357000   0.72131995   -8.4675429     233.5812  0.014344215  0.013736694            1 
 1358000   0.71060423    -8.478726    233.81531  0.014348019  0.013724423            1 
 1359000   0.70888689   -8.4854843    234.23131  0.014362969  0.013712122            4 
 1360000    0.7087506   -8.4845922    233.61096  0.014314397  0.013699883            2 
 1361000    0.7102301   -8.4624049     233.9881  0.014326972  0.013687647            3 
 1362000    0.7098012   -8.4540444    233.95408  0.014314371  0.013675415            1 
 1363000   0.70599075    -8.492739    234.34647  0.014327859  0.013663209            3 
 1364000    0.6974915   -8.4978718    233.65491  0.014275105  0.013650996            2 
 1365000   0.70507864    -8.449142    233.22196  0.014238215  0.013638822            2 
 1366000       0.7221   -8.4896841     234.1834  0.014286444  0.013626622            3 
 1367000   0.71934347   -8.5104312    234.08748  0.014270147  0.013614439           12 
 1368000   0.71202431   -8.4882822    233.63993  0.014232452  0.013602218            3 
 1369000   0.70627638   -8.4764242    234.18239  0.014255076  0.013590045            6 
 1370000   0.70666782   -8.5032053    234.04902  0.014236558  0.013577933            4 
 1371000   0.71058334   -8.5292467    233.72462  0.014206456  0.013565789            1 
 1372000   0.70728186   -8.4894652    233.65183  0.014191681  0.013553618            1 
 1373000   0.69913585    -8.489118    233.61974  0.014179396  0.013541463            4 
 1374000   0.71094088   -8.5034946    233.69797  0.014173821  0.013529299            3 
 1375000   0.70701726   -8.5260965    233.66994  0.014161814  0.013517132            2 
 1376000   0.71269681   -8.4880778    233.85843  0.014162938  0.013504986            2 
 1377000    0.7150772   -8.4977419    233.62441   0.01413849  0.013492882            3 
 1378000   0.69585339   -8.5032077    233.17339  0.014100955  0.013480771            2 
 1379000   0.71137698   -8.5136111    233.44606  0.014107207  0.013468642            2 
 1380000   0.70794679   -8.5341972    233.43994  0.014096615   0.01345647            1 
 1381000   0.70623059   -8.4943564     233.2021  0.014072055  0.013444315            1 
 1382000   0.70414343   -8.5068596    233.66393  0.014089721  0.013432194            3 
 1383000   0.69916639   -8.4987576    233.45585  0.014066995  0.013420085            2 
 1384000   0.69175799    -8.489578    233.79951  0.014077523  0.013407977            8 
 1385000   0.68364394   -8.5060652    233.87164  0.014071699  0.013395894            5 
 1386000   0.67762904   -8.5033518    232.92308  0.014004514  0.013383796            2 
 1387000   0.69515179   -8.5421965    233.39946  0.014023039  0.013371704            1 
 1388000   0.69384257   -8.5092041    233.16646  0.013998947  0.013359657            1 
 1389000   0.70928192   -8.5024978    233.43864  0.014005198   0.01334759            5 
 1390000    0.6964583   -8.4983744    233.75045  0.014013816   0.01333555            5 
 1391000   0.70693595   -8.5158336    233.90849   0.01401321  0.013323545            5 
 1392000   0.69012426   -8.5213031    233.65594  0.013988023  0.013311537            8 
 1393000   0.69734973   -8.4971693    233.39398   0.01396231   0.01329951            6 
 1394000   0.71379162   -8.5192519    233.36389  0.013950496   0.01328753            5 
 1395000    0.6868191    -8.501142    233.70959  0.013961146  0.013275562            6 
 1396000   0.70633596   -8.5549373    233.48253  0.013937591  0.013263594            3 
 1397000   0.70570103   -8.5378128    233.33657  0.013918908  0.013251603            2 
 1398000   0.69128552   -8.5260166    233.16822  0.013898916  0.013239612            4 
 1399000   0.70417137   -8.5362692    233.37444  0.013901265  0.013227643            2 
 1400000   0.69615345   -8.5549428    233.61613  0.013905722  0.013215673            3 
 1401000   0.70265615   -8.5289472    233.02901  0.013860874  0.013203707            2 
 1402000   0.70031084   -8.5064684    233.44444   0.01387568  0.013191767            2 
 1403000   0.69673795   -8.5037483    232.98289  0.013838376  0.013179851            2 
 1404000   0.70079748   -8.5198893    233.18828   0.01384071  0.013167924            3 
 1405000    0.6872315   -8.5541384    233.03177  0.013821576  0.013155955            3 
 1406000   0.66898777   -8.5069699    233.61797  0.013846489     0.013144            2 
 1407000    0.7061021   -8.5488906    232.80181  0.013788309   0.01313205            6 
 1408000   0.67998652   -8.5481518    233.08312  0.013795166  0.013120101            3 
 1409000   0.70682715   -8.5554085     232.9735  0.013778892  0.013108157            3 
 1410000   0.68731978   -8.5290644    233.19633  0.013782289  0.013096222            2 
 1411000   0.69196278   -8.5616169    233.02914  0.013762647  0.013084304            1 
 1412000   0.67855378   -8.5575686    233.13773  0.013759309   0.01307237            5 
 1413000   0.68587224   -8.5294458    232.75168  0.013726804  0.013060463            3 
 1414000   0.68950275   -8.5331015    233.30571  0.013749747  0.013048573            6 
 1415000   0.68570209    -8.562533    233.11251  0.013728652  0.013036691            3 
 1416000   0.68688398   -8.5552165    233.24787  0.013726923  0.013024803            4 
 1417000   0.68262715     -8.52167    233.06791  0.013706652  0.013012957            2 
 1418000   0.68328419   -8.5327552    233.43731  0.013718695  0.013001138            2 
 1419000   0.68827158   -8.5485424     232.8479  0.013674413  0.012989321            2 
 1420000   0.68830147   -8.5425537      233.076  0.013678169  0.012977491            2 
 1421000   0.66414239   -8.5458535    233.01383  0.013664897  0.012965685            2 
 1422000   0.68638731   -8.5323458    233.49367  0.013683408  0.012953889            3 
 1423000   0.68447576   -8.5245336    232.82519  0.013634645  0.012942103            4 
 1424000   0.69317142   -8.5431305    233.47543  0.013663122  0.012930347            1 
 1425000   0.68186683    -8.559799    233.34187  0.013645723  0.012918582            2 
 1426000   0.68851615   -8.5545034    233.24605  0.013630555  0.012906825            8 
 1427000   0.69003105   -8.5667704     232.7012  0.013589185  0.012895043            4 
 1428000   0.66983716   -8.5611779    232.66611  0.013577621  0.012883272            2 
 1429000   0.69123773   -8.5548111    233.50511  0.013617046  0.012871568            2 
 1430000   0.67449629   -8.5632526    233.20101  0.013589803   0.01285988            1 
 1431000   0.68211666   -8.5580186    233.23024  0.013582008   0.01284817            4 
 1432000   0.67230313   -8.5469117    233.04117   0.01356152    0.0128365            3 
 1433000   0.66766096   -8.5626534    232.74273  0.013534702  0.012824821            5 
 1434000   0.67382776   -8.5494732     233.0897  0.013545427  0.012813133            3 
 1435000   0.68540719   -8.5533953    232.55337  0.013504841  0.012801453            3 
 1436000   0.67652722    -8.574624    233.11922  0.013528274   0.01278978            4 
 1437000   0.66807296   -8.5910907    232.77587  0.013498949  0.012778097            2 
 1438000   0.67586735   -8.5807465    233.04803  0.013505333  0.012766417            2 
 1439000    0.6698457    -8.594998    232.65668  0.013473284   0.01275473            1 
 1440000   0.68837437   -8.5662005    232.87854  0.013476767  0.012743047            7 
 1441000   0.68399336   -8.6113403    232.84493  0.013465471  0.012731415            1 
 1442000   0.67065795   -8.5461849    233.26192  0.013480231  0.012719795            5 
 1443000   0.67513514     -8.57663    232.87514  0.013448553  0.012708149            1 
 1444000   0.67711844    -8.577567     232.7604  0.013432618  0.012696537            1 
 1445000   0.67257176   -8.5610605    232.78309   0.01342463   0.01268494            2 
 1446000   0.68228603   -8.5784612    232.49517  0.013398754  0.012673351            1 
 1447000    0.6858198   -8.5736285    232.84948  0.013409899  0.012661763            1 
 1448000   0.68675721    -8.566739    232.21922  0.013364366  0.012650198            1 
 1449000   0.67448757   -8.5794583    232.19036  0.013353483  0.012638629            1 
 1450000    0.6757367   -8.5701899    232.77568  0.013377913  0.012627066            3 
 1451000   0.66794863   -8.5781496    233.36906  0.013402772  0.012615546            4 
 1452000   0.67755243   -8.5850468    232.79726  0.013360724  0.012604054            3 
 1453000   0.67638819   -8.5692485    233.36279  0.013383964  0.012592589            3 
 1454000   0.67744099   -8.5999106    232.63805  0.013333221   0.01258112            2 
 1455000   0.67659628   -8.5698252    232.97433  0.013343318   0.01256965            2 
 1456000   0.67136965   -8.5568175    232.92364  0.013331252  0.012558201            4 
 1457000   0.67791307   -8.5757668    233.13335  0.013334097  0.012546761            3 
 1458000   0.65625391   -8.5924086    233.06794  0.013321213  0.012535317            3 
 1459000   0.66371482   -8.5854564    232.76698  0.013294893  0.012523869            3 
 1460000   0.67319813   -8.5893475    232.81922  0.013288768  0.012512426            2 
 1461000   0.66919942   -8.5663522     232.8691  0.013282518  0.012500989            6 
 1462000   0.67399673   -8.5845443    232.64321  0.013260557  0.012489575            4 
 1463000   0.66502231   -8.5826381    232.78568  0.013259608  0.012478176            2 
 1464000   0.66721799   -8.5789645    233.10557  0.013268759  0.012466818            3 
 1465000   0.68205294   -8.5567826    232.51175  0.013225924  0.012455477            3 
 1466000   0.66852325   -8.5873071    232.76116   0.01323108  0.012444145            4 
 1467000   0.66973179   -8.5857899    232.95228  0.013232918  0.012432812            3 
 1468000   0.67584559    -8.598984    232.66523  0.013207608  0.012421484            2 
 1469000   0.66853721   -8.5913761    233.31988  0.013235754  0.012410142            3 
 1470000   0.66257399   -8.6152863    232.72208  0.013192862  0.012398803            4 
 1471000   0.66328771   -8.5905607    233.24473  0.013213501  0.012387484            3 
 1472000   0.66955809   -8.6076812     232.5439  0.013164849  0.012376186            3 
 1473000   0.67720235   -8.6004303    232.66339  0.013162672  0.012364881            5 
 1474000   0.67643145    -8.620243    232.39203  0.013138401  0.012353572            2 
 1475000   0.67497195   -8.6080632    232.35823  0.013127584   0.01234227            2 
 1476000   0.66286822   -8.5835843    232.70874  0.013138479   0.01233099            3 
 1477000   0.65482731   -8.5726935    232.66489  0.013127109  0.012319727            2 
 1478000   0.66516153   -8.6106973    233.24045   0.01315068    0.0123085            4 
 1479000    0.6728709   -8.5992504    233.05588  0.013131388  0.012297305            5 
 1480000   0.65622302   -8.6053765    232.89479  0.013113445  0.012286114            3 
 1481000   0.66233147   -8.6197527    232.76264  0.013097155  0.012274935            2 
 1482000   0.67061112   -8.6080662     233.1533  0.013110284  0.012263738            2 
 1483000   0.65449706   -8.6003007    232.45841  0.013062397  0.012252547            6 
 1484000   0.65843169   -8.6132681    232.76565  0.013070847  0.012241399            4 
 1485000   0.66524805   -8.6204743    232.31279  0.013036632  0.012230241            6 
 1486000   0.67225868   -8.6072493    232.13007  0.013017613  0.012219097            9 
 1487000   0.67040621   -8.6311996    232.48453  0.013028723  0.012207993            6 
 1488000   0.65098496   -8.5929698    232.89327  0.013042858  0.012196858            4 
 1489000   0.66619045     -8.62075    232.67796  0.013022048  0.012185729            3 
 1490000   0.64854712   -8.6550451     232.5211  0.013004536  0.012174611            3 
 1491000   0.66230581   -8.6389528    232.71877  0.013006862   0.01216351            4 
 1492000   0.65449122   -8.6207431    233.02392  0.013015188  0.012152412            3 
 1493000    0.6584352   -8.6591504     232.4088  0.012972136  0.012141302            2 
 1494000   0.64682074   -8.6501581    232.16824  0.012950036  0.012130195            3 
 1495000    0.6458534   -8.6119756    232.64395   0.01296789  0.012119116            4 
 1496000   0.64109945   -8.6305972    232.79966  0.012967896   0.01210805            2 
 1497000   0.64932854    -8.607928    232.82596  0.012960697  0.012096991            1 
 1498000    0.6441323   -8.6563703    232.38496  0.012927512  0.012085939            3 
 1499000   0.64348735   -8.6481721    232.38559  0.012918923  0.012074869            1 
 1500000   0.65981738   -8.6344486    232.48269  0.012915705  0.012063824            2 
 1501000   0.64486674   -8.6121974    232.32118  0.012898133  0.012052794            3 
 1502000   0.65632563   -8.6262426    232.66543  0.012908646   0.01204175            5 
 1503000   0.66625552   -8.6267627    232.66503  0.012900035  0.012030744            3 
 1504000   0.65621288   -8.6698277    232.48229  0.012881332   0.01201975            3 
 1505000   0.64511952   -8.6309875    232.73668   0.01288686  0.012008772            1 
 1506000   0.65371587   -8.6518839    232.40774  0.012860101   0.01199781            4 
 1507000   0.64908243   -8.6452302    232.35457  0.012848627  0.011986857            3 
 1508000   0.64956848   -8.6259731     232.6554  0.012856731  0.011975919            5 
 1509000   0.64758145   -8.6367975    232.46928  0.012837933  0.011964988            4 
 1510000   0.66713934   -8.6382144    232.50557  0.012831433  0.011954071            2 
 1511000   0.66730156   -8.6308881     232.8906  0.012844176  0.011943177            6 
 1512000   0.63968954   -8.6436603    232.37249  0.012807126  0.011932296            1 
 1513000   0.65362719   -8.6472218    232.41849  0.012801195  0.011921418            4 
 1514000   0.64031343   -8.6383675    232.72765  0.012809756   0.01191054            3 
 1515000   0.65227669   -8.6443582    232.54952  0.012791503  0.011899651            5 
 1516000     0.664318    -8.645697    232.53659  0.012782354  0.011888784            4 
 1517000   0.65360405   -8.6582044    232.40198  0.012766534  0.011877918            1 
 1518000   0.64344168   -8.6482625    232.22811  0.012748579  0.011867075            2 
 1519000    0.6477226   -8.6392694    232.28188  0.012743136  0.011856213            1 
 1520000   0.65297142    -8.649483    232.51319  0.012747434   0.01184538            1 
 1521000    0.6509903   -8.6523659    232.28249  0.012726413  0.011834564            2 
 1522000   0.63519575   -8.6672604    232.24003  0.012715727  0.011823763            5 
 1523000   0.63844787   -8.6611888    232.44182  0.012718419  0.011812965            5 
 1524000   0.64257811   -8.6696977    232.12381  0.012692684  0.011802174            6 
 1525000   0.65738676   -8.6297004    232.64577  0.012712884  0.011791414            2 
 1526000   0.64238926   -8.6389304    232.54005  0.012698779  0.011780664            3 
 1527000   0.64309713   -8.6533028    232.23792  0.012673975  0.011769918            9 
 1528000   0.64968568   -8.6745989    232.54122  0.012682222  0.011759185            3 
 1529000   0.64248295   -8.6439651      232.627  0.012678603  0.011748454            4 
 1530000   0.62932994   -8.6634434    232.41745  0.012658902  0.011737751            3 
 1531000   0.65833406   -8.6562644     232.7274  0.012667505  0.011727057            3 
 1532000   0.64218819   -8.6720298    232.31272   0.01263668  0.011716385            3 
 1533000   0.64641736   -8.6480359    232.31676  0.012628656  0.011705735            4 
 1534000   0.64220731   -8.6612611    232.53367  0.012632207  0.011695112            3 
 1535000    0.6441239    -8.651642     232.8064  0.012638784  0.011684485            4 
 1536000   0.64942808    -8.647302    232.59419  0.012619042  0.011673882            3 
 1537000   0.65289028   -8.6536705    232.83791  0.012624047   0.01166328            2 
 1538000     0.651287   -8.6357146    232.60029  0.012602963  0.011652691            2 
 1539000   0.63023227    -8.642871    232.59465  0.012594469  0.011642149            2 
 1540000   0.64364077   -8.6580433    232.55827  0.012584322  0.011631589            3 
 1541000   0.63117057   -8.6594371    232.61162   0.01257904  0.011621053            3 
 1542000    0.6388792   -8.6560474    232.33622     0.012556  0.011610511            3 
 1543000   0.64006096   -8.6708825    232.53616   0.01255866  0.011599989            2 
 1544000   0.63312967   -8.6672958    233.08048  0.012579905  0.011589465            2 
 1545000   0.62381408   -8.6677295    232.65301  0.012548706  0.011578955            1 
 1546000    0.6391397   -8.6603436    233.05972  0.012562512  0.011568473            2 
 1547000   0.65099766   -8.6711965    232.64218    0.0125319  0.011557995            1 
 1548000   0.63955462   -8.6428774    232.58769   0.01252087   0.01154751            1 
 1549000   0.62486999   -8.6709469    232.00419  0.012481396  0.011537031            4 
 1550000   0.64049449   -8.6607637    232.41625  0.012495497  0.011526566            3 
 1551000   0.62063278   -8.6812336    232.17087  0.012474257  0.011516108            1 
 1552000   0.64837795   -8.6516394    232.32692  0.012474598  0.011505654            1 
 1553000   0.64828712   -8.6691983    232.58774  0.012480561  0.011495197            2 
 1554000    0.6227722   -8.6838422    232.63358  0.012474988  0.011484752            2 
 1555000   0.63864952   -8.6645566    232.19352  0.012443383   0.01147432            4 
 1556000   0.63619312   -8.6792077    232.55247   0.01245461  0.011463887            2 
 1557000   0.64673856   -8.7010821    232.27075  0.012431532   0.01145346            2 
 1558000   0.63593993   -8.6986549     231.9614  0.012407007  0.011443052            1 
 1559000   0.64359548   -8.6705554    232.08752   0.01240579   0.01143265            2 
 1560000    0.6245544   -8.6767646    232.72667   0.01243198  0.011422273            1 
 1561000   0.61955465     -8.68696    232.31057  0.012401803   0.01141192            2 
 1562000   0.62584852   -8.6446416    232.46505  0.012402105  0.011401574            1 
 1563000   0.63567023   -8.6799111    232.20216  0.012380154   0.01139125            1 
 1564000   0.61981119    -8.657063    232.22093  0.012373238  0.011380922            2 
 1565000   0.63156804   -8.6655842    232.38047  0.012373827  0.011370592            1 
 1566000   0.63783807   -8.6837427    232.24603  0.012358771   0.01136028            3 
 1567000   0.61619131   -8.6861098    232.46191  0.012362365  0.011349966            3 
 1568000   0.63380575   -8.7089653    232.42702  0.012352626  0.011339674            2 
 1569000   0.62747268    -8.676572    231.91318  0.012317462  0.011329383            1 
 1570000   0.64507403   -8.6857288    232.30545  0.012330438  0.011319119            5 
 1571000    0.6373599   -8.6712003    232.33662  0.012324243   0.01130887            5 
 1572000   0.62218517   -8.7040664    231.85134  0.012290677  0.011298635            2 
 1573000    0.6307592   -8.6820802      232.452  0.012314685  0.011288378            2 
 1574000   0.61766837   -8.6990883    232.12602  0.012289603  0.011278137            3 
 1575000   0.61795768   -8.6911655    232.16949    0.0122841  0.011267891            2 
 1576000   0.60540138   -8.7011953    231.79045  0.012256263  0.011257663            2 
 1577000    0.6097193   -8.6922728    232.35968  0.012278571  0.011247456            5 
 1578000   0.62513532   -8.6715443    232.12227  0.012258253  0.011237261            4 
 1579000   0.62792191   -8.6780295    232.13658  0.012251245  0.011227083            2 
 1580000   0.61868064   -8.6912529    232.31767  0.012253042  0.011216927            1 
 1581000   0.60638536   -8.7067276     232.3856  0.012248872  0.011206774            1 
 1582000   0.62413571   -8.7041239    231.91002  0.012216078  0.011196629            1 
 1583000    0.6219004   -8.7015224    232.02399   0.01221436  0.011186489            1 
 1584000   0.63320075   -8.6962451    231.96868   0.01220374  0.011176366            3 
 1585000   0.62943896   -8.6875617    232.41237  0.012219368  0.011166245            2 
 1586000   0.60624063   -8.6894811    232.48668  0.012215567   0.01115614            1 
 1587000    0.6151083   -8.7067298     232.4558  0.012206249  0.011146056            3 
 1588000   0.62960288   -8.7098681     231.9718  0.012173163   0.01113598            1 
 1589000   0.61155353   -8.6892762    232.18248  0.012176551  0.011125909            4 
 1590000   0.61329822   -8.7185358    232.08771  0.012163926   0.01111585            3 
 1591000   0.61347912   -8.6994233    232.17391  0.012160796  0.011105801            4 
 1592000   0.61663185   -8.7050766    232.27524  0.012158461  0.011095755            2 
 1593000   0.62413756   -8.7008267    231.75537  0.012123633  0.011085719            3 
 1594000   0.62007329   -8.7135458    232.25427  0.012142109  0.011075702            1 
 1595000   0.61310452   -8.7054342     232.2733  0.012135491  0.011065692            3 
 1596000   0.62132781   -8.7110823    232.09125  0.012118382  0.011055699            4 
 1597000   0.62076355   -8.7141916    232.20259  0.012116604  0.011045701            2 
 1598000   0.63327915   -8.7072262    231.80762  0.012088424  0.011035697            4 
 1599000   0.61092634   -8.7037082    232.35568  0.012109427  0.011025713            2 
 1600000    0.6260415   -8.7018599    232.18011  0.012092714  0.011015757            2 
 1601000   0.61233334   -8.7051812    232.10456  0.012081228   0.01100579            2 
 1602000   0.61631261   -8.7144819    232.04092  0.012070376  0.010995822            1 
 1603000    0.6102568   -8.7119561    232.22129  0.012072223  0.010985895            2 
 1604000    0.6107793   -8.7333765    231.93944  0.012050054  0.010975947            2 
 1605000   0.61362902   -8.7246539    232.13251   0.01205257  0.010966015            1 
 1606000   0.59981097   -8.6899418    232.09561  0.012043151  0.010956083            2 
 1607000   0.60676057    -8.715898    232.18815  0.012040456  0.010946184            2 
 1608000   0.60912179   -8.7109437    231.79962  0.012012833  0.010936305            2 
 1609000   0.62634395    -8.713154    231.93743  0.012012504  0.010926435            2 
 1610000   0.61009616   -8.7400901    232.20829  0.012019063  0.010916561            2 
 1611000    0.6203824    -8.717591    232.24269  0.012013381  0.010906698            6 
 1612000   0.60510403   -8.7145445    232.00654  0.011993721  0.010896846            3 
 1613000   0.61296498   -8.7324801     232.0353  0.011987771  0.010886995            2 
 1614000   0.61340265   -8.7295432    231.90227  0.011973475  0.010877152            3 
 1615000   0.61720136   -8.7244788    231.47577  0.011944054   0.01086732            1 
 1616000   0.60266145   -8.7225949    231.64442   0.01194536  0.010857501            2 
 1617000   0.60512571   -8.7077253    232.10699  0.011961811  0.010847713            1 
 1618000    0.6099591   -8.7375824    232.40756  0.011969899  0.010837913            1 
 1619000   0.59867012   -8.7246159    232.16287  0.011949911   0.01082813            3 
 1620000   0.61205542   -8.7399517    231.63463  0.011915362  0.010818367            2 
 1621000   0.61112972   -8.7396744    231.87534  0.011920385  0.010808617            2 
 1622000   0.60603701   -8.7294256    231.98129   0.01191848  0.010798861            2 
 1623000   0.60576723   -8.7101344    231.82863  0.011903298  0.010789105            2 
 1624000   0.61486845   -8.7488339    231.59606  0.011884034  0.010779357            5 
 1625000   0.60264795   -8.7354163    232.09559  0.011902338  0.010769635            1 
 1626000   0.59586489   -8.7363819    231.79599  0.011879663  0.010759904            4 
 1627000   0.61524023   -8.7285081    231.91892  0.011878658  0.010750199            1 
 1628000   0.60067256    -8.734704    231.62227  0.011856177  0.010740482            1 
 1629000   0.59702181   -8.7211166     231.6099  0.011848266   0.01073078            1 
 1630000   0.60262324   -8.7252252    231.76273   0.01184881  0.010721093            2 
 1631000   0.61133814   -8.7317539    231.79185  0.011843033  0.010711413            2 
 1632000   0.61488404    -8.728337    231.95344  0.011844028  0.010701737            2 
 1633000   0.59373704   -8.7566836    231.77299  0.011827566  0.010692068            4 
 1634000   0.60589132   -8.7448667    231.55185   0.01180905   0.01068241            3 
 1635000   0.59352026   -8.7605868    231.49959  0.011799164  0.010672756            1 
 1636000   0.58331087   -8.7429543    231.75007   0.01180471  0.010663106            3 
 1637000   0.61137903   -8.7555442    231.63317  0.011791548  0.010653461            3 
 1638000   0.60712481   -8.7545904    231.70616  0.011788063  0.010643824            2 
 1639000   0.61688285    -8.746033    231.85749  0.011788565    0.0106342            2 
 1640000   0.59161447   -8.7413594    231.54065  0.011765277  0.010624586            2 
 1641000   0.59105234   -8.7586855    231.19452   0.01174053  0.010614976            3 
 1642000    0.5865897   -8.7333741    231.57993   0.01175294  0.010605383            2 
 1643000   0.60430396   -8.7503433    231.73638  0.011753722  0.010595792            3 
 1644000    0.5951872   -8.7616951     231.2858  0.011723733  0.010586216            2 
 1645000   0.58735792   -8.7646819    231.49768  0.011727339   0.01057666            2 
 1646000   0.60374826   -8.7358162    231.32505  0.011711475   0.01056711            3 
 1647000   0.60496787   -8.7553323    231.67549  0.011722095  0.010557572            2 
 1648000   0.59241671   -8.7511809    231.44274  0.011703213  0.010548042            3 
 1649000   0.58932852   -8.7392234    231.57466  0.011702782  0.010538517            2 
 1650000   0.59991283   -8.7673789    231.40833  0.011687289  0.010529001            3 
 1651000   0.58628474    -8.728908     231.8711  0.011703569  0.010519501            2 
 1652000   0.58794883   -8.7553281    231.48633  0.011677075  0.010509989            2 
 1653000   0.60184284   -8.7619876    231.55338  0.011673391  0.010500491            3 
 1654000   0.58722105   -8.7724773    231.49263  0.011663272  0.010491008            3 
 1655000   0.58736652   -8.7503718    231.14863  0.011638904  0.010481548            3 
 1656000   0.59559794    -8.763738    231.54425  0.011651784  0.010472103            4 
 1657000   0.59427061   -8.7665541    230.73967  0.011604288  0.010462663            3 
 1658000   0.60083437   -8.7540964    231.51831  0.011636425  0.010453227            2 
 1659000    0.6031757   -8.7688848    231.28838  0.011617861  0.010443799            1 
 1660000   0.60343393   -8.7632677    231.68713   0.01163088  0.010434394            3 
 1661000   0.59358783   -8.7647729    231.32049  0.011605483  0.010424977            3 
 1662000   0.58472485   -8.7665008    231.41468  0.011603223  0.010415577            3 
 1663000   0.59377425   -8.7565781    231.58132  0.011604596  0.010406188            2 
 1664000   0.58335907   -8.7639774    230.90954   0.01156398  0.010396812            2 
 1665000   0.59369428   -8.7732365    231.42198  0.011582682  0.010387432            3 
 1666000   0.57304894   -8.7563137    231.12228  0.011560738  0.010378062            3 
 1667000   0.58346387   -8.7847509    231.36387  0.011565881    0.0103687            1 
 1668000   0.58530905   -8.7716893     231.4077  0.011561136  0.010359352            2 
 1669000   0.59213861   -8.7795797    231.35464   0.01155156   0.01035001            6 
 1670000   0.60183668   -8.7709758    231.01569  0.011527729  0.010340672            9 
 1671000   0.58164174   -8.7663072    231.38787  0.011539391  0.010331344            3 
 1672000   0.58341327   -8.7764887    231.44694  0.011535434  0.010322037            2 
 1673000   0.58077021   -8.7656407    231.62274  0.011537295  0.010312746            4 
 1674000   0.58360946   -8.7657027    231.34708  0.011516681  0.010303455            5 
 1675000   0.58806433   -8.7885786    231.03399  0.011494228  0.010294166            3 
 1676000   0.58469817   -8.7733777     231.4421  0.011507662  0.010284902            3 
 1677000   0.57839203   -8.7696912     231.1634  0.011486951  0.010275626            2 
 1678000   0.58676586   -8.7863013    231.04184  0.011474068  0.010266367            2 
 1679000   0.58118734   -8.7727245    231.21546  0.011475852  0.010257132            2 
 1680000   0.58079483   -8.7845144    231.02937   0.01145979  0.010247911            2 
 1681000   0.57935782   -8.7761779      231.159  0.011459399  0.010238686            2 
 1682000     0.585346   -8.7836919    231.73074  0.011480913  0.010229473            3 
 1683000   0.58017803   -8.7916821    231.14589  0.011445132  0.010220276            2 
 1684000   0.57773557   -8.7829246    230.89063  0.011425704  0.010211092            2 
 1685000   0.58583183   -8.7681642    231.09297   0.01142893  0.010201921            3 
 1686000    0.5815226   -8.7832796    230.98008  0.011416572  0.010192767            3 
 1687000   0.58161131    -8.796599    231.27855  0.011424548  0.010183604            1 
 1688000   0.58552094   -8.7902799    231.48726  0.011428084  0.010174473            2 
 1689000   0.58158257   -8.7933753    231.16007  0.011405174  0.010165333            2 
 1690000   0.58788042   -8.7918142    231.10655  0.011395786  0.010156203            3 
 1691000   0.59020255   -8.7943781    231.11037  0.011389236  0.010147075            5 
 1692000   0.56857787   -8.7610553    231.34631  0.011394125  0.010137966            1 
 1693000   0.57995887   -8.7900908    231.27482  0.011383876  0.010128857            4 
 1694000    0.5842168   -8.7854386    231.21108   0.01137402  0.010119757            5 
 1695000   0.59295266   -8.8003262    230.97901    0.0113559  0.010110656            2 
 1696000   0.58013345   -8.7899385    231.20432  0.011360275  0.010101573            2 
 1697000   0.57197568   -8.8002519    231.15324  0.011351073  0.010092497            2 
 1698000   0.56717116   -8.7930231    230.95921  0.011334865  0.010083433            2 
 1699000   0.58968315   -8.8030004    230.85629  0.011323146  0.010074373            2 
 1700000   0.56723894   -8.7973313    231.06276  0.011326606  0.010065324            2 
 1701000   0.55942485   -8.8022263    231.17039   0.01132522  0.010056283            2 
 1702000   0.57750758   -8.8012322    230.98834  0.011309652  0.010047253            1 
 1703000   0.58285771   -8.8075461    230.74366  0.011291039  0.010038241            1 
 1704000   0.56642798   -8.7974906      231.142  0.011303893  0.010029239            3 
 1705000   0.56462938    -8.805533    230.75948  0.011278567  0.010020245            2 
 1706000   0.56570204   -8.8193643    230.83208  0.011275502  0.010011274            2 
 1707000   0.57388668   -8.8073011    230.87634  0.011271058  0.010002311            2 
 1708000   0.57161995   -8.7791667    231.02583  0.011271752 0.0099933477            1 
 1709000   0.56673026   -8.7826663    231.17974  0.011272661 0.0099843928            3 
 1710000   0.57267088   -8.7993434    230.86147  0.011250559 0.0099754527            2 
 1711000   0.58232005   -8.8126295    230.95117  0.011248352 0.0099665209            1 
 1712000   0.57463128   -8.8056143    230.93123  0.011240811 0.0099575965            2 
 1713000   0.56653893    -8.789756    230.69779  0.011222893  0.009948675            2 
 1714000   0.55834058   -8.7961212    231.09265  0.011235543  0.009939766            3 
 1715000     0.570459   -8.8191939     230.7479   0.01121224 0.0099308756            3 
 1716000   0.56176446   -8.8056959    230.93197  0.011214645 0.0099219994            2 
 1717000   0.58102513   -8.8139584    231.03089  0.011212915  0.009913121            3 
 1718000    0.5578864   -8.8101971    230.78329  0.011194378 0.0099042591            2 
 1719000   0.56813701   -8.8111719    230.96023  0.011196443 0.0098954069            3 
 1720000   0.55885528   -8.8064308    230.64313   0.01117457 0.0098865649            1 
 1721000    0.5615673   -8.8198288    230.80833  0.011176076 0.0098777369            2 
 1722000   0.57898277   -8.7967215    230.71585  0.011165111 0.0098689148            3 
 1723000   0.57566603   -8.7967666    231.26084  0.011184989 0.0098601026            3 
 1724000   0.54867517   -8.8207646     230.8597  0.011159112 0.0098513082            2 
 1725000   0.56570097   -8.8048207    230.94572  0.011156798 0.0098425041            2 
 1726000   0.55701725   -8.8115364    230.38076  0.011123057 0.0098337118            2 
 1727000   0.56733576   -8.8014264    231.04783  0.011148805 0.0098249313            3 
 1728000   0.56283266   -8.8078902    231.06617  0.011143237 0.0098161615            1 
 1729000   0.55208664   -8.8155254    231.14997  0.011140831 0.0098074022            1 
 1730000   0.55588964   -8.8194133     230.8826  0.011121512 0.0097986503            3 
 1731000   0.56804513    -8.827363    230.69904   0.01110625  0.009789907            5 
 1732000   0.55816543   -8.8212198    231.00245  0.011114437 0.0097811785            4 
 1733000   0.56072582   -8.8337814    230.76003  0.011096366  0.009772458            1 
 1734000   0.55578797   -8.7997713    230.99014  0.011101026 0.0097637487            2 
 1735000   0.56732298   -8.8289378    230.91179  0.011090864 0.0097550514            2 
 1736000    0.5513125    -8.825157    230.64827  0.011071826 0.0097463564            2 
 1737000   0.56869746   -8.8060658    230.92021  0.011078498 0.0097376689            2 
 1738000   0.56720898   -8.8075818    231.01341  0.011076592 0.0097289983            3 
 1739000   0.57132399   -8.8297458    230.56729  0.011048845 0.0097203211            2 
 1740000   0.57108216   -8.8121574    230.50024  0.011039283 0.0097116527            5 
 1741000   0.56495717   -8.8246996      230.931  0.011053561 0.0097030008            2 
 1742000   0.55100276   -8.8106092    230.67488  0.011034964  0.009694355            2 
 1743000   0.55888745   -8.8240926     230.8819   0.01103853  0.009685723            2 
 1744000   0.56008208   -8.8219337    230.70106   0.01102356 0.0096770966            4 
 1745000   0.56401828   -8.8317844     230.6014  0.011012483 0.0096684719            3 
 1746000   0.54502705   -8.8337515    231.16021  0.011032847   0.00965986            1 
 1747000   0.55466762   -8.8458751    230.65357  0.011002364 0.0096512619            1 
 1748000    0.5495163   -8.8220629    230.84279  0.011005091 0.0096426737            2 
 1749000   0.56152138    -8.837029    230.75286  0.010994514 0.0096340894            3 
 1750000   0.55479235   -8.8444204    230.55089  0.010978614 0.0096255043            1 
 1751000   0.55138824   -8.8424984    230.92441   0.01099012 0.0096169363            2 
 1752000   0.56065564   -8.8349712    230.75777  0.010975921 0.0096083822            2 
 1753000   0.56414299   -8.8599637    230.74244  0.010968931 0.0095998265            4 
 1754000   0.55299938   -8.8206552    230.94894  0.010972488 0.0095912966            2 
 1755000   0.55490191   -8.8574227    230.68216  0.010953569 0.0095827717            4 
 1756000   0.55688827   -8.8430313    230.59332  0.010943115  0.009574264            2 
 1757000   0.56315278   -8.8354176    230.97681  0.010955075 0.0095657554            4 
 1758000   0.57083061    -8.831338    230.02534  0.010903742  0.009557265            5 
 1759000   0.57250683    -8.836322    230.70873  0.010929919 0.0095487792            4 
 1760000   0.54417888   -8.8308889    230.41028  0.010909577 0.0095403037            2 
 1761000   0.54805415    -8.839451    230.52532  0.010908826 0.0095318414            2 
 1762000   0.55029384   -8.8570032     230.5477  0.010903694  0.009523378            6 
 1763000   0.54558195    -8.833713    230.88929  0.010913655 0.0095149296            2 
 1764000   0.53048773   -8.8472004    230.57024  0.010892396 0.0095064773            2 
 1765000   0.55241251   -8.8504444    230.56029  0.010885755 0.0094980429            2 
 1766000   0.55343224    -8.829608    230.46671  0.010875175 0.0094896139            3 
 1767000   0.55060602   -8.8210689    230.48221  0.010869752 0.0094811918            5 
 1768000    0.5405286   -8.8533825    230.72125  0.010874871 0.0094727836            3 
 1769000   0.56542193   -8.8561672    230.13616  0.010841161 0.0094643855            3 
 1770000   0.54729438   -8.8305568    230.55252  0.010854638 0.0094559967            3 
 1771000   0.55027008   -8.8458202    230.66121  0.010853624 0.0094476188            1 
 1772000   0.55826785   -8.8557934    230.32144   0.01083152 0.0094392485            2 
 1773000   0.55018481   -8.8294481    230.17614  0.010818581 0.0094308909            1 
 1774000   0.54353316   -8.8547756    230.59205   0.01083202 0.0094225346            3 
 1775000   0.53937953   -8.8628272    230.51781  0.010822433 0.0094141858            3 
 1776000   0.53774239   -8.8774637    230.51202  0.010816067 0.0094058398            1 
 1777000   0.54686617   -8.8440708    230.67906  0.010817814 0.0093975201            3 
 1778000   0.54005038   -8.8556367    230.32347  0.010795063 0.0093892053            1 
 1779000   0.53844819   -8.8555809    230.22733  0.010784492 0.0093808925            1 
 1780000   0.54829752    -8.848287    230.30861  0.010782238 0.0093725851            2 
 1781000   0.53217409   -8.8513443    230.58015   0.01078889 0.0093642866            4 
 1782000   0.54115478   -8.8575435    230.39121     0.010774 0.0093560137            3 
 1783000   0.55119521   -8.8575397    230.28868  0.010763165 0.0093477385            3 
 1784000   0.54621673   -8.8438606    230.25022  0.010755335 0.0093394813            4 
 1785000   0.53414675   -8.8653429    230.53916  0.010762799 0.0093312417            3 
 1786000   0.53325945   -8.8579439    230.08848  0.010735745 0.0093229958            1 
 1787000   0.53439591   -8.8716751    230.31987  0.010740527 0.0093147587            3 
 1788000   0.54157841   -8.8536606    229.89114  0.010714539 0.0093065311            4 
 1789000   0.53381741    -8.848166    230.40851  0.010732649 0.0092983162            3 
 1790000   0.54980589   -8.8605857     230.0571  0.010710293 0.0092901154            3 
 1791000    0.5333623   -8.8645432    230.49804   0.01072483 0.0092819194            3 
 1792000   0.53844851   -8.8808298    230.29972  0.010709622 0.0092737246            6 
 1793000   0.53194232   -8.8733595    230.41584  0.010709046   0.00926554            1 
 1794000   0.52976467   -8.8558025    230.23496  0.010694675  0.009257368            4 
 1795000   0.53865132   -8.8557407    230.16416   0.01068543 0.0092491876            4 
 1796000   0.53274769   -8.8665699    230.72509  0.010705507 0.0092410237            1 
 1797000    0.5254489   -8.8509099    230.36429  0.010682818 0.0092328676            9 
 1798000   0.54008181   -8.8531945    230.25461  0.010671793 0.0092247268            5 
 1799000   0.54066145   -8.8715191    230.11296    0.0106593 0.0092165926            1 
 1800000   0.52941286   -8.8372761    230.22639  0.010658629 0.0092084647            4 
 1801000   0.52577842   -8.8819757    230.39122  0.010660338 0.0092003474            2 
 1802000   0.53332187   -8.8728708    230.28561  0.010649538 0.0091922464            4 
 1803000   0.53087811   -8.8615113     230.4373  0.010650643 0.0091841502            2 
 1804000   0.53265409   -8.8759955     229.9248  0.010621064 0.0091760594            3 
 1805000   0.52730856   -8.8787737    230.10649  0.010623568 0.0091679678            5 
 1806000   0.52560309   -8.8751711    230.16462  0.010620368  0.009159889            2 
 1807000   0.52409926   -8.8771271    230.34592  0.010622852 0.0091518236            5 
 1808000   0.52691363    -8.858537    230.39997  0.010619468 0.0091437622            3 
 1809000   0.52604982   -8.8751571    230.17252   0.01060312 0.0091357112            5 
 1810000   0.53317717   -8.8683274    230.05597  0.010591896 0.0091276624            2 
 1811000   0.53153653     -8.85663    230.44418  0.010603911 0.0091196291            3 
 1812000   0.52998087    -8.887321    230.14668  0.010584376 0.0091116066            8 
 1813000   0.53821884   -8.8595652    230.18214  0.010580168 0.0091035964            2 
 1814000   0.53484211   -8.8894099    229.96439  0.010564333 0.0090955861            2 
 1815000   0.53077506   -8.8799012    230.08042  0.010563839 0.0090875881            3 
 1816000   0.53806201   -8.8821213    229.75748  0.010543203 0.0090796056            1 
 1817000   0.53306915   -8.8817256    230.30059  0.010562309 0.0090716232            4 
 1818000   0.52602921   -8.8890025    229.84421   0.01053558 0.0090636502            3 
 1819000   0.51975948   -8.8676573    230.01412  0.010537572 0.0090556866            2 
 1820000   0.52888728   -8.8677964    230.13551   0.01053734 0.0090477373            5 
 1821000   0.52818747   -8.8788711    230.15516  0.010532453 0.0090397927            3 
 1822000   0.53221242   -8.8842911    230.25271  0.010531134 0.0090318583            3 
 1823000   0.52422775   -8.8982824    229.85587  0.010507217 0.0090239311            2 
 1824000   0.52681622   -8.8844296    230.06492  0.010511007 0.0090160151            3 
 1825000   0.53733663   -8.8606393    230.40737  0.010520885 0.0090081084            2 
 1826000   0.52192036   -8.8556374    230.04983  0.010498806 0.0090002197            3 
 1827000   0.53048397   -8.8670685    230.27654    0.0105034  0.008992337            3 
 1828000   0.51949069   -8.8775945    229.80921   0.01047635 0.0089844542            3 
 1829000   0.53121452   -8.8716465      229.781  0.010469337 0.0089765776            5 
 1830000   0.51827468   -8.8847755    229.98269    0.0104728 0.0089687112            1 
 1831000   0.51503866   -8.8573628    229.97013  0.010466509 0.0089608603            2 
 1832000   0.51314485   -8.8874559    230.39276   0.01048002 0.0089530155            3 
 1833000   0.51781296   -8.8805873    230.35338  0.010472512 0.0089451847            3 
 1834000   0.51953483   -8.8823864    230.29842  0.010464305 0.0089373542            3 
 1835000   0.51890909   -8.8960189    229.96257   0.01044335 0.0089295304            2 
 1836000   0.51730025   -8.8924147    230.12963  0.010445245 0.0089217223            3 
 1837000   0.51972062   -8.8912887    229.89974   0.01042913  0.008913912            3 
 1838000   0.51865682   -8.8962188    229.88332  0.010422711 0.0089061164            1 
 1839000    0.5177144   -8.8876272    229.81948  0.010414151 0.0088983292            2 
 1840000   0.52075883   -8.8920646    230.41695   0.01043555 0.0088905473            1 
 1841000   0.53067262   -8.8925085    230.18042  0.010419175 0.0088827731            3 
 1842000   0.51833371   -8.8931498    229.48496  0.010382056 0.0088750079            1 
 1843000   0.51549286   -8.8898106    229.98447  0.010399009 0.0088672495            2 
 1844000   0.51864693   -8.8834584    229.94883  0.010391758 0.0088595013            1 
 1845000   0.51007752   -8.8974275    229.73542  0.010376487  0.008851767            3 
 1846000   0.51525687   -8.8853552    229.61775  0.010365554 0.0088440373            1 
 1847000   0.51926719   -8.9067368    229.83317  0.010369661   0.00883631            2 
 1848000   0.51141269    -8.905209    229.72425  0.010359138 0.0088285982            1 
 1849000    0.5128199   -8.8897198    229.85998  0.010359653 0.0088208932            3 
 1850000   0.51071093   -8.8922506    229.69102  0.010346442 0.0088131983            3 
 1851000   0.51140946   -8.8991402    229.86197  0.010348549 0.0088055131            6 
 1852000   0.51389693   -8.9088058    230.01176  0.010349701 0.0087978421            1 
 1853000   0.51808033   -8.8907488    230.04371  0.010345553 0.0087901736            3 
 1854000   0.51368307   -8.9005543    229.86056   0.01033174 0.0087825049            3 
 1855000   0.51314223   -8.9067653    230.04596    0.0103345 0.0087748528            1 
 1856000   0.50612259   -8.9066807    230.03416  0.010328402 0.0087672047            2 
 1857000   0.51476512   -8.9220252    229.70643  0.010308133 0.0087595717            2 
 1858000   0.50633378    -8.895474    229.99008  0.010315307 0.0087519426            3 
 1859000   0.51615194   -8.9036996    229.58528  0.010291612 0.0087443309            2 
 1860000   0.50675695   -8.8983001    229.97024  0.010303326 0.0087367267            3 
 1861000    0.5102877   -8.9170774    229.89277  0.010294321 0.0087291325            3 
 1862000   0.51194098   -8.9163454    229.63744  0.010277365 0.0087215446            2 
 1863000   0.50540234   -8.9027813    229.55538  0.010268178 0.0087139682            3 
 1864000   0.51431149   -8.9106125     229.5683  0.010263246 0.0087063978            3 
 1865000   0.51275557   -8.8890298    229.91732  0.010273339 0.0086988391            2 
 1866000   0.51438625   -8.9205514    229.90991  0.010267502 0.0086912819            2 
 1867000   0.51068467   -8.9060541    230.00436  0.010266219 0.0086837355            2 
 1868000   0.50666048   -8.8954579    229.92191  0.010257045 0.0086761985            4 
 1869000   0.51642915   -8.9121245    229.79223  0.010245775 0.0086686752            2 
 1870000   0.50554442   -8.9236816    229.80434  0.010240835 0.0086611564            5 
 1871000   0.50478999   -8.9022172    229.24321  0.010210369 0.0086536445            3 
 1872000   0.50991935   -8.8897176    229.66106  0.010223516 0.0086461405            2 
 1873000   0.51623504   -8.9212528    230.03792  0.010234825 0.0086386472            3 
 1874000   0.50422625   -8.9017953    229.96646  0.010226185 0.0086311589            3 
 1875000    0.5030683   -8.9257629    229.76783  0.010211904 0.0086236788            4 
 1876000   0.51115007   -8.9175517    229.33679  0.010187313   0.00861619            5 
 1877000   0.50684604   -8.9312111    229.63142  0.010194966 0.0086087195            4 
 1878000   0.50252675   -8.9128352    229.57916  0.010187219 0.0086012567            4 
 1879000    0.5081963   -8.9245756    229.74906  0.010189332 0.0085937995            4 
 1880000   0.50450286   -8.9042275    229.50103  0.010172918 0.0085863601            3 
 1881000   0.51136418   -8.9167234    229.49815  0.010167382 0.0085789246            2 
 1882000    0.4974853   -8.9337438    229.71404  0.010171539 0.0085714909            4 
 1883000   0.50286545   -8.9297055     229.3876   0.01015169 0.0085640747            4 
 1884000   0.50518791   -8.9206374    229.67732  0.010159117 0.0085566532            3 
 1885000   0.50529946   -8.9247437    229.71543  0.010155412 0.0085492476           10 
 1886000   0.50446539   -8.9307493    229.40031  0.010136104 0.0085418507            5 
 1887000   0.49937212   -8.9234831    229.73334   0.01014544 0.0085344607            5 
 1888000    0.4981979   -8.9189835    229.54776  0.010131875 0.0085270772            4 
 1889000    0.4982151   -8.9234211    229.83392  0.010139135  0.008519698            2 
 1890000   0.49842759   -8.9116772    229.42249   0.01011563 0.0085123276            3 
 1891000   0.49311746   -8.9348948     229.7304   0.01012385 0.0085049606            3 
 1892000   0.49919914   -8.9302955    229.52613  0.010109502 0.0084976081            5 
 1893000   0.50574738    -8.929641      229.259  0.010092402 0.0084902576            3 
 1894000   0.50053493   -8.9265658    229.41981  0.010094149 0.0084829188            2 
 1895000   0.49851666   -8.9429702    229.58996  0.010096304 0.0084755959            2 
 1896000   0.49789727   -8.9373402    229.66109  0.010094106 0.0084682801            2 
 1897000   0.48813056   -8.9398398    229.34127  0.010074735 0.0084609626            2 
 1898000   0.49893744   -8.9150309     229.4163  0.010072721 0.0084536593            4 
 1899000   0.49867579   -8.9060101    229.26561  0.010060805  0.008446367            2 
 1900000   0.49474648   -8.9071823    229.74573  0.010076567 0.0084390896            3 
 1901000   0.48619015   -8.9287401    229.59208  0.010064531 0.0084318146            1 
 1902000   0.48772458   -8.9500379    229.60301  0.010059718 0.0084245451            3 
 1903000   0.48908421   -8.9273871    229.40968  0.010045966   0.00841729            2 
 1904000   0.49652115   -8.9248421    229.42784  0.010041485  0.008410032            3 
 1905000   0.48896997   -8.9224385     229.5486  0.010041496 0.0084027856            2 
 1906000   0.47765878   -8.9352903    229.53209  0.010035506 0.0083955425            3 
 1907000   0.48941754   -8.9272306    229.39956  0.010024452  0.008388303            2 
 1908000   0.49422376   -8.9346681    229.36298    0.0100176 0.0083810842            2 
 1909000   0.49601315   -8.9421178    229.28129  0.010008787  0.008373875            3 
 1910000   0.49584161   -8.9441414      229.866  0.010029057 0.0083666688            4 
 1911000   0.48608922   -8.9193995    229.41424  0.010004109 0.0083594682            1 
 1912000   0.48967072   -8.9386528    229.77492  0.010014597 0.0083522797            2 
 1913000    0.4872607   -8.9221638    229.31907 0.0099895049 0.0083450948            5 
 1914000   0.48746401   -8.9278286    229.62956 0.0099978041 0.0083379155            2 
 1915000    0.4908916   -8.9286913    229.45175 0.0099848455 0.0083307507            3 
 1916000   0.49127747   -8.9326473    229.31283 0.0099735921 0.0083235924            4 
 1917000   0.49350221   -8.9424509    229.29413 0.0099675766 0.0083164356            3 
 1918000   0.48474185    -8.935308    229.34268 0.0099644891 0.0083092876            3 
 1919000   0.49120074   -8.9485174    229.50701 0.0099664326 0.0083021506            2 
 1920000   0.48113614   -8.9466766     229.3866 0.0099560157 0.0082950129            3 
 1921000   0.49195122   -8.9210896    229.31996 0.0099479419  0.008287894            3 
 1922000   0.49084847   -8.9327489    229.36086 0.0099445393 0.0082807776            3 
 1923000   0.49173092   -8.9391014    229.20097 0.0099324392  0.008273671            2 
 1924000   0.48019928   -8.9473539    229.56789 0.0099431691 0.0082665666            3 
 1925000   0.48763271   -8.9360985    229.26956  0.009925089 0.0082594801            3 
 1926000   0.49097862   -8.9347501    229.44954 0.0099277231 0.0082523982            1 
 1927000    0.4792788   -8.9525123    229.15001 0.0099096181 0.0082453272            2 
 1928000   0.49071027   -8.9436878    229.22527 0.0099077314 0.0082382666            3 
 1929000   0.49190018   -8.9562576    229.42433 0.0099111946 0.0082312072            4 
 1930000   0.48806053   -8.9427012    229.22389 0.0098974044 0.0082241549            5 
 1931000   0.47895838   -8.9482318     229.3893 0.0098994174 0.0082171086            2 
 1932000   0.47752008   -8.9499783    229.78507 0.0099113645 0.0082100682            2 
 1933000   0.47802536   -8.9427872    229.27432  0.009884218 0.0082030401            2 
 1934000   0.48316696   -8.9630002    229.25936 0.0098784627 0.0081960218            2 
 1935000   0.47330149   -8.9600163    229.16481 0.0098692855 0.0081890003            3 
 1936000    0.4719428   -8.9583864    229.37761 0.0098733475   0.00818199            2 
 1937000    0.4938678   -8.9476897    229.26245 0.0098632961 0.0081749927            3 
 1938000   0.47521974   -8.9398183    229.37051 0.0098628531  0.008168002            3 
 1939000   0.47696843   -8.9573687     229.3003 0.0098547492 0.0081610236            2 
 1940000   0.48079776   -8.9630253    229.40204 0.0098540394 0.0081540487            4 
 1941000   0.48259565   -8.9747745    229.06539 0.0098345092 0.0081470894            3 
 1942000   0.47046142   -8.9504125    229.45684 0.0098462426 0.0081401224            2 
 1943000   0.47175442   -8.9556433    229.10665 0.0098261557 0.0081331662            2 
 1944000   0.47241134   -8.9495229    229.45131 0.0098358756 0.0081262264            2 
 1945000   0.47698892   -8.9758756    229.29773 0.0098242386 0.0081192918            3 
 1946000   0.47799226   -8.9669428    228.81363 0.0097984597 0.0081123627            9 
 1947000   0.47408185   -8.9578461    229.24724 0.0098119859 0.0081054478            4 
 1948000   0.47217645   -8.9608882    229.03863 0.0097980248 0.0080985305            2 
 1949000   0.47259547   -8.9620642    229.27773 0.0098032209 0.0080916243            2 
 1950000   0.47177012   -8.9623453    228.91678 0.0097827685 0.0080847185            3 
 1951000   0.46554607   -8.9665088    229.02587 0.0097824139  0.008077826            3 
 1952000   0.45713967   -8.9687587    229.08889 0.0097800925 0.0080709347            3 
 1953000   0.47362922   -8.9472036    228.95006 0.0097691613 0.0080640458            2 
 1954000   0.47543036   -8.9609661    229.10554 0.0097707924 0.0080571739            2 
 1955000    0.4786246   -8.9688866    228.75868 0.0097510094 0.0080503108            4 
 1956000   0.47128553   -8.9665536    229.15993  0.009763119 0.0080434523            7 
 1957000   0.47480789    -8.982924    228.65765 0.0097367419  0.008036606            4 
 1958000   0.46044809   -8.9656319    228.76334 0.0097362676 0.0080297607            4 
 1959000   0.47379209   -8.9667624     229.2906 0.0097537266 0.0080229286            3 
 1960000   0.46769995   -8.9795671     229.3668 0.0097519898  0.008016101            4 
 1961000   0.46219935   -8.9585794     228.9364 0.0097287268 0.0080092888            3 
 1962000   0.47652322   -8.9763406    229.15647 0.0097331155 0.0080024801            3 
 1963000   0.46893804   -8.9726315    228.95149 0.0097194552 0.0079956824            2 
 1964000   0.46675478   -8.9848192    228.96109 0.0097149138 0.0079888831            4 
 1965000   0.47216427   -8.9883322    229.16169 0.0097184769 0.0079820951            3 
 1966000   0.48486895   -8.9647891    228.95078 0.0097045938 0.0079753094            4 
 1967000   0.46405189   -8.9590144    229.15805 0.0097084412  0.007968546            3 
 1968000   0.46520274   -8.9705246    229.39365 0.0097134844 0.0079617749            4 
 1969000   0.47463307   -8.9765376    228.88936 0.0096872086 0.0079550094            4 
 1970000   0.45729481   -8.9671547    229.10778 0.0096915304 0.0079482543            3 
 1971000    0.4669295   -8.9755582    229.03132 0.0096833806 0.0079415035            2 
 1972000    0.4624513    -8.961918    229.01924 0.0096779599 0.0079347609            3 
 1973000   0.46322051   -8.9832321    228.78733 0.0096632595 0.0079280249            2 
 1974000   0.46704052   -8.9723176    228.70683 0.0096549656  0.007921301            2 
 1975000    0.4596624   -8.9760469    229.25538  0.009673223 0.0079145888            1 
 1976000   0.45792033   -8.9746472    229.03076 0.0096588544 0.0079078801            3 
 1977000   0.46548111   -8.9671864    228.95536 0.0096507908 0.0079011718            3 
 1978000    0.4633915   -8.9696896    228.88429 0.0096429174  0.007894475            4 
 1979000   0.46291494   -8.9706455    229.06101 0.0096454862 0.0078877885            2 
 1980000   0.46952306   -8.9753047    228.69255 0.0096251074 0.0078811067            5 
 1981000   0.45993645   -8.9741461    229.06064 0.0096357329 0.0078744269            3 
 1982000   0.45958238   -8.9999198    229.15357 0.0096347785 0.0078677554            2 
 1983000   0.46126845   -8.9610032    228.56993 0.0096053928 0.0078610925            2 
 1984000   0.45301197   -8.9638015    228.92216 0.0096153462 0.0078544401            4 
 1985000   0.46769692   -8.9775748    228.73938 0.0096028288 0.0078477958            2 
 1986000   0.46020942   -8.9855782    228.86525 0.0096032751 0.0078411531            3 
 1987000   0.45767198   -8.9879418    228.72551 0.0095925812  0.007834526            4 
 1988000   0.47047911   -8.9814349    228.82637 0.0095919842 0.0078279035            5 
 1989000     0.449727   -9.0022812     228.9996 0.0095944192  0.007821283            3 
 1990000   0.46018433   -9.0044182    228.50513 0.0095688917 0.0078146746            2 
 1991000   0.46390694   -8.9886387    228.69991 0.0095722381 0.0078080668            3 
 1992000   0.46333605   -8.9830764     228.9203 0.0095766526 0.0078014683            3 
 1993000     0.455118   -8.9833224    228.87051 0.0095697653 0.0077948729            4 
 1994000   0.46337159   -8.9839305    228.94439 0.0095680537  0.007788286            2 
 1995000   0.46603902   -8.9907764    228.83961 0.0095588811 0.0077817143            3 
 1996000   0.45718989   -8.9856129    228.90297 0.0095567374 0.0077751506            3 
 1997000   0.45292674   -9.0003029    228.93357 0.0095532288 0.0077685923            4 
 1998000   0.45952472    -8.996367    228.93342 0.0095484409 0.0077620345            2 
 1999000   0.46267857   -8.9929094    228.97272 0.0095453028 0.0077554778            1 
 2000000   0.45760386   -9.0038318    228.70964 0.0095295683 0.0077489339            1 
 2001000   0.45831932   -8.9925193    228.78357 0.0095278849 0.0077423964            4 
 2002000   0.46309428    -8.995793    228.52368 0.0095123076 0.0077358627            3 
 2003000   0.45997045   -8.9762057    229.14788  0.009533528 0.0077293409            6 
 2004000   0.45503041   -8.9828318    228.93966 0.0095201122 0.0077228242            3 
 2005000   0.44856178   -9.0009426    228.69363 0.0095051383 0.0077163167            7 
 2006000   0.45858572    -8.996365    228.71913 0.0095014594 0.0077098134            1 
 2007000   0.44800936   -8.9912695    228.73783 0.0094975016 0.0077033222            3 
 2008000   0.44059392   -8.9936459    228.66376 0.0094896981 0.0076968385            6 
 2009000   0.44918533    -8.997411    228.46667 0.0094767991 0.0076903593            2 
 2010000   0.45532283    -8.994221    229.00597 0.0094944434  0.007683888            2 
 2011000    0.4581555    -9.012844    228.78735 0.0094806624 0.0076774287            3 
 2012000   0.45237488   -9.0061664    228.39932 0.0094598791 0.0076709755            3 
Loop time of 4934.73 on 48 procs for 2000000 steps with 4000 atoms

Performance: 70034.229 tau/day, 405.291 timesteps/s
99.4% CPU use with 48 MPI tasks x no OpenMP threads

MPI task timing breakdown:
Section |  min time  |  avg time  |  max time  |%varavg| %total
---------------------------------------------------------------
Pair    | 324.58     | 341.76     | 364.96     |  53.0 |  6.93
Neigh   | 32.815     | 33.955     | 35.075     |   9.8 |  0.69
Comm    | 307.96     | 332.32     | 352.54     |  60.7 |  6.73
Output  | 4.1245     | 4.1266     | 4.1587     |   0.2 |  0.08
Modify  | 4166       | 4177.7     | 4190.2     |   7.3 | 84.66
Other   |            | 44.81      |            |       |  0.91

Nlocal:        83.3333 ave          89 max          75 min
Histogram: 1 1 3 6 3 13 3 9 5 4
Nghost:        2184.81 ave        2205 max        2149 min
Histogram: 1 2 3 2 3 6 10 7 8 6
Neighs:        14502.0 ave       16052 max       12584 min
Histogram: 1 0 5 5 10 8 7 5 4 3
FullNghs:      29003.4 ave       31113 max       26018 min
Histogram: 1 1 2 8 6 8 5 7 6 4

Total # of neighbors = 1392162
Ave neighs/atom = 348.04050
Neighbor list builds = 106823
Dangerous builds = 1

#clear
#
#next RN
#
#jump SELF
Total wall time: 1:22:18
