
units lj                  # Use reduced LJ style units
atom_style atomic         # Uncharged point particles
atom_modify map hash      # Needed for indexing of clusters etc
                          # Used to be able to find where atoms are in relation to each other.

lattice fcc 1.0 spacing 1 1 1
Lattice spacing in x,y,z = 1.5874011 1.5874011 1.5874011
region box block 0 10 0 10 0 10 units lattice
create_box 2 box
Created orthogonal box = (0.0000000 0.0000000 0.0000000) to (15.874011 15.874011 15.874011)
  3 by 4 by 4 MPI processor grid
create_atoms 1 box
Created 4000 atoms
  using lattice units in orthogonal box = (0.0000000 0.0000000 0.0000000) to (15.874011 15.874011 15.874011)
  create_atoms CPU = 0.002 seconds
set type 1 type/fraction 2 0.28 78393
Setting atom values ...
  1153 settings made for type/fraction
mass 1 1.0
mass 2 1.0
pair_style lj/cut  3.5
pair_modify tail  yes
pair_coeff 1  1  1.0  1.0   # Intearaction between 1 and 1 set with epsilon = 1 and sigma = 1
pair_coeff 1  2  1.5  0.8
pair_coeff 2  2  0.5  0.88

write_data data.0
System init for write_data ...
Neighbor list info ...
  update every 1 steps, delay 10 steps, check yes
  max neighbors/atom: 2000, page size: 100000
  master list distance cutoff = 3.8
  ghost atom cutoff = 3.8
  binsize = 1.9, bins = 9 9 9
  1 neighbor lists, perpetual/occasional/extra = 1 0 0
  (1) pair lj/cut, perpetual
      attributes: half, newton on
      pair build: half/bin/atomonly/newton
      stencil: half/bin/3d
      bin: standard
WARNING: Not all mixed pair coeffs generated from mixing. Use write_data with 'pair ij' option to store all pair coeffs. (../write_data.cpp:312)


#############################
#   M E L T   S Y S T E M   #
#############################

velocity all create 2.4 1741580 mom yes dist gaussian # Assign velocities
                                                    # Temperature 2.4, random number seed, zero linear momentum
                                                                                # Gaussian distribution

timestep 0.002   # simulation timestep
thermo 1000       # output thermodynamic data every 1000 steps bf 100

# Define a fix  in this case with index 1 applied to all
# particles in the simulation. This fix is for simulations
# in the anisotropic NPT ensemble. Note that we use the MTK
# correction.
fix 1 all npt temp 2.4 2.4 0.1 iso 5.68 5.68 0.5 mtk yes tchain 5 pchain 5 # Use NPT ensemble
                                                                         # Set temperature and pressure and damping
                                                                         # Numbers of thermostats in chain and in barostat
run 10000          # run for 10000 steps
Per MPI rank memory allocation (min/avg/max) = 3.642 | 3.644 | 3.648 Mbytes
Step Temp E_pair E_mol TotEng Press Volume 
       0          2.4   -6.5468678            0   -2.9477678   -3.9245899         4000 
    1000    2.4506075   -4.9866333            0    -1.311641    5.6533907    4206.1494 
    2000    2.3938722   -4.9462415            0   -1.3563308    5.5722978    4233.7043 
    3000    2.3739364   -4.9486904            0    -1.388676    5.6318372    4225.6206 
    4000    2.4126579   -4.9726342            0   -1.3545521    5.7785235    4189.2472 
    5000    2.4275962   -4.9665852            0   -1.3261012     5.615222    4221.3235 
    6000     2.401395   -4.9561543            0   -1.3549623    5.6904691    4218.3735 
    7000    2.3988771   -4.9065906            0   -1.3091745     6.032826    4212.2507 
    8000    2.3940125   -4.9436497            0   -1.3535286    5.6189149    4228.6788 
    9000    2.3880359   -4.9670168            0   -1.3858584    5.6516149    4213.4156 
   10000    2.3955755   -5.0343408            0   -1.4418759    5.1848948    4220.5167 
Loop time of 2.42179 on 48 procs for 10000 steps with 4000 atoms

Performance: 713520.679 tau/day, 4129.171 timesteps/s
99.6% CPU use with 48 MPI tasks x no OpenMP threads

MPI task timing breakdown:
Section |  min time  |  avg time  |  max time  |%varavg| %total
---------------------------------------------------------------
Pair    | 1.0477     | 1.105      | 1.251      |   3.1 | 45.63
Neigh   | 0.20451    | 0.21155    | 0.2335     |   1.0 |  8.74
Comm    | 0.70172    | 0.83719    | 0.92491    |   4.5 | 34.57
Output  | 0.00025136 | 0.00025429 | 0.00031605 |   0.0 |  0.01
Modify  | 0.19733    | 0.25265    | 0.30611    |   6.1 | 10.43
Other   |            | 0.01516    |            |       |  0.63

Nlocal:        83.3333 ave          91 max          76 min
Histogram: 3 3 5 2 14 7 4 2 4 4
Nghost:        1588.60 ave        1608 max        1554 min
Histogram: 1 0 1 4 4 11 6 9 6 6
Neighs:        9041.10 ave       10258 max        7726 min
Histogram: 2 2 3 5 9 12 5 4 5 1

Total # of neighbors = 433973
Ave neighs/atom = 108.49325
Neighbor list builds = 907
Dangerous builds = 191

# Equilibrate just above the melting temperature to avoid step fn in T

fix 1 all npt temp 1.25 1.25 0.1 iso 5.68 5.68 0.5 mtk yes tchain 5 pchain 5
run 2000
Per MPI rank memory allocation (min/avg/max) = 3.643 | 3.645 | 3.649 Mbytes
Step Temp E_pair E_mol TotEng Press Volume 
   10000    2.3955755   -5.0343408            0   -1.4418759    5.1848948    4220.5167 
   11000    1.2727132   -6.8023542            0   -4.8937617    5.7715088    3394.6296 
   12000    1.2615403   -6.8134275            0   -4.9215901    5.7793276     3388.573 
Loop time of 0.583279 on 48 procs for 2000 steps with 4000 atoms

Performance: 592512.775 tau/day, 3428.893 timesteps/s
99.6% CPU use with 48 MPI tasks x no OpenMP threads

MPI task timing breakdown:
Section |  min time  |  avg time  |  max time  |%varavg| %total
---------------------------------------------------------------
Pair    | 0.24508    | 0.27212    | 0.32341    |   2.8 | 46.65
Neigh   | 0.036807   | 0.039511   | 0.044451   |   0.8 |  6.77
Comm    | 0.16784    | 0.22015    | 0.25259    |   3.3 | 37.74
Output  | 5.1091e-05 | 5.2251e-05 | 6.7031e-05 |   0.0 |  0.01
Modify  | 0.039245   | 0.046619   | 0.054452   |   2.1 |  7.99
Other   |            | 0.004833   |            |       |  0.83

Nlocal:        83.3333 ave          93 max          73 min
Histogram: 3 2 2 5 8 5 11 7 3 2
Nghost:        1836.65 ave        1860 max        1817 min
Histogram: 2 9 1 8 9 4 6 7 1 1
Neighs:        11255.0 ave       12895 max        9656 min
Histogram: 3 3 6 4 5 10 8 6 0 3

Total # of neighbors = 540238
Ave neighs/atom = 135.05950
Neighbor list builds = 142
Dangerous builds = 8

#############################
# L I N E A R  Q U E N C H  #
#############################

# Define solid atoms. This closely follows ten Wolde  Ruiz-Montero and Frenkel  Faraday Discuss  1996  104  93-110
# Compute components of the per-atom q6 vector
compute q6 all orientorder/atom degrees 1 6 components 6 nnn NULL cutoff 1.3 # compute the Q6 parameter.
                                                                             # Use all neighbours within 1.3 unit cell.

# get number of connections
compute coord_number all coord/atom orientorder q6 0.5

# An atom is solid if it has 8 or more connections (of a possible 14)
variable is_solid atom c_coord_number>=8
group solid dynamic all var is_solid    # Must be dynamic to update
dynamic group solid defined

# do clustering
compute cluster solid cluster/atom 1.3 # Create a cluster where all atoms within are solid and max 1.3 units from another member

# define chunks one chunk per cluster
compute clus_chunks solid chunk/atom c_cluster nchunk every compress yes  # Says which atoms are in which chunk

# count the size of each chunk
compute size_chunks solid property/chunk clus_chunks count


# Find the maximum entry in the vector of chunk sizes
variable max_n equal max(c_size_chunks)


# Thermo style which includes this variable
# thermo_style custom step temp pe vol v_max_n

thermo ${N}  # Print the thermo information every 100 steps
thermo 1000  

# Reset the npt fix at a lower temperature (below freezing)
fix 1  all npt temp  ${temp} ${temp}  0.1  iso  5.68  5.68  0.5  mtk yes tchain  5  pchain  5
fix 1  all npt temp  0.45 ${temp}  0.1  iso  5.68  5.68  0.5  mtk yes tchain  5  pchain  5
fix 1  all npt temp  0.45 0.45  0.1  iso  5.68  5.68  0.5  mtk yes tchain  5  pchain  5

dump dmp2 all dcd ${N} traj.dcd
dump dmp2 all dcd 1000 traj.dcd


compute msd all msd com yes
variable twopoint equal c_msd[4]/6/(step*dt+1.0e-6)
fix 9 all vector 10 c_msd[4]
variable fit equal slope(f_9)/6/(10*dt)
thermo_style custom step temp pe c_msd[4] v_twopoint v_fit v_max_n

fix 1 all npt temp 1.25 ${temp} 0.1 iso 5.68 5.68 0.5 mtk yes tchain 5 pchain 5
fix 1 all npt temp 1.25 0.45 0.1 iso 5.68 5.68 0.5 mtk yes tchain 5 pchain 5
run 5000000 # 5000000  # Run for this many steps
Neighbor list info ...
  update every 1 steps, delay 10 steps, check yes
  max neighbors/atom: 2000, page size: 100000
  master list distance cutoff = 3.8
  ghost atom cutoff = 3.8
  binsize = 1.9, bins = 8 8 8
  4 neighbor lists, perpetual/occasional/extra = 1 3 0
  (1) pair lj/cut, perpetual
      attributes: half, newton on
      pair build: half/bin/atomonly/newton
      stencil: half/bin/3d
      bin: standard
  (2) compute orientorder/atom, occasional
      attributes: full, newton on
      pair build: full/bin/atomonly
      stencil: full/bin/3d
      bin: standard
  (3) compute coord/atom, occasional
      attributes: full, newton on
      pair build: full/bin/atomonly
      stencil: full/bin/3d
      bin: standard
  (4) compute cluster/atom, occasional
      attributes: full, newton on
      pair build: full/bin/atomonly
      stencil: full/bin/3d
      bin: standard
Per MPI rank memory allocation (min/avg/max) = 9.807 | 9.814 | 9.819 Mbytes
Step Temp PotEng c_msd[4] v_twopoint v_fit v_max_n 
   12000    1.2615403   -6.8134275 3.2901416e-30 2.2848205e-32 8.3333333e+20            2 
   13000    1.2715646   -6.8254908   0.51094415 0.0032752829  0.041810861            1 
   14000    1.2571375    -6.787319   0.96977067 0.0057724443  0.039902809            1 
   15000    1.2497143   -6.8665874    1.4782667 0.0082125925  0.039952895            3 
   16000    1.2440673   -6.8445442    1.9653962  0.010236438  0.040729322            1 
   17000     1.232117   -6.8321446    2.4607954  0.012062722  0.040831394            1 
   18000    1.2584845   -6.8173919    2.9163705  0.013501715  0.040396265            1 
   19000    1.2348203   -6.8261657    3.4034213  0.014927286  0.040433273            2 
   20000    1.2452049   -6.8210417    3.8976455  0.016240189  0.040325986            1 
   21000    1.2630175   -6.7887308    4.3433346  0.017235454  0.040137866            1 
   22000    1.2598534    -6.796001    4.8091768  0.018216579  0.039978859            2 
   23000    1.2449336   -6.8351483    5.2514878  0.019027129  0.039850505            3 
   24000     1.249322   -6.8470007    5.6375029  0.019574662  0.039539489            2 
   25000    1.2469217   -6.8798674    6.1240011  0.020413337  0.039243434            1 
   26000     1.235348   -6.7934592    6.6144929  0.021200297  0.039126095            2 
   27000    1.2444581   -6.7903857    7.0848378  0.021866783  0.039037876            2 
   28000    1.2402193   -6.8124144    7.4611058  0.022205672  0.038862084            3 
   29000    1.2392417   -6.8295383     8.132513   0.02336929  0.038901315            2 
   30000    1.2573353   -6.8147643    8.5003801  0.023612167  0.038974162            2 
   31000    1.2297869   -6.8596279    8.9214173  0.023982304   0.03895346            1 
   32000    1.2452391   -6.8349306    9.4234605  0.024540261  0.038927401            1 
   33000    1.2265412   -6.8324165    9.8513968  0.024877264  0.038933069            1 
   34000    1.2295357   -6.7978198     10.42811  0.025559092  0.038956914            1 
   35000    1.2445183   -6.8311156      10.8731  0.025888334  0.038975032            1 
   36000    1.2418788   -6.8164589     11.38864  0.026362593  0.039019409            5 
   37000    1.2531359   -6.8626306    11.705895  0.026364629  0.039019265            2 
   38000    1.2323812   -6.8649593    12.149976  0.026644684  0.038998104            3 
   39000    1.2477345     -6.88026    12.591359  0.026904612  0.038934317            2 
   40000    1.2045443   -6.8129157    13.121168  0.027335766  0.038881315            2 
   41000    1.2239154   -6.8234339    13.549496  0.027539626  0.038841713            1 
   42000    1.2442103   -6.8246405    14.008631  0.027794902  0.038792402            4 
   43000    1.2234678   -6.8315231    14.393359  0.027894106  0.038739938            1 
   44000    1.2579477   -6.8010929    14.993243  0.028396294  0.038718011            2 
   45000    1.2236751   -6.8329472    15.366857  0.028457142  0.038701412            1 
   46000    1.2560968   -6.8389905    15.899641  0.028803697  0.038688908            2 
   47000    1.2320306   -6.8394732     16.48578  0.029230106  0.038700596            1 
   48000    1.2494278   -6.8033909    17.062311  0.029622068  0.038756455            1 
   49000    1.2403806   -6.8073717    17.525023  0.029804461  0.038810222            2 
   50000    1.2490553   -6.8052338    17.979833  0.029966388  0.038854806            1 
   51000    1.2502329   -6.8798877    18.426444  0.030108568  0.038890008            2 
   52000     1.264946   -6.8330477    18.867224  0.030235935  0.038918813            1 
   53000    1.2641627    -6.809425    19.294308  0.030336962  0.038954637            2 
   54000    1.2308054   -6.8162835    19.743101  0.030467748  0.038977409            1 
   55000    1.2350477    -6.803488    20.269301  0.030711062  0.038982279            2 
   56000    1.2390691   -6.8147725    20.714319  0.030824879  0.038993498            3 
   57000    1.2318048   -6.8007712    21.223458  0.031028447  0.039010167            1 
   58000    1.2302806    -6.808824    21.695622  0.031171871   0.03902272            1 
   59000    1.2215322    -6.837536    22.030493  0.031116516  0.039026399            3 
   60000    1.2251461   -6.8131803    22.400176  0.031111355  0.039006072            3 
   61000    1.2533049   -6.8091733    22.980127  0.031393615  0.038993484            2 
   62000    1.2634704   -6.8600485    23.360714  0.031398809  0.038975164            2 
   63000    1.2527675   -6.8303186    23.923642  0.031645029  0.038952807            1 
   64000    1.2588846   -6.8774202    24.269847  0.031601363  0.038942347            2 
   65000      1.23155   -6.8334029    24.932911   0.03196527  0.038945585            2 
   66000    1.2334622    -6.790828    25.517434  0.032218982  0.038949991            1 
   67000     1.245221    -6.828782    25.898375  0.032211909  0.038972623            3 
   68000    1.2365282   -6.8382875    26.324413  0.032260309  0.038986511            1 
   69000    1.2408128   -6.8284276    26.859999  0.032439612  0.038988857            1 
   70000    1.2592023   -6.8910914    27.322818  0.032527164   0.03900306            2 
   71000    1.2356904   -6.8442509    27.959307  0.032816088  0.039030842            1 
   72000    1.2276143   -6.8643009    28.475792  0.032958092  0.039068505            2 
   73000    1.2492995   -6.8260057    28.916472  0.033009671  0.039104308            2 
   74000    1.2562143   -6.8084373    29.573967  0.033304017  0.039155366            2 
   75000    1.2422753   -6.8551169    29.960102  0.033289002  0.039200404            2 
   76000    1.2497247   -6.8311916    30.351134  0.033279752  0.039242266            1 
   77000    1.2263235   -6.8788941    30.653771  0.033175076  0.039266106            2 
   78000    1.2545532   -6.8558321    31.149552  0.033279436  0.039275357            2 
   79000    1.2431341   -6.8849178    31.535152  0.033264928  0.039277523            2 
   80000    1.2632439    -6.831009    32.094856  0.033432141  0.039289674            2 
   81000    1.1905145   -6.8360985    32.695841  0.033637697  0.039309021            3 
   82000    1.2260086   -6.8481377    33.348608  0.033890862  0.039330156            1 
   83000     1.219658   -6.8500494    33.769382  0.033905002  0.039351216            1 
   84000    1.2388592   -6.8341209    34.207468   0.03393598  0.039366735            1 
   85000    1.2311278   -6.8703238    34.663736  0.033984055  0.039387348            1 
   86000    1.2503404   -6.8393047      35.3705   0.03427374  0.039409475            2 
   87000    1.2549103   -6.8294535    35.760761  0.034253602  0.039436366            1 
   88000    1.2418698   -6.8368736     36.24491  0.034322831  0.039460169            1 
   89000    1.2351644   -6.8595807    36.681564  0.034346034  0.039481802            1 
   90000     1.239988   -6.7792758    37.109383   0.03436054  0.039499364            1 
   91000    1.2293451   -6.8666599    37.473563   0.03431645  0.039511482            1 
   92000    1.2618534   -6.8346947    37.954879  0.034379419  0.039521918            1 
   93000    1.2605626    -6.854527    38.316842  0.034334088  0.039529253            2 
   94000    1.2235742   -6.8497952    38.888849  0.034475929  0.039534115            1 
   95000    1.2446961   -6.8283754     39.44372  0.034599754  0.039537404            1 
   96000    1.2478587   -6.8474204    39.860933  0.034601504   0.03954467            1 
   97000    1.2271701   -6.8262663    40.242715  0.034572779  0.039545653            1 
   98000    1.2217686   -6.8671479    40.505308  0.034443289  0.039540139            2 
   99000    1.2154816   -6.8414809    40.991474  0.034504608   0.03953203            2 
  100000     1.229258   -6.9103131    41.301574  0.034417978  0.039515008            1 
  101000    1.2749208   -6.8847363    41.873102  0.034548764  0.039497482            2 
  102000    1.2530869   -6.8806724    42.232507  0.034503682  0.039478219            1 
  103000    1.2407994   -6.8888603     42.46375  0.034355785   0.03944971            1 
  104000     1.233611   -6.8308452    43.222784  0.034633641  0.039427148            2 
  105000    1.2534585   -6.8821184    43.446428  0.034481292  0.039406552            1 
  106000    1.2409333   -6.8455961    44.090914  0.034662668  0.039387471            1 
  107000    1.2361088    -6.886321    44.420373  0.034595306  0.039367036            2 
  108000    1.2503285   -6.8860103    44.694089  0.034486179  0.039337522            1 
  109000    1.2530875   -6.8666175    45.184829  0.034544976  0.039307815            1 
  110000    1.2308866   -6.8829044    45.535875  0.034496875  0.039275042            1 
  111000    1.2282674   -6.8484433    46.052323  0.034573816  0.039244095            2 
  112000    1.2258398   -6.8561298    46.405204  0.034527682  0.039214663            1 
  113000    1.2146275   -6.8813112     46.90078  0.034587596  0.039184528            1 
  114000     1.227122   -6.8366421    47.729612  0.034890067  0.039161162            3 
  115000    1.2356156   -6.8561615    47.854494  0.034677169  0.039141732            2 
  116000    1.2314867   -6.8403172    48.696944  0.034983437  0.039120733            1 
  117000    1.2396687   -6.8651618    49.112935  0.034980723  0.039105153            1 
  118000    1.2389844   -6.8735595     49.31658  0.034828093  0.039091267            2 
  119000    1.2390977   -6.8679079    49.735775  0.034828974    0.0390723            1 
  120000    1.2401715   -6.8572352    50.284816  0.034920011  0.039050965            2 
  121000    1.2348134    -6.834437    50.743853  0.034947557  0.039030683            2 
  122000    1.2407848   -6.8318984     51.39876  0.035108442  0.039016729            2 
  123000    1.2646798   -6.9094492    51.771561  0.035075583  0.039000797            3 
  124000    1.2188934   -6.8813533    51.989212  0.034938986  0.038988838            1 
  125000    1.2326859   -6.8778318    52.404766   0.03493651   0.03897037            1 
  126000    1.2149992   -6.8483688    52.958026  0.035025149   0.03895204            2 
  127000    1.2184271   -6.8273183    53.561971   0.03514565  0.038937192            1 
  128000    1.2401132   -6.8743029     54.06937  0.035201413  0.038930127            1 
  129000     1.224531   -6.8903846    54.426994  0.035159557  0.038920196            1 
  130000    1.2482549   -6.8552493    55.068006  0.035300004    0.0389145            2 
  131000    1.2541665    -6.898115    55.298025  0.035176861  0.038900805            1 
  132000    1.2340317   -6.8821693      55.5709  0.035082639  0.038888491            1 
  133000    1.2253977   -6.8903933    56.242193  0.035239469  0.038874624            1 
  134000    1.2389768   -6.8590026     56.54706  0.035166082  0.038859127            1 
  135000     1.229813   -6.8652805    56.791861  0.035056704   0.03884014            1 
  136000    1.2425803   -6.8573128    57.612494  0.035301773  0.038819785            2 
  137000    1.2464584   -6.8338356    58.115989  0.035350358  0.038807952            2 
  138000    1.2414271   -6.8736497    58.349399  0.035235144  0.038793535            1 
  139000    1.2052422   -6.8884134    58.860527  0.035288086  0.038775846            1 
  140000    1.2176954   -6.8406762    59.353642  0.035329549  0.038762858            1 
  141000    1.2208661    -6.886381    59.494249  0.035162085  0.038745058            3 
  142000    1.2273063   -6.8510258    59.881233  0.035141568  0.038726464            3 
  143000     1.208466   -6.8833982    60.583327  0.035304969  0.038706837            2 
  144000    1.2217202   -6.8758568    61.278671  0.035462194  0.038694951            1 
  145000    1.2231567   -6.9187732     61.95864  0.035608413   0.03869011            1 
  146000    1.1922736   -6.8471237    62.588066  0.035723782  0.038688223            2 
  147000    1.2182933   -6.8449498    63.062529  0.035749733  0.038685961            1 
  148000    1.2325468   -6.8533709    63.185914  0.035577654  0.038680435            3 
  149000    1.2431711   -6.8976493    63.532133  0.035532513  0.038670195            1 
  150000    1.2072491   -6.8679589    63.981062  0.035545034  0.038660429            1 
  151000    1.1886604   -6.9260312    64.048878  0.035347063  0.038648204            2 
  152000    1.2240866    -6.860306    64.426612  0.035321607  0.038631669            1 
  153000    1.2173626   -6.8607423    65.038436  0.035423985  0.038615035            1 
  154000    1.2126125   -6.8263407     65.91328  0.035667359  0.038605219            2 
  155000    1.2106145   -6.8879875    66.006647  0.035487444   0.03859341            1 
  156000    1.2126368   -6.8808637    66.367556  0.035452754  0.038580546       -1e+20 
  157000    1.2423649   -6.8356294    67.132925  0.035633187  0.038572125            1 
  158000    1.2349309   -6.8462888    67.511116  0.035607128  0.038563366            2 
  159000    1.2510399   -6.8348841    68.163539  0.035725125  0.038554052            4 
  160000    1.2278834   -6.8057473    68.771931  0.035818714  0.038546814            1 
  161000    1.2146571   -6.8671758     69.00797  0.035718411  0.038541797            4 
  162000    1.2520666   -6.8296866    69.554238  0.035778929  0.038538208            2 
  163000    1.2203338   -6.9183085    69.877301  0.035724591  0.038536452            2 
  164000    1.2156158    -6.862435    70.757121  0.035953822  0.038537824            2 
  165000    1.2129502   -6.9037401    70.930672  0.035823571  0.038540023            1 
  166000    1.2185915   -6.8820288    71.826052  0.036057255  0.038541595            1 
  167000    1.2243176   -6.8845514    72.477794  0.036166564  0.038546679            2 
  168000    1.2314091   -6.8219313    73.120141  0.036269911  0.038551803            1 
  169000    1.2066185   -6.8459553    73.176596  0.036083134  0.038556854            2 
  170000    1.2332924   -6.8559093    73.451908  0.036005837  0.038557447            2 
  171000    1.2226601   -6.8648262    73.845853  0.035987258  0.038560142            2 
  172000    1.2108128   -6.8443375    74.653229    0.0361692  0.038562098            2 
  173000    1.2293328    -6.871287    75.046672  0.036149649  0.038565003            2 
  174000    1.2231391   -6.8864101    75.379082  0.036101093   0.03856688            2 
  175000    1.2345671   -6.8633711    75.908777  0.036147036  0.038570204            3 
  176000    1.2186984   -6.9273369    76.096371  0.036030478  0.038573559            2 
  177000    1.2380234   -6.8571219     76.72485  0.036122811  0.038573418            3 
  178000    1.1917424    -6.877167    77.149953  0.036118892  0.038574231            1 
  179000    1.2121151   -6.8596819     77.51524  0.036087169  0.038572013            2 
  180000    1.2230137     -6.85808    78.001776  0.036111933  0.038567812            1 
  181000    1.2525786   -6.8629642    78.311814  0.036055163  0.038563666            1 
  182000    1.2255849     -6.78648    79.445654  0.036376215  0.038562098            1 
  183000    1.2228355   -6.8637458    79.324763  0.036122388  0.038561843            1 
  184000    1.2021093   -6.8528839    80.104706  0.036279305  0.038560547            2 
  185000    1.2413755   -6.8394699    80.003383   0.03603756  0.038556456            2 
  186000    1.2191188   -6.8928005    80.299441  0.035976452  0.038550287            3 
  187000    1.2487268   -6.9140872    80.708661  0.035966426  0.038543496            2 
  188000    1.2228763   -6.8569285    81.385339  0.036075061   0.03853542            2 
  189000     1.219149    -6.867388    81.638743  0.035995918  0.038527455            1 
  190000    1.1934413   -6.8717873    82.048656  0.035986253  0.038520317            2 
  191000     1.201968   -6.8676101    82.565097  0.036023166  0.038510768            2 
  192000    1.2054811   -6.8742438    82.757905  0.035919229    0.0385007            2 
  193000    1.2354571   -6.9181936    82.916931  0.035801783  0.038487855            1 
  194000    1.2216765   -6.9091692    83.883939   0.03603262  0.038474006            2 
  195000    1.2189641   -6.9111557    84.145788  0.035959738  0.038465052            3 
  196000    1.2600462   -6.8747489    84.703285  0.036013301  0.038455896            1 
  197000    1.2267818   -6.8976823    84.979459  0.035947318  0.038446788            4 
  198000    1.2386342   -6.8537591      85.7742  0.036100253   0.03843914            2 
  199000    1.2365916   -6.8657574    86.298636  0.036138457  0.038433423            2 
  200000    1.2229097   -6.8672203    86.829452  0.036178938  0.038427126            2 
  201000    1.2139403   -6.8695913    87.344666  0.036212548  0.038421621            2 
  202000    1.2221702   -6.9050803    87.727293  0.036191127  0.038416742            1 
  203000    1.2107466   -6.8419922    88.540378  0.036346625  0.038413693            1 
  204000    1.2277002   -6.8957237    88.841738   0.03629156  0.038413706            1 
  205000    1.2046203   -6.8684904    89.502398  0.036383089   0.03841272            3 
  206000    1.2101713   -6.8584205    89.688538  0.036281771  0.038411279            1 
  207000    1.2007393   -6.9081073    90.345285  0.036370887  0.038409228            1 
  208000    1.2181398   -6.8716372    90.069138  0.036085392  0.038405256            1 
  209000    1.2136279   -6.8826586    90.738021  0.036179434  0.038400258            1 
  210000    1.2372247   -6.9083909    91.383632  0.036263346  0.038396192            2 
  211000    1.2388584   -6.8952566    91.828044     0.036267  0.038392576            1 
  212000    1.2192938    -6.916264    92.354637  0.036302923  0.038387777            1 
  213000    1.2629922   -6.8783685    92.855741  0.036328537  0.038383893            1 
  214000    1.1994576   -6.9048278    93.116315  0.036260247  0.038381172            1 
  215000    1.2182898   -6.8979445    93.463712  0.036226245  0.038376517            1 
  216000    1.2077414   -6.8557366    94.332155  0.036393578  0.038375506            3 
  217000    1.2502881    -6.935611    94.482358  0.036283548  0.038373362            2 
  218000    1.2500966   -6.8693734    95.117199  0.036359785  0.038369961            2 
  219000    1.2419934   -6.8855431    95.279828  0.036255642  0.038368251            1 
  220000    1.2406072   -6.9046388    95.919201   0.03633303  0.038366333            2 
  221000    1.2238866   -6.8376549    96.506613  0.036390126  0.038364017            1 
  222000    1.1979585   -6.8940814    97.040363  0.036426563  0.038360068            1 
  223000    1.1939209   -6.8919134    97.451767  0.036416953    0.0383569            2 
  224000    1.2169254   -6.8393972    98.156185  0.036516438  0.038356109            1 
  225000     1.228504   -6.8778713    98.481468  0.036474618   0.03835307            1 
  226000    1.1971243   -6.8630477    99.236506  0.036591632  0.038350364            1 
  227000    1.2260157   -6.9055606    98.789719  0.036266417  0.038346492            1 
  228000    1.2293723   -6.9064677    99.138231  0.036234734  0.038339411            1 
  229000    1.1961183   -6.9121355    99.745991  0.036297668  0.038331033            1 
  230000    1.2238163   -6.9061298    100.34542  0.036357038  0.038326351            1 
  231000    1.2031091   -6.9077542    100.93066  0.036410772  0.038321379            1 
  232000    1.2198268    -6.902583    101.72518  0.036539219  0.038318792            1 
  233000    1.2135214   -6.9028964    102.05485  0.036500304  0.038315985            3 
  234000    1.2127097   -6.8893235     102.3603  0.036453097  0.038315304            4 
  235000    1.2288798   -6.8790239    102.91712  0.036495433  0.038315527            2 
  236000    1.2300865    -6.915884    103.51915  0.036553374  0.038313399            1 
  237000    1.2110973   -6.9062649    104.00385  0.036569568  0.038310621            2 
  238000     1.207871   -6.8717656    104.74499  0.036675417  0.038309591            2 
  239000    1.2020206   -6.9007972    104.25103  0.036349732  0.038304664            2 
  240000    1.2081372   -6.9170605    104.57324  0.036310152  0.038296499            1 
  241000    1.2183858   -6.8721253    105.33478  0.036422816  0.038290715            1 
  242000    1.2029228   -6.8886844    105.56008  0.036349889  0.038285289            2 
  243000    1.2150112   -6.8757473      105.846  0.036298355  0.038277704            4 
  244000    1.2119585   -6.9020548    106.11368  0.036241012  0.038271697            4 
  245000    1.2217262   -6.8830541    106.77661  0.036318575  0.038263965            1 
  246000    1.2367163   -6.9129891    107.31385  0.036352931  0.038257514            2 
  247000    1.2256224   -6.9076222    108.07168   0.03646143  0.038252919            2 
  248000     1.198458   -6.9061378    108.36489  0.036412934  0.038249885            2 
  249000     1.224787   -6.9316306     108.6796  0.036372022  0.038245143            3 
  250000    1.2087664   -6.8760407    109.64043  0.036546809  0.038239104            3 
  251000    1.1887898   -6.8945824    110.06716  0.036542881  0.038236264            1 
  252000    1.2156298   -6.9176675    110.42597  0.036516524  0.038234142            5 
  253000    1.2210296   -6.8511818    111.49682  0.036724907  0.038233909            2 
  254000    1.2347851   -6.9058784    111.84836  0.036695656  0.038234645            1 
  255000    1.2139224   -6.8978776    112.26985  0.036689492  0.038235862            1 
  256000    1.2179961   -6.9212166    112.97928  0.036777108   0.03823885            2 
  257000    1.1947425   -6.9011967    113.31521  0.036742935  0.038241509            1 
  258000    1.2174011   -6.9100356    113.66489  0.036713465  0.038242379            3 
  259000    1.2127884   -6.9273681    114.13607  0.036723318  0.038244502            2 
  260000    1.1891323    -6.945024    114.34076  0.036647678  0.038245609            1 
  261000     1.227472   -6.9099854    114.81916  0.036660012  0.038245773            4 
  262000    1.2148783   -6.9000838    115.34753  0.036688144  0.038245236            1 
  263000    1.2101186   -6.8865898    115.34438  0.036547648  0.038242554            2 
  264000    1.2483325   -6.9159256    115.58208  0.036484243  0.038239405            1 
  265000    1.1837828   -6.9166674    116.04766  0.036492976  0.038235919            2 
  266000    1.1896672   -6.9267111     116.7829  0.036586122  0.038232032            2 
  267000    1.2111934   -6.8781957     117.2802  0.036604307  0.038227387            2 
  268000    1.1927281   -6.9233168    117.43646  0.036516314   0.03822359            1 
  269000     1.213374   -6.9204183    118.08995  0.036583008  0.038218306            1 
  270000    1.1789204   -6.9083061    118.34365  0.036525819  0.038212889            1 
  271000    1.1942174   -6.8476708    119.13237   0.03663357  0.038208613            1 
  272000    1.2188145   -6.9157946    118.61875  0.036341528  0.038203499            1 
  273000    1.2060165   -6.9149468    119.31407  0.036420656  0.038196218            1 
  274000    1.2220944   -6.9208692    119.40126  0.036314252  0.038189138            1 
  275000    1.2249504    -6.911709    119.57975  0.036236288  0.038179942            2 
  276000    1.1823133    -6.897056    120.13024  0.036271208  0.038169428            2 
  277000    1.2056334   -6.8729631    120.62024  0.036287678  0.038159199            1 
  278000    1.2044095   -6.8823757    121.16324  0.036319916  0.038149731            1 
  279000     1.232724    -6.918481      121.583  0.036315114  0.038141762            1 
  280000     1.214999   -6.9012772     122.0263  0.036317352  0.038133141            2 
  281000    1.2295873   -6.9471723    122.46687  0.036318763  0.038124207            1 
  282000    1.2220144   -6.9678404    122.98097  0.036341894  0.038116088            1 
  283000    1.2226417   -6.9247325    123.59334  0.036393797  0.038107562            1 
  284000    1.1885123    -6.936196    124.15464  0.036430351  0.038099543            2 
  285000    1.2065521   -6.9107565    124.13415  0.036296536   0.03809054            3 
  286000    1.2099712   -6.8806806    124.81036  0.036366656  0.038081724            2 
  287000    1.1996931   -6.9072075    125.42502  0.036418413  0.038072765            3 
  288000    1.2073949   -6.8902874    125.44904  0.036298912   0.03806248            2 
  289000    1.1878679   -6.9092522    125.78282  0.036269554  0.038052198            1 
  290000    1.2176385   -6.9059038    125.98011   0.03620118  0.038041533            1 
  291000    1.1851938   -6.9103967    127.05171  0.036383652  0.038032132            1 
  292000    1.2198584   -6.8948952    127.35667  0.036346082  0.038023555            1 
  293000    1.1976765   -6.9529198    127.09161  0.036146647  0.038013106            2 
  294000    1.2164131   -6.9089578    127.69914  0.036195902  0.038002717            2 
  295000     1.207537   -6.9700751    127.92493  0.036136986  0.037992343            1 
  296000    1.1990336    -6.927935    128.59303  0.036202993  0.037982253            3 
  297000     1.216403   -6.8967662    129.23208  0.036260405    0.0379728            2 
  298000    1.2130576    -7.002624    129.43354  0.036195062   0.03796192            1 
  299000    1.1855628   -6.9461675    129.55182  0.036106972  0.037949208            4 
  300000    1.1995047   -6.9277872    130.05222  0.036125617  0.037936505            1 
  301000    1.2225745   -6.9133072    130.27838  0.036068212  0.037923002            1 
  302000    1.2188989   -6.9028105    131.21675  0.036207713  0.037910308            1 
  303000    1.2086944   -6.9538906    131.15492   0.03607121  0.037898088            1 
  304000    1.1741268   -6.8746475    131.43171   0.03602843  0.037885113            1 
  305000     1.209295   -6.9345985    131.63033  0.035964572  0.037870671            2 
  306000    1.1988293   -6.9207559    131.73275  0.035874931  0.037855744            1 
  307000    1.1831859   -6.9448517    132.26214  0.035901775  0.037841686            2 
  308000    1.1813852   -6.9318193    133.21203  0.036042217   0.03782764            1 
  309000    1.1976751   -6.9403782    133.20954  0.035924902  0.037814434            4 
  310000    1.2279817   -6.9433106    133.94407   0.03600647  0.037801043            3 
  311000    1.2362952   -6.9546689    134.03374  0.035914721  0.037787654            1 
  312000    1.1993775   -6.9090671    134.88139  0.036026014  0.037775064            1 
  313000    1.1955982   -6.9207655    135.26956   0.03601426  0.037762723            2 
  314000    1.1680062    -6.895013    136.36052  0.036189098  0.037750791            2 
  315000    1.2262917   -6.9075643    135.74416  0.035911152  0.037736827            1 
  316000    1.1788805   -6.9146025    136.59608  0.036022172  0.037722956            1 
  317000    1.2188996   -6.9214985    136.02545  0.035758531  0.037708614            1 
  318000    1.2080839   -6.9341551    137.08761  0.035924426  0.037692741            1 
  319000    1.1853472   -6.9289962    137.25203  0.035854761  0.037677017            3 
  320000    1.1682072   -6.9193745    138.04132   0.03594826  0.037662513            1 
  321000     1.210027   -6.9248768    137.69276  0.035745785  0.037647737            1 
  322000    1.1968872    -6.907347    138.57235   0.03586241  0.037632764            1 
  323000    1.2076355    -6.883139    138.69495  0.035783011  0.037617366            1 
  324000    1.1909042   -6.9133545    139.11579   0.03578081  0.037601753            2 
  325000    1.2043001   -6.8803371    139.12477  0.035673017  0.037585632            2 
  326000    1.2013525   -6.9181062    139.45893  0.035649011  0.037569127            2 
  327000    1.2006754   -6.9461446    139.57744  0.035570193  0.037551926            2 
  328000    1.2314873   -6.8719759    140.10681  0.035596242  0.037534706            1 
  329000    1.1900044   -6.8997522    141.53011  0.035848558  0.037518777            2 
  330000    1.1971076   -6.9306452    141.24845  0.035668802    0.0375025            3 
  331000    1.2030557   -6.9124362    141.93733  0.035734475  0.037486396            2 
  332000    1.2062091   -6.9117499    142.11849   0.03567231   0.03747124            1 
  333000    1.2101283   -6.9298211    142.83156  0.035743634  0.037456099            1 
  334000    1.1946725   -6.9130024    142.94027  0.035663739  0.037441398            2 
  335000    1.2023847   -6.9542086     143.4365  0.035680721  0.037426325            2 
  336000    1.2040668    -6.934267    143.69708  0.035639157  0.037412764            2 
  337000     1.189069   -6.9037168    144.75524  0.035795064  0.037399264            3 
  338000    1.2039098   -6.9279788    145.17129  0.035791737  0.037386556            1 
  339000    1.2175907   -6.9576261    145.80497  0.035841929  0.037374251            1 
  340000    1.1806637    -6.913683    146.11109  0.035811541  0.037362611            1 
  341000    1.2193121   -6.9433105    146.79324  0.035873226  0.037350943            1 
  342000    1.2052703   -6.9415639    147.73429  0.035997633  0.037341322            1 
  343000     1.206126   -6.9109361    148.21383   0.03600919  0.037333949            1 
  344000    1.2095768    -6.930692    148.62034  0.036002988  0.037326526            2 
  345000    1.2218652   -6.9260924    149.50521   0.03611237  0.037317608       -1e+20 
  346000    1.1980318   -6.9232531    150.05167  0.036139611  0.037310725            1 
  347000    1.1966376   -6.9177879    149.97723  0.036017586   0.03730412            2 
  348000    1.2010133   -6.9039189    151.28084  0.036226254   0.03729835            1 
  349000    1.1940753   -6.9700212    150.81916  0.036012215  0.037291737            1 
  350000    1.2023023   -6.9528659    151.06952  0.035968932  0.037284759            2 
  351000    1.2029988   -6.9701702    151.54615  0.035979618  0.037276927            3 
  352000     1.203574   -6.9501399    152.04157  0.035994689  0.037269908            2 
  353000    1.2120615   -6.9645148    152.71758  0.036052309  0.037263216            2 
  354000    1.1889809   -6.9627286    152.98896   0.03601435  0.037257031            2 
  355000    1.1672394   -6.9956534     153.3951  0.036008239   0.03725024            2 
  356000    1.2190181   -6.9581726    153.82586  0.036007927  0.037242534            1 
  357000    1.1719979   -6.9105429    154.38539  0.036037673  0.037235424            2 
  358000    1.1856587   -6.9527328    154.67077  0.036003438  0.037229153            3 
  359000    1.1868046   -6.9727736    155.20113  0.036026261  0.037222692            1 
  360000    1.2107458   -6.9229239    156.18575  0.036154108  0.037216208            1 
  361000    1.1745535   -6.9419951    156.31473  0.036083732  0.037210546            2 
  362000    1.1883178   -6.9189468    156.73727  0.036081323  0.037205109            1 
  363000    1.1811704   -6.9504778    157.30553   0.03611238  0.037199395            1 
  364000    1.1963852   -7.0145074    157.02007  0.035947818   0.03719298            1 
  365000    1.1856151   -6.9469438    158.04208  0.036082666    0.0371862            1 
  366000    1.1853808   -6.9430949    158.26493  0.036034821  0.037181285            3 
  367000    1.1700267    -6.930961    158.49567  0.035989026  0.037176612            4 
  368000     1.199146   -6.9333956    160.33173  0.036307004  0.037172639            4 
  369000    1.1824425   -6.8855379    160.16342  0.036170601  0.037169176            1 
  370000    1.2010722   -6.9222464     161.0899  0.036281508  0.037166264            1 
  371000    1.2320928   -6.9518049    161.42778  0.036259608    0.0371639       -1e+20 
  372000    1.1983103   -6.9785171    161.79929   0.03624536  0.037160461            1 
  373000    1.1792724   -6.9453327    162.41979  0.036286817  0.037158924            3 
  374000    1.2080385   -6.9556613    162.90772  0.036298511   0.03715709            2 
  375000    1.1935501   -6.9294328    163.43786  0.036319524  0.037154886            2 
  376000     1.195506    -6.901419    164.24785   0.03640245  0.037154197            1 
  377000    1.1944665   -6.9438367    164.51018  0.036363878  0.037153841       -1e+20 
  378000    1.1758811   -6.9504443    165.20696  0.036421287  0.037152645            2 
  379000    1.1938144    -6.950859     165.5677  0.036404508  0.037152646            1 
  380000    1.1877733    -6.983845    166.29492  0.036468185  0.037152145            1 
  381000    1.2057994   -6.9274522    167.17821  0.036565663  0.037151783            2 
  382000    1.1704805   -6.9313788    167.25592  0.036486894  0.037152865            1 
  383000    1.1646272   -6.9478942    167.50022  0.036444783  0.037153915            4 
  384000    1.1700472   -6.9984464    167.42119  0.036332723  0.037154811            3 
  385000    1.1600943   -6.9265135    169.06034  0.036593147   0.03715562            1 
  386000    1.1715644   -6.9689736     168.9147  0.036466905  0.037156689            2 
  387000    1.2061171   -6.9513343    169.59316  0.036518769  0.037157744            3 
  388000    1.1856043   -6.9675548    169.13494  0.036326233  0.037158221            1 
  389000     1.159321   -6.9520781    169.92086  0.036401211  0.037157849            2 
  390000    1.1743325   -6.9450513    170.52341  0.036436627  0.037157913            2 
  391000    1.2165208   -6.9705192    171.33688  0.036516811  0.037158611            1 
  392000    1.1812014   -6.9868822    171.19341  0.036393157  0.037159328            1 
  393000    1.1818336    -6.952916    171.49429  0.036364353  0.037158886            2 
  394000    1.2185042   -6.9198178    171.90558  0.036359049  0.037157914            2 
  395000    1.1759497    -6.945867    172.33209   0.03635698   0.03715774            1 
  396000    1.1966172   -6.9119546    173.05122  0.036416503  0.037157303            1 
  397000    1.1907799   -6.9140735    173.73136  0.036467539  0.037157409            1 
  398000     1.194589   -6.9790778    173.49412  0.036326239  0.037157277            3 
  399000    1.1712171   -6.9688717    174.24263  0.036391527  0.037157398            2 
  400000    1.1708555   -6.9227456    174.55295  0.036365197  0.037157615            2 
  401000    1.1675388   -6.9632191    175.26771  0.036423048  0.037158169            1 
  402000    1.1763148   -6.8802777    176.17146  0.036519788  0.037158468            3 
  403000    1.2061051   -6.9565014    176.16022  0.036426844  0.037158675            1 
  404000    1.2104231   -6.9485324    176.43009  0.036392346  0.037157834            3 
  405000    1.1971965   -6.9540104    177.14874  0.036450359   0.03715697            2 
  406000    1.1889501   -6.9551494    177.24654  0.036380653  0.037154888            4 
  407000    1.1767412   -7.0024572    177.21395  0.036284593  0.037153019            1 
  408000    1.2034933   -6.9767025     177.9149  0.036338827  0.037151734            2 
  409000    1.1930343   -6.9555216    177.92473  0.036251982  0.037150349       -1e+20 
  410000    1.1852648   -6.9209615    179.26422  0.036435818  0.037150059            2 
  411000    1.1917755   -6.9239405    179.55016  0.036405141  0.037148827            1 
  412000    1.1910503   -6.9810892    179.60068  0.036326998  0.037147383            1 
  413000    1.1935975    -6.952303    180.07593  0.036334933  0.037145309            2 
  414000    1.1758699   -6.9732359    180.50893  0.036334325   0.03714309            3 
  415000    1.2091017   -6.9618196     181.1209  0.036369658  0.037141825            2 
  416000    1.1486392   -6.9265128    182.31185  0.036520802  0.037141338            1 
  417000    1.1896256   -6.9997762    181.39078  0.036249156  0.037139519            1 
  418000    1.1741544   -6.9741695    182.83089   0.03644954  0.037137857            1 
  419000     1.223055   -6.9003319    183.61937  0.036519366  0.037136217            1 
  420000    1.1835092   -6.9559556    183.26394  0.036361892  0.037134327            4 
  421000    1.1712113   -6.9586397    183.61272   0.03634456  0.037132813            2 
  422000    1.1737878   -6.9191555    184.11848  0.036358309  0.037130685            3 
  423000    1.1919333   -6.9202663    184.56842  0.036360996  0.037129471            4 
  424000    1.1990115   -6.9412038    185.52227   0.03646271  0.037128963            5 
  425000     1.165833   -6.9588135    185.96674  0.036464067  0.037128567            1 
  426000    1.1818053    -6.959695    185.96801  0.036378718  0.037127934            2 
  427000    1.1888911   -6.9615369    186.83489  0.036462702  0.037127395            1 
  428000    1.1599223   -6.9798196     186.7776  0.036366354  0.037127087            2 
  429000    1.2038351   -6.9816379    187.04943  0.036334387   0.03712636            2 
  430000    1.1839944   -7.0072807    187.43339    0.0363243  0.037125145            1 
  431000    1.1837005   -6.9833323    187.15217  0.036185648  0.037122728            1 
  432000      1.19713   -6.9401378    187.99806  0.036265057  0.037120448            3 
  433000    1.2148656   -6.9693712    188.86777  0.036348685  0.037117718            1 
  434000    1.1781645   -6.9844447    188.85641  0.036262751  0.037115226            2 
  435000    1.1966674   -6.9517342    189.40711  0.036284886  0.037113877            2 
  436000    1.1883413    -6.977771    189.89926  0.036295731  0.037112242            2 
  437000    1.1826155   -6.9530332    190.29576  0.036288284   0.03711111            1 
  438000    1.1812049   -6.9680585    191.46081  0.036427094  0.037110207            1 
  439000    1.1525141   -6.9733212    191.27982   0.03630976  0.037108827            2 
  440000    1.1711851   -6.9527511    191.84571  0.036334415  0.037107623            1 
  441000    1.1789262   -6.9834459    192.32598  0.036342777  0.037105922            2 
  442000    1.1678362    -6.947336    192.65542  0.036322666  0.037103962            2 
  443000    1.1980643   -6.9962762    193.14276  0.036332348  0.037102145            2 
  444000     1.179231   -6.9688445    193.64613  0.036344995  0.037100433            2 
  445000    1.1955083    -6.933419    194.37468  0.036399753  0.037099318            2 
  446000    1.1813588   -6.9403156    195.24199  0.036480192  0.037098145            2 
  447000    1.1672149   -6.9930381    194.66693  0.036291374  0.037097273            2 
  448000    1.1644108   -7.0170757    195.44182  0.036354505  0.037095776            1 
  449000    1.1727999   -6.9943043    196.24118  0.036421897  0.037094389            1 
  450000    1.2022618   -6.9532826    196.19886  0.036333122  0.037092421            1 
  451000    1.1932302   -6.9362171    197.30297  0.036456573   0.03709026            1 
  452000    1.1864752   -6.9508158    196.51914  0.036231406  0.037088724            1 
  453000    1.1925566   -6.9468137    197.75543   0.03637885  0.037086536            2 
  454000    1.1779007   -6.9852114    197.65571  0.036280417  0.037085011            1 
  455000     1.188275   -6.9697389    198.23163  0.036306159  0.037083016            2 
  456000    1.1800976   -6.9598528    198.46821  0.036269776  0.037080225            2 
  457000    1.1662284   -6.9657574    199.24261  0.036331621  0.037077849            3 
  458000    1.1742348   -7.0044773    199.53438  0.036305382  0.037075079            1 
  459000    1.1733539   -6.9511056    199.17199  0.036160493  0.037072214            1 
  460000     1.152906   -6.9487019    200.05203   0.03624131  0.037069313            2 
  461000    1.1837016   -6.9924659    200.41088  0.036227563  0.037066453            1 
  462000    1.1947297   -6.9858858    200.65025  0.036192324  0.037062993            1 
  463000    1.1744496   -6.9649832    201.17542  0.036208679  0.037058602            2 
  464000    1.1788097   -6.9404835    202.01293  0.036281058  0.037055483            2 
  465000     1.171646   -6.9840407    201.91612  0.036185685  0.037052498            2 
  466000    1.2050421   -6.9858983    202.35564   0.03618663  0.037048158            2 
  467000    1.1944396   -6.9768103    202.39529  0.036116219  0.037043766            3 
  468000    1.1717567   -6.9931868    203.28507  0.036197483  0.037039744            2 
  469000     1.180654   -6.9384001    203.87323   0.03622481  0.037036238            1 
  470000    1.1753894   -6.9785563    204.48724  0.036256602  0.037032784            1 
  471000    1.1956038   -6.9711637    204.40774  0.036165559  0.037028799            1 
  472000    1.1839609   -6.9955093    204.87941  0.036172213   0.03702436            1 
  473000    1.1706128   -6.9882486    205.15679  0.036144606  0.037020208            3 
  474000    1.1749705   -7.0082661    205.71825  0.036167062  0.037015926            2 
  475000    1.2238287    -6.969707    205.81071  0.036107143  0.037011426            1 
  476000    1.1800786   -6.9738175    206.01303  0.036066707  0.037006514            1 
  477000    1.1783036   -7.0055083    206.11287  0.036008537  0.037001629            2 
  478000    1.1673225   -6.9408533    207.21556  0.036125447  0.036996424            3 
  479000     1.168142   -6.9610195     207.4876  0.036097355  0.036991262            3 
  480000    1.1757337    -6.959659    207.79719  0.036075901  0.036985275            2 
  481000    1.1874245   -6.9389049      208.224  0.036074843  0.036979651            1 
  482000    1.1807278   -6.9266858    208.98894  0.036132252  0.036974549            2 
  483000    1.1797063   -6.9762581    208.87342  0.036037513  0.036969339            2 
  484000    1.1804016   -6.9848562    209.17837  0.036015559  0.036964438            2 
  485000    1.1693774   -6.9878933    210.10031   0.03609971  0.036959053            1 
  486000     1.163961   -6.9684493    210.21154  0.036044503  0.036954075            1 
  487000    1.1454325   -7.0542254    209.97407  0.035929855  0.036949453            2 
  488000    1.1683453   -6.9677822    212.08171  0.036216138  0.036944854            2 
  489000    1.1505512   -6.9891356    211.11478  0.035977297  0.036940271            2 
  490000    1.1446341   -6.9728058    212.17583  0.036084324  0.036935442            1 
  491000    1.1706363   -6.9918014    211.93587  0.035970108  0.036930123            2 
  492000    1.1630278   -6.9954193     212.2256   0.03594607   0.03692385            1 
  493000    1.1470938   -7.0103458    212.24147   0.03587584  0.036917741            2 
  494000    1.1662458   -7.0077838    213.34286  0.035989012  0.036911956            1 
  495000    1.2018196   -6.9993501    213.75121  0.035985051  0.036905731            2 
  496000    1.1787693   -6.9452708    214.21156  0.035989845  0.036900175            1 
  497000     1.169135   -7.0143353    213.96562  0.035876194  0.036894013            1 
  498000     1.143357   -6.9816893    214.29272  0.035858889  0.036887096            3 
  499000    1.1637933   -6.9828056    215.14141  0.035928759  0.036880128            1 
  500000    1.2008722   -6.9519861    215.04352  0.035840587  0.036872965            2 
  501000    1.1577913   -6.9793117    215.42219  0.035832034  0.036865923            1 
  502000    1.1947281   -6.9762405    215.70119  0.035806971  0.036858618            1 
  503000    1.1502295   -6.9460412    216.50146  0.035868367  0.036851911            2 
  504000    1.1685557   -6.9752544    216.80006  0.035846571  0.036845898            1 
  505000    1.1844707   -6.9622538    217.92821   0.03596175   0.03684002            1 
  506000    1.1650874   -6.9660106    217.10216  0.035754638  0.036833282            2 
  507000    1.1822647   -6.9722758    218.20237  0.035864952  0.036826123            3 
  508000    1.1576464   -6.9770834    217.67887  0.035708475  0.036818611            1 
  509000    1.1438291   -7.0041159    218.82057  0.035825241  0.036810737            1 
  510000    1.1893581   -6.9977275    218.66033  0.035728813  0.036802976            1 
  511000    1.1989273   -6.9618455    218.87242   0.03569348  0.036795255            3 
  512000    1.1621712   -6.9847741    219.71242  0.035760484  0.036787325            2 
  513000    1.1948496   -6.9467425    220.08425  0.035751178   0.03677905            4 
  514000    1.1775015   -6.9791835    219.62899  0.035607812  0.036771249            2 
  515000    1.1608474    -6.979518    220.16106  0.035624767  0.036762985            3 
  516000    1.1746463   -7.0269255    220.27379  0.035573932  0.036754729            1 
  517000    1.1554904   -6.9844068    221.35697  0.035679717  0.036745649            4 
  518000    1.1588252   -7.0110125    221.71222  0.035667989  0.036737898            3 
  519000    1.1722967   -6.9797005    222.54231  0.035732548  0.036730332            2 
  520000    1.1827442    -6.985294    222.62531  0.035677133  0.036722809            1 
  521000     1.170364   -7.0205973    223.34515  0.035723793  0.036715654            4 
  522000     1.210356   -7.0328601    223.71787  0.035714858  0.036708483            2 
  523000    1.1778702   -6.9999778    223.97386  0.035687358  0.036701568            1 
  524000    1.1832136   -6.9800804    224.88408  0.035764007  0.036694901            2 
  525000    1.1553335   -7.0053796    225.89606  0.035856518  0.036689194            1 
  526000     1.191559   -6.9779975    226.34328  0.035859201  0.036683299            1 
  527000    1.1440507   -6.9478423    226.65181  0.035839945  0.036677947            1 
  528000     1.157607   -7.0133261    227.25891  0.035867884  0.036672309            2 
  529000     1.163399   -6.9845959    227.81168  0.035887158  0.036666117            1 
  530000    1.1777418    -7.027677    227.55586  0.035779223  0.036659909            1 
  531000    1.1493066   -6.9823439    227.88487  0.035763476  0.036653385            1 
  532000    1.1495862    -6.979511    228.17875  0.035742286  0.036646784            1 
  533000    1.1347574   -7.0236899    228.33083  0.035699003  0.036639518            1 
  534000    1.1710524   -6.9866426    228.82049  0.035708566  0.036632278            2 
  535000    1.1697647    -6.969112    229.33463  0.035721905   0.03662552            2 
  536000     1.154516   -6.9876503    229.15283  0.035626995  0.036618339            1 
  537000    1.1699915   -6.9967758    229.76012  0.035654891  0.036611022            1 
  538000    1.1469959   -6.9887161    229.84901  0.035602387  0.036603471            2 
  539000     1.200954   -6.9456917    230.24139  0.035596998    0.0365954            2 
  540000    1.1619757   -7.0097545    231.45998  0.035719133  0.036587946            3 
  541000    1.1859209   -6.9871109    230.97814  0.035578887  0.036580004            2 
  542000     1.182321   -7.0364686    231.15086  0.035539799  0.036572433            2 
  543000    1.1777498   -6.9828388    232.12836  0.035624364  0.036564765            3 
  544000    1.1621258   -7.0001718    231.90823  0.035525158  0.036556705            3 
  545000    1.1583782   -6.9774459    232.05821  0.035482906  0.036548707            1 
  546000    1.1696626   -7.0499832    232.67203  0.035511604  0.036540988            2 
  547000    1.1729304    -6.982276    233.74243  0.035609755  0.036533118            2 
  548000    1.1485067   -6.9266992     234.8632  0.035715207  0.036526057            2 
  549000    1.1572544   -7.0283706     233.2848  0.035410565  0.036518159            4 
  550000    1.1822399   -6.9722455    234.64256  0.035551903  0.036509974            1 
  551000    1.1453135   -6.9772175    234.22132  0.035423672   0.03650161            3 
  552000    1.1673559   -6.9737059    235.12279  0.035495591  0.036493517            2 
  553000    1.1756311   -7.0145271    234.68363  0.035365225   0.03648546            2 
  554000    1.1498829   -6.9894486    235.90171  0.035484613   0.03647721            2 
  555000    1.1484096   -6.9640212    235.99474  0.035434646  0.036468962            2 
  556000    1.1551779   -6.9664318    236.70848  0.035477889  0.036461278            2 
  557000    1.1507235    -7.005812    237.13046  0.035477328  0.036452973            2 
  558000    1.1840088   -6.9724807    236.65062  0.035342088  0.036444727            2 
  559000    1.1588242    -7.009986    237.23431  0.035365878  0.036436218            3 
  560000    1.1499821   -6.9681267    238.00544  0.035417476  0.036427588            1 
  561000    1.1851258   -7.0211188    237.91434  0.035340811  0.036418865            2 
  562000    1.1604199   -7.0046637    237.73856  0.035251863  0.036410376            1 
  563000    1.1843669   -6.9944846    238.67961  0.035328539  0.036401438            2 
  564000    1.1761977   -7.0316048    239.39657  0.035371833  0.036392945            1 
  565000    1.1564237   -6.9938494    240.26005  0.035436585  0.036384381            5 
  566000    1.1801536   -6.9484575    240.96853  0.035478288  0.036376194            1 
  567000     1.176695   -6.9676741    241.05263  0.035428077  0.036368147            3 
  568000    1.1849221   -7.0049043    240.96983  0.035353555  0.036360137            2 
  569000    1.1570777    -7.008686    240.96359  0.035290508  0.036351674            1 
  570000     1.185422   -7.0383347    241.11584  0.035250854  0.036343157            2 
  571000    1.1565158   -6.9795268    242.63681  0.035411094  0.036334952            1 
  572000    1.1563059   -6.9925616    242.63667  0.035349165   0.03632708            1 
  573000     1.160177   -6.9772698    243.46624  0.035408121  0.036319104            2 
  574000    1.1638348   -7.0470331    242.76105  0.035244055  0.036310612            2 
  575000    1.1471967   -7.0023321    243.48421  0.035287566  0.036302463            1 
  576000     1.163983   -7.0288247    243.72973  0.035261824  0.036294321            1 
  577000     1.169226   -7.0023558    244.40846  0.035298737  0.036285788            1 
  578000     1.150166   -6.9706685    245.51099  0.035396625  0.036277753            2 
  579000    1.1451504   -6.9664024    245.13812  0.035281825  0.036269951            1 
  580000    1.1732724   -7.0099004    245.85549  0.035324064  0.036261813            1 
  581000    1.1702737   -7.0454622    246.47858  0.035352636   0.03625461            1 
  582000    1.1639881   -7.0136572    247.08079   0.03537812   0.03624739            2 
  583000    1.1621844   -6.9959918    247.30062  0.035348859   0.03624049            2 
  584000    1.1608379   -6.9901115    247.21864  0.035276633   0.03623346            2 
  585000    1.1358628    -7.000549    248.40913  0.035385916  0.036226776            1 
  586000    1.1600837   -6.9655726    249.04603  0.035416102  0.036219593            1 
  587000    1.1626416   -6.9853518     249.3016   0.03539205  0.036212428            2 
  588000    1.1528876   -7.0128004    249.37535  0.035342312  0.036205177            4 
  589000     1.172714   -7.0215916    249.81799  0.035344933  0.036197956            2 
  590000    1.1692079   -6.9895859    251.50935   0.03552392  0.036190886            1 
  591000     1.136977   -6.9788319    250.89568  0.035377282  0.036183743            1 
  592000    1.1146164   -6.9968366    250.58172  0.035273328  0.036177271            2 
  593000    1.1573756   -7.0303974    250.68999  0.035229059  0.036170376            2 
  594000    1.1691941   -6.9877161    252.44797  0.035416382  0.036164101            1 
  595000     1.153576    -7.027936     252.0207  0.035297017   0.03615789            1 
  596000    1.1463318   -7.0159396     254.0668  0.035523882  0.036152318            2 
  597000    1.1757169   -7.0309036    253.34008  0.035362938  0.036147162            3 
  598000    1.1698275   -7.0379813     253.5821  0.035337528  0.036141402            2 
  599000    1.1609753   -7.0099184    254.91061  0.035463357  0.036136275            1 
  600000    1.1413785   -7.0382235    255.28007  0.035455566  0.036130144            2 
  601000    1.1729052   -7.0268813    255.44641  0.035419636  0.036124141            1 
  602000    1.1731512   -6.9803026    256.17869  0.035462166  0.036118071            2 
  603000    1.1517815   -6.9877166    255.19747  0.035267754    0.0361121            1 
  604000    1.1556421    -7.052439    255.75285  0.035285989  0.036105532            1 
  605000    1.1547542   -6.9949045    257.31123  0.035442318  0.036099119            1 
  606000    1.1573853   -7.0358868    256.97379   0.03533743  0.036092894            1 
  607000    1.1498909   -7.0328691     257.6848  0.035376826  0.036086327            1 
  608000    1.1326954   -7.0226864    256.38028  0.035139841  0.036079035            2 
  609000    1.1426119   -7.0078994    258.13428  0.035322152  0.036072308            4 
  610000    1.1530907    -7.006905    258.51102  0.035315712  0.036065667            1 
  611000    1.1630779    -7.020392    258.92624  0.035314544  0.036059291            1 
  612000    1.1406454   -7.0123057    259.21746  0.035296494  0.036052861            2 
  613000    1.1563799     -7.01016    258.97022  0.035205304  0.036045774            1 
  614000     1.162191   -7.0254099    260.18114  0.035312315  0.036038706            1 
  615000    1.1640449   -7.0080886    259.87979  0.035214064  0.036031555            8 
  616000    1.1751364   -6.9982983    259.61988  0.035121736  0.036024414            2 
  617000    1.1521596   -7.0130194    260.62314  0.035200315  0.036017024            2 
  618000    1.1454245    -6.993387    261.23397  0.035225724  0.036009622            1 
  619000     1.155536   -7.0328836    260.99025  0.035136006  0.036002426            1 
  620000    1.1491886   -7.0264064    261.11413  0.035095985  0.035995004            1 
  621000    1.1644197   -7.0246445    260.80164  0.034997537  0.035987334            1 
  622000    1.1596032   -7.0274469    262.16735  0.035124242  0.035979673            4 
  623000    1.1617959   -7.0249958    262.63257  0.035130092  0.035972062            3 
  624000    1.1545267   -7.0123087    262.82081  0.035098933  0.035964407            2 
  625000    1.1673904   -7.0253685    262.11943  0.034949258   0.03595679            3 
  626000     1.139953    -7.017543    263.79623  0.035116644  0.035948998            1 
  627000      1.15571   -7.0459237    263.93493  0.035079071  0.035941187            1 
  628000    1.1608398   -7.0517523    264.45941   0.03509281  0.035933821            2 
  629000    1.1614409   -7.0087226    265.77147  0.035210846  0.035926294            1 
  630000     1.177224   -7.0641085     265.9231  0.035175013   0.03591868            2 
  631000    1.1603396   -7.0355007    265.77992  0.035100359  0.035911526            1 
  632000    1.1481445   -7.0505778    265.41332  0.034996482  0.035904064            1 
  633000    1.1741613   -7.0357745    266.22033  0.035047436  0.035896436            1 
  634000    1.1289565   -7.0244961     266.6498  0.035048607  0.035888957            2 
  635000    1.1416719   -7.0232516    267.33844  0.035083785  0.035881945            4 
  636000    1.1369426   -7.0628079    267.05668  0.034991703  0.035874839            1 
  637000    1.1566213   -7.0353779     267.7318  0.035025092  0.035867429            2 
  638000    1.1750187   -6.9906066    267.51856   0.03494234  0.035859778            3 
  639000    1.1429623   -7.0098946    268.89825  0.035067585  0.035852115            2 
  640000    1.1160597   -7.0523311    269.50123  0.035091305  0.035845049            2 
  641000     1.153521   -7.0090674    270.09416  0.035113645    0.0358381            1 
  642000    1.1341794   -6.9935372    270.34836  0.035091947  0.035830992            1 
  643000    1.1492857    -7.021516    270.37814  0.035041231  0.035823499            2 
  644000    1.1523879    -7.066383    269.60946  0.034887352  0.035815946            2 
  645000    1.1756752   -7.0572671    270.18205  0.034907242  0.035808276            1 
  646000    1.1396975    -7.048973    271.02671  0.034962166   0.03580057            1 
  647000    1.1577296   -7.0557363    271.51646  0.034971208   0.03579305            1 
  648000    1.1507023   -7.0618123    271.00697   0.03485172  0.035784752            3 
  649000    1.1490443   -7.0581034    271.85906   0.03490743  0.035776863            1 
  650000    1.1582099   -7.0611319    271.46354  0.034803018  0.035768496            1 
  651000    1.1761078   -6.9976897    273.35609  0.034991819  0.035760574            1 
  652000    1.1517003   -7.0530877    272.90333  0.034880282   0.03575338            1 
  653000    1.1702468   -7.0306707     274.0227  0.034969717  0.035745814            1 
  654000    1.1422941   -7.0224695    274.65246   0.03499649  0.035738566            1 
  655000    1.1697207   -7.0016473     274.7878   0.03496028  0.035731294            2 
  656000    1.1448094   -7.0236535    275.03985  0.034939005  0.035724214            2 
  657000    1.1354809   -6.9937795    275.68132  0.034967189  0.035716776            2 
  658000    1.1416663   -7.0327112    276.46069  0.035012751  0.035709896            2 
  659000    1.1372302    -7.040945    276.45625   0.03495906  0.035702917            2 
  660000    1.1294487    -7.008778    276.87496  0.034958959  0.035695964            1 
  661000    1.1430114   -7.0333521    277.36449  0.034967787  0.035688751            1 
  662000    1.1649843   -7.0364547    278.05945  0.035002449  0.035682107            1 
  663000    1.1644952   -7.0622568    277.49334  0.034878499  0.035675209            3 
  664000    1.1303247   -7.0330527    278.47754  0.034949491  0.035668505            1 
  665000    1.1033862   -7.0415755    278.85451  0.034944174  0.035661942            2 
  666000    1.1745484    -7.072015    279.14021  0.034927454  0.035655004            1 
  667000    1.1485921   -7.0681841    279.10693  0.034870931  0.035648422            1 
  668000    1.1668029   -7.1207732    279.25573  0.034837291  0.035641013            1 
  669000    1.1665669   -7.0320034     279.7169  0.034842663  0.035633942            1 
  670000    1.1383724    -7.039432    281.00329  0.034950658  0.035627102            1 
  671000    1.1347725   -7.0384113    281.08938  0.034909262  0.035620313            1 
  672000    1.1467356   -7.0356202    281.16766  0.034867021  0.035613418            3 
  673000    1.1809966   -7.0413614    281.76344  0.034888984  0.035606486            1 
  674000    1.1183569   -7.0276634    282.13974  0.034883746  0.035599721            1 
  675000    1.1673862   -7.0482415    282.36261  0.034859581  0.035592836            1 
  676000    1.1628814   -7.0534754    282.83696  0.034866489  0.035586106            1 
  677000     1.160396   -7.0552531    283.23952  0.034864539   0.03557961            2 
  678000    1.1691046   -7.0662711    284.03124  0.034910428  0.035572891            1 
  679000    1.1665343   -7.0145845     284.0756  0.034864457  0.035566425            2 
  680000    1.1589314   -7.0166121    284.66702  0.034885665  0.035559755            2 
  681000    1.1131146   -7.0041908    285.53131  0.034940199  0.035553041            1 
  682000    1.1555858   -7.0392737     285.5627  0.034892804  0.035546262            2 
  683000    1.1523547   -7.0537957    285.37626  0.034818968  0.035539795            2 
  684000    1.1608711   -7.0115098    286.31899  0.034882918  0.035533165            2 
  685000    1.1125649    -7.061017    285.97009  0.034789548  0.035526705            4 
  686000    1.1519685   -7.0310001    287.47676  0.034921861  0.035520549            4 
  687000    1.1401666   -7.0250813     287.5882  0.034884547  0.035514751            1 
  688000    1.1203792   -7.0272906    288.98166  0.035002624  0.035509267            1 
  689000    1.1350414   -7.1042415    288.33539  0.034873656  0.035504129            2 
  690000    1.1291852   -7.1024015    288.90463  0.034891863  0.035498739            2 
  691000    1.1360152    -7.051183    290.34585  0.035015178  0.035493536            2 
  692000    1.1689383     -7.05656    290.05839   0.03492996   0.03548808            1 
  693000    1.1428721   -7.0480194    290.79396  0.034968008  0.035482525            2 
  694000    1.1140538   -7.0246649    291.32221  0.034981053  0.035477255            1 
  695000    1.1416865   -7.0281762    289.97113   0.03476872  0.035471713            2 
  696000     1.141146   -7.0485783    291.94965  0.034955657  0.035466214       -1e+20 
  697000    1.1152191   -7.0390123    291.80035  0.034887655  0.035461068            1 
  698000    1.1238398   -7.0249053    293.10297  0.034993191  0.035456015            2 
  699000    1.1264984   -7.0312723    294.65825  0.035128547  0.035450726            6 
  700000    1.1322724   -7.0328593    293.90852  0.034989109  0.035445973            1 
  701000    1.1450352   -7.0467441    293.20721  0.034855826  0.035440687            1 
  702000    1.1205038   -7.0095882    293.82365  0.034879351  0.035435409            2 
  703000    1.1486454   -7.0398884    293.64846  0.034808968  0.035429686            1 
  704000    1.1562732   -7.0561035     294.5948  0.034871544  0.035424474            2 
  705000    1.1686835   -7.0861946    295.14187  0.034886745  0.035418652            3 
  706000    1.1104517   -7.0992547    294.61528  0.034775174     0.035413            3 
  707000    1.1754311   -7.0566479     295.8306  0.034869236  0.035407226            2 
  708000    1.1471404   -7.0395546    295.46223  0.034776627  0.035401088            1 
  709000    1.1454092   -7.0416355    295.82364  0.034770056  0.035394829            1 
  710000    1.1303982   -7.0356501    297.25283   0.03488883  0.035389405            1 
  711000    1.1430932   -7.0503528    297.99061  0.034926232  0.035383799            2 
  712000    1.1372938   -7.0472076    298.23512  0.034905795  0.035378536            2 
  713000    1.1249934   -7.0068576     299.9846  0.035061313  0.035373698            1 
  714000    1.1166337   -7.0599737    299.65933  0.034974245  0.035368952            2 
  715000    1.1366539   -7.0731116    298.96637  0.034844565  0.035364501            2 
  716000    1.1396356   -7.0736442    300.36995  0.034959259   0.03535951            3 
  717000    1.1460229   -7.0450733    299.95333  0.034862079  0.035354718            2 
  718000    1.1644638   -7.0870179    300.36752  0.034861597  0.035349963            4 
  719000    1.1617896   -7.0166453    301.53916  0.034948906  0.035344791            1 
  720000     1.135901   -7.0299406    301.43444  0.034888245  0.035339784            4 
  721000    1.1465111   -7.0365956    302.08614   0.03491518   0.03533474            2 
  722000    1.1451154   -7.0671926    302.00922  0.034857943  0.035329502            1 
  723000    1.1487972    -7.050569    302.06621  0.034816299  0.035323997            2 
  724000    1.1438813    -7.033828    301.99249  0.034759724  0.035318527            2 
  725000    1.1227384   -7.0595677    302.42367  0.034761342  0.035313206            1 
  726000    1.1366396   -7.0840522    301.70461  0.034630924  0.035306752            2 
  727000    1.1503397   -7.0502138    303.09617  0.034742797  0.035300652            3 
  728000    1.1283368   -7.0479079    303.97441  0.034795605  0.035294604            1 
  729000    1.1263097   -7.0617364    302.69057  0.034601117  0.035288219            1 
  730000    1.1602007   -7.0327663    303.95294  0.034697824  0.035281688            2 
  731000    1.1509683   -7.0639636      303.667  0.034617762  0.035275514            2 
  732000    1.1204756    -7.059493    305.25359  0.034751092  0.035268753            1 
  733000    1.1620884   -7.0601224    304.17878  0.034581489  0.035262459            2 
  734000     1.149184   -7.0744963    304.50915  0.034571884  0.035256493            2 
  735000    1.1378277   -7.0613964    305.32712  0.034617588  0.035249892            1 
  736000    1.1250612   -7.0654331    306.16773   0.03466573  0.035243686            2 
  737000    1.1039871   -7.0843032    305.21019  0.034510424  0.035237637            3 
  738000    1.1298935   -7.0540698    306.45937  0.034604717   0.03523109            3 
  739000    1.1482929   -7.0885346    305.13158  0.034408162  0.035224133            2 
  740000    1.1418401   -7.0669359    307.03059  0.034575517  0.035216908            1 
  741000    1.1421169   -7.0226675    306.96243   0.03452119  0.035209907            1 
  742000    1.1281911    -7.075366    307.32572  0.034515467  0.035202795            1 
  743000    1.1510118   -7.0999173    308.26175  0.034573997  0.035195651            1 
  744000    1.1172168   -7.0832302    307.66476  0.034460659   0.03518859            3 
  745000    1.1076382   -7.0572499    307.92492  0.034443504  0.035181544            2 
  746000    1.1463819   -7.0494853    308.50847  0.034462519  0.035174286            1 
  747000    1.1369448   -7.0900242     308.8685  0.034456548  0.035166972            1 
  748000    1.1073314   -7.0728693    308.94684  0.034419211   0.03515971            3 
  749000     1.125647   -7.0639576    310.09717  0.034501242  0.035152512            2 
  750000    1.1455256   -7.0614463    310.57297  0.034508107  0.035145363            1 
  751000     1.136832   -7.0874025    309.82291  0.034378929  0.035138116            3 
  752000    1.1319364   -7.1264907    310.16977   0.03437165  0.035130588            3 
  753000    1.1202799   -7.0787848    310.67245  0.034381634  0.035123212            2 
  754000    1.1262549   -7.0709451     312.2749  0.034513141  0.035116218            2 
  755000    1.1258075   -7.0594551    311.00008   0.03432672  0.035109114            1 
  756000    1.1379387   -7.1072333    311.54516  0.034341398  0.035101651            2 
  757000    1.1289503   -7.0359356    312.43135  0.034393588  0.035094488            3 
  758000    1.1407444   -7.0776225     312.0138  0.034302309  0.035086827            2 
  759000    1.0986189   -7.1102213     312.6824  0.034330523  0.035079065            1 
  760000    1.1272174   -7.0803571    311.73999  0.034182016  0.035071013            1 
  761000    1.1116922     -7.07876     313.2218  0.034299364  0.035063295            2 
  762000    1.1295399   -7.0484658    314.29153   0.03437134  0.035055313            2 
  763000    1.1028832    -7.094878    313.00878  0.034186193  0.035047203            4 
  764000    1.1432783   -7.0719197    314.40556    0.0342938  0.035039145            3 
  765000    1.1066019   -7.0957594    315.06582  0.034320895  0.035030977            1 
  766000    1.1068661   -7.1168183    313.60897  0.034117599  0.035022739            1 
  767000    1.1121674   -7.0782687    314.47318  0.034167012  0.035014702            2 
  768000    1.1262574   -7.0552305    316.15987  0.034305541  0.035006645            2 
  769000    1.1324108   -7.0255801    315.46101  0.034185198  0.034998697            1 
  770000    1.1331124   -7.0683932     315.7534  0.034172446  0.034990717            2 
  771000    1.1094675   -7.0379591    316.73499  0.034234219  0.034982959            1 
  772000    1.1508293   -7.0449155    317.71685   0.03429586  0.034974945            3 
  773000    1.1373234   -7.0743841    317.62043  0.034241099  0.034966736            2 
  774000    1.1350752   -7.0535277    317.45057  0.034178571  0.034958721            3 
  775000     1.140951   -7.0990941    317.96774   0.03419008  0.034950481            2 
  776000    1.1136876   -7.1002279    317.46821  0.034092376  0.034942325            1 
  777000    1.1222261   -7.1342178    317.68366  0.034071607  0.034933981            2 
  778000    1.1560029   -7.1393889    317.37278  0.033994514  0.034925658            1 
  779000     1.104932   -7.0351233     319.2765  0.034154525  0.034917453            1 
  780000    1.1411253   -7.0650361    319.73007  0.034159196  0.034909379            4 
  781000    1.1154109   -7.0589022    319.86615  0.034129977  0.034901378            2 
  782000    1.1053036    -7.094635    320.52292  0.034156322  0.034893519            1 
  783000    1.1024954   -7.1096862    319.81802  0.034037678  0.034885404            1 
  784000    1.1257093   -7.0781167    321.24229  0.034145652  0.034877261            3 
  785000    1.1178288   -7.0915649    322.72952  0.034260034  0.034869475            1 
  786000    1.1142873   -7.0925104    320.71261  0.034002609  0.034861684            1 
  787000    1.1104354    -7.069933    322.65143    0.0341647  0.034853759            3 
  788000    1.1115324   -7.1152211    322.95287  0.034153222   0.03484585            1 
  789000    1.1462208    -7.115879    322.58872  0.034071474  0.034837512            2 
  790000    1.1228955   -7.0558818    323.77845  0.034153845  0.034829842            2 
  791000    1.1070996    -7.056747    324.85427  0.034224006  0.034822032            4 
  792000    1.1284648   -7.0374047    324.34723  0.034127444  0.034814606            1 
  793000    1.1367307   -7.0951403    324.87461  0.034139829  0.034806704            2 
  794000    1.1194023   -7.1031353    325.19758  0.034130729  0.034798764            1 
  795000    1.1456619    -7.095137    325.14369  0.034082148  0.034791009            2 
  796000    1.1191817   -7.0372587    325.83235  0.034111427  0.034783392            1 
  797000    1.1269762   -7.1013113    326.75817  0.034165429  0.034775602            4 
  798000    1.1142661   -7.0606844    325.79603  0.034022142  0.034767674            2 
  799000    1.0933502   -7.1048397    326.66784  0.034070489  0.034759959            3 
  800000    1.1131185   -7.0826996    325.91113  0.033949076  0.034751936            1 
  801000    1.1275937   -7.0812715     326.3502  0.033952372  0.034743741            1 
  802000    1.1340781   -7.0828568    326.57745  0.033933651  0.034735285            2 
  803000    1.1203616    -7.075663    326.98897  0.033934098  0.034726914            2 
  804000    1.1335196    -7.096472    326.12734  0.033802585  0.034718426            2 
  805000    1.1290439   -7.0532534    326.72326  0.033822283  0.034709761            2 
  806000    1.1420215   -7.0987519    327.60835  0.033871831  0.034701023            2 
  807000    1.1325967   -7.0947748    328.35885  0.033907357  0.034692023            2 
  808000    1.1170715   -7.1229304    327.47296  0.033774027  0.034683249            2 
  809000    1.1314982   -7.1002419    328.25441  0.033812774  0.034674138            3 
  810000    1.1136301   -7.1076076     327.7525  0.033719393  0.034665105            2 
  811000    1.1025932   -7.0532606    329.72638  0.033880639  0.034656247            1 
  812000    1.1112787   -7.0734657    329.70172  0.033836383  0.034647635            2 
  813000    1.0847585   -7.0920756    329.78318  0.033803114  0.034639178            1 
  814000    1.1086275   -7.1074755     328.8626  0.033667342  0.034630047            1 
  815000    1.1081568   -7.0674831    330.95317  0.033839793  0.034620857            2 
  816000    1.1093091    -7.097029    331.00211   0.03380332  0.034611992            3 
  817000    1.1273307   -7.0950165    331.20376  0.033782513  0.034602742            1 
  818000    1.1201103   -7.1027196    332.11879  0.033834433  0.034593981            2 
  819000    1.1379965   -7.1188471    332.00111  0.033781146  0.034585112            1 
  820000    1.1106106   -7.0946332    331.52982  0.033692055  0.034576024            3 
  821000    1.1332004    -7.100425    331.12113  0.033609534  0.034566471            1 
  822000    1.0975251   -7.1028256    331.32401  0.033589214  0.034557076            1 
  823000    1.1108101   -7.0599693    332.60699   0.03367831  0.034547748            2 
  824000    1.1063614   -7.0902923    333.23211  0.033700659  0.034538654            3 
  825000    1.1175744   -7.0764478    334.89375  0.033827652  0.034529664            1 
  826000    1.1123911   -7.0734762    333.68103  0.033664349  0.034520498            1 
  827000    1.1188977   -7.0692568    334.39654  0.033695742   0.03451145            2 
  828000    1.1248762    -7.085312    334.00268  0.033615407  0.034502514            2 
  829000    1.1018643   -7.1191104    334.44132   0.03361895   0.03449355            2 
  830000    1.1129659   -7.0894679    335.95573  0.033730495  0.034484603            2 
  831000      1.15063   -7.0701085    334.80243  0.033574251  0.034475838            1 
  832000    1.1366228   -7.0852308    336.20274  0.033674153  0.034466675            4 
  833000    1.1308461   -7.0830106    335.92841  0.033606283  0.034457385            5 
  834000    1.1220539     -7.04543    338.04185  0.033777163  0.034448458            1 
  835000    1.1192863   -7.1373016    336.16355  0.033549257  0.034439527            1 
  836000    1.1076197   -7.0642166    337.56959  0.033649281  0.034430591            1 
  837000     1.112599   -7.0831621    337.83719  0.033635722  0.034421583            6 
  838000    1.1307203   -7.0984543    337.62973  0.033574953  0.034412637            1 
  839000    1.1414588   -7.1019804    337.64044  0.033535999  0.034403715            1 
  840000    1.1113805    -7.061329    338.85292  0.033616361  0.034394505            1 
  841000    1.1095141   -7.0749448    339.12663  0.033603511  0.034385449            1 
  842000    1.1084176   -7.1299953    338.19606  0.033471503  0.034376424            2 
  843000    1.1299809   -7.0881023    338.72562  0.033484146  0.034367128            3 
  844000    1.1274781   -7.1179289    338.91549   0.03346322  0.034357829            1 
  845000    1.1259212   -7.1142513    340.04112  0.033534628  0.034348626            1 
  846000     1.136394   -7.1095075    339.71261  0.033462629  0.034339736            2 
  847000    1.1120258   -7.0888408    338.91142  0.033344296  0.034330649            1 
  848000    1.1063534   -7.1022096    340.46703  0.033457845  0.034321276            2 
  849000    1.1234528   -7.1226422    340.60596  0.033432073  0.034312047            1 
  850000    1.1243669    -7.099091     340.9534  0.033426804  0.034303108            3 
  851000    1.1356949   -7.1337798     341.0191  0.033393958  0.034294015            3 
  852000     1.110228   -7.0839449    342.58912  0.033508325  0.034284559            1 
  853000    1.0948601   -7.0941575    342.96024  0.033505298  0.034275228            3 
  854000    1.1518553   -7.1047041    342.69702  0.033440381  0.034265669            1 
  855000    1.1344773   -7.1297973    342.00525  0.033333845  0.034256121            1 
  856000    1.1020119   -7.0955207    343.08128  0.033399657  0.034246489            1 
  857000    1.1186292   -7.1221748    342.93801  0.033346753  0.034237179            1 
  858000    1.1377449   -7.0784836    343.57612  0.033369864  0.034227791            1 
  859000    1.1075147     -7.10533    342.94377  0.033269671  0.034218403            2 
  860000    1.1294739    -7.108352    344.52119  0.033383836  0.034209007            1 
  861000     1.111548   -7.1036489    343.73643  0.033269108    0.0341995            3 
  862000    1.1204097    -7.092569    345.78971  0.033429013  0.034190168            1 
  863000    1.1027563   -7.1240767    344.46449  0.033262311  0.034180464            1 
  864000    1.1218795   -7.0967889    345.91326  0.033363548  0.034170937            2 
  865000    1.1127804   -7.0935606    344.80751   0.03321845  0.034161656            2 
  866000    1.1026616   -7.1134166    346.11487  0.033305896  0.034152403            1 
  867000    1.1337347   -7.1271637    345.95454   0.03325207  0.034143059            1 
  868000    1.1083483   -7.1016049    346.25061  0.033242186  0.034133732            2 
  869000    1.1450856   -7.0993442    346.78012  0.033254711  0.034124254            1 
  870000    1.1476674   -7.1225866    347.72229  0.033306733  0.034114593            1 
  871000    1.1223755   -7.0781709     346.5891  0.033160074  0.034104845            2 
  872000    1.1223568   -7.1321524    347.35919  0.033195641  0.034094995            1 
  873000    1.0777233   -7.1275196    347.48732  0.033169847  0.034085557            2 
  874000    1.0975965   -7.1225371    347.12302   0.03309716  0.034075578            1 
  875000      1.12265   -7.1030105    349.01232  0.033239269  0.034065627            2 
  876000    1.1296962    -7.117429    347.97623  0.033102762  0.034055619            1 
  877000    1.1303933    -7.106416    348.44114  0.033109192  0.034045385            2 
  878000    1.1104941   -7.0918271    349.63854  0.033185131   0.03403532            2 
  879000    1.1145994   -7.0829201    348.51335  0.033040704   0.03402509            1 
  880000    1.1239597   -7.1274641    348.97663  0.033047029  0.034014825            3 
  881000    1.1202431   -7.1176559    349.65119  0.033073325  0.034004393            6 
  882000     1.113534   -7.0796568    349.67887  0.033038442  0.033994096            2 
  883000    1.1235033   -7.1065755    350.10575  0.033041312  0.033984108            4 
  884000      1.10578   -7.1327786    350.78186  0.033067671  0.033974143            3 
  885000    1.1271925   -7.0713875    351.82244   0.03312829  0.033964034            1 
  886000    1.1213361   -7.1114702    351.26155  0.033038144  0.033954322            1 
  887000    1.1212875   -7.1446038    352.10699  0.033080326  0.033944245            2 
  888000    1.1214863   -7.0928154    352.68947  0.033097735  0.033934126            1 
  889000    1.1108563   -7.1118025    352.05455  0.033000989  0.033923682            3 
  890000    1.1097294   -7.1515472    350.48204   0.03281667  0.033913082            2 
  891000    1.0669246   -7.1119953     352.0138  0.032923102  0.033902427            1 
  892000     1.110627    -7.135616    353.57766  0.033032292  0.033891935            2 
  893000    1.1153883   -7.1097162    353.92943  0.033028129  0.033881613            1 
  894000     1.110051   -7.1482551    353.64026   0.03296423  0.033871408            1 
  895000    1.1035574   -7.1701816     353.3848  0.032903613  0.033861118            2 
  896000    1.1341114   -7.1022497    354.43627  0.032964683   0.03385084            2 
  897000    1.0915075    -7.103786    354.71529  0.032953855  0.033840471            1 
  898000    1.1017552   -7.1395504    354.66414  0.032912411  0.033830251            2 
  899000    1.0912255   -7.1245414    355.20721  0.032926141  0.033820062            3 
  900000    1.1380976   -7.1239255    355.29219  0.032897425  0.033809763            2 
  901000    1.1159294   -7.1254952    355.00534  0.032834382  0.033799635            2 
  902000    1.1119465   -7.1204101    355.63182  0.032855859   0.03378965            3 
  903000    1.0838408   -7.0682075    357.86761  0.033025804  0.033780014            2 
  904000    1.1169472   -7.1289808    356.27719  0.032842662  0.033770228            2 
  905000    1.0966317   -7.1307315    358.29635  0.032992297  0.033760053            2 
  906000    1.0877953   -7.1026323    357.85485  0.032915273  0.033750275            3 
  907000    1.1469473   -7.1326652     358.5615  0.032943909  0.033740576            2 
  908000    1.1009868   -7.0812093    358.70933  0.032921194  0.033731132            2 
  909000    1.0930635   -7.1170359     358.6273  0.032877457  0.033721329            2 
  910000     1.139277   -7.1142905    358.74714  0.032852302  0.033711575            1 
  911000    1.1034009   -7.1494816    358.28232  0.032773722  0.033701544            2 
  912000    1.1208795   -7.1151922    358.49107   0.03275686   0.03369145            2 
  913000    1.1011673   -7.1288415    359.47622    0.0328109  0.033681393            1 
  914000    1.1281224   -7.1242932    359.58447  0.032784871  0.033671551            1 
  915000    1.1048659   -7.1332407    360.09134  0.032795204  0.033661603            2 
  916000     1.121624   -7.1307962    360.81703  0.032825421  0.033651716            2 
  917000    1.1029692   -7.1439472     360.4428  0.032755616   0.03364189            2 
  918000     1.078059     -7.12935    360.42704  0.032718504   0.03363201            2 
  919000    1.0944274   -7.1510233    360.60809  0.032699319    0.0336219            1 
  920000    1.1071119   -7.1593883    361.05383  0.032704151  0.033611743            1 
  921000    1.1151681   -7.1460526    361.70215  0.032727303  0.033601946            1 
  922000    1.1048011   -7.1273363    363.38181   0.03284362  0.033592298            2 
  923000    1.1071292   -7.1289884    362.71018  0.032747398  0.033582843            1 
  924000    1.0816318   -7.1049802      364.686  0.032890152  0.033573324            1 
  925000    1.1208043   -7.1070658    364.43121  0.032831641  0.033563949            2 
  926000    1.0892462   -7.1258661    364.72198  0.032822352  0.033554749            2 
  927000     1.105699   -7.1413188    364.76207  0.032790549  0.033545522            3 
  928000    1.1111688   -7.1033166    366.44734   0.03290655  0.033536366            1 
  929000    1.1034506   -7.1244889    366.38785  0.032865792  0.033527485            2 
  930000    1.1313406   -7.1294709    365.95533  0.032791697  0.033518411            1 
  931000    1.1074785   -7.0989428    366.39721  0.032796026  0.033509262            2 
  932000    1.0832719   -7.1101357    367.03309  0.032817694  0.033500223            1 
  933000    1.0892238   -7.1188418    367.82459  0.032853215  0.033491345            2 
  934000    1.1281465   -7.1609383    366.23892  0.032676563  0.033482162            1 
  935000    1.1109285   -7.0937961    367.72535  0.032774095  0.033473082            1 
  936000    1.1074481   -7.0916121    367.42285  0.032712149  0.033464101            1 
  937000     1.101872   -7.1765263    367.78365  0.032709325  0.033454735            2 
  938000    1.1228598   -7.1694708    369.40198  0.032818229  0.033445401            1 
  939000    1.1117621   -7.1220901    369.14767  0.032760709  0.033436239            1 
  940000    1.1203262   -7.0998885    369.24443  0.032734435  0.033427035            2 
  941000    1.0948698   -7.1531186     368.6712  0.032648884  0.033417924            2 
  942000    1.0957226   -7.1327761    368.70761  0.032617446   0.03340839            2 
  943000    1.0713417   -7.1383637    370.60734  0.032750737   0.03339878            2 
  944000    1.0912859   -7.1492163    368.51027  0.032530921   0.03338924            1 
  945000    1.0961764   -7.1231654    370.02577  0.032630138  0.033379614            1 
  946000    1.1076772   -7.1427942     369.4345  0.032543561  0.033369854            1 
  947000    1.1071518    -7.150995    368.87698  0.032460136  0.033359773            2 
  948000    1.0885911   -7.1610688    369.42095  0.032473712  0.033349549            1 
  949000    1.1027513   -7.1537201    369.36613  0.032434679  0.033339687            1 
  950000    1.1127383   -7.1053966    371.58927   0.03259555  0.033330012            2 
  951000    1.0972856   -7.1177593    371.72504  0.032573172  0.033320648            1 
  952000     1.081843    -7.182979    370.51265   0.03243283  0.033310818            1 
  953000    1.1057191   -7.1294381    373.02404  0.032618402   0.03330105            2 
  954000    1.0964064   -7.1448671    371.62949  0.032462395  0.033291626            2 
  955000    1.1072939   -7.1464676    373.63571  0.032603465  0.033281763            2 
  956000    1.1003712   -7.1322707    373.29905  0.032540015  0.033272261            1 
  957000    1.0878981   -7.1410301    372.96539  0.032476959  0.033262717            2 
  958000    1.0954718   -7.1907957    371.32219  0.032300121  0.033252815            1 
  959000    1.1100426   -7.1352019    372.73553  0.032389253   0.03324282            2 
  960000    1.0898312   -7.1269799    373.72123  0.032441079  0.033233309            2 
  961000    1.0950508   -7.1528806    373.14695  0.032357523   0.03322367            2 
  962000    1.1026988   -7.1697322    373.02806  0.032313588   0.03321384            3 
  963000    1.0805959   -7.1290097    374.26808  0.032387338  0.033204021            3 
  964000    1.0853334   -7.1207471    374.07216  0.032336805  0.033194052            1 
  965000    1.0984611   -7.1636677    374.48612  0.032339043  0.033184388            2 
  966000     1.068363    -7.125716    377.15303  0.032535631  0.033174916            2 
  967000    1.1076052   -7.1280833    377.63174  0.032543238  0.033165532            2 
  968000    1.1018419   -7.1467367    377.02498  0.032457385  0.033156271            2 
  969000    1.0637938   -7.1629918    377.63132  0.032476033  0.033147001            1 
  970000    1.0869009   -7.1194615    377.93972  0.032469048  0.033137907            1 
  971000    1.0846086   -7.1325357    377.22679  0.032374424  0.033128637            2 
  972000    1.0817714   -7.1372729    377.61062  0.032374025  0.033119162            1 
  973000    1.1083543    -7.128799    377.51884  0.032332892  0.033109609            1 
  974000    1.0935791   -7.1241115    378.02342  0.032342866  0.033099832            2 
  975000    1.1020831   -7.1648725    378.11519  0.032317537  0.033090117            2 
  976000    1.0768254   -7.1166171    378.33441  0.032303143  0.033080646            4 
  977000    1.1064599   -7.1248817    379.24353  0.032347622  0.033071253            3 
  978000    1.0889627   -7.1571317    378.07486  0.032214968  0.033061401            1 
  979000    1.1003068   -7.1345372     380.5198  0.032390177   0.03305161            2 
  980000    1.0816769   -7.1472789    379.37039  0.032259387   0.03304198            3 
  981000    1.0829909   -7.1459624    378.89621  0.032186223  0.033032218            4 
  982000    1.0919404   -7.1668606     380.7194  0.032308163  0.033022958            2 
  983000    1.0930975   -7.1268209    381.10968  0.032308383  0.033013723            2 
  984000    1.0733826   -7.1248065    382.71195  0.032411243  0.033004486            3 
  985000    1.0706384    -7.148858    381.91052  0.032310535  0.032995404            2 
  986000    1.1024669   -7.1802039    380.80469  0.032184304  0.032986373            1 
  987000    1.0776055   -7.1501432    382.83584  0.032323188  0.032977493            2 
  988000    1.1084729   -7.1219633    382.68765  0.032277973   0.03296843            1 
  989000    1.1092158   -7.1499635    382.90362  0.032263534  0.032959297            1 
  990000    1.0802128   -7.1942837      383.755   0.03230261   0.03295034            1 
  991000    1.1117911   -7.1170588    384.19167  0.032306733   0.03294136            1 
  992000    1.0915986   -7.1137742    385.52792  0.032386418  0.032932175            2 
  993000    1.0851953   -7.1564958    383.28231   0.03216535  0.032922824            3 
  994000     1.111692   -7.1504658    384.15475  0.032206132  0.032913427            2 
  995000    1.1074895   -7.1796554    384.28401  0.032184591  0.032903946            1 
  996000    1.1198937    -7.111147    385.45598  0.032250333  0.032894699            2 
  997000    1.0693343   -7.1775665    383.31932  0.032039395  0.032885432            1 
  998000    1.0793373   -7.1529777    385.70796  0.032206744   0.03287618            2 
  999000    1.0917608   -7.1513384     386.1971  0.032215307  0.032866939            2 
 1000000    1.1100695   -7.1603857    385.31815  0.032109846  0.032857814            2 
 1001000    1.0934359   -7.1698582    386.06301  0.032139778  0.032848456            1 
 1002000    1.0923923   -7.1409313    386.09624  0.032110466  0.032839147            1 
 1003000    1.0916032   -7.1636609    385.91319  0.032063243  0.032829465            1 
 1004000    1.0943633   -7.1658338    385.91109  0.032031133  0.032819755            1 
 1005000    1.1009143   -7.1126279    386.80692  0.032073542  0.032810118            2 
 1006000    1.0659818   -7.1504192    386.40496  0.032008363   0.03280045            4 
 1007000    1.1019286   -7.1574017    387.24366  0.032045983  0.032790987            3 
 1008000    1.0826062   -7.1318359    389.62957   0.03221144   0.03278163            2 
 1009000    1.0982684   -7.1656693    389.19782  0.032143857  0.032772361            1 
 1010000    1.1022626   -7.1499918    388.40104  0.032046291  0.032762993            1 
 1011000    1.0731489   -7.1511527    388.34177  0.032009707   0.03275336            1 
 1012000    1.1016459   -7.1831083    388.39143  0.031982166  0.032743876            1 
 1013000    1.0733455   -7.1256396    390.11406  0.032092305  0.032734387       -1e+20 
 1014000    1.0902608   -7.1692417    390.15695  0.032064181  0.032725235            1 
 1015000    1.0894451    -7.139089    391.51019  0.032143694  0.032716023            2 
 1016000    1.0842225    -7.136233    391.26049  0.032091576  0.032706727            1 
 1017000    1.1041524    -7.177596    389.90813  0.031949207  0.032697372            1 
 1018000    1.0614688    -7.196361     388.9375  0.031838367  0.032687923            2 
 1019000     1.076895   -7.1692534    391.01668  0.031977157  0.032678437            2 
 1020000     1.080514   -7.1484794    391.17173  0.031958474  0.032668949            1 
 1021000    1.0687043   -7.1808023    391.65629  0.031966723  0.032659369            1 
 1022000    1.0662903   -7.1554517    392.57035  0.032009976  0.032649896            1 
 1023000    1.1038015   -7.1847032    392.26497   0.03195381   0.03264028            1 
 1024000    1.0952755    -7.156492    393.53828  0.032026227  0.032630839            1 
 1025000    1.0777642   -7.1706974    391.48537  0.031828079  0.032621549            2 
 1026000    1.0700331   -7.1729699    393.54419  0.031964278  0.032612193            1 
 1027000    1.0532117   -7.1619473    393.93611  0.031964956  0.032603118            2 
 1028000    1.0771646   -7.1779649    394.73837  0.031998895  0.032593888            3 
 1029000    1.0740019   -7.1397439    393.48434   0.03186624  0.032584806            1 
 1030000    1.0885565   -7.1252805    394.64073  0.031928862  0.032575822            2 
 1031000    1.0978109   -7.1638472    394.51674  0.031887871  0.032566723            2 
 1032000    1.0870345   -7.1562547    395.81869  0.031962104  0.032557615            2 
 1033000     1.076322   -7.1567419    394.41923  0.031818266  0.032548309            2 
 1034000    1.0982436   -7.1906735    394.72753  0.031812341  0.032539332            2 
 1035000    1.0909621   -7.2058436    395.58582   0.03185071  0.032529872            2 
 1036000     1.061838   -7.1826485    396.17336  0.031867226  0.032520573            1 
 1037000    1.0930635    -7.174169    396.01167  0.031823503  0.032511402            1 
 1038000    1.0961145   -7.1485036    397.15435  0.031884582  0.032502216            1 
 1039000    1.0848485    -7.170013     397.1197  0.031851115  0.032493068            1 
 1040000    1.0769179   -7.1608212    398.23528  0.031909878  0.032483813            1 
 1041000    1.0611214   -7.1618042    398.23492  0.031879196  0.032474505            2 
 1042000    1.0903425   -7.1180134    398.12719  0.031839987   0.03246517            1 
 1043000    1.0857245   -7.1224405    397.37204  0.031749124  0.032455941            1 
 1044000    1.0804071   -7.1383722    400.55191  0.031972534  0.032446902            1 
 1045000    1.0848777     -7.16899    398.38377   0.03176904  0.032437656            2 
 1046000    1.0791886   -7.1607803    398.11188  0.031717008  0.032428275            1 
 1047000    1.0952656   -7.1854108    399.54267  0.031800594  0.032419051            5 
 1048000    1.0963181   -7.1236375    401.29926  0.031909928    0.0324102            2 
 1049000    1.0612016   -7.1909836    400.93332  0.031850438  0.032401533            2 
 1050000    1.0616665   -7.1659516    402.14581  0.031916334  0.032392742            2 
 1051000    1.0858681   -7.1882985    400.84599  0.031782905  0.032384033            2 
 1052000    1.0957067   -7.1702498    400.94042  0.031760172  0.032375181            1 
 1053000    1.1014049   -7.1797996     400.7641  0.031716057  0.032366312            2 
 1054000     1.095412   -7.1748753    401.78384  0.031766591  0.032357341            1 
 1055000    1.0948031   -7.1573619    402.70845  0.031809514  0.032348602            3 
 1056000    1.0764655   -7.1765118    402.69056   0.03177798  0.032339624            1 
 1057000    1.0945814   -7.1943105    401.85998  0.031682433  0.032330719            1 
 1058000    1.0827821   -7.1397527    403.79697  0.031805055  0.032321766            2 
 1059000    1.0949779   -7.1669813     403.0082  0.031712952  0.032312564            2 
 1060000    1.0881807   -7.1783868    402.98404  0.031681135  0.032303619            3 
 1061000    1.0637449   -7.1558585    404.00689  0.031731612  0.032294523            1 
 1062000    1.0942953   -7.1662386    403.51876  0.031663431  0.032285524            1 
 1063000    1.0924691   -7.1185572    404.96157  0.031746752   0.03227651            1 
 1064000    1.0526005   -7.1901371    403.26054  0.031583689  0.032267431            1 
 1065000    1.0908045   -7.1707568    403.72858  0.031590656  0.032258203            2 
 1066000     1.110833   -7.1923456     403.7674  0.031564056  0.032248987            4 
 1067000    1.0608709   -7.1907195    405.27718  0.031652388   0.03224004            1 
 1068000    1.0649882   -7.1582799    406.19612  0.031694454  0.032231065            5 
 1069000    1.0664833    -7.144848    405.96558  0.031646833  0.032221995            4 
 1070000    1.0586363   -7.1397423    407.39474  0.031728562  0.032213146            2 
 1071000     1.083961   -7.1934956    407.03605  0.031671028  0.032204193            1 
 1072000    1.0970109   -7.2338691    405.39504  0.031513918  0.032195254            4 
 1073000    1.0758864   -7.1958353    406.38282  0.031561263  0.032186185            1 
 1074000    1.0810191   -7.1442488    408.30346  0.031680902  0.032177245            3 
 1075000    1.0847343   -7.1592375    407.51015  0.031589934  0.032168453            2 
 1076000    1.0951978   -7.1721815    408.36807  0.031627019  0.032159605            2 
 1077000    1.0985988   -7.1663734    408.24301  0.031587977  0.032151159            2 
 1078000    1.0692239   -7.2107953    408.99953  0.031617156  0.032142541            2 
 1079000    1.0856353   -7.1638473    410.94517  0.031738119  0.032134125            1 
 1080000    1.0586091   -7.2032752    408.95296  0.031555013  0.032125405            1 
 1081000    1.0981934   -7.1662702    409.87104  0.031596596  0.032116708            3 
 1082000    1.0794297   -7.1640043    409.25484  0.031519935  0.032108181            1 
 1083000    1.0849705   -7.1720712    410.78747  0.031608762  0.032099472            1 
 1084000     1.079801   -7.1881469    409.81817  0.031505087  0.032090935            2 
 1085000    1.0728654   -7.1635548     410.6244  0.031537972  0.032082329            2 
 1086000     1.083527   -7.1589565    412.59871  0.031660429  0.032073979            4 
 1087000    1.0727696   -7.1847185    412.72243  0.031640788  0.032065609            3 
 1088000    1.0812224   -7.1578872    411.48278  0.031516757  0.032057385            2 
 1089000    1.0775077   -7.1752906    414.13666  0.031690898  0.032049255            2 
 1090000    1.0815061   -7.1578567    415.03972  0.031730866  0.032041405            3 
 1091000    1.0945222    -7.186116    414.95737  0.031695491  0.032033375            2 
 1092000    1.0959808   -7.1925099    414.25027  0.031612505  0.032025619            2 
 1093000    1.0863811   -7.1618703    416.31837   0.03174126  0.032017991            2 
 1094000    1.0855448   -7.2046284    414.50695  0.031574265  0.032010452            1 
 1095000    1.0696161   -7.1886333    417.11427  0.031743856  0.032002858            2 
 1096000    1.0702515   -7.1548276    417.50006  0.031744226   0.03199567            1 
 1097000     1.091103   -7.1621888    417.90002  0.031745672  0.031988508            1 
 1098000    1.0877924   -7.2116565    417.93805  0.031719646   0.03198122            2 
 1099000    1.0775301   -7.1979362    417.79219  0.031679724  0.031973895            2 
 1100000    1.1031881   -7.1697518    418.57062  0.031709895  0.031966579            1 
 1101000    1.0855283   -7.1745295    419.20512  0.031729119   0.03195941            3 
 1102000    1.0633485   -7.2432853    417.88571  0.031600553  0.031952086            3 
 1103000    1.0840053   -7.2266179    419.41263  0.031687265  0.031944554            3 
 1104000    1.0573111   -7.2392958    418.15874  0.031563914  0.031937081            2 
 1105000    1.0728447   -7.2133744    419.54682  0.031640031  0.031929568            2 
 1106000    1.0560288   -7.1957096     418.6644  0.031544936  0.031922276            2 
 1107000    1.0796415   -7.1915776    420.75205  0.031673596   0.03191492            2 
 1108000    1.0782396   -7.1840703    421.81438  0.031724908  0.031907548            2 
 1109000    1.0512487   -7.1827347     420.4682  0.031595146  0.031900124            2 
 1110000    1.0516334   -7.1614594    421.42059  0.031638183  0.031892746            2 
 1111000    1.0494748    -7.158342    421.42584  0.031610099  0.031885526            2 
 1112000    1.0790601   -7.1916749    420.99819  0.031549625  0.031878348            2 
 1113000    1.0936515   -7.1604456    422.95587  0.031667855  0.031871012            2 
 1114000    1.0812832   -7.2073717    421.62009  0.031539504  0.031863655            1 
 1115000    1.0952654   -7.2035272    421.14533  0.031475735  0.031856325            3 
 1116000    1.0617898   -7.2265064    422.40205  0.031541372  0.031849034            1 
 1117000    1.0569625     -7.23193    422.75153  0.031539207   0.03184155            2 
 1118000    1.0691107   -7.1754681    424.89551  0.031670804  0.031834213            2 
 1119000    1.0939039   -7.1690507     423.9186   0.03156975  0.031827207            2 
 1120000    1.0825676   -7.1742549    425.80799  0.031682142  0.031820172            3 
 1121000    1.0700822   -7.1687344    424.72993  0.031573738  0.031813231            2 
 1122000    1.0840869   -7.2110834    426.00865  0.031640571  0.031806246            1 
 1123000    1.0619738   -7.1522038    425.37657  0.031565492  0.031799339            2 
 1124000    1.0710891   -7.1958735    426.68172  0.031634173  0.031792176            2 
 1125000    1.0941986   -7.1963093    425.97337  0.031553583  0.031785041            2 
 1126000    1.0638357   -7.2062725    425.64873  0.031501534   0.03177784            3 
 1127000    1.0583043    -7.183149    426.60618  0.031544379  0.031770741            1 
 1128000    1.0858898   -7.2483767    425.36713  0.031424877  0.031763565            4 
 1129000    1.0697826   -7.1987202    426.49955  0.031480628  0.031756372            2 
 1130000    1.0797934   -7.1748431    427.93965  0.031558971  0.031749169            1 
 1131000    1.0621093   -7.1931431    427.60082  0.031506102  0.031742072            2 
 1132000    1.0615803   -7.1817609    428.73647  0.031561872   0.03173502            2 
 1133000      1.07196   -7.1788147    428.15341   0.03149113  0.031727948            2 
 1134000    1.0606206   -7.2199598     427.8194  0.031438815  0.031720995            3 
 1135000    1.0903829   -7.2028288    428.67563  0.031473982  0.031713893            4 
 1136000     1.073916   -7.1553738    429.62109  0.031515631  0.031706755            3 
 1137000    1.0793054   -7.1977417    428.75577  0.031424492  0.031699435            1 
 1138000     1.055821    -7.165531    428.91881  0.031408818  0.031692302            3 
 1139000    1.0481243   -7.1713235    430.30261  0.031482485  0.031685127            2 
 1140000    1.0558421    -7.184116    429.24931  0.031377874   0.03167797            1 
 1141000    1.0594174   -7.2587327    429.61447  0.031377043  0.031670724            1 
 1142000    1.0695829   -7.1719772    431.15671  0.031462107  0.031663257            1 
 1143000    1.0989516   -7.1835818    430.03703  0.031352948  0.031655987            2 
 1144000    1.0467551   -7.2227944    429.37202  0.031277099  0.031648519            1 
 1145000    1.0626931   -7.1718419    431.13807  0.031378317  0.031641049            2 
 1146000    1.0724073   -7.2431585    430.83048  0.031328569  0.031633475            1 
 1147000    1.0868441    -7.160135    432.86556   0.03144911  0.031626036            2 
 1148000     1.062686   -7.2232128    431.07025  0.031291394  0.031618712            3 
 1149000    1.0730676   -7.2074699    431.85496  0.031321073    0.0316113            2 
 1150000    1.0801439   -7.1839998     432.6635  0.031352428  0.031603765            1 
 1151000    1.0497937   -7.1916317    432.53618   0.03131597  0.031596233            2 
 1152000    1.0731962     -7.19198    432.28201    0.0312704  0.031588774            1 
 1153000    1.0425334   -7.1944403    433.26853   0.03131458  0.031581245            1 
 1154000    1.0641219   -7.2336626    431.39189  0.031151927  0.031573632            2 
 1155000    1.0775166   -7.2054292    433.62926  0.031286383  0.031565993            2 
 1156000    1.0765765   -7.1838567    433.50259  0.031250187  0.031558485            1 
 1157000    1.0596349   -7.2230576    433.67633  0.031235691  0.031550587            2 
 1158000    1.0562637   -7.2434537    434.00092  0.031232076  0.031542741            1 
 1159000    1.0716276   -7.1901376    435.29056  0.031297854  0.031535039            4 
 1160000     1.050629    -7.210505    434.19525  0.031192188  0.031527512            3 
 1161000    1.0844726     -7.23702    434.23788  0.031168381   0.03151978            4 
 1162000    1.0703046   -7.2103164    434.68753  0.031173804   0.03151196            1 
 1163000    1.0725195   -7.2156392    435.18786  0.031182851  0.031504044            2 
 1164000    1.0462296   -7.1983824    436.56484  0.031254642  0.031496175            2 
 1165000    1.0520755   -7.2081565    436.24633   0.03120503  0.031488516            3 
 1166000    1.0656068    -7.252154    435.94364  0.031156636  0.031480939            3 
 1167000     1.066322   -7.2182763     436.3684  0.031160268  0.031473194            1 
 1168000    1.0527196   -7.2463032    434.78863  0.031020878  0.031465374            3 
 1169000    1.0781499   -7.2046565    435.65572  0.031056154  0.031457365            2 
 1170000    1.0411584   -7.1918967    436.63194  0.031099141   0.03144934            1 
 1171000    1.0514917   -7.2215247    436.52484  0.031064962  0.031441292            2 
 1172000    1.0605215   -7.2188005    436.58344  0.031042622  0.031433139            1 
 1173000    1.0554026   -7.1887077    437.69674   0.03109525  0.031425274            1 
 1174000    1.0702721   -7.2197054    436.00444   0.03094864  0.031417318            1 
 1175000    1.0638174   -7.1989688    437.20843   0.03100769  0.031408999            3 
 1176000    1.0708571   -7.2014931     437.9141  0.031031328  0.031400838            1 
 1177000    1.0382961   -7.2120558    438.51432   0.03104746  0.031392655            2 
 1178000    1.0677879    -7.184137    438.31918  0.031007299  0.031384438            1 
 1179000    1.0830016   -7.2006664     438.0742  0.030963684  0.031376355            1 
 1180000    1.0647165   -7.1892628    437.94491  0.030928313  0.031368245            5 
 1181000    1.0542607     -7.21173    438.05006  0.030909544  0.031360109            1 
 1182000    1.0656597    -7.209365    438.45598  0.030912012   0.03135173            3 
 1183000    1.0582973   -7.2379228    437.55101  0.030822134  0.031343314            1 
 1184000    1.0796402   -7.1934058    440.39601  0.030996341  0.031335074            2 
 1185000    1.0661888    -7.231386    439.06879  0.030876849  0.031326902            1 
 1186000    1.0633924   -7.1975536    440.19376  0.030929859  0.031318615            2 
 1187000     1.078698   -7.2177204    439.55244  0.030858779  0.031310384            1 
 1188000    1.0605308   -7.1801956     439.9392  0.030859933  0.031302337            2 
 1189000    1.0489575   -7.2274505    440.43828  0.030868957  0.031294262            1 
 1190000    1.0793628   -7.2071924    440.69989  0.030861337  0.031286275            2 
 1191000    1.0585218   -7.2361203    440.97726  0.030854832  0.031278097            2 
 1192000    1.0482392   -7.2024989    441.90124  0.030893543  0.031269852            1 
 1193000    1.0835238   -7.2401851     440.7284  0.030785723  0.031261528            5 
 1194000    1.0613012   -7.2385872    441.18375  0.030791719  0.031253097            2 
 1195000    1.0532011   -7.2264435    441.08767  0.030759252  0.031244578            2 
 1196000    1.0792939   -7.2315867    442.54721  0.030835229  0.031236171            1 
 1197000    1.0905838   -7.2400213    441.70093  0.030750552  0.031227916            1 
 1198000    1.0657918   -7.2291726    441.60587  0.030718271   0.03121949            3 
 1199000    1.0783473   -7.2293801    442.07581  0.030725314  0.031211114            3 
 1200000    1.0713121   -7.2065002    444.24239  0.030850166  0.031202631            2 
 1201000    1.0502743    -7.229624    442.99579  0.030737981  0.031194345            2 
 1202000    1.0734629   -7.1886319    443.53713   0.03074994  0.031186057            1 
 1203000    1.0437604   -7.2003626    444.24782  0.030773609  0.031177837            4 
 1204000    1.0531393   -7.2456805     444.3001  0.030751668  0.031169646            3 
 1205000    1.0475562   -7.1987393    444.50043  0.030740002  0.031161323            1 
 1206000    1.0772725   -7.1786515    445.08424  0.030754853  0.031153131            3 
 1207000    1.0773696   -7.2397857    445.74196  0.030774783  0.031144928            2 
 1208000    1.0605496    -7.264575    444.54826  0.030666961  0.031136877            3 
 1209000    1.0426761   -7.2513109    445.24352  0.030689518  0.031128691            4 
 1210000    1.0619098   -7.2189119    446.49638  0.030750439  0.031120356            3 
 1211000    1.0643663   -7.2288507    447.98677  0.030827606  0.031112215            2 
 1212000    1.0468378   -7.2569343    445.68551  0.030643943  0.031104074            4 
 1213000    1.0343311   -7.2435273    446.16493  0.030651616  0.031095733            3 
 1214000    1.0278567    -7.247854    446.43555  0.030644944  0.031087347            1 
 1215000    1.0515941   -7.2186727    447.51821  0.030693979  0.031079027            2 
 1216000     1.052519   -7.2181371    446.50487  0.030599292  0.031070788            1 
 1217000    1.0634239   -7.2579558    446.92076  0.030602627  0.031062597            4 
 1218000    1.0575573   -7.2296982    449.31934  0.030741608   0.03105418            1 
 1219000    1.0566884    -7.229182    448.96152  0.030691928   0.03104605            1 
 1220000     1.071185   -7.2228001    447.58634  0.030572838  0.031037721            1 
 1221000    1.0747159   -7.2288009    448.98703  0.030643395  0.031029301            1 
 1222000    1.0616405   -7.2728046    446.59392  0.030455123   0.03102075            1 
 1223000    1.0622525   -7.2392928    449.53924   0.03063091   0.03101223            3 
 1224000    1.0615974   -7.2569576    448.25813  0.030518664  0.031003688            2 
 1225000     1.050661   -7.1982357    449.75762  0.030595757  0.030995265            3 
 1226000    1.0671393   -7.2456408    449.74075  0.030569654  0.030986924            1 
 1227000     1.067865   -7.2495945    449.40557  0.030521976    0.0309786            5 
 1228000    1.0408746   -7.2480384    449.28777  0.030489127  0.030970168            2 
 1229000     1.041831   -7.2177968    451.10195  0.030587331  0.030961797            2 
 1230000    1.0671417   -7.2150324    450.82647  0.030543799  0.030953319            1 
 1231000    1.0510439   -7.2157001    450.44828  0.030493385  0.030945026            1 
 1232000    1.0888456   -7.2566049    449.82103  0.030426206  0.030936609            1 
 1233000    1.0784701   -7.2439323    450.83814  0.030470271  0.030928034            2 
 1234000    1.0305111   -7.2474463    451.12061  0.030464655  0.030919516            1 
 1235000    1.0443544   -7.2512004    451.93271  0.030494785  0.030910874            2 
 1236000    1.0413114   -7.2424998    450.93004  0.030402511  0.030902245            2 
 1237000    1.0413042   -7.2723816    451.68061  0.030428497  0.030893564            3 
 1238000    1.0305859   -7.2313352    452.57503  0.030464124   0.03088491            3 
 1239000    1.0630494   -7.1923921    453.54866  0.030505022  0.030876461            2 
 1240000    1.0580639   -7.2326198    453.50903  0.030477757  0.030867961            3 
 1241000    1.0412636   -7.2300913    453.29153  0.030438593  0.030859553            2 
 1242000    1.0705868   -7.2965601    451.76326  0.030311544  0.030850822            1 
 1243000    1.0441584   -7.2160687    451.67375  0.030281158  0.030842043            2 
 1244000    1.0256786   -7.2199379    453.45459  0.030376111  0.030833456            2 
 1245000    1.0405535    -7.241379    452.83199  0.030310039  0.030824795            2 
 1246000    1.0384282   -7.2441586    453.54045  0.030333096  0.030816045            1 
 1247000    1.0308866   -7.2499564    453.81141  0.030326879  0.030807356            2 
 1248000    1.0463003   -7.2467282    454.86752  0.030373098  0.030798787            1 
 1249000    1.0814158    -7.257137    453.42919  0.030252815  0.030789965            2 
 1250000    1.0470179   -7.3048298    452.42676  0.030161784   0.03078104            1 
 1251000      1.04978   -7.2428087    453.05485  0.030179513  0.030772119            2 
 1252000    1.0360063    -7.234376    455.14738  0.030294687  0.030763342            2 
 1253000    1.0502707   -7.2486672    454.41165  0.030221578  0.030754421            4 
 1254000    1.0507488   -7.2310177    454.72591  0.030218362   0.03074558            2 
 1255000    1.0324463   -7.2178306    454.88396  0.030204778  0.030736772            3 
 1256000    1.0325716   -7.2611951    454.09938  0.030128674  0.030727915            2 
 1257000    1.0563874   -7.2602494    455.98243  0.030229543  0.030718889            2 
 1258000    1.0390459   -7.2521645    454.81973  0.030128493  0.030709891            2 
 1259000    1.0559277   -7.2338555    454.38935  0.030076075  0.030700837            2 
 1260000    1.0316774   -7.2287888    455.27921  0.030111059  0.030691724            6 
 1261000    1.0648541   -7.2383314    454.58947  0.030041599  0.030682441            3 
 1262000    1.0689773   -7.2223444    455.90186  0.030104455  0.030673133            2 
 1263000    1.0529852    -7.245475     455.4087   0.03004808   0.03066396            1 
 1264000    1.0581767   -7.2620554    454.16651  0.029942413  0.030654763            3 
 1265000     1.040664   -7.2577185    454.73086   0.02995592  0.030645422            2 
 1266000    1.0222636   -7.2544487    455.83801  0.030005135  0.030636073            2 
 1267000    1.0662298   -7.2542994    455.71123  0.029973115  0.030626577            1 
 1268000    1.0436235   -7.2584417    455.59381  0.029941759  0.030616989            1 
 1269000    1.0732076   -7.2249446    457.96159  0.030073653  0.030607424            4 
 1270000    1.0561955   -7.2550387    455.86176  0.029912189  0.030597872            2 
 1271000    1.0517767   -7.2521852    455.91806  0.029892346  0.030588389            2 
 1272000    1.0659422   -7.2732862    457.58967  0.029978359   0.03057892            3 
 1273000    1.0669174   -7.2780838    457.04721  0.029919299  0.030569379            2 
 1274000    1.0618291   -7.2778338    458.44722   0.02998739  0.030559866            2 
 1275000    1.0371023   -7.2611979    457.82758  0.029923371  0.030550436            3 
 1276000    1.0493692   -7.2522981    458.90651  0.029970383  0.030541044            1 
 1277000    1.0443739   -7.2241532    459.52053  0.029986983  0.030531754            1 
 1278000    1.0475899   -7.2622745    459.38553  0.029954716   0.03052248            5 
 1279000    1.0490575   -7.2191523    459.05171  0.029909546  0.030513276            4 
 1280000    1.0271612   -7.2033207     458.9875  0.029881999  0.030503907            1 
 1281000    1.0377512   -7.2380758    459.57689  0.029897014  0.030494455            1 
 1282000    1.0732958   -7.2439271     458.7618   0.02982071  0.030484944            1 
 1283000    1.0583331   -7.2044335    460.94348  0.029939171  0.030475649            1 
 1284000    1.0519845   -7.2433243    460.16268  0.029865179    0.0304664            3 
 1285000    1.0336428   -7.2662434    459.94372  0.029827738  0.030457166            2 
 1286000    1.0602267   -7.2567093    461.48858  0.029904652  0.030447936            1 
 1287000    1.0405947   -7.2452345    462.57975  0.029952068  0.030438731            2 
 1288000    1.0332016   -7.2063859    461.26256  0.029843592   0.03042949            5 
 1289000     1.023724    -7.237774    463.51937  0.029966342  0.030420352            1 
 1290000    1.0608598   -7.2568129    462.05878  0.029848758    0.0304113            1 
 1291000    1.0232103   -7.2640665    463.15612  0.029896471  0.030402317            2 
 1292000    1.0225622   -7.2106233    463.81552  0.029915862  0.030393492            2 
 1293000    1.0736209   -7.2268712    462.17642  0.029787086  0.030384536            2 
 1294000    1.0415043   -7.2223891    463.96083  0.029878982  0.030375459            2 
 1295000    1.0424189   -7.2243616    463.26562  0.029811173  0.030366628            1 
 1296000    1.0620712    -7.258845    464.61053  0.029874648  0.030357645            1 
 1297000    1.0434248   -7.2574006    464.02171  0.029813783  0.030348603            1 
 1298000    1.0256807   -7.2866969    464.11475  0.029796787  0.030339618            2 
 1299000     1.038682   -7.2637684    465.70954  0.029876157  0.030330602            2 
 1300000     1.031794   -7.2547374    464.29286  0.029762363  0.030321641            2 
 1301000    1.0381964   -7.2325515    466.18349  0.029860588  0.030312902            2 
 1302000    1.0413141   -7.2679564    467.11276   0.02989713  0.030303984            3 
 1303000    1.0501255    -7.301263    465.35668  0.029761875  0.030295157            2 
 1304000    1.0421315   -7.3113161    465.44061  0.029744415  0.030286226            2 
 1305000    1.0604045   -7.2921162    466.14825   0.02976681  0.030277347            1 
 1306000    1.0580541   -7.2580194    466.67652  0.029777726  0.030268544            2 
 1307000    1.0400681   -7.3119462    466.56461  0.029747807  0.030259582            1 
 1308000    1.0509902    -7.270051    466.35309  0.029711588   0.03025065            3 
 1309000    1.0521783   -7.2902907    467.62951  0.029770149  0.030241749            2 
 1310000    1.0426402   -7.2559717    467.87268  0.029762893  0.030232848            2 
 1311000    1.0572247   -7.2753684    467.81191  0.029736328  0.030224049            1 
 1312000    1.0453209      -7.2258    469.43609  0.029816825  0.030215408            2 
 1313000    1.0448582   -7.2776624    467.14976  0.029649008   0.03020664            1 
 1314000    1.0388502   -7.2360306    469.17435  0.029754842  0.030197861            2 
 1315000    1.0463903   -7.2333405    469.38093  0.029745306  0.030189218            1 
 1316000    1.0462664   -7.2588428    470.41902  0.029788439  0.030180406            2 
 1317000    1.0503649   -7.2159689    469.96068  0.029736819  0.030171749            1 
 1318000    1.0263103   -7.2475062    469.83972  0.029706609  0.030162977            2 
 1319000    1.0143259   -7.2227728    471.22536   0.02977163  0.030154252            1 
 1320000     1.049287   -7.2429175    470.80641  0.029722627  0.030145507            1 
 1321000    1.0292752   -7.2835718     470.4103  0.029675139  0.030136571            2 
 1322000    1.0186598    -7.260512    469.77976  0.029612945  0.030127647            2 
 1323000    1.0479753   -7.2528191    469.31243  0.029561125  0.030118543            3 
 1324000    1.0476795   -7.3076069    469.31164  0.029538749  0.030109603            2 
 1325000    1.0676301   -7.2547992    470.70618  0.029604162  0.030100569            1 
 1326000    1.0344292   -7.2801924    471.24215   0.02961552  0.030091686            1 
 1327000    1.0542084   -7.2745205    472.91888  0.029698498   0.03008292            4 
 1328000    1.0539884   -7.2730936    471.54922  0.029590187  0.030074048            1 
 1329000    1.0332885    -7.278812    472.08235  0.029601351  0.030065082            3 
 1330000    1.0409517   -7.2927098    470.33565  0.029469652   0.03005617            1 
 1331000    1.0260542   -7.3029709    472.53333  0.029585107  0.030047222            4 
 1332000     1.013264   -7.2732252    472.60633  0.029567463  0.030038341            2 
 1333000    1.0241125   -7.2662275    473.75904  0.029617344  0.030029541            2 
 1334000    1.0638457   -7.2344937    473.69427  0.029591097   0.03002068            3 
 1335000    1.0367559   -7.2540738     473.8287  0.029577322  0.030011845            2 
 1336000    1.0349308   -7.2402036     472.9915  0.029502963  0.030002945            1 
 1337000    1.0403999   -7.2543015    473.63098  0.029520754  0.029993988            3 
 1338000    1.0196512   -7.2560978    474.10537  0.029528237  0.029984889            1 
 1339000    1.0511946   -7.2836582    472.33127  0.029395772  0.029976018            3 
 1340000    1.0360494   -7.2746126    473.79647  0.029464955  0.029966947            3 
 1341000     1.023564   -7.3218059    472.67394  0.029373225  0.029957643            3 
 1342000    1.0522611   -7.2381651    473.52946  0.029404462  0.029948506            3 
 1343000    1.0306725   -7.2257786    475.95467  0.029533052  0.029939466            1 
 1344000    1.0452714   -7.2706226    473.24557  0.029343103  0.029930569            1 
 1345000    1.0330039    -7.325548    475.38015  0.029453541  0.029921573            2 
 1346000    1.0219007   -7.2762537    475.63975  0.029447731  0.029912601            4 
 1347000     1.049772   -7.2668555    476.07818  0.029452993  0.029903678            1 
 1348000    1.0322652   -7.2507363    476.58198  0.029462289  0.029894876            2 
 1349000     1.051992   -7.2849429    476.13748   0.02941299  0.029886125            2 
 1350000    1.0308049   -7.2686323    476.55832   0.02941718  0.029877332            2 
 1351000    1.0316156   -7.3128325     475.5092  0.029330693  0.029868527            1 
 1352000    1.0403931   -7.2787518    475.28358  0.029295092  0.029859558            2 
 1353000    1.0246639   -7.2776434    477.60627  0.029416499  0.029850604            3 
 1354000    1.0099858   -7.2438246    478.62808  0.029457661  0.029841884            1 
 1355000    1.0444152   -7.2751091    476.53994    0.0293075  0.029833138            1 
 1356000    1.0335934   -7.2784318    477.09184  0.029319804  0.029824241            2 
 1357000    1.0365102   -7.2647675    477.78683  0.029340876  0.029815442            1 
 1358000     1.017215   -7.2339168    478.74674  0.029378175  0.029806395            2 
 1359000    1.0313403   -7.2841101    477.57538   0.02928473   0.02979745            2 
 1360000    1.0474416   -7.2680682    476.88474  0.029220879  0.029788441            3 
 1361000    1.0456603   -7.2481559    478.40533  0.029292513  0.029779504            2 
 1362000    1.0469541   -7.2583055    478.00511  0.029246519  0.029770456            2 
 1363000    1.0303565   -7.2937959    479.97824  0.029345698  0.029761473            2 
 1364000     1.039763   -7.2701233    479.37069  0.029287066  0.029752464            2 
 1365000    1.0231126   -7.3101549    478.50789  0.029212936  0.029743522            3 
 1366000    1.0231548   -7.2698474    480.28638  0.029300048  0.029734522            2 
 1367000    1.0546453   -7.2734838     480.9814  0.029320982  0.029725707            1 
 1368000       1.0165   -7.2778512    479.80015  0.029227592  0.029716903            1 
 1369000    1.0373678    -7.270139    480.00021   0.02921842  0.029708023            2 
 1370000    1.0260372   -7.2705734    481.81068  0.029307219  0.029699107            1 
 1371000    1.0192416   -7.2934901    481.18071  0.029247551  0.029690385            2 
 1372000      1.01125   -7.3134329    480.88216    0.0292081  0.029681735            1 
 1373000    1.0388026   -7.2838666    480.59713  0.029169527  0.029672894            2 
 1374000     1.039801   -7.2911876    481.20059  0.029184898   0.02966403            2 
 1375000    1.0275236   -7.2863857    481.94824  0.029208984  0.029655334            2 
 1376000    1.0187404   -7.2818359    481.55416   0.02916389  0.029646485            2 
 1377000    1.0166665   -7.3369412    480.43856  0.029075197  0.029637659            1 
 1378000    1.0041443   -7.3097063    483.10486   0.02921534  0.029628842            4 
 1379000    1.0486662   -7.2762807     482.2616  0.029143196  0.029620204            3 
 1380000     1.018141   -7.2840435    483.99938  0.029227016   0.02961145            3 
 1381000    1.0442099   -7.3320547    483.32036  0.029164878  0.029602819            1 
 1382000    1.0503378    -7.273516    483.36264  0.029146324  0.029594303            2 
 1383000    1.0325347   -7.2865108    484.86097  0.029215532  0.029585737            1 
 1384000    1.0593141   -7.2770732    485.14825   0.02921172  0.029577133            1 
 1385000    1.0193793    -7.268464    485.32825  0.029201459  0.029568564            1 
 1386000     1.013225   -7.2839378    485.00596  0.029161013  0.029560003            3 
 1387000    1.0339172   -7.2957173    485.28903  0.029156995  0.029551297            3 
 1388000    1.0348481   -7.2936145    484.94755  0.029115487  0.029542549            2 
 1389000     1.023075   -7.3189213    483.39813  0.029001568   0.02953376            2 
 1390000    1.0394516   -7.2969587    485.52543  0.029108239  0.029524949            2 
 1391000    1.0599246   -7.2721686    487.06031  0.029179266  0.029516395            2 
 1392000    1.0257602   -7.3278923    486.23267  0.029108756  0.029507841            2 
 1393000    1.0128352   -7.3085164    487.47598  0.029162239  0.029499284            3 
 1394000    1.0130656    -7.278348    486.42946  0.029078758  0.029490759            3 
 1395000    1.0388109   -7.2748717    488.52086  0.029182847   0.02948232            2 
 1396000    1.0359505   -7.2936691    489.32556  0.029209979  0.029474006            1 
 1397000    1.0376112   -7.3290446    487.96672  0.029108012  0.029465716            2 
 1398000      1.03362    -7.298968      488.449  0.029115939  0.029457401            3 
 1399000    1.0290714   -7.3062123    489.94417  0.029184189  0.029448963            5 
 1400000    1.0340199   -7.2648316    489.04532  0.029109841  0.029440546            2 
 1401000    1.0277651   -7.3166521    488.72652    0.0290701  0.029432125            2 
 1402000    1.0469857   -7.2598708    488.51453  0.029036765  0.029423753            3 
 1403000    1.0234755   -7.2793143    490.78824  0.029151119  0.029415383            1 
 1404000    1.0285462   -7.2512442    491.29999  0.029160731  0.029407106            2 
 1405000    1.0184701   -7.2775201    490.84893  0.029113222  0.029398753            5 
 1406000    1.0469639   -7.3448424    490.09374  0.029047756  0.029390363            1 
 1407000     1.031655   -7.2711567     490.8475  0.029071754  0.029381893            2 
 1408000    1.0504089   -7.2828934    491.27619  0.029076479  0.029373562            2 
 1409000    1.0310286   -7.2970289     489.9361  0.028976585  0.029365146            2 
 1410000    1.0498405   -7.3457057    489.62014   0.02893736  0.029356584            4 
 1411000    1.0259627   -7.3241367      490.424  0.028964328  0.029347891            3 
 1412000    1.0313641   -7.2841586    491.96222  0.029034597  0.029339435            1 
 1413000    1.0245365   -7.2926557    492.27033  0.029032221  0.029330831            3 
 1414000    1.0248183   -7.2983936    491.62194  0.028973476  0.029322384            2 
 1415000    1.0212891   -7.3194308    491.87441  0.028967869  0.029313812            1 
 1416000    1.0555309   -7.3589659     491.3037  0.028913824   0.02930543            4 
 1417000    1.0381019   -7.2788922    493.06381  0.028996931  0.029296997            1 
 1418000   0.99547905   -7.2790827    492.67514   0.02895364  0.029288522            2 
 1419000    1.0110802   -7.3024928     494.0355  0.029013126  0.029280175            1 
 1420000    1.0380076   -7.2716105    494.25954  0.029005841   0.02927187            2 
 1421000    1.0220403   -7.2767458    494.78756  0.029016395  0.029263627            2 
 1422000    1.0224313   -7.3229924    492.89526  0.028885095  0.029255397            2 
 1423000    1.0238969   -7.3062319    494.89157  0.028981704  0.029247082            1 
 1424000     1.021999   -7.2936287    495.50657  0.028997341  0.029238905            1 
 1425000    1.0100055   -7.3288777    493.84791  0.028879995  0.029230473            2 
 1426000    1.0059399   -7.3247327    493.90103  0.028862847  0.029222073            3 
 1427000    1.0139658   -7.3116295    494.65471  0.028886634  0.029213677            1 
 1428000    1.0178533   -7.2876704    494.51636  0.028858331  0.029205324            2 
 1429000    1.0147459   -7.3164523    495.25799  0.028881385  0.029197066            1 
 1430000    1.0163676   -7.3314847    496.51311  0.028934331  0.029188962            1 
 1431000    1.0355504   -7.2989926    496.23361  0.028897834  0.029180834            2 
 1432000    1.0158223   -7.3336732    496.49177  0.028892677  0.029172636            2 
 1433000     1.027636    -7.314236    496.23642  0.028857666  0.029164524            1 
 1434000    1.0277493   -7.3403865    496.26709  0.028839324  0.029156324            2 
 1435000     1.038099    -7.316807    496.79726  0.028850015  0.029148204            1 
 1436000    1.0261938   -7.2986114     498.7866  0.028945369  0.029140113            3 
 1437000    1.0165503   -7.2999057    499.01639  0.028938552   0.02913215            4 
 1438000    1.0111184   -7.2824653    500.06243  0.028979046  0.029124274            2 
 1439000    1.0345321   -7.3260729    496.52084  0.028753813  0.029116285            1 
 1440000    1.0149288   -7.3067831    500.24868  0.028949576  0.029108321            2 
 1441000    1.0194076   -7.3132099     498.8198  0.028846854  0.029100317            2 
 1442000    1.0164585   -7.3174425     497.8468   0.02877062   0.02909231            1 
 1443000    1.0243155   -7.2934577     500.6987  0.028915379  0.029084279            1 
 1444000    1.0002142   -7.3215339    499.63917  0.028834209  0.029076282            1 
 1445000    1.0296333   -7.3366956     498.9298  0.028773345   0.02906831            2 
 1446000    1.0395383   -7.3225065    501.98602  0.028929577  0.029060415            2 
 1447000    1.0112597   -7.2887154    500.17939   0.02880554  0.029052662            1 
 1448000    1.0309363   -7.2862251    501.29585  0.028849899  0.029044823            2 
 1449000    1.0128769   -7.3221456    499.97897  0.028754254  0.029036952            2 
 1450000    1.0474001   -7.2819962    502.29335  0.028867434  0.029029052            3 
 1451000    1.0120866    -7.290825    501.57867  0.028806494  0.029021212            2 
 1452000    1.0183714   -7.3090542    501.29853  0.028770577  0.029013183            4 
 1453000    1.0109842   -7.3124223    503.51546  0.028877923  0.029005347            1 
 1454000    1.0092922   -7.3019599    504.38343  0.028907808   0.02899748            2 
 1455000    1.0124148   -7.3038975    501.43593  0.028719125  0.028989579            2 
 1456000   0.99723348   -7.2980469     502.6193   0.02876713  0.028981647            2 
 1457000    1.0143989   -7.3341345    502.77609  0.028756354  0.028973759            5 
 1458000    1.0121566   -7.3169802    502.65132    0.0287295  0.028965945            1 
 1459000    1.0319451   -7.2857063    502.93947  0.028726266  0.028958137            1 
 1460000    1.0020485   -7.2752716      503.669  0.028748231  0.028950249            2 
 1461000     1.043085   -7.3041755    503.97927  0.028746251  0.028942268            1 
 1462000    1.0164348   -7.3620549    502.76598  0.028657431  0.028934265            6 
 1463000    1.0266973   -7.2986544    503.64077  0.028687672  0.028926225            2 
 1464000   0.99589443   -7.2899159    504.54299  0.028719432  0.028918316            2 
 1465000    1.0168676   -7.3163888    503.64373  0.028648676  0.028910376            2 
 1466000    1.0063346   -7.3193078    504.76409   0.02869282  0.028902349            1 
 1467000    1.0121042   -7.3066958    503.92124  0.028625383  0.028894317            4 
 1468000    1.0289072   -7.3151947    504.46162  0.028636559  0.028886306            2 
 1469000    1.0027413   -7.3379855    504.48571  0.028618431  0.028878184            2 
 1470000   0.99746342   -7.3184339     505.8157  0.028674359   0.02887021            1 
 1471000    1.0016463   -7.3446937    505.13228   0.02861615  0.028862074            4 
 1472000    1.0109081   -7.3028972    505.65932  0.028626547  0.028853926            2 
 1473000   0.99819694   -7.2870738    506.23509  0.028639686  0.028845882            2 
 1474000   0.99810626   -7.3037674    506.06134  0.028610433  0.028837797            3 
 1475000     1.007475   -7.3017525    504.99406  0.028530738  0.028829585            3 
 1476000    1.0070498   -7.2948173    506.67284   0.02860619  0.028821459            2 
 1477000    1.0532845   -7.3226073    505.45843  0.028518305  0.028813249            2 
 1478000    0.9983636   -7.3238936    506.21312  0.028541561  0.028805131            3 
 1479000    1.0268372   -7.3278122    506.88789  0.028560282  0.028796996            2 
 1480000    1.0102397   -7.3149518     506.1484  0.028499347  0.028788752            3 
 1481000    1.0277349   -7.2761918    507.27625  0.028543566  0.028780604            4 
 1482000    1.0110485   -7.2900906    506.77833  0.028496307  0.028772651            2 
 1483000    1.0236729    -7.326217    509.02902  0.028603564  0.028764533            1 
 1484000   0.99403356   -7.3401835    507.99809  0.028526398   0.02875637            4 
 1485000    1.0352894   -7.3557139     507.7011  0.028490522  0.028748224            4 
 1486000    1.0124157   -7.3528686    506.81064  0.028421413  0.028740102            2 
 1487000     1.009146   -7.3502448    507.54005  0.028443177  0.028731913            4 
 1488000   0.99916475   -7.3430221     507.6149  0.028428254  0.028723759            1 
 1489000    1.0239099   -7.3070663    509.73526   0.02852783  0.028715745            4 
 1490000    1.0133614   -7.3474033    508.34038   0.02843067  0.028707802            3 
 1491000    1.0257236   -7.3267922    509.20148   0.02845973  0.028699713            3 
 1492000    1.0131458   -7.3318063    509.41369  0.028452507  0.028691634            3 
 1493000    1.0171794   -7.3526007    509.00432  0.028410601  0.028683736            2 
 1494000     1.006578   -7.3304698     510.9798  0.028501774  0.028675722            4 
 1495000    1.0207382   -7.2838781    510.74595  0.028469674  0.028667761            1 
 1496000    1.0255519   -7.3665761    510.09394  0.028414324  0.028659834            2 
 1497000    1.0132961   -7.3585672    510.40622  0.028412727  0.028651784            2 
 1498000    1.0035016   -7.3294649    510.84887  0.028418384  0.028643665            1 
 1499000    1.0075783   -7.3627451    510.58202  0.028384591   0.02863565            1 
 1500000    1.0276836   -7.3246219    509.17619  0.028287566  0.028627449            2 
 1501000   0.98802937   -7.3370749    509.92535  0.028310313  0.028619315            2 
 1502000    1.0159133   -7.3286489    509.51369  0.028268625  0.028611168            2 
 1503000    1.0013395   -7.3438539    511.44657  0.028356985  0.028603067            4 
 1504000    1.0266885   -7.3054793    511.64527   0.02834914  0.028594941            2 
 1505000    1.0115276   -7.3151618    512.63933  0.028385345  0.028586858            4 
 1506000    1.0045914    -7.343792    512.38263  0.028352292  0.028578736            2 
 1507000    1.0093256   -7.3380804    512.28159  0.028327892  0.028570654            5 
 1508000    1.0233234   -7.3267241    512.12796  0.028300617  0.028562536            1 
 1509000    1.0125595   -7.3065748    512.82007  0.028320083  0.028554291            3 
 1510000     1.013437   -7.3213889    512.73542  0.028296657  0.028546055            2 
 1511000    1.0318864   -7.3472702    511.98257  0.028236409  0.028537694            3 
 1512000    1.0524015   -7.3512779     512.9083  0.028268755  0.028529456            1 
 1513000    1.0233705   -7.3062405    513.01958  0.028256201  0.028521237            2 
 1514000    1.0082597   -7.3157978    513.65428  0.028272472  0.028513161            2 
 1515000    1.0112842   -7.3457139     513.6124  0.028251507  0.028505062            1 
 1516000   0.98877324    -7.364016    512.08473  0.028148897   0.02849686            2 
 1517000   0.99413554   -7.3706813    512.93093  0.028176826  0.028488483            2 
 1518000    1.0171034   -7.3689391    514.09963  0.028222422  0.028480318            5 
 1519000    1.0123148   -7.3243383    515.04533  0.028255723   0.02847225            2 
 1520000    1.0304472   -7.3115342    515.10298  0.028240295  0.028464234            2 
 1521000    1.0086882   -7.3205099    515.06966  0.028219903  0.028456178            2 
 1522000    1.0205104   -7.3337063    516.15987  0.028261053  0.028448229            2 
 1523000   0.99168602   -7.3382909    515.34505  0.028197913  0.028440128            4 
 1524000    1.0272594   -7.3622072    514.61658  0.028139577  0.028432063            2 
 1525000     1.014206   -7.3468426    514.85245  0.028134013  0.028423869            3 
 1526000    1.0109919   -7.3405303    515.87796  0.028171579  0.028415835            3 
 1527000    1.0074674   -7.3097346    518.93968  0.028320218  0.028407854            2 
 1528000   0.99495909   -7.3234889    518.03241  0.028252204  0.028399973            1 
 1529000    1.0154132   -7.3116808    518.71861  0.028271126  0.028392205            1 
 1530000      1.01104   -7.3257995    518.32003  0.028230939  0.028384339            3 
 1531000    1.0156289   -7.3187433    517.67584  0.028177435  0.028376466            2 
 1532000    1.0012101   -7.3736185    518.20549  0.028187853  0.028368571            3 
 1533000      1.01389   -7.3137881    518.29292  0.028174218  0.028360808            2 
 1534000   0.99643761   -7.3557633    519.21152  0.028205754  0.028353022            2 
 1535000   0.97988053   -7.3359136    519.82636  0.028220758  0.028345091            4 
 1536000   0.98737067   -7.3561962    518.82828  0.028148236  0.028337122            2 
 1537000    1.0309558   -7.3369619    520.20774  0.028204713  0.028329246            1 
 1538000   0.99606085    -7.330162    518.94102  0.028117741  0.028321421            4 
 1539000    1.0097483   -7.3419794    521.08963  0.028215813  0.028313685            2 
 1540000    1.0042415   -7.3159772    520.29162  0.028154308  0.028305885            3 
 1541000    1.0051407   -7.3332061    520.50994  0.028147845  0.028298129            3 
 1542000   0.99941101   -7.3149575    521.03669  0.028158057  0.028290438            1 
 1543000    1.0058166   -7.3515973    520.24228  0.028096904  0.028282664            3 
 1544000    1.0077547   -7.3718808    520.81865  0.028109815  0.028274817            2 
 1545000     1.015419   -7.3211203    521.20411  0.028112411  0.028266899            2 
 1546000    1.0118833   -7.3623271    520.95982   0.02808106  0.028259051            2 
 1547000    1.0047813   -7.3234306    520.10681  0.028016958  0.028251216            1 
 1548000   0.98839377    -7.312077    522.76911  0.028142179  0.028243426            3 
 1549000    1.0036741   -7.3602716    523.36103  0.028155855  0.028235515            1 
 1550000   0.99530375    -7.349596    522.32733  0.028082115  0.028227717            2 
 1551000    1.0236728   -7.3783437    521.94337  0.028043379  0.028219791            2 
 1552000    1.0047823   -7.3531267     522.2534  0.028041956  0.028211861            3 
 1553000    1.0190105   -7.3488848     522.5176  0.028038077  0.028204067            1 
 1554000    1.0175206    -7.384154    522.82727   0.02803664  0.028196161            1 
 1555000    1.0052408   -7.3666591    520.97037  0.027919098  0.028188174            2 
 1556000     0.997041   -7.3720857    523.34632  0.028028402  0.028180315            4 
 1557000    1.0020131   -7.3322407    523.49674  0.028018451  0.028172445            2 
 1558000   0.99621883   -7.3253539    522.73484  0.027959715  0.028164608            2 
 1559000    1.0167384   -7.3404024    523.59899  0.027987972   0.02815685            1 
 1560000   0.99730591   -7.3496874    522.93205  0.027934404  0.028149066            2 
 1561000    1.0094054   -7.3469377    522.97586  0.027918848  0.028141114            2 
 1562000     1.013868   -7.3794807     523.6013  0.027934342  0.028133273            2 
 1563000   0.96431596   -7.3068252      526.097  0.028049531  0.028125478            2 
 1564000    1.0149503     -7.35148    524.57699  0.027950607  0.028117603            1 
 1565000   0.99472965   -7.3397398    525.52316  0.027983129  0.028109817            2 
 1566000     1.008738   -7.3325015    523.86904  0.027877237  0.028101847            1 
 1567000   0.99349655   -7.3465642    525.14156   0.02792712  0.028093943            2 
 1568000   0.99122837   -7.3317027    524.87015  0.027894884  0.028086196            2 
 1569000    1.0091288   -7.3128906     526.2181  0.027948699  0.028078459            3 
 1570000   0.96895096   -7.3661086     527.0145  0.027973169  0.028070688            1 
 1571000   0.98816002   -7.3764194    525.20514  0.027859386  0.028062953            1 
 1572000   0.99353635   -7.3605872    526.74123  0.027923093  0.028055267            2 
 1573000    1.0088662    -7.321438    527.38247  0.027939313   0.02804763            2 
 1574000    1.0025584    -7.335445     526.0165  0.027849243  0.028040013            1 
 1575000    1.0019681   -7.3532801    528.35927  0.027955517  0.028032497            1 
 1576000    1.0082075   -7.3178733    529.11558   0.02797777  0.028024937            1 
 1577000   0.99675792   -7.3488686     527.0197  0.027849276  0.028017333            1 
 1578000    1.0010904   -7.3947693    527.34962   0.02784905  0.028009744            2 
 1579000    1.0005535   -7.3701538    527.49927  0.027839311  0.028001916            1 
 1580000    1.0068448   -7.3676255    529.87293  0.027946885  0.027994146            2 
 1581000   0.98724579   -7.3750229    529.53538  0.027911416  0.027986406            2 
 1582000    1.0067165    -7.323842    528.37498  0.027832648  0.027978805            1 
 1583000    1.0226699   -7.3570346    528.06057  0.027798514  0.027971064            1 
 1584000   0.99851526   -7.3136197    530.00756  0.027883394  0.027963347            2 
 1585000   0.97789296   -7.3136617    529.83398  0.027856676  0.027955572            1 
 1586000   0.98538773   -7.3598352    529.43994  0.027818408   0.02794782            3 
 1587000   0.98946291    -7.360934    529.09721  0.027782883  0.027939987            1 
 1588000     1.004554   -7.3810546    528.20101  0.027718357  0.027932226            2 
 1589000   0.97763976   -7.3526917    531.29048  0.027862937  0.027924374            2 
 1590000    1.0055835   -7.3826626    530.26745  0.027791795  0.027916611            2 
 1591000   0.99582006   -7.4150784    527.81994  0.027646131   0.02790874            3 
 1592000   0.99181921   -7.3759878    529.81495  0.027733195  0.027900895            3 
 1593000   0.99718526   -7.3537483     531.5153  0.027804734  0.027893254            1 
 1594000   0.97884842   -7.3354347    531.18263  0.027769899  0.027885544            2 
 1595000   0.99909296   -7.3603301    530.48108  0.027715835   0.02787776            1 
 1596000   0.98162904   -7.3723005    531.28245  0.027740311   0.02786999            1 
 1597000   0.98009824   -7.3358825     532.0437  0.027762664   0.02786219            2 
 1598000    1.0098052   -7.3495395    532.08895  0.027747651  0.027854445            1 
 1599000    1.0060997   -7.3361513    532.68845  0.027761541  0.027846679            1 
 1600000   0.98184085   -7.3379641     531.8877  0.027702484  0.027838859            3 
 1601000    1.0067763   -7.3688908    530.41634  0.027608596  0.027831119            2 
 1602000    1.0137013   -7.3914736    532.04237  0.027675945  0.027823511            4 
 1603000   0.99404896   -7.3810466    532.13726  0.027663613  0.027815801            2 
 1604000   0.99636898   -7.3675409    533.81259  0.027733406  0.027808107            2 
 1605000    1.0040212   -7.3541025    533.17308  0.027682922  0.027800443            5 
 1606000   0.99157943   -7.3832734    532.16743  0.027613503  0.027792674            2 
 1607000   0.99461334   -7.3884512    532.90798  0.027634722  0.027784858            2 
 1608000   0.98778694   -7.4001678    533.77922  0.027662688  0.027777021            2 
 1609000   0.99856527   -7.3708746    533.33803  0.027622645  0.027769275            1 
 1610000    1.0018733   -7.3381683    533.57862  0.027617941  0.027761606            2 
 1611000    1.0090672   -7.3513561    534.13025  0.027629332  0.027753983            1 
 1612000   0.99348143   -7.3452724    534.69299  0.027641284  0.027746294            1 
 1613000   0.98713642   -7.3673655    535.16597  0.027648583  0.027738571            2 
 1614000   0.98116602   -7.3315512    535.93637  0.027671229  0.027730829            1 
 1615000    1.0247792   -7.3688713    533.38748  0.027522574   0.02772304            2 
 1616000    1.0069186     -7.36081    535.37697  0.027608136  0.027715206            3 
 1617000   0.99355098   -7.3901589    535.71373  0.027608417  0.027707485            3 
 1618000    1.0095066   -7.3553225    535.77836  0.027594683  0.027699735            4 
 1619000   0.99562734   -7.3725563    535.71489  0.027574371  0.027692011            3 
 1620000   0.99250353   -7.3500004    536.41923  0.027593582  0.027684274            1 
 1621000   0.97684502   -7.3912984     535.7202  0.027540623  0.027676618            2 
 1622000    1.0031347    -7.384888    535.42921  0.027508693  0.027668964            2 
 1623000   0.98384425   -7.4053962    536.85788  0.027565099  0.027661316            3 
 1624000   0.99925064    -7.373367    537.94216  0.027603764  0.027653664            1 
 1625000   0.98592524   -7.3748745     537.0375  0.027540385  0.027646036            1 
 1626000     1.002606   -7.3572934    536.74683   0.02750855  0.027638468            3 
 1627000    0.9740981   -7.3382665    537.78488   0.02754481  0.027630973            2 
 1628000    1.0262707   -7.3703151    537.09998  0.027492833  0.027623419            3 
 1629000   0.97881007   -7.3552041    538.06818  0.027525485  0.027615871            1 
 1630000   0.99122597   -7.4319553    537.16249  0.027462295  0.027608368            3 
 1631000   0.98467511   -7.3668513    538.43198   0.02751032  0.027600811            1 
 1632000   0.98279221   -7.3695792    539.58704  0.027552443  0.027593379            4 
 1633000   0.99084674   -7.4370726    539.93101  0.027553123  0.027585893            2 
 1634000   0.98757481   -7.3738182    539.71135  0.027525059  0.027578387            1 
 1635000    1.0012598   -7.3843004    540.31671  0.027539078  0.027570957            4 
 1636000   0.98893126   -7.3550853     540.2355  0.027518108  0.027563495            2 
 1637000   0.98203626   -7.3899384     540.3903  0.027509179   0.02755602            3 
 1638000   0.99563143    -7.390874    540.45611  0.027495732  0.027548502            3 
 1639000   0.99138466   -7.3541704    541.39475   0.02752668  0.027541085            3 
 1640000   0.99760265   -7.3843587    541.08532  0.027494173  0.027533644            3 
 1641000   0.99430154   -7.3870787    542.52632  0.027550595  0.027526276            1 
 1642000   0.99956798   -7.3822626    541.72112  0.027492952  0.027518885            2 
 1643000    1.0066929   -7.3752862    542.83104  0.027532514   0.02751157            1 
 1644000   0.99446789   -7.3744463    542.50293  0.027499135   0.02750423            2 
 1645000   0.98594008   -7.3706286     543.8381  0.027550056  0.027496968            1 
 1646000   0.97693745   -7.3366896    543.79055  0.027530911  0.027489835            2 
 1647000   0.98874646   -7.4076111     543.1417  0.027481365  0.027482651            1 
 1648000   0.98006039   -7.3968299    543.67263  0.027491537  0.027475488            2 
 1649000   0.98499152   -7.4167404    542.72628   0.02742704  0.027468221            1 
 1650000   0.99169995   -7.3804628    544.47757  0.027498867  0.027460983            2 
 1651000   0.97525796   -7.4275568    544.34666  0.027475604  0.027453684            3 
 1652000   0.97738702   -7.3709209    545.13461  0.027498719  0.027446484            2 
 1653000   0.99112583   -7.3667786    544.73172  0.027461773  0.027439436            1 
 1654000   0.98838809   -7.3940678    546.24205  0.027521264  0.027432438            6 
 1655000   0.97341586   -7.3416569    545.90666  0.027487747  0.027425351            3 
 1656000    1.0053338   -7.3809823    546.97809  0.027525065  0.027418362            1 
 1657000   0.99830305   -7.3689079    546.81029  0.027500014  0.027411329            2 
 1658000    1.0110434   -7.4072347    545.50025  0.027417584  0.027404224            3 
 1659000   0.98993856   -7.3645479    546.94728  0.027473743  0.027397059            3 
 1660000   0.98071355   -7.3699415     546.9432  0.027456988  0.027390029            1 
 1661000   0.99045136   -7.4147702    546.15876  0.027401102  0.027382836            2 
 1662000   0.97519897   -7.3895809    546.77037  0.027415281  0.027375708            2 
 1663000   0.99732222   -7.3919327    547.12523  0.027416578  0.027368619            1 
 1664000   0.97415102   -7.4059722    547.22094  0.027404895  0.027361425            4 
 1665000   0.98954112   -7.4164143    546.52926  0.027353817  0.027354231            3 
 1666000   0.99237495   -7.4323744    546.99613  0.027360751  0.027346929            1 
 1667000    0.9753444   -7.4094674    547.35551  0.027362303  0.027339829            3 
 1668000   0.98806732    -7.375643    548.54029  0.027405091    0.0273327            2 
 1669000   0.98571525   -7.4021579    548.46782  0.027385052  0.027325592            2 
 1670000   0.98157325   -7.3921573    547.15826  0.027303306  0.027318398            2 
 1671000   0.96082418   -7.4145531    548.43311  0.027350544  0.027311317            1 
 1672000   0.99473457    -7.389921    547.56078  0.027290709  0.027304107            1 
 1673000   0.97254987   -7.4061886    549.74179  0.027383034  0.027296953            3 
 1674000    1.0087623   -7.3674695    549.44679  0.027351991  0.027289756            1 
 1675000   0.96890344   -7.3898701    548.75006  0.027300998  0.027282576            1 
 1676000    1.0003843    -7.403053    548.62757  0.027278618  0.027275366            2 
 1677000   0.98130172   -7.4202317    548.57925  0.027259951  0.027268192            4 
 1678000   0.98897206   -7.3945031    549.34083  0.027281527  0.027261002            5 
 1679000   0.96958951   -7.4118055    548.80079  0.027238475  0.027253802            6 
 1680000   0.98925872   -7.4171259    549.20991  0.027242555  0.027246663            3 
 1681000   0.97405343   -7.3718187    550.00199  0.027265615  0.027239525            1 
 1682000   0.98295777   -7.4063734    550.36113  0.027267198  0.027232438            1 
 1683000    1.0005316   -7.4328997    550.43806  0.027254806  0.027225286            4 
 1684000   0.96965252   -7.4535232    549.53689  0.027194027  0.027218119            4 
 1685000   0.98782316   -7.4236091    550.65412  0.027233142  0.027210993            1 
 1686000   0.99947116   -7.3806731    550.76033  0.027222239  0.027203985            1 
 1687000   0.98150201   -7.3839115    552.33972   0.02728412  0.027196842            2 
 1688000    1.0096445    -7.406097    552.45268  0.027273533  0.027189738            2 
 1689000   0.98346883   -7.3839069    552.14397  0.027242154  0.027182692            4 
 1690000   0.95929979    -7.371439    550.84202  0.027161835   0.02717562            3 
 1691000   0.98287531    -7.379719    553.23356  0.027263629  0.027168497            2 
 1692000   0.99158634   -7.3828882    552.20717  0.027196965  0.027161407            2 
 1693000   0.98993863   -7.3914866    552.30306   0.02718562   0.02715435            2 
 1694000    1.0019186    -7.374847    553.00492  0.027204099  0.027147296            5 
 1695000    1.0108487   -7.3698191    552.21295  0.027149112  0.027140285            1 
 1696000   0.96684959   -7.3945279    553.20325  0.027181763  0.027133184            5 
 1697000   0.96782292   -7.3846929    553.83602  0.027196819   0.02712603            2 
 1698000    0.9687934   -7.4140269    554.24033  0.027200645  0.027118887            3 
 1699000   0.97137815   -7.4259689    553.14353  0.027130838  0.027111811            2 
 1700000   0.97875215   -7.3961794    554.14375  0.027163909  0.027104593            3 
 1701000   0.99159447   -7.3669689    555.32771  0.027205943  0.027097557            2 
 1702000   0.98661096   -7.3606714    554.93939  0.027170945  0.027090575            3 
 1703000   0.97789859   -7.4043847    555.58906  0.027186781  0.027083485            2 
 1704000   0.99151605   -7.3961581    556.71915  0.027226093   0.02707656            2 
 1705000   0.96052674   -7.3954534    553.96378  0.027075453  0.027069474            3 
 1706000   0.94538512   -7.4300035    554.75421  0.027098193   0.02706237            2 
 1707000   0.98507125   -7.4139373    554.09579  0.027050175  0.027055272            1 
 1708000     0.967839   -7.3938489    554.73391  0.027065472  0.027048139            1 
 1709000   0.97560302   -7.3866475    554.63027  0.027044581  0.027040962            2 
 1710000   0.98724169   -7.3972253     556.9216  0.027140429  0.027033994            1 
 1711000   0.97514585   -7.4017966    556.98172  0.027127495  0.027026964            1 
 1712000   0.97469998   -7.3983651    557.31189  0.027127721  0.027019936            2 
 1713000   0.97399822   -7.3675211    558.35293  0.027162528  0.027013113            2 
 1714000   0.97718608   -7.4009682    557.03495  0.027082601  0.027006239            3 
 1715000   0.98447211   -7.3751393    558.73581  0.027149456  0.026999373            3 
 1716000   0.95756044   -7.3902532    557.86873  0.027091527  0.026992517            1 
 1717000   0.97269254    -7.404634    557.61034  0.027063208  0.026985667            4 
 1718000   0.98382013   -7.3857598    557.45646  0.027039991  0.026978816            2 
 1719000   0.97010482   -7.4132924     560.3741  0.027165702  0.026971944            1 
 1720000   0.98606125   -7.3798737    558.65038  0.027066394  0.026965083            1 
 1721000   0.97468236   -7.3865055    558.53505  0.027045083  0.026958132            1 
 1722000   0.98196088   -7.4378953    558.06476  0.027006618  0.026951276            2 
 1723000   0.98287372   -7.4077126    560.34724  0.027101337  0.026944522            2 
 1724000    0.9756114   -7.3991362    560.37681  0.027087046  0.026937818            3 
 1725000   0.96850244   -7.3761094    562.72086  0.027184583  0.026931199            2 
 1726000   0.95385439    -7.396849    561.80723  0.027124721  0.026924644            3 
 1727000   0.97530058   -7.4075208    560.49557  0.027045724  0.026918194            1 
 1728000   0.97254744   -7.4195429    562.48508  0.027126016  0.026911658            2 
 1729000   0.98794237   -7.4263123    561.28081  0.027052285  0.026905016            1 
 1730000   0.99879474    -7.398975    560.86713  0.027016721  0.026898429            2 
 1731000    0.9723401    -7.378449    562.44961  0.027077297  0.026891901            2 
 1732000   0.98014252   -7.3963416    563.47894  0.027111188  0.026885297            3 
 1733000   0.97525251   -7.4004924    562.38107  0.027042752  0.026878707            1 
 1734000     0.971237   -7.4070353     563.4501  0.027078532  0.026872103            2 
 1735000   0.98912868    -7.425856    562.55495  0.027019931  0.026865521            3 
 1736000   0.98414465   -7.3887767    564.60347  0.027102701  0.026858925            1 
 1737000   0.95729913    -7.390791    562.71391  0.026996445  0.026852344            1 
 1738000   0.97378314    -7.361112    564.43055  0.027063221  0.026845769            2 
 1739000    0.9868423   -7.3800115    563.78063  0.027016515  0.026839179            2 
 1740000    0.9940584   -7.4259343    564.14469  0.027018424  0.026832486            1 
 1741000   0.97840499   -7.3833583    563.25618  0.026960376   0.02682582            1 
 1742000   0.96179325   -7.4353966    562.48393  0.026907957  0.026819077            2 
 1743000   0.98219832   -7.4033686    565.49397   0.02703643  0.026812349            1 
 1744000   0.97894605   -7.4061374    565.21387  0.027007544  0.026805616            1 
 1745000   0.98057555    -7.413771    562.81669  0.026877588  0.026798884            3 
 1746000   0.96919636   -7.4157256    564.53972  0.026944431  0.026792228            1 
 1747000   0.97900882   -7.4252566    564.25937  0.026915635  0.026785553            1 
 1748000   0.97822557   -7.3795756    565.10679  0.026940636  0.026778851            3 
 1749000    0.9722802   -7.4093812    565.05364  0.026922701  0.026772157            3 
 1750000   0.99042144   -7.4309271    564.90009  0.026900004  0.026765543            1 
 1751000   0.95758676    -7.415693    567.49525   0.02700815   0.02675898            3 
 1752000   0.95234086   -7.4303975    566.21468  0.026931825   0.02675238            3 
 1753000   0.97731103   -7.4310189    564.62139   0.02684072  0.026745717            1 
 1754000    0.9710183   -7.4167913    565.03864  0.026845241  0.026739058            2 
 1755000   0.99173749   -7.4194737    566.67647  0.026907715   0.02673252            2 
 1756000    0.9727717   -7.4323286    567.67775  0.026939909  0.026725985            3 
 1757000   0.98775197   -7.4134332    565.65721  0.026828743  0.026719448            1 
 1758000   0.96809487   -7.4220567    567.41779  0.026896937  0.026712924            1 
 1759000   0.94590318   -7.4070314    567.27064  0.026874675  0.026706337            2 
 1760000   0.96898039   -7.4305626    567.51449  0.026870951  0.026699847            2 
 1761000   0.98164511   -7.4985186    568.33938  0.026894727  0.026693261            2 
 1762000   0.94002576   -7.4181119    567.13334  0.026822424  0.026686662            2 
 1763000   0.95749817   -7.4117694    568.71711  0.026882072  0.026680051            3 
 1764000   0.96555846   -7.4152826    567.38903  0.026804093  0.026673336            5 
 1765000   0.95850119   -7.4324222    569.34065   0.02688105  0.026666824            2 
 1766000   0.96644403   -7.4178659     570.7485  0.026932262  0.026660351            1 
 1767000   0.94778227   -7.4168719    568.85069  0.026827518  0.026653842            1 
 1768000   0.96148066   -7.4426244    569.12086  0.026825078  0.026647354            1 
 1769000   0.95267937   -7.4234801    569.52868  0.026829125  0.026640734            1 
 1770000    0.9720092   -7.4363274    568.45976  0.026763642  0.026634144            2 
 1771000   0.96638323   -7.4484693    570.88254  0.026862533   0.02662762            4 
 1772000   0.97143195   -7.4386759     568.5393  0.026737176  0.026621026            4 
 1773000   0.97212913   -7.4442128    569.91338  0.026786679  0.026614363            1 
 1774000   0.98330503   -7.4635184    567.99504  0.026681466  0.026607712            1 
 1775000   0.97371704   -7.4390156     569.9362  0.026757568  0.026600971            1 
 1776000   0.97293573   -7.4772592    571.45275  0.026813661  0.026594331            2 
 1777000    1.0122608   -7.4550219    570.75353  0.026765782  0.026587652            4 
 1778000   0.97836878   -7.4318924    570.24303  0.026726801  0.026580983            2 
 1779000   0.95422539   -7.4353654    570.78202  0.026737025  0.026574425            3 
 1780000   0.95841147   -7.4046067    572.79714  0.026816346  0.026567897            1 
 1781000   0.98384347   -7.4205953    571.76091  0.026752803  0.026561365            2 
 1782000   0.96653691   -7.4322067    572.74991   0.02678404  0.026554926            2 
 1783000   0.96831362    -7.447526    572.79957  0.026771339  0.026548403            2 
 1784000   0.98883943   -7.4258658    571.24131  0.026683544  0.026541783            1 
 1785000   0.97502616   -7.4373588    572.26693  0.026716477  0.026535164            1 
 1786000   0.97767512    -7.470561    571.05201  0.026644831  0.026528478            2 
 1787000   0.95489451   -7.4425885    570.61473  0.026609529  0.026521802            2 
 1788000   0.96920663   -7.4218094    572.41215  0.026678419  0.026515157            2 
 1789000   0.97365302   -7.4325595    573.42219  0.026710555  0.026508503            2 
 1790000   0.97657081   -7.4203009    572.22709  0.026639995  0.026501859            2 
 1791000   0.94597117   -7.4401962    572.75644  0.026649751  0.026495171            2 
 1792000   0.96034562   -7.4473497    573.71076  0.026679258  0.026488395            2 
 1793000   0.96401738    -7.468325    571.17874  0.026546697   0.02648163            2 
 1794000   0.95984953   -7.4143039    573.94345  0.026660324  0.026474925            5 
 1795000   0.97755617   -7.4158915     573.2344  0.026612553  0.026468317            1 
 1796000   0.97886398   -7.4244991    575.40839  0.026698607  0.026461688            1 
 1797000   0.97950887   -7.4312268    574.07406  0.026621872  0.026455139            2 
 1798000   0.95877895   -7.4140628    576.57552  0.026723003  0.026448512            2 
 1799000   0.96396588   -7.4319639    575.10916  0.026640224  0.026441926            3 
 1800000   0.97167602    -7.458584    574.50827  0.026597605  0.026435367            2 
 1801000   0.95146652   -7.4478563    575.48606   0.02662808  0.026428799            2 
 1802000   0.95906005   -7.4808382    574.54614  0.026569836  0.026422186            1 
 1803000   0.96668511   -7.4680229    574.80519  0.026567073  0.026415583            1 
 1804000   0.94674373   -7.4739337    573.39005  0.026486976  0.026408913            1 
 1805000   0.97875783   -7.4635612    575.46308  0.026568009  0.026402262            3 
 1806000   0.95291832   -7.4315518     576.6026  0.026605879  0.026395704            5 
 1807000   0.96904582   -7.4224635    576.77247  0.026598989  0.026389204            2 
 1808000   0.95952547   -7.4278135    576.88329  0.026589385  0.026382725            2 
 1809000   0.94246433   -7.4170829    578.07405   0.02662954   0.02637633            1 
 1810000   0.96204649   -7.4528966    577.36961  0.026582395   0.02636994            1 
 1811000   0.94074036   -7.4205874     577.8896  0.026591644  0.026363447            2 
 1812000   0.96559023   -7.4628168    576.63538  0.026519287  0.026356949            1 
 1813000   0.93583696   -7.4334594     579.5616  0.026639162  0.026350556            2 
 1814000   0.96341611    -7.427434    577.93893  0.026549932  0.026344094            3 
 1815000   0.96761321   -7.4026288    578.40472  0.026556691  0.026337655            2 
 1816000   0.99789744    -7.474728    578.86966  0.026563402  0.026331156            2 
 1817000   0.96799757   -7.4321848     578.1265  0.026514699  0.026324705            1 
 1818000   0.94855978   -7.4541747    579.30875  0.026554306  0.026318276            3 
 1819000   0.93639263   -7.4380554    579.32504  0.026540454    0.0263118            2 
 1820000   0.96129514   -7.4016439    580.32957  0.026571867  0.026305411            2 
 1821000   0.95998508   -7.4527892    581.37917  0.026605307   0.02629904            1 
 1822000   0.96412941   -7.4368633    580.01938  0.026528512  0.026292618            2 
 1823000    0.9569678   -7.4866629     579.6326  0.026496279  0.026286216            1 
 1824000   0.96392502    -7.467938    578.92895  0.026449605  0.026279727            4 
 1825000    1.0002035   -7.4652051    581.65023  0.026559371  0.026273266            3 
 1826000   0.97611674   -7.4723353    578.88936  0.026418828  0.026266778            3 
 1827000    0.9582397   -7.4675437    579.30455  0.026423305  0.026260204            1 
 1828000    0.9460156   -7.4315848    580.94111  0.026483457  0.026253778            1 
 1829000   0.94358484    -7.425949    582.23204  0.026527795  0.026247377            2 
 1830000   0.95939314   -7.4673451    581.48171  0.026479131   0.02624101            2 
 1831000   0.96320834   -7.4416262    583.23053  0.026544262  0.026234665            1 
 1832000   0.96473168    -7.456323     583.1978  0.026528284  0.026228368            3 
 1833000   0.95038128   -7.4468812    582.28518  0.026472321  0.026222074            2 
 1834000   0.96127982   -7.5163142    582.12403  0.026450565  0.026215687            3 
 1835000   0.96906489   -7.4649196     583.4954  0.026498429  0.026209263            2 
 1836000   0.94625099   -7.4277733    583.85009  0.026500095  0.026202905            2 
 1837000   0.95105022   -7.4634141    582.84981  0.026440292  0.026196543            1 
 1838000   0.95867653   -7.4709905    583.66493  0.026462864  0.026190212            2 
 1839000   0.96486735   -7.4304804    584.21109  0.026473223  0.026183876            1 
 1840000   0.96774188   -7.4728893    582.77831  0.026393945  0.026177622            4 
 1841000   0.95540076   -7.4477114    583.64104   0.02641866   0.02617121            2 
 1842000   0.96582776   -7.4611515    583.28731  0.026388315  0.026164861            1 
 1843000   0.95264531   -7.4310252    583.11134   0.02636604  0.026158599            2 
 1844000   0.96175702   -7.4376645     584.1682  0.026399503  0.026152279            1 
 1845000   0.95216926   -7.4374336    582.17626  0.026295224  0.026145871            3 
 1846000   0.95454591   -7.4680824    583.50855  0.026341123  0.026139367            3 
 1847000   0.95949971   -7.4486386    583.35866  0.026320098  0.026132814            3 
 1848000   0.95858952   -7.4790027     582.8201   0.02628157  0.026126393            3 
 1849000   0.94647647   -7.4646833    585.31902  0.026379981  0.026119882            2 
 1850000    0.9418293   -7.4365901    583.46802  0.026282343  0.026113367            4 
 1851000    0.9887436   -7.4337921    584.40748   0.02631044  0.026106863            2 
 1852000   0.95684601    -7.449675    583.83887  0.026270648    0.0261004            2 
 1853000   0.95465223   -7.4622114    584.09359  0.026267926  0.026093855            1 
 1854000   0.94476356   -7.4551904    587.79146  0.026419969  0.026087396            2 
 1855000   0.92501911   -7.4376146    583.35965  0.026206633  0.026080877            5 
 1856000   0.93558838   -7.4718744    584.90706  0.026261991  0.026074324            2 
 1857000   0.96595056   -7.4758515    584.00607  0.026207416  0.026067772            3 
 1858000   0.95234616   -7.4237584    587.50839  0.026350394  0.026061235            4 
 1859000   0.95751627    -7.470718    586.02166  0.026269574  0.026054793            3 
 1860000   0.96084936   -7.4670538    585.78514  0.026244854  0.026048247            2 
 1861000   0.95136672   -7.4857498    585.22323   0.02620559  0.026041639            1 
 1862000   0.96731612   -7.4734774    585.08163  0.026185179  0.026035038            3 
 1863000   0.96306906   -7.4495108    585.16827  0.026174999  0.026028493            1 
 1864000   0.94237331   -7.4538687    586.20548  0.026207327  0.026021999            4 
 1865000   0.96402845   -7.4606963    587.44894  0.026248835  0.026015575            3 
 1866000   0.93821811   -7.4890567    587.45803  0.026235175  0.026009113            2 
 1867000   0.95477089   -7.4622231    587.05797  0.026203266  0.026002563            2 
 1868000    0.9608601   -7.4910878     586.4101  0.026160336  0.025996081            4 
 1869000   0.95278641   -7.4175937    588.29346  0.026230313  0.025989621            2 
 1870000   0.96206083    -7.456662    587.72228  0.026190832   0.02598319            3 
 1871000   0.95459528   -7.4732611    588.00372   0.02618937  0.025976683            4 
 1872000   0.97084565   -7.4827178    586.30879  0.026099928  0.025970116            3 
 1873000   0.95801244   -7.4791688    585.80769  0.026063699  0.025963509            1 
 1874000   0.96679962   -7.4306828    587.66775  0.026132504  0.025956919            1 
 1875000   0.96246889   -7.4659191    587.26925  0.026100856  0.025950384            1 
 1876000   0.94990174   -7.4520152    588.46928  0.026140249  0.025943739            4 
 1877000   0.96622698   -7.4861666    587.65856  0.026090328  0.025937106            3 
 1878000   0.94875552   -7.4987827    587.89438    0.0260869  0.025930523            2 
 1879000   0.95061381   -7.4617357    588.57884  0.026103372  0.025923919            2 
 1880000    0.9467546   -7.4585206    587.19818  0.026028288  0.025917231            2 
 1881000   0.93608161   -7.4834381    588.17319  0.026057646  0.025910547            2 
 1882000   0.96039653     -7.48161    587.45628  0.026012056  0.025903882            3 
 1883000   0.93206026   -7.4488397    588.57151  0.026047598  0.025897217            3 
 1884000   0.96174616   -7.4717621    588.52402  0.026031671  0.025890577            2 
 1885000   0.96481087   -7.4794743      588.551  0.026019054  0.025883893            2 
 1886000   0.95509163   -7.4450378    590.15624  0.026076186  0.025877212            3 
 1887000   0.95535967     -7.48247    590.20533  0.026064535  0.025870585            2 
 1888000   0.94127362   -7.4503677    590.96708  0.026084352  0.025863972            3 
 1889000   0.93196795   -7.4312867    592.44319  0.026135662  0.025857392            3 
 1890000   0.95385178   -7.4587551    590.94537  0.026055792  0.025850896            3 
 1891000   0.94188556   -7.4812128    590.04256  0.026002228  0.025844378            1 
 1892000   0.92016749   -7.4647675    590.32495  0.026000923  0.025837857            1 
 1893000   0.95853687   -7.4681399    590.77244  0.026006887  0.025831242            1 
 1894000   0.94738652   -7.4505172    590.31278  0.025972931  0.025824618            2 
 1895000   0.93251496   -7.4518341    591.72689  0.026021411  0.025817979            1 
 1896000   0.94917116   -7.4775647     590.9913  0.025975356  0.025811378            1 
 1897000   0.95068978   -7.4664547    589.81372  0.025909933    0.0258047            2 
 1898000    0.9527387     -7.48148    592.86076  0.026030065  0.025798025            4 
 1899000   0.94375886   -7.4443346    591.02165  0.025935652  0.025791447            3 
 1900000   0.97087567   -7.4868849    590.36346  0.025893134   0.02578488            3 
 1901000   0.94446343   -7.4859685    592.71407  0.025982556  0.025778213            1 
 1902000   0.96403499   -7.4460821    592.78676   0.02597208  0.025771631            4 
 1903000   0.96067357    -7.464756    592.23889  0.025934441  0.025765136            2 
 1904000   0.91854404   -7.4419346    592.03504  0.025911898  0.025758621            1 
 1905000   0.95845734   -7.4772325     592.1161  0.025901842  0.025752116            3 
 1906000   0.94418902   -7.4507208    593.19095  0.025935246  0.025745502            3 
 1907000   0.93365171   -7.4783477    593.22955  0.025923333  0.025738876            2 
 1908000   0.93764332   -7.5069081    592.91133  0.025895848  0.025732253            1 
 1909000   0.94105109   -7.4673255    593.62422  0.025913403  0.025725735            3 
 1910000   0.94656591   -7.4777335    594.13907  0.025922298  0.025719215            2 
 1911000    0.9397261   -7.4482565    592.71928   0.02584682  0.025712631            2 
 1912000   0.94984178   -7.5236657    593.19703  0.025854124  0.025706037            3 
 1913000   0.94898977   -7.4616723    595.66856  0.025948273  0.025699354            2 
 1914000   0.97242581   -7.4741543     595.4766  0.025926359  0.025692733            4 
 1915000   0.94313563    -7.472109    594.03699  0.025850174  0.025686063            1 
 1916000    0.9437634   -7.5184691    593.28184  0.025803838   0.02567933            2 
 1917000   0.95275584   -7.4883353    594.56052  0.025845962  0.025672688            1 
 1918000   0.95940825   -7.4615008    595.99115  0.025894645  0.025666165            1 
 1919000   0.93655709   -7.4637276    595.04804  0.025840196  0.025659715            3 
 1920000   0.94064591   -7.4631424     596.1627  0.025875117  0.025653212            6 
 1921000   0.93656625   -7.4792208    594.36205  0.025783535  0.025646687            6 
 1922000   0.92893946   -7.4908663    593.89156  0.025749721  0.025640136            4 
 1923000    0.9172231   -7.5318001    594.14388  0.025747265  0.025633451            7 
 1924000    0.9540144   -7.4592877    597.44164  0.025876717  0.025626799            4 
 1925000   0.92750351   -7.4869849    596.76422  0.025833949  0.025620225            2 
 1926000   0.94672058   -7.5198596    595.98394  0.025786775   0.02561355            1 
 1927000   0.94839335   -7.4611775    596.52969  0.025796994  0.025606993            1 
 1928000   0.94150319    -7.450967    597.47586   0.02582451  0.025600462            5 
 1929000   0.92007769   -7.4682347    596.85837  0.025784446  0.025593947            2 
 1930000   0.94414505   -7.4508393    598.90335  0.025859385   0.02558749            1 
 1931000   0.93713438   -7.5081567    598.65062  0.025835086  0.025581049            3 
 1932000   0.94384632   -7.5201586    596.03649  0.025708958  0.025574527            2 
 1933000   0.94556906   -7.4788026    597.97973  0.025779433   0.02556803            3 
 1934000   0.95140851   -7.4529331    601.01479   0.02589688  0.025561635            2 
 1935000   0.92910881   -7.4887655     597.2697  0.025722209  0.025555192            3 
 1936000   0.93387808   -7.4617054    598.73721  0.025772091  0.025548666            2 
 1937000    0.9380911   -7.5055305    598.54397  0.025750472  0.025542183            1 
 1938000   0.93148247   -7.4829846     597.4782  0.025691357  0.025535702            3 
 1939000   0.94303553   -7.5197451    598.62528  0.025727406  0.025529203            2 
 1940000   0.95592173   -7.4770294    598.26871  0.025698828  0.025522742            1 
 1941000   0.96021314   -7.4759797    600.40889  0.025777472  0.025516359            1 
 1942000   0.94207315   -7.4662772    600.58165  0.025771612  0.025509917            2 
 1943000   0.91371109   -7.4752027    601.22801   0.02578607  0.025503554            2 
 1944000   0.93960695   -7.4936069    599.83523  0.025713101  0.025497101            3 
 1945000   0.94453529   -7.4887021    597.58683  0.025603549  0.025490627            2 
 1946000   0.93721947   -7.5029003    600.12094   0.02569891  0.025484123            1 
 1947000   0.94085382   -7.4976701    600.97276  0.025722169  0.025477629            3 
 1948000   0.95148221   -7.5143774    599.13773  0.025630464  0.025471071            3 
 1949000   0.93831132   -7.4750971    599.97788  0.025653236    0.0254646            2 
 1950000   0.94714179   -7.5186828    600.64626  0.025668644  0.025458095            1 
 1951000   0.95603925   -7.4598298    600.25364  0.025638717  0.025451603            1 
 1952000   0.95906558   -7.4999022    600.40486  0.025632038  0.025445099            8 
 1953000   0.93096124   -7.4581738    601.39066  0.025660977  0.025438572            1 
 1954000   0.95000402   -7.5146675    600.93414  0.025628375  0.025432141            2 
 1955000   0.92897062   -7.4892731    601.57599  0.025642625  0.025425705            3 
 1956000   0.94465117   -7.5145911    600.88678  0.025600153  0.025419272            3 
 1957000   0.93066928   -7.4609991    602.18689  0.025642433  0.025412784            1 
 1958000   0.93266221   -7.4980683    600.25376  0.025547061   0.02540632            2 
 1959000   0.94641667   -7.4745032    604.19005  0.025701465  0.025399899            2 
 1960000   0.92287337   -7.4830346    602.89735  0.025633391  0.025393499            2 
 1961000   0.93404281   -7.4620995     604.0148  0.025667805  0.025387188            2 
 1962000   0.94163094   -7.4567401    604.31381  0.025667423  0.025380855            1 
 1963000   0.94604453   -7.5062193    603.90817  0.025637127  0.025374482            1 
 1964000   0.93873721   -7.5040672    602.76601  0.025575612    0.0253681            1 
 1965000   0.96442093   -7.4992607     605.1676  0.025664444  0.025361704            3 
 1966000   0.94962494   -7.5308068    602.31676  0.025530551  0.025355338            4 
 1967000   0.94886711   -7.5242253    603.99316  0.025588593  0.025348875            3 
 1968000   0.93041824   -7.5123472    603.29866  0.025546183  0.025342404            2 
 1969000   0.93247422   -7.4943876    604.43551  0.025581323  0.025335987            4 
 1970000   0.94181892    -7.483659    605.25853  0.025603153  0.025329538            4 
 1971000   0.94555958   -7.4919201    604.42786  0.025555042  0.025323136            2 
 1972000   0.93364903   -7.5132451     605.3281  0.025580126  0.025316701            3 
 1973000   0.93829509   -7.5312513    602.81753  0.025461122  0.025310329            2 
 1974000   0.92790093   -7.5107002    605.36859  0.025555918  0.025303949            2 
 1975000   0.92496462   -7.5076001     606.3079  0.025582612   0.02529764            2 
 1976000   0.95136525   -7.5001519    605.29588  0.025526986  0.025291315            4 
 1977000    0.9077676    -7.532815    605.41996  0.025519303  0.025284964            3 
 1978000    0.9256949   -7.5277463    606.92128  0.025569653  0.025278626            2 
 1979000   0.94177854   -7.4846768    605.94064  0.025515439  0.025272287            2 
 1980000   0.94424333   -7.5055534    605.79585  0.025496458  0.025265948            3 
 1981000   0.93555931   -7.5134555     607.0523  0.025536442  0.025259579            2 
 1982000   0.95135759    -7.502651     607.3652  0.025536714   0.02525323            1 
 1983000   0.91832114   -7.4816407    607.03007  0.025509752  0.025246987            3 
 1984000   0.92295424   -7.5281747    607.42609  0.025513529  0.025240715            3 
 1985000   0.94130023   -7.5210207    606.47501  0.025460748    0.0252344            2 
 1986000   0.94299235   -7.5003264    607.08678  0.025473598  0.025228049            2 
 1987000   0.90899908   -7.5119905     606.5408  0.025437879  0.025221778            2 
 1988000   0.95463679   -7.5085359    607.59939  0.025469458   0.02521544            5 
 1989000   0.94947473   -7.5092578    606.96582  0.025430108  0.025209152            2 
 1990000   0.94864311    -7.519494    605.85481  0.025370804  0.025202837            1 
 1991000   0.92988003   -7.5353578    608.58716  0.025472424  0.025196525            5 
 1992000   0.94370224   -7.4980565    609.36227  0.025492063  0.025190302            2 
 1993000   0.94994599   -7.4903545    607.89757  0.025418029  0.025184045            3 
 1994000   0.91832846   -7.5050912     609.4107  0.025468518  0.025177784            2 
 1995000   0.93083991   -7.5310087    607.81191  0.025388969  0.025171544            5 
 1996000   0.93617931   -7.4939849    609.44737  0.025444529  0.025165264            2 
 1997000   0.93683761    -7.510222    608.53141  0.025393566  0.025159043            3 
 1998000   0.94328242   -7.5249744    610.23708  0.025451997  0.025152793            2 
 1999000   0.91741184   -7.4855362    612.06116  0.025515306  0.025146542            4 
 2000000   0.94372403   -7.4835356    611.18768  0.025466153  0.025140405            2 
 2001000   0.95445205   -7.4710417    611.32222   0.02545903  0.025134324            3 
 2002000   0.91572675   -7.4556802    611.63605  0.025459376  0.025128233            2 
 2003000   0.92554417   -7.5050599    612.05074  0.025463918  0.025122145            2 
 2004000   0.92825416   -7.4940961    611.29874  0.025419941  0.025116006            2 
 2005000    0.9246028   -7.5124928     611.9053  0.025432473  0.025109981            2 
 2006000   0.91727408   -7.5318773    611.46522  0.025401513  0.025103916            3 
 2007000   0.95314959   -7.5147942    612.57645  0.025434996  0.025097843            2 
 2008000   0.93146367   -7.4897192    612.94515  0.025437631  0.025091811            2 
 2009000   0.92758686   -7.5270435    613.57481  0.025451087  0.025085747            4 
 2010000   0.91718739   -7.5362854    612.11067  0.025377723  0.025079665            3 
 2011000   0.92020611   -7.5098461    614.43531  0.025461433  0.025073571            2 
 2012000   0.94234769   -7.4981399    612.75445   0.02537916  0.025067486            1 
 2013000   0.91872571   -7.5207663    613.28787  0.025388635  0.025061395            3 
 2014000    0.9265364   -7.5127528    613.40682  0.025380951   0.02505528            1 
 2015000   0.92914451   -7.4827515    613.28141  0.025363168   0.02504917            2 
 2016000   0.92519982   -7.5104455    613.56796  0.025362432  0.025043097            2 
 2017000   0.92502402   -7.5376689    614.52622  0.025389449  0.025036998            3 
 2018000    0.9481205   -7.5428788    612.65742  0.025299695  0.025030919            2 
 2019000   0.92481468   -7.5128196    614.54715  0.025365162  0.025024895            2 
 2020000   0.93645462   -7.4997389    616.38293  0.025428339  0.025018817            3 
 2021000   0.93616071   -7.4880965    616.20466  0.025408406  0.025012752            2 
 2022000   0.91871454   -7.4961184    616.47465  0.025406967  0.025006672            4 
 2023000   0.92709945   -7.5322509    614.18855  0.025300237  0.025000594            1 
 2024000   0.92375775   -7.5151014    615.09192  0.025324931  0.024994426            2 
 2025000   0.93118461   -7.5167656    615.07284  0.025311639    0.0249883            1 
 2026000   0.93063873   -7.5248337    614.94555   0.02529391  0.024982135            1 
 2027000   0.94962421   -7.5091352    614.93876  0.025281153  0.024976012            2 
 2028000   0.92079115   -7.5323153    616.13239  0.025317735  0.024969934            3 
 2029000   0.91732111   -7.4823406      615.879   0.02529485  0.024963852            2 
 2030000   0.93319288   -7.5032639    616.79979  0.025320189  0.024957749            2 
 2031000   0.93274067   -7.5235525    615.59315  0.025258212  0.024951588            1 
 2032000   0.92520255   -7.5157578    616.10166  0.025266636   0.02494552            2 
 2033000   0.94399842   -7.4815177    615.84428  0.025243658  0.024939424            3 
 2034000   0.91436745   -7.5095918    616.14819  0.025243698  0.024933326            1 
 2035000   0.94450236   -7.5589141    616.35134  0.025239612  0.024927105            2 
 2036000   0.94808602   -7.5205879    616.10615   0.02521718  0.024920949            1 
 2037000   0.89625796   -7.5163532    617.22318  0.025250498  0.024914831            4 
 2038000    0.9390351   -7.5191035    617.26836  0.025239956  0.024908671            3 
 2039000   0.90991201   -7.5357251     616.6817  0.025203601  0.024902446            5 
 2040000   0.93122717   -7.5337337    615.57686  0.025146113  0.024896236            2 
 2041000   0.92378849   -7.5816754    617.09252  0.025195677  0.024890011            4 
 2042000   0.92567176   -7.5349749    616.05335   0.02514093  0.024883829            2 
 2043000   0.93523788   -7.5300679    616.82167  0.025159964   0.02487768            2 
 2044000   0.93611933   -7.5274833    617.51007   0.02517572  0.024871516            5 
 2045000    0.9299893   -7.5238978    618.41098  0.025200121  0.024865376            5 
 2046000   0.92011533   -7.5247176    617.24613  0.025140361  0.024859191            3 
 2047000   0.90470594   -7.5264198    618.69205  0.025186942  0.024853079            1 
 2048000   0.91385316   -7.5033818    619.38089  0.025202673  0.024846979            2 
 2049000   0.92136525   -7.5353258      619.493  0.025194932  0.024840904            2 
 2050000    0.9484153   -7.5387939    618.74908  0.025152402  0.024834814            1 
 2051000   0.91465581   -7.4945469    618.83517  0.025143636  0.024828655            3 
 2052000   0.90798102   -7.5546639    619.93476  0.025176038  0.024822614            4 
 2053000   0.92920777   -7.4818407    619.20245   0.02513405  0.024816537            5 
 2054000    0.9404024   -7.5465386    617.67721  0.025059932   0.02481038            1 
 2055000    0.9165365   -7.5373553    620.98438  0.025181848  0.024804158            2 
 2056000   0.94219849   -7.5270805    619.26706  0.025099994  0.024798022            2 
 2057000   0.93230625   -7.5330506    618.66276  0.025063311  0.024791891            3 
 2058000   0.90138911   -7.5771151    618.22702  0.025033488   0.02478568            4 
 2059000    0.9234744   -7.5319015    620.79519  0.025125271   0.02477952            3 
 2060000   0.93099865    -7.505193    621.08164  0.025124662  0.024773451            2 
 2061000   0.92565457   -7.5080039    622.41725  0.025166475  0.024767386            2 
 2062000   0.93320913    -7.542777    620.13493  0.025062032  0.024761446            1 
 2063000   0.91714488   -7.5476152     621.2805  0.025096159  0.024755353            4 
 2064000   0.93387304   -7.5337168    623.05358  0.025155587  0.024749306            3 
 2065000   0.92553379   -7.5134409    621.11171  0.025065041  0.024743261            1 
 2066000   0.93998791   -7.5942196    620.65507   0.02503449   0.02473719            3 
 2067000   0.92801437   -7.5484058    623.19558  0.025124802   0.02473114            3 
 2068000   0.92672836   -7.5507869    623.18222  0.025112114  0.024725147            3 
 2069000   0.92664547   -7.5222261    622.55885  0.025074869  0.024719138            2 
 2070000   0.92544515    -7.516201    622.38446  0.025055735  0.024713093            1 
 2071000   0.94024043   -7.5317991    621.84651  0.025021991  0.024707066            1 
 2072000   0.92158695   -7.5326685    623.72237  0.025085359  0.024701086            2 
 2073000     0.929765    -7.521707    624.10526   0.02508865  0.024695083            1 
 2074000   0.92132658    -7.553945    621.96976  0.024990749  0.024689057            2 
 2075000   0.90068422    -7.548098    624.57182  0.025083206  0.024683006            3 
 2076000   0.93402905   -7.5312381    622.69389  0.024995741  0.024676972            2 
 2077000   0.92695241   -7.4988036     621.9246  0.024952841  0.024670997            3 
 2078000   0.91767454   -7.5255861    623.70831  0.025012364  0.024665006            3 
 2079000   0.91087443   -7.5595185    625.18187  0.025059398  0.024659023            2 
 2080000   0.92222142    -7.537641     624.5044  0.025020208  0.024653012            2 
 2081000   0.90351477   -7.5698786    625.73028  0.025057275  0.024647043            2 
 2082000    0.9149078   -7.5107396     624.9064  0.025012264  0.024641072            3 
 2083000    0.9113911   -7.5442895    623.67222  0.024950881  0.024635031            2 
 2084000   0.93692586   -7.6034378    622.20904    0.0248804  0.024628962            1 
 2085000     0.904603   -7.5422217    624.99855  0.024979958  0.024622853            3 
 2086000   0.90859674   -7.5393046    623.67024  0.024914919  0.024616749            1 
 2087000    0.9073287   -7.5405209    625.42908   0.02497321  0.024610654            1 
 2088000   0.91331574    -7.553722    624.74983  0.024934141  0.024604535            2 
 2089000   0.92140893   -7.5297059     625.9191  0.024968849  0.024598475            3 
 2090000   0.92674404   -7.5319124    624.70317   0.02490842  0.024592472            3 
 2091000   0.92921583   -7.5467705    626.35211  0.024962223  0.024586465            5 
 2092000    0.9175902   -7.5588779    624.38544   0.02487195  0.024580523            6 
 2093000   0.93043679   -7.5348079     627.2143  0.024972699  0.024574499            2 
 2094000   0.91789722   -7.5613516    625.79625   0.02490434  0.024568481            2 
 2095000   0.91483183   -7.5357761    626.61526   0.02492503  0.024562499            1 
 2096000   0.92025122   -7.5328053    627.71261  0.024956767  0.024556551            4 
 2097000   0.93186117    -7.506458    628.63634  0.024981574  0.024550689            2 
 2098000   0.92301014   -7.5615728    626.76363  0.024895282  0.024544807            1 
 2099000   0.88984343   -7.5492947    626.91614  0.024889477  0.024538866            5 
 2100000   0.92301339   -7.5930243    624.09363   0.02476562  0.024532878            2 
 2101000   0.90694997   -7.5029459     626.2993  0.024841318  0.024526822            3 
 2102000   0.90263459   -7.5295902    626.08018  0.024820813  0.024520771            4 
 2103000      0.92491   -7.5501306     627.7898  0.024876756  0.024514645            1 
 2104000   0.92627226   -7.5426093    626.49568  0.024813675  0.024508624            3 
 2105000   0.92918091   -7.5535296    626.52731   0.02480314  0.024502571            3 
 2106000   0.90469402   -7.5479732    626.00589   0.02477073  0.024496447            5 
 2107000   0.89678547   -7.5390783    628.00749  0.024838138  0.024490367            5 
 2108000     0.903032   -7.6029103     626.3906  0.024762437  0.024484275            2 
 2109000   0.90520794    -7.547636    627.71853  0.024803166   0.02447823            5 
 2110000   0.95221392   -7.5715305    628.98344  0.024841368  0.024472095            2 
 2111000   0.91845098   -7.5738547    625.97423   0.02471081   0.02446598            2 
 2112000   0.90679027   -7.5774938    626.63719  0.024725268  0.024459898            3 
 2113000   0.91846192   -7.5689035    628.74667  0.024796761  0.024453811            2 
 2114000   0.91124834   -7.5522548     627.9812  0.024754856  0.024447699            4 
 2115000   0.94548643   -7.5433688    628.26815  0.024754458  0.024441611            1 
 2116000   0.92538787   -7.5506108    627.13591  0.024698169  0.024435523            3 
 2117000   0.92032657   -7.5629824    628.98668  0.024759356  0.024429411            2 
 2118000   0.91129576   -7.5418255    626.93191  0.024666821  0.024423318            2 
 2119000   0.91173121   -7.5641068    628.32245  0.024709865  0.024417151            1 
 2120000   0.91722071   -7.5608152    627.77989  0.024676883  0.024411016            2 
 2121000   0.92418074   -7.5988326    628.85213  0.024707376  0.024404842            2 
 2122000   0.92097096   -7.5914629    627.64944  0.024648502  0.024398681            3 
 2123000   0.91886868   -7.5004819    630.32031   0.02474173  0.024392587            3 
 2124000   0.91973359   -7.5334719    630.21317  0.024725878  0.024386487            2 
 2125000   0.89683068   -7.6016277    627.96501  0.024626079  0.024380317            3 
 2126000    0.9319018   -7.5596141    629.83114  0.024687643  0.024374172            2 
 2127000   0.91142161   -7.5505784    631.49187  0.024741101  0.024368086            2 
 2128000   0.92512121    -7.582246    629.92693  0.024668191  0.024362047            2 
 2129000   0.90721476   -7.5829216    628.95221  0.024618452  0.024355951            2 
 2130000   0.89068724   -7.5569372    630.91889  0.024683838   0.02434982            2 
 2131000   0.91936276    -7.565007    630.53755  0.024657342  0.024343659            1 
 2132000   0.90648051   -7.5490054    631.97759  0.024702063  0.024337595            1 
 2133000   0.90501109   -7.5730697    630.88229  0.024647691  0.024331502            4 
 2134000   0.90834148   -7.5526756    630.60192  0.024625192  0.024325435            6 
 2135000   0.90357061   -7.5599003    631.17509   0.02463603  0.024319373            2 
 2136000   0.90827965   -7.5466639    631.39017  0.024632887  0.024313364            3 
 2137000   0.90244479   -7.5626752    631.83587  0.024638741  0.024307323            1 
 2138000    0.9030379   -7.5482803    632.25601  0.024643593  0.024301309            2 
 2139000   0.91308973   -7.5805249     632.0333  0.024623395  0.024295238            3 
 2140000   0.91623369   -7.5807291    633.15208  0.024655455  0.024289184            1 
 2141000   0.90709454   -7.5587448     633.5859  0.024660824  0.024283165            3 
 2142000   0.90229393   -7.5548642    631.36762   0.02456301  0.024277151            3 
 2143000   0.91934999   -7.5610387    635.05547  0.024694955  0.024271139            1 
 2144000   0.89491946   -7.5919224     633.0089  0.024603891  0.024265143            2 
 2145000    0.9109712   -7.5859213    630.95352  0.024512569   0.02425909            3 
 2146000    0.9079548   -7.5735838    634.34341  0.024632782  0.024252981            4 
 2147000   0.92426871   -7.5951305    632.00612   0.02453059  0.024246932            2 
 2148000   0.89395953   -7.5763813    634.06567  0.024599072  0.024240867            1 
 2149000   0.91281606   -7.5848841    634.28311  0.024596057  0.024234891            2 
 2150000   0.91391487   -7.5882589     633.1137  0.024539291  0.024228833            3 
 2151000    0.9196896   -7.5588282    635.20713  0.024608985  0.024222819            2 
 2152000   0.90022424   -7.5709741      636.615  0.024652068  0.024216884            3 
 2153000      0.89839   -7.5550829     634.5432  0.024560427  0.024210837            2 
 2154000    0.8959508   -7.5925791    634.81871  0.024559684  0.024204827            2 
 2155000   0.91411732   -7.5619918    633.71662   0.02450567  0.024198811            3 
 2156000   0.90443564   -7.5280482    635.34141  0.024557105   0.02419287            6 
 2157000    0.9216665   -7.5704076    635.83336  0.024564726  0.024186914            2 
 2158000   0.91152671   -7.5358209    637.32356  0.024610888  0.024180985            2 
 2159000    0.8911029   -7.5758883    634.39142  0.024486314  0.024175075            3 
 2160000   0.90689926   -7.5792848    635.29324   0.02450977  0.024169102            4 
 2161000   0.87983672   -7.5877705    634.23053  0.024457448   0.02416315            2 
 2162000   0.90019682   -7.5494821    636.99829  0.024552817  0.024157239            1 
 2163000   0.90920905   -7.5775001    637.34361   0.02455477  0.024151328            3 
 2164000   0.91206023   -7.5987498     634.6712  0.024440511  0.024145351            2 
 2165000   0.91129589   -7.6218365    635.00005   0.02444188  0.024139334            1 
 2166000   0.90290587   -7.5741839    636.46038   0.02448678  0.024133376            2 
 2167000   0.93103788   -7.6051883    636.19508  0.024465278  0.024127426            1 
 2168000   0.92086964   -7.5368351    637.52784  0.024505221  0.024121497            2 
 2169000   0.89145753    -7.579902    637.58984  0.024496306  0.024115612            2 
 2170000   0.91126647   -7.5750876     637.0783  0.024465372  0.024109768            2 
 2171000   0.88925406   -7.5677925    637.93811  0.024487107  0.024103881            2 
 2172000   0.90411317   -7.5780552    638.27708  0.024488838  0.024097997            2 
 2173000   0.86884606    -7.539824     639.7422  0.024533755  0.024092268            5 
 2174000   0.90595876   -7.5731169    639.62231  0.024517874  0.024086434            2 
 2175000   0.89053958   -7.5535422    638.73547  0.024472623  0.024080612            1 
 2176000   0.90625907   -7.5570251    639.52662  0.024491675   0.02407476            2 
 2177000   0.90234197   -7.5942753    637.19156  0.024391041  0.024068911            3 
 2178000   0.91466376   -7.5869598    638.38519  0.024425512  0.024063028            3 
 2179000   0.90466894   -7.6011345    638.73664  0.024427744  0.024057109            2 
 2180000   0.89970686   -7.5736277    638.53104  0.024408679   0.02405119            1 
 2181000   0.90914324   -7.5748819     640.1127  0.024457921  0.024045324            1 
 2182000   0.90143494   -7.5635167    639.39922  0.024419463  0.024039449            3 
 2183000   0.90980727   -7.5689199    640.43968  0.024447995   0.02403362            4 
 2184000   0.92278206   -7.5882915    638.64803  0.024368438  0.024027713            2 
 2185000   0.91381392    -7.600354    639.10076  0.024374552   0.02402178            2 
 2186000   0.90525942   -7.5629544     638.5864  0.024343794  0.024015829            2 
 2187000   0.91249396   -7.5607817    639.60528  0.024371486  0.024009856            3 
 2188000    0.8726847   -7.5766286    638.63712  0.024323473  0.024003933            2 
 2189000    0.9111587   -7.5634777    641.17602  0.024409016  0.023998019            2 
 2190000   0.92664921    -7.587147    638.88974  0.024310873  0.023992111            3 
 2191000   0.87319057   -7.5561359    640.07531   0.02434487  0.023986221            2 
 2192000   0.88165263   -7.5919453    640.41227  0.024346574  0.023980341            2 
 2193000   0.90999545   -7.6132293    641.01528  0.024358386  0.023974402            2 
 2194000   0.90783986   -7.5909202    640.27438  0.024319142  0.023968455            5 
 2195000   0.90576881   -7.5935097    638.96383  0.024258308  0.023962544            2 
 2196000   0.90964898    -7.542618    641.32347  0.024336805  0.023956643            1 
 2197000   0.89714165   -7.5574829    642.49095   0.02437001  0.023950797            3 
 2198000   0.90842115   -7.6062657    642.28268  0.024351027  0.023944959            4 
 2199000   0.88795618   -7.5909375    640.65892  0.024278419   0.02393909            1 
 2200000   0.89703345   -7.5931492    642.05931  0.024320429  0.023933214            4 
 2201000   0.90298845   -7.5869529    641.21606  0.024277452  0.023927354            2 
 2202000   0.91225153   -7.5906428    643.04264  0.024335553  0.023921446            1 
 2203000   0.91810106   -7.5817743    642.00567   0.02428528  0.023915574            3 
 2204000   0.90014321   -7.5876781    642.03788   0.02427548  0.023909643            2 
 2205000   0.89466329   -7.5962203    642.01027  0.024263427  0.023903728            1 
 2206000   0.91193465   -7.6014427    641.13298  0.024219287  0.023897759            1 
 2207000   0.89221593   -7.5955831    642.94515  0.024276739  0.023891843            3 
 2208000   0.89562934   -7.5465346    643.68315  0.024293597   0.02388598            3 
 2209000    0.9128738   -7.5898636    642.60567  0.024241952   0.02388006            2 
 2210000   0.90595579   -7.5751287    641.84951   0.02420247  0.023874067            1 
 2211000   0.87017466   -7.5646433    643.29103  0.024245855  0.023868086            2 
 2212000   0.90619932   -7.6002568    643.00272  0.024224033  0.023862117            5 
 2213000    0.9041145   -7.6032303    643.45931   0.02423028   0.02385611            2 
 2214000   0.92078717   -7.5940343    642.39587  0.024179309  0.023850146            2 
 2215000   0.90349249   -7.5937738    642.84669  0.024185353    0.0238441            2 
 2216000   0.92473583   -7.5940103    640.76966  0.024096332  0.023838055            5 
 2217000   0.88631902   -7.6198999    643.00825  0.024169608  0.023832061            1 
 2218000   0.90369325   -7.5635652    644.22181  0.024204306  0.023826023            3 
 2219000   0.90012622   -7.6322814    642.94447  0.024145428  0.023819986            4 
 2220000   0.89774952   -7.6101864    643.03907  0.024138103   0.02381394            2 
 2221000   0.90200531   -7.6208322    642.60749  0.024111042  0.023807877            4 
 2222000    0.9134109    -7.599777    642.87325  0.024110158   0.02380187            3 
 2223000   0.90711024   -7.6108445    641.84741  0.024060857  0.023795874            2 
 2224000   0.87924019   -7.5901639    645.93963  0.024203373  0.023789924            3 
 2225000    0.8885045   -7.6033916     643.4699  0.024099996  0.023783969            4 
 2226000   0.90431545   -7.5897554    643.68982  0.024097403  0.023777946            3 
 2227000   0.89888018   -7.6461859    642.21576  0.024031424  0.023771921            2 
 2228000   0.91126572   -7.5880562    644.22021  0.024095609   0.02376582            3 
 2229000   0.88855398   -7.5927194    644.01041  0.024076956  0.023759755            4 
 2230000    0.8746231   -7.5974349    645.12644  0.024107864  0.023753727            2 
 2231000   0.90077005   -7.5884884    644.53785  0.024075073  0.023747728            2 
 2232000   0.92371267   -7.5645313    645.19243  0.024088726  0.023741748            3 
 2233000   0.88926268   -7.5966679    644.09601  0.024037021  0.023735719            3 
 2234000    0.8991535   -7.6118998     644.2954  0.024033699  0.023729714            2 
 2235000   0.91938352   -7.6090217    645.53949  0.024069332  0.023723778            4 
 2236000     0.916882   -7.5677387    645.96079  0.024074269  0.023717834            2 
 2237000   0.87444868   -7.5690723    647.69348  0.024128054  0.023711921            5 
 2238000    0.8774545   -7.5589226    646.03243  0.024055422  0.023706005            3 
 2239000   0.87462387   -7.5839113    645.12046  0.024010736  0.023700057            4 
 2240000   0.91662876   -7.5767485    645.87867  0.024028224  0.023694072            2 
 2241000   0.89690987   -7.5802623    646.71888  0.024048746  0.023688088            3 
 2242000   0.88759911   -7.5893051    644.91449  0.023970952  0.023682089            4 
 2243000   0.88167075   -7.6054174    645.60458  0.023985904  0.023676032            4 
 2244000   0.89902794   -7.6287525    644.87713    0.0239482  0.023670006            1 
 2245000   0.86835701   -7.6380386    647.15361  0.024022035  0.023663891            2 
 2246000   0.88075003    -7.613307    644.24523   0.02390343  0.023657772            2 
 2247000   0.87197188   -7.6065185    648.20797  0.024039756  0.023651673            2 
 2248000   0.88365524   -7.5818788    646.42662  0.023963027  0.023645632            3 
 2249000   0.90393741   -7.5972877     646.7798  0.023965459  0.023639602            1 
 2250000   0.87709453   -7.6141109    647.02732  0.023963975  0.023633613            3 
 2251000   0.89694593    -7.588732    645.60274   0.02390059  0.023627541            3 
 2252000   0.89056063   -7.6083883    647.21364  0.023949587  0.023621498            2 
 2253000   0.89855045   -7.6448183    645.11139    0.0238612  0.023615412            1 
 2254000   0.89081299    -7.646817    646.43032  0.023899376  0.023609313            1 
 2255000   0.88271143   -7.6083958    646.16711  0.023879051  0.023603198            2 
 2256000   0.88880506   -7.6209262    647.24617  0.023908325  0.023597135            2 
 2257000   0.89062563   -7.5950394     648.6946  0.023951211  0.023591116            2 
 2258000   0.88706521   -7.6665761    649.28496  0.023962391  0.023585064            2 
 2259000   0.87406259   -7.5727455    647.85261  0.023898945  0.023579001            2 
 2260000   0.88511988   -7.6082909    648.39986  0.023908549  0.023572969            2 
 2261000    0.8928197   -7.6482346    646.92102   0.02384347  0.023566908            3 
 2262000   0.88184061   -7.6109617    646.89964  0.023832141  0.023560856            2 
 2263000   0.88365183   -7.6218554    648.60632  0.023884457  0.023554829            2 
 2264000   0.89034679   -7.6445022    647.97989   0.02385085  0.023548737            1 
 2265000   0.88350894   -7.6316645    647.43474  0.023820263  0.023542622            3 
 2266000    0.8836503   -7.5846031     647.2805  0.023804079  0.023536587            2 
 2267000   0.90016354   -7.6462358    648.63096   0.02384322  0.023530579            2 
 2268000   0.90514007   -7.6152304    648.92114  0.023843369  0.023524575            3 
 2269000   0.88663861   -7.5920392     649.8133  0.023865627  0.023518643            2 
 2270000   0.87831188   -7.6090722    649.42677  0.023840924  0.023512711            2 
 2271000   0.89015804   -7.6261835    650.73254  0.023878341  0.023506815            2 
 2272000   0.90032893   -7.6335181    649.07201  0.023806925  0.023500911            1 
 2273000   0.87985966   -7.6233997    649.57858  0.023815024  0.023494934            1 
 2274000   0.88912701   -7.6099668    650.99145  0.023856327  0.023488909            2 
 2275000   0.87424125   -7.6068363    650.66842  0.023834008  0.023482847            1 
 2276000   0.89533697   -7.6241295    649.07435  0.023765171  0.023476797            3 
 2277000   0.90502513    -7.647469    650.27597  0.023798711  0.023470723            2 
 2278000   0.88720419   -7.6220233    650.12467  0.023782729  0.023464672            2 
 2279000    0.8745723   -7.6394838    649.03077  0.023732294  0.023458629            1 
 2280000   0.90547586   -7.6490411     650.1356  0.023762266  0.023452565            3 
 2281000   0.89082182   -7.6440874    648.72738  0.023700401  0.023446494            3 
 2282000   0.88155187   -7.5929346    650.36872  0.023749953  0.023440467            2 
 2283000   0.89553772   -7.6353163    649.80875   0.02371911  0.023434513            3 
 2284000   0.89980702   -7.6604474    649.49413  0.023697246  0.023428496            1 
 2285000   0.90069737   -7.6161731    650.85219  0.023736404  0.023422492            1 
 2286000   0.90104692   -7.6208617    651.94807  0.023765969  0.023416502            1 
 2287000   0.89843157   -7.6412494    650.71851  0.023710775  0.023410586            3 
 2288000   0.86783277   -7.6320933    653.18952  0.023790411    0.0234046            2 
 2289000   0.86535629   -7.6328309    652.45855  0.023753406   0.02339861            2 
 2290000    0.8659236   -7.6286021    651.94918  0.023724497  0.023392647            2 
 2291000   0.88973689   -7.6042197    650.98055  0.023678908  0.023386653            3 
 2292000    0.8920136   -7.5826219    652.70227  0.023731176  0.023380684            4 
 2293000   0.86744458   -7.6498313    651.38322  0.023672889  0.023374643            3 
 2294000   0.88645305   -7.6316933     652.0134  0.023685462  0.023368558            2 
 2295000   0.87634456   -7.6264373    651.72302  0.023664598  0.023362498            2 
 2296000   0.87705769   -7.5848054    653.96568  0.023735688  0.023356503            2 
 2297000   0.90654696   -7.5821075    651.91291  0.023650882  0.023350513            5 
 2298000   0.87469376   -7.5978573     652.5383  0.023663269  0.023344513            3 
 2299000   0.88890668   -7.6072099    652.11904  0.023637779  0.023338393            1 
 2300000   0.88229734   -7.6277762    652.31534  0.023634614  0.023332284            2 
 2301000    0.8778894   -7.6199797    652.51531  0.023631584   0.02332619            2 
 2302000   0.88611892   -7.6128993    652.22057  0.023610649  0.023320138            2 
 2303000   0.86771534   -7.6382805    652.98714  0.023628135  0.023314114            3 
 2304000   0.89619153   -7.5897243    653.18353  0.023624983  0.023308021            1 
 2305000   0.88593195   -7.6255834    651.58748  0.023557031  0.023301907            1 
 2306000   0.88794212   -7.6366328    653.16732  0.023603907  0.023295751            1 
 2307000   0.91238101   -7.6508943    651.22953  0.023523679  0.023289592            5 
 2308000   0.85608499   -7.6140627    653.09238  0.023580747  0.023283436            4 
 2309000   0.89409744   -7.6653757    651.58254  0.023516044  0.023277275            1 
 2310000   0.87923016   -7.6326367    651.28463  0.023495116  0.023271039            2 
 2311000    0.9140649   -7.6448294    652.39348  0.023524934  0.023264833            7 
 2312000   0.90021101   -7.6275153     651.9731  0.023499607  0.023258607            2 
 2313000   0.88779358   -7.6301562    653.34047  0.023538711  0.023252432            1 
 2314000   0.89849594   -7.6356053    652.13301  0.023485055  0.023246279            4 
 2315000   0.87997113   -7.6164196    652.09719  0.023473621  0.023240118            2 
 2316000   0.88647237   -7.6222957    653.11984  0.023500282  0.023233921            2 
 2317000   0.89249347   -7.6163655    653.51288  0.023504276  0.023227757            1 
 2318000   0.86744707   -7.6173817    653.28856  0.023486071  0.023221608            4 
 2319000   0.89512253   -7.6141706    652.85286  0.023460287  0.023215427            2 
 2320000   0.87366367   -7.6111812    653.64943  0.023478787  0.023209169            2 
 2321000   0.89420211   -7.6412353    653.40591  0.023459928  0.023202957            3 
 2322000   0.89191225   -7.6298394    654.53152  0.023490221  0.023196721            1 
 2323000   0.86715669   -7.6479367    652.86857  0.023420454  0.023190481            2 
 2324000   0.88577978   -7.6546591    652.07643  0.023381972  0.023184241            2 
 2325000   0.86642604   -7.6500902    651.59387  0.023354619  0.023178018            3 
 2326000   0.88922406   -7.6566566     652.7456  0.023385841  0.023171798            1 
 2327000   0.87469931    -7.650282    651.57969  0.023334039  0.023165546            2 
 2328000   0.88663118   -7.6602139    653.24274  0.023383546   0.02315928            2 
 2329000   0.88855353   -7.6637032    653.58892  0.023385892  0.023153016            1 
 2330000    0.8970582    -7.651721    652.54392  0.023338481  0.023146746            2 
 2331000    0.8844289   -7.6172064     655.3132   0.02342747  0.023140507            3 
 2332000   0.89080715   -7.6351573    654.10252  0.023374161  0.023134285            3 
 2333000   0.88261194   -7.6379535    653.90818    0.0233572  0.023128075            1 
 2334000   0.88173515   -7.6709971    653.19004  0.023321552  0.023121806            2 
 2335000   0.89309415   -7.6444589    654.79143  0.023368716  0.023115548            4 
 2336000   0.87508993   -7.6912879      653.893  0.023326663  0.023109282            3 
 2337000    0.8626413   -7.6324063    653.56486   0.02330498  0.023103072            3 
 2338000   0.87416443   -7.6049889    656.36643  0.023394869  0.023096883            5 
 2339000   0.86717624   -7.6644542    655.68428  0.023360563  0.023090725            3 
 2340000   0.88906985   -7.6668037    654.76239  0.023317749  0.023084562            2 
 2341000   0.88314804   -7.6262083    655.41063  0.023330864  0.023078374            2 
 2342000   0.88295732   -7.6641056    654.73791  0.023296965   0.02307219            1 
 2343000    0.8819522   -7.6226845    655.92957  0.023329406  0.023065971            2 
 2344000    0.8572269   -7.6513731    653.70615  0.023240406  0.023059731            2 
 2345000   0.86086679   -7.6641554     655.1423  0.023281532  0.023053441            2 
 2346000   0.87721013   -7.6465341    655.07031   0.02326905  0.023047215            2 
 2347000   0.87337754   -7.6169474    655.75082  0.023283299  0.023041045            5 
 2348000   0.86836256   -7.6502874    657.60021   0.02333902  0.023034903            4 
 2349000   0.89843297   -7.6421189    656.15966  0.023277979  0.023028748            3 
 2350000   0.87950433    -7.634458    657.07027  0.023300364  0.023022531            2 
 2351000   0.87615894   -7.6674027    655.73688   0.02324319  0.023016332            2 
 2352000   0.87717603   -7.6476347    655.65501  0.023230407  0.023010064            2 
 2353000   0.84666872   -7.6401527      655.805  0.023225846  0.023003878            1 
 2354000   0.87372871    -7.674735    656.71837  0.023248314  0.022997632            3 
 2355000    0.8634034   -7.6596754    656.81393  0.023241823  0.022991372            5 
 2356000   0.86733213   -7.6691908    654.88489  0.023163727  0.022985158            2 
 2357000   0.87014368   -7.6262485    657.40935  0.023243153  0.022978971            2 
 2358000   0.89547411   -7.6228468    656.52844  0.023202164  0.022972812            1 
 2359000   0.86288122   -7.6841518    655.25166  0.023147226  0.022966562            2 
 2360000   0.89521278   -7.6266635    656.85164  0.023193914  0.022960332            4 
 2361000   0.86974724   -7.6347068    657.86332  0.023219798  0.022954162            2 
 2362000   0.86885401   -7.6578168    657.31676  0.023190685  0.022947951            1 
 2363000     0.861796   -7.6736074     656.5109  0.023152451  0.022941789            2 
 2364000   0.86514464   -7.6553042    658.27145  0.023204718  0.022935575            2 
 2365000   0.87380874    -7.671017    656.52133  0.023133239  0.022929381            2 
 2366000   0.87777366   -7.6542097    659.54176  0.023229845  0.022923222            1 
 2367000    0.8653655   -7.6379227    657.34701  0.023142762  0.022917041            2 
 2368000   0.86944363   -7.7006307    657.74054  0.023146838  0.022910808            4 
 2369000   0.84990355   -7.6490229    657.91438  0.023143182  0.022904585            2 
 2370000    0.8760124   -7.6746794    657.41871  0.023115988  0.022898391            6 
 2371000   0.89995955   -7.6503996    657.74143  0.023117582  0.022892229            4 
 2372000   0.88102727   -7.6471472    659.11113  0.023155956  0.022886042            2 
 2373000   0.87007415   -7.6766901    658.84985  0.023137023  0.022879855            2 
 2374000   0.88526673   -7.6631808    658.39332  0.023111251  0.022873657            2 
 2375000    0.8687837   -7.6489596    658.77607   0.02311495  0.022867434            2 
 2376000   0.88141048   -7.6527166     658.6767  0.023101736   0.02286123            5 
 2377000   0.89980063   -7.6606471    656.86923  0.023028651   0.02285503            2 
 2378000   0.87442179   -7.6511717    659.71421  0.023118664  0.022848838            3 
 2379000   0.86020816   -7.6915026    658.08098  0.023051737  0.022842622            2 
 2380000   0.87839182   -7.6785979    657.34785  0.023016381  0.022836366            4 
 2381000   0.87346994   -7.6919469      658.617  0.023051134  0.022830132            3 
 2382000   0.84280214   -7.6763113     657.3372  0.022996684  0.022823865            3 
 2383000   0.86477146   -7.7017077    659.96895  0.023079065  0.022817626            2 
 2384000   0.86896791   -7.6650136    660.54326   0.02308946  0.022811425            2 
 2385000    0.8726613   -7.6727849    659.73105  0.023051399  0.022805264            5 
 2386000   0.87859904   -7.6771349    657.94144  0.022979235  0.022799056            3 
 2387000   0.86683862    -7.655019     659.4696  0.023022958  0.022792809            2 
 2388000   0.86256308   -7.6644531    658.80612  0.022990163  0.022786564            3 
 2389000   0.86936466   -7.6872939    658.74378  0.022978365  0.022780327            1 
 2390000   0.85456884    -7.675748    658.44525  0.022958342  0.022774057            3 
 2391000   0.86636474   -7.6562843    658.32005  0.022944377  0.022767761            2 
 2392000   0.86101219   -7.6567032    660.73737     0.023019  0.022761537            2 
 2393000    0.8656034    -7.647607     658.6272  0.022935896  0.022755272            4 
 2394000   0.84430266   -7.6785023     660.3121  0.022984966  0.022748972            2 
 2395000   0.87212235   -7.6839331    660.21884  0.022972124  0.022742667            1 
 2396000   0.86340957   -7.6924986    660.51601  0.022972872  0.022736391            2 
 2397000    0.8685785   -7.6757083     659.4199  0.022925181  0.022730135            4 
 2398000   0.86517547   -7.6357039    662.15121  0.023010537  0.022723895            3 
 2399000    0.8690535   -7.6303335    660.66025  0.022949154  0.022717698            5 
 2400000   0.87823083   -7.6468151    659.80351  0.022909844  0.022711516            5 
 2401000    0.8676868   -7.6843013    662.35171  0.022988745  0.022705282            1 
 2402000   0.84951403   -7.6817935    660.85078  0.022927102  0.022698999            1 
 2403000    0.8619439   -7.7027295    661.82635  0.022951392  0.022692767            1 
 2404000   0.87304429   -7.6896165    660.25987  0.022887544  0.022686494            2 
 2405000   0.87500293   -7.6709628    661.46963  0.022919946   0.02268031            4 
 2406000   0.86519242   -7.6825224      662.273  0.022938245  0.022674145            4 
 2407000   0.87104396   -7.6532519    662.30996  0.022929994  0.022667935            2 
 2408000   0.87113085   -7.6443954     661.6551   0.02289781  0.022661711            3 
 2409000    0.8726345   -7.6792401    660.68532  0.022854757  0.022655468            1 
 2410000   0.84988577   -7.6756144    662.35722  0.022903085   0.02264924            2 
 2411000   0.85461106   -7.6506265    663.06212   0.02291795  0.022642986            1 
 2412000   0.84916586   -7.6986777    661.59223  0.022857664  0.022636736            2 
 2413000   0.88395975   -7.6651671    662.64821   0.02288466  0.022630488            3 
 2414000   0.86701464   -7.6907463    661.49511  0.022835374  0.022624258            3 
 2415000   0.84508847   -7.6903418    661.44974  0.022824353  0.022618045            4 
 2416000   0.87087497   -7.6520124     662.7085  0.022858323  0.022611859            2 
 2417000   0.83809143   -7.6542467    664.37035  0.022906163   0.02260575            2 
 2418000   0.86390467    -7.673049    664.36064  0.022896355  0.022599614            3 
 2419000   0.86247802   -7.7032824    661.45202   0.02278669   0.02259346            1 
 2420000   0.86757407   -7.6763708    662.68519  0.022819738  0.022587271            2 
 2421000    0.8505817   -7.6449684    664.78561  0.022882611   0.02258114            6 
 2422000   0.87336335   -7.7050587    663.03418  0.022812902  0.022575023            2 
 2423000   0.86439693   -7.6770489    664.59255  0.022857083   0.02256892            2 
 2424000   0.85983012   -7.6667229    665.06526  0.022863905  0.022562817            6 
 2425000   0.84172773   -7.6810129    663.91326  0.022814888  0.022556729            1 
 2426000   0.86092029   -7.6767747    664.13031   0.02281294  0.022550615            2 
 2427000    0.8707572   -7.7266596    663.23791  0.022772899  0.022544472            2 
 2428000   0.86689067   -7.6901298    663.10305  0.022758891  0.022538303            2 
 2429000   0.86747471   -7.6986526    663.99778  0.022780217  0.022532191            6 
 2430000   0.87892976   -7.6779157    662.94851   0.02273486  0.022526051            2 
 2431000   0.85643688   -7.6971337    664.73382  0.022786707  0.022519889            3 
 2432000   0.86809491   -7.6846843    664.49849  0.022769274  0.022513718            2 
 2433000   0.84718803   -7.6979679    663.19601  0.022715304  0.022507613            2 
 2434000   0.85233611   -7.6904934    663.71014  0.022723574  0.022501446            2 
 2435000   0.85883905   -7.6746415    665.16645  0.022764081  0.022495337            2 
 2436000   0.84858756   -7.6922004    664.03141  0.022715908  0.022489177            1 
 2437000   0.84759783   -7.7004872    665.04819  0.022741355  0.022483001            1 
 2438000   0.86151644   -7.6965285    665.20117  0.022737256  0.022476877            2 
 2439000   0.85372388   -7.6955891    664.06288  0.022689042  0.022470771            1 
 2440000   0.87103922   -7.6511121    664.71592  0.022702046  0.022464619            1 
 2441000   0.85866082   -7.6685719    667.99808  0.022804796  0.022458491            2 
 2442000   0.85644937   -7.6669265    664.92068  0.022690441  0.022452419            2 
 2443000   0.85833956   -7.6906034    665.65407  0.022706169  0.022446299            2 
 2444000   0.85386338   -7.6556945    665.47645  0.022690823    0.0224402            3 
 2445000   0.84742828   -7.6942224    665.00633  0.022665519  0.022434111            1 
 2446000   0.85807823   -7.7058946    665.79968  0.022683282  0.022427976            2 
 2447000   0.86212638   -7.7161867    665.06186  0.022648885  0.022421829            3 
 2448000   0.87469758   -7.6893725    666.74767   0.02269702  0.022415673            2 
 2449000   0.84196882   -7.6804382    666.04506  0.022663844  0.022409522            1 
 2450000   0.84834836   -7.6901003    665.24141  0.022627259  0.022403403            2 
 2451000   0.87275458   -7.6949961    665.11897  0.022613864  0.022397238            4 
 2452000   0.84423493   -7.6961871    667.93667  0.022700403  0.022391068            3 
 2453000   0.86612029   -7.6787507    665.84577  0.022620117  0.022384883            3 
 2454000    0.8691661   -7.7021377    666.64231  0.022637949  0.022378762            4 
 2455000   0.86484731   -7.6606967    668.88176  0.022704744  0.022372646            1 
 2456000   0.85721704   -7.6894749    666.40061  0.022611313  0.022366503            2 
 2457000   0.87147808   -7.7127737    666.86503  0.022617862  0.022360359            4 
 2458000   0.84870879   -7.6656135    667.72579  0.022637842  0.022354311            2 
 2459000   0.85127364   -7.6839015    667.28809  0.022613803  0.022348233            5 
 2460000   0.84933488   -7.7213658    666.87535  0.022590628  0.022342155            1 
 2461000   0.85061529   -7.6808502    666.75138  0.022577251  0.022336079            2 
 2462000   0.87043679   -7.7082808    669.15264  0.022649358  0.022329983            2 
 2463000    0.8504102   -7.6839755    668.00053  0.022601182  0.022323889            3 
 2464000   0.86838797   -7.7171095    666.75532  0.022549896  0.022317789            2 
 2465000   0.85708551   -7.6596019    666.69285  0.022538636  0.022311723            4 
 2466000   0.86759344   -7.7011879    668.02896  0.022574647  0.022305664            4 
 2467000   0.85137851   -7.6873519    669.46348  0.022613953  0.022299572            3 
 2468000   0.86689781   -7.6946317    670.24403  0.022631146  0.022293544            2 
 2469000   0.86180985   -7.7043247     669.3312  0.022591171   0.02228751           15 
 2470000   0.86142965   -7.6791885    669.43578  0.022585553   0.02228149            3 
 2471000   0.86384061   -7.6623648    669.24553  0.022569996  0.022275478            4 
 2472000   0.85646421   -7.7015429    669.44474  0.022567581  0.022269476            2 
 2473000   0.85676067   -7.6780408    669.12678  0.022547742  0.022263467            4 
 2474000   0.86218168   -7.7031496    668.78758  0.022527202  0.022257493            3 
 2475000   0.85525001   -7.6753634    668.65543  0.022513651  0.022251518            3 
 2476000   0.85327984   -7.7009533    670.81599  0.022577275  0.022245543            5 
 2477000    0.8550475   -7.6531691    671.26503  0.022583267  0.022239608            2 
 2478000   0.86949302    -7.670927    671.34707  0.022576912  0.022233627            3 
 2479000   0.85160781   -7.7032096    669.93129  0.022520213  0.022227662            2 
 2480000   0.83111226   -7.6845397    669.44611  0.022494829  0.022221669            1 
 2481000    0.8580312   -7.7044638    668.90702  0.022467655  0.022215643            2 
 2482000   0.86536635   -7.6765624    671.87407  0.022558222   0.02220965            3 
 2483000   0.85416136   -7.6512316    671.54811  0.022538197  0.022203681            2 
 2484000   0.86635414   -7.6966936    672.95505  0.022576323  0.022197724            2 
 2485000   0.83825635   -7.6744979    670.04627  0.022469694  0.022191657            2 
 2486000   0.83587967   -7.6972084    672.23713  0.022534095  0.022185641            4 
 2487000   0.84933695   -7.6964598    671.13524  0.022488113  0.022179611            2 
 2488000   0.83404211    -7.684102    672.79384  0.022534627   0.02217358            1 
 2489000   0.85118714   -7.7148793    669.92555  0.022429542  0.022167592            3 
 2490000   0.86552388    -7.663551    671.97866  0.022489246  0.022161611            1 
 2491000    0.8385711   -7.6851026    671.26983  0.022456504  0.022155606            2 
 2492000    0.8470485   -7.7032033    670.63268  0.022426186  0.022149557            3 
 2493000   0.84948309   -7.6933376    670.42265   0.02241017  0.022143518            3 
 2494000   0.86763478   -7.6975057    671.39548   0.02243369  0.022137497            6 
 2495000   0.85224897    -7.715723    669.79368  0.022371198  0.022131466            2 
 2496000   0.83818318   -7.7171782    670.62801  0.022390091   0.02212541            2 
 2497000   0.84690442   -7.7053341    671.27753  0.022402801  0.022119369            4 
 2498000   0.85851809   -7.6858636    669.99097  0.022350913  0.022113281            2 
 2499000   0.85627482   -7.6961408    671.92956  0.022406615  0.022107262            3 
 2500000   0.83947099   -7.7342538    670.48914  0.022349638  0.022101217            6 
 2501000   0.86031296   -7.6952892     672.6248  0.022411862  0.022095166            2 
 2502000   0.84741258   -7.6895514    671.73051  0.022373119   0.02208912            1 
 2503000   0.84887707   -7.7174237    670.36539  0.022318731  0.022083073            1 
 2504000   0.85094558   -7.7083295    672.33265  0.022375288  0.022077022            1 
 2505000   0.83701224   -7.7197904    672.52808  0.022372857  0.022070957            1 
 2506000    0.8300484   -7.7000354    671.74886  0.022338018  0.022064839            5 
 2507000    0.8522254   -7.7327444    671.59401   0.02232396  0.022058729            1 
 2508000   0.86575168   -7.7139449    673.00008  0.022361778  0.022052664            1 
 2509000     0.840422   -7.7026296    674.20136  0.022392765  0.022046642            2 
 2510000   0.86654483   -7.7132703    672.93885  0.022341927  0.022040584            2 
 2511000   0.86370352   -7.7085765    673.65224  0.022356705  0.022034481            2 
 2512000   0.85078683   -7.6996313    673.66909  0.022348364  0.022028425            2 
 2513000   0.84713335   -7.6959651    673.14319  0.022322032  0.022022373            2 
 2514000   0.85368661   -7.6921343     673.5681  0.022327237  0.022016348            3 
 2515000   0.85310271   -7.6869775    674.60284  0.022352646  0.022010395            3 
 2516000    0.8443817    -7.711803    674.78686  0.022349856  0.022004403            2 
 2517000    0.8444426   -7.7084896     672.7962  0.022275069  0.021998424            5 
 2518000   0.86583736   -7.7552585    673.22516   0.02228042  0.021992413            4 
 2519000   0.85218545   -7.7181529    673.37889   0.02227666  0.021986368            2 
 2520000   0.82030253   -7.7276069    674.75015  0.022313166  0.021980318            2 
 2521000   0.84021351   -7.7444257    673.55236  0.022264722  0.021974268            2 
 2522000   0.84640192    -7.698679    674.19611  0.022277165   0.02196829            2 
 2523000   0.85994847   -7.6764383    675.52884  0.022312354  0.021962357            1 
 2524000   0.84494642   -7.6904665    675.90994  0.022316097  0.021956397            1 
 2525000   0.85678521   -7.7105872    674.76041   0.02226932  0.021950401            1 
 2526000   0.84617419   -7.7273693    673.69697  0.022225421  0.021944398            2 
 2527000    0.8564451   -7.7530454    673.39882  0.022206794  0.021938414            2 
 2528000   0.83341436   -7.7072625    674.35412    0.0222295  0.021932412            1 
 2529000   0.83181902   -7.7171674    673.91753  0.022206324  0.021926401            2 
 2530000   0.83371754   -7.6956492     676.5112  0.022282978  0.021920413            1 
 2531000   0.83507441    -7.666373    675.82259  0.022251501  0.021914422            1 
 2532000   0.84064758   -7.7014444    675.58814  0.022234997  0.021908381            1 
 2533000   0.86565874   -7.7102279    674.49237  0.022190169  0.021902296            2 
 2534000    0.8483952   -7.6942743    676.58912  0.022250366  0.021896271            1 
 2535000   0.83516936   -7.6839754    675.80056  0.022215666  0.021890263            2 
 2536000   0.81815802   -7.7240544    676.48563  0.022229417  0.021884277            2 
 2537000   0.85441892   -7.7073722    676.63753  0.022225645  0.021878286            5 
 2538000   0.83041565   -7.6921024    676.36698  0.022208004  0.021872309            1 
 2539000    0.8552638   -7.6815963    676.81996  0.022214125  0.021866354            3 
 2540000   0.85145617   -7.6864403    676.06729  0.022180685  0.021860406            3 
 2541000   0.86694754   -7.7178749    676.58681  0.022188994  0.021854453            2 
 2542000    0.8207012   -7.7165341    678.19158  0.022232874  0.021848514            2 
 2543000   0.85983613   -7.6868004     678.0946  0.022220953  0.021842586            2 
 2544000   0.83036004   -7.7264139    676.62639  0.022164124  0.021836674            4 
 2545000   0.84597801   -7.6896676    676.52687  0.022152157  0.021830715            3 
 2546000   0.84932887   -7.7433697    677.35788  0.022170656  0.021824769            2 
 2547000   0.83317568   -7.7058452    678.66925  0.022204857  0.021818829            3 
 2548000   0.84087235   -7.7208916    675.40143  0.022089267  0.021812869            5 
 2549000   0.85617123   -7.7334003    675.55885  0.022085748  0.021806876            1 
 2550000   0.85033566   -7.7538325    675.51486  0.022075649  0.021800889            2 
 2551000    0.8462087   -7.7208741    678.66896   0.02217003  0.021794933            2 
 2552000    0.8613459   -7.7370596    678.52174  0.022156535  0.021789008            4 
 2553000    0.8514025   -7.7542819    676.56522  0.022083993  0.021783059            2 
 2554000   0.84230359   -7.7134349    678.56107  0.022140468   0.02177713            2 
 2555000   0.83515003    -7.742491    679.30421  0.022156041  0.021771261            1 
 2556000   0.83952807   -7.7580827    676.53789  0.022057182  0.021765345            2 
 2557000   0.83658718   -7.7528642    678.85275  0.022123998  0.021759405            2 
 2558000   0.84664132   -7.7067144    680.15585  0.022157801  0.021753501            3 
 2559000   0.85906562   -7.7320407    679.46612  0.022126681   0.02174764            2 
 2560000   0.85116398   -7.7288686    679.77671  0.022128148  0.021741761            1 
 2561000   0.84902993   -7.7376576    679.08021  0.022096844  0.021735839            1 
 2562000   0.83086834   -7.7594248     678.0548  0.022054866  0.021729967            2 
 2563000   0.83388726   -7.7173595    681.19245  0.022148278  0.021724138            2 
 2564000   0.82491148    -7.728251    678.69012  0.022058311   0.02171828            4 
 2565000   0.83557886   -7.7314138    679.08072  0.022062402  0.021712391            3 
 2566000   0.83471708   -7.7456268    679.79526  0.022077009  0.021706511            3 
 2567000   0.84542637   -7.7260962    680.49158  0.022091014  0.021700609            2 
 2568000   0.86690659   -7.7289124    680.53516  0.022083825  0.021694753            1 
 2569000   0.84282055   -7.7684948    679.27723  0.022034424  0.021688898            2 
 2570000   0.85148771   -7.7135248    679.55769  0.022034945  0.021683077            4 
 2571000   0.86198627   -7.7463093    681.09708   0.02207627  0.021677254            2 
 2572000   0.84043136   -7.7247158    680.82848  0.022058984  0.021671387            2 
 2573000   0.84809018   -7.7302238    680.48304  0.022039223  0.021665549            2 
 2574000   0.82542662   -7.7382587    681.46397  0.022062418  0.021659736            2 
 2575000   0.84158477   -7.7313744    679.50924   0.02199059  0.021653867            2 
 2576000   0.79929611   -7.7470458    680.93968  0.022028328  0.021648021            2 
 2577000   0.83616986   -7.7245913    680.50348  0.022005674  0.021642195            2 
 2578000   0.85571718   -7.7380722    681.11527  0.022016915  0.021636369            2 
 2579000   0.84859536   -7.7188212    681.54897  0.022022391  0.021630558            2 
 2580000   0.84300598   -7.7399572    680.82858  0.021990587  0.021624746            3 
 2581000   0.85697494   -7.7556684    679.95849  0.021953974  0.021618889            3 
 2582000   0.84578831   -7.7518323    682.04484  0.022012808  0.021613046            1 
 2583000   0.81910849   -7.7024382    682.78998  0.022028326  0.021607239            1 
 2584000   0.85078808   -7.7234737    681.63036  0.021982403   0.02160144            1 
 2585000   0.82163609   -7.7571213    680.97314  0.021952712  0.021595597            2 
 2586000    0.8396503   -7.7309733    681.53551  0.021962345  0.021589756            2 
 2587000   0.84672392   -7.7356981    682.33838  0.021979718  0.021583938            2 
 2588000   0.85193283   -7.7495656     682.3191  0.021970605   0.02157807            4 
 2589000   0.84601288   -7.7486986    680.90731  0.021916677  0.021572144            1 
 2590000   0.84360426    -7.734645    681.14629  0.021915904   0.02156625            2 
 2591000   0.85230379   -7.7267297    681.28361  0.021911862  0.021560372            2 
 2592000   0.82222835   -7.7284159     682.5924  0.021945486  0.021554504            2 
 2593000   0.83200142   -7.7470032    680.44285  0.021867941  0.021548643            3 
 2594000     0.828794   -7.7337856    680.90844  0.021874468  0.021542768            2 
 2595000   0.83974027   -7.7568954    682.69656   0.02192346  0.021536912            2 
 2596000    0.8273653   -7.7407609    681.86421  0.021888296  0.021531084            2 
 2597000   0.84140311    -7.751259    683.25122  0.021924375  0.021525227            5 
 2598000   0.84251364   -7.7403764    682.86969  0.021903698  0.021519393            1 
 2599000   0.81942484   -7.7288559     682.1296   0.02187154  0.021513583            1 
 2600000   0.85221982   -7.7424527    682.51286  0.021875412  0.021507772            2 
 2601000   0.81952905   -7.7243848    682.84902  0.021877772  0.021501927            2 
 2602000   0.82068591   -7.7287373    682.25004  0.021850181  0.021496101            4 
 2603000   0.84050896   -7.7273983    683.97781    0.0218971  0.021490289            2 
 2604000   0.82776488    -7.727111    684.15406  0.021894331   0.02148449            1 
 2605000   0.83259869   -7.7676505    683.02522  0.021849815   0.02147867            1 
 2606000   0.83607299   -7.7274747    682.30873  0.021818519  0.021472861            4 
 2607000    0.8348194   -7.7252248    684.93005  0.021893941  0.021467057            2 
 2608000   0.84540847   -7.7276739    683.82037  0.021850089  0.021461259            4 
 2609000   0.82707791   -7.7152572    684.49429  0.021863239  0.021455407            2 
 2610000   0.81160838   -7.6991489    683.71569  0.021830003  0.021449626            3 
 2611000    0.8348701   -7.7445161    684.01942  0.021831336  0.021443815            2 
 2612000   0.84156254    -7.758561    685.09715  0.021857362  0.021437954            3 
 2613000   0.84184908   -7.7577036    683.27292  0.021790819  0.021432065            1 
 2614000   0.82344975   -7.7624586    683.74233  0.021797447  0.021426196            3 
 2615000   0.83603704    -7.727038    683.94557  0.021795588  0.021420326            1 
 2616000    0.8266423   -7.7475534    684.99591  0.021820716   0.02141448            4 
 2617000   0.83720645   -7.7521308    685.38124  0.021824648  0.021408642            2 
 2618000   0.84166864   -7.7723331    683.53666  0.021757597  0.021402796            2 
 2619000   0.80628017   -7.7324618     685.2495  0.021803789  0.021396957            2 
 2620000   0.82969231    -7.749461    685.38381  0.021799739  0.021391105            2 
 2621000   0.82978572   -7.7240862    685.04464  0.021780639  0.021385228            4 
 2622000   0.82755413   -7.7472365    682.25863  0.021683786  0.021379417            1 
 2623000   0.82127585   -7.7212597    684.92109  0.021760106  0.021373597            2 
 2624000   0.82646043   -7.7322482    683.93358  0.021720452  0.021367717            2 
 2625000   0.83705325   -7.7645496    684.28457   0.02172332  0.021361832            2 
 2626000   0.81486335   -7.7617367     684.1036  0.021709304  0.021355878            1 
 2627000   0.82413987   -7.7743461    682.74708  0.021658009  0.021349905            2 
 2628000   0.82423399    -7.755416    683.15541  0.021662716  0.021343959            4 
 2629000   0.82973651   -7.7601194    683.19341  0.021655681  0.021338044            3 
 2630000   0.84509003   -7.7429086    683.71478  0.021663967  0.021332113            1 
 2631000   0.81886859   -7.7481937    685.02309  0.021697171  0.021326177            4 
 2632000    0.8247355   -7.7605395    683.81069  0.021650541  0.021320277            4 
 2633000   0.83790363   -7.7492144    684.04463  0.021649722  0.021314311            4 
 2634000   0.82280734   -7.7746646    683.87607   0.02163617  0.021308348            2 
 2635000   0.83136989   -7.7691537     683.8938   0.02162852  0.021302417            7 
 2636000   0.83664317   -7.7305026    684.74931  0.021647361  0.021296494            3 
 2637000   0.82259293     -7.75663    683.58581  0.021602383  0.021290557            2 
 2638000   0.82495147   -7.7693059     683.9769  0.021606549  0.021284637            2 
 2639000    0.8299961   -7.7544911     684.8056  0.021624529  0.021278724            3 
 2640000   0.82814573   -7.7912245     684.7439  0.021614391  0.021272792            2 
 2641000   0.84745775    -7.776543    682.28386  0.021528583  0.021266838            2 
 2642000   0.83180179   -7.7640315    683.02743  0.021543888  0.021260879            2 
 2643000    0.8327565   -7.7924958    684.17298  0.021571856  0.021254929            2 
 2644000   0.80083115   -7.7697219    684.47327  0.021573162  0.021248978            2 
 2645000   0.81749611   -7.7703781    684.72407  0.021572907  0.021243032            3 
 2646000   0.82616732   -7.7752963    685.06666  0.021575543  0.021237085            2 
 2647000    0.8431839   -7.7642402    685.80508   0.02159064  0.021231158            2 
 2648000   0.82708712   -7.7785279     683.3675  0.021505775  0.021225228            2 
 2649000   0.82793133   -7.7786797     685.2848  0.021557972  0.021219308            2 
 2650000   0.83995473   -7.7594516    682.76503  0.021470598  0.021213364            3 
 2651000   0.83552674   -7.7609916    685.14268   0.02153724  0.021207406            1 
 2652000   0.82108164   -7.7698461    683.81447  0.021487383  0.021201389            2 
 2653000   0.83294122   -7.7511948    686.82315  0.021573789   0.02119543            5 
 2654000   0.81251068   -7.7737646    685.15382  0.021513245  0.021189492            3 
 2655000   0.82143524   -7.7569269     686.3117  0.021541485  0.021183575            1 
 2656000    0.8137939   -7.7354568     687.2031  0.021561342  0.021177659            2 
 2657000   0.82905735   -7.7406785    686.99836  0.021546806   0.02117181            2 
 2658000   0.83414767    -7.750463    687.80114  0.021563868  0.021165968            3 
 2659000   0.83062466   -7.7633787    684.34888  0.021447564  0.021160049            1 
 2660000   0.80984234   -7.7705237    685.57264   0.02147784  0.021154122            2 
 2661000   0.81432008   -7.7756938    684.82432  0.021446334  0.021148154            2 
 2662000   0.81055266   -7.7611327    684.34158  0.021423165  0.021142213            2 
 2663000    0.8265095   -7.7685311    685.44737  0.021449724  0.021136259            5 
 2664000   0.82723037   -7.7532979    686.93521  0.021488214  0.021130297            2 
 2665000   0.83098062   -7.7701902    684.11578  0.021391988  0.021124334            4 
 2666000   0.84545898   -7.7790076    685.62857  0.021431251  0.021118395            2 
 2667000    0.8263824   -7.7699229     684.9511  0.021402047  0.021112467            2 
 2668000    0.8346411   -7.7629823    684.55388  0.021381618  0.021106493            2 
 2669000   0.84355631   -7.7661941    686.22189  0.021425686  0.021100537            2 
 2670000   0.82196304   -7.7339134    687.66354  0.021462657  0.021094613            1 
 2671000   0.81160996   -7.7669102    685.17421  0.021376957  0.021088716            2 
 2672000    0.8183122    -7.752003    687.78147   0.02145027  0.021082791            2 
 2673000   0.82476267   -7.7817417    686.10912  0.021390109  0.021076828            2 
 2674000     0.832919   -7.7564487    687.93949  0.021439151  0.021070932            3 
 2675000   0.83236882   -7.7615313    686.34555  0.021381481  0.021065023            5 
 2676000   0.83409114   -7.7941503    687.53406  0.021410503  0.021059116            2 
 2677000   0.85407875   -7.7765432    688.96383  0.021447013  0.021053255            1 
 2678000   0.82568147    -7.760065    686.86577  0.021373717  0.021047392            1 
 2679000   0.83122343   -7.7535781    686.41958  0.021351859  0.021041504            1 
 2680000   0.82481474   -7.7854297     687.7255  0.021384499  0.021035595            3 
 2681000   0.82348604   -7.7634817    687.37166  0.021365525  0.021029706            2 
 2682000   0.82714009   -7.7864021    687.40882  0.021358713  0.021023806            9 
 2683000   0.83249218   -7.7843625    686.48436  0.021322039  0.021017894            2 
 2684000   0.82542576    -7.754738    687.18287  0.021335782  0.021011986            2 
 2685000   0.82827397   -7.7575833    687.28729  0.021331077   0.02100606            3 
 2686000     0.831639   -7.7814221    687.21737  0.021320966  0.021000155            5 
 2687000   0.84630721   -7.8082545    687.56563  0.021323832  0.020994242            2 
 2688000   0.80222115   -7.7928023    687.93783  0.021327438  0.020988338            2 
 2689000   0.81743427   -7.7760161    689.92241  0.021381009  0.020982454            3 
 2690000   0.81248728   -7.7942364    687.69034  0.021303914  0.020976548            2 
 2691000   0.82697886   -7.7627569     687.5034  0.021290208  0.020970684            2 
 2692000   0.81607558   -7.7664655     688.6591  0.021318075  0.020964769            4 
 2693000   0.81692251   -7.8046215    688.36814  0.021301155  0.020958852            2 
 2694000   0.82785125   -7.8148755    686.96079  0.021249715   0.02095293            2 
 2695000   0.82920032   -7.7801608    688.65475   0.02129421  0.020947016            1 
 2696000   0.82099328     -7.76776    689.64801  0.021317013  0.020941137            3 
 2697000   0.82903556   -7.7558133    688.24962  0.021265901  0.020935252            3 
 2698000   0.81656355   -7.7598128    690.78553  0.021336346  0.020929441            4 
 2699000   0.80576805   -7.7582353    689.82925  0.021298915  0.020923636            2 
 2700000   0.81284157   -7.7866185    691.06657  0.021329215  0.020917819            6 
 2701000   0.81929918   -7.7752214    690.22374  0.021295315   0.02091201            2 
 2702000   0.83189936   -7.7947442    689.12727  0.021253617  0.020906196            3 
 2703000   0.81742748   -7.7808521    689.30399  0.021251202  0.020900391            2 
 2704000   0.80570865   -7.8089098    690.32825  0.021274909  0.020894577            1 
 2705000   0.82422888   -7.8062053    689.07411  0.021228407  0.020888735            6 
 2706000   0.80316118   -7.7649052    691.38661  0.021291778   0.02088288            4 
 2707000   0.81506724   -7.7851952    690.08276  0.021243774   0.02087705            2 
 2708000   0.81248741   -7.7992593    689.44537  0.021216315  0.020871232            2 
 2709000     0.809554   -7.7807301    688.47334  0.021178582  0.020865397            2 
 2710000   0.80761157   -7.7597779    688.69003   0.02117743  0.020859601            2 
 2711000    0.8059844   -7.7618091    690.84149  0.021235752  0.020853817            1 
 2712000   0.82560639   -7.8178548    690.00714  0.021202284  0.020847994            2 
 2713000   0.82294285   -7.7828281    690.13762  0.021198477  0.020842167            2 
 2714000   0.81938624   -7.7877011    688.73092  0.021147474  0.020836353            6 
 2715000    0.8186792    -7.773464    692.13368  0.021244128   0.02083058            2 
 2716000   0.80707947   -7.7965853    690.10051  0.021173923    0.0208248            2 
 2717000   0.81101744   -7.7849154    691.78586  0.021217822  0.020819031            1 
 2718000   0.82175706   -7.8088685    691.58099  0.021203734  0.020813227            2 
 2719000   0.81075722   -7.7749719    691.19363  0.021184064   0.02080742            3 
 2720000   0.80611723   -7.8162894    689.67243   0.02112967  0.020801618            2 
 2721000   0.82832615   -7.8174181    692.43708  0.021206575  0.020795799            3 
 2722000    0.8191335   -7.7979913    689.34106     0.021104  0.020789979            2 
 2723000   0.82032745   -7.7664643    694.46394  0.021253028  0.020784199            5 
 2724000   0.83046958   -7.8010252    692.81637  0.021194823  0.020778447            6 
 2725000    0.8288758   -7.7759388    691.94718  0.021160464  0.020772684            2 
 2726000   0.81292091   -7.8013283    691.87176  0.021150396  0.020766907            2 
 2727000   0.83409762   -7.7865193     693.4351  0.021190414  0.020761134            3 
 2728000   0.82037695   -7.7944465    693.18132  0.021174894  0.020755366            2 
 2729000   0.82845209   -7.7814837    692.43633  0.021144385  0.020749565            2 
 2730000   0.82063986    -7.806472    693.65248  0.021173763  0.020743783            3 
 2731000   0.82272581   -7.7945154    691.86404  0.021111438  0.020738022            3 
 2732000    0.8173993    -7.806537    690.97347  0.021076546  0.020732239            2 
 2733000   0.82016187   -7.7595688    691.89886   0.02109705  0.020726459            4 
 2734000    0.8146896    -7.763837    691.22022  0.021068649  0.020720681            3 
 2735000   0.81872142   -7.7695627    692.05003  0.021086229  0.020714912            4 
 2736000   0.80320851   -7.7734415    693.87632  0.021134147  0.020709143            3 
 2737000   0.80108898   -7.7828894    692.42364  0.021082196  0.020703374            2 
 2738000   0.80937125   -7.7846019    694.91651  0.021150369  0.020697613            3 
 2739000   0.82988719   -7.7822603    693.41858  0.021097073  0.020691849            4 
 2740000   0.81640022   -7.7766024    691.79898  0.021040115  0.020686084            4 
 2741000   0.80950165   -7.8090019    691.30486  0.021017416  0.020680296            4 
 2742000   0.79377569   -7.7921002    692.05852  0.021032656  0.020674506            2 
 2743000   0.80800367   -7.7724261    693.38895  0.021065407  0.020668738            1 
 2744000   0.81647585   -7.7842907    693.39525  0.021057922  0.020662983            4 
 2745000   0.80415151   -7.7889501    691.94093    0.0210061  0.020657228            2 
 2746000   0.81425415   -7.7834092    694.23609  0.021068102  0.020651473            2 
 2747000   0.81747831   -7.7909204    693.84745  0.021048643  0.020645749            1 
 2748000   0.81819181   -7.8012747    693.45463   0.02102907  0.020640009            3 
 2749000   0.79756933   -7.7968862    694.55494  0.021054776  0.020634248            5 
 2750000   0.81151771   -7.8389162    692.06481  0.020971661  0.020628428            5 
 2751000   0.80163641   -7.7834999    694.18191  0.021028169  0.020622634            3 
 2752000    0.8099261   -7.8102513    693.20662  0.020990995  0.020616837            5 
 2753000   0.81028041     -7.83099    693.09222  0.020979907  0.020611041            1 
 2754000   0.81728454   -7.7819886     693.2755  0.020977835  0.020605226            2 
 2755000    0.8040171   -7.8087671    691.78015  0.020924989  0.020599428            2 
 2756000   0.82196958   -7.8330062    690.95986  0.020892594  0.020593605            4 
 2757000   0.82240211   -7.8219518    693.32483    0.0209565  0.020587803            3 
 2758000   0.81296166   -7.8210649    693.26593  0.020947122   0.02058201            2 
 2759000   0.81583199   -7.7965436    692.88917  0.020928149  0.020576219            5 
 2760000   0.80463004    -7.773126    694.54816  0.020970657  0.020570443            2 
 2761000   0.83233009   -7.7935065    693.05331  0.020917944  0.020564657            5 
 2762000    0.8143045   -7.8095901    692.81706  0.020903242  0.020558824            2 
 2763000   0.80687034   -7.8183024    692.81393  0.020895583  0.020552982            2 
 2764000   0.81174073    -7.789163    694.25994  0.020931619  0.020547146            4 
 2765000   0.79938024   -7.8148471    692.35745   0.02086671  0.020541267            3 
 2766000   0.81778787   -7.8048037    694.97886  0.020938144   0.02053543            2 
 2767000   0.81231851    -7.795649    694.29359  0.020909938  0.020529588            4 
 2768000   0.80765027    -7.812514     694.0157  0.020894018  0.020523754            2 
 2769000   0.81656763   -7.8077565    694.29891  0.020894996  0.020517961            3 
 2770000   0.80138688   -7.8030147    693.72598  0.020870216  0.020512179            3 
 2771000   0.82062695   -7.8105663    694.45679  0.020884662  0.020506413            3 
 2772000   0.81298993   -7.8311702    693.28412  0.020841875  0.020500622            2 
 2773000   0.81704186     -7.79479    693.41382  0.020838256  0.020494844            3 
 2774000   0.80633231   -7.8071604    694.21116  0.020854697  0.020489067            2 
 2775000   0.81525711   -7.8119329    695.22033  0.020877487   0.02048327            4 
 2776000   0.80440806   -7.8027224    695.79614  0.020887252  0.020477485            2 
 2777000   0.79972649   -7.7871281    694.39724  0.020837752  0.020471684            3 
 2778000   0.78656409    -7.786308    694.02514  0.020819089  0.020465898            4 
 2779000   0.81258446   -7.8239597    694.93116  0.020838766  0.020460126            2 
 2780000   0.80785988   -7.8022414    695.33792  0.020843463  0.020454348            2 
 2781000   0.82040384   -7.8100201    695.76187  0.020848672  0.020448604            4 
 2782000   0.80757972   -7.8022181    694.70773  0.020809601  0.020442854            2 
 2783000   0.80894847   -7.7828896    693.78506  0.020774496  0.020437083            1 
 2784000   0.80388882   -7.8020947    695.40902  0.020815644  0.020431349            5 
 2785000   0.79635937   -7.8084279    694.94598  0.020794314   0.02042557            3 
 2786000   0.81217176   -7.8090189    696.49802  0.020833274  0.020419759            1 
 2787000   0.80607872   -7.8245331    695.35896   0.02079174  0.020413966            1 
 2788000   0.81019255   -7.8049854    693.99482  0.020743509  0.020408176            3 
 2789000   0.79945822   -7.8117222    695.44435  0.020779382  0.020402343            1 
 2790000   0.79685346   -7.8144091    696.63645   0.02080754  0.020396558            2 
 2791000   0.80413317    -7.828147    693.84349  0.020716693  0.020390736            2 
 2792000   0.78367369   -7.8034546    695.44106  0.020756956  0.020384944            9 
 2793000   0.81811467   -7.8210648    697.34152  0.020806227  0.020379196            2 
 2794000    0.8000317   -7.8185156    697.07848  0.020790935  0.020373469            3 
 2795000   0.79349463   -7.8503196    694.18507  0.020697229  0.020367718            4 
 2796000   0.81913056    -7.855637    695.52943  0.020729895  0.020361926            4 
 2797000   0.79844556   -7.8550432    696.89592  0.020763196  0.020356143            7 
 2798000   0.79312075   -7.8257063    696.29448  0.020737863  0.020350373            2 
 2799000   0.79145405   -7.8118846    695.75966  0.020714531  0.020344624            2 
 2800000   0.79572159   -7.8173463     694.8007  0.020678592  0.020338879            6 
 2801000   0.80150964   -7.8576394    696.43891  0.020719949  0.020333144            2 
 2802000   0.79029049   -7.8272049    696.82566  0.020724056  0.020327371            4 
 2803000   0.81572582   -7.8187877    697.62988  0.020740572  0.020321652            1 
 2804000   0.82468782   -7.8132124     697.7084  0.020735509  0.020315959            2 
 2805000   0.79854472   -7.8219248    698.68056  0.020756998  0.020310269            3 
 2806000   0.79843101   -7.8122766    698.05764  0.020731101   0.02030451            2 
 2807000   0.81005726    -7.787602    695.96874  0.020661701  0.020298762            3 
 2808000   0.80708226   -7.8460474    696.77517  0.020678275  0.020292978            3 
 2809000   0.78119176   -7.8575347    695.34867  0.020628595  0.020287151            3 
 2810000    0.8014224   -7.8055972    698.29366   0.02070859  0.020281392            3 
 2811000   0.79512876   -7.8380834    696.60263  0.020651092  0.020275619            2 
 2812000   0.80332773   -7.8156149    697.44384  0.020668677  0.020269838            7 
 2813000   0.78512932   -7.8406331    696.78091  0.020641691  0.020264073            3 
 2814000   0.79234838   -7.7958827    698.13275  0.020674389  0.020258323            3 
 2815000   0.80507379   -7.8287872    697.94626  0.020661523  0.020252564            2 
 2816000   0.79933685   -7.8224679    698.13183  0.020659678  0.020246762            2 
 2817000   0.80347056   -7.8315691     696.5827  0.020606517  0.020240996            5 
 2818000   0.79299585   -7.8349991    697.23441  0.020618477  0.020235225            3 
 2819000   0.79962803   -7.8312346    699.38893  0.020674853  0.020229483            3 
 2820000   0.80556873   -7.8138104      696.786  0.020590603  0.020223738            5 
 2821000   0.80788636    -7.831465    698.76322  0.020641711  0.020218043            2 
 2822000   0.78711752    -7.803059    699.43761  0.020654312  0.020212337            2 
 2823000    0.8074289   -7.8133581    698.59403  0.020622093  0.020206613            3 
 2824000   0.79039454   -7.8094912    697.75364  0.020589992  0.020200885            2 
 2825000   0.79899902   -7.8312149    696.88431  0.020557059  0.020195177            3 
 2826000   0.79667976   -7.8192279    699.24954  0.020619531  0.020189489            2 
 2827000   0.79538571   -7.8035491    700.27356  0.020642423  0.020183816            2 
 2828000   0.79707161   -7.8326735    697.99992  0.020568126  0.020178119            2 
 2829000   0.80922088   -7.8299173    697.63337  0.020550058  0.020172408            4 
 2830000   0.79447409   -7.8070752     698.2504  0.020560966   0.02016667            1 
 2831000   0.79361127   -7.8152069    697.74294  0.020538765  0.020160957            4 
 2832000   0.81163676   -7.8355876    698.79566   0.02056249  0.020155198            3 
 2833000   0.80400239   -7.8372631    696.95191  0.020500998  0.020149447            4 
 2834000   0.80845833   -7.8400702    698.43577  0.020537396  0.020143694            3 
 2835000   0.80633311   -7.8349032    698.98004  0.020546151  0.020137956            2 
 2836000   0.79194358   -7.8360928    698.26223  0.020517814  0.020132234            2 
 2837000   0.80514198   -7.8226279    699.37923  0.020543392  0.020126535            2 
 2838000   0.78487165   -7.8300599    699.02124  0.020525641  0.020120814            2 
 2839000   0.80155527   -7.8438781    698.03847  0.020489564  0.020115082            1 
 2840000    0.7805187   -7.8284999    699.87474  0.020536231  0.020109332            2 
 2841000   0.78882489   -7.8039248    698.57944  0.020491008  0.020103624            3 
 2842000    0.8117456   -7.8427818    699.87328  0.020521736  0.020097905            2 
 2843000   0.79316787   -7.8685952    698.62498  0.020477928  0.020092195            2 
 2844000    0.7925006   -7.8487392    699.37871  0.020492813  0.020086472            2 
 2845000   0.79826891   -7.8616416    699.18087  0.020479814  0.020080753            2 
 2846000   0.79792727   -7.8499577    698.17121  0.020443055  0.020075003            1 
 2847000   0.81555221   -7.8383517    697.66682   0.02042111  0.020069248            1 
 2848000   0.82325564   -7.8403603    698.86206  0.020448913  0.020063517            3 
 2849000   0.80022239   -7.8120582    700.31021  0.020484094  0.020057792            5 
 2850000   0.78558721   -7.8250524    698.87551  0.020434956  0.020052079            2 
 2851000   0.80132031   -7.8541145    698.32274  0.020411632  0.020046361            4 
 2852000   0.79216573   -7.8591008    698.39458  0.020406574  0.020040631            2 
 2853000   0.79390307   -7.8567571    697.77068  0.020381197  0.020034866            3 
 2854000   0.79687826   -7.8423676    700.63121   0.02045758  0.020029098            3 
 2855000   0.78884417   -7.8506535    698.56608  0.020390136  0.020023336            4 
 2856000   0.79047694   -7.8443188     698.3247  0.020375954  0.020017614            2 
 2857000   0.78904544   -7.8509875    699.75531  0.020410551   0.02001189            2 
 2858000    0.8125645   -7.8334347    699.76497  0.020403691   0.02000618            3 
 2859000   0.77902224   -7.8617844    699.59221  0.020391518  0.020000456            1 
 2860000   0.79969558   -7.8506853    699.39729  0.020378709  0.019994741            2 
 2861000   0.78973692   -7.8885462    700.68056  0.020408964  0.019989004            1 
 2862000   0.79113778   -7.8542634    699.99314  0.020381818  0.019983288            3 
 2863000   0.79166644   -7.8479007    699.58826  0.020362914  0.019977564            2 
 2864000   0.78648383   -7.8449528    699.20874  0.020344761  0.019971857            3 
 2865000   0.78511832   -7.8378434    701.92149  0.020416565  0.019966162            2 
 2866000   0.79324204   -7.8294705    700.65898  0.020372732  0.019960492            1 
 2867000   0.78330339   -7.8149646    700.90863  0.020372882  0.019954792            2 
 2868000   0.79425226   -7.8548174    700.44061   0.02035218  0.019949096            2 
 2869000   0.79819073   -7.8579004    700.09866  0.020335153  0.019943385            4 
 2870000   0.81794721   -7.8711073    698.45381  0.020280308  0.019937664            2 
 2871000   0.79658824   -7.8693694    699.12604  0.020292756  0.019931944            4 
 2872000   0.78858784   -7.8737294    698.29517  0.020261582  0.019926235            1 
 2873000   0.79433762   -7.8365464    699.49912  0.020289451  0.019920536            2 
 2874000   0.80361205   -7.8114875    699.57618  0.020284626  0.019914845            2 
 2875000   0.78619569   -7.8347028    700.66279  0.020309066  0.019909182            1 
 2876000   0.80229347   -7.8680727    701.81681  0.020335443  0.019903497            3 
 2877000   0.78768186   -7.8806522    700.90773  0.020302043  0.019897811            3 
 2878000   0.78945861   -7.8354994    703.03186  0.020356493  0.019892159            2 
 2879000   0.80558148    -7.844545    701.13181  0.020294426  0.019886525            2 
 2880000   0.79223095   -7.8478678    702.48941  0.020326661  0.019880897            1 
 2881000   0.78669083     -7.83775    702.82927  0.020329436  0.019875277            2 
 2882000    0.7953285   -7.8640061     702.2207  0.020304785  0.019869605            2 
 2883000    0.7943237   -7.8698833    700.86209  0.020258472  0.019863949            6 
 2884000   0.81020216   -7.8411185    701.89259  0.020281224  0.019858306            3 
 2885000   0.78560213   -7.8475702    701.92428  0.020275109  0.019852646            5 
 2886000   0.78201438   -7.9063717    701.18917  0.020246857  0.019846962            1 
 2887000    0.7859449    -7.866262    703.28072  0.020300217  0.019841281            2 
 2888000    0.7951847   -7.8598783    701.08356  0.020229789  0.019835601            2 
 2889000   0.79571965   -7.8621472    702.08362  0.020251633  0.019829935            2 
 2890000    0.7777338   -7.8568684    702.53495   0.02025764  0.019824269            3 
 2891000    0.7917845   -7.8631537    702.22847  0.020241798  0.019818613            2 
 2892000   0.78547577    -7.848763    702.71319  0.020248766  0.019812983            1 
 2893000   0.76675733   -7.8654992    701.99066  0.020220955   0.01980733            4 
 2894000   0.79164018   -7.8562145    701.42015  0.020197539  0.019801674            2 
 2895000   0.78184712   -7.8781853    701.64085  0.020196916  0.019796019            3 
 2896000   0.76986804    -7.858291    703.57817  0.020245689  0.019790344            1 
 2897000   0.77359426   -7.8253763    703.77249   0.02024429  0.019784711            4 
 2898000   0.78222649   -7.8274885    705.05679  0.020274235  0.019779066            2 
 2899000   0.77073176   -7.8951526    702.23388  0.020186095  0.019773444            2 
 2900000   0.79321445   -7.8298902    702.49624  0.020186673  0.019767821            2 
 2901000   0.79408019   -7.8384328    702.40751  0.020177166  0.019762199            6 
 2902000   0.78754913   -7.8428426    703.18504  0.020192541  0.019756563            2 
 2903000   0.79191195   -7.8284673    703.85844  0.020204916  0.019750928            2 
 2904000   0.78222301   -7.8719163    701.53867   0.02013139   0.01974528            4 
 2905000   0.77858369   -7.8640536    703.67019  0.020185605  0.019739627            3 
 2906000   0.79655694   -7.8617413    704.11559  0.020191431  0.019733981            2 
 2907000   0.78794557   -7.8757282    703.02534  0.020153232  0.019728343            3 
 2908000   0.78480372   -7.8922436    702.38086  0.020127833  0.019722695            3 
 2909000   0.78655096   -7.8615836    702.92624  0.020136537  0.019717044            5 
 2910000   0.79489733   -7.8371252    703.75858  0.020153453  0.019711412            2 
 2911000   0.81014913   -7.8467725    703.94896   0.02015198  0.019705788            5 
 2912000   0.77092893   -7.8256743    703.31848  0.020127017  0.019700163            3 
 2913000   0.78392958   -7.8669934    702.04288  0.020083616  0.019694524            2 
 2914000    0.7828841   -7.8580589    704.11528  0.020135989  0.019688854            3 
 2915000   0.78499207   -7.8766796    702.86271  0.020093273  0.019683192            3 
 2916000   0.79263876   -7.8594056    704.42031  0.020130896  0.019677534            3 
 2917000   0.77366833   -7.8631321    704.69869  0.020131947  0.019671843            2 
 2918000   0.77955831   -7.8710682    704.67918  0.020124491  0.019666166            4 
 2919000   0.76865968   -7.8546222    702.52954  0.020056228  0.019660515            2 
 2920000   0.77176271   -7.8493969    703.55214  0.020078543  0.019654845            1 
 2921000   0.78618153   -7.8683244    702.08046  0.020029683  0.019649176            2 
 2922000   0.79744649   -7.8826255    703.04774  0.020050415  0.019643507            2 
 2923000   0.75842429   -7.8954322    703.42999  0.020054453  0.019637837            2 
 2924000   0.78818719   -7.8921649    702.54383  0.020022339   0.01963216            2 
 2925000   0.78068778   -7.8583096    703.41283  0.020040252   0.01962645            3 
 2926000   0.76479298   -7.8868574    703.34479  0.020031465  0.019620749            2 
 2927000   0.78019296    -7.874934    704.53875  0.020058614  0.019615045            2 
 2928000   0.78748883   -7.8613379    703.65564  0.020026629  0.019609357            2 
 2929000   0.78250184   -7.8849956    703.21582  0.020007278  0.019603678            5 
 2930000   0.78041957   -7.8386871    704.25336  0.020029959  0.019597985            3 
 2931000   0.77646391   -7.8832395     703.5233  0.020002368  0.019592295            2 
 2932000   0.77436119   -7.8803642     703.9009  0.020006278  0.019586603            5 
 2933000   0.78532818   -7.8797368    703.07441  0.019975975   0.01958092            2 
 2934000   0.78190638   -7.9045992    702.39104  0.019949757  0.019575183            2 
 2935000   0.79340576   -7.8825995    703.66546  0.019979144  0.019569465            2 
 2936000   0.76809073   -7.9070074    703.79803  0.019976102  0.019563786            3 
 2937000   0.77449378    -7.893199    701.49224  0.019903877  0.019558018            1 
 2938000   0.77832764   -7.8647504    702.81566   0.01993464  0.019552254            2 
 2939000    0.7983954   -7.9113702     702.6977  0.019924512  0.019546519            2 
 2940000   0.79309522   -7.8746929     703.4046  0.019937772  0.019540799            2 
 2941000   0.76347223   -7.8694102    702.47488  0.019904649  0.019535073            2 
 2942000   0.79845621   -7.8672348    703.72775  0.019933372  0.019529363            3 
 2943000   0.78284734   -7.8468147    703.92734   0.01993225  0.019523639            2 
 2944000   0.77368061   -7.8456538    703.16212  0.019903819  0.019517945            2 
 2945000   0.77568805   -7.9021946    702.64051  0.019882301  0.019512269            2 
 2946000   0.77983365   -7.8882584    702.83536  0.019881064  0.019506549            4 
 2947000   0.77298332   -7.8908463    703.37773  0.019889654  0.019500858            1 
 2948000   0.77532866   -7.8772314    704.05409  0.019902027  0.019495177            2 
 2949000   0.75678531   -7.8764712    702.63038  0.019855046  0.019489472            2 
 2950000   0.78229258   -7.8862608    703.87374  0.019883439  0.019483776            2 
 2951000   0.78737388    -7.909252    703.59605  0.019868859  0.019478062            3 
 2952000   0.77179308   -7.8684075    704.14258  0.019877557  0.019472342            2 
 2953000   0.79019978    -7.873029    703.25151   0.01984568  0.019466641            3 
 2954000   0.79651515   -7.8870703     703.9105  0.019857552  0.019460967            3 
 2955000   0.80047958   -7.8670086    703.64108  0.019843234  0.019455262            2 
 2956000   0.77626779   -7.8800132    703.78272  0.019840514  0.019449553           10 
 2957000   0.77767704   -7.8940884    702.39017   0.01979456  0.019443839            2 
 2958000   0.77595569   -7.8723959    703.47496  0.019818429  0.019438111            2 
 2959000   0.77950039   -7.8930979    702.34796  0.019779992  0.019432383            4 
 2960000   0.80433956   -7.8682053    703.94099  0.019818158  0.019426641            2 
 2961000   0.78983663   -7.8644946    705.19999  0.019846898  0.019420939            2 
 2962000   0.77846594   -7.8957207    704.30732  0.019815083  0.019415201            2 
 2963000   0.76165741   -7.8849431    702.84453  0.019767255  0.019409468            5 
 2964000   0.75323138   -7.8876186    704.64591  0.019811232  0.019403731            2 
 2965000   0.77685996   -7.8738456    703.75443  0.019779495   0.01939799            2 
 2966000    0.7789171   -7.8973284    704.23892  0.019786438   0.01939228            1 
 2967000   0.79073865   -7.9014243    704.42839  0.019785091  0.019386554            2 
 2968000    0.7722441   -7.9274194    701.96102  0.019709148  0.019380811            2 
 2969000   0.77667244   -7.8777067    703.81911  0.019754662  0.019375076            3 
 2970000   0.79191085   -7.9040078    704.94048  0.019779475  0.019369336            2 
 2971000   0.77078202    -7.910468    703.02508  0.019719092  0.019363588            2 
 2972000   0.80277501   -7.8921903    703.98624  0.019739408  0.019357834            1 
 2973000   0.77944712   -7.8960509    702.35291  0.019686986  0.019352075            2 
 2974000   0.77487128   -7.9152364    703.81712  0.019721394  0.019346323            3 
 2975000   0.77321189    -7.886103    705.39302  0.019758908  0.019340605            1 
 2976000   0.77270072   -7.8813574     704.5308  0.019728125  0.019334875            2 
 2977000   0.78616341   -7.9132717    701.04231  0.019623847  0.019329147            2 
 2978000   0.77694175   -7.9004629    703.18852  0.019677315  0.019323394            3 
 2979000    0.7825487   -7.8591138    703.35835   0.01967546  0.019317667            2 
 2980000   0.77673917    -7.878497    704.11305  0.019689962  0.019311961            2 
 2981000   0.76794913   -7.9033366    702.50424  0.019638383  0.019306237            2 
 2982000   0.77274674   -7.9152576    703.21346  0.019651617  0.019300486            1 
 2983000   0.78440745   -7.8836798    704.33757  0.019676432  0.019294746            1 
 2984000   0.74779955   -7.8983398    705.50017  0.019702306  0.019289015            1 
 2985000   0.79557854   -7.8727055    704.44866   0.01966635  0.019283293            4 
 2986000   0.76487595   -7.9230672    704.07708  0.019649394  0.019277533            4 
 2987000   0.75813605   -7.8978881    703.79833  0.019635039  0.019271787            3 
 2988000   0.76240817   -7.8991205    703.28503  0.019614152  0.019266039            5 
 2989000   0.79226626   -7.9200233    702.75528   0.01959282  0.019260266            4 
 2990000   0.76406859    -7.893754    703.38875  0.019603923  0.019254508            4 
 2991000   0.77545206   -7.8802679    705.00821  0.019642489  0.019248737            3 
 2992000   0.78009821   -7.9015685    704.26173  0.019615133  0.019242988            3 
 2993000   0.78172592    -7.884536    704.00108  0.019601322  0.019237233            2 
 2994000   0.76366233   -7.8980533    704.47668  0.019608013  0.019231493            5 
 2995000   0.77510918   -7.8916084    704.36492  0.019598356  0.019225753            2 
 2996000   0.76512398   -7.9023527    703.80071  0.019576121  0.019219995            2 
 2997000      0.78823   -7.9114622    703.98946  0.019574838  0.019214237            2 
 2998000   0.77105909   -7.9101675     703.9685  0.019567726  0.019208483            4 
 2999000   0.77777878   -7.9100633    705.11919  0.019593175  0.019202735            2 
 3000000   0.77838542   -7.9313934    703.89196  0.019552554  0.019196977            1 
 3001000   0.76179155   -7.9102675    704.19858  0.019554553  0.019191194            7 
 3002000   0.77694388   -7.9221919    701.84753  0.019482776   0.01918544            1 
 3003000   0.77997026   -7.9303328    703.55951  0.019523796  0.019179666            3 
 3004000   0.76514878   -7.9139091    703.69569  0.019521074  0.019173893            2 
 3005000   0.77059741   -7.9413016    703.10845  0.019498293  0.019168104            4 
 3006000   0.76502537     -7.92633     704.7908  0.019538445  0.019162324            2 
 3007000   0.75430137   -7.9169875    703.87321  0.019506518  0.019156545            3 
 3008000   0.78510632    -7.929913    704.82519  0.019526407  0.019150805            4 
 3009000   0.79312766   -7.9236494    705.30839    0.0195333  0.019145049            3 
 3010000   0.77382512   -7.9231537    704.26627  0.019497959  0.019139294            2 
 3011000   0.77408523    -7.929587     704.2352  0.019490623  0.019133531            1 
 3012000   0.77298229   -7.9190228    703.58624  0.019466198  0.019127785            1 
 3013000   0.75837396   -7.9219367    703.67855   0.01946229  0.019122026            2 
 3014000   0.77031281   -7.8909574    703.55192  0.019452331  0.019116258            3 
 3015000   0.77369335      -7.9175    704.20018  0.019463797  0.019110518            2 
 3016000   0.78320663   -7.8935959    703.79541   0.01944616  0.019104769            4 
 3017000   0.78073709   -7.8753785    705.49302  0.019486604  0.019099043            1 
 3018000   0.76694757   -7.8919568    704.33623  0.019448206  0.019093291            2 
 3019000   0.75656977   -7.9244535    704.63383  0.019449979  0.019087552            3 
 3020000   0.76396793   -7.8849685    701.88567  0.019367706  0.019081796            2 
 3021000   0.78308159   -7.8988307    704.35759  0.019429482   0.01907605            3 
 3022000   0.74754843   -7.8903708    704.82397  0.019435914  0.019070309            4 
 3023000   0.76708545   -7.9127445    705.38896  0.019445059  0.019064574            3 
 3024000   0.77013381    -7.896068    704.97834  0.019427313  0.019058809            3 
 3025000   0.77908275   -7.9454979     703.8634  0.019390176  0.019053038            2 
 3026000   0.75466441   -7.9277487    704.45136   0.01939996  0.019047269            9 
 3027000   0.77686749   -7.9361628    705.83538  0.019431654  0.019041514            2 
 3028000   0.75647271   -7.9218911    703.75292  0.019367925   0.01903575            3 
 3029000   0.77293243   -7.9336002    704.45907  0.019380958  0.019030008            3 
 3030000   0.75751552   -7.9053704    705.13347   0.01939311  0.019024277            3 
 3031000   0.76989456   -7.9047127     706.9146  0.019435681  0.019018563            5 
 3032000   0.78516165   -7.8895709    705.65436  0.019394634  0.019012829            3 
 3033000   0.76201641   -7.8769079    706.66511   0.01941601  0.019007134            2 
 3034000   0.76942851    -7.901499    703.84463  0.019332142    0.0190014            3 
 3035000   0.77425894   -7.9169216    705.55419  0.019372712  0.018995653            2 
 3036000   0.78284954   -7.8934867    705.37273  0.019361351  0.018989907            3 
 3037000   0.76766701   -7.9309608    705.42141  0.019356311  0.018984145            4 
 3038000   0.78146925   -7.9227308    707.32591  0.019402181  0.018978395            4 
 3039000     0.772153   -7.9359645    705.89667  0.019356605  0.018972626            1 
 3040000   0.77973308   -7.9163819    704.74677  0.019318716  0.018966873            1 
 3041000   0.74987653   -7.9221924    705.75883  0.019340097  0.018961122            3 
 3042000   0.75316556    -7.898034    706.75153  0.019360934  0.018955378            3 
 3043000   0.75595733   -7.8988634    705.70984  0.019326044  0.018949656            2 
 3044000   0.78133696   -7.9029075    708.80034  0.019404302  0.018943957            2 
 3045000   0.75272683   -7.9154688    705.19058   0.01929914  0.018938221            1 
 3046000   0.75726757   -7.9425832    705.08264  0.019289851  0.018932494            6 
 3047000   0.75886543   -7.9155435    705.28118   0.01928895  0.018926748            3 
 3048000   0.76472989   -7.8963856    704.64775  0.019265304  0.018921009            2 
 3049000   0.76107642   -7.9423197    704.46275  0.019253929  0.018915265            2 
 3050000   0.77218106   -7.9651049    705.41697  0.019273688  0.018909518            2 
 3051000   0.76381419   -7.9257146     703.6875  0.019220133  0.018903762            3 
 3052000   0.77155992   -7.9371608     703.6525   0.01921288   0.01889799            3 
 3053000   0.77029541   -7.9145228     704.0849  0.019218389  0.018892243            3 
 3054000   0.76478397   -7.9490636    705.05053  0.019238445  0.018886502            2 
 3055000   0.76283725   -7.9151705    706.33281  0.019267125  0.018880775            3 
 3056000   0.77646918   -7.9417271    705.74982  0.019244923   0.01887505            2 
 3057000   0.74756767   -7.9351986    707.12088  0.019276003   0.01886931            1 
 3058000   0.76658052    -7.911301    706.79429  0.019260799  0.018863571            1 
 3059000   0.78188019    -7.921525    706.80665   0.01925484  0.018857847            2 
 3060000   0.76922931   -7.9024225     706.1575  0.019230869  0.018852118            3 
 3061000   0.77776036    -7.930203    706.99707  0.019247443  0.018846373            1 
 3062000   0.75801969   -7.9546385    704.86411  0.019183108  0.018840631            1 
 3063000   0.76110571   -7.9363357    706.38894   0.01921833  0.018834896            2 
 3064000    0.7729333   -7.9263723    705.29246  0.019182236  0.018829147            3 
 3065000   0.75870463   -7.9057796    706.41182  0.019206412  0.018823417            1 
 3066000   0.77456884   -7.9266524    705.48614  0.019174988  0.018817687            3 
 3067000   0.77180014   -7.9207469     706.6767  0.019201084  0.018811962            4 
 3068000   0.77272733   -7.9538213    705.59761  0.019165515  0.018806225            2 
 3069000   0.76876814   -7.9407879    707.32421  0.019206153  0.018800468            3 
 3070000    0.7745155   -7.9510214    704.68545   0.01912827  0.018794712            3 
 3071000    0.7890412   -7.9287566    706.13947  0.019161497  0.018788966            2 
 3072000   0.76815618   -7.9106723    706.47909  0.019164472  0.018783234            2 
 3073000   0.76135096   -7.9363008    706.65074   0.01916289  0.018777487            2 
 3074000    0.7638115    -7.919993    705.10556  0.019114768  0.018771746            1 
 3075000   0.74988755   -7.9316423     704.1122  0.019081631  0.018766005            3 
 3076000   0.77381742   -7.9492778    704.76304   0.01909306  0.018760242            3 
 3077000   0.75083358   -7.9304505    706.00068  0.019120374  0.018754507            1 
 3078000   0.75820012   -7.9338211    704.06363  0.019061718  0.018748766            3 
 3079000   0.76612801   -7.9331699    706.60375  0.019124276  0.018743023            3 
 3080000   0.75690393   -7.9587925    705.83757  0.019097337  0.018737269            5 
 3081000    0.7439567   -7.9394952    707.24517   0.01912921  0.018731527            2 
 3082000   0.75643374   -7.9175221    706.33385  0.019098363  0.018725806            1 
 3083000    0.7549642   -7.9060729    708.02874  0.019137981  0.018720093            3 
 3084000    0.7747617   -7.9399621    706.30407  0.019085173   0.01871438            5 
 3085000   0.76389934   -7.9598397    705.09423  0.019046306   0.01870863            4 
 3086000   0.75958732   -7.9435026    705.98936  0.019064306  0.018702891            2 
 3087000    0.7539322     -7.94562    706.45118  0.019070597  0.018697125            2 
 3088000    0.7609899    -7.957239    705.00897  0.019025501  0.018691391            3 
 3089000   0.76264803   -7.9461306    707.33782  0.019082168  0.018685641            2 
 3090000   0.74425896   -7.9318906     705.1798  0.019017794  0.018679884            3 
 3091000   0.75142639   -7.9291438    706.14286  0.019037605  0.018674139            5 
 3092000    0.7691161    -7.964436    706.26547  0.019034753  0.018668405            3 
 3093000   0.78142024   -7.9498998    706.56169   0.01903658  0.018662665            4 
 3094000   0.76801932   -7.9704761    706.26464  0.019022426  0.018656914            2 
 3095000   0.76899122   -7.9577252      706.297  0.019017151  0.018651173            1 
 3096000   0.75882137   -7.9517859     706.6324  0.019020037  0.018645463            3 
 3097000   0.75269589   -7.9643917    706.44773  0.019008926  0.018639754            2 
 3098000    0.7646895   -7.9404492    705.97085  0.018989963  0.018634029            1 
 3099000   0.76337121   -7.9700165    705.16095  0.018962056  0.018628304            3 
 3100000   0.77258278   -7.9236454    707.24469  0.019011954  0.018622595            4 
 3101000   0.75279397   -7.9258271     707.6008  0.019015393  0.018616891            2 
 3102000   0.75045109   -7.9593181    706.42087  0.018977565  0.018611193            3 
 3103000   0.76159318   -7.9567047    706.84738  0.018982903  0.018605514            2 
 3104000    0.7514245   -7.9237553    707.12184  0.018984156   0.01859984            2 
 3105000   0.74944906   -7.9312366    707.45306  0.018986931  0.018594181            2 
 3106000   0.75601185   -7.9146544    708.78547  0.019016567   0.01858853            2 
 3107000   0.74541669   -7.9403488    708.10198  0.018992114  0.018582909            4 
 3108000   0.76089541   -7.9443754    708.15722  0.018987484  0.018577278            2 
 3109000   0.77073006   -7.9120851    708.68973  0.018995651  0.018571665            2 
 3110000   0.77116884   -7.8950687    709.24309   0.01900437  0.018566072            3 
 3111000   0.74636358   -7.9070691    708.89002  0.018988804  0.018560454            3 
 3112000   0.74572739   -7.9242331    708.21027  0.018964499  0.018554815            7 
 3113000    0.7500359   -7.9247604    706.99525  0.018925882  0.018549171            4 
 3114000   0.76044294   -7.9364157    709.05787  0.018975002  0.018543514            3 
 3115000   0.74558219   -7.9469714    707.98056   0.01894009  0.018537885            7 
 3116000   0.75284724   -7.9167468    709.56803  0.018976466  0.018532252            2 
 3117000   0.76165036   -7.9337853      707.505  0.018915223  0.018526616            2 
 3118000   0.74130768   -7.9586583    706.08921  0.018871317  0.018520975            2 
 3119000   0.74982281    -7.954646    708.11865  0.018919489  0.018515291            4 
 3120000   0.75475831   -7.9794237    706.81972  0.018878732  0.018509609            3 
 3121000     0.745188   -7.9656183    707.89549  0.018901407  0.018503938            1 
 3122000   0.75238047   -7.9552086    707.26843  0.018878615  0.018498276            2 
 3123000   0.74509706    -7.956719    708.60599  0.018908261  0.018492611            2 
 3124000    0.7578305   -7.9558459    707.44231  0.018871167  0.018486975            2 
 3125000   0.76716737   -7.9279214    707.99328  0.018879821  0.018481363            4 
 3126000   0.75339762   -7.9561373     708.2781  0.018881374  0.018475732            2 
 3127000   0.73864928   -7.9772764     708.1155  0.018871003  0.018470072            2 
 3128000    0.7529401    -7.951143    708.26349  0.018868912  0.018464429            2 
 3129000   0.73787627   -7.9674296    709.45337  0.018894572  0.018458783            2 
 3130000   0.75413546   -7.9305799    709.46478  0.018888839   0.01845317            2 
 3131000   0.75011556   -7.9191867     709.4369  0.018882064  0.018447553            3 
 3132000   0.74847843   -7.9343856    709.95576   0.01888984  0.018441938            3 
 3133000   0.75000058   -7.9373968    708.75034  0.018851749  0.018436346            1 
 3134000   0.74279486   -7.9234531    708.80292  0.018847132  0.018430734            3 
 3135000    0.7437505    -7.943061    709.35338  0.018855752  0.018425116            1 
 3136000   0.74910924   -7.9304408    709.56683  0.018855411  0.018419486            1 
 3137000   0.76539252   -7.9430736    708.91213  0.018832009  0.018413851            1 
 3138000   0.74529363   -7.9409272    710.13391  0.018858453  0.018408227            2 
 3139000   0.76316888   -7.9402985    710.81326  0.018870481   0.01840259            2 
 3140000    0.7613159    -7.957648    708.40886   0.01880066  0.018396957            2 
 3141000   0.76969839   -7.9548334    707.34465   0.01876644  0.018391309            2 
 3142000   0.73675603   -7.9781543    709.27991  0.018811795  0.018385642            4 
 3143000   0.76061361   -7.9728798    707.62303  0.018761879  0.018379985            3 
 3144000   0.74123571   -7.9676172    707.48465  0.018752244  0.018374331            2 
 3145000   0.75366446   -7.9486186    709.52189  0.018800262  0.018368681            5 
 3146000   0.73841502   -7.9754384    709.12793  0.018783851  0.018363052            4 
 3147000   0.75303507   -7.9738975    708.83496  0.018770124  0.018357424            2 
 3148000   0.74534412   -7.9797306    710.66907  0.018812714  0.018351802            1 
 3149000   0.74869444   -7.9743241    711.25381  0.018822214  0.018346183            3 
 3150000   0.74963837   -7.9457355    709.71743  0.018775593  0.018340555            2 
 3151000   0.73686222   -7.9684923     708.5409   0.01873852  0.018334913            3 
 3152000   0.75035133   -7.9618068    709.57178  0.018759829   0.01832929            2 
 3153000   0.74836891   -7.9828206    710.01248  0.018765527  0.018323657            2 
 3154000   0.74306114   -7.9661301    709.54586  0.018747248  0.018318013            3 
 3155000   0.74798962   -7.9408949    709.35465  0.018736256  0.018312378            3 
 3156000   0.73048797   -7.9648931    708.70884  0.018713267  0.018306744            3 
 3157000   0.75444006    -7.948228    708.81072  0.018710028  0.018301134            2 
 3158000   0.72694052   -7.9595256    710.72811    0.0187547  0.018295528            9 
 3159000   0.74955503   -7.9888262     710.2073  0.018735024   0.01828993            2 
 3160000   0.75150534   -7.9588382     708.7145  0.018689728  0.018284335            2 
 3161000   0.76701411   -7.9658185    708.95346  0.018690116  0.018278747            2 
 3162000   0.74274082   -7.9665531    709.91747  0.018709611   0.01827314            1 
 3163000   0.74532707   -7.9645184    710.07868  0.018707943   0.01826755            3 
 3164000   0.73830055   -7.9699406    710.04161  0.018701054  0.018261941            5 
 3165000    0.7255728   -7.9881279    709.10978   0.01867061  0.018256332            4 
 3166000   0.75985807   -7.9875624    708.54892  0.018649951  0.018250714            4 
 3167000   0.74021148   -7.9912121    708.05174  0.018630979  0.018245084            5 
 3168000   0.73698501   -8.0011492    709.54496  0.018664377  0.018239478            2 
 3169000   0.74553304   -8.0074299    709.67989  0.018662036  0.018233853            2 
 3170000    0.7507124   -7.9921884    708.40019  0.018622508  0.018228226            2 
 3171000   0.74817898   -7.9818069    709.35693  0.018641778  0.018222612            2 
 3172000   0.75553045   -7.9943465    708.33668  0.018609097  0.018216979            2 
 3173000   0.73086957   -7.9838834    709.35442  0.018629962   0.01821135            3 
 3174000   0.72347927   -7.9987275    710.17951  0.018645755  0.018205725            2 
 3175000   0.75331627   -7.9636645    710.37932  0.018645126  0.018200101            3 
 3176000   0.74847315   -7.9724198    710.63651  0.018646004  0.018194513            2 
 3177000   0.73198949   -7.9999739    709.90289  0.018620892  0.018188922            3 
 3178000   0.74884678   -7.9965846    709.08725  0.018593645  0.018183315            3 
 3179000   0.74384576    -7.998577    707.89856  0.018556636  0.018177686            4 
 3180000   0.75676129   -7.9835203    709.19534  0.018584784  0.018172055            1 
 3181000   0.74478544   -7.9966622    709.78825  0.018594474  0.018166424            1 
 3182000   0.75231307   -7.9947623    709.04018  0.018569039  0.018160797            2 
 3183000    0.7471707   -7.9777931    709.16933  0.018566586  0.018155182            3 
 3184000   0.74460652   -7.9992826    708.47296  0.018542529  0.018149536            2 
 3185000    0.7256693   -8.0059083    708.72541  0.018543313  0.018143887            3 
 3186000   0.74917581   -8.0120937    707.23572  0.018498528   0.01813824            2 
 3187000   0.73882032   -7.9967666    708.25994  0.018519505  0.018132572            1 
 3188000   0.74404575   -8.0114074    708.11766  0.018509976   0.01812691            3 
 3189000   0.75834127   -8.0021364    709.74482  0.018546692  0.018121265            3 
 3190000   0.74125811   -8.0089715     708.9755  0.018520781  0.018115641            3 
 3191000   0.73853204   -7.9906354    708.22146  0.018495285  0.018110007            2 
 3192000   0.75433256   -7.9838138    708.74004  0.018503029   0.01810437            2 
 3193000   0.74861794   -8.0151742    708.86607  0.018500524  0.018098747            3 
 3194000   0.74148746    -8.001681     709.0868  0.018500491  0.018093111            2 
 3195000   0.71690598    -7.991097    710.02577  0.018519191  0.018087511            3 
 3196000    0.7462263   -7.9747424    711.44479  0.018550396  0.018081905            2 
 3197000   0.70896005   -7.9758621    710.66868  0.018524364   0.01807631            5 
 3198000   0.73629513   -7.9748525    711.27188  0.018534289  0.018070728            2 
 3199000   0.74318364   -7.9896684    711.15494  0.018525449  0.018065147            4 
 3200000   0.72735979   -7.9723149    710.96335  0.018514671  0.018059566            3 
 3201000   0.74595668    -7.987028    709.92265  0.018481793  0.018053977            4 
 3202000    0.7384563   -7.9893535     709.9623  0.018477054  0.018048406            3 
 3203000   0.72559551   -8.0016977    709.74774  0.018465703  0.018042818            2 
 3204000   0.74117054   -7.9883733    710.15228  0.018470461  0.018037221            3 
 3205000   0.74574471   -7.9954208    709.40595  0.018445293   0.01803162            3 
 3206000    0.7301011   -8.0149604    709.67994  0.018446661  0.018026039            2 
 3207000   0.73494921   -7.9948463    710.41118   0.01845991  0.018020466            2 
 3208000   0.72749448   -7.9885173    712.05674  0.018496902  0.018014904            1 
 3209000   0.73788708   -7.9670117    712.12083  0.018492802   0.01800935            3 
 3210000   0.71881447   -7.9746125    709.74303  0.018425312  0.018003819            2 
 3211000   0.72986423    -7.998041    710.73692  0.018445368  0.017998288            5 
 3212000   0.74942966   -7.9847391    709.58173  0.018409655  0.017992737            2 
 3213000   0.73685996   -7.9834075    712.50534  0.018479753  0.017987177            4 
 3214000   0.73759225   -7.9733099    712.49763  0.018473803  0.017981616            1 
 3215000   0.72014127   -7.9960208    711.07268  0.018431122   0.01797606            2 
 3216000   0.74171704   -7.9666899    709.70845  0.018390041  0.017970502            3 
 3217000   0.73084003   -7.9918713    710.72716  0.018410713  0.017964965            3 
 3218000   0.73250705   -8.0220266    709.92681  0.018384266  0.017959391            4 
 3219000   0.72465854   -7.9845512    711.66461  0.018423543  0.017953823            2 
 3220000   0.74982839   -7.9932743    710.87941    0.0183975  0.017948279            4 
 3221000    0.7331377   -8.0113032    711.61845  0.018410909  0.017942749            2 
 3222000    0.7339071   -7.9975877    710.79575  0.018383917  0.017937187            4 
 3223000   0.72825453   -7.9948193    711.42459  0.018394472  0.017931643            3 
 3224000   0.72475331   -7.9718566    711.90881  0.018401282  0.017926094            3 
 3225000   0.73205546   -8.0015776    711.35714  0.018381322  0.017920535            3 
 3226000   0.73901918   -8.0106034    710.98043  0.018365893  0.017914968            3 
 3227000   0.72592149   -7.9760844    710.23737  0.018341013  0.017909416            1 
 3228000   0.74164469   -7.9994522    709.58302  0.018318438  0.017903854            3 
 3229000   0.72083261   -8.0082584    711.27581  0.018356452  0.017898303            1 
 3230000   0.73815589   -7.9811627    710.77172  0.018337764  0.017892756            4 
 3231000   0.73630392   -7.9920207     710.9298  0.018336165   0.01788721            2 
 3232000   0.72904444   -8.0074824    711.23597  0.018338386  0.017881678            3 
 3233000   0.71799248    -8.001779    711.36313  0.018335992  0.017876132            2 
 3234000   0.74298948   -8.0321103    710.03859  0.018296191  0.017870558            2 
 3235000   0.74225645   -8.0087986    711.18736  0.018320128  0.017864981            2 
 3236000   0.74488271   -7.9963441    709.87353  0.018280633  0.017859415            2 
 3237000   0.74221955   -8.0061824     710.0608  0.018279806  0.017853873            3 
 3238000   0.75038112   -8.0259168    710.20768  0.018277941  0.017848332            2 
 3239000   0.73146533   -7.9877648    710.65033  0.018283687  0.017842787            3 
 3240000   0.72970109   -8.0256682    710.85207  0.018283232  0.017837238            4 
 3241000   0.74053477   -8.0109152    710.52182    0.0182691  0.017831688            3 
 3242000   0.72078519   -7.9852904    711.98406   0.01830105   0.01782616            4 
 3243000   0.73780361    -7.990054    710.63454  0.018260729  0.017820639            3 
 3244000   0.73414147   -7.9979648    710.64875  0.018255465  0.017815123            3 
 3245000   0.71087921    -7.994483    710.84859  0.018254972  0.017809608            7 
 3246000   0.74285561     -8.00506    712.14452  0.018282618  0.017804105            3 
 3247000   0.72036829   -8.0127581     711.6512  0.018264326  0.017798595            2 
 3248000    0.7382553   -8.0218804    713.15086  0.018297179  0.017793067            1 
 3249000   0.74777054   -7.9931117    713.38401  0.018297528  0.017787551            3 
 3250000    0.7338193   -8.0159658    711.23616  0.018236825   0.01778205            2 
 3251000   0.73415163   -8.0108123    711.78117  0.018245185  0.017776533            4 
 3252000    0.7336235   -8.0218349    710.61553  0.018209705  0.017770999            3 
 3253000   0.72129973   -7.9979966    711.43449  0.018225087  0.017765476            3 
 3254000   0.71962303   -8.0046266    710.72812  0.018201396  0.017759961            3 
 3255000   0.72413946   -7.9907422    712.05833   0.01822986  0.017754469            3 
 3256000   0.73238538   -8.0133622    713.10823  0.018251132  0.017748974            3 
 3257000   0.73670887   -7.9915501    713.04444  0.018243896  0.017743465            6 
 3258000   0.73415414   -7.9959957    711.24677  0.018192316  0.017737945            4 
 3259000   0.73716262   -8.0071635    712.17731  0.018210528  0.017732448            4 
 3260000   0.74232646   -8.0265419    710.16055  0.018153388  0.017726918            3 
 3261000   0.73001722    -8.002667    711.24414  0.018175512  0.017721381            2 
 3262000   0.73260295   -8.0098909    709.44858   0.01812407  0.017715852            3 
 3263000   0.73322154   -8.0365343    709.85657  0.018128935  0.017710305            2 
 3264000   0.72746286   -8.0273996    711.59359  0.018167729  0.017704781            2 
 3265000   0.72688528   -7.9923178    713.05498  0.018199463  0.017699257            2 
 3266000   0.74088024   -8.0309946    712.58543   0.01818191  0.017693736            6 
 3267000   0.73040903   -8.0183203     711.3314  0.018144358  0.017688215            6 
 3268000   0.72784394    -8.004311    712.03223  0.018156677  0.017682711            2 
 3269000   0.71440672   -8.0230519    711.87522   0.01814712  0.017677202            2 
 3270000   0.72446371   -8.0179382     711.7135  0.018137449  0.017671713            2 
 3271000   0.72623508   -8.0104715    711.26228  0.018120409  0.017666198            1 
 3272000   0.74016037   -8.0150954    711.20055  0.018113299  0.017660675            2 
 3273000   0.72384509   -8.0410486    712.17698  0.018132625  0.017655146            3 
 3274000   0.72118303   -8.0321704     709.3338  0.018054719   0.01764962            1 
 3275000   0.72499369   -8.0170829    711.28953   0.01809897   0.01764409            2 
 3276000   0.72352466     -8.04006    710.53667  0.018074295  0.017638554            2 
 3277000    0.7305832   -8.0371476    711.02068  0.018081087  0.017633036            1 
 3278000     0.728371   -8.0184473    712.29916  0.018108073  0.017627518            3 
 3279000   0.72798226    -8.049597    712.32462  0.018103198  0.017622002            2 
 3280000    0.7343728   -8.0219493    711.90475  0.018087011  0.017616482            3 
 3281000   0.73151024   -8.0273086     711.0074  0.018058707  0.017610977            2 
 3282000   0.72604769    -8.035171    711.06634  0.018054701   0.01760546            3 
 3283000   0.73128325   -8.0327289    710.83447  0.018043316  0.017599963            2 
 3284000   0.72659953   -8.0219296    710.59358  0.018031709  0.017594472            1 
 3285000   0.73769356   -8.0320532    710.72372  0.018029521  0.017588981            2 
 3286000    0.7220748   -8.0256254     713.1149  0.018084675  0.017583489            3 
 3287000   0.73219392   -8.0340343    712.45378  0.018062412  0.017577988            2 
 3288000    0.7188968   -8.0291412    711.77527  0.018039722  0.017572488            3 
 3289000   0.72630921   -8.0270211     712.2724  0.018046833  0.017566975            2 
 3290000    0.7340329   -8.0432242    712.50743  0.018047301  0.017561474            3 
 3291000   0.73036734   -8.0349795    711.55434  0.018017683  0.017555944            4 
 3292000   0.72251424   -8.0077802    711.77242   0.01801773  0.017550432            4 
 3293000   0.71536666   -8.0035312    712.09596  0.018020446  0.017544909            3 
 3294000   0.72529524   -8.0229303    711.89509  0.018009894  0.017539394            3 
 3295000   0.71780776   -8.0561543    711.08148  0.017983851  0.017533879            2 
 3296000   0.73258368   -7.9884125    711.14949  0.017980114  0.017528358            2 
 3297000   0.72236254   -8.0129942    712.09673  0.017998603  0.017522859            3 
 3298000   0.72348362   -8.0166363    712.11727  0.017993665  0.017517364            1 
 3299000    0.7189625   -8.0398908    710.95321  0.017958806  0.017511869            1 
 3300000   0.72628202   -8.0607045    711.57732  0.017969124  0.017506379            1 
 3301000   0.73386591   -8.0374479    710.35765   0.01793289  0.017500884            1 
 3302000   0.70928239   -8.0346971    711.05009  0.017944935  0.017495387            1 
 3303000   0.72691806   -8.0477878     713.0072  0.017988879    0.0174899            2 
 3304000   0.73197157   -8.0199638    712.45718  0.017969562  0.017484418            3 
 3305000   0.73110041   -8.0322866    711.92916  0.017950811  0.017478936            2 
 3306000    0.7339586   -8.0587553    711.67897  0.017939075  0.017473448            8 
 3307000   0.72502934   -8.0320797    712.08734  0.017943941  0.017467951            8 
 3308000   0.71337343   -8.0068946    710.16204  0.017890015  0.017462441            4 
 3309000   0.72898883    -8.047859     711.7891  0.017925584  0.017456933            3 
 3310000   0.72477357     -8.05918    711.88386  0.017922554  0.017451413            1 
 3311000   0.72279402   -8.0315261    709.90845  0.017867423   0.01744591            3 
 3312000   0.72401652   -8.0257677    711.39024  0.017899312  0.017440398            1 
 3313000   0.72346735   -8.0264262     710.5888   0.01787375  0.017434899            2 
 3314000   0.72603447   -8.0437413    710.28504  0.017860718  0.017429387            2 
 3315000   0.73720053   -8.0292903    711.37769  0.017882798  0.017423874            2 
 3316000   0.71834357   -8.0445507    711.51119   0.01788076  0.017418382            2 
 3317000   0.72669426   -8.0525711    711.29567  0.017869955  0.017412869            5 
 3318000   0.72700422   -8.0396694    712.60027  0.017897335  0.017407373            8 
 3319000   0.71661729   -8.0679252    709.92262  0.017824712  0.017401893            4 
 3320000   0.73146051   -8.0384428    711.33288  0.017854741  0.017396405            2 
 3321000   0.72110504   -8.0473731    710.51595  0.017828866  0.017390922            3 
 3322000   0.72718981   -8.0496491     712.4018  0.017870806  0.017385464            2 
 3323000   0.72945024   -8.0383872    712.31086  0.017863147  0.017379993            1 
 3324000   0.72447098   -8.0501303    712.19937  0.017854978  0.017374536            1 
 3325000   0.72856078   -8.0568645    711.56049  0.017833596  0.017369063            4 
 3326000   0.72460247   -8.0251947    713.14923   0.01786804  0.017363604            3 
 3327000   0.71743374   -8.0627957    712.18149   0.01783843  0.017358146            3 
 3328000    0.7157385   -8.0444469    713.21729  0.017859007  0.017352699            3 
 3329000   0.71892298   -8.0483282    712.12379  0.017826269   0.01734724            2 
 3330000   0.72486089   -8.0557631    711.55863  0.017806773  0.017341777            3 
 3331000    0.7185682   -8.0289352    712.07399   0.01781432  0.017336319            2 
 3332000   0.72034175   -8.0493689    711.83373  0.017802964  0.017330844            2 
 3333000   0.73670052   -8.0377949    712.64981  0.017818027  0.017325371            2 
 3334000   0.72334964   -8.0366371     712.8827  0.017818504  0.017319895            1 
 3335000   0.72267807   -8.0227138    712.77444  0.017810456  0.017314428            2 
 3336000   0.71030668   -8.0497505    712.13969  0.017789261  0.017308961            5 
 3337000   0.71041232   -8.0101495    712.42786  0.017791126  0.017303521            3 
 3338000   0.71267719   -8.0380286     712.0869  0.017777284  0.017298064            3 
 3339000   0.72140622   -8.0439576     712.8706  0.017791519  0.017292602            2 
 3340000   0.72315783   -8.0292322     711.8507  0.017760746  0.017287143            3 
 3341000   0.71473106   -8.0659113    710.90107  0.017731744   0.01728167            2 
 3342000   0.72120031    -8.038384    710.98154  0.017728445  0.017276191            3 
 3343000   0.72158447   -8.0433789    710.69127  0.017715906  0.017270716            3 
 3344000   0.72093149      -8.0284    711.65353  0.017734587  0.017265255            3 
 3345000   0.73538206   -8.0534819    711.54573    0.0177266  0.017259784            2 
 3346000   0.72103139   -8.0422965    711.11922   0.01771068  0.017254307            4 
 3347000   0.70352537   -8.0799053    711.33378   0.01771073  0.017248838            3 
 3348000   0.69226363   -8.0777992    711.78558  0.017716686  0.017243348            4 
 3349000   0.71008932   -8.0671126    711.76536  0.017710893  0.017237864            6 
 3350000   0.72031772   -8.0688447    712.79785   0.01773129  0.017232384            3 
 3351000   0.71214459   -8.0441175    712.16742  0.017710321  0.017226911            2 
 3352000   0.71743376   -8.0879118    711.86687  0.017697565  0.017221439            3 
 3353000   0.71821798   -8.0573732    712.13312  0.017698904  0.017215987            3 
 3354000   0.71781411    -8.090433    713.08624  0.017717309  0.017210525            2 
 3355000   0.71393589   -8.0651683    712.56932  0.017699188  0.017205061            3 
 3356000   0.70458705   -8.0425203    711.17164  0.017659208  0.017199618            3 
 3357000   0.69925405    -8.044157    712.05346  0.017675838  0.017194164            2 
 3358000   0.73299296    -8.032551    712.03102  0.017670017  0.017188711            3 
 3359000   0.70424994   -8.0560172    711.09215  0.017641464  0.017183254            3 
 3360000   0.72552652   -8.0586307     711.7728  0.017653095  0.017177789            2 
 3361000   0.73002656   -8.0529006    711.08213  0.017630718  0.017172335            3 
 3362000   0.70289372   -8.0701666    711.35121  0.017632144  0.017166884            1 
 3363000   0.72136217   -8.0552886    712.21678  0.017648349  0.017161439            2 
 3364000   0.72450175   -8.0311225    711.75625  0.017631695  0.017155994            3 
 3365000   0.72320131   -8.0397116    712.24883  0.017638654  0.017150552            6 
 3366000   0.72238317   -8.0576453    711.28486  0.017609548  0.017145114            4 
 3367000   0.70930411   -8.0398358    712.65814  0.017638307  0.017139691            4 
 3368000    0.7254733   -8.0712045    713.39567  0.017651318  0.017134255            2 
 3369000   0.70921929    -8.070351     711.8526   0.01760791  0.017128804            5 
 3370000   0.72691315   -8.0597313    713.09496  0.017633407  0.017123361            2 
 3371000   0.71893794   -8.0555482    710.47827  0.017563489  0.017117926            5 
 3372000   0.70815059   -8.0869661    711.22131  0.017576644  0.017112495            3 
 3373000   0.70052542    -8.045251    713.47046     0.017627  0.017107058            2 
 3374000   0.70378306   -8.0635356    711.62222  0.017576127  0.017101636            5 
 3375000   0.71023247   -8.0950068    711.52447  0.017568505  0.017096201            2 
 3376000   0.71620859    -8.038768    712.50342  0.017587466  0.017090768            3 
 3377000   0.71792182   -8.0312619    711.62152  0.017560495  0.017085338            3 
 3378000   0.71117374   -8.0716372    712.33041  0.017572785  0.017079914            2 
 3379000   0.70845018   -8.0325417    713.85814  0.017605262  0.017074483            1 
 3380000   0.71716918   -8.0713045    712.74694  0.017572656  0.017069032            3 
 3381000    0.7053454   -8.0514392    713.79105  0.017593194  0.017063599            3 
 3382000   0.73079983   -8.0673643    711.67968  0.017535967  0.017058174            2 
 3383000   0.71741692   -8.0619604    712.31641  0.017546468  0.017052755            2 
 3384000    0.7191011   -8.0355007    713.87863  0.017579753  0.017047344            5 
 3385000   0.70022837   -8.0411199    712.46189  0.017539682   0.01704193            2 
 3386000   0.72053115   -8.0272522    711.36312   0.01750746  0.017036506            3 
 3387000   0.71018295   -8.0398378    712.17106   0.01752217  0.017031111            3 
 3388000   0.71342175   -8.0711308    711.52398  0.017501082  0.017025699            2 
 3389000   0.71619743    -8.035331    714.15058  0.017560504  0.017020282            1 
 3390000   0.68505672   -8.0575448    711.41763  0.017488142  0.017014867            2 
 3391000   0.71269716   -8.0355798    713.38741  0.017531392  0.017009453            4 
 3392000    0.7087781   -8.0495919     711.7335  0.017485591  0.017004033            5 
 3393000     0.715553   -8.0486746    711.37306  0.017471585  0.016998605            3 
 3394000   0.71580865   -8.0811753    710.87775  0.017454276  0.016993162            2 
 3395000   0.71897376   -8.0360762    714.38591  0.017535246  0.016987734            2 
 3396000   0.70187751    -8.056419       712.77   0.01749043  0.016982329            6 
 3397000   0.72454626   -8.0506046    712.42501  0.017476818  0.016976948            4 
 3398000   0.71258059   -8.0454283    712.28523  0.017468247  0.016971547            5 
 3399000   0.68885201   -8.0440423    712.52574  0.017469004  0.016966161            5 
 3400000   0.71337605   -8.0427477    713.25418   0.01748172  0.016960799            3 
 3401000     0.696772   -8.0352639    714.12603  0.017497942  0.016955415            2 
 3402000     0.698871   -8.0602523    713.22994  0.017470849  0.016950025            3 
 3403000   0.72772708   -8.0424989    713.34995  0.017468654   0.01694462            2 
 3404000   0.70704319   -8.0533123    712.75162  0.017448874   0.01693922            4 
 3405000   0.70897585   -8.0403018    713.11894   0.01745274   0.01693382            2 
 3406000   0.69355618   -8.0594342    713.04235  0.017445742  0.016928415            3 
 3407000   0.70342366   -8.0639099     712.1319  0.017418352  0.016923017            2 
 3408000   0.71424342   -8.0524682    713.10817  0.017437113  0.016917618            2 
 3409000   0.70801577   -8.0433284    711.18012  0.017384867  0.016912233            2 
 3410000   0.69828978   -8.0466231    713.06866   0.01742592  0.016906844            3 
 3411000   0.71691618   -8.0349724     713.4139  0.017429246  0.016901461            3 
 3412000   0.70291623   -8.0475619    713.54744  0.017427399  0.016896075            4 
 3413000   0.70710126   -8.0534911    713.19185  0.017413611  0.016890682            3 
 3414000   0.70215108   -8.0593588    710.92074  0.017353074  0.016885286            2 
 3415000   0.69988078   -8.0587528    710.43166  0.017336058  0.016879881            2 
 3416000   0.69496145   -8.0701802    712.47329  0.017380789  0.016874494            2 
 3417000   0.71515827   -8.0614068    711.77348  0.017358635  0.016869093            1 
 3418000   0.69660007   -8.0856504    712.08943   0.01736126  0.016863691            3 
 3419000   0.71434222   -8.0407181    712.27804  0.017360779  0.016858281            2 
 3420000   0.70487543   -8.0681313     711.2326  0.017330229  0.016852884            1 
 3421000   0.71776171   -8.0607332    711.98378  0.017343462  0.016847489            3 
 3422000    0.7020953   -8.0678258    714.55717  0.017401061  0.016842112            2 
 3423000   0.70528281   -8.0693785    712.10765  0.017336343  0.016836711            2 
 3424000   0.69565836   -8.0835281    712.44818  0.017339568  0.016831314            4 
 3425000   0.72398515   -8.0735367    711.75679  0.017317683  0.016825925            3 
 3426000   0.71025376    -8.056503    711.84812   0.01731485  0.016820543            1 
 3427000   0.70421131   -8.0875988    713.18332  0.017342265  0.016815151            4 
 3428000   0.70925417   -8.0504346    712.91027  0.017330569   0.01680976            3 
 3429000   0.72134469    -8.093946    712.11178  0.017306109  0.016804369            3 
 3430000   0.72141126   -8.0826842    712.53474   0.01731134   0.01679897            3 
 3431000   0.70092941   -8.0737236    713.18245  0.017322026  0.016793578            1 
 3432000   0.70593105   -8.0726039    711.92673  0.017286488  0.016788179            4 
 3433000   0.71042338   -8.0907578    713.20914  0.017312582  0.016782792            5 
 3434000   0.70589747   -8.0868571     712.1168  0.017281033  0.016777409            2 
 3435000   0.69720538    -8.069779    711.83853  0.017269251  0.016772059            2 
 3436000   0.68972973   -8.0903683    713.63339  0.017307756  0.016766698            3 
 3437000   0.69523499   -8.0767984    713.74056  0.017305319  0.016761342            4 
 3438000   0.71624231   -8.0929579    713.65797  0.017298283  0.016755973            1 
 3439000   0.70458085   -8.0653296    712.52312  0.017265753  0.016750603            5 
 3440000   0.70037425   -8.0715868    711.57291  0.017237716  0.016745231            2 
 3441000   0.70628921   -8.0552259     713.4473    0.0172781  0.016739872            3 
 3442000   0.69958156   -8.0748451    712.60465  0.017252679  0.016734503            2 
 3443000   0.70130373   -8.0618657    711.60116   0.01722338  0.016729127            5 
 3444000   0.68606285   -8.0805429    711.87315   0.01722496  0.016723754            8 
 3445000   0.71980938   -8.0709786    712.53776  0.017236037  0.016718407            6 
 3446000   0.69267554   -8.0663915    712.58492  0.017232176  0.016713071            4 
 3447000   0.69185801   -8.0556005    714.23262   0.01726701  0.016707733            3 
 3448000   0.70841745   -8.0719479    712.64929  0.017223736  0.016702395            5 
 3449000   0.70092706   -8.0916027    712.63883  0.017218489  0.016697046            4 
 3450000     0.704665   -8.1139311    712.99118  0.017222009    0.0166917            3 
 3451000   0.69375931    -8.081195    713.21498  0.017222423  0.016686359            4 
 3452000   0.69658872   -8.0703838    712.93705  0.017210724  0.016681007            3 
 3453000   0.70043995   -8.0920128    711.77559   0.01717771   0.01667566            2 
 3454000   0.70680181    -8.085433    715.33137  0.017258526  0.016670316            1 
 3455000   0.70201752   -8.0719101    712.15861  0.017177004  0.016664952            2 
 3456000   0.69842579   -8.0747903    712.33107  0.017176193  0.016659604            2 
 3457000   0.68722883   -8.0846587    712.88675  0.017184619  0.016654255            3 
 3458000   0.70012327   -8.0958611    712.78835  0.017177279  0.016648912            3 
 3459000   0.69445395   -8.0842654    712.21785  0.017158568   0.01664355            6 
 3460000   0.68981856   -8.0966386    712.62825  0.017163493  0.016638202            3 
 3461000   0.68772942   -8.0892213    713.07469  0.017169284  0.016632857            6 
 3462000   0.70845039   -8.0684566    713.49562  0.017174457  0.016627491            2 
 3463000   0.70084331   -8.0908381    711.27269  0.017116005  0.016622142            4 
 3464000   0.71189946   -8.0783544    713.27293  0.017159183  0.016616807            2 
 3465000   0.68619485   -8.0934272    713.35786  0.017156274   0.01661146            2 
 3466000   0.68961264   -8.0953402    714.23576  0.017172431  0.016606112            2 
 3467000    0.6964434   -8.1192262    712.58924  0.017127902  0.016600786            3 
 3468000   0.70064032   -8.0926937    713.99924  0.017156845  0.016595462            2 
 3469000   0.69861256   -8.1058003    714.20457  0.017156831  0.016590137            4 
 3470000   0.71294301   -8.0922414    713.33697  0.017131051  0.016584818            1 
 3471000   0.69419061    -8.093065    712.12383   0.01709699  0.016579503            2 
 3472000   0.68343892   -8.0744395    713.05919  0.017114516  0.016574191            3 
 3473000   0.69384952   -8.0797523    714.89231  0.017153573  0.016568879            3 
 3474000   0.69914192   -8.1125445     712.9721  0.017102574  0.016563579            3 
 3475000   0.69409858   -8.0961483    714.16246  0.017126198  0.016558265            4 
 3476000   0.68861143   -8.0941747    711.95062  0.017068245  0.016552935            4 
 3477000   0.69845324   -8.1051303    712.48164  0.017076063   0.01654762            3 
 3478000   0.68889856   -8.0768257    713.13525  0.017086814  0.016542301            4 
 3479000   0.69809461   -8.0836778    713.15267  0.017082319  0.016537003            2 
 3480000   0.70319019   -8.0937261    713.86439  0.017094454  0.016531716            3 
 3481000   0.69194844   -8.0756012    714.83975  0.017112893  0.016526418            3 
 3482000   0.69469421   -8.0965935    713.11881  0.017066791  0.016521123            3 
 3483000   0.69738109   -8.1052137    713.98178  0.017082539  0.016515827            1 
 3484000   0.69237183   -8.0894775    713.71209  0.017071185  0.016510525            1 
 3485000   0.70924861   -8.1170946     713.4163  0.017059213  0.016505225            3 
 3486000   0.70068199   -8.0862934     712.5414  0.017033405  0.016499936            3 
 3487000   0.68491084    -8.116028    713.60745  0.017053997  0.016494645            3 
 3488000   0.69702324   -8.1033955    714.01695  0.017058891  0.016489352            4 
 3489000   0.69864556   -8.1050813    713.25678  0.017035846  0.016484049            2 
 3490000    0.7045241   -8.0921338    713.09949  0.017027208  0.016478748            6 
 3491000   0.70388658   -8.1107096     711.8034  0.016991392  0.016473462            4 
 3492000   0.68782741   -8.0902102    711.61958   0.01698214  0.016468166            2 
 3493000    0.6910865   -8.0970271     713.8119  0.017029581  0.016462876            1 
 3494000   0.69461891   -8.0774434    715.43596  0.017063441  0.016457584            4 
 3495000   0.68125541   -8.1168843      713.867  0.017021149  0.016452306            2 
 3496000   0.67793851    -8.099342    713.29723  0.017002699   0.01644703            2 
 3497000    0.7092033   -8.1023665     715.0464   0.01703952  0.016441749            1 
 3498000   0.70268787   -8.0870833     714.2383  0.017015397  0.016436471            2 
 3499000   0.67710549   -8.1206453    713.66323  0.016996838  0.016431194            3 
 3500000   0.69487904   -8.1218613    713.25824  0.016982339  0.016425911            2 
 3501000   0.66916499   -8.1057855    712.89548  0.016968854  0.016420605            4 
 3502000   0.68754134   -8.1023074    712.43926  0.016953152  0.016415309            3 
 3503000    0.6818203   -8.0990225     712.4921   0.01694957      0.01641            5 
 3504000   0.69515306   -8.1316836    712.40941  0.016942766  0.016404687            5 
 3505000   0.69522261   -8.1076072    712.92243  0.016950129  0.016399378            2 
 3506000   0.67750894   -8.1216144    712.62739  0.016938282  0.016394067            2 
 3507000   0.68951986   -8.1294588    713.41186  0.016952092   0.01638878            2 
 3508000   0.68888149    -8.103129    712.22847  0.016919148  0.016383486            4 
 3509000   0.67154766   -8.1115349     712.9853    0.0169323  0.016378196            2 
 3510000   0.68409136   -8.1362691    714.01284  0.016951872  0.016372903            2 
 3511000   0.67651077   -8.1061993    714.46506  0.016957777   0.01636762            3 
 3512000   0.68000399   -8.1137702    711.73988  0.016888285   0.01636235            3 
 3513000   0.69372968    -8.105621    713.30574  0.016920622   0.01635707            3 
 3514000   0.69642373   -8.1050247    712.55397  0.016897979  0.016351797            6 
 3515000   0.69496542   -8.1214337     713.2034  0.016908568  0.016346542            2 
 3516000   0.69814249   -8.1019777    714.31107  0.016930012  0.016341284            3 
 3517000   0.68056637   -8.0864437    713.18894   0.01689861  0.016336025            3 
 3518000   0.69868154   -8.0909858    712.09355  0.016867859  0.016330768            3 
 3519000    0.6923672    -8.119869     711.9084  0.016858682  0.016325511            1 
 3520000   0.66889544   -8.1346068    713.35841   0.01688822  0.016320236            2 
 3521000   0.69611535   -8.1230866    713.74554  0.016892586  0.016314965            1 
 3522000   0.69006841   -8.1012268    714.47055  0.016904944  0.016309683            3 
 3523000   0.69489364   -8.1145751    710.57512  0.016808003  0.016304417            3 
 3524000   0.69217876   -8.1100665    715.19049  0.016912374  0.016299162            2 
 3525000   0.69526135    -8.111648     712.8428  0.016852076  0.016293904            2 
 3526000    0.6835915   -8.1376978    711.91046  0.016825261  0.016288641            4 
 3527000   0.69287689   -8.1304809    712.07049  0.016824272  0.016283374            4 
 3528000   0.68286802   -8.1212735     715.1124  0.016891355  0.016278119            1 
 3529000   0.67458483   -8.1379305    712.87999  0.016833853  0.016272851            3 
 3530000    0.6811597   -8.0903537    713.67648  0.016847887  0.016267594            5 
 3531000   0.68900866   -8.1281356    713.84217  0.016847026  0.016262353            5 
 3532000   0.69194106   -8.1373835    714.00076  0.016845998  0.016257112            4 
 3533000   0.67647259   -8.1368162    712.75583  0.016811865  0.016251859            3 
 3534000   0.68276194   -8.1230865    713.76162  0.016830825  0.016246601            3 
 3535000   0.68833371    -8.113156     712.5541  0.016797598  0.016241364            4 
 3536000   0.68809791   -8.1097172    714.33256  0.016834761   0.01623614            5 
 3537000   0.68618266   -8.1192776    714.35552  0.016830542  0.016230922            2 
 3538000   0.67551919   -8.1125715    713.99687  0.016817337  0.016225698            7 
 3539000   0.67824521   -8.1232237    712.79953  0.016784391  0.016220461            2 
 3540000    0.6683516   -8.1186588    713.90702  0.016805721  0.016215229            4 
 3541000   0.69375165   -8.1275596     713.3517  0.016787906  0.016210011            8 
 3542000   0.67436893   -8.1151879    713.57345  0.016788383  0.016204797            4 
 3543000     0.695732   -8.1277131     714.4351  0.016803911  0.016199591            6 
 3544000   0.67781454   -8.1082486    714.31765  0.016796408  0.016194391            5 
 3545000   0.68544105   -8.0998722    714.30832  0.016791451  0.016189181            3 
 3546000     0.694869   -8.1022265     714.7454  0.016796987  0.016183971            3 
 3547000   0.68015633   -8.1264229    713.52904  0.016763675  0.016178763            4 
 3548000   0.67972372   -8.1256978    713.48181   0.01675784  0.016173536            8 
 3549000   0.68766148   -8.0997527    714.75742  0.016783071  0.016168315            2 
 3550000    0.6843376   -8.1158541    714.07932  0.016762425  0.016163094            2 
 3551000   0.67914661   -8.1226324    712.27785  0.016715429  0.016157867            4 
 3552000   0.67216739   -8.0933005    712.26866  0.016710507  0.016152644            3 
 3553000   0.69852997     -8.11798    713.94545  0.016745132  0.016147436            2 
 3554000   0.68735808   -8.1117849    713.34183  0.016726267  0.016142232            3 
 3555000   0.67268107   -8.1281234    712.19895  0.016694772  0.016137016            2 
 3556000    0.6747743   -8.1361974    715.40201  0.016765139  0.016131789            1 
 3557000   0.69184998   -8.1204585    713.83552  0.016723726  0.016126567            5 
 3558000   0.68432079   -8.1157908    714.82137  0.016742116  0.016121345            7 
 3559000   0.68468438   -8.0997514    713.83768  0.016714379  0.016116128            2 
 3560000   0.68071495     -8.12555    713.56506  0.016703302  0.016110915            3 
 3561000   0.69771178   -8.1202622      713.139  0.016688641  0.016105712            4 
 3562000    0.6823796   -8.1262216    712.91115  0.016678625  0.016100504            4 
 3563000     0.689946   -8.1225971    713.53866  0.016688621   0.01609529            2 
 3564000   0.68249097   -8.1219983    712.91013  0.016669242   0.01609006            4 
 3565000   0.67914515   -8.1210844    713.45323  0.016677261  0.016084845            5 
 3566000   0.69019705   -8.1307503    715.30587  0.016715878  0.016079636            4 
 3567000   0.68367128   -8.1428215     712.4058   0.01664344  0.016074413            2 
 3568000   0.68544963   -8.1286038    713.24796  0.016658444  0.016069187            2 
 3569000   0.69883231   -8.1636822    712.42228  0.016634498  0.016063962            5 
 3570000   0.68464947   -8.1580423    710.99692  0.016596567  0.016058736            6 
 3571000   0.68068264   -8.1352993    713.70695  0.016655161  0.016053508            2 
 3572000   0.68473018   -8.1091464    713.27537  0.016640429  0.016048304            2 
 3573000   0.67846319   -8.1300191    712.35332  0.016614267  0.016043092            2 
 3574000   0.69566651   -8.1498924    713.66159  0.016640123  0.016037871            2 
 3575000     0.674467   -8.1536887    713.51698  0.016632097  0.016032657            2 
 3576000   0.68806686   -8.1426324    711.61368  0.016583093  0.016027441            4 
 3577000   0.68661278   -8.1496894    712.82038  0.016606569   0.01602223            3 
 3578000   0.68284717   -8.1415841    711.98018  0.016582359  0.016017001            4 
 3579000   0.67559952   -8.1256208    713.32371  0.016609009  0.016011779            5 
 3580000   0.68343108   -8.1398591    713.65306  0.016612036  0.016006562            3 
 3581000   0.69863989   -8.1374342    711.81041  0.016564517  0.016001352            3 
 3582000   0.67251096   -8.1649903    713.30847  0.016594744  0.015996138            4 
 3583000   0.68367237   -8.1150036    713.94737  0.016604972  0.015990925            5 
 3584000   0.69103124     -8.12552    714.00533  0.016601686  0.015985727            2 
 3585000   0.67743569   -8.1261602    713.08276   0.01657561  0.015980517            2 
 3586000   0.67578252   -8.1546466    712.28783  0.016552515    0.0159753            7 
 3587000   0.66794383   -8.1219832     713.1387  0.016567668  0.015970077            2 
 3588000    0.6497208   -8.1316666    713.02366  0.016560379  0.015964867            2 
 3589000   0.67972907   -8.1423314    712.37772  0.016540766   0.01595966            3 
 3590000   0.66511368   -8.1252415    712.95064  0.016549458  0.015954469            3 
 3591000   0.67065625   -8.1254931    714.61559  0.016583486  0.015949271            3 
 3592000   0.68024206   -8.1340442    713.60937  0.016555525  0.015944086            3 
 3593000   0.67579807   -8.1287151    713.05465  0.016538052  0.015938908            2 
 3594000   0.67669298   -8.1282135    713.56434  0.016545268  0.015933727            2 
 3595000   0.67572748    -8.128696    713.74245  0.016544795  0.015928547            2 
 3596000   0.68002513   -8.1262165    714.47528  0.016557177  0.015923371            3 
 3597000   0.67448252   -8.1624778    709.86074  0.016445666  0.015918187            1 
 3598000   0.67013597   -8.1562224    713.15693  0.016517439  0.015913003            2 
 3599000   0.69085684   -8.1458452    712.99907  0.016509194  0.015907808            2 
 3600000   0.66703738   -8.1636077     713.5492  0.016517342  0.015902614            1 
 3601000   0.67284766   -8.1465726    712.25449  0.016482794  0.015897421            2 
 3602000   0.66962355   -8.1557228    712.41299  0.016481885   0.01589221            2 
 3603000   0.67532416    -8.150604     712.4514  0.016478199  0.015887008            1 
 3604000   0.66965779   -8.1631974    711.52567  0.016452221  0.015881814            1 
 3605000   0.67854262    -8.163919    712.77458  0.016476528  0.015876619            1 
 3606000    0.6781741   -8.1474119    712.96772  0.016476422  0.015871425            1 
 3607000    0.6629012   -8.1647897    711.92266   0.01644771  0.015866229            3 
 3608000   0.66079947   -8.1635121    713.30657  0.016475115  0.015861027            2 
 3609000   0.67317743   -8.1398706     712.8154  0.016459209   0.01585582            3 
 3610000   0.69318099   -8.1549343    714.01889  0.016482431   0.01585061            1 
 3611000   0.67441968   -8.1705765    710.97621  0.016407648  0.015845406            2 
 3612000   0.66824681    -8.149965    710.52399  0.016392672   0.01584021            1 
 3613000   0.67221106   -8.1521119    712.49449  0.016433584  0.015835016            2 
 3614000   0.67314381   -8.1504316    713.86101  0.016460547  0.015829823            3 
 3615000   0.66883984   -8.1448631    713.16295  0.016439902  0.015824632            2 
 3616000   0.68342571   -8.1543661    712.64536  0.016423427  0.015819445            2 
 3617000    0.6665926   -8.1470872    712.03962  0.016404931  0.015814246            1 
 3618000   0.67337401   -8.1419597    714.10694  0.016448013  0.015809065            2 
 3619000   0.67208876   -8.1549084    712.60428  0.016408867  0.015803893            2 
 3620000   0.66967812   -8.1357247    714.41508  0.016446019  0.015798735            4 
 3621000   0.67538973   -8.1377827    713.08608  0.016410892  0.015793575            4 
 3622000   0.67387737   -8.1343027     711.7856   0.01637644  0.015788411            3 
 3623000   0.67362743   -8.1505201    712.59347  0.016390502  0.015783261            2 
 3624000   0.66611376   -8.1571311    713.50874  0.016407026  0.015778103            6 
 3625000   0.66800565   -8.1559768    712.37619  0.016376464  0.015772939            2 
 3626000   0.66268689   -8.1419056    711.62193  0.016354613  0.015767779            4 
 3627000   0.67703012   -8.1300114    710.71512  0.016329269  0.015762611            3 
 3628000   0.67891526   -8.1489969    711.60563  0.016345223  0.015757458            7 
 3629000   0.67425548   -8.1538058    712.62513   0.01636413  0.015752298            7 
 3630000   0.67034922   -8.1511604    713.95568  0.016390167  0.015747144            4 
 3631000   0.67754377   -8.1501509    714.40096  0.016395872  0.015741983            2 
 3632000   0.66557652   -8.1361132    712.29177  0.016342965   0.01573683            5 
 3633000   0.68310855   -8.1649165    711.81769  0.016327592  0.015731658           11 
 3634000   0.67449175   -8.1430115    710.94409  0.016303066  0.015726484            2 
 3635000   0.65867334   -8.1258156    712.38746   0.01633167  0.015721316            3 
 3636000    0.6651686   -8.1414697    713.15791  0.016344837  0.015716151            3 
 3637000   0.66442146   -8.1601804    712.48315  0.016324882  0.015710977            4 
 3638000   0.67362744   -8.1556021    710.77542  0.016281277  0.015705803            1 
 3639000   0.67823965   -8.1377329    711.30032  0.016288823  0.015700632            3 
 3640000   0.68330408   -8.1426369    710.23411  0.016259938  0.015695454            2 
 3641000   0.67252701   -8.1651367     712.2977  0.016302703  0.015690276            2 
 3642000   0.66935176    -8.169211    711.73436  0.016285337  0.015685104            2 
 3643000   0.65198224   -8.1566255    712.55831  0.016299714  0.015679932            4 
 3644000   0.66731529   -8.1808316    711.60714  0.016273489  0.015674755            2 
 3645000    0.6681268   -8.1604993    711.44468  0.016265311  0.015669577            6 
 3646000   0.67494383   -8.1595558    712.06509  0.016275029  0.015664397            2 
 3647000   0.67517065   -8.1569417    711.01383  0.016246546  0.015659212            2 
 3648000    0.6644617   -8.1596961    712.47537  0.016275479  0.015654022            1 
 3649000   0.65729386   -8.1897958    710.48893  0.016225654  0.015648829            3 
 3650000   0.67163616   -8.1671654    710.84164  0.016229261  0.015643641            3 
 3651000   0.67003004   -8.1871099    713.08922  0.016276117  0.015638454            2 
 3652000   0.68061561   -8.1814618    712.03082  0.016247509  0.015633279            6 
 3653000   0.66117145   -8.1564787    711.17454  0.016223527  0.015628111            2 
 3654000    0.6651764   -8.1721317    711.93402  0.016236408   0.01562295            1 
 3655000   0.66892405   -8.1774534    711.67386  0.016226034  0.015617785            4 
 3656000     0.657124    -8.180234    710.42208  0.016193063  0.015612601            3 
 3657000   0.67666399   -8.1686985    710.99888  0.016201779  0.015607435            5 
 3658000   0.67256979   -8.1993048     711.0316  0.016198095  0.015602268            4 
 3659000   0.67002619   -8.1945464    711.81682  0.016211552  0.015597105            2 
 3660000   0.65205504   -8.2009627    709.83801  0.016162068  0.015591935            2 
 3661000   0.66112661    -8.198349    709.71627  0.016154882  0.015586772            6 
 3662000   0.66717743   -8.1900574     712.1364  0.016205544  0.015581617            3 
 3663000   0.67838519   -8.1771041    712.30259    0.0162049   0.01557647            5 
 3664000   0.67284294   -8.1918587    711.53345  0.016182984  0.015571311            2 
 3665000   0.65560368   -8.1618443    710.88418  0.016163806  0.015566144            2 
 3666000   0.66497875   -8.1727131    709.85509  0.016136004   0.01556099            4 
 3667000   0.67939362   -8.2029889     710.2683  0.016140994  0.015555822            6 
 3668000   0.66498892   -8.1856319    710.92529   0.01615152  0.015550652            3 
 3669000   0.66920819    -8.201636    710.20818   0.01613083  0.015545486            3 
 3670000    0.6647999   -8.2108094    713.07812  0.016191601  0.015540323            3 
 3671000   0.67224855   -8.1976012     711.0965  0.016142207  0.015535163            3 
 3672000   0.66375992   -8.1774049    712.18948  0.016162615  0.015530014            1 
 3673000   0.67405094   -8.1946023    711.30064  0.016138049  0.015524864            9 
 3674000   0.66676403   -8.1824378      711.323  0.016134163   0.01551972            4 
 3675000   0.66347591   -8.2123572    712.55924  0.016157806  0.015514574            4 
 3676000   0.66336201   -8.1915717    712.06262  0.016142152  0.015509427            3 
 3677000   0.65632507   -8.1937957     710.5356  0.016103155  0.015504286            4 
 3678000   0.65343651   -8.1875018     710.5336  0.016098731  0.015499142            4 
 3679000   0.66027247   -8.1975175    712.00685  0.016127726  0.015494006            3 
 3680000   0.67562273   -8.1837028    711.86185   0.01612006  0.015488872            4 
 3681000   0.66845298   -8.1918861    711.92709  0.016117158  0.015483734            5 
 3682000   0.66083925   -8.1752513    711.33499   0.01609938  0.015478593            4 
 3683000   0.66495798   -8.1769291    711.24345  0.016092937  0.015473455            2 
 3684000   0.67735783   -8.2120667    709.36356  0.016046045  0.015468308            9 
 3685000   0.66026802   -8.1920041    711.36652  0.016086986  0.015463153            4 
 3686000    0.6618305   -8.1972957    712.37195  0.016105352  0.015458014            3 
 3687000   0.64852629    -8.192743     710.5042  0.016058769  0.015452876            3 
 3688000   0.65871072   -8.1991137    710.49167  0.016054132  0.015447733            4 
 3689000   0.65141743   -8.2059703    711.09914  0.016063503  0.015442605            4 
 3690000   0.66437187   -8.1814923    712.51157  0.016091047  0.015437479            7 
 3691000   0.66949803    -8.199148    710.34093   0.01603768  0.015432349            4 
 3692000   0.66015343   -8.1946144    712.06808   0.01607232  0.015427222            2 
 3693000   0.66976504   -8.1996389    710.76652  0.016038598  0.015422104            2 
 3694000   0.65120142   -8.2025235    711.69129  0.016055119  0.015416986            2 
 3695000   0.65722859   -8.1707356    712.08956  0.016059756  0.015411866            3 
 3696000   0.66381379   -8.1964507    710.30107  0.016015085  0.015406753            3 
 3697000   0.65662359   -8.1980103    710.22016   0.01600893  0.015401648            2 
 3698000   0.66140364   -8.1885854    712.18915  0.016048971  0.015396533            2 
 3699000   0.64161325   -8.1953961    711.11774  0.016020495  0.015391417            3 
 3700000   0.66200181    -8.202949    712.44553  0.016046071  0.015386311            1 
 3701000   0.66997178   -8.1657014     713.0986   0.01605644  0.015381219            3 
 3702000   0.64386538    -8.204929    712.67684  0.016042608  0.015376128            2 
 3703000   0.66759289   -8.1847119    712.65151  0.016037706  0.015371038            2 
 3704000    0.6634959   -8.2198792    710.83017    0.0159924   0.01536594            3 
 3705000   0.66301792   -8.2080938    710.52839  0.015981295  0.015360849            2 
 3706000   0.67214327    -8.177067    710.56023  0.015977699  0.015355766            1 
 3707000   0.63995243   -8.1815393    712.86462  0.016025191  0.015350691            4 
 3708000   0.64783436   -8.1990434     711.3568  0.015986983  0.015345621            3 
 3709000   0.65751423   -8.1876709     710.9858  0.015974337  0.015340541            3 
 3710000   0.66079382   -8.1909441     710.3487  0.015955721  0.015335468            3 
 3711000   0.65720198   -8.1948844     711.2279  0.015971164  0.015330404            2 
 3712000   0.66731045   -8.1705014    712.76253  0.016001314  0.015325336            5 
 3713000   0.65060061   -8.1896709    712.22083  0.015984847  0.015320269            3 
 3714000   0.66978961   -8.1715665     713.0842  0.015999915  0.015315195            3 
 3715000   0.64742416   -8.1916991    711.41458  0.015958156  0.015310126            4 
 3716000   0.65952912   -8.1875517    712.29139  0.015973524  0.015305047            3 
 3717000   0.66247827    -8.200392    712.14551  0.015965956  0.015299966            7 
 3718000   0.67098843   -8.1966616    710.56571  0.015926253  0.015294891            4 
 3719000   0.63860097   -8.1783037    711.59766  0.015945094  0.015289821            7 
 3720000   0.64961634   -8.1981927    710.81973  0.015923381  0.015284748            2 
 3721000   0.64988634   -8.2221089     711.1302  0.015926055   0.01527967            3 
 3722000   0.65106426   -8.1864374     711.3945  0.015927694  0.015274599            3 
 3723000   0.67907646   -8.1823535    710.82607  0.015910692  0.015269533            3 
 3724000   0.65007844   -8.2290924    711.70045  0.015925986  0.015264474            2 
 3725000   0.65813217   -8.1872803    712.78631  0.015946002  0.015259419            2 
 3726000    0.6547669   -8.2032454    710.42234  0.015888852  0.015254359            2 
 3727000   0.66145097   -8.2372192    710.97635  0.015896976   0.01524929            5 
 3728000   0.66648572    -8.194426    711.90706  0.015913516  0.015244228            2 
 3729000   0.65382463   -8.2236121    710.76061  0.015883629  0.015239163            2 
 3730000   0.64771146   -8.2179718    710.91922  0.015882914  0.015234091            2 
 3731000   0.65334871   -8.2085111    710.35804  0.015866123  0.015229028            3 
 3732000   0.66293771   -8.2203465    711.69967  0.015891829  0.015223963            2 
 3733000   0.64912299   -8.2160177    712.28755  0.015900695  0.015218902            4 
 3734000   0.66779709   -8.1875157    711.36408  0.015875828   0.01521385            7 
 3735000   0.66948598   -8.2017963    711.82361   0.01588183  0.015208812            4 
 3736000   0.66176965   -8.2001359    712.32944  0.015888862  0.015203783            2 
 3737000   0.66397659   -8.2211664    711.68595   0.01587026   0.01519874            3 
 3738000     0.629863   -8.2000289    711.10429  0.015853047  0.015193701            3 
 3739000   0.65977842   -8.2191097    711.60665  0.015860004  0.015188654            2 
 3740000   0.64757697   -8.2113636    711.53685  0.015854208  0.015183603            1 
 3741000   0.65232374   -8.2235891    711.32126  0.015845167  0.015178559            3 
 3742000   0.66198261     -8.18719    712.89811  0.015876049  0.015173516            2 
 3743000   0.63852052   -8.2119677    711.44603  0.015839479  0.015168478            2 
 3744000   0.65108664   -8.2197831    709.32796  0.015788104  0.015163435            2 
 3745000   0.64990288   -8.1992679    711.34505  0.015828773  0.015158395            2 
 3746000   0.65744924   -8.1938574    710.99173  0.015816687  0.015153353            4 
 3747000   0.64123127   -8.1948486    713.08701  0.015859065  0.015148305            5 
 3748000   0.64632256   -8.2140921    711.06595  0.015809898  0.015143275            3 
 3749000   0.65457589   -8.2061112    711.51843  0.015815738   0.01513825            3 
 3750000   0.65505987   -8.1989055    712.29959   0.01582888   0.01513322            3 
 3751000   0.65423184   -8.2359482    710.96065  0.015794914  0.015128181            1 
 3752000   0.65070362   -8.2077557    710.88644  0.015789056  0.015123147            2 
 3753000   0.64292973   -8.2186394    710.17641  0.015769083  0.015118113            2 
 3754000   0.65487248   -8.2419739    711.49799  0.015794219  0.015113078            1 
 3755000   0.64530173   -8.2397415    710.94949   0.01577784  0.015108031            2 
 3756000   0.64565239   -8.2243303    711.15687  0.015778241  0.015102987            4 
 3757000   0.65659211   -8.2368899    710.06932  0.015749918  0.015097955            2 
 3758000   0.65432607   -8.2488627    709.42983  0.015731547  0.015092914            2 
 3759000   0.64714272   -8.2416143    711.46672  0.015772517  0.015087869            2 
 3760000   0.65406297   -8.2404001    709.50151  0.015724767  0.015082826            6 
 3761000   0.63565355   -8.2241286    710.24281  0.015737012  0.015077795            1 
 3762000   0.64118841    -8.220318    711.82909  0.015767967  0.015072769            3 
 3763000   0.64500757   -8.2381554    711.86721  0.015764621  0.015067732            1 
 3764000   0.65083411   -8.2349144    711.55597  0.015753542  0.015062702            2 
 3765000   0.65527982   -8.2175637    711.60318  0.015750402  0.015057676            3 
 3766000   0.65623133   -8.2364187    711.86659  0.015752049  0.015052662            2 
 3767000   0.64854271   -8.2112871    711.40171  0.015737583  0.015047649            2 
 3768000   0.64363634   -8.2323881    711.00197  0.015724566  0.015042629            2 
 3769000    0.6698107   -8.2333188    710.41772  0.015707476  0.015037612            2 
 3770000   0.64992065   -8.2360556    710.72494    0.0157101  0.015032596            4 
 3771000   0.64303569   -8.2420199    710.43624  0.015699554  0.015027565            3 
 3772000   0.65167777   -8.2443729    711.09692  0.015709988   0.01502255            1 
 3773000   0.65863842   -8.2389971    711.25292   0.01570927  0.015017539            3 
 3774000   0.65155401   -8.2384659    711.21445  0.015704258  0.015012528            2 
 3775000   0.64637528   -8.2340588    711.19833  0.015699742  0.015007514            2 
 3776000   0.63499813   -8.2486287    711.64098  0.015705353  0.015002506            1 
 3777000   0.64603602    -8.225231    711.41274   0.01569616    0.0149975            1 
 3778000    0.6428654   -8.2327358    711.33447  0.015690279  0.014992496            3 
 3779000   0.65236203   -8.2426637    711.01947   0.01567918  0.014987491            2 
 3780000   0.65300552    -8.225866    711.23197  0.015679717  0.014982492            5 
 3781000   0.64434385   -8.2429894    709.65666   0.01564085  0.014977483            6 
 3782000   0.63702354   -8.2318327    711.43099  0.015675811  0.014972466            3 
 3783000   0.64960705   -8.2519611    711.03065  0.015662848  0.014967464            2 
 3784000   0.63856555     -8.22699    710.36044  0.015643949  0.014962464            2 
 3785000   0.64740996   -8.2323663    709.62987  0.015623731  0.014957463            5 
 3786000   0.64922125   -8.2418533    710.55287   0.01563992  0.014952463            5 
 3787000   0.65841911   -8.2644192    710.98605  0.015645323  0.014947477            2 
 3788000   0.63229826   -8.2333729    711.66717  0.015656177  0.014942495            4 
 3789000   0.63637439   -8.2370427    711.38805  0.015645906  0.014937516            4 
 3790000   0.65496362   -8.2503919    710.70985  0.015626866  0.014932528            7 
 3791000    0.6376486   -8.2410954    709.19311  0.015589403  0.014927537            1 
 3792000    0.6320606   -8.2432474    709.67839  0.015595956  0.014922541            3 
 3793000   0.63456531   -8.2373246    710.89786  0.015618636  0.014917543            2 
 3794000   0.63650418   -8.2406161    709.91077  0.015592839  0.014912554            3 
 3795000   0.64780191   -8.2419092    710.43682  0.015600281  0.014907568            5 
 3796000   0.63622106   -8.2608409    708.58929  0.015555613  0.014902578            4 
 3797000   0.64771954   -8.2453822    709.59849  0.015573665  0.014897584            4 
 3798000   0.65400211   -8.2500842     710.6191  0.015591959  0.014892598            1 
 3799000   0.63852685   -8.2452745    709.37099  0.015560476  0.014887613            4 
 3800000   0.63661668   -8.2630621    710.45503  0.015580154   0.01488263            3 
 3801000   0.63737802    -8.250391    710.36477  0.015574076  0.014877639            3 
 3802000   0.63756998   -8.2542596    709.94343  0.015560745  0.014872657            4 
 3803000   0.65150811   -8.2404225    711.01123  0.015580052   0.01486768            5 
 3804000   0.63914175   -8.2533754    709.92687  0.015552201  0.014862707            2 
 3805000   0.63678432   -8.2567275    710.59474  0.015562741  0.014857738            5 
 3806000   0.65643812   -8.2444214     709.8798  0.015542998  0.014852766            2 
 3807000   0.62916435    -8.260165    710.70469  0.015556972  0.014847799            2 
 3808000   0.63691959   -8.2514227        709.1   0.01551777  0.014842827            4 
 3809000   0.64707082   -8.2578557    711.31766  0.015562214  0.014837848            3 
 3810000   0.64604079   -8.2464792    710.31753  0.015536254  0.014832882            4 
 3811000   0.63884152   -8.2461254    709.91932   0.01552347  0.014827915            2 
 3812000   0.65140758   -8.2644672    710.26471  0.015526948  0.014822947            2 
 3813000   0.63192923     -8.25239    710.48007  0.015527583  0.014817978            4 
 3814000    0.6464618     -8.26938    710.36968  0.015521099  0.014813019            2 
 3815000   0.64563806   -8.2437443    711.84425  0.015549241  0.014808063            2 
 3816000   0.63287188   -8.2687519    710.77134  0.015521736  0.014803107            2 
 3817000   0.63183372   -8.2595448    710.56118  0.015513081  0.014798159            3 
 3818000   0.65213564   -8.2765023    711.67483  0.015533325  0.014793206            3 
 3819000   0.64401239   -8.2764896    709.22068  0.015475706  0.014788253            2 
 3820000   0.63565837   -8.2637478    709.96609  0.015487917  0.014783284            3 
 3821000   0.64427003    -8.280446    710.45099  0.015494438  0.014778323            5 
 3822000   0.63410867   -8.2699139    710.87743  0.015499682  0.014773365            2 
 3823000   0.63113642   -8.2432558    710.42265  0.015485715  0.014768419            5 
 3824000   0.64720924    -8.275174    709.51315  0.015461845  0.014763469            5 
 3825000   0.65004104   -8.2755078    709.33651  0.015453954  0.014758517            4 
 3826000   0.62763003    -8.279649     710.2139  0.015469026  0.014753562            3 
 3827000   0.63331339    -8.279732    710.45599  0.015470255  0.014748611            4 
 3828000   0.64791196   -8.2705215    710.03139   0.01545697  0.014743657            2 
 3829000   0.66087938   -8.2683805    711.58204  0.015486681  0.014738714            2 
 3830000   0.64887016   -8.2655694    710.42625   0.01545749  0.014733766            1 
 3831000   0.64127756   -8.2608074    709.47044  0.015432664  0.014728818            2 
 3832000   0.64120862   -8.2783655    710.43693  0.015449655  0.014723876            3 
 3833000   0.64517968   -8.2732184    710.95288  0.015456841  0.014718937            2 
 3834000   0.63786521   -8.2617194    710.84083  0.015450374  0.014713996            2 
 3835000   0.65789753   -8.2757725    708.79405   0.01540187  0.014709064            2 
 3836000   0.62875693     -8.23691    710.66424  0.015438483  0.014704134            3 
 3837000   0.63881843   -8.2642289    710.47445  0.015430337  0.014699206            2 
 3838000    0.6318723   -8.2826433    709.45644  0.015404213  0.014694281            3 
 3839000   0.63550699   -8.2785835    710.72612  0.015427762  0.014689354            4 
 3840000   0.64501229   -8.2700493     709.5468  0.015398151  0.014684428            2 
 3841000   0.63337802   -8.2633949    709.65791  0.015396553  0.014679492            3 
 3842000   0.65096656    -8.276603    711.50015  0.015432504  0.014674565            3 
 3843000   0.64136227   -8.2648198    711.21097  0.015422217  0.014669638            3 
 3844000    0.6384055   -8.2771743    709.52245    0.0153816  0.014664706            3 
 3845000   0.62148199   -8.2590566    710.70408  0.015403209  0.014659784            2 
 3846000     0.625583    -8.271456     709.3338  0.015369514  0.014654864            1 
 3847000   0.63539719   -8.2857341    709.13432  0.015361197  0.014649948            1 
 3848000   0.63818164   -8.2595028    709.96595  0.015375215  0.014645026            2 
 3849000   0.63637548   -8.2545618    709.37513  0.015358429  0.014640105            2 
 3850000   0.62869391   -8.2724647    708.54457  0.015336463  0.014635188            2 
 3851000   0.64475006   -8.2744301    710.01925  0.015364391  0.014630274            2 
 3852000   0.62817567   -8.2965778    709.28785   0.01534458  0.014625357            2 
 3853000   0.62891921   -8.2820413    708.60583  0.015325846  0.014620434            2 
 3854000   0.62541913   -8.2650836    709.70912  0.015345726   0.01461552            3 
 3855000   0.64656984   -8.2769462    710.37926  0.015356231  0.014610607            2 
 3856000   0.66467845   -8.2711626    710.27631  0.015350024  0.014605704            3 
 3857000   0.62235149   -8.2626188    709.60919  0.015331631  0.014600797            2 
 3858000   0.65425002   -8.2698771    709.92422  0.015334461  0.014595895            3 
 3859000   0.65328981    -8.285507    709.83531  0.015328568  0.014590995            2 
 3860000   0.63935792   -8.2872724    709.72776  0.015322275  0.014586092            1 
 3861000   0.62495405   -8.2711489    710.80834  0.015341629  0.014581193            1 
 3862000   0.63326554   -8.2589315    711.15804  0.015345202  0.014576296            3 
 3863000    0.6240794    -8.253565    710.04575  0.015317235  0.014571412            3 
 3864000   0.62720316   -8.2686196    709.81025  0.015308192  0.014566529            5 
 3865000   0.63515417   -8.2646974    710.42651  0.015317519  0.014561652            1 
 3866000   0.64347553   -8.2831452    709.34299  0.015290201  0.014556774            4 
 3867000    0.6430929   -8.2710266    710.04273  0.015301326  0.014551881            4 
 3868000    0.6342209   -8.2713244    710.06202  0.015297786  0.014546997            4 
 3869000   0.63553938   -8.2789183    710.34237   0.01529987  0.014542113            2 
 3870000   0.63736082    -8.286476    709.19972  0.015271312  0.014537234            4 
 3871000   0.63652306   -8.2666897    710.46917  0.015294695  0.014532356            3 
 3872000   0.63780199   -8.2741127    710.83986  0.015298723  0.014527472            1 
 3873000   0.63541226   -8.2584477    709.40537  0.015263908  0.014522589            1 
 3874000   0.63733914   -8.2806982    710.18637  0.015276768  0.014517712            4 
 3875000   0.63783651   -8.2738918    710.59324  0.015281575  0.014512838            4 
 3876000   0.63147339   -8.2811859    709.63517  0.015257034  0.014507962            2 
 3877000   0.63325985   -8.2934992    709.90154  0.015258824   0.01450309            2 
 3878000   0.63561163   -8.2816637    708.39325  0.015222478  0.014498217            1 
 3879000   0.62395479   -8.2902163     710.5691  0.015265298  0.014493352            2 
 3880000   0.63214308   -8.2675471    711.09849  0.015272734  0.014488485            2 
 3881000   0.63534627    -8.275698    709.91258  0.015243335  0.014483623            1 
 3882000   0.63599795   -8.2957806     710.5272  0.015252602  0.014478759            2 
 3883000   0.62729389   -8.2757456    707.97708  0.015193945  0.014473893            3 
 3884000   0.64463889   -8.2918586    708.69589  0.015205456  0.014469033            1 
 3885000   0.65119534   -8.2717511    708.84613  0.015204765  0.014464165            2 
 3886000   0.63156115   -8.2890101    708.30526  0.015189253  0.014459293            2 
 3887000   0.62426808    -8.285453     709.9741  0.015221124  0.014454423            3 
 3888000    0.6348694   -8.3062989    708.93717  0.015194984  0.014449559            2 
 3889000   0.61562002   -8.2701299    708.71084  0.015186227   0.01444469            2 
 3890000   0.62363886   -8.2921671    709.48693  0.015198949  0.014439829            2 
 3891000   0.62666388   -8.2895756    709.63846  0.015198288  0.014434977            2 
 3892000   0.62245396   -8.2866747    710.09836   0.01520423  0.014430125            3 
 3893000   0.63846084   -8.2839882    709.36285   0.01518458  0.014425279            2 
 3894000    0.6214772   -8.2738515    709.87751  0.015191695  0.014420428            2 
 3895000   0.63994509   -8.2707095    709.98166  0.015190023  0.014415586            2 
 3896000   0.61996034   -8.2788175     708.8575  0.015162079  0.014410749            3 
 3897000   0.63501559   -8.2774112    708.98509  0.015160916  0.014405911            2 
 3898000   0.63039471     -8.27435    709.36154  0.015165075   0.01440107            2 
 3899000    0.6423311   -8.2948919    708.97177  0.015152855  0.014396233            4 
 3900000   0.62499381   -8.2935277    709.61852  0.015162789  0.014391408            2 
 3901000   0.63063141   -8.2786872    709.97371   0.01516649  0.014386578            2 
 3902000   0.64185522   -8.2901735    710.15849  0.015166549  0.014381747            1 
 3903000   0.62685758   -8.2924713     709.5339  0.015149327  0.014376918            2 
 3904000   0.61855804   -8.2752497    710.12029  0.015157964  0.014372098            2 
 3905000   0.62834805   -8.2762073    710.16913  0.015155124  0.014367273            3 
 3906000   0.62194355   -8.2763542    709.45075  0.015135918  0.014362449            3 
 3907000   0.63672881   -8.3067126    709.95369  0.015142771   0.01435763            3 
 3908000   0.62613405   -8.2958711    710.09019  0.015141807  0.014352809            3 
 3909000   0.63068785   -8.2812656    709.42635  0.015123782  0.014347985            2 
 3910000   0.62935468    -8.273579    709.98665  0.015131855  0.014343167            4 
 3911000   0.62436954   -8.2963629    709.67097   0.01512126  0.014338354            3 
 3912000   0.62161792   -8.2997401    708.96839  0.015102428  0.014333542            1 
 3913000   0.62617246   -8.3108825    709.27113  0.015105016   0.01432872            2 
 3914000    0.6299561   -8.2564496    708.84674  0.015092121  0.014323904            1 
 3915000   0.61193226   -8.3002972    709.52681  0.015102742  0.014319091            5 
 3916000   0.63771241    -8.281239    708.71324  0.015081572  0.014314277            3 
 3917000   0.64593695   -8.2704493    711.26232  0.015131953  0.014309472            5 
 3918000   0.63133504   -8.3063644    710.12285  0.015103855   0.01430467            3 
 3919000   0.62260537   -8.2979998       710.13  0.015100153  0.014299859            5 
 3920000   0.63996699   -8.3020183      709.676   0.01508665  0.014295054            2 
 3921000   0.63837769    -8.304881     708.4083   0.01505586  0.014290246            1 
 3922000   0.62613981   -8.2850921    709.82436  0.015082109  0.014285438            3 
 3923000    0.6142225   -8.3009324     709.3655  0.015068517  0.014280633            5 
 3924000   0.61707773   -8.3033969    709.63541  0.015070409  0.014275829            4 
 3925000   0.62037497     -8.28745    709.01555  0.015053409  0.014271029            4 
 3926000   0.61587459   -8.2898123    709.11771  0.015051743  0.014266227            5 
 3927000   0.61932813    -8.302655    709.44917  0.015054944  0.014261431            4 
 3928000   0.62864752   -8.2930512     709.0096  0.015041786  0.014256633            3 
 3929000   0.62226421   -8.2927461    709.88035  0.015056426  0.014251837            1 
 3930000   0.62416982   -8.2807601    708.28828  0.015018835  0.014247055            2 
 3931000   0.61593274    -8.308903    709.35325  0.015037591   0.01424226            2 
 3932000   0.62308308   -8.2978647    709.71016  0.015041331  0.014237466            5 
 3933000   0.61987329   -8.3004011    710.28704   0.01504973  0.014232675            2 
 3934000   0.63904132     -8.30427    709.98483  0.015039502  0.014227881            4 
 3935000   0.62610524   -8.3025983    709.29039  0.015020974  0.014223093            2 
 3936000    0.6293552   -8.2994976     708.7389  0.015005481  0.014218311            2 
 3937000   0.62668597   -8.3215701    708.12854  0.014988751  0.014213526            5 
 3938000   0.62724021   -8.3109308    708.88348   0.01500092  0.014208744            2 
 3939000   0.61982799   -8.3091464     709.9061  0.015018746   0.01420396            3 
 3940000   0.63449049   -8.3033501     708.8705  0.014993031  0.014199176            2 
 3941000    0.6348601   -8.3199404    708.59329  0.014983365  0.014194391            3 
 3942000   0.61612713   -8.2987309    707.55005   0.01495751  0.014189605            2 
 3943000   0.61992557   -8.3000744    709.76169  0.015000458  0.014184821            3 
 3944000   0.62342703   -8.2936397    709.59932  0.014993224  0.014180046            2 
 3945000   0.62201194   -8.2989202    708.51419  0.014966502  0.014175274            2 
 3946000    0.6124252   -8.2813378    707.94596  0.014950709    0.0141705            2 
 3947000   0.61842865   -8.3139781    708.16811  0.014951611  0.014165722            4 
 3948000   0.61916892   -8.3091709     708.3123  0.014950868  0.014160937            2 
 3949000   0.61532324   -8.3177461    708.86727  0.014958793  0.014156158            3 
 3950000   0.62289576   -8.2928547    709.21017   0.01496224  0.014151379            3 
 3951000   0.61158694   -8.3038924    709.39372  0.014962324  0.014146601            2 
 3952000   0.61020672   -8.2991879     709.2434  0.014955369  0.014141834            2 
 3953000   0.63020344   -8.2980782    708.87336  0.014943784  0.014137063            5 
 3954000   0.61702712   -8.2764515    709.77446  0.014958996    0.0141323            3 
 3955000   0.60850933   -8.2991795    708.96656  0.014938191  0.014127532            2 
 3956000   0.63042337   -8.2985607    709.17922  0.014938895  0.014122768            3 
 3957000   0.60529326   -8.2987099    709.00843  0.014931523  0.014118002            3 
 3958000   0.60788923   -8.3304002    708.02073  0.014906955  0.014113233            2 
 3959000   0.61630029   -8.3424168    707.61856  0.014894724  0.014108471            2 
 3960000   0.61993924   -8.3149884    708.05943  0.014900241  0.014103711            3 
 3961000   0.61182125   -8.3084804    708.78791  0.014911805  0.014098955            2 
 3962000   0.61837924   -8.2953631    709.16514  0.014915976  0.014094202            4 
 3963000   0.62683825   -8.2989235    708.90613  0.014906765  0.014089441            3 
 3964000   0.61536743   -8.3134115    708.70705   0.01489882  0.014084691            4 
 3965000   0.62672179   -8.3078548    709.10908  0.014903512  0.014079943            3 
 3966000   0.62875302   -8.3239972     709.1517  0.014900649  0.014075198            2 
 3967000    0.6143798   -8.3243421    708.28572  0.014878702  0.014070451            4 
 3968000   0.61164752   -8.3122151    708.36807  0.014876682    0.0140657            2 
 3969000   0.61133767    -8.315071    708.94854  0.014885121  0.014060958            2 
 3970000    0.6102829   -8.3177917     709.1389  0.014885367  0.014056218            2 
 3971000   0.62802359   -8.3257316     707.9446  0.014856556  0.014051476            3 
 3972000   0.61730561   -8.3273891    708.20712  0.014858323  0.014046729            2 
 3973000   0.60920786   -8.3259179    709.45452  0.014880747  0.014041985            2 
 3974000   0.62322785   -8.3134149    708.40652  0.014855027  0.014037245            1 
 3975000   0.61910342   -8.3255095    708.18888  0.014846727  0.014032512            3 
 3976000   0.60768214   -8.3212385    708.88253  0.014857531   0.01402778            2 
 3977000   0.60749892   -8.3267853    708.39738   0.01484363  0.014023041            2 
 3978000   0.61767926   -8.3185106    708.97832  0.014852068  0.014018307            2 
 3979000   0.60636037   -8.3341762    708.50957  0.014838518  0.014013576            3 
 3980000    0.6150478   -8.2961048    707.48812  0.014813403  0.014008847            2 
 3981000   0.62056595   -8.3140046    708.87368  0.014838685  0.014004119            2 
 3982000   0.61313864   -8.3004602    708.18181   0.01482048  0.013999397            3 
 3983000   0.61434821   -8.3298556    708.21972  0.014817552  0.013994674            3 
 3984000   0.59690338   -8.3190405    710.44707  0.014860422  0.013989955            3 
 3985000    0.6003646   -8.3212954    708.44852    0.0148149   0.01398523            1 
 3986000   0.60342718   -8.3238126    709.17479  0.014826367  0.013980508            2 
 3987000   0.60722127   -8.3245907    707.40075  0.014785569   0.01397579            1 
 3988000   0.62355933   -8.3259791     708.1887  0.014798326  0.013971072            2 
 3989000   0.60917587   -8.3002973     707.6977  0.014784359   0.01396636            3 
 3990000   0.61385275   -8.3020732    708.01814  0.014787346  0.013961644            3 
 3991000   0.62599489   -8.3117648    709.53654  0.014815346  0.013956933            3 
 3992000   0.61454369   -8.3298943    707.79823  0.014775347  0.013952218            3 
 3993000   0.61964161   -8.3422366    708.55015  0.014787339  0.013947506            2 
 3994000   0.61552291   -8.3412152    708.28231  0.014778048  0.013942797            2 
 3995000   0.62014511   -8.3385533    708.54535  0.014779836  0.013938094            2 
 3996000   0.61641197   -8.3499903    707.64451  0.014757351  0.013933382            2 
 3997000   0.60781639   -8.3336505    707.54852  0.014751658  0.013928673            1 
 3998000   0.60397065    -8.295348    709.20759  0.014782549  0.013923975            3 
 3999000   0.62010846   -8.3276172    709.51748   0.01478531  0.013919276            6 
 4000000   0.61173744   -8.3335353    707.52025  0.014740005  0.013914579            5 
 4001000   0.62932961   -8.3254191    708.82994    0.0147636  0.013909886            2 
 4002000   0.60541718   -8.3326365    707.19503  0.014725867  0.013905187            3 
 4003000   0.61116887   -8.3310479    707.95045  0.014737914  0.013900488            2 
 4004000   0.62228623   -8.3168198    707.69125  0.014728839  0.013895792            3 
 4005000   0.60167417   -8.3455759    707.71019  0.014725555  0.013891096            2 
 4006000   0.61614649   -8.3341773    707.54739  0.014718493  0.013886404            3 
 4007000   0.62050889   -8.3392454    708.31984  0.014730884  0.013881706            3 
 4008000   0.60802296   -8.3442847    706.98606  0.014699477  0.013877003            6 
 4009000   0.62624195   -8.3361513    706.84356  0.014692849  0.013872307            2 
 4010000   0.61173088   -8.3307025    707.61848  0.014705288  0.013867614            3 
 4011000    0.6084981   -8.3553513    706.85403   0.01468574  0.013862922            3 
 4012000   0.62075941   -8.3200402    708.33284  0.014712796  0.013858238            3 
 4013000   0.60357167   -8.3267072    708.30595  0.014708571  0.013853551            2 
 4014000    0.6084967   -8.3546764    707.91543  0.014696799   0.01384887            3 
 4015000   0.60408361    -8.339013    708.05352  0.014696005  0.013844191            5 
 4016000   0.61822388   -8.3225088    708.53977  0.014702436  0.013839516            2 
 4017000   0.61956629   -8.3388537    707.10767  0.014669066  0.013834835            3 
 4018000    0.6168943   -8.3420884    708.14276  0.014686883  0.013830158            2 
 4019000   0.59868183   -8.3184246    707.74703  0.014675023  0.013825486            2 
 4020000    0.6261983   -8.3314761    707.30629  0.014662237   0.01382081            2 
 4021000   0.59788095   -8.3327425    708.87028  0.014691003  0.013816146            3 
 4022000     0.597312   -8.3256839    708.04209  0.014670191  0.013811479            4 
 4023000   0.59819995   -8.3405418    708.96797  0.014685723  0.013806815            3 
 4024000   0.59819472   -8.3517322    708.86842  0.014680012  0.013802153            1 
 4025000   0.60521562   -8.3575338     708.2681  0.014663936  0.013797493            3 
 4026000   0.59935574   -8.3370747    708.31365  0.014661236  0.013792836            3 
 4027000   0.61227383   -8.3240184    707.66938  0.014644263  0.013788177            2 
 4028000   0.60306231   -8.3360643    708.56938  0.014659247   0.01378352            7 
 4029000   0.61446959   -8.3246336    709.01701  0.014664867  0.013778866            2 
 4030000    0.6149809   -8.3406847    707.06585  0.014620882   0.01377421            7 
 4031000     0.598406   -8.3398618    708.55145  0.014647967  0.013769558            8 
 4032000   0.60476387   -8.3500952    706.81068  0.014608356  0.013764906            5 
 4033000    0.6264005   -8.3307913    707.49635  0.014618901  0.013760259            5 
 4034000   0.60003069   -8.3349152    707.27819  0.014610771  0.013755615            6 
 4035000   0.60644767   -8.3506658    708.07392  0.014623584  0.013750972            6 
 4036000   0.59119915   -8.3522934    708.04496  0.014619362  0.013746329           11 
 4037000     0.609345   -8.3365008    708.05917  0.014616034  0.013741687            6 
 4038000   0.60700484   -8.3320746     710.1918  0.014656426  0.013737055            2 
 4039000   0.60744989   -8.3351045    708.04368  0.014608477  0.013732427            2 
 4040000   0.61697592   -8.3533101    708.33737  0.014610919  0.013727794            1 
 4041000   0.59892304   -8.3109967    708.58154  0.014612339  0.013723164            1 
 4042000   0.60484324   -8.3684698    707.32112  0.014582738  0.013718532            2 
 4043000   0.61440529   -8.3518236    708.47185  0.014602849  0.013713897            4 
 4044000   0.60333529   -8.3487238    708.42335  0.014598239   0.01370926            3 
 4045000   0.60603429   -8.3417738    707.99932  0.014585895  0.013704633            3 
 4046000   0.61277261   -8.3534811    707.90241  0.014580293  0.013700003            2 
 4047000    0.6042095   -8.3447183    707.09269  0.014560017  0.013695374            5 
 4048000   0.59429621    -8.339224    709.20722  0.014599951  0.013690747            8 
 4049000   0.60986656   -8.3349911    708.02756  0.014572066  0.013686128            6 
 4050000   0.60753693   -8.3569267    708.95927  0.014587639  0.013681509            4 
 4051000   0.60838058   -8.3376038    708.29001  0.014570271  0.013676888            3 
 4052000   0.60611203    -8.345601    706.65502   0.01453305  0.013672267            2 
 4053000   0.60003407   -8.3439147    707.24022  0.014541496   0.01366765            4 
 4054000   0.61013993   -8.3454296    707.80577  0.014549535  0.013663033            4 
 4055000   0.61544547   -8.3681916    707.53684   0.01454042  0.013658414            2 
 4056000   0.60392818   -8.3498338     707.5013  0.014536105  0.013653802            2 
 4057000   0.60211219   -8.3519476    708.36305  0.014550223  0.013649187            3 
 4058000   0.60817972   -8.3339551    707.97188  0.014538604  0.013644572            1 
 4059000   0.60053458   -8.3428636    707.35576  0.014522373   0.01363996            5 
 4060000   0.60218019   -8.3563691    706.55576  0.014502376  0.013635347            3 
 4061000   0.60534939   -8.3622381    707.42172  0.014516575  0.013630742            2 
 4062000   0.60829778   -8.3640013     708.5932  0.014537034  0.013626131            2 
 4063000   0.60259724   -8.3601238    707.92916  0.014519837  0.013621528            2 
 4064000    0.5968764   -8.3578075    707.91451  0.014515963  0.013616923            2 
 4065000   0.58767095   -8.3588246    708.37401  0.014521812  0.013612323            3 
 4066000   0.60287053   -8.3446518    708.44706  0.014519738  0.013607723            2 
 4067000   0.59522985   -8.3523166    708.06305    0.0145083   0.01360313            2 
 4068000   0.61259421   -8.3557497    708.17125  0.014506949  0.013598541            3 
 4069000   0.59826871     -8.34777    706.91094  0.014477573  0.013593943            3 
 4070000   0.58479653   -8.3706864    708.27244  0.014501893  0.013589353            3 
 4071000    0.5914759   -8.3603084    707.80664  0.014488796  0.013584764            3 
 4072000   0.61525101   -8.3454747    707.39661  0.014476846  0.013580177            3 
 4073000   0.60441428   -8.3428731    707.95345  0.014484685  0.013575589            3 
 4074000   0.60633184   -8.3539684    707.75443  0.014477058  0.013571005            3 
 4075000   0.60660631   -8.3539363    706.58512  0.014449593  0.013566424            2 
 4076000   0.60140556   -8.3527502    707.48571  0.014464461  0.013561845            3 
 4077000   0.58965363   -8.3441811    707.44425  0.014460066  0.013557267            3 
 4078000   0.60199498   -8.3301629    708.79725  0.014484168  0.013552696            4 
 4079000   0.60146261     -8.34371     708.0327  0.014464998  0.013548127            2 
 4080000   0.61092246   -8.3711675    706.77492  0.014435762  0.013543559            3 
 4081000   0.59869251   -8.3624004    706.86567  0.014434078   0.01353899            3 
 4082000   0.58936972   -8.3588818    706.98056  0.014432888  0.013534421            2 
 4083000    0.5798888   -8.3653723    708.06212  0.014451427  0.013529852            3 
 4084000   0.60139235   -8.3606265    707.14611  0.014429197  0.013525283            2 
 4085000   0.59770477   -8.3459378    707.79344  0.014438871  0.013520713            6 
 4086000   0.60580429    -8.352344    707.61733  0.014431745  0.013516146            3 
 4087000   0.61305934   -8.3608099    706.69362   0.01440938  0.013511579            3 
 4088000   0.58910426   -8.3529987    707.13678  0.014414889  0.013507012            3 
 4089000   0.58297539   -8.3394165    707.98887  0.014428729  0.013502448            6 
 4090000   0.59127032   -8.3414543      706.346  0.014391728  0.013497888            4 
 4091000   0.60249248   -8.3448317    706.44114  0.014390148  0.013493328            3 
 4092000   0.60071932   -8.3352093    707.39872  0.014406132   0.01348877            3 
 4093000   0.59645019   -8.3424651    707.88017  0.014412415  0.013484217            4 
 4094000    0.5928864   -8.3599919    707.14768  0.014393985  0.013479664            2 
 4095000   0.59519301   -8.3759903    707.26047  0.014392765  0.013475105            6 
 4096000   0.59709527   -8.3788148    707.58299  0.014395813   0.01347055            4 
 4097000    0.6034243   -8.3579934    707.08813  0.014382234  0.013465997            5 
 4098000   0.60777447   -8.3664347    706.56633  0.014368113  0.013461445            2 
 4099000   0.58271422   -8.3738834    707.79923  0.014389673  0.013456888            3 
 4100000   0.59266435   -8.3567884    708.33254  0.014397003  0.013452337            2 
 4101000   0.58481316   -8.3437407     708.0355  0.014387456  0.013447793            3 
 4102000   0.60166295   -8.3626254    706.76618  0.014358162  0.013443246            1 
 4103000   0.58764449   -8.3550907     707.3763  0.014367055  0.013438696            2 
 4104000   0.59828567   -8.3655767    707.69616  0.014370049  0.013434146            2 
 4105000   0.60744951   -8.3637688    707.72267  0.014367086  0.013429603            2 
 4106000   0.57863933   -8.3624905     706.7036  0.014342905  0.013425059            2 
 4107000   0.59104809   -8.3682205    706.75518  0.014340459  0.013420517            2 
 4108000   0.58143389   -8.3704865    706.87012    0.0143393  0.013415978            2 
 4109000   0.59426932   -8.3815722    708.16377  0.014362046  0.013411446            3 
 4110000   0.59713901   -8.3738224    707.51089  0.014345314  0.013406913            5 
 4111000   0.58922857   -8.3349832    706.13839  0.014314003  0.013402382            4 
 4112000   0.58448701   -8.3795243     707.5184  0.014338489  0.013397855            3 
 4113000   0.59156793   -8.3593167    707.82148  0.014341144  0.013393323            1 
 4114000   0.58954095   -8.3679022     707.9865     0.014341  0.013388796            2 
 4115000   0.58657631   -8.3824848    707.04257    0.0143184  0.013384263            5 
 4116000   0.59261337   -8.3769902    707.25699  0.014319262  0.013379734            2 
 4117000    0.5898318   -8.3746773    706.48437  0.014300145  0.013375213            3 
 4118000   0.59458649   -8.3468332    708.01222  0.014327591  0.013370696            5 
 4119000   0.60156894   -8.3881662     707.3611  0.014310939  0.013366176            3 
 4120000   0.58849693   -8.3618998    707.16118  0.014303422  0.013361652            2 
 4121000     0.592717   -8.3769974    706.57868  0.014288172  0.013357137            5 
 4122000    0.6007124   -8.3683597     708.6416  0.014326411  0.013352626            1 
 4123000   0.59138839   -8.3781333    707.10695  0.014291918  0.013348115            2 
 4124000   0.60139841   -8.3814815    707.27599  0.014291868   0.01334361            3 
 4125000   0.59715394   -8.3618595     706.7352  0.014277479  0.013339102            1 
 4126000   0.59740378   -8.3865731    707.65436  0.014292583  0.013334591            5 
 4127000   0.58749546   -8.3748968    707.02439  0.014276399  0.013330092            4 
 4128000   0.58525925   -8.3720914    707.34892  0.014279492  0.013325581            1 
 4129000   0.59735724   -8.3541144     707.2956  0.014274958  0.013321072            2 
 4130000   0.59137264    -8.362535    706.68811  0.014259244  0.013316566            2 
 4131000   0.59345221   -8.3592775    707.36053  0.014269356  0.013312063            1 
 4132000   0.58231289    -8.360555    706.93117  0.014257244  0.013307558            3 
 4133000   0.58268263   -8.3572269     707.2641  0.014260507  0.013303056            1 
 4134000   0.59781938   -8.3745748    707.17746  0.014255311  0.013298562            2 
 4135000   0.59559196   -8.3866614    706.05539   0.01422925  0.013294072            2 
 4136000   0.59045119   -8.3839055    707.93977  0.014263777   0.01328958            2 
 4137000   0.58446001   -8.3705531    707.12918  0.014244001  0.013285094            2 
 4138000   0.57808767   -8.3513175    706.38037  0.014225479  0.013280611            3 
 4139000   0.59551655   -8.3794094    705.92584   0.01421289   0.01327613            3 
 4140000   0.58308698   -8.3661986    706.90478  0.014229162  0.013271653            1 
 4141000   0.57958234   -8.3634692    706.26504  0.014212852   0.01326717            4 
 4142000   0.59986113   -8.3678422    705.06193  0.014185215  0.013262689            1 
 4143000   0.59246026   -8.3758699     706.7006  0.014214752  0.013258207            4 
 4144000    0.5877471   -8.3671944    707.40736  0.014225534  0.013253728            3 
 4145000   0.59187354   -8.3658229    707.52689  0.014224505  0.013249251            2 
 4146000   0.59678421   -8.3680593    707.30815  0.014216678   0.01324478            3 
 4147000   0.57170172    -8.373431    706.76463  0.014202328  0.013240313            2 
 4148000   0.57921635   -8.3724379    707.79003  0.014219504   0.01323584            2 
 4149000   0.58864117   -8.3698543    706.52676  0.014190704  0.013231364            3 
 4150000   0.59199746   -8.3548003     706.4598   0.01418594  0.013226894            2 
 4151000   0.59091247   -8.3751876    705.75253  0.014168323  0.013222422            2 
 4152000   0.58525836   -8.3447003    707.83108  0.014206629  0.013217952            3 
 4153000    0.5899933   -8.3745249    707.29284  0.014192408  0.013213487            1 
 4154000   0.60245071   -8.3922894    707.29477   0.01418903  0.013209022            2 
 4155000    0.5840086   -8.3834149    706.69074  0.014173501  0.013204558            2 
 4156000   0.59073779   -8.3782855    706.91405  0.014174568  0.013200096            2 
 4157000   0.58332819   -8.3624342    705.75047  0.014147832  0.013195634            2 
 4158000   0.58597969   -8.3673813    707.05076   0.01417049  0.013191173            3 
 4159000   0.59137139   -8.3723534    706.82893  0.014162638  0.013186717            2 
 4160000   0.57880705   -8.3694617    706.60724  0.014154792  0.013182266            3 
 4161000   0.59119897   -8.3901043    706.53371  0.014149918  0.013177823            5 
 4162000    0.5857973   -8.3811207    706.45079  0.014144858  0.013173374            2 
 4163000   0.58096602   -8.3710794    706.48942  0.014142233  0.013168931            4 
 4164000   0.57995963   -8.3688862    706.16424  0.014132329  0.013164482            5 
 4165000    0.5821814   -8.3704791    707.16945  0.014149049  0.013160031            2 
 4166000   0.58673174     -8.37177    706.55061  0.014133274  0.013155583            3 
 4167000   0.57714383   -8.3874876    706.96679  0.014138205  0.013151139            7 
 4168000   0.58091882   -8.3800242     706.6825  0.014129129  0.013146698            2 
 4169000   0.57718957   -8.3841427    706.19731  0.014116041  0.013142257            4 
 4170000   0.56562458   -8.3864583    706.22216  0.014113153  0.013137821            2 
 4171000    0.5774614   -8.3921032    706.51184  0.014115557  0.013133383            3 
 4172000   0.59030472   -8.3915053    707.26552  0.014127228  0.013128951            3 
 4173000   0.58232063   -8.3739083    708.18088  0.014142122  0.013124519            4 
 4174000   0.57672468   -8.3611802     707.4682  0.014124505  0.013120089            3 
 4175000   0.58443072   -8.3882733    706.20452  0.014095899  0.013115663            4 
 4176000   0.58846819    -8.372426    706.85414  0.014105487  0.013111248            1 
 4177000   0.57441984   -8.3774934    707.29321  0.014110869  0.013106831            3 
 4178000   0.58742771   -8.3718992    706.39418   0.01408956  0.013102416            2 
 4179000   0.59412086   -8.3720525    706.82443  0.014094768     0.013098            2 
 4180000   0.59133177   -8.3752894    705.57856  0.014066558  0.013093588            2 
 4181000   0.57486199   -8.3858187     706.6375    0.0140843  0.013089171            2 
 4182000   0.58195386   -8.3892604    707.67841  0.014101674  0.013084754            3 
 4183000   0.57869777   -8.3730223    707.31686    0.0140911  0.013080345            1 
 4184000   0.58400817   -8.3759908    706.13615  0.014064216  0.013075933            2 
 4185000   0.59144642   -8.3915006    707.75116  0.014093014  0.013071531            2 
 4186000   0.57963308   -8.3670713    707.67699  0.014088171  0.013067131            2 
 4187000     0.585525   -8.3755913    705.91458  0.014049729  0.013062723            1 
 4188000   0.59318843   -8.3773659    707.03114  0.014068592  0.013058315            2 
 4189000    0.5575582   -8.3798664    705.27685  0.014030334  0.013053912            2 
 4190000   0.58203371   -8.3577864    707.10207  0.014063287  0.013049512            3 
 4191000   0.57594749   -8.3733237    708.24898  0.014082736  0.013045115            3 
 4192000   0.59072141   -8.3707868    706.80884  0.014050748  0.013040721            2 
 4193000   0.57180993   -8.3841591    707.55627  0.014062252  0.013036332            4 
 4194000   0.57853789   -8.3677564    706.73432  0.014042567   0.01303194            2 
 4195000   0.59824547     -8.40917    708.36647  0.014071642  0.013027549            3 
 4196000   0.57789133   -8.3659796    707.71252  0.014055301  0.013023163            2 
 4197000      0.57511   -8.3672189    707.75659  0.014052827  0.013018784            2 
 4198000   0.58178124   -8.3746495     706.6897  0.014028301  0.013014396            2 
 4199000   0.58926695   -8.3846656    708.62903  0.014063448   0.01301001            3 
 4200000   0.58829397   -8.4066327     705.9993  0.014007923  0.013005621            3 
 4201000   0.57884647   -8.3919887    706.12833  0.014007148  0.013001234            2 
 4202000   0.58503885    -8.401764    705.54241  0.013992194  0.012996847            2 
 4203000   0.57278109   -8.3818605    707.16145  0.014020966  0.012992467            3 
 4204000   0.57739573   -8.3937226    706.02738  0.013995151  0.012988089            1 
 4205000   0.58162863   -8.3873019    706.03802  0.013992034  0.012983713            2 
 4206000     0.579662   -8.4089683    706.39924  0.013995864  0.012979335            2 
 4207000   0.57097639   -8.3914984    706.90299  0.014002516  0.012974963            1 
 4208000    0.5768974   -8.4119179    705.66684  0.013974708  0.012970592            1 
 4209000   0.56216065   -8.3838274    705.88734  0.013975753  0.012966215            1 
 4210000   0.57211845   -8.3894577    705.38449   0.01396248  0.012961836            1 
 4211000   0.57562898   -8.3977683    707.24718  0.013996026  0.012957463            4 
 4212000   0.58471485   -8.3860614     706.9415  0.013986655  0.012953087            4 
 4213000    0.5809249   -8.4008488    705.59414  0.013956684  0.012948716            3 
 4214000   0.59178304   -8.4019729    707.07116  0.013982581  0.012944342            1 
 4215000   0.57019195   -8.4093627    706.79704  0.013973844  0.012939969            3 
 4216000   0.57465153   -8.3966799    706.57003  0.013966043  0.012935607            2 
 4217000   0.56336538   -8.3810107    705.67757  0.013945095  0.012931243            2 
 4218000   0.59062218    -8.402491    704.90408  0.013926507  0.012926882            2 
 4219000   0.58387722   -8.4040175     706.1925  0.013948655  0.012922519            2 
 4220000   0.56780947   -8.3920062    706.02966  0.013942134  0.012918157            3 
 4221000   0.57949793   -8.4014395     705.7063  0.013932447  0.012913796            3 
 4222000   0.57504354   -8.3912594    706.28385  0.013940547  0.012909441            2 
 4223000   0.57306283    -8.381874    707.34443  0.013958174  0.012905091            5 
 4224000   0.57486247   -8.3666748    706.67579  0.013941678  0.012900742            4 
 4225000   0.56919893   -8.3880858     705.7787  0.013920684  0.012896398            3 
 4226000   0.55016506   -8.4120046    705.94866  0.013920742  0.012892046            3 
 4227000   0.56468254   -8.4016896    706.78833  0.013934002  0.012887704            3 
 4228000   0.57282156   -8.3922592    707.84498  0.013951533  0.012883359            2 
 4229000   0.58088826   -8.3921798    706.56841  0.013923079  0.012879025            2 
 4230000   0.58152737   -8.3927456    705.84636  0.013905563   0.01287469            2 
 4231000    0.5777508   -8.3857391    706.32782  0.013911759  0.012870352            1 
 4232000   0.57687407   -8.3852653    705.53978  0.013892954  0.012866025            2 
 4233000   0.57746426   -8.3841375    706.17114  0.013902101  0.012861695            2 
 4234000   0.57928284   -8.4131585    706.76517   0.01391051  0.012857367            2 
 4235000    0.5694032   -8.3934032    706.99896  0.013911825  0.012853041            2 
 4236000   0.57330647   -8.4035917    704.14854  0.013852466  0.012848708            4 
 4237000   0.57470837   -8.4111484    706.41329   0.01389374  0.012844376            2 
 4238000   0.56585749   -8.3853885    706.50157  0.013892197  0.012840049            4 
 4239000   0.57741809   -8.3933642    707.11675  0.013901013  0.012835728            2 
 4240000   0.57073127   -8.4034879    706.53503  0.013886302  0.012831406            2 
 4241000     0.579019   -8.3906964    706.31556  0.013878715  0.012827087            3 
 4242000   0.58654137   -8.4014213    707.23355  0.013893477  0.012822772            2 
 4243000   0.57551497   -8.4108533    705.89033  0.013863821  0.012818462            1 
 4244000   0.56432137   -8.3944691    706.38241  0.013870217  0.012814147            2 
 4245000    0.5632431   -8.4049519    707.24346  0.013883853  0.012809834            5 
 4246000   0.58148777    -8.390586    705.93157  0.013854835  0.012805527            1 
 4247000   0.57658577   -8.4007883    706.89027  0.013870384  0.012801218            2 
 4248000   0.57035677   -8.3999692    705.18209   0.01383361  0.012796905            3 
 4249000   0.58150531   -8.3970649    706.75411  0.013861185  0.012792599            1 
 4250000   0.57640683   -8.4101386    705.15728  0.013826613   0.01278829            2 
 4251000   0.57820415    -8.413458    705.59718  0.013831984  0.012783985            2 
 4252000   0.56765083   -8.4064611    706.71184  0.013850577  0.012779681            3 
 4253000   0.56825536   -8.3846822    705.87079  0.013830841  0.012775378            3 
 4254000   0.57077487    -8.391925    704.91831  0.013808931  0.012771076            2 
 4255000   0.57714296   -8.4179013    705.40804  0.013815277  0.012766774            1 
 4256000    0.5618007    -8.402017    706.49012  0.013833218  0.012762474            2 
 4257000   0.56604254   -8.3929737    705.92535  0.013818913  0.012758178            2 
 4258000    0.5762059   -8.3956573    708.34754  0.013863072  0.012753886            2 
 4259000   0.57329839   -8.3978249    705.68582  0.013807737  0.012749589            2 
 4260000   0.58376709   -8.3950558    705.40387   0.01379898  0.012745299            2 
 4261000   0.57910593   -8.4134368    705.43364  0.013796324  0.012741008            2 
 4262000   0.57560936   -8.4120165    704.48235  0.013774487  0.012736717            2 
 4263000   0.56972484   -8.4071756    705.78122  0.013796646  0.012732431            2 
 4264000   0.57054971   -8.4075019    707.29008  0.013822899  0.012728152            2 
 4265000   0.56534796   -8.3984636      704.899  0.013772939  0.012723873            2 
 4266000   0.57661269    -8.402261     704.6231  0.013764321  0.012719589            2 
 4267000   0.57353045   -8.4056566    706.63169  0.013800322  0.012715307            2 
 4268000   0.56302471   -8.4220096    706.41057  0.013792771  0.012711027            2 
 4269000   0.57340312    -8.403867    705.83003  0.013778208   0.01270675            3 
 4270000   0.57513345   -8.4037103    706.39854  0.013786076  0.012702476            3 
 4271000   0.56820677   -8.4126509    706.44271   0.01378371  0.012698209            3 
 4272000   0.55729269   -8.4197988    705.38692  0.013759888  0.012693935            2 
 4273000   0.56912139   -8.3958242    705.89662  0.013766608  0.012689665            3 
 4274000   0.56419455   -8.4125561    705.00882  0.013746078    0.0126854            2 
 4275000   0.56799604    -8.433218    705.71871    0.0137567  0.012681132            2 
 4276000   0.57452967   -8.4097715    704.81931  0.013735955  0.012676862            3 
 4277000   0.57944904   -8.4273105    705.96926  0.013755149  0.012672599            1 
 4278000    0.5704645   -8.4090803    706.47121  0.013761711  0.012668338            3 
 4279000    0.5673805   -8.4171036    706.15566   0.01375235  0.012664077            1 
 4280000   0.57032086   -8.4320633    703.74859   0.01370227  0.012659816            5 
 4281000   0.55861256   -8.4182313    705.99168  0.013742733  0.012655562            1 
 4282000   0.55109699   -8.4095132    707.37865  0.013766516  0.012651302            2 
 4283000   0.56327135   -8.4166343    705.17483  0.013720422  0.012647043            2 
 4284000   0.56612155   -8.4133249    706.43135  0.013741662  0.012642789            1 
 4285000   0.55910713   -8.4422859    704.81026  0.013706928  0.012638537            2 
 4286000   0.56613768   -8.4239767    705.24635  0.013712209  0.012634288            3 
 4287000   0.56981951   -8.4126135     705.1929  0.013707972   0.01263004            4 
 4288000   0.56525225   -8.4100743    706.15238  0.013723422  0.012625794            3 
 4289000   0.55486334   -8.4078861    706.18604  0.013720876  0.012621555            2 
 4290000   0.55493683   -8.4149476    704.37113  0.013682423   0.01261731            1 
 4291000   0.56518775   -8.4392519    705.58735  0.013702854  0.012613065            3 
 4292000   0.55591412   -8.4115091     704.8467  0.013685281  0.012608825            3 
 4293000   0.56270839   -8.4207174    705.82038  0.013700994  0.012604587            4 
 4294000   0.57120344   -8.4209614    706.14142  0.013704033  0.012600347            3 
 4295000   0.56881705   -8.4275686    706.09402  0.013699923  0.012596112            3 
 4296000   0.57013083   -8.4156172     706.5538  0.013705653  0.012591879            2 
 4297000   0.57336979   -8.4276564    706.69268  0.013705156  0.012587648            2 
 4298000   0.57041653   -8.4254994    705.39219  0.013676753  0.012583417            3 
 4299000   0.55910416   -8.4228059    705.17774  0.013669414  0.012579185            2 
 4300000   0.56471205   -8.4129195    705.50769   0.01367263  0.012574957            5 
 4301000    0.5579845   -8.4320254     707.2681  0.013703559  0.012570727            3 
 4302000   0.55832485   -8.4256794    705.80092  0.013671953  0.012566507            3 
 4303000   0.55679471   -8.4325847     705.4789   0.01366254  0.012562282            2 
 4304000   0.54654942   -8.4384828    706.16511  0.013672652  0.012558058            3 
 4305000   0.55577688   -8.4186211    706.49263  0.013675816  0.012553839            2 
 4306000   0.56284554   -8.4412815    704.78787  0.013639648  0.012549622            2 
 4307000   0.55763065     -8.42745    706.27769  0.013665306  0.012545404            2 
 4308000   0.57031747   -8.4212233    705.89676  0.013654766   0.01254119            1 
 4309000   0.56637328   -8.4020716    704.61497  0.013626808  0.012536976            2 
 4310000   0.56009773   -8.4357754    705.89408  0.013648377  0.012532764            2 
 4311000   0.56282665   -8.4322565    706.49044  0.013656739  0.012528552            1 
 4312000   0.56343071   -8.4218761    705.75428  0.013639345  0.012524343            1 
 4313000   0.54895006   -8.4348135    705.42719  0.013629863  0.012520132            2 
 4314000   0.54840008   -8.4434677    706.01407   0.01363804  0.012515922            2 
 4315000   0.55865247   -8.4093013    705.94982  0.013633639  0.012511718            1 
 4316000   0.55332044   -8.4286329    706.03256  0.013632078  0.012507511            1 
 4317000   0.56852245   -8.4210722    704.66588  0.013602538  0.012503307            2 
 4318000    0.5561358   -8.4424406    705.09965  0.013607759  0.012499104            2 
 4319000   0.55769471   -8.4073302    704.97627  0.013602228    0.0124949            3 
 4320000   0.56554239   -8.4402218    706.14873  0.013621696  0.012490704            1 
 4321000   0.55681554   -8.4526191    706.09104  0.013617431  0.012486503            3 
 4322000   0.56811926   -8.4160829    705.34893  0.013599972  0.012482313            2 
 4323000   0.56120902   -8.4269316    706.93463  0.013627393   0.01247812            2 
 4324000   0.55969161   -8.4221534    706.46279  0.013615148  0.012473932            2 
 4325000   0.57532482   -8.4166195    705.04468  0.013584676  0.012469742            3 
 4326000   0.55538245   -8.4214707    705.27518  0.013585976  0.012465555            1 
 4327000    0.5708268   -8.4182479    705.42907    0.0135858   0.01246137            5 
 4328000   0.55674321   -8.4391851     705.5331  0.013584664  0.012457183            1 
 4329000   0.56338304   -8.4410258    704.80943  0.013567595  0.012452998            3 
 4330000    0.5590094   -8.4155509    706.00244  0.013587422  0.012448813            2 
 4331000   0.55480319   -8.4522355    705.75543  0.013579532  0.012444632            3 
 4332000   0.56010604   -8.4305516    706.18704    0.0135847  0.012440454            2 
 4333000   0.55362691   -8.4140467    706.35548  0.013584804  0.012436277            2 
 4334000   0.56532722   -8.4420386    706.23201  0.013579296  0.012432109            3 
 4335000   0.57024027   -8.4301659    705.66384  0.013565241  0.012427936            4 
 4336000   0.56683625   -8.4330506    704.76983  0.013544931  0.012423762            1 
 4337000    0.5633203   -8.4251779    705.92304  0.013563966  0.012419592            2 
 4338000   0.55587852   -8.4430202    705.39477  0.013550691  0.012415424            2 
 4339000   0.55560633   -8.4391925    706.38511  0.013566588  0.012411257            2 
 4340000   0.56016944    -8.431282    703.96412  0.013516976  0.012407092            3 
 4341000   0.55887326   -8.4382872    705.33301  0.013540141  0.012402926            1 
 4342000   0.56928339   -8.4098021    705.87783  0.013547479  0.012398764            2 
 4343000   0.55757943   -8.4436732    706.54149  0.013557094  0.012394601            2 
 4344000   0.55694828   -8.4400787    705.30819  0.013530314  0.012390436            1 
 4345000    0.5503041   -8.4254242    705.92278  0.013538987  0.012386274            1 
 4346000    0.5619303   -8.4220773    706.44306  0.013545848  0.012382116            2 
 4347000    0.5481089   -8.4167311    705.34219  0.013521628  0.012377959            2 
 4348000   0.55680031   -8.4289584    704.93869  0.013510784  0.012373801            1 
 4349000   0.55479608   -8.4341787    704.90445  0.013507022  0.012369647            3 
 4350000   0.56253088   -8.4390366    704.69029  0.013499814  0.012365495            2 
 4351000   0.55741569   -8.4430717    704.54165  0.013493864  0.012361343            5 
 4352000   0.56922527    -8.455175    705.55549  0.013510177  0.012357187            4 
 4353000   0.54622888   -8.4351405    705.06314  0.013497648  0.012353035            1 
 4354000   0.54412289   -8.4453574    704.83843  0.013490247  0.012348881            3 
 4355000   0.56564326   -8.4473833    704.89599  0.013488251  0.012344736            3 
 4356000   0.54953039   -8.4318098    704.47681  0.013477135  0.012340589            2 
 4357000    0.5490634   -8.4317833    705.03998  0.013484813  0.012336442            2 
 4358000   0.55987299   -8.4411691    704.99472  0.013480854  0.012332292            2 
 4359000   0.56069553    -8.427407    704.44932  0.013467334  0.012328145            2 
 4360000   0.53772692   -8.4563945    705.85235  0.013491062  0.012324003            3 
 4361000    0.5526609   -8.4373659    704.68758  0.013465711  0.012319862            2 
 4362000    0.5486811    -8.449866    705.74994   0.01348292  0.012315719            2 
 4363000   0.55027421   -8.4503275    705.34165  0.013472031  0.012311578            1 
 4364000   0.55641434   -8.4280674    705.17067  0.013465679   0.01230744            2 
 4365000   0.54594479   -8.4352553    704.71183  0.013453834  0.012303307            2 
 4366000   0.55627515   -8.4407022    705.28863  0.013461762  0.012299169            2 
 4367000   0.54978865   -8.4442177     704.6337  0.013446182  0.012295037            1 
 4368000   0.54456696   -8.4548136    705.20956   0.01345409  0.012290907            2 
 4369000   0.55686262   -8.4495902    704.60937  0.013439562  0.012286778            1 
 4370000   0.55890471     -8.44385    705.02711  0.013444453  0.012282649            5 
 4371000   0.54542694   -8.4494311    705.59701  0.013452242  0.012278523            1 
 4372000   0.55931439   -8.4257106    704.39156  0.013426189  0.012274399            2 
 4373000   0.54329058   -8.4501172    705.11101  0.013436828  0.012270273            2 
 4374000   0.56268505   -8.4540599    704.83351   0.01342847  0.012266151            2 
 4375000   0.55475027   -8.4486871    705.32282   0.01343472   0.01226203            1 
 4376000   0.55265163   -8.4513937    703.29761  0.013393084  0.012257908            2 
 4377000   0.53798119   -8.4672168    704.69243   0.01341658  0.012253789            1 
 4378000   0.54780882   -8.4424576    705.19015  0.013422989  0.012249673            2 
 4379000    0.5385305   -8.4508787    704.92233  0.013414827  0.012245554            2 
 4380000    0.5591277   -8.4495936    705.33694  0.013419653  0.012241443            2 
 4381000   0.55673962   -8.4531051    704.20371  0.013395034  0.012237329            2 
 4382000    0.5557909   -8.4430995    704.45213  0.013396701   0.01223322            1 
 4383000   0.55206373   -8.4518844    705.34055  0.013410536  0.012229114            1 
 4384000   0.55897905   -8.4515213    704.66277  0.013394593  0.012225003            1 
 4385000   0.55328145   -8.4478894    703.24313   0.01336456  0.012220896            2 
 4386000   0.53971584   -8.4477322    704.78219  0.013390754  0.012216792            1 
 4387000   0.55824249   -8.4689085    703.92656  0.013371449  0.012212686            2 
 4388000   0.54352833   -8.4574702    704.51789  0.013379632   0.01220858            1 
 4389000   0.55737114   -8.4689295    703.15802  0.013350764  0.012204474            3 
 4390000    0.5488483   -8.4681418     704.0456  0.013364571  0.012200374            2 
 4391000   0.54833098   -8.4676879    703.65936  0.013354197  0.012196274            2 
 4392000   0.54464908   -8.4532956    704.59415  0.013368893  0.012192178            3 
 4393000   0.56252163   -8.4519498    704.38849  0.013361949  0.012188084            3 
 4394000   0.55350636   -8.4553618    704.04719  0.013352435  0.012183987            2 
 4395000   0.55887691   -8.4725168    702.86359  0.013326955  0.012179894            1 
 4396000   0.55011268   -8.4650085    704.39715  0.013352994  0.012175799            2 
 4397000    0.5497596   -8.4538398    705.50333  0.013370922  0.012171707            2 
 4398000   0.54676909    -8.457124    703.91486  0.013337783  0.012167617            2 
 4399000    0.5489351   -8.4551235    704.34208  0.013342845  0.012163528            2 
 4400000   0.54592719     -8.46976    704.49645  0.013342736  0.012159436            4 
 4401000   0.54449582   -8.4665676    703.38894  0.013318733   0.01215535            2 
 4402000   0.54340979   -8.4538659    704.51471  0.013337019  0.012151261            2 
 4403000   0.54196323   -8.4758958    704.80571  0.013339498  0.012147179            1 
 4404000   0.55490536   -8.4597248    704.19981  0.013325004  0.012143098            2 
 4405000   0.54276163   -8.4680382    704.73631  0.013332128  0.012139022            2 
 4406000   0.54961985   -8.4665295    704.27401  0.013320359  0.012134945            2 
 4407000   0.54639259   -8.4619181    703.25789  0.013298122   0.01213087            2 
 4408000   0.55064682   -8.4676164    703.93484  0.013307903  0.012126795            2 
 4409000   0.54572565   -8.4629138    704.23229  0.013310507  0.012122723            2 
 4410000   0.54202166   -8.4703277    705.27961  0.013327279  0.012118654            2 
 4411000   0.54095259   -8.4780399    703.46432  0.013289963  0.012114584            1 
 4412000   0.53690437   -8.4555569    703.48396  0.013287322  0.012110517            2 
 4413000   0.53119465   -8.4725563    703.45504  0.013283765   0.01210645            3 
 4414000   0.53206337   -8.4544309    704.25306  0.013295821  0.012102388            2 
 4415000   0.54658308   -8.4508214    703.60842  0.013280642  0.012098326            2 
 4416000   0.54584821   -8.4696664    704.89518  0.013301917  0.012094265            1 
 4417000   0.54551952   -8.4470698    703.91009   0.01328032  0.012090204            3 
 4418000   0.55013975   -8.4824797    703.45606   0.01326875  0.012086143            3 
 4419000   0.54391821   -8.4821387     704.8461  0.013291961  0.012082089            1 
 4420000   0.54738265   -8.4533414    704.51472  0.013282706  0.012078037            2 
 4421000   0.54328951   -8.4731999    705.02769  0.013289371  0.012073986            2 
 4422000   0.54151511    -8.459921    704.39565  0.013274454  0.012069938            3 
 4423000   0.54992789   -8.4480932    704.10655  0.013266006  0.012065892            3 
 4424000   0.55310144   -8.4715926    703.81379  0.013257493  0.012061841            2 
 4425000   0.54582861   -8.4778279    702.89605  0.013237214  0.012057796            4 
 4426000    0.5456624   -8.4599695    704.16244  0.013258067  0.012053753            2 
 4427000   0.52812561     -8.46302    704.62426  0.013263765  0.012049711            2 
 4428000   0.53843521   -8.4637061    704.13494  0.013251561   0.01204567            2 
 4429000   0.54104381   -8.4690685    704.09851  0.013247884   0.01204163            3 
 4430000   0.54323647    -8.465971    702.67306  0.013218079  0.012037596            1 
 4431000   0.54838551   -8.4761578    704.38056  0.013247208  0.012033565            2 
 4432000   0.55547273   -8.4701079    703.48943  0.013227464  0.012029531            2 
 4433000   0.54694492   -8.4798724    705.15734  0.013255834  0.012025499            2 
 4434000   0.54274629   -8.4729808    703.56645  0.013222945  0.012021469            2 
 4435000   0.53965183    -8.469559    704.38645  0.013235371  0.012017445            2 
 4436000   0.53206967   -8.4826206    703.35365  0.013212986  0.012013421            2 
 4437000   0.53930217   -8.4574302    703.29187  0.013208847  0.012009392            1 
 4438000   0.53789261   -8.4691631    704.65088   0.01323139  0.012005368            1 
 4439000   0.53460646   -8.4745256    704.31535   0.01322211  0.012001342            2 
 4440000   0.53596354   -8.4570171    704.03743  0.013213916  0.011997321            2 
 4441000   0.54292167   -8.4753581    703.11456  0.013193623  0.011993304            5 
 4442000   0.53615581   -8.4693034    703.79986  0.013203509  0.011989284            5 
 4443000   0.53136551   -8.4682955    703.82961  0.013201096  0.011985268            3 
 4444000   0.54027438   -8.4617204    704.40343  0.013208885  0.011981258            1 
 4445000   0.54479035   -8.4820722    704.23605  0.013202776  0.011977246            3 
 4446000   0.53596759   -8.4616042    704.75766  0.013209583  0.011973235            3 
 4447000   0.54783134   -8.4664117    703.80652  0.013188789  0.011969224            2 
 4448000   0.54345399   -8.4686314     703.3316  0.013176926  0.011965214            2 
 4449000   0.54529171   -8.4856059    703.90935  0.013184786  0.011961207            2 
 4450000   0.53371048    -8.471832    704.79095  0.013198332  0.011957199            2 
 4451000   0.54362378   -8.4844445    702.93495  0.013160618  0.011953195            3 
 4452000   0.53614252    -8.456822    704.45446  0.013186105  0.011949191            2 
 4453000   0.53018348   -8.4647794    704.02735  0.013175151   0.01194519            2 
 4454000   0.55113114   -8.4846277    703.71775    0.0131664  0.011941189            1 
 4455000   0.54228731   -8.4956847    703.11206  0.013152115  0.011937188            1 
 4456000   0.52510909   -8.4611805    703.52915  0.013156964  0.011933186            3 
 4457000   0.54644416   -8.4757279    703.20828  0.013148012  0.011929189            2 
 4458000    0.5432809   -8.4887467    705.20221  0.013182335   0.01192519            1 
 4459000   0.53969025   -8.4789192    704.10741  0.013158918  0.011921196            2 
 4460000   0.54440343   -8.4662812    703.00107  0.013135297    0.0119172            2 
 4461000   0.53153006   -8.4623085    702.91228  0.013130693  0.011913208            3 
 4462000    0.5405694   -8.4739541    703.56773  0.013139992  0.011909215            1 
 4463000   0.54206133   -8.4908469    703.55439  0.013136799   0.01190523            5 
 4464000   0.52957683   -8.4668703     702.6208  0.013116428  0.011901239            2 
 4465000   0.54464918   -8.4837522    702.60109  0.013113122  0.011897251            2 
 4466000   0.52537323   -8.4874573    704.02656  0.013136785  0.011893263            3 
 4467000   0.52976895   -8.4800387    703.45888  0.013123253  0.011889278            2 
 4468000   0.53917076   -8.4760953    703.47843  0.013120681  0.011885303            3 
 4469000   0.54160342    -8.480868    703.64893  0.013120924  0.011881323            2 
 4470000   0.54423483   -8.4866842    704.06642  0.013125772  0.011877349            2 
 4471000   0.54291993   -8.4762091    703.87976  0.013119357  0.011873374            2 
 4472000   0.53934586   -8.4901731     704.2239  0.013122837    0.0118694            1 
 4473000    0.5317454   -8.4667791    704.18858  0.013119245  0.011865426            2 
 4474000   0.54533991   -8.4594409    702.76562  0.013089808  0.011861454            1 
 4475000   0.53387375   -8.4891232    702.90968  0.013089566  0.011857483            3 
 4476000   0.53328682    -8.475691    703.38696  0.013095527  0.011853517            2 
 4477000   0.53423481   -8.5018967    702.24741  0.013071391  0.011849547            4 
 4478000    0.5357919   -8.4853587    704.52478  0.013110853  0.011845578            2 
 4479000   0.52861406   -8.4957044    704.53413  0.013108099  0.011841611            2 
 4480000   0.52617579   -8.4635276    704.15877  0.013098191  0.011837648            3 
 4481000   0.52664705   -8.4914216    702.87275  0.013071352  0.011833682            2 
 4482000   0.54361754    -8.483654    703.50637  0.013080217  0.011829718            1 
 4483000   0.53206372   -8.5147618    703.10433  0.013069825  0.011825758            1 
 4484000    0.5274196   -8.4985211    702.75207  0.013060364  0.011821797            3 
 4485000   0.53861798   -8.4929253    704.59914  0.013091772  0.011817838            2 
 4486000    0.5304353    -8.484857    703.40026  0.013066582  0.011813883            2 
 4487000   0.53343912   -8.4842309    702.73436  0.013051303  0.011809933            3 
 4488000   0.53036163   -8.4828239    703.37648  0.013060318  0.011805982            2 
 4489000    0.5326731   -8.4947659    703.86706  0.013066516  0.011802032            2 
 4490000   0.52993121   -8.4833839    703.16387  0.013050554  0.011798086            3 
 4491000   0.54097004   -8.4772424    703.32677  0.013050671  0.011794141            4 
 4492000   0.53011776   -8.4792322    703.68293  0.013054373  0.011790193            3 
 4493000   0.52707543   -8.4681075    703.82557  0.013054113  0.011786248            1 
 4494000   0.51858769   -8.4708637    703.39235  0.013043175  0.011782308            3 
 4495000   0.53347973   -8.4985262    703.46087  0.013041544   0.01177837            2 
 4496000    0.5221145   -8.4929821    703.25161  0.013034764  0.011774433            4 
 4497000   0.52327424   -8.4933724    702.83167  0.013024084  0.011770493            3 
 4498000   0.54352022   -8.4912626    702.70699  0.013018878  0.011766556            2 
 4499000   0.52855026   -8.4909341    703.17016  0.013024564  0.011762618            4 
 4500000   0.53565578   -8.4945037     703.0522  0.013019485  0.011758686            4 
 4501000   0.53431999   -8.4928503    703.32199  0.013021588  0.011754754            1 
 4502000   0.53437044   -8.4808559     704.0987  0.013033072  0.011750823            2 
 4503000   0.52848505   -8.4892346    704.17476  0.013031586  0.011746891            2 
 4504000   0.52263927   -8.4770368    703.25642  0.013011701  0.011742967            2 
 4505000   0.51966709   -8.4707404    702.81919  0.013000725   0.01173904            1 
 4506000   0.52186573   -8.4974649    702.22669  0.012986882  0.011735116            1 
 4507000   0.53243009   -8.4810805     703.0845  0.012999861  0.011731192            1 
 4508000   0.52757742   -8.4920506    703.21823   0.01299945  0.011727269            1 
 4509000   0.53099248   -8.5068211    703.29502  0.012997986  0.011723351            3 
 4510000   0.53213777   -8.5133635     703.6787  0.013002193  0.011719433            2 
 4511000   0.52393261   -8.4838285    703.31953  0.012992676  0.011715515            2 
 4512000   0.52636483   -8.4855467    703.88772   0.01300029  0.011711597            3 
 4513000   0.53169311   -8.5195935    702.44772   0.01297082  0.011707681            2 
 4514000   0.52906323   -8.5094866    702.27508  0.012964759  0.011703767            2 
 4515000   0.52112417   -8.4922946    702.07892  0.012958267  0.011699852            2 
 4516000   0.53884746   -8.4978007    703.92107  0.012989391  0.011695942            1 
 4517000   0.52581413   -8.4881555     702.3962  0.012958383  0.011692035            2 
 4518000   0.53050922   -8.4830817    702.53835  0.012958137  0.011688132            2 
 4519000   0.53945971   -8.5129858    702.70278  0.012958302  0.011684228            3 
 4520000   0.52591005   -8.4955375    703.20243  0.012964647  0.011680324            3 
 4521000   0.52784129   -8.4919909    702.77753  0.012953947  0.011676421            1 
 4522000   0.52732765   -8.4842806    702.62609  0.012948291   0.01167252            2 
 4523000   0.52047666   -8.5069391     702.8541   0.01294963   0.01166862            2 
 4524000   0.53341427   -8.4941088    703.38231  0.012956497  0.011664722            4 
 4525000   0.53679994    -8.482727    702.92382   0.01294519   0.01166083            1 
 4526000   0.51932613   -8.4937268    703.69241  0.012956481  0.011656936            1 
 4527000   0.53496207   -8.4912833    702.13856  0.012925016  0.011653044            2 
 4528000   0.52579918   -8.4859909    702.86528  0.012935536  0.011649155            1 
 4529000    0.5244933   -8.4805194    704.42734  0.012961422  0.011645266            2 
 4530000   0.52322788   -8.5039658    702.13617  0.012916412   0.01164138            3 
 4531000   0.54145486   -8.4954502    702.32867  0.012917102  0.011637492            2 
 4532000   0.53044813   -8.5102237    704.13696  0.012947502  0.011633606            1 
 4533000   0.52421563   -8.5090643    703.07496  0.012925123  0.011629724            2 
 4534000   0.52552323    -8.502037    703.33964  0.012927136  0.011625841            1 
 4535000   0.52071161   -8.4710084    703.28257  0.012923237  0.011621959            2 
 4536000   0.53572025   -8.4965579    702.08732   0.01289843   0.01161808            1 
 4537000   0.52358631    -8.503413     703.4192   0.01292005  0.011614201            2 
 4538000   0.51378297   -8.5087499    703.21426   0.01291344  0.011610325            5 
 4539000   0.52389217   -8.4938407    702.66756  0.012900557  0.011606451            1 
 4540000   0.53179914   -8.5070466    702.39538   0.01289272  0.011602582            3 
 4541000   0.53756828   -8.5125053    702.42718  0.012890464  0.011598712            2 
 4542000   0.53732211   -8.5053578    703.20263  0.012901854  0.011594846            2 
 4543000   0.53687095    -8.507347    703.27504  0.012900342  0.011590979            1 
 4544000   0.52635425   -8.4936046    702.98411  0.012892167  0.011587112            2 
 4545000    0.5191652   -8.5024849    701.49179  0.012861969  0.011583247            2 
 4546000   0.51881551   -8.5136034     703.0161  0.012887082  0.011579387            1 
 4547000   0.53930235   -8.5046671    702.85592  0.012881312  0.011575523            1 
 4548000   0.53206095   -8.4922304    703.55183  0.012891231  0.011571663            2 
 4549000   0.52448438   -8.4852594    702.87327  0.012875967  0.011567806            3 
 4550000   0.53259336   -8.5098321    703.48432  0.012884328  0.011563954            2 
 4551000   0.53260333   -8.4951863    703.01667  0.012872934  0.011560105            4 
 4552000   0.52022519   -8.5160233    703.63384  0.012881405  0.011556251            1 
 4553000   0.52582637   -8.5185511     702.9164  0.012865444  0.011552397            3 
 4554000   0.52789544   -8.5036489    703.09827  0.012865947  0.011548543            2 
 4555000   0.52769253   -8.4987603     702.3531   0.01284949  0.011544692            6 
 4556000   0.52005852   -8.5027999    703.01454  0.012858768  0.011540841            5 
 4557000   0.52993275   -8.5048575    703.28469  0.012860886  0.011536994            2 
 4558000   0.52236728   -8.5032858    703.62599  0.012864304   0.01153315            2 
 4559000   0.53903419   -8.5047482    703.90314  0.012866549   0.01152931            2 
 4560000   0.51838423   -8.5071432    702.98052  0.012846866  0.011525468            2 
 4561000   0.52954382   -8.5066564    701.79529  0.012822394  0.011521624            2 
 4562000   0.52881003   -8.5153215    703.05756  0.012842641  0.011517784            2 
 4563000   0.51956414   -8.5117384     702.1956  0.012824085  0.011513947            4 
 4564000   0.51643708   -8.4927521    704.15676  0.012857084  0.011510113            3 
 4565000   0.51647677   -8.4880868    702.09239  0.012816582  0.011506283            3 
 4566000   0.51137763   -8.5015527    702.30457  0.012817648  0.011502451            1 
 4567000   0.52654193   -8.5135196    703.21747  0.012831499   0.01149862            3 
 4568000   0.53764408   -8.5107356    703.40712   0.01283215   0.01149479            2 
 4569000   0.51991316   -8.5011798    702.71496  0.012816717  0.011490962            1 
 4570000   0.51917299   -8.4981661    701.85559  0.012798242  0.011487138            1 
 4571000   0.52874271   -8.4950392    702.44127  0.012806119  0.011483314            3 
 4572000   0.51681933   -8.4838821    702.08812  0.012796882  0.011479495            1 
 4573000    0.5164666   -8.4972629    703.73876  0.012824163  0.011475674            3 
 4574000    0.5230913   -8.4949464    701.56019  0.012781668  0.011471849            3 
 4575000   0.51495465   -8.5011593    702.04798  0.012787759  0.011468029            2 
 4576000   0.52820247   -8.4982894      704.355  0.012826978  0.011464216            3 
 4577000   0.52236417   -8.5047731    702.72262  0.012794455  0.011460399            2 
 4578000   0.51557658   -8.5036256    702.84418  0.012793873  0.011456585            2 
 4579000   0.52043697   -8.5151219    702.03693  0.012776387  0.011452766            4 
 4580000   0.53080494   -8.5062392    702.97091  0.012790591   0.01144895            2 
 4581000   0.51902005   -8.5118722    702.63448  0.012781679   0.01144514            3 
 4582000   0.51717261   -8.5156778    702.36243  0.012773942  0.011441328            3 
 4583000   0.52486855   -8.5185095    703.05857  0.012783813  0.011437521            1 
 4584000    0.5058756   -8.4999444    701.57656  0.012754082   0.01143371            2 
 4585000   0.50426611    -8.516577    703.47525   0.01278581  0.011429904            1 
 4586000   0.52069297   -8.5060939    702.16605  0.012759232    0.0114261            5 
 4587000   0.51595056    -8.517547    703.43086  0.012779428  0.011422301            2 
 4588000   0.51872786     -8.49927    702.77688  0.012764765  0.011418502            2 
 4589000   0.52680438   -8.5361439    702.20458   0.01275159  0.011414704            2 
 4590000   0.51942549   -8.5121604    701.39388  0.012734094  0.011410909            1 
 4591000    0.5150699   -8.5004497    701.70845   0.01273703  0.011407112            1 
 4592000    0.5170255   -8.5048301    702.41543  0.012747086   0.01140332            3 
 4593000   0.52039738   -8.5138395    702.61522  0.012747936  0.011399527            2 
 4594000   0.52382185   -8.5085825    702.20319  0.012737687  0.011395739            1 
 4595000    0.5149045   -8.5174046    702.64366  0.012742903  0.011391951            1 
 4596000    0.5107944   -8.5088608    701.48728  0.012719163  0.011388168            2 
 4597000   0.51376602   -8.5149437    703.77222  0.012757817  0.011384382            2 
 4598000   0.51722389   -8.5127756     702.6994  0.012735599  0.011380598            3 
 4599000   0.52605066   -8.5155704    701.24502  0.012706476  0.011376816            2 
 4600000   0.52176421    -8.504203    702.29183  0.012722678  0.011373034            1 
 4601000   0.52604418   -8.5141249    701.55318  0.012706534  0.011369253            3 
 4602000   0.51010403   -8.5189631    702.53649  0.012721579  0.011365474            3 
 4603000   0.50947959   -8.5250859    702.73048  0.012722327  0.011361698            2 
 4604000   0.51262934   -8.5147032    703.13845  0.012726949  0.011357926            1 
 4605000   0.51930307   -8.5140085    702.97711  0.012721265  0.011354151            1 
 4606000   0.53619073   -8.5143122    702.35697  0.012707283  0.011350379            3 
 4607000   0.51119656    -8.514033    703.07992  0.012717602  0.011346609            1 
 4608000   0.52444977   -8.5139535    702.12285  0.012697534   0.01134284            3 
 4609000   0.51581225   -8.5063438    702.30891  0.012698143  0.011339068            1 
 4610000   0.51019603    -8.519292    702.40463  0.012697119  0.011335302            3 
 4611000   0.49748076   -8.5187323    701.95384  0.012686218  0.011331538            2 
 4612000   0.51045767   -8.4967281    701.66736  0.012678291  0.011327769            2 
 4613000   0.49725264   -8.5028888    703.37029  0.012706306  0.011324007            3 
 4614000   0.50187876    -8.504986    702.31474  0.012684488  0.011320247            3 
 4615000   0.51065009   -8.5106816    702.26417  0.012680826  0.011316487            1 
 4616000   0.50465836   -8.5056412    701.68289  0.012667585   0.01131273            2 
 4617000   0.52325852   -8.5195389    701.43433  0.012660355  0.011308969            2 
 4618000   0.51438669   -8.5067003    702.08738  0.012669398  0.011305217            1 
 4619000   0.51426071   -8.5189049    703.24581  0.012687555  0.011301463            2 
 4620000   0.51271313   -8.5022722    702.07186  0.012663634  0.011297712            3 
 4621000   0.51074734   -8.5077134    702.06236  0.012660722  0.011293962            2 
 4622000   0.51337944    -8.524739    702.91531  0.012673361  0.011290213            2 
 4623000   0.50978065   -8.5066255    701.90525  0.012652413  0.011286467            2 
 4624000   0.51464892   -8.5184188    702.82555  0.012666262  0.011282723            2 
 4625000   0.49746679   -8.5240177    703.05817  0.012667715   0.01127898            2 
 4626000   0.50438688   -8.5170134    701.36072  0.012634398  0.011275237            2 
 4627000   0.50779207   -8.5165688    701.42764  0.012632873  0.011271494            2 
 4628000    0.5139463   -8.5217572    702.05278    0.0126414  0.011267756            2 
 4629000   0.51597215   -8.5192185    702.30524  0.012643214   0.01126402            2 
 4630000   0.51257378   -8.5094944    702.40861  0.012642344  0.011260281            4 
 4631000   0.50189944   -8.5170588    703.76747  0.012664066  0.011256549            3 
 4632000   0.50986362    -8.517939    701.28551  0.012616679  0.011252815            1 
 4633000   0.50655851   -8.5261023    702.52109   0.01263618  0.011249078            2 
 4634000   0.50634688   -8.5390904    701.81995  0.012620845  0.011245346            2 
 4635000   0.50814064   -8.5265625    701.28036  0.012608421  0.011241616            2 
 4636000   0.50078405   -8.5300637    702.06637   0.01261983  0.011237889            1 
 4637000   0.52912476   -8.5230279    701.28946  0.012603146  0.011234162            4 
 4638000   0.50308631   -8.5112217    701.91685  0.012611701  0.011230435            3 
 4639000    0.5012882   -8.5133041     702.4255   0.01261812  0.011226708            1 
 4640000   0.50678686   -8.5381155    702.49395   0.01261663  0.011222983            3 
 4641000   0.50800975    -8.518079    703.25745  0.012627621  0.011219263            3 
 4642000   0.50221353   -8.5302295    703.03731  0.012620948  0.011215541            4 
 4643000    0.5019365   -8.5330618    701.34968   0.01258794  0.011211823            3 
 4644000   0.50985277   -8.5256164       703.03  0.012615382  0.011208107            2 
 4645000   0.50968426   -8.5070487    703.08152   0.01261359  0.011204392            2 
 4646000   0.50674857   -8.5119544    702.75635  0.012605043  0.011200677            4 
 4647000   0.49978748   -8.5226443    702.04211  0.012589522  0.011196966            3 
 4648000   0.50036705   -8.5095105    702.61079  0.012597009  0.011193254            1 
 4649000   0.50975348   -8.5250284    700.96357  0.012564773  0.011189543            3 
 4650000   0.50896943   -8.5343574    701.98935  0.012580454  0.011185842            4 
 4651000   0.50731551   -8.5242678    702.02639  0.012578413  0.011182138            2 
 4652000   0.50899023    -8.512223    700.93112  0.012556089  0.011178434            3 
 4653000   0.50814961   -8.5259007    702.15685  0.012575343   0.01117473            2 
 4654000   0.51720789   -8.5393601    702.47468  0.012578332  0.011171029            3 
 4655000   0.49584946   -8.5359352    701.27731  0.012554195  0.011167332            2 
 4656000   0.50579533    -8.516003     702.2949  0.012569711  0.011163634            3 
 4657000   0.50715178   -8.5216561    701.77248  0.012557664  0.011159937            2 
 4658000   0.50637516   -8.5122855    702.18901   0.01256242  0.011156244            2 
 4659000   0.50588967   -8.5091257    702.80562  0.012570752  0.011152551            3 
 4660000   0.51730158   -8.5325387    701.66687  0.012547691  0.011148858            2 
 4661000    0.5177231   -8.5354509    701.78222  0.012547061  0.011145169            4 
 4662000   0.51199153   -8.5264782    701.16229  0.012533288  0.011141479            3 
 4663000   0.50370391   -8.5159055    703.52249   0.01257278  0.011137795            5 
 4664000   0.50065318   -8.5301271    702.25441  0.012547427   0.01113411            2 
 4665000   0.50124922   -8.5347024    702.10038  0.012541986  0.011130423            2 
 4666000   0.50388507   -8.5381967    701.32574  0.012525463  0.011126739            1 
 4667000   0.49619471    -8.524174    701.88604  0.012532784  0.011123053            3 
 4668000   0.50078339   -8.5257367     701.6449  0.012525794   0.01111937            3 
 4669000   0.49478117   -8.5205526    701.46412  0.012519885   0.01111569            1 
 4670000   0.49362813   -8.5243469    700.38688  0.012497981  0.011112009            3 
 4671000   0.49966208   -8.5329236    702.82858  0.012538867  0.011108332            2 
 4672000    0.5101127   -8.5422754    700.95637  0.012502789  0.011104655            3 
 4673000   0.50023103   -8.5219928    702.13817  0.012521188  0.011100983            2 
 4674000    0.5088196   -8.5231996    701.03491   0.01249884  0.011097307            2 
 4675000   0.50367038   -8.5410034    701.92292  0.012511995  0.011093634            3 
 4676000   0.50747127   -8.5347163    701.98025  0.012510341  0.011089967            2 
 4677000   0.49917042   -8.5286791    701.88892  0.012506039  0.011086299            2 
 4678000    0.5100821   -8.5398827    701.73111  0.012500554  0.011082633            2 
 4679000   0.49895388   -8.5344238    702.70291   0.01251519   0.01107897            2 
 4680000   0.49651007   -8.5498011    701.85322  0.012497386  0.011075303            2 
 4681000   0.50100497   -8.5264868    702.83551  0.012512204  0.011071642            4 
 4682000   0.50222346   -8.5231542    700.85159   0.01247422  0.011067978            2 
 4683000   0.50349182   -8.5279182    700.56105  0.012466386  0.011064315            2 
 4684000   0.51337679   -8.5228463    702.34789  0.012495515   0.01106066            2 
 4685000   0.49005986   -8.5307474    702.52368  0.012495974  0.011057002            3 
 4686000   0.49148727   -8.5283277    702.03599  0.012484635  0.011053348            2 
 4687000   0.49117958   -8.5327022    701.26199   0.01246821  0.011049694            2 
 4688000   0.50414576   -8.5456951    701.73408  0.012473942  0.011046043            3 
 4689000   0.51268377   -8.5243311    701.98387  0.012475721  0.011042394            4 
 4690000   0.50162957   -8.5209592    702.05966  0.012474408  0.011038749            2 
 4691000   0.49343053   -8.5356398    701.76291  0.012466477  0.011035098            3 
 4692000   0.50349184    -8.534675     701.8109  0.012464672   0.01103145            4 
 4693000   0.50059849   -8.5367323    702.05875  0.012466417  0.011027804            1 
 4694000   0.50241753    -8.523527    702.54856  0.012472457  0.011024164            2 
 4695000   0.50330722    -8.529102    701.57629  0.012452543  0.011020522            2 
 4696000   0.49980249   -8.5039288    702.14024  0.012459899  0.011016882            2 
 4697000   0.50453132   -8.5284234    701.20158  0.012440593  0.011013244            2 
 4698000   0.49506059   -8.5309726    702.44015  0.012459915  0.011009605            5 
 4699000   0.48753676   -8.5331281    701.31073  0.012437234  0.011005968            2 
 4700000   0.50776268   -8.5445305    701.97183  0.012446309  0.011002334            2 
 4701000   0.51429792   -8.5251865    701.91687  0.012442687  0.010998703            3 
 4702000   0.49040984   -8.5283902    700.84825  0.012421102  0.010995074            5 
 4703000   0.51589674   -8.5428978    702.04234  0.012439619  0.010991444            5 
 4704000   0.51042019   -8.5342369    701.17422  0.012421595  0.010987817            4 
 4705000   0.50363443   -8.5175399    702.08455  0.012435079  0.010984194            4 
 4706000   0.49418498    -8.530703     701.2032   0.01241683  0.010980569            2 
 4707000   0.49404759    -8.537552    702.03639  0.012428943  0.010976944            3 
 4708000   0.50028924   -8.5387412    700.93685   0.01240684  0.010973325            3 
 4709000   0.49619251   -8.5501985     701.4532  0.012413343  0.010969704            2 
 4710000   0.50966079   -8.5402163    701.19887  0.012406208  0.010966083            3 
 4711000   0.49819829   -8.5225512    701.74076   0.01241316   0.01096246            2 
 4712000   0.49258293   -8.5283782     701.0186  0.012397754  0.010958844            3 
 4713000   0.50241251   -8.5403507    701.51317  0.012403868   0.01095523            2 
 4714000   0.50381087   -8.5426685    701.35486  0.012398438  0.010951613            2 
 4715000   0.49260236   -8.5306882    700.94813   0.01238862  0.010947998            2 
 4716000   0.49274907   -8.5244854     702.0938  0.012406238  0.010944386            3 
 4717000   0.49231663   -8.5490521    702.32861  0.012407756  0.010940779            3 
 4718000    0.4855603   -8.5370827    701.55015  0.012391376  0.010937172            3 
 4719000   0.49600837   -8.5387798    700.24785  0.012365753  0.010933566            2 
 4720000   0.50088082   -8.5527752    701.44297  0.012384233  0.010929961            4 
 4721000   0.49739532   -8.5364295    700.99654   0.01237373  0.010926359            3 
 4722000   0.48755979   -8.5432309    701.52938  0.012380513   0.01092276            3 
 4723000   0.49754173   -8.5374794    701.87044  0.012383909   0.01091916            2 
 4724000   0.48854116   -8.5340108    701.11144  0.012367899   0.01091556            3 
 4725000   0.49483845    -8.541148    702.46641  0.012389178  0.010911965            2 
 4726000   0.49070543   -8.5205854    701.64771  0.012372121  0.010908371            2 
 4727000   0.48986977   -8.5471199     700.9887  0.012357885  0.010904777            2 
 4728000   0.49194345   -8.5384052    701.20157  0.012359024  0.010901185            2 
 4729000   0.49044086   -8.5405451    701.29478  0.012358053  0.010897594            3 
 4730000   0.48661217   -8.5483563    700.91045  0.012348669  0.010894004            2 
 4731000   0.50697454   -8.5428493    701.31787  0.012353235  0.010890416            1 
 4732000   0.49818518   -8.5244739    701.46813  0.012353271  0.010886828            3 
 4733000   0.49338626   -8.5375538      700.818  0.012339214   0.01088324            2 
 4734000   0.49515819   -8.5395398    701.35518  0.012346064  0.010879653            5 
 4735000   0.49742876   -8.5502088    701.35858  0.012343516  0.010876069            3 
 4736000   0.49608671   -8.5360483     701.5863  0.012344917  0.010872489            1 
 4737000   0.48641989   -8.5402638    700.67951  0.012326358  0.010868906            3 
 4738000   0.50088358   -8.5549633     702.8385   0.01236173  0.010865326            2 
 4739000   0.48429711   -8.5261031    702.00977  0.012344548   0.01086175            5 
 4740000   0.49281466   -8.5519413    701.28401  0.012329184  0.010858175            3 
 4741000    0.4921174   -8.5402147    702.43351  0.012346789  0.010854601            2 
 4742000   0.50302291   -8.5542332    701.97578  0.012336141   0.01085103            5 
 4743000   0.49154296   -8.5498929    700.76919  0.012312341   0.01084746            2 
 4744000   0.48798452   -8.5381388    702.59021  0.012341734  0.010843888            3 
 4745000   0.48334605   -8.5570916    699.86998  0.012291359  0.010840319            3 
 4746000   0.48930986   -8.5497513    701.73732  0.012321557   0.01083675            3 
 4747000   0.49333267   -8.5470267    700.58584  0.012298747   0.01083318            2 
 4748000   0.49463821   -8.5494622    700.34875  0.012291996  0.010829612            2 
 4749000   0.49462978    -8.535785    701.05941  0.012301878  0.010826048            2 
 4750000   0.49386923    -8.535922    701.50024  0.012307022  0.010822485            3 
 4751000   0.48199372   -8.5405632    701.51042   0.01230461  0.010818924            3 
 4752000   0.49255349     -8.54872    701.04234  0.012293812  0.010815365            3 
 4753000   0.49575885   -8.5532066    701.35953  0.012296787  0.010811806            4 
 4754000   0.48633359   -8.5389069    700.52401  0.012279554  0.010808251            4 
 4755000   0.49068982   -8.5566959    701.29664  0.012290512  0.010804698            2 
 4756000    0.4908577   -8.5573094    701.44433  0.012290516  0.010801149            1 
 4757000   0.48854386   -8.5468162    700.90595  0.012278501  0.010797598            3 
 4758000   0.48588174   -8.5339466    700.93828  0.012276487  0.010794049            2 
 4759000      0.48453   -8.5421809    701.72524  0.012287687  0.010790504            3 
 4760000   0.47844105   -8.5506586     701.7329   0.01228524  0.010786958            4 
 4761000   0.48643404   -8.5285966    700.36781  0.012258766  0.010783415            6 
 4762000   0.48053821   -8.5554475    701.13005   0.01226953  0.010779874            2 
 4763000   0.49364836   -8.5395586    701.38206  0.012271364  0.010776334            2 
 4764000   0.48395392    -8.540058    701.67552  0.012273921  0.010772793            3 
 4765000   0.48314436   -8.5631192    701.27668   0.01226437  0.010769255            4 
 4766000   0.48582469   -8.5408375    700.59314  0.012249845  0.010765717            3 
 4767000   0.49429919   -8.5407829    701.42752  0.012261861  0.010762181            2 
 4768000   0.49997796   -8.5543841    700.47507  0.012242643  0.010758646            5 
 4769000   0.49384805   -8.5538309    701.06802  0.012250437   0.01075511            3 
 4770000   0.49357009   -8.5284719    701.16793  0.012249614  0.010751578            4 
 4771000   0.48777424   -8.5605239    700.48746  0.012235161  0.010748047            3 
 4772000   0.48355617   -8.5610601    700.50832  0.012232962  0.010744517            2 
 4773000   0.49067988   -8.5459775    701.60193  0.012249492  0.010740989            3 
 4774000    0.5006289   -8.5540678    702.03757  0.012254531  0.010737463            2 
 4775000   0.49483549   -8.5319587    701.40797  0.012240977  0.010733938            3 
 4776000   0.48085047   -8.5553031    700.74594  0.012226862  0.010730415            3 
 4777000   0.48287762   -8.5612936    701.16488  0.012231611  0.010726893            3 
 4778000   0.47913168   -8.5494241    700.46241  0.012216799  0.010723373            2 
 4779000   0.48768739   -8.5609061     700.9016  0.012221901  0.010719851            2 
 4780000    0.4892503   -8.5538977    702.12555  0.012240683  0.010716333            3 
 4781000   0.49146413   -8.5442252    701.67536  0.012230275  0.010712818            2 
 4782000   0.48404106    -8.544915     700.9057  0.012214305  0.010709303            2 
 4783000   0.49004034   -8.5388961     701.2597  0.012217919  0.010705788            2 
 4784000   0.48476857    -8.557754    701.16665  0.012213745  0.010702276            3 
 4785000   0.48424365   -8.5459601    700.72694  0.012203534  0.010698761            1 
 4786000   0.48725189   -8.5625252    701.27716  0.012210565  0.010695253            3 
 4787000   0.48187428   -8.5410674    701.33982  0.012209105  0.010691746            1 
 4788000     0.482952   -8.5489502    699.50988  0.012174705  0.010688239            2 
 4789000   0.49399511   -8.5672407    700.91122  0.012196548  0.010684735            1 
 4790000   0.48469899   -8.5665168    701.14805  0.012198122   0.01068123            4 
 4791000   0.48326467   -8.5680433    701.81635    0.0122072  0.010677729            3 
 4792000    0.4952506    -8.559614    701.32548  0.012196116  0.010674226            3 
 4793000   0.48040863   -8.5668005    700.56159   0.01218029  0.010670728            4 
 4794000   0.48158276   -8.5537774    700.29898  0.012173185   0.01066723            4 
 4795000   0.47835551   -8.5602548     701.3043  0.012188118  0.010663733            2 
 4796000   0.48140136   -8.5540258    701.06624   0.01218144  0.010660238            2 
 4797000     0.490795   -8.5479191    701.64165  0.012188897  0.010656744            3 
 4798000   0.47712501   -8.5422321    699.59719  0.012150847  0.010653249            3 
 4799000   0.49459182   -8.5605448     701.0619   0.01217375  0.010649758            4 
 4800000   0.49239409   -8.5631161     700.3708  0.012159215  0.010646267            3 
 4801000   0.47347835   -8.5522809     700.3032  0.012155509  0.010642778            3 
 4802000   0.47984475   -8.5559472    701.80085  0.012178968  0.010639289            3 
 4803000   0.48664534   -8.5682799    700.45637  0.012153105  0.010635803            2 
 4804000   0.48077784   -8.5651178    700.87463  0.012157831  0.010632318            2 
 4805000   0.49103767   -8.5705524    700.55711  0.012149794  0.010628834            4 
 4806000   0.48685675     -8.56195     701.0154  0.012155212  0.010625351            3 
 4807000   0.47207739   -8.5599552    701.33862  0.012158287  0.010621874            4 
 4808000   0.47993975   -8.5633814    700.44986  0.012140354  0.010618397            2 
 4809000   0.48853436   -8.5606598    700.17725  0.012133106   0.01061492            5 
 4810000   0.49408367   -8.5534073    699.77585  0.012123629  0.010611443            6 
 4811000   0.48135253   -8.5503283    699.92499  0.012123692  0.010607965            4 
 4812000   0.49131869   -8.5794202    700.72369  0.012135004  0.010604492            3 
 4813000   0.48217294   -8.5602825    700.91836  0.012135854  0.010601021            3 
 4814000    0.4806953   -8.5519344    701.33603  0.012140563   0.01059755            2 
 4815000   0.49326657    -8.544786    700.66831  0.012126485  0.010594084            2 
 4816000    0.4777079   -8.5558459      700.341  0.012118304  0.010590617            2 
 4817000   0.48955435   -8.5679373    700.49157  0.012118393  0.010587148            4 
 4818000   0.48470815   -8.5535299    700.24839  0.012111671  0.010583681            2 
 4819000   0.47798571   -8.5514122    701.18323  0.012125324  0.010580217            2 
 4820000   0.46408503   -8.5657402    701.21684  0.012123389  0.010576753            4 
 4821000   0.47537974   -8.5540258    700.64163  0.012110932   0.01057329            2 
 4822000   0.47610183   -8.5473059    700.31664  0.012102804   0.01056983            5 
 4823000   0.48231122   -8.5709573    699.58749  0.012087696  0.010566373            3 
 4824000   0.47429684   -8.5691296    699.72999  0.012087652  0.010562915            3 
 4825000   0.48357057     -8.56343    700.84934  0.012104479  0.010559461            2 
 4826000   0.47771035   -8.5805312    700.49582  0.012095866  0.010556007            3 
 4827000   0.48876678   -8.5764451    699.86495  0.012082469  0.010552553            3 
 4828000   0.47168591   -8.5658221     700.5924  0.012092523  0.010549099            2 
 4829000   0.47285636   -8.5595095      701.485  0.012105422  0.010545644            2 
 4830000   0.48196336   -8.5736439    700.32511  0.012082904  0.010542194            3 
 4831000   0.48071326   -8.5695789     700.3558  0.012080932  0.010538745            2 
 4832000   0.48200116   -8.5540005    699.88329  0.012070283  0.010535296            4 
 4833000   0.47259365   -8.5767099    700.24091  0.012073952   0.01053185            3 
 4834000   0.49102069   -8.5670767    700.28701  0.012072249  0.010528406            2 
 4835000    0.4833557   -8.5698031    700.29073  0.012069816  0.010524962            4 
 4836000   0.47106845   -8.5790659    700.72661  0.012074831  0.010521523            4 
 4837000   0.48691584   -8.5755542    701.32607  0.012082663  0.010518083            5 
 4838000   0.47880789   -8.5642361    700.07678  0.012058646  0.010514647            3 
 4839000   0.47613752   -8.5445139    699.82747  0.012051861  0.010511212            4 
 4840000   0.47679385   -8.5631687    700.40962  0.012059394  0.010507777            4 
 4841000   0.47724693   -8.5572511    701.17345  0.012070052  0.010504343            3 
 4842000   0.48011964   -8.5537942    700.94268  0.012063587  0.010500911            2 
 4843000   0.47650783    -8.562963    700.34513  0.012050814  0.010497481            3 
 4844000   0.47628387   -8.5628926    700.36351  0.012048643  0.010494053            4 
 4845000    0.4776632   -8.5807334      700.005   0.01203999  0.010490624            3 
 4846000   0.47688884   -8.5635685    700.96244   0.01205397  0.010487199            2 
 4847000     0.477122   -8.5739077    699.58319   0.01202777   0.01048377            4 
 4848000   0.47096785   -8.5641457    701.12137  0.012051729  0.010480346            2 
 4849000   0.46411342   -8.5641414    699.96229  0.012029324  0.010476925            7 
 4850000    0.4815991   -8.5439324    699.91426  0.012026018  0.010473502            2 
 4851000   0.48066435   -8.5600822    701.24586  0.012046414  0.010470083            3 
 4852000   0.46646851   -8.5710321    699.79357  0.012018988   0.01046666            2 
 4853000     0.474437   -8.5556634    701.20544  0.012040756  0.010463242            4 
 4854000   0.47577368   -8.5811822     701.4802  0.012042992  0.010459824            2 
 4855000   0.47890312   -8.5544863    701.20242  0.012035743   0.01045641            7 
 4856000   0.47844402   -8.5654038    700.30119  0.012017799  0.010452996            3 
 4857000   0.48303683    -8.558359    700.21289   0.01201381  0.010449584            3 
 4858000    0.4914804   -8.5777595     700.7418   0.01202041  0.010446172            5 
 4859000   0.46760106   -8.5904797    701.06335   0.01202345  0.010442763            4 
 4860000   0.47203819   -8.5683178     700.7776  0.012016077  0.010439354            3 
 4861000   0.48693022   -8.5812771    700.79453  0.012013895  0.010435945            2 
 4862000   0.47641788    -8.566546    699.50058  0.011989246  0.010432538            4 
 4863000   0.48145199   -8.5668177     698.9922  0.011978069  0.010429134            3 
 4864000   0.48056625   -8.5625253    700.83806  0.012007231  0.010425732            3 
 4865000   0.46988932    -8.574923    699.67767  0.011984886  0.010422331            3 
 4866000   0.47260667   -8.5902209    700.30303  0.011993133  0.010418929            1 
 4867000   0.48840473    -8.574158    700.92485  0.012001316   0.01041553            2 
 4868000   0.46898893   -8.5796636    700.89497  0.011998339   0.01041213            5 
 4869000   0.48501852    -8.573252    701.02366  0.011998077   0.01040873            2 
 4870000   0.47347968   -8.5815202     701.0242  0.011995623  0.010405336            3 
 4871000   0.48596549   -8.5720203    700.89177  0.011990895  0.010401942            3 
 4872000   0.48271718    -8.585192    699.80045  0.011969767  0.010398549            3 
 4873000   0.45580578   -8.5955051    700.75059  0.011983559  0.010395154            4 
 4874000   0.47383024   -8.5846377    700.09551    0.0119699  0.010391762            2 
 4875000   0.47093184   -8.5637539    700.46168  0.011973704  0.010388373            2 
 4876000   0.47071592   -8.5769551    700.09122  0.011964917  0.010384984            2 
 4877000    0.4690625   -8.5835728    700.81113  0.011974765  0.010381599            3 
 4878000   0.47533538   -8.5879195      699.302  0.011946529  0.010378216            2 
 4879000   0.48151938   -8.5862715    699.81154  0.011952783  0.010374834            3 
 4880000   0.47719036    -8.573977    700.88779  0.011968712  0.010371454            4 
 4881000    0.4732025   -8.5633789    700.58902  0.011961159  0.010368077            1 
 4882000   0.47163431   -8.5842014    699.28171  0.011936394  0.010364699            2 
 4883000   0.47317822    -8.562494    699.91054  0.011944681  0.010361322            4 
 4884000   0.46113058   -8.5851864    698.97861  0.011926334  0.010357946            3 
 4885000   0.48163148   -8.5717669     699.9286  0.011940099   0.01035457            3 
 4886000   0.46960113   -8.5864239    700.51495  0.011947656  0.010351196            2 
 4887000   0.47342289   -8.5781364    700.16538   0.01193925  0.010347823            3 
 4888000   0.45996745   -8.5844142    700.36398  0.011940193  0.010344453            3 
 4889000   0.48159077   -8.5803245    700.39418  0.011938266  0.010341084            3 
 4890000   0.47520381   -8.5790206    699.99943  0.011929097  0.010337715            2 
 4891000   0.46429939   -8.5676914    700.09936  0.011928361   0.01033435            2 
 4892000   0.47024415   -8.5637142    699.88922  0.011922343  0.010330985            2 
 4893000   0.46902295   -8.5867126    699.80854  0.011918532  0.010327622            3 
 4894000   0.47408852   -8.5726539    699.63729  0.011913181  0.010324262            3 
 4895000   0.46920196   -8.5704252    698.95154  0.011899073  0.010320902            4 
 4896000    0.4728343   -8.5846831    700.55213  0.011923886  0.010317543            4 
 4897000   0.46825374   -8.5806546    699.53994  0.011904226  0.010314187            2 
 4898000   0.47503879   -8.5690972    699.48622  0.011900882  0.010310829            2 
 4899000   0.48287622   -8.5874195    700.33432  0.011912879  0.010307476            3 
 4900000    0.4667765   -8.5843699    699.64497  0.011898724  0.010304123            2 
 4901000   0.47003004   -8.5760753    700.21847  0.011906048  0.010300768            2 
 4902000   0.47196437   -8.5761053    699.96445    0.0118993  0.010297419            3 
 4903000   0.46171984   -8.5918412    699.33989  0.011886258  0.010294069            4 
 4904000   0.46101185   -8.5774407     700.4698  0.011903035  0.010290719            2 
 4905000   0.46926186   -8.5916587    699.27915   0.01188038  0.010287371            2 
 4906000   0.45939265   -8.5784868    700.32453  0.011895715  0.010284027            2 
 4907000   0.45386981   -8.5736094    700.77995  0.011901025  0.010280685            4 
 4908000   0.47305718   -8.5705755    700.71473  0.011897493   0.01027734            3 
 4909000   0.46759849   -8.5858355    700.39994  0.011889725  0.010273996            3 
 4910000   0.45851613   -8.5886037    700.41514  0.011887562  0.010270657            4 
 4911000    0.4657684   -8.6075929    698.78354  0.011857455  0.010267319            2 
 4912000   0.46540621   -8.5930269    699.66133  0.011869933   0.01026398            2 
 4913000   0.46069687   -8.5854735      700.196  0.011876586  0.010260645            3 
 4914000   0.45567576   -8.5804046    698.24114  0.011841018  0.010257311            1 
 4915000   0.46365715   -8.5760346    700.92478   0.01188411  0.010253979            2 
 4916000   0.46469156   -8.5777728    699.31538   0.01185441  0.010250648            4 
 4917000    0.4587291    -8.591787    699.31392  0.011851975  0.010247321            2 
 4918000    0.4634951   -8.5902384    699.07306  0.011845484  0.010243992            4 
 4919000    0.4567618    -8.586029    699.29625  0.011846857  0.010240663            2 
 4920000   0.47269027   -8.5977287    699.66868  0.011850757  0.010237338            3 
 4921000   0.46994964   -8.5812111    699.58713  0.011846968   0.01023401            4 
 4922000   0.46531528     -8.60632    700.08343  0.011852963  0.010230684            2 
 4923000    0.4659764   -8.5863912    698.56253  0.011824811  0.010227363            3 
 4924000   0.46244286   -8.5941449    700.00584  0.011846836  0.010224042            3 
 4925000   0.46880722   -8.5874862    700.28672  0.011849183  0.010220723            3 
 4926000   0.46453016   -8.5789799    698.86561  0.011822737  0.010217405            4 
 4927000   0.46093031   -8.5765103    698.54834  0.011814971  0.010214087            2 
 4928000   0.47324803   -8.5823417    699.15294  0.011822797  0.010210773            4 
 4929000   0.46044972    -8.597065    700.24359  0.011838838   0.01020746            3 
 4930000   0.46715644   -8.5964613    699.26402  0.011819879  0.010204146            2 
 4931000   0.46232543   -8.5882189    699.57497  0.011822737  0.010200833            3 
 4932000   0.45265889   -8.5875374    698.96487  0.011810031  0.010197524            1 
 4933000   0.46148747   -8.5960988     699.3588  0.011814292  0.010194215            2 
 4934000   0.46529964   -8.5765301    699.61733  0.011816264  0.010190907            3 
 4935000   0.46535757   -8.5692476    699.56946  0.011813061  0.010187603            1 
 4936000   0.47032117   -8.5880923    699.75618   0.01181382  0.010184298            2 
 4937000   0.46238274   -8.6079838    699.83065  0.011812684  0.010180994            2 
 4938000   0.46514671   -8.5896124    699.58803  0.011806197  0.010177693            4 
 4939000   0.45114762   -8.5866453    699.99929  0.011810746  0.010174392            2 
 4940000   0.47148817   -8.5802622    699.44036  0.011798926  0.010171092            1 
 4941000   0.45916797   -8.5924548    699.29175  0.011794032  0.010167794            2 
 4942000   0.46113096    -8.591611    699.52056  0.011795504  0.010164496            2 
 4943000   0.46279916   -8.5947161    698.87525  0.011782238  0.010161201            3 
 4944000   0.47174142   -8.5925573    699.48297  0.011790099  0.010157909            2 
 4945000   0.46158468   -8.5941547    699.19035  0.011782783  0.010154617            3 
 4946000   0.45479469   -8.5823061    700.30203  0.011799131  0.010151325            3 
 4947000   0.45769844   -8.5978296    699.37592  0.011781145  0.010148034            3 
 4948000   0.46307099   -8.5918969    699.08749  0.011773907  0.010144746            3 
 4949000   0.45506475   -8.6015329    698.77948  0.011766341  0.010141458            3 
 4950000    0.4582376   -8.5806968    699.45284    0.0117753  0.010138171            3 
 4951000   0.46353933   -8.5895392    698.90949  0.011763776  0.010134889            2 
 4952000   0.45447932   -8.6030462    699.18885  0.011766102  0.010131604            5 
 4953000   0.44997535   -8.5898032    698.91559  0.011759129  0.010128322            3 
 4954000   0.46294895   -8.5826999    699.77863  0.011771273   0.01012504            4 
 4955000   0.45190204    -8.597804    699.16735  0.011758617   0.01012176            2 
 4956000   0.44507451   -8.5760917    699.58744  0.011763308  0.010118485            2 
 4957000   0.45570878   -8.5912458    700.06662   0.01176899  0.010115209            2 
 4958000   0.46633144   -8.5780691    700.29113   0.01177039  0.010111935            3 
 4959000   0.45716314    -8.604008    699.94784  0.011762248  0.010108663            2 
 4960000   0.45580179   -8.6059311     698.9701  0.011743449   0.01010539            3 
 4961000   0.45372963   -8.5884183     699.0391  0.011742241  0.010102118            5 
 4962000   0.46605959    -8.594191    698.88983  0.011737368  0.010098847            3 
 4963000   0.46099533   -8.5981468    699.83106  0.011750807  0.010095579            3 
 4964000   0.46125461   -8.5876967    697.87089  0.011715533  0.010092307            2 
 4965000   0.45993328   -8.6021652    698.75162  0.011727956  0.010089041            2 
 4966000   0.45162614   -8.5974722    698.36774  0.011719153  0.010085775            4 
 4967000     0.452818    -8.587186     699.6974  0.011739101  0.010082512            3 
 4968000   0.46129818   -8.6012083    698.68555  0.011719766  0.010079251            3 
 4969000   0.46209796   -8.6015119    699.13181  0.011724891  0.010075988            4 
 4970000   0.45776493   -8.5944211    698.16648  0.011706346  0.010072728            2 
 4971000   0.45881191   -8.5863107    699.59202  0.011727889  0.010069471            1 
 4972000   0.45162887   -8.5846291    698.98771  0.011715401  0.010066213            1 
 4973000   0.45598905   -8.6013318    699.73684  0.011725599  0.010062955            2 
 4974000   0.46053246    -8.590454     699.4835  0.011718997  0.010059701            2 
 4975000   0.44679579    -8.585156    698.79409  0.011705094  0.010056449            2 
 4976000   0.46015435    -8.599564    699.13553  0.011708459    0.0100532            2 
 4977000   0.45738645   -8.5943067    699.32999  0.011709363  0.010049948            4 
 4978000   0.45500608   -8.5908548    698.93554  0.011700407  0.010046699            2 
 4979000   0.45841224   -8.5976747    700.20595   0.01171932  0.010043452            1 
 4980000   0.44968896   -8.6007698    699.95696  0.011712801  0.010040205            2 
 4981000    0.4571437   -8.6059378    699.20196  0.011697818  0.010036964            1 
 4982000   0.45187189   -8.5778428    699.04425  0.011692832   0.01003372            3 
 4983000   0.44655766   -8.5978881    699.22358  0.011693484  0.010030479            7 
 4984000    0.4509902   -8.5933696    699.68593  0.011698869  0.010027238            3 
 4985000   0.45698567   -8.6163934    698.79455  0.011681621  0.010024001            3 
 4986000   0.45864914   -8.6025811    699.60042  0.011692747  0.010020763            2 
 4987000   0.46001593   -8.5909347    699.43829  0.011687693  0.010017526            2 
 4988000   0.45565668   -8.5989853    699.64015  0.011688722  0.010014292            3 
 4989000   0.46411043   -8.6025483     699.0387  0.011676333  0.010011059            2 
 4990000   0.46505413   -8.5807487    698.84249  0.011670716  0.010007829            3 
 4991000   0.45078977   -8.6000546    699.71085  0.011682877  0.010004598            2 
 4992000   0.46369119   -8.5747379     699.0568  0.011669618   0.01000137            2 
 4993000   0.45676912   -8.6083693    698.93366  0.011665226 0.0099981418            1 
 4994000     0.449205   -8.6032032    698.51633  0.011655926 0.0099949135            2 
 4995000   0.45336986    -8.603698    699.06769  0.011662791 0.0099916888            3 
 4996000   0.46845416   -8.5977488    698.81101  0.011656175 0.0099884674            2 
 4997000   0.44580783   -8.6117057    698.82989  0.011654157 0.0099852431            2 
 4998000   0.45446431   -8.6183305     699.9558  0.011670598 0.0099820218            1 
 4999000    0.4559879   -8.6042721    698.72517  0.011647749 0.0099788022            2 
 5000000   0.44557977    -8.592077    699.52691  0.011658782 0.0099755833            2 
 5001000   0.45053776    -8.603588    699.49953  0.011655994 0.0099723662            4 
 5002000   0.44427592   -8.6093512    699.21339  0.011648897 0.0099691497            2 
 5003000   0.45965164   -8.5997405    697.91193   0.01162489 0.0099659347            2 
 5004000   0.45389597   -8.6140609    698.70741  0.011635815 0.0099627214            1 
 5005000   0.44678756   -8.5968778    699.16982  0.011641189 0.0099595064            2 
 5006000     0.452649   -8.6126867    698.65763  0.011630337 0.0099562932            2 
 5007000    0.4488259   -8.6116109    698.64547  0.011627812 0.0099530809            2 
 5008000   0.44283751   -8.6070495    698.44362  0.011622132 0.0099498703            2 
 5009000   0.44677658   -8.5888194    699.05289  0.011629948 0.0099466605            3 
 5010000   0.44467506   -8.6047534    699.39531  0.011633322 0.0099434532            2 
 5011000   0.44659403   -8.6016641    699.50049  0.011632749 0.0099402425            3 
 5012000   0.45207162   -8.6042277    699.30232  0.011627133 0.0099370409            3 
Loop time of 11805.2 on 48 procs for 5000000 steps with 4000 atoms

Performance: 73188.335 tau/day, 423.544 timesteps/s
99.4% CPU use with 48 MPI tasks x no OpenMP threads

MPI task timing breakdown:
Section |  min time  |  avg time  |  max time  |%varavg| %total
---------------------------------------------------------------
Pair    | 761.2      | 818.57     | 886.97     | 100.4 |  6.93
Neigh   | 77.6       | 80.786     | 84.483     |  17.1 |  0.68
Comm    | 732.29     | 800.37     | 857.31     | 103.8 |  6.78
Output  | 13.825     | 13.83      | 13.922     |   0.4 |  0.12
Modify  | 9972.6     | 9989.5     | 10009      |   8.1 | 84.62
Other   |            | 102.1      |            |       |  0.86

Nlocal:        83.3333 ave          89 max          74 min
Histogram: 1 0 3 3 8 4 10 6 6 7
Nghost:        2029.98 ave        2052 max        2011 min
Histogram: 3 4 6 7 8 9 3 2 3 3
Neighs:        13147.2 ave       14463 max       11786 min
Histogram: 2 3 4 9 6 6 7 3 7 1
FullNghs:      26294.5 ave       28484 max       23154 min
Histogram: 1 1 4 5 5 9 6 8 3 6

Total # of neighbors = 1262137
Ave neighs/atom = 315.53425
Neighbor list builds = 268005
Dangerous builds = 5

#clear
#
#next RN
#
#jump SELF
Total wall time: 3:16:48
