
units lj                  # Use reduced LJ style units
atom_style atomic         # Uncharged point particles
atom_modify map hash      # Needed for indexing of clusters etc
                          # Used to be able to find where atoms are in relation to each other.

lattice fcc 1.0 spacing 1 1 1
Lattice spacing in x,y,z = 1.5874011 1.5874011 1.5874011
region box block 0 10 0 10 0 10 units lattice
create_box 2 box
Created orthogonal box = (0.0000000 0.0000000 0.0000000) to (15.874011 15.874011 15.874011)
  3 by 4 by 4 MPI processor grid
create_atoms 1 box
Created 4000 atoms
  using lattice units in orthogonal box = (0.0000000 0.0000000 0.0000000) to (15.874011 15.874011 15.874011)
  create_atoms CPU = 0.017 seconds
set type 1 type/fraction 2 0.17 78393
Setting atom values ...
  712 settings made for type/fraction
mass 1 1.0
mass 2 1.0
pair_style lj/cut  3.5
pair_modify tail  yes
pair_coeff 1  1  1.0  1.0   # Intearaction between 1 and 1 set with epsilon = 1 and sigma = 1
pair_coeff 1  2  1.5  0.8
pair_coeff 2  2  0.5  0.88

write_data data.0
System init for write_data ...
Neighbor list info ...
  update every 1 steps, delay 10 steps, check yes
  max neighbors/atom: 2000, page size: 100000
  master list distance cutoff = 3.8
  ghost atom cutoff = 3.8
  binsize = 1.9, bins = 9 9 9
  1 neighbor lists, perpetual/occasional/extra = 1 0 0
  (1) pair lj/cut, perpetual
      attributes: half, newton on
      pair build: half/bin/atomonly/newton
      stencil: half/bin/3d
      bin: standard
WARNING: Not all mixed pair coeffs generated from mixing. Use write_data with 'pair ij' option to store all pair coeffs. (../write_data.cpp:312)


#############################
#   M E L T   S Y S T E M   #
#############################

velocity all create 2.4 5833274 mom yes dist gaussian # Assign velocities
                                                    # Temperature 2.4, random number seed, zero linear momentum
                                                                                # Gaussian distribution

timestep 0.002   # simulation timestep
thermo 1000       # output thermodynamic data every 1000 steps bf 100

# Define a fix  in this case with index 1 applied to all
# particles in the simulation. This fix is for simulations
# in the anisotropic NPT ensemble. Note that we use the MTK
# correction.
fix 1 all npt temp 2.4 2.4 0.1 iso 5.68 5.68 0.5 mtk yes tchain 5 pchain 5 # Use NPT ensemble
                                                                         # Set temperature and pressure and damping
                                                                         # Numbers of thermostats in chain and in barostat
run 10000          # run for 10000 steps
Per MPI rank memory allocation (min/avg/max) = 3.642 | 3.644 | 3.648 Mbytes
Step Temp E_pair E_mol TotEng Press Volume 
       0          2.4   -7.2317907            0   -3.6326907   -3.4668638         4000 
    1000    2.4221694   -4.7261735            0   -1.0938277    5.5819961    4606.1935 
    2000    2.4068077   -4.8239019            0    -1.214593    5.7755739    4547.2003 
    3000    2.3992287   -4.7575464            0   -1.1596031    5.4870899    4608.5759 
    4000    2.4459578   -4.7887664            0   -1.1207469    5.5278823    4593.6503 
    5000    2.3960817   -4.7361431            0   -1.1429191    5.7694788    4585.4827 
    6000    2.4119456    -4.775953            0   -1.1589391    5.5932165    4585.6846 
    7000    2.4358285   -4.7913076            0   -1.1384783    5.8435939    4556.0857 
    8000    2.4204389   -4.7854123            0   -1.1556617    5.7215589    4564.5225 
    9000    2.4514255   -4.7394283            0   -1.0632094    5.7462251    4588.6262 
   10000    2.4590858   -4.7768832            0   -1.0891767    5.8719024    4565.7728 
Loop time of 2.2805 on 48 procs for 10000 steps with 4000 atoms

Performance: 757727.664 tau/day, 4384.998 timesteps/s
99.6% CPU use with 48 MPI tasks x no OpenMP threads

MPI task timing breakdown:
Section |  min time  |  avg time  |  max time  |%varavg| %total
---------------------------------------------------------------
Pair    | 0.95062    | 1.0092     | 1.14       |   3.7 | 44.25
Neigh   | 0.19626    | 0.20467    | 0.22387    |   1.2 |  8.97
Comm    | 0.67289    | 0.80323    | 0.87901    |   5.0 | 35.22
Output  | 0.00024389 | 0.00024882 | 0.00030647 |   0.0 |  0.01
Modify  | 0.22353    | 0.24851    | 0.30798    |   5.2 | 10.90
Other   |            | 0.01462    |            |       |  0.64

Nlocal:        83.3333 ave          93 max          76 min
Histogram: 7 4 6 3 10 7 3 3 3 2
Nghost:        1507.33 ave        1532 max        1476 min
Histogram: 1 3 3 5 5 11 7 5 5 3
Neighs:        8351.58 ave        9794 max        7348 min
Histogram: 5 5 7 10 3 6 6 3 1 2

Total # of neighbors = 400876
Ave neighs/atom = 100.21900
Neighbor list builds = 910
Dangerous builds = 234

# Equilibrate just above the melting temperature to avoid step fn in T

fix 1 all npt temp 1.25 1.25 0.1 iso 5.68 5.68 0.5 mtk yes tchain 5 pchain 5
run 2000
Per MPI rank memory allocation (min/avg/max) = 3.642 | 3.644 | 3.649 Mbytes
Step Temp E_pair E_mol TotEng Press Volume 
   10000    2.4590858   -4.7768832            0   -1.0891767    5.8719024    4565.7728 
   11000     1.266208    -6.448276            0   -4.5494388    5.6478594    3750.5477 
   12000    1.2090569   -6.4751926            0   -4.6620607    5.6905285    3733.0487 
Loop time of 0.50024 on 48 procs for 2000 steps with 4000 atoms

Performance: 690868.379 tau/day, 3998.081 timesteps/s
99.6% CPU use with 48 MPI tasks x no OpenMP threads

MPI task timing breakdown:
Section |  min time  |  avg time  |  max time  |%varavg| %total
---------------------------------------------------------------
Pair    | 0.22278    | 0.24034    | 0.26181    |   1.8 | 48.05
Neigh   | 0.032266   | 0.03418    | 0.037      |   0.5 |  6.83
Comm    | 0.1466     | 0.17066    | 0.19107    |   2.6 | 34.12
Output  | 5.34e-05   | 5.4734e-05 | 6.93e-05   |   0.0 |  0.01
Modify  | 0.043798   | 0.050311   | 0.060474   |   1.7 | 10.06
Other   |            | 0.004689   |            |       |  0.94

Nlocal:        83.3333 ave          91 max          73 min
Histogram: 1 1 1 6 8 8 9 6 6 2
Nghost:        1722.44 ave        1745 max        1703 min
Histogram: 4 3 4 8 11 8 1 3 3 3
Neighs:        10226.1 ave       11581 max        8751 min
Histogram: 2 0 1 10 10 8 9 4 3 1

Total # of neighbors = 490854
Ave neighs/atom = 122.71350
Neighbor list builds = 141
Dangerous builds = 13

#############################
# L I N E A R  Q U E N C H  #
#############################

# Define solid atoms. This closely follows ten Wolde  Ruiz-Montero and Frenkel  Faraday Discuss  1996  104  93-110
# Compute components of the per-atom q6 vector
compute q6 all orientorder/atom degrees 1 6 components 6 nnn NULL cutoff 1.3 # compute the Q6 parameter.
                                                                             # Use all neighbours within 1.3 unit cell.

# get number of connections
compute coord_number all coord/atom orientorder q6 0.5

# An atom is solid if it has 8 or more connections (of a possible 14)
variable is_solid atom c_coord_number>=8
group solid dynamic all var is_solid    # Must be dynamic to update
dynamic group solid defined

# do clustering
compute cluster solid cluster/atom 1.3 # Create a cluster where all atoms within are solid and max 1.3 units from another member

# define chunks one chunk per cluster
compute clus_chunks solid chunk/atom c_cluster nchunk every compress yes  # Says which atoms are in which chunk

# count the size of each chunk
compute size_chunks solid property/chunk clus_chunks count


# Find the maximum entry in the vector of chunk sizes
variable max_n equal max(c_size_chunks)


# Thermo style which includes this variable
# thermo_style custom step temp pe vol v_max_n

thermo ${N}  # Print the thermo information every 100 steps
thermo 1000  

# Reset the npt fix at a lower temperature (below freezing)
fix 1  all npt temp  ${temp} ${temp}  0.1  iso  5.68  5.68  0.5  mtk yes tchain  5  pchain  5
fix 1  all npt temp  0.45 ${temp}  0.1  iso  5.68  5.68  0.5  mtk yes tchain  5  pchain  5
fix 1  all npt temp  0.45 0.45  0.1  iso  5.68  5.68  0.5  mtk yes tchain  5  pchain  5

dump dmp2 all dcd ${N} traj.dcd
dump dmp2 all dcd 1000 traj.dcd


compute msd all msd com yes
variable twopoint equal c_msd[4]/6/(step*dt+1.0e-6)
fix 9 all vector 10 c_msd[4]
variable fit equal slope(f_9)/6/(10*dt)
thermo_style custom step temp pe c_msd[4] v_twopoint v_fit v_max_n

fix 1 all npt temp 1.25 ${temp} 0.1 iso 5.68 5.68 0.5 mtk yes tchain 5 pchain 5
fix 1 all npt temp 1.25 0.45 0.1 iso 5.68 5.68 0.5 mtk yes tchain 5 pchain 5
run 5000000 # 5000000  # Run for this many steps
Neighbor list info ...
  update every 1 steps, delay 10 steps, check yes
  max neighbors/atom: 2000, page size: 100000
  master list distance cutoff = 3.8
  ghost atom cutoff = 3.8
  binsize = 1.9, bins = 9 9 9
  4 neighbor lists, perpetual/occasional/extra = 1 3 0
  (1) pair lj/cut, perpetual
      attributes: half, newton on
      pair build: half/bin/atomonly/newton
      stencil: half/bin/3d
      bin: standard
  (2) compute orientorder/atom, occasional
      attributes: full, newton on
      pair build: full/bin/atomonly
      stencil: full/bin/3d
      bin: standard
  (3) compute coord/atom, occasional
      attributes: full, newton on
      pair build: full/bin/atomonly
      stencil: full/bin/3d
      bin: standard
  (4) compute cluster/atom, occasional
      attributes: full, newton on
      pair build: full/bin/atomonly
      stencil: full/bin/3d
      bin: standard
Per MPI rank memory allocation (min/avg/max) = 9.767 | 9.772 | 9.778 Mbytes
Step Temp PotEng c_msd[4] v_twopoint v_fit v_max_n 
   12000    1.2090569   -6.4751926 1.854612e-30 1.2879249e-32 8.3333333e+20            3 
   13000    1.2499114   -6.5071396   0.53449281 0.0034262358  0.043548555            3 
   14000    1.2474771   -6.4669567     1.046461 0.0062289346  0.043372068            2 
   15000    1.2673159   -6.4445444    1.5615898 0.0086754988  0.043121159            4 
   16000    1.2535914    -6.483014    2.1160286  0.011020982  0.042947713            4 
   17000    1.2458498   -6.4302623    2.6593852  0.013036201  0.043905847            1 
   18000    1.2360717   -6.4605745    3.2127472  0.014873829  0.044114094            4 
   19000    1.2591243   -6.4341864    3.7195209  0.016313688  0.044424568            2 
   20000    1.2543053   -6.5175387    4.2494794  0.017706164  0.044325766            1 
   21000    1.2298076   -6.4204547    4.6641195   0.01850841  0.043920784            3 
   22000     1.268241   -6.4387307    5.1488871   0.01950336  0.043440772            2 
   23000    1.2622942   -6.4851828     5.585189  0.020236191   0.04292836            1 
   24000    1.2659208   -6.4769897    6.0317414  0.020943546  0.042378111            1 
   25000    1.2604609   -6.4307518    6.5983722  0.021994573  0.042079788            1 
   26000    1.2331635   -6.4363084     7.118895  0.022816971  0.041966921            1 
   27000     1.255787   -6.4272031    7.6447686  0.023594964  0.041905167            2 
   28000    1.2540728   -6.5105252    8.2130738  0.024443672  0.041986622            2 
   29000    1.2491599   -6.4411557    8.7991903  0.025285029  0.042185737            1 
   30000    1.2323959   -6.4995106    9.3105011  0.025862503  0.042432492            2 
   31000    1.2574906   -6.5003265    9.8499073  0.026478245  0.042579286            3 
   32000    1.2364171   -6.4415903    10.446881   0.02720542  0.042750717            4 
   33000    1.2531494   -6.4374048    11.085658  0.027994086  0.042953828            3 
   34000    1.2130237   -6.4856096    11.605513  0.028444885  0.043227777            3 
   35000    1.2319724   -6.4890866    12.121287  0.028860208  0.043438592            1 
   36000    1.2746715    -6.465183    12.745317  0.029503048  0.043616315            5 
   37000    1.2244762   -6.4292476    13.357954  0.030085481  0.043833632            4 
   38000    1.2622223   -6.4688687     13.99653  0.030694144  0.044074434            1 
   39000    1.2364361   -6.4749682    14.495727  0.030973775  0.044283503            2 
   40000    1.2532209   -6.4588025    15.016965  0.031285343  0.044441205            1 
   41000    1.2345301   -6.4389844    15.570755  0.031647876  0.044541849            3 
   42000    1.2576192   -6.4946895    16.156823  0.032057188  0.044640669            2 
   43000    1.2578703   -6.4505329    16.508529  0.031993272  0.044705977            1 
   44000    1.2622229   -6.4817823    17.203383  0.032582165  0.044773795            2 
   45000    1.2610531       -6.444    17.838298  0.033033884  0.044877186            1 
   46000    1.2384557   -6.4818777    18.389716  0.033314703  0.044972676            2 
   47000    1.2721513   -6.4829858    18.918135  0.033542792  0.045054055            2 
   48000    1.2540137   -6.4659226    19.342302  0.033580385  0.045096783            1 
   49000    1.2624887   -6.4791157    19.789913  0.033656314  0.045100703            1 
   50000    1.2436412   -6.4762309    20.198591  0.033664318  0.045068276            1 
   51000    1.2391916   -6.4322234    20.879474  0.034116787   0.04503737            2 
   52000    1.2472354   -6.5112713     21.26227   0.03407415  0.045010651            1 
   53000    1.2399939   -6.5051295    21.793335   0.03426625  0.044960118            2 
   54000    1.2450513   -6.4815218    22.283024  0.034387383  0.044912379            3 
   55000    1.2273399   -6.4873809    22.825596  0.034584235  0.044856374            1 
   56000    1.2325926    -6.464867    23.239553  0.034582668  0.044801769            4 
   57000    1.2484991   -6.4569328    23.796003  0.034789478  0.044747106            1 
   58000    1.2338921    -6.466738    24.337139  0.034967153  0.044699913            2 
   59000    1.2338352   -6.4645688    24.881341  0.035143137  0.044655259            3 
   60000    1.2550999   -6.4841063    25.635525  0.035604895   0.04463977            1 
   61000    1.2211427   -6.4952381    26.246948  0.035856486  0.044670976            2 
   62000    1.2347872   -6.4789087    26.684349   0.03586606  0.044681684            5 
   63000    1.2367342   -6.4916388    27.223953   0.03601052  0.044682944            2 
   64000    1.2399816   -6.4620637    27.886862  0.036311018  0.044691253            2 
   65000    1.2363573   -6.4485345    28.408575   0.03642125  0.044702535            2 
   66000    1.2192122   -6.4718031    28.733029  0.036279076  0.044713634            2 
   67000    1.2304639   -6.4782554    29.050317  0.036132234  0.044693387            1 
   68000    1.2587459   -6.4940202    29.620112  0.036299157  0.044656545            3 
   69000    1.2637324   -6.4742862    30.178709  0.036447716  0.044620614            3 
   70000    1.2224212   -6.4984918     30.47012  0.036273952  0.044573144            3 
   71000    1.2434639   -6.5039446    31.014093  0.036401517  0.044516944            4 
   72000    1.2501578   -6.4865174    31.342088  0.036275564  0.044457149            2 
   73000    1.2177328   -6.4560961    31.864665  0.036375188  0.044381857            1 
   74000     1.236771   -6.5141676    32.227596  0.036292338  0.044294488            3 
   75000    1.2171472   -6.4896263    32.567496  0.036186107  0.044197942            1 
   76000    1.2473047   -6.4833484    33.232932  0.036439618  0.044105721            2 
   77000    1.2228442   -6.5020744    33.788583   0.03656773   0.04403268            3 
   78000    1.2439797   -6.4593096    34.421245  0.036774834  0.043974275            2 
   79000    1.2475424   -6.4407489     35.17903  0.037108681  0.043921401            5 
   80000    1.2439147   -6.4742219    35.739574  0.037228722  0.043897473            2 
   81000    1.2313182    -6.526834    36.220637  0.037264029  0.043883398            2 
   82000    1.2352231   -6.5202901    36.673488  0.037269805  0.043863341            2 
   83000    1.2344826   -6.4598704    37.254435  0.037404051  0.043845418            4 
   84000    1.2476436   -6.4717193    37.841925  0.037541592  0.043831039            1 
   85000    1.2173006   -6.4579379    38.492016  0.037737271  0.043827047            1 
   86000    1.2453806   -6.4668347    38.819868  0.037616151  0.043822832            2 
   87000    1.2305205   -6.5075693    39.672554   0.03800053  0.043822896            3 
   88000    1.2603403   -6.4568984    40.182511   0.03805162   0.04383628            2 
   89000    1.2514021   -6.4937639    40.588457  0.038004173  0.043836714            1 
   90000     1.228724    -6.456914    41.016764  0.037978485  0.043834297            1 
   91000    1.2472229   -6.5019514    41.485246  0.037990152   0.04383654            2 
   92000    1.2533809   -6.5007144    42.169562  0.038197067  0.043832331            1 
   93000    1.2481126   -6.4956939     42.59413  0.038166783  0.043829405            2 
   94000    1.2053241   -6.4863641    43.190958  0.038289856  0.043827912            1 
   95000    1.2220299   -6.4964863    43.787612  0.038410186  0.043827344            3 
   96000    1.2140807   -6.5014676    44.362635  0.038509232  0.043831807            2 
   97000    1.2242237   -6.4737901    44.940409  0.038608599  0.043840024            2 
   98000    1.2204343   -6.4588601    45.640755  0.038810166  0.043860024            2 
   99000    1.2333961    -6.437852    46.308452  0.038980178   0.04388767            2 
  100000    1.2314222   -6.4965281    47.003879  0.039169899  0.043916624            3 
  101000    1.2291175   -6.5174534    47.849056  0.039479419  0.043960941            2 
  102000    1.2601391   -6.4851846    48.320067  0.039477178  0.044017827            2 
  103000    1.2220532   -6.5098909    48.753496  0.039444576  0.044062168            2 
  104000    1.2251952    -6.493132    49.380554  0.039567751  0.044100262            1 
  105000    1.2322249   -6.4365765    49.705197  0.039448569  0.044133376            2 
  106000    1.2510154   -6.5031008     50.34537  0.039579693  0.044164055            3 
  107000    1.2186638     -6.51484    50.655089  0.039451004   0.04418813            2 
  108000    1.2357823   -6.4693282    51.457801  0.039705093   0.04421518            3 
  109000    1.2075177   -6.5233834    52.149254   0.03986946  0.044244086            3 
  110000    1.2303307   -6.4630228    52.759672  0.039969449  0.044282791            1 
  111000    1.2225615   -6.4581443    53.431485  0.040113727  0.044323304            2 
  112000    1.2293938   -6.4970662         53.9  0.040104166   0.04436721            4 
  113000    1.2450135   -6.4906209    54.810198    0.0404205  0.044417607            2 
  114000    1.2309603   -6.4671878    55.329372  0.040445447   0.04447264            1 
  115000    1.2535704   -6.4419338    56.069913  0.040630371  0.044523631            2 
  116000    1.2165667   -6.4624517    56.503882  0.040591869  0.044573911            4 
  117000    1.2501574    -6.469492     56.78469  0.040444936    0.0446153            3 
  118000     1.262558   -6.4914082    57.280383  0.040452248   0.04464907            2 
  119000    1.2318624   -6.5086688    57.610721  0.040343642  0.044671828            1 
  120000    1.1979988   -6.5179273     57.95508  0.040246583  0.044690105            1 
  121000    1.2082836   -6.5124475    58.318364  0.040164162  0.044702321            2 
  122000      1.20287   -6.4639595    58.942426   0.04026122  0.044714094            1 
  123000    1.2291385   -6.4578217    59.882662  0.040570909  0.044728586            2 
  124000    1.2210112   -6.4598508    60.085556  0.040380078  0.044740722            2 
  125000    1.2365199     -6.48903    60.741549  0.040494366  0.044748182            3 
  126000     1.230837   -6.4924401    61.158881  0.040448995  0.044755703            4 
  127000     1.222895   -6.4963683    61.694019  0.040481639  0.044759669            2 
  128000    1.2169144   -6.4816945    62.602919  0.040757109  0.044770966            3 
  129000    1.2441377   -6.5175671    63.479603  0.041007495  0.044795497            2 
  130000    1.2276953   -6.4597156    64.005855  0.041029394  0.044824154            5 
  131000    1.2178842   -6.5175339    64.405747  0.040970577  0.044850499            3 
  132000    1.2426186   -6.5362735    65.158235  0.041135249   0.04487622            4 
  133000    1.2214151   -6.4941168    65.794886  0.041224866  0.044907604            2 
  134000    1.2669576   -6.5197113    66.566979  0.041397375   0.04494552            2 
  135000    1.2156089   -6.5114324    67.037248  0.041381017  0.044980223            3 
  136000    1.2652429   -6.4536907    67.770423  0.041525995  0.045013682            2 
  137000    1.2241226   -6.5110845     68.29226  0.041540304  0.045048811            1 
  138000    1.2476956   -6.4683804    68.890396   0.04160048  0.045082708            2 
  139000    1.2054358   -6.4810579    69.297784  0.041545434  0.045117013            2 
  140000    1.2118116   -6.4446282     70.23958  0.041809274  0.045150871            2 
  141000    1.2355615   -6.4800465    70.746793  0.041812525  0.045189242            1 
  142000    1.1958664   -6.4760616    71.259248  0.041818807  0.045223848            2 
  143000    1.2273184   -6.5100614    71.839125  0.041864292  0.045260594            2 
  144000    1.2384049   -6.5303101     72.48395   0.04194673  0.045295976            2 
  145000    1.2497145   -6.5315865    72.579914  0.041712594   0.04532808            2 
  146000    1.2321492   -6.4962454    73.018619  0.041677294   0.04535345            2 
  147000    1.2039025   -6.4613525    74.012873  0.041957411  0.045376853            2 
  148000    1.2193148   -6.4988613    74.366553  0.041873059  0.045405143            1 
  149000    1.2216243   -6.5129189    74.769965  0.041817654  0.045430182            2 
  150000    1.2172822    -6.511887    75.267496  0.041815275  0.045451887            3 
  151000    1.2233625   -6.4666364    75.736525  0.041797199  0.045465136            2 
  152000    1.2367042   -6.4592591    76.131999  0.041739034  0.045475871            1 
  153000    1.2065529   -6.5084124    76.323117  0.041570325   0.04548053            2 
  154000    1.2329209   -6.4908485    77.168116  0.041757639  0.045485787            4 
  155000    1.2214959   -6.5272951    77.161428  0.041484639  0.045486941            2 
  156000     1.227784   -6.5140077    77.991676   0.04166222  0.045487581            3 
  157000    1.2342583   -6.5088228    78.561229  0.041699166  0.045486781            2 
  158000    1.2186678   -6.5207275    78.920659   0.04162482   0.04548677            1 
  159000     1.239558   -6.4811738    79.609757  0.041724191  0.045488356            1 
  160000    1.2287384   -6.4914364    79.985815  0.041659278  0.045488015            2 
  161000    1.2487053   -6.5348806    80.791084  0.041817331  0.045489877            2 
  162000    1.2069625   -6.4933207    81.162703  0.041750362  0.045491157            7 
  163000    1.2255503   -6.4923659    81.829227  0.041834983  0.045490047            2 
  164000    1.2355061   -6.5235418    82.138488  0.041737036  0.045489869            2 
  165000    1.1969132   -6.5039854    82.704409  0.041769903  0.045491193            3 
  166000    1.2312063   -6.4932028    83.673279  0.042004658  0.045492759            3 
  167000    1.2082886   -6.4878446     84.26682  0.042049311  0.045496126            2 
  168000    1.2027794   -6.5319266    84.525697  0.041927429  0.045496805            6 
  169000    1.2366424   -6.4856541    84.985518  0.041906074  0.045496941            2 
  170000    1.2244643   -6.5287385    85.331056  0.041828949  0.045494858            2 
  171000    1.2092265   -6.5302098    85.858776  0.041841509  0.045491488            1 
  172000    1.2276375   -6.5115665    86.451393  0.041885365  0.045486987            1 
  173000    1.2113293   -6.4911606    86.674097  0.041750528  0.045480629            1 
  174000    1.2296448   -6.5317833    86.937191  0.041636586  0.045469667            2 
  175000    1.1998787   -6.5272825    87.230694  0.041538426  0.045452202            1 
  176000    1.2342239   -6.4704277    87.630017  0.041491485  0.045429973            2 
  177000    1.2081475    -6.530353    87.924245  0.041395596   0.04540799            1 
  178000    1.2353351   -6.4827051    88.922126  0.041630209  0.045383346            1 
  179000    1.2284771   -6.5419089    89.027199  0.041446554   0.04536044            3 
  180000    1.2678536    -6.519555    89.097766  0.041248966  0.045335638            1 
  181000    1.2126691   -6.4685929    90.332772  0.041589674  0.045310557            1 
  182000    1.2188056   -6.4760641    90.173539   0.04128825  0.045285162            1 
  183000    1.2113333   -6.4850345    90.525538  0.041222922  0.045254479            3 
  184000    1.2398038   -6.4953702    90.906509  0.041171426  0.045221211            2 
  185000    1.2170733   -6.4982197    91.201865  0.041081921  0.045186017            2 
  186000    1.2289513    -6.487105    91.956555  0.041199173  0.045153657            2 
  187000    1.2157709   -6.5307613    91.998738  0.040997655  0.045118304            2 
  188000    1.2372698   -6.5199329    92.767478  0.041120336  0.045084578            2 
  189000    1.2529662   -6.5402586    92.991241  0.041001429  0.045048863            1 
  190000    1.2163705   -6.5407732    93.667436  0.041082209    0.0450143            2 
  191000    1.1979905   -6.5580743    93.684897  0.040874737  0.044976841            3 
  192000    1.2046302   -6.5034495    94.483545  0.041008483  0.044940417            1 
  193000    1.2307418   -6.5057318    95.117483  0.041069725  0.044906755            1 
  194000    1.2493178     -6.53767    95.143873  0.040869361  0.044869054            1 
  195000    1.2150682   -6.4903361    96.141989   0.04108632  0.044831108            1 
  196000    1.2310192   -6.5237984    96.429314  0.040998858   0.04479486            3 
  197000    1.1976139   -6.4994465    96.658484  0.040887683  0.044757887            2 
  198000    1.2301894   -6.5003576    97.514077  0.041041278  0.044721071            3 
  199000    1.2153867   -6.5255552    97.577242  0.040861491  0.044686532            2 
  200000     1.196773    -6.514722    98.407194  0.041002998  0.044653914            2 
  201000    1.2024245   -6.5250976    99.108474  0.041089749  0.044623374            2 
  202000    1.2152743   -6.5208915    99.821058  0.041180304  0.044594361            2 
  203000    1.1756422   -6.5348686    99.797431  0.040967747  0.044565971            3 
  204000    1.2202808   -6.5205552    100.38574  0.041007247  0.044536822            2 
  205000    1.2273797   -6.5173545    100.91929  0.041024101  0.044507478            3 
  206000    1.2319348    -6.508374    101.46549  0.041045912   0.04447793            1 
  207000    1.2096014   -6.5102644    101.47039  0.040849592  0.044447003            2 
  208000    1.2262217   -6.4934569    102.34805   0.04100483  0.044416077            3 
  209000    1.2006152   -6.5221473    102.86496  0.041014737  0.044387454            6 
  210000    1.2163251   -6.5060522    103.57581  0.041101511  0.044360194            1 
  211000    1.2273755   -6.5001165    104.24919  0.041172666  0.044334113            2 
  212000    1.2489014   -6.5703068    104.33189  0.041010964   0.04430785            2 
  213000    1.2192359   -6.4719165    105.03757   0.04109451   0.04428345            2 
  214000    1.2051107   -6.5449041    105.18849  0.040961251  0.044258719            2 
  215000    1.2206879   -6.4949037    105.85363  0.041028539  0.044232395            3 
  216000    1.2200173   -6.5427932    105.81215  0.040822588  0.044204711            3 
  217000     1.204494    -6.502762     106.5556  0.040919971  0.044176138            2 
  218000    1.2085012   -6.4812336    107.24703  0.040996572  0.044149164            2 
  219000    1.2214821   -6.4848287    107.42522  0.040877177  0.044119909            2 
  220000    1.2053343   -6.4790449    107.89853  0.040870655  0.044087805            1 
  221000    1.2213734   -6.5351822    108.64711  0.040967992  0.044059033            1 
  222000    1.2193959   -6.4854545    109.58533  0.041135634  0.044032948            2 
  223000    1.2300353   -6.5253473    109.03604  0.040745903  0.044005749            3 
  224000    1.2325493   -6.4957544    109.69585  0.040809469  0.043977417            3 
  225000    1.2203221   -6.5581434    110.14281  0.040793634   0.04394778            1 
  226000    1.2283277    -6.517564    110.50372  0.040746208  0.043916498            6 
  227000    1.2127791   -6.5208406     111.1063  0.040787923  0.043884905            3 
  228000    1.2153051   -6.5432324    110.98486  0.040564641  0.043856305            3 
  229000    1.2003873   -6.5393432    111.68051   0.04064065  0.043827243            2 
  230000    1.2159945   -6.5146858    112.22648  0.040661769  0.043794844            1 
  231000    1.2276404   -6.4812844     112.7885  0.040688491  0.043764681            1 
  232000    1.2183386   -6.5510291    113.05199  0.040607756  0.043734907            1 
  233000    1.1834835   -6.5285969    113.81309  0.040705682  0.043705552            2 
  234000    1.2229591   -6.5390663    114.52496  0.040785241  0.043677973            2 
  235000    1.2095479   -6.5239181    114.98894  0.040776221  0.043651999            1 
  236000    1.2069902   -6.5199748    115.50251  0.040784786  0.043627634            2 
  237000    1.2020994   -6.5593912    116.25783  0.040878279  0.043604864            2 
  238000    1.2449467   -6.5143775    116.58074  0.040819586  0.043580095            1 
  239000    1.2205763   -6.5213345    116.87445  0.040751202  0.043555846            4 
  240000    1.2138522   -6.5275241    117.65588  0.040852737  0.043533206            1 
  241000    1.2108945    -6.493829     118.7612  0.041065421  0.043513972            2 
  242000    1.2379545    -6.562322    118.62311  0.040848178  0.043494558            4 
  243000    1.2070378   -6.5290145    119.50091  0.040981109  0.043476224            2 
  244000    1.2389117   -6.5267588    120.20209  0.041052626  0.043458464            4 
  245000    1.2263915   -6.5284204    120.33309  0.040929622  0.043442299            1 
  246000    1.2146933   -6.5567055    121.21584  0.041062276   0.04342789            2 
  247000    1.1980334   -6.5169224    121.41084  0.040961823  0.043412309            1 
  248000    1.1983973   -6.5238294    122.09131  0.041025306  0.043393302            2 
  249000    1.2164528   -6.5548158    122.21828  0.040903038  0.043374773            2 
  250000    1.2465892   -6.5204077    122.79476  0.040931586  0.043357317            2 
  251000    1.1967908   -6.4945802    123.59549   0.04103436  0.043340701            3 
  252000    1.2028249   -6.5565677     123.9659  0.040994013  0.043322777            3 
  253000    1.1851638   -6.5299308    123.89104  0.040807325  0.043304789            2 
  254000    1.2530605   -6.5092286    125.06877   0.04103306  0.043288059            2 
  255000    1.2226652    -6.555385    125.03148  0.040859961  0.043271929            1 
  256000     1.227408   -6.5116064     125.3113  0.040791438  0.043254179            3 
  257000    1.2253046   -6.5631875    125.57662  0.040718749  0.043233415            1 
  258000    1.2103614   -6.5318349    126.32264  0.040801886  0.043213285            1 
  259000    1.2150124   -6.5200849    127.13518  0.040905783  0.043193534            3 
  260000    1.2221935   -6.4782131    126.81665  0.040646363  0.043173754            1 
  261000    1.2000165   -6.5479784    127.61367  0.040745106  0.043152802            1 
  262000    1.1963345   -6.5338553    128.11447  0.040748878   0.04313155            2 
  263000    1.1818011   -6.5341025    128.44786  0.040699575  0.043109349            2 
  264000    1.2309539   -6.5331478    128.55519  0.040579289  0.043087897            1 
  265000     1.222996   -6.5196889    128.90206  0.040535239  0.043065298            1 
  266000    1.2085824   -6.5534325    129.61004   0.04060465  0.043043447            3 
  267000    1.1929065    -6.564046    130.64217   0.04077471  0.043023583            2 
  268000    1.2236549   -6.5013767    130.69374    0.0406386  0.043003508            1 
  269000    1.2199238   -6.5292293    131.37224  0.040697721  0.042981457            3 
  270000    1.2147954   -6.5408839    131.36591  0.040545032  0.042958482            2 
  271000    1.1985653   -6.5619765    132.57986  0.040768713  0.042937579            1 
  272000    1.1929583   -6.4671662     133.1991  0.040808547  0.042916133            2 
  273000    1.1940878   -6.5494442    132.79256  0.040534968  0.042894888            2 
  274000    1.2004989   -6.5993934    133.58417   0.04062779  0.042873074            3 
  275000    1.2091626    -6.515923    133.85293  0.040561495  0.042853193            2 
  276000    1.2384739   -6.5020871      134.697  0.040669385  0.042834968            2 
  277000    1.1757878   -6.5081384    135.14064   0.04065603  0.042815845            2 
  278000    1.2126318   -6.5589065    135.47077  0.040608745  0.042796181            4 
  279000    1.2281487   -6.5398433    135.71082  0.040534894  0.042776465            2 
  280000    1.2324332   -6.5826477    136.11479  0.040510354  0.042756835            5 
  281000    1.2209708   -6.5702998    136.51001  0.040483396  0.042737431            2 
  282000     1.220966   -6.5167826    137.73921  0.040703076  0.042719006            1 
  283000    1.2197456   -6.5721669    137.83216  0.040586619  0.042698948            3 
  284000    1.2083562   -6.5613424    138.07754   0.04051571  0.042679359            1 
  285000     1.202662   -6.6073543    138.39476  0.040466303   0.04265818            2 
  286000    1.1940215   -6.5660344    139.51001  0.040649771  0.042640365            4 
  287000     1.205149   -6.5278377    139.97534  0.040643247  0.042622911            2 
  288000    1.2130273   -6.5164312    141.24051  0.040868204  0.042609376            4 
  289000     1.194433   -6.5751959    141.11422  0.040690374  0.042596149            3 
  290000    1.2141657   -6.5182269    141.74864  0.040732369  0.042583309            2 
  291000    1.2084451   -6.5185974    142.51808  0.040812736  0.042570464            2 
  292000    1.1928033    -6.536413    142.53389  0.040677479  0.042556431            2 
  293000    1.2079672   -6.5235183    143.15982  0.040716674  0.042543469            2 
  294000    1.2088677   -6.5476504    143.84636  0.040772777  0.042529036            2 
  295000    1.2043498   -6.5547114    144.58128  0.040842169  0.042516518            1 
  296000    1.2105794   -6.5416372    144.04005  0.040551817  0.042503548            1 
  297000    1.1913516   -6.5299941    144.77553  0.040621641  0.042488815            4 
  298000    1.2264256   -6.5612181     145.0691  0.040567422  0.042473078            2 
  299000     1.226881   -6.5362118    146.23907  0.040757822  0.042458779            3 
  300000    1.2061485   -6.5119157    146.49942  0.040694283  0.042445944            5 
  301000    1.2151984   -6.5523865    146.96531  0.040688071  0.042432936            3 
  302000    1.1946798   -6.5443102    147.68219  0.040751156  0.042420596            5 
  303000    1.1928064   -6.5383363      148.573   0.04086166  0.042409683            1 
  304000     1.229589     -6.55705    148.41218  0.040683163  0.042398485            2 
  305000    1.1873572   -6.5209078     149.4389    0.0408303  0.042387599            4 
  306000    1.2094244   -6.5584752    149.69059   0.04076541   0.04237741            2 
  307000    1.2087818   -6.5509942     150.4826  0.040847611  0.042366995            2 
  308000    1.1863383   -6.5727766    149.88517  0.040553345  0.042354929            3 
  309000    1.1839062   -6.5534049     150.9895  0.040719931  0.042343379            2 
  310000    1.2102574    -6.556482    151.69676  0.040778699  0.042333792            2 
  311000    1.1873891   -6.5522404    151.66328  0.040638606   0.04232156            4 
  312000    1.1983607   -6.5524884    152.54332  0.040743408  0.042308402            1 
  313000    1.2203308   -6.5596037    152.13522  0.040504586  0.042293962            3 
  314000    1.2236194   -6.5871944    152.13183  0.040374689  0.042277406            2 
  315000    1.2255599   -6.5567174    152.73578  0.040406291  0.042260593            1 
  316000    1.2379238   -6.5705658    153.42038   0.04045896  0.042245706            1 
  317000    1.1798007   -6.5176992    154.06821  0.040501631  0.042230145            2 
  318000    1.2064924    -6.562855    154.16837  0.040400516  0.042213696            2 
  319000    1.1868525   -6.5522291    154.26783   0.04029985  0.042197243            2 
  320000    1.2063135   -6.5470742    155.10825  0.040392774  0.042180268            4 
  321000    1.1897961   -6.4978372    156.55072  0.040641412  0.042166197            3 
  322000    1.2071846   -6.5479434    156.14503  0.040410205  0.042152181            3 
  323000    1.1894677   -6.5191678    156.79678  0.040453245  0.042137924            4 
  324000    1.2099683   -6.5265302    157.30249  0.040458459  0.042122861            2 
  325000    1.2224773   -6.5285424    157.37461  0.040352465   0.04210894            3 
  326000    1.2169297   -6.5402478    158.54569   0.04052804  0.042094202            2 
  327000    1.1870534   -6.4951124    158.68181  0.040438788  0.042080268            2 
  328000    1.1880062   -6.5226933    158.61192  0.040297743  0.042065165            3 
  329000    1.1894427   -6.5383227    159.08205  0.040294338   0.04204896            5 
  330000    1.2128582   -6.5613033    159.67815  0.040322765  0.042032959            1 
  331000     1.200605   -6.5709054    159.19801  0.040080063  0.042014055            2 
  332000    1.1858454   -6.5607914    160.22571  0.040217297  0.041996191            2 
  333000    1.2033634    -6.594023    159.88037  0.040010101  0.041979018            3 
  334000    1.1725886   -6.5224148    160.87454  0.040138359  0.041962781            3 
  335000    1.2126852   -6.5632411    161.39305  0.040147526  0.041944758            2 
  336000    1.2114157   -6.5347297    161.90458  0.040154905  0.041928079            2 
  337000    1.2014722   -6.5198076    163.24517  0.040367252  0.041912381            2 
  338000    1.1841041   -6.5783913    163.21556  0.040240522  0.041898418            1 
  339000    1.1993367   -6.5531184    164.04677  0.040326147  0.041883718            3 
  340000     1.241296   -6.5764069    163.69143  0.040120448  0.041868049            2 
  341000    1.2046398   -6.5292629    164.63726  0.040233935  0.041851389            1 
  342000    1.2184708   -6.5815676    164.90963  0.040182658  0.041835365            3 
  343000    1.1947901   -6.5714904    165.09038  0.040109422  0.041819251            1 
  344000    1.1763483   -6.5433502    166.25288  0.040274438  0.041802881            2 
  345000    1.2096305   -6.5814572     166.2476  0.040156425  0.041785817            1 
  346000    1.1841531   -6.5430671    166.74936  0.040161215  0.041768767            3 
  347000    1.2140259   -6.5886837    167.00435  0.040106713  0.041751456            1 
  348000    1.1945933   -6.5383933    167.87883  0.040200868  0.041735467            2 
  349000    1.1881551   -6.5409492    168.57491  0.040251889  0.041720557            3 
  350000    1.1892156   -6.5251816    169.12371   0.04026755  0.041704948            3 
  351000    1.2368426   -6.5338504    168.72263  0.040057604  0.041689888            2 
  352000    1.1826778   -6.5708193    169.84196  0.040208798  0.041674793            2 
  353000    1.1868623   -6.5370476    169.37611  0.039984918  0.041658559            2 
  354000    1.2169599   -6.5296959    169.99207  0.040016966  0.041643468            1 
  355000    1.2134677   -6.5673018    171.10783  0.040166157   0.04162854            2 
  356000    1.1857472   -6.5537063    171.35013  0.040110049  0.041614064            3 
  357000    1.1857426   -6.5640246    171.25409  0.039975279  0.041599198            2 
  358000    1.1838401   -6.5487274    171.97151  0.040030613  0.041584772            2 
  359000    1.1899905   -6.5680793    173.21228  0.040207122  0.041570994            4 
  360000    1.2092666   -6.5605002    173.20165  0.040092975  0.041556701            4 
  361000    1.2011781   -6.5603613    173.71487  0.040100385  0.041541718            3 
  362000    1.2036705   -6.5658543    174.19149  0.040099329  0.041527639            3 
  363000    1.1886427   -6.5534361    174.69831  0.040105214  0.041513208            3 
  364000     1.229146   -6.5848532    174.70647  0.039996902  0.041497945            1 
  365000    1.1882955   -6.5349768    175.30688  0.040024402  0.041482805            4 
  366000    1.1802334   -6.5478244    176.10984  0.040097869  0.041467696            1 
  367000    1.1722916   -6.5754038    175.83353   0.03992587  0.041453665            1 
  368000    1.1612884   -6.5863132     177.1268  0.040110235  0.041439073            1 
  369000    1.2011003   -6.5430856    177.16561  0.040010301   0.04142474            3 
  370000     1.174073   -6.5758493    177.33889  0.039941191  0.041409966            1 
  371000    1.1694018   -6.5732837    178.56584  0.040109129  0.041395491            2 
  372000    1.1941268   -6.5307415    178.30396  0.039942644  0.041379973            4 
  373000    1.1952626   -6.5871877    178.80603  0.039947727  0.041364707            4 
  374000    1.1847605   -6.5134803    179.22477  0.039934217    0.0413503            1 
  375000    1.1981257   -6.5582083    180.05441  0.040012092  0.041336078            2 
  376000    1.1999672   -6.5500428    180.40202  0.039982716  0.041321213            1 
  377000    1.1789363    -6.583208    181.05032  0.040019965  0.041307693            2 
  378000    1.1893342   -6.5280289     181.4154  0.039994576  0.041293181            1 
  379000    1.1918484   -6.5814426    181.60264  0.039930221  0.041279128            2 
  380000    1.2046925   -6.5698035    181.19754  0.039736302  0.041263931            2 
  381000    1.1944043   -6.5530821     181.9246  0.039791033  0.041248988            4 
  382000    1.1773467   -6.5487747    182.24702  0.039757203  0.041234331            2 
  383000    1.1692577   -6.5372323     183.1599  0.039852024  0.041218824            2 
  384000    1.1663777   -6.5832009     183.3486  0.039789193  0.041203714            2 
  385000    1.2033219   -6.5519677    183.50035  0.039718691  0.041188754            2 
  386000    1.1829295   -6.5508703    184.41471  0.039813193  0.041174022            2 
  387000    1.2106377   -6.5903756    185.22214  0.039884181  0.041160632            1 
  388000    1.2051012   -6.5446418    185.23165  0.039783429  0.041147686            1 
  389000    1.1943798   -6.5553056     186.8292  0.040023393  0.041134521            2 
  390000    1.1846227   -6.5767359    186.67346  0.039887491  0.041122087            3 
  391000    1.2016926   -6.5495634    186.85047  0.039823202  0.041110149            2 
  392000    1.1819897   -6.5911335    187.39982  0.039838397  0.041098016            6 
  393000    1.1902174   -6.5435522    188.87431  0.040049684  0.041086702            2 
  394000    1.2111933   -6.6155021    187.85724  0.039732919  0.041074829            2 
  395000     1.194691   -6.5832361    188.95283  0.039863466  0.041062114            2 
  396000     1.209455   -6.5321772    188.57161  0.039682579  0.041049497            1 
  397000    1.1862174   -6.5892985    189.37058  0.039750331  0.041036424            1 
  398000    1.2021294   -6.5785724    189.83173  0.039747011   0.04102329            2 
  399000    1.1967677   -6.5934979    190.74068  0.039837236  0.041011017            4 
  400000    1.2007375   -6.5723028    191.36118  0.039866912  0.040998641            2 
  401000    1.1855947   -6.5612471    190.96456  0.039685071  0.040985659            5 
  402000    1.1871178   -6.6213139    191.31636  0.039659279  0.040971671            4 
  403000      1.19275   -6.5502264     192.0715  0.039717019  0.040957862            1 
  404000    1.1828898     -6.57102    193.09139  0.039829083  0.040943808            2 
  405000    1.1636659   -6.5833125    192.77282  0.039665189   0.04092991            3 
  406000    1.1630983   -6.5439167    193.39736  0.039695681  0.040916342            2 
  407000    1.1808482   -6.5678598     193.7048  0.039661097  0.040903745            3 
  408000    1.1913159   -6.5701359    195.25517  0.039880549  0.040892139            2 
  409000    1.1620366   -6.5768341    194.76986   0.03968416  0.040880849            3 
  410000    1.1996985   -6.5839793    195.63648  0.039763513  0.040868595            4 
  411000    1.1874659   -6.5393488    197.10037  0.039963578  0.040857852            2 
  412000    1.1962314   -6.5739332    197.28761  0.039904453  0.040846863            4 
  413000    1.1736328   -6.6173566     196.8092    0.0397113  0.040835817            2 
  414000     1.198896   -6.5692096    198.14161  0.039883576  0.040825586            1 
  415000    1.1724869   -6.5731375    197.98422  0.039755868  0.040815583            6 
  416000    1.1522691   -6.5536949    198.89212  0.039842172  0.040804509            3 
  417000    1.1781069   -6.6119042    198.46556  0.039661382  0.040793199            2 
  418000    1.1759247   -6.5921252    199.48973  0.039770679  0.040782009            1 
  419000    1.1774846   -6.5878082    199.60562  0.039698811  0.040771248            1 
  420000    1.1708567   -6.5777789    199.56402  0.039596036  0.040759707            4 
  421000    1.1741006   -6.5499868    200.64868  0.039716683  0.040748054            4 
  422000    1.1802443   -6.5798679    201.03881  0.039699607  0.040736687            2 
  423000    1.1737859   -6.6112663    201.16133  0.039629892  0.040726321            3 
  424000    1.1821329   -6.5727883    201.83224  0.039668287  0.040715228            1 
  425000     1.214484   -6.5455035     202.2676  0.039660315  0.040703823            2 
  426000    1.1871577   -6.6025534    202.25877  0.039565487  0.040691534            1 
  427000    1.1933342   -6.6112779    202.01044  0.039424364  0.040679068            1 
  428000     1.180862   -6.5711394    202.61492  0.039449946  0.040665745            1 
  429000    1.1540344    -6.576657    202.87061  0.039407656  0.040652921            2 
  430000    1.1759537   -6.6182007    203.39812  0.039418241  0.040639567            3 
  431000     1.204968   -6.5943357     203.8145  0.039407288  0.040626763            2 
  432000    1.1817538   -6.5454082    204.96394  0.039537797  0.040613597            1 
  433000    1.1734238   -6.6158608    205.19905  0.039491734  0.040600715            1 
  434000    1.1883948   -6.6132653    205.21352  0.039403518  0.040587125            2 
  435000    1.2001141   -6.6237707    205.60777  0.039388461  0.040574306            5 
  436000    1.1671792   -6.5620243    207.24406  0.039610867  0.040561768            2 
  437000    1.2057901   -6.5880491    207.10379  0.039493477  0.040550173            2 
  438000    1.1926757   -6.5742498    207.66274  0.039509654  0.040537506            7 
  439000    1.1872091   -6.5620805     208.0883  0.039500436  0.040525535            2 
  440000    1.1814558   -6.6010235    208.33455  0.039457302  0.040513489            2 
  441000    1.1851398   -6.5589888    209.14016   0.03952006  0.040501717            1 
  442000    1.1641393   -6.5860507    208.88067  0.039381726  0.040490054            3 
  443000    1.1948184   -6.5892075    209.33912  0.039379068  0.040478282            1 
  444000    1.1811406    -6.587387    209.55668  0.039331208  0.040466135            2 
  445000    1.1852468   -6.6134695    210.38189  0.039397358  0.040454493            3 
  446000    1.1769387   -6.6092518    211.42831  0.039504542  0.040442107            2 
  447000    1.1969872   -6.5837554    211.38409  0.039407922  0.040430285            4 
  448000    1.1583104   -6.6111916    212.05445  0.039444653  0.040418141            3 
  449000    1.1714232   -6.6346159    212.26295  0.039395499    0.0404065            4 
  450000    1.1931861   -6.5914986    212.32579  0.039319591  0.040395241            2 
  451000    1.1882076   -6.6424494    212.80551  0.039321048  0.040384162            2 
  452000    1.1528633   -6.5846709    213.59303  0.039379245   0.04037123            2 
  453000      1.17688   -6.5443254      214.134  0.039391832  0.040358376            1 
  454000    1.2091658   -6.5686587    213.47859  0.039184763  0.040344671            2 
  455000    1.1746069   -6.5544318    215.13829  0.039402616  0.040331655            5 
  456000    1.1631895   -6.6218396    214.77451  0.039249728  0.040317872            4 
  457000     1.201977   -6.5983693    214.80287  0.039169014  0.040304534            1 
  458000    1.1671085   -6.5782862    215.84236  0.039272626  0.040292058            1 
  459000    1.1679715    -6.573907    216.39639  0.039287653  0.040278739            2 
  460000    1.1966833   -6.6034515    216.74846  0.039266025  0.040265722            2 
  461000    1.1769215   -6.5991349    217.52662  0.039321515   0.04025282            2 
  462000    1.2076886   -6.5927343     217.5151  0.039234325  0.040240739            2 
  463000    1.1709669   -6.5841438    217.94641  0.039227216  0.040229219            1 
  464000     1.181245   -6.5939209    217.40714  0.039045823   0.04021697            2 
  465000    1.1680352   -6.5927215    218.43984  0.039146925  0.040203892            3 
  466000    1.1819738   -6.5879519     218.2577  0.039030346  0.040191239            1 
  467000    1.1992422   -6.5952481    219.31867  0.039136093  0.040178511            2 
  468000    1.1856559   -6.5936436     219.5509  0.039093822  0.040165583            4 
  469000     1.184518   -6.5701077    219.71507  0.039039636  0.040151976            2 
  470000    1.1697166   -6.6133753    220.00718  0.039008364  0.040138006            2 
  471000    1.1946033   -6.6111936    220.42156   0.03899886  0.040123178            4 
  472000     1.181025   -6.6257918    221.60647  0.039125437  0.040108998            3 
  473000    1.1768626   -6.6052115     221.3226  0.038992706   0.04009497            2 
  474000    1.1870893   -6.5936902     221.1239   0.03887551  0.040080156            3 
  475000    1.1845711   -6.5905829    221.09412  0.038788442  0.040064812            4 
  476000    1.1788356   -6.5631602    221.94967  0.038856735  0.040049331            4 
  477000    1.2120484   -6.5853086    221.93084  0.038771985  0.040033676            2 
  478000    1.1705157   -6.5922895     222.6476   0.03881583  0.040017437            2 
  479000    1.1765227   -6.6466149    221.85694  0.038597241  0.040000885            2 
  480000    1.1738498   -6.5957899    223.23748  0.038756508  0.039983992            8 
  481000    1.1844981   -6.5930537    223.22889  0.038674444  0.039967193            3 
  482000    1.1905398   -6.5959399     223.2346  0.038595193  0.039950471            2 
  483000     1.146919   -6.5877428    223.70605  0.038596627  0.039933884            2 
  484000    1.1425679   -6.6461742    224.04693  0.038575573  0.039916679            2 
  485000    1.1613907   -6.6076694    224.55913  0.038584042  0.039899615            6 
  486000    1.1736258   -6.6014936    225.29732  0.038631227  0.039882807            2 
  487000    1.1738822   -6.5872553    226.43052  0.038745812  0.039866803            3 
  488000    1.1855562   -6.5847594    227.07166  0.038775898  0.039851144            3 
  489000    1.1979242    -6.617749    227.09346  0.038700317  0.039835668            3 
  490000    1.1551796    -6.560946     227.8728  0.038753877  0.039820249            1 
  491000    1.1818157   -6.5595589    227.30437  0.038578474  0.039804597            2 
  492000     1.195325   -6.6371233    228.57348  0.038715021  0.039789229            2 
  493000    1.1934021   -6.5897494    229.21318  0.038744622  0.039774448            5 
  494000    1.1646342   -6.5836903    228.44211  0.038536119    0.0397598            4 
  495000    1.1705839   -6.6107764    229.14725  0.038576977  0.039744038            2 
  496000    1.1971687   -6.6315667     229.6281  0.038579989  0.039728714            2 
  497000    1.1732103   -6.6008896    229.87824  0.038544306  0.039712734            2 
  498000    1.2000121   -6.5745717    230.27175  0.038532757  0.039697128            2 
  499000    1.1584244   -6.6199196    229.91063  0.038395229  0.039680942            3 
  500000    1.1810327   -6.6015119    231.12306   0.03852051  0.039664766            1 
  501000    1.1546061   -6.6155363    231.47136  0.038501557  0.039648393            2 
  502000    1.1641376   -6.6406345    231.59181  0.038444856  0.039631795            3 
  503000    1.1639409   -6.6090533    232.39757  0.038501918  0.039615986            1 
  504000    1.1600459   -6.6117701    232.83407  0.038497696  0.039600673            5 
  505000    1.1783657   -6.5710452    234.44657  0.038687553   0.03958572            3 
  506000    1.1589135   -6.5963821    233.44503  0.038446151   0.03957115            1 
  507000    1.1779132   -6.5773948    233.52457  0.038383394  0.039556544            3 
  508000    1.1787224   -6.6043639    235.43801  0.038621721  0.039542541            2 
  509000    1.1470451   -6.5870977    236.65894  0.038745734  0.039528811            5 
  510000    1.1546246   -6.6297755    236.40006  0.038627461  0.039515343            4 
  511000    1.1765407   -6.5923977    236.39482  0.038551014  0.039502447            3 
  512000    1.1838393   -6.6099965    236.82357  0.038545502  0.039488748            3 
  513000    1.1492565   -6.5916307    236.76607  0.038461025  0.039475145            2 
  514000    1.1531503   -6.6156681     236.6812  0.038372438  0.039461091            4 
  515000     1.148236   -6.5878264    237.72842  0.038467382  0.039446611            2 
  516000    1.1750674   -6.6189652    237.84587  0.038411801  0.039432413            2 
  517000    1.1884629    -6.616354    238.43017  0.038431685  0.039418211            4 
  518000    1.1258794   -6.6387247    238.58775  0.038382843  0.039404344            2 
  519000    1.1721698   -6.6461411    239.42318  0.038443028  0.039390164            1 
  520000    1.1482879   -6.6373635    239.27143  0.038344781  0.039375759            2 
  521000    1.1712087   -6.5870188    240.09023  0.038402149  0.039360641            2 
  522000    1.1606456   -6.6153254    239.88799  0.038296295  0.039345855            3 
  523000    1.1718828   -6.6418855    241.02691  0.038404543  0.039331359            2 
  524000    1.1533026   -6.5803284    240.84429   0.03830221  0.039317029            2 
  525000     1.142382   -6.6448719    241.12284  0.038273467  0.039302171            2 
  526000    1.1718765   -6.6650014    241.81588    0.0383105  0.039287859            2 
  527000     1.158125   -6.6438782    242.24511  0.038305678  0.039273984            3 
  528000    1.2028456   -6.6092409    242.90667  0.038337542  0.039260099            1 
  529000    1.1802111   -6.5980348    243.38048  0.038339711  0.039245942            4 
  530000    1.1706943   -6.6206762    243.05357   0.03821597  0.039232224            1 
  531000    1.1776704   -6.5986248    244.05977   0.03830191  0.039217936            1 
  532000     1.161081   -6.6445023    243.76668  0.038184004  0.039203848            3 
  533000    1.1595792   -6.6115269    245.11623  0.038323363  0.039190062            5 
  534000    1.1691259   -6.6249435    245.12944  0.038253658  0.039176521            5 
  535000    1.1552112   -6.6071074    246.08235  0.038330584  0.039163128            1 
  536000     1.145382   -6.5709725    246.63429  0.038344884  0.039150166            2 
  537000    1.1401438   -6.5960174    247.08905  0.038344049   0.03913733            2 
  538000    1.1690957   -6.5997307    246.59765  0.038196662  0.039124316            4 
  539000    1.1647823   -6.6210444    247.06993  0.038198814  0.039110809            1 
  540000    1.1590915   -6.5918115    248.03654  0.038277245   0.03909691            2 
  541000      1.15519   -6.6224549      247.983  0.038198244  0.039082799            3 
  542000    1.1977172   -6.6592565    247.22093  0.038010599  0.039067712            3 
  543000      1.18379   -6.6107383    248.34715  0.038113435  0.039052948            4 
  544000    1.1321259   -6.6339444    248.72573  0.038101368  0.039039048            1 
  545000      1.16599     -6.63923    249.22563  0.038107894  0.039025817            4 
  546000    1.1646622   -6.6168244    249.53795  0.038085768  0.039012211            4 
  547000    1.1425927   -6.6023688    250.78567  0.038206227  0.038999607            1 
  548000    1.1782893   -6.6076934    251.70524  0.038276344  0.038987359            2 
  549000    1.1526793    -6.587402    251.97757  0.038247961  0.038975411            3 
  550000    1.1397807   -6.6024876    252.23084  0.038216794    0.0389632            4 
  551000    1.1577245   -6.6079409    253.09568  0.038278234  0.038951268            2 
  552000    1.1818243   -6.6018468    253.46859  0.038265185  0.038940146            7 
  553000    1.1917267   -6.6237762    253.59397  0.038214883  0.038929135            3 
  554000    1.1464797    -6.612647    254.60307  0.038297694  0.038917798            2 
  555000    1.1644065   -6.6051035    255.34378  0.038339907  0.038906721            1 
  556000    1.1700391   -6.6016006    255.98697  0.038367352   0.03889653            4 
  557000    1.1803122   -6.6268937    256.45128  0.038367935  0.038885841            1 
  558000    1.1580501   -6.6541244    256.42818  0.038295726  0.038875427            5 
  559000    1.1624509   -6.6089683    257.07788  0.038324073   0.03886537            1 
  560000    1.1870278   -6.6612724    257.63768  0.038338941  0.038855276            3 
  561000    1.1773201   -6.6330937    258.10592  0.038340154  0.038845856            3 
  562000    1.1416355   -6.6468976    258.73208   0.03836478  0.038836699            2 
  563000     1.183644   -6.6466367    258.59145  0.038275821  0.038827284            1 
  564000    1.1526389   -6.5976784      259.836  0.038391843  0.038818457            2 
  565000    1.1734777   -6.6375746    260.35985  0.038401158  0.038809906            2 
  566000    1.1458691    -6.629918    259.75527  0.038244298  0.038801295            2 
  567000    1.1751126   -6.6411529    260.22092  0.038245285  0.038792131            2 
  568000    1.1532812   -6.6261306    260.57162  0.038229405  0.038782629            1 
  569000    1.1484094   -6.6214879    261.05996  0.038233738   0.03877285            5 
  570000    1.1762758   -6.6469153    260.76956  0.038124205  0.038763252            3 
  571000    1.1553253   -6.6343343     262.3648  0.038290251  0.038753616            1 
  572000    1.1581422   -6.6392506     262.5935  0.038256629  0.038743812            3 
  573000     1.180043   -6.6256837    262.97618  0.038245518  0.038733876            2 
  574000    1.1870135   -6.6329078    263.96268  0.038322108  0.038724277            2 
  575000    1.1617099   -6.6137982    263.66164  0.038211832  0.038714857            3 
  576000    1.1710337   -6.6263231    263.61951  0.038139396  0.038705033            4 
  577000    1.1599718   -6.6075935    263.70688  0.038085916  0.038695481            6 
  578000    1.1564303   -6.6301738    264.49923   0.03813426  0.038685623            2 
  579000    1.1661915    -6.571461    265.43188  0.038202631  0.038675527            3 
  580000     1.134944   -6.6348144    265.03202  0.038079313  0.038665796            2 
  581000    1.1694668   -6.6083412    265.72298  0.038112878  0.038655715            3 
  582000    1.1561278   -6.6858056    266.16826  0.038111148  0.038646029            3 
  583000    1.1633464   -6.6531263    266.03101  0.038026159  0.038636295            2 
  584000    1.1613529   -6.6207145    268.09579  0.038255678  0.038626934            3 
  585000    1.1785475   -6.6186327    268.23953  0.038210759  0.038618452            1 
  586000    1.1647869   -6.6239549    269.55502  0.038332625  0.038610263            4 
  587000    1.1695227   -6.6432607    268.99657  0.038188042  0.038601626            1 
  588000    1.1493896   -6.6222993    270.12294  0.038282729  0.038592845            2 
  589000    1.1493751   -6.6362734    269.69964  0.038157844  0.038583949            2 
  590000    1.1322618    -6.676929    270.16764  0.038159271  0.038575341            3 
  591000    1.1623051   -6.6559668    270.48402  0.038139314  0.038566851            2 
  592000    1.1390211    -6.614315    271.78953  0.038258661  0.038558419            3 
  593000    1.1685815   -6.6295164    271.90545  0.038210435  0.038550027            3 
  594000    1.1465907   -6.6290333    271.64093  0.038108996  0.038540708            2 
  595000    1.1651142   -6.6239015    272.07946  0.038106367  0.038531546            1 
  596000    1.1572478   -6.6089364     273.0449  0.038177418  0.038522555            2 
  597000    1.1608775    -6.623431    272.45525  0.038031162  0.038513209            2 
  598000    1.1646317   -6.6181161    273.48074   0.03811047  0.038504123            3 
  599000    1.1445431   -6.6514663    273.39331  0.038034683  0.038495257            1 
  600000    1.1518755   -6.6324442    274.86644  0.038175894  0.038486201            1 
  601000    1.1613128   -6.6346264    274.97352  0.038127221  0.038477399            2 
  602000    1.1422639   -6.6829804    275.58312  0.038148272  0.038468943            3 
  603000    1.1393788   -6.6527021    276.35979  0.038192343  0.038461159            3 
  604000    1.1514909   -6.6302172    276.58163  0.038159717  0.038453571            3 
  605000    1.1425956   -6.6189019    277.20016   0.03818184  0.038445383            1 
  606000    1.1419823   -6.6572243    277.56758   0.03816936  0.038437834            2 
  607000    1.1529637   -6.6178961    278.39426   0.03821997  0.038430568            3 
  608000    1.1582183   -6.6184129    278.34571  0.038150454  0.038422716            3 
  609000    1.1500914   -6.6533191    278.57793  0.038119585  0.038415124            3 
  610000    1.1303186   -6.6397093     279.1008  0.038128524  0.038407278            1 
  611000     1.138602   -6.6210886    280.39471  0.038242596  0.038399565            8 
  612000    1.1596594   -6.6782075    279.35661  0.038038755  0.038391676            2 
  613000    1.1765079   -6.6019071    279.69672  0.038022937  0.038383321            2 
  614000     1.145933    -6.640386    280.02589  0.038005686   0.03837491            3 
  615000    1.1543891   -6.6646321    280.43626  0.037999493   0.03836684            3 
  616000    1.1326201   -6.5829902    281.32572  0.038058133  0.038359145            2 
  617000    1.1215501   -6.6321646    282.56667  0.038164056  0.038351316            3 
  618000    1.1621109   -6.6004279    283.01959  0.038163376   0.03834379            1 
  619000    1.1603611   -6.6162884    282.32384  0.038008057  0.038336463            5 
  620000    1.1503412   -6.6628433    282.57711  0.037980795  0.038329196            2 
  621000    1.1489985   -6.6624157    283.86831  0.038092902  0.038321822            4 
  622000    1.1460276   -6.5898132    284.81128  0.038157996  0.038314693            4 
  623000    1.1381786   -6.6472793    284.64362   0.03807432  0.038307299            1 
  624000    1.1324507   -6.6478212    285.29617  0.038100451  0.038300024            2 
  625000     1.167551   -6.6350373    285.17451  0.038023268  0.038291944            4 
  626000    1.1753854   -6.6398371     284.8705  0.037922058  0.038283854            4 
  627000    1.1522047   -6.6626818    284.93925  0.037870714  0.038275226            1 
  628000    1.1455552   -6.6505855    285.72613  0.037914826  0.038266509            2 
  629000    1.1476194   -6.6623013    285.55552  0.037831945  0.038257978            1 
  630000     1.162564   -6.6317484    286.30099  0.037870501  0.038249954            3 
  631000    1.1476693     -6.66852    287.06276  0.037911088  0.038242028            8 
  632000    1.1452565   -6.6583397    288.62523  0.038057124  0.038234377            2 
  633000    1.1663198   -6.6495144    288.54401   0.03798631  0.038226375            4 
  634000    1.1592424   -6.6523151    289.76673   0.03808711  0.038218897            1 
  635000    1.1595752   -6.6604842    288.60712  0.037874951  0.038211527            2 
  636000    1.1670258   -6.6220378    290.57079  0.038072692  0.038204248            2 
  637000    1.1529537   -6.6383591    289.96268   0.03793337  0.038197103            2 
  638000    1.1448048   -6.6919108    290.28717  0.037916297  0.038189391            2 
  639000     1.135711   -6.6251289    291.77827  0.038051417  0.038182088            1 
  640000     1.154877    -6.645971    290.99305  0.037889719  0.038174367            1 
  641000    1.1449408   -6.6219426    291.93426  0.037952972   0.03816699            2 
  642000    1.1482072   -6.6932329    293.00811  0.038033243  0.038159759            2 
  643000    1.1824958   -6.6628396    293.02056  0.037975707  0.038152264            2 
  644000    1.1560295   -6.6211382     293.0089   0.03791523  0.038144598            3 
  645000    1.1831033   -6.6484405    292.82618   0.03783284  0.038136289            2 
  646000    1.1418757   -6.6531525    293.81568  0.037901919  0.038128359            2 
  647000     1.158284   -6.6690255    292.95201  0.037732098  0.038120322            3 
  648000     1.145378   -6.6251368    293.69563    0.0377695  0.038111424            2 
  649000    1.1336329   -6.6597685    294.13645  0.037767905  0.038102762            4 
  650000    1.1505523   -6.6743438    293.49202  0.037627182  0.038094064            2 
  651000     1.159493   -6.6705209    294.35538    0.0376799  0.038084358            3 
  652000    1.1530669   -6.6218462    293.66124   0.03753339  0.038074716            2 
  653000    1.1442106   -6.6059875     295.6242  0.037726417  0.038065533            3 
  654000    1.1497826   -6.6573764    295.18938  0.037613326  0.038056169            1 
  655000    1.1494657   -6.6538693    294.87728  0.037516194  0.038046402            3 
  656000    1.1310422   -6.6674329    294.04787  0.037353642  0.038035752            4 
  657000    1.1636661   -6.6417501    296.66103  0.037628238   0.03802531            3 
  658000    1.1427206     -6.65199    296.32515  0.037528514  0.038014702            2 
  659000    1.1787509   -6.6311253    295.61361  0.037381589   0.03800403            1 
  660000    1.1372662   -6.6598172    297.15476   0.03751954  0.037993433            3 
  661000    1.1613408   -6.6649912    296.60425  0.037393375  0.037983443            2 
  662000    1.1488833   -6.6489066    297.40377  0.037437534  0.037973168            2 
  663000    1.1346253   -6.6734729      298.717  0.037546128  0.037963295            2 
  664000    1.1378382    -6.639547    298.68564  0.037485648  0.037952928            2 
  665000     1.128407   -6.6732845    299.01491   0.03747054  0.037943065            1 
  666000    1.1650298   -6.7068434    299.23926   0.03744235  0.037933429            2 
  667000    1.1398849      -6.6478    300.26907  0.037514876  0.037923076            2 
  668000    1.1448627   -6.7140806    299.92994   0.03741641  0.037912776            2 
  669000    1.1477961   -6.6625519    299.63361  0.037323569  0.037902483            2 
  670000    1.1284175   -6.6427697    301.15532   0.03745713   0.03789279            1 
  671000    1.1618758   -6.6614381    301.22448  0.037409896  0.037883132            1 
  672000    1.1487404   -6.6423576    302.07833   0.03746011  0.037873328            1 
  673000    1.1350875   -6.6450805    301.01666  0.037272989  0.037862806            2 
  674000    1.1443879   -6.6114335    302.44424  0.037394194  0.037852188            2 
  675000    1.1425002   -6.6819923    302.64952  0.037364138  0.037841903            4 
  676000    1.1278311   -6.6821576    302.85004  0.037333585  0.037831927            3 
  677000    1.1575171   -6.6698117    304.48611  0.037479826  0.037822305            2 
  678000    1.1393867    -6.644495    305.64423  0.037566891  0.037812743            3 
  679000     1.140322   -6.6681733    304.55093  0.037377385  0.037802998            3 
  680000    1.1427338   -6.6613161    304.31641  0.037293678  0.037793527            3 
  681000    1.1453047   -6.6001717    306.14712  0.037462937  0.037784058            2 
  682000    1.1694592   -6.6743445     304.9255  0.037258736  0.037774542            3 
  683000    1.1509179   -6.6424925    304.93622  0.037205493  0.037764602            1 
  684000    1.1578517    -6.673948    306.76833  0.037374309  0.037755008            4 
  685000    1.1387753   -6.6854821    306.26853  0.037258946   0.03774543            2 
  686000    1.1355332   -6.6304888      308.211  0.037440597  0.037736155            2 
  687000    1.1466758   -6.6657892    307.46548  0.037295667  0.037727152            2 
  688000    1.1422321   -6.6770269    308.53976   0.03737158  0.037717705            2 
  689000    1.1492904   -6.6605872    308.45735  0.037307371  0.037708549            2 
  690000    1.1584031    -6.648635    308.78894  0.037293351  0.037699378            2 
  691000    1.1211766    -6.669077    308.31743  0.037182517  0.037690073            2 
  692000    1.1608731   -6.6978136    309.80428  0.037307837  0.037681216            2 
  693000     1.142264    -6.666019     310.8382  0.037378331  0.037672318            2 
  694000    1.1264749   -6.6287676    311.06917  0.037352206  0.037663947            3 
  695000    1.1346403   -6.6948984    311.46515  0.037345941  0.037655402            3 
  696000    1.1198798   -6.6581879    311.51622  0.037298398  0.037646665            1 
  697000    1.1602663    -6.692622    310.87673  0.037168428  0.037637899            1 
  698000    1.0807619   -6.6524836    312.27902  0.037282596  0.037629206            3 
  699000    1.1387674   -6.6542329     312.7865  0.037289759  0.037619832            5 
  700000    1.1513092    -6.645015    313.06943   0.03727017  0.037610509            2 
  701000    1.1473664   -6.6846737    313.82298  0.037306583  0.037601315            2 
  702000    1.1304997   -6.6876919    313.54234  0.037220125  0.037592401            2 
  703000    1.1495545   -6.6356683    314.42417  0.037271713  0.037583194            3 
  704000    1.1574883   -6.6841189    314.43072  0.037219546   0.03757439            3 
  705000    1.1507084   -6.6507349    314.40994  0.037164295  0.037565437            2 
  706000    1.1437477   -6.6776754    315.84299  0.037280806  0.037556432            1 
  707000    1.1550689    -6.686836    315.38981  0.037174659  0.037547547            2 
  708000    1.1563231   -6.6766447    314.86658  0.037060567  0.037538152            1 
  709000    1.1416481   -6.6541736    315.85259  0.037124187  0.037528683            2 
  710000    1.1460462   -6.6600917     315.8067  0.037066514  0.037518728            3 
  711000    1.1197836   -6.6824791    316.31533  0.037073996  0.037508722            1 
  712000    1.1769647   -6.6578424    315.97905  0.036982566  0.037498659            3 
  713000    1.1148176   -6.6485196    317.57413  0.037117126  0.037488359            2 
  714000    1.1168371    -6.651181    316.90098  0.036986576  0.037478566            4 
  715000    1.1103116   -6.6864265    316.88228  0.036932666  0.037468671            3 
  716000    1.1080369   -6.6520723    318.05487  0.037017559  0.037458489            1 
  717000    1.1281829   -6.6835689    317.86162  0.036943471  0.037448337            6 
  718000    1.1450566   -6.6601664    317.98411  0.036906233  0.037438266            1 
  719000    1.1489602   -6.6933805    318.10214  0.036868584   0.03742776            1 
  720000    1.1657074   -6.6751051     320.1571  0.037055219  0.037417203            4 
  721000    1.1121468   -6.6771388    319.29208  0.036903847  0.037407316            1 
  722000    1.1202382    -6.663959    320.40193  0.036980833   0.03739745            3 
  723000     1.138828   -6.6940225    320.90223  0.036987348  0.037387976            4 
  724000    1.1344364   -6.6338342    322.41129  0.037109955  0.037378585            2 
  725000    1.1394576   -6.7048012    321.12483    0.0369109  0.037369254            3 
  726000    1.1534731   -6.6636547    323.26167  0.037105334  0.037360047            2 
  727000    1.1252822   -6.6280789     323.3152  0.037060431  0.037350893            3 
  728000    1.1418026   -6.6651313    322.72268  0.036941699   0.03734193            3 
  729000    1.1241412    -6.694682    323.33554  0.036961082  0.037332392            2 
  730000    1.1283687   -6.6721076    323.41865  0.036919937  0.037322835            1 
  731000    1.1509646   -6.6686347    323.67668  0.036898846  0.037312977            3 
  732000    1.1538519   -6.6784694    323.40853  0.036817912  0.037303435            2 
  733000    1.1004709   -6.6695013    325.21493  0.036973048  0.037293324            3 
  734000    1.1324397   -6.6749663    325.25284   0.03692698  0.037283557            2 
  735000    1.1488512   -6.6648423     324.9516  0.036842585  0.037273756            2 
  736000    1.1188234   -6.6883904     325.8433  0.036893489  0.037264046            1 
  737000    1.1301477   -6.6626133    327.17622  0.036994145  0.037254183            1 
  738000    1.1506218   -6.6470063     327.1291  0.036938697  0.037244763            2 
  739000    1.1269061   -6.6609289    327.64498  0.036946886   0.03723536            2 
  740000    1.1405332   -6.6746667    327.58717  0.036890447  0.037225569            3 
  741000    1.1256629    -6.662011    327.60819  0.036843026  0.037215649            2 
  742000    1.1360168   -6.6844316    327.14032  0.036740826  0.037205641            2 
  743000    1.1168776   -6.6607517    327.89129  0.036775605  0.037195634            2 
  744000    1.1474219   -6.6753155    328.68815  0.036815429  0.037185832            1 
  745000    1.1220094   -6.6611469    327.43693  0.036626054  0.037175345            2 
  746000    1.1041834   -6.6853947     328.1615  0.036657898  0.037164873            1 
  747000    1.1495496   -6.6867287    328.76329  0.036675958  0.037154572            3 
  748000    1.1414451   -6.6909847    328.48137  0.036595518   0.03714415            1 
  749000    1.1298788   -6.6985833    330.43946  0.036764515     0.037134            2 
  750000     1.118829   -6.6733968    330.96966  0.036774407  0.037123951            5 
  751000    1.1283332   -6.6436055    330.74079  0.036700044  0.037114101            1 
  752000    1.1320523   -6.6920751    330.24895  0.036596736  0.037104139            1 
  753000    1.1045235   -6.6578587    331.48983  0.036685461  0.037094184            2 
  754000    1.1545976   -6.7155894    332.16737   0.03671169  0.037084382            5 
  755000     1.154104   -6.7131445    331.73806   0.03661568  0.037074577            3 
  756000    1.1337268   -6.6572843    332.63883  0.036666538   0.03706469            1 
  757000    1.1159164   -6.6728067    333.00342  0.036658236  0.037054769            2 
  758000    1.1364397   -6.7249612    333.04063  0.036613965  0.037045184            2 
  759000       1.1301   -6.6707279    333.82639  0.036651997   0.03703562            3 
  760000     1.140537   -6.6738414    333.51885  0.036570049  0.037025781            1 
  761000    1.1522293   -6.6811441    334.24251  0.036601239  0.037015731            2 
  762000    1.1422699   -6.6786933    334.32373  0.036562088  0.037005589            2 
  763000    1.1392251   -6.6697289    334.49776  0.036533176  0.036995542            1 
  764000    1.1228345   -6.6693294     334.3712  0.036471553  0.036985251            3 
  765000    1.0947919   -6.6574605    334.39585  0.036426563  0.036974932            3 
  766000    1.1141461   -6.6635382     336.4012  0.036597172  0.036964373            2 
  767000    1.1566963    -6.705847    335.89721    0.0364947   0.03695397            1 
  768000    1.1212764   -6.6959367    337.55247  0.036626787  0.036943754            3 
  769000    1.1429046   -6.6938749     336.6263  0.036478792  0.036933751            2 
  770000    1.1129298   -6.6727075    336.64904  0.036433878  0.036923429            4 
  771000    1.1214023   -6.6747448    337.82316  0.036513528  0.036913067            1 
  772000    1.1361369   -6.7084065    337.25329  0.036404716  0.036902797            1 
  773000    1.1339997   -6.7032251     338.4181  0.036483193   0.03689228            3 
  774000     1.146907   -6.6936658    338.84918   0.03648247  0.036881599            2 
  775000    1.0874291   -6.6626666    339.50127  0.036505513  0.036871363            2 
  776000    1.1230664   -6.7004721     339.0044  0.036405111   0.03686087            1 
  777000    1.1126236    -6.664448     340.0842  0.036474066  0.036850439            5 
  778000    1.1126532   -6.7135051    338.99934  0.036310983  0.036839624            3 
  779000    1.1462166   -6.7111788    339.42322  0.036309715  0.036828565            2 
  780000    1.1302127   -6.6962174    338.91027  0.036208362  0.036817527            3 
  781000    1.1019495   -6.7469718    339.99216  0.036277439  0.036806866            2 
  782000    1.1094175   -6.6987447    338.85754  0.036110139  0.036795482            3 
  783000    1.1219729   -6.6482414    341.03988  0.036296283  0.036784168            1 
  784000    1.1365811    -6.693807     340.7079    0.0362147  0.036773038            5 
  785000    1.0926767   -6.6544677    342.35752  0.036343686  0.036761909            3 
  786000    1.1230893   -6.6933012    341.44376  0.036200568  0.036751244            2 
  787000    1.1091952   -6.6812278    342.65373   0.03628269  0.036740632            3 
  788000    1.1286382   -6.6898504    342.25331  0.036194301  0.036729946            3 
  789000    1.1188948   -6.7021875    343.22471  0.036251026  0.036719189            3 
  790000    1.1363841   -6.6830301    343.25203   0.03620802  0.036708546            2 
  791000    1.1332362   -6.6745347    344.35358  0.036278296  0.036698434            3 
  792000    1.1290473   -6.6647863     345.6174  0.036365468  0.036688718            2 
  793000    1.0985501   -6.6966591    346.38636  0.036400416  0.036679222            3 
  794000    1.1527754   -6.6807801     345.6035  0.036272407  0.036669971            1 
  795000    1.1339804   -6.6800797    346.90727  0.036363445  0.036660906            2 
  796000    1.1143648    -6.684333    347.15929  0.036344147  0.036651697            3 
  797000    1.1242173   -6.7554256    346.47987  0.036227506  0.036641903            3 
  798000    1.0946259   -6.7210583    346.85449  0.036221229  0.036631949            2 
  799000    1.1066177   -6.7097224    347.53988   0.03624738  0.036622595            2 
  800000    1.1149035   -6.6790571    347.86405  0.036235839  0.036612777            6 
  801000    1.1374408     -6.66782    348.98697  0.036307425  0.036603144            3 
  802000     1.125629   -6.6914645    348.61578  0.036223584    0.0365932            1 
  803000    1.1072648   -6.7260682    348.18767  0.036134046  0.036582811            3 
  804000    1.1484813   -6.6978192    348.19463  0.036089825  0.036572273            3 
  805000    1.1266171   -6.7018022    349.47164  0.036177189  0.036561994            1 
  806000    1.1253436   -6.7316743    349.00315  0.036083866  0.036551372            6 
  807000    1.0983546   -6.7089005    348.70428   0.03600829  0.036541121            2 
  808000    1.1425413    -6.721434    349.23191  0.036018142  0.036530607            1 
  809000    1.1129824   -6.6917606    351.15865   0.03617209  0.036520704            2 
  810000    1.1044425   -6.7222446    352.09159  0.036223414  0.036510677            1 
  811000    1.1125108   -6.6738981    351.37737  0.036105361  0.036500479            2 
  812000    1.1394537   -6.6736965    352.22593  0.036147981  0.036490258            1 
  813000    1.1069466   -6.7095911    352.44812  0.036126294  0.036480028            3 
  814000    1.0933558   -6.7132493    352.40577  0.036077577  0.036469914            7 
  815000    1.1368756   -6.6924989    352.41679  0.036034437  0.036459793            3 
  816000     1.132993   -6.7189725    353.21798  0.036072098  0.036450029            1 
  817000    1.1205739   -6.6699428     354.1676  0.036124806  0.036440091            2 
  818000    1.1421613   -6.7424237    353.94442  0.036057907    0.0364302            2 
  819000    1.1218487   -6.7235008    354.16006  0.036035822  0.036419885            3 
  820000    1.1095069   -6.7177687    354.84728  0.036061715  0.036409591            1 
  821000    1.1351242   -6.7277228    355.60587   0.03609479  0.036399379            1 
  822000    1.1006608   -6.6853911    356.68279  0.036160056  0.036389731            3 
  823000    1.0908893   -6.7084684    356.41867  0.036089376  0.036380441            3 
  824000    1.1143456   -6.7200494    357.05311   0.03610974  0.036371243            3 
  825000    1.1158883   -6.7221946    357.03105  0.036063742  0.036361989            1 
  826000    1.1189372   -6.7504798     357.0314  0.036020117  0.036352554            2 
  827000    1.1328364   -6.7665609    357.02148  0.035975562   0.03634294            2 
  828000    1.1243674    -6.728381     356.6815  0.035897897  0.036333236            4 
  829000      1.11232   -6.6957708    357.51156  0.035938034  0.036323317            3 
  830000    1.1422907   -6.7057074    359.59442  0.036103857    0.0363135            2 
  831000    1.1294878   -6.7156498    359.03254  0.036004066  0.036304139            3 
  832000    1.1335525   -6.6741922    361.03869  0.036161728  0.036295207            2 
  833000    1.1510868   -6.6981133    359.73629  0.035988024  0.036286114            1 
  834000    1.0974073   -6.6880712     360.4678  0.036017965  0.036277411            2 
  835000     1.115433   -6.6596491    361.32448  0.036060327  0.036268499            1 
  836000    1.1028041   -6.7281737     360.5196  0.035936962  0.036259349            1 
  837000    1.1057221   -6.7096558    360.88788  0.035930693  0.036250134            2 
  838000    1.1124441   -6.7022513    362.41778  0.036039954  0.036240939            3 
  839000    1.1221392    -6.693766    362.26236  0.035981562  0.036231964            4 
  840000    1.1129921    -6.678134    363.37812  0.036049416  0.036223068            1 
  841000    1.1315225   -6.6982948    363.78647  0.036047014  0.036214311            2 
  842000    1.0957902   -6.7167536    363.66317  0.035992001  0.036205376            2 
  843000    1.1240325    -6.695817    364.89421  0.036070997  0.036196774            3 
  844000    1.1263843   -6.7120605    365.75042  0.036112798  0.036187964            4 
  845000    1.1139648   -6.6782004    364.57388  0.035954032  0.036179596            1 
  846000    1.1206854   -6.6736746    365.43409  0.035996265  0.036171083            1 
  847000    1.1071482   -6.7294419    364.11712  0.035824195  0.036162062            2 
  848000     1.136833   -6.7069536    365.12209  0.035880708  0.036153481            2 
  849000     1.148003   -6.7187095    365.55896  0.035881327  0.036144677            2 
  850000    1.1280153    -6.691463     367.4218  0.036021745  0.036135954            1 
  851000    1.1352907   -6.7141879     365.9843  0.035838651  0.036127481            2 
  852000    1.1325292   -6.7012965    367.64954  0.035959462  0.036119221            2 
  853000    1.1167113   -6.6918301    367.89683  0.035941464  0.036110363            1 
  854000    1.1201712    -6.698357    368.23374  0.035932254  0.036101975            2 
  855000    1.1174557   -6.7447989     367.1994  0.035789416  0.036093355            3 
  856000    1.0973033   -6.6809883    368.46994  0.035871295  0.036084628            2 
  857000     1.110831   -6.7198863    368.94286  0.035875424  0.036076204            3 
  858000    1.1203362   -6.6959077     369.9954  0.035935839  0.036067193            3 
  859000    1.1018104     -6.72719    370.43395  0.035936549  0.036058783            2 
  860000    1.1076304   -6.7068508    370.05509  0.035858052  0.036050056            3 
  861000    1.1276316   -6.7338834    370.61039   0.03587015  0.036041777            3 
  862000    1.0978846   -6.7028381     371.5325  0.035917682  0.036033595            1 
  863000    1.1341111   -6.7088386    371.34033  0.035857506  0.036024961            2 
  864000    1.1347639   -6.6877154    373.60667  0.036034594  0.036016901            2 
  865000    1.0968396    -6.681766    372.05991  0.035843922  0.036008725            3 
  866000    1.0806597   -6.7271134    372.93749  0.035886979  0.036000388            2 
  867000    1.1198425   -6.7138883    373.58668  0.035907985  0.035992281            1 
  868000    1.0990649   -6.6906307    374.17305  0.035922912  0.035983978            4 
  869000    1.1313352   -6.7281076    374.06908  0.035871603  0.035975717            4 
  870000    1.0916516   -6.7331682    373.57659  0.035783199  0.035967267            6 
  871000    1.1078161   -6.7083277    373.98843  0.035781519  0.035958537            4 
  872000    1.1062802   -6.7182377    374.78816  0.035816912  0.035949759            3 
  873000    1.0992482   -6.7603574    372.58905  0.035565965   0.03594068            3 
  874000    1.1342183   -6.6963727    374.14168   0.03567331  0.035931366            3 
  875000    1.1296777   -6.7266286    373.29027  0.035551455   0.03592205            2 
  876000    1.1014261    -6.753403    373.85442  0.035564538  0.035912846            4 
  877000    1.1200084   -6.7180617    375.48746  0.035679158  0.035903617            1 
  878000    1.1112214   -6.7094924    374.88316  0.035581165  0.035894527            4 
  879000    1.1166595   -6.7197098    374.32266  0.035487548  0.035884821            2 
  880000     1.110877   -6.7051464    375.37209    0.0355466  0.035874792            3 
  881000    1.1252807   -6.7142351    375.96853  0.035562668  0.035864978            4 
  882000    1.0792368   -6.7452556    375.66177  0.035493364   0.03585487            1 
  883000    1.1114557   -6.7342414    376.87104  0.035567293  0.035844963            5 
  884000    1.0770616    -6.722639    376.77694  0.035518188  0.035835041            4 
  885000    1.0991018   -6.7025701    377.43835  0.035540334  0.035825299            2 
  886000    1.1025344   -6.7270357    375.97864  0.035362927  0.035815687            2 
  887000    1.1177438   -6.7071116    377.46098  0.035462324  0.035806048            2 
  888000    1.0841707   -6.7196235    377.65403  0.035440505  0.035796329            4 
  889000    1.1150446   -6.7213231    378.53301  0.035483035  0.035786288            2 
  890000    1.0782327   -6.7103796    378.73827  0.035462385  0.035776356            2 
  891000    1.1174183   -6.7359635    379.11888  0.035458182   0.03576639            3 
  892000      1.09405   -6.7206877    379.25618  0.035431258  0.035756716            2 
  893000    1.1172966   -6.7411373    380.19306  0.035479009  0.035746967            1 
  894000    1.1008436   -6.7379222    380.43316  0.035461704  0.035737052            2 
  895000    1.1188043   -6.7266934    380.81889  0.035457997  0.035727477            3 
  896000    1.1033066   -6.7270039    381.00313  0.035435558  0.035718071            2 
  897000    1.0838246   -6.6747325    381.17392  0.035411921  0.035708711            2 
  898000    1.1056809   -6.6997573    382.47196  0.035492944  0.035699663            2 
  899000    1.1228163   -6.7062943    382.99572  0.035502013  0.035690923            3 
  900000     1.129091   -6.7468238    383.50245  0.035509486  0.035682109            1 
  901000    1.1031609   -6.7165012    384.27489  0.035541518  0.035673334            2 
  902000    1.1155719   -6.7177063    384.43712  0.035517103  0.035664729            3 
  903000    1.1205057   -6.7160804    385.69547  0.035593897   0.03565611            7 
  904000    1.1208484   -6.7030337    385.57258  0.035543195  0.035647918            2 
  905000    1.0769826   -6.7594289    383.84325  0.035344682  0.035639453            3 
  906000    1.1004986   -6.7485458    385.52331  0.035460201  0.035630639            1 
  907000    1.1270516   -6.7484469    386.35684  0.035497689   0.03562206            3 
  908000     1.108471   -6.7291949    386.06909  0.035432185  0.035613223            3 
  909000    1.0989076   -6.7477941    385.31031  0.035323645   0.03560466            1 
  910000    1.1173588    -6.753791    387.29242  0.035466339  0.035596097            2 
  911000    1.1116375   -6.7800585    386.85625  0.035387509   0.03558727            1 
  912000    1.0996308   -6.7162653    386.36473  0.035303795  0.035578381            3 
  913000    1.0825102   -6.7249904    387.67035  0.035384296  0.035569576            2 
  914000    1.1181349   -6.7291847    387.87524  0.035364264  0.035560821            6 
  915000    1.1304384   -6.7203024     388.6799  0.035398898  0.035551925            3 
  916000    1.0882247   -6.7337975    388.85894  0.035376541  0.035543232            2 
  917000    1.0949381   -6.7239474    388.81805  0.035334246  0.035534518            2 
  918000    1.0879793   -6.7419549    389.69195  0.035375087  0.035525843            4 
  919000    1.0990736    -6.769789    388.54688  0.035232761  0.035516891            3 
  920000    1.0919031   -6.7567695    389.74536  0.035303021  0.035507865            2 
  921000    1.1078928   -6.7215107    390.88797  0.035368075  0.035498749            2 
  922000    1.0997593    -6.769829     390.2513  0.035272171   0.03548979            2 
  923000    1.1091863   -6.7369617    390.78454    0.0352821  0.035480477            2 
  924000    1.0989981   -6.7418813    390.42219  0.035211236  0.035471199            2 
  925000    1.0967936   -6.7487093    392.03769  0.035318711  0.035462142            2 
  926000    1.1157182   -6.7399079    391.55752  0.035237357  0.035453248            2 
  927000    1.1022256   -6.7104118    390.72243  0.035124275  0.035444269            2 
  928000    1.1188073   -6.7284303    392.10928  0.035210962  0.035435427            2 
  929000    1.1113671   -6.7237764    393.28294  0.035278341  0.035426447            1 
  930000     1.084334   -6.7307103    391.48186   0.03507902  0.035417319            1 
  931000    1.1073137   -6.7232447    392.65638  0.035146471  0.035408261            2 
  932000    1.0939565   -6.7311372    392.36734  0.035082917  0.035398996            3 
  933000    1.1201249   -6.7914182    392.77963  0.035082139  0.035389678            3 
  934000    1.0858856   -6.7141505    393.57327  0.035115388  0.035380383            4 
  935000    1.1091546   -6.7386851    394.70968  0.035179116  0.035371054            4 
  936000    1.1085567   -6.7363562    395.44822  0.035207284  0.035361929            5 
  937000    1.0799584    -6.743125    394.94777  0.035125202  0.035353433            3 
  938000     1.088104   -6.7371197    395.91311  0.035173517   0.03534438            8 
  939000    1.0798724   -6.7395897    396.04224  0.035147518  0.035335264            5 
  940000     1.088104    -6.726064    396.56659  0.035156613  0.035326336            3 
  941000    1.0733548   -6.7514391    396.02683  0.035071451  0.035317375            5 
  942000    1.1275024   -6.7012061    398.01305   0.03520993   0.03530842            4 
  943000    1.0890241   -6.7226547    397.01389  0.035084296  0.035299378            2 
  944000     1.098847   -6.7597637    397.21032  0.035064471  0.035290101            2 
  945000    1.0889355    -6.749148    396.84151  0.034994842  0.035280666            6 
  946000    1.0839051   -6.7809942    396.67443  0.034943132  0.035271142            3 
  947000    1.1043862   -6.6941791    399.22774  0.035130917  0.035261605            2 
  948000    1.1100111   -6.7424458    398.20601  0.035004044  0.035252515            5 
  949000    1.0973177   -6.7869848    397.55564  0.034910049   0.03524259            2 
  950000    1.0909443   -6.7132693    399.81613  0.035071591  0.035232877            2 
  951000     1.086941   -6.7229573     398.2932  0.034901262   0.03522302            3 
  952000    1.0979343   -6.7533135    399.87085    0.0350027   0.03521319            5 
  953000     1.086331   -6.7410484    399.33541  0.034919151  0.035203536            6 
  954000    1.0921768   -6.7641386     399.1486   0.03486623  0.035193803            1 
  955000    1.1017645   -6.7086524    400.53893  0.034951041  0.035184295            2 
  956000    1.1042895   -6.7605042    398.76139  0.034759536   0.03517466            5 
  957000    1.1023631   -6.7458754    399.75744  0.034809948  0.035164822            3 
  958000    1.0917892   -6.7467587     400.6585  0.034851992  0.035154902            1 
  959000    1.1075977   -6.7759938     401.0419  0.034848966     0.035145            2 
  960000    1.0766608   -6.7510739    402.08131  0.034902892  0.035135462            2 
  961000    1.0971682   -6.7406951    401.28148  0.034797214  0.035125672            4 
  962000    1.1040937   -6.7460649    402.60021  0.034875278  0.035115805            2 
  963000    1.1286144   -6.7738589    401.72768  0.034763559  0.035105939            2 
  964000    1.1184821   -6.7385403    401.71836  0.034726691  0.035096101            4 
  965000    1.1044147   -6.7510676    402.94494  0.034796627  0.035086386            2 
  966000    1.0914057    -6.758692    402.78795  0.034747063  0.035076655            2 
  967000    1.0922136   -6.7525677     403.7574  0.034794674  0.035066694            1 
  968000    1.0979927   -6.7800687    404.13404  0.034791154  0.035056732            3 
  969000    1.1276135   -6.7888232    403.08925  0.034665398  0.035046907            3 
  970000    1.0757371   -6.7971477    403.82029  0.034692464   0.03503699            2 
  971000    1.1069192   -6.7299043    404.14203  0.034684349  0.035027054            3 
  972000    1.0885163   -6.7496866     405.4599  0.034761651  0.035017222            4 
  973000    1.1180008   -6.7152788    405.77922  0.034753274  0.035007626            3 
  974000    1.0719644   -6.7740885    406.73174  0.034799088  0.034998318            2 
  975000    1.0961686   -6.7370738    406.05979  0.034705965  0.034988678            3 
  976000    1.0940098   -6.7572221    406.79364  0.034733063  0.034979309            6 
  977000    1.0869358   -6.7584711    408.42312  0.034836499  0.034970203            3 
  978000    1.0917009   -6.7890335    407.75825  0.034744227  0.034961068            3 
  979000    1.1032341   -6.7662859    408.16144  0.034743058  0.034951984            2 
  980000    1.1145162   -6.7481029    408.49209  0.034735722  0.034942785            2 
  981000    1.1255012   -6.7386562    409.35122  0.034773294  0.034933595            4 
  982000    1.0977538   -6.7401143    407.84372  0.034609955  0.034924262            4 
  983000    1.1029448   -6.7480404    409.32726  0.034700514  0.034915186            3 
  984000    1.1096107   -6.7552875    409.50659  0.034680436  0.034905919            2 
  985000    1.1062695   -6.7388768    409.96332  0.034683868  0.034896697            4 
  986000    1.1016633   -6.7602703    409.17789   0.03458231  0.034887347            2 
  987000    1.0969001   -6.7166396     411.4365  0.034737969  0.034878234            3 
  988000    1.0725544   -6.7390882    411.21023  0.034683724  0.034869225            3 
  989000      1.08571   -6.7884842    410.97018  0.034628428  0.034860218            1 
  990000    1.1033075   -6.7499037    411.34126  0.034624685  0.034851147            1 
  991000     1.093601   -6.7654321    411.91747    0.0346382  0.034841874            3 
  992000    1.0984635   -6.7561145     412.7878  0.034676395  0.034832902            2 
  993000    1.0891384   -6.7431134    412.94488  0.034654656  0.034823967            5 
  994000    1.0968137   -6.8025463     413.4482  0.034661989  0.034815343            2 
  995000    1.0855268   -6.7660244    415.56226  0.034804209  0.034806893            1 
  996000    1.1028704   -6.7798698     414.4502  0.034676222  0.034798414            3 
  997000    1.0938644   -6.7406315    415.80692  0.034754841   0.03479016            2 
  998000    1.0938436   -6.7569063     416.6884   0.03479362  0.034782002            3 
  999000    1.0959227   -6.7606686    415.93141  0.034695647  0.034773794            1 
 1000000    1.0996795   -6.7460036    417.09696   0.03475808  0.034765663            2 
 1001000     1.083352   -6.7440492    417.77599  0.034779886  0.034757617            2 
 1002000    1.0733751   -6.7440187    417.29321  0.034705024  0.034749454            3 
 1003000    1.0707188   -6.7425901     417.8816  0.034719309  0.034741038            5 
 1004000     1.073789   -6.6959752    418.95614  0.034773916   0.03473283            2 
 1005000    1.0843798   -6.7698365    418.65516  0.034714358  0.034724796            3 
 1006000    1.0754964   -6.8158983    418.07285  0.034631615  0.034716298            3 
 1007000    1.0882577   -6.7480281    418.04263  0.034594723  0.034707885            2 
 1008000    1.0837717   -6.7633312    420.19918  0.034738689  0.034699599            4 
 1009000    1.1044472   -6.7959647    419.83578  0.034674247  0.034691445            4 
 1010000    1.0859226   -6.7717579    419.36285  0.034600895   0.03468331            7 
 1011000    1.0851081   -6.7262355    421.71626  0.034760654  0.034675228            2 
 1012000    1.0995402   -6.7586142    420.84235  0.034654343  0.034667103            2 
 1013000     1.082654    -6.751019    419.86049  0.034539363  0.034658835            3 
 1014000    1.0780716   -6.7633255    421.47625  0.034638087  0.034650368            2 
 1015000    1.1029864   -6.7563596    421.93152   0.03464134  0.034642177            2 
 1016000    1.0979768   -6.7583967    421.76435  0.034593532  0.034633976            2 
 1017000    1.0836833   -6.8080791    421.25863  0.034518079  0.034625607            1 
 1018000    1.1295392   -6.7539686    422.76476  0.034607462  0.034617251            2 
 1019000    1.0800408   -6.7897189    422.08691  0.034518066   0.03460874            3 
 1020000    1.0781955   -6.7958345    422.29247  0.034501019  0.034600137            3 
 1021000     1.070311   -6.7646395    423.61527  0.034575194  0.034591803            2 
 1022000    1.0835975   -6.8020559     423.3674  0.034521151  0.034583422            2 
 1023000    1.1171267   -6.7675575    423.68028  0.034512894  0.034575003            4 
 1024000    1.0934577   -6.7643989    424.26937   0.03452713   0.03456694            1 
 1025000    1.0716103   -6.7325255    424.43612  0.034507002  0.034558739            2 
 1026000    1.1142371   -6.7661859    424.40757   0.03447105  0.034550564            3 
 1027000    1.0868973   -6.7828255    425.58346    0.0345329  0.034542597            2 
 1028000    1.0971332   -6.7691531    425.95216  0.034529196   0.03453473            2 
 1029000     1.122931   -6.7506776     428.1534  0.034673907   0.03452703            3 
 1030000    1.0747975   -6.7779718    427.22579  0.034565193  0.034519252            3 
 1031000    1.0771132   -6.8061179    426.24671  0.034452531  0.034511239            4 
 1032000    1.0855319   -6.7611656    427.85803  0.034549259  0.034503731            3 
 1033000     1.097923    -6.762904    429.16743  0.034621445  0.034496284            3 
 1034000    1.0681886   -6.7905247    428.35211  0.034522252  0.034488731            1 
 1035000    1.1105132   -6.8031528    428.85388  0.034529298  0.034480993            4 
 1036000    1.0987954   -6.7601617    429.47633  0.034546037  0.034473451            2 
 1037000    1.0941106   -6.7965769    429.37205  0.034504343   0.03446598            4 
 1038000     1.088506   -6.7407403    429.82712  0.034507636   0.03445845            2 
 1039000    1.0750598   -6.7938487    429.70627  0.034464731  0.034450692            8 
 1040000    1.0840656   -6.7932465    429.84982  0.034443094  0.034442988            2 
 1041000    1.0823796   -6.7591794    431.54533  0.034545736  0.034435559            3 
 1042000    1.0667335   -6.7729829    431.13399  0.034479686  0.034428114            3 
 1043000    1.0698244   -6.7487342     431.4472  0.034471652  0.034420591            4 
 1044000    1.1201999   -6.7824423    431.58701  0.034449793  0.034412982            3 
 1045000    1.0961416   -6.7575571    432.45625  0.034486144  0.034405386            5 
 1046000    1.0607875   -6.7887191    432.31236  0.034441711  0.034397992            3 
 1047000    1.0747161    -6.801663     431.8929  0.034375429  0.034390267            4 
 1048000    1.0805373   -6.7770274    433.26013  0.034451346  0.034382424            2 
 1049000    1.1172346   -6.7749305    434.34816  0.034504938  0.034374923            3 
 1050000    1.1103086   -6.8156728    433.29397   0.03438841  0.034367324            2 
 1051000    1.0738573   -6.7350015    434.74733  0.034470927  0.034359462            4 
 1052000    1.0764375   -6.7661367    433.53127  0.034341831  0.034351659            4 
 1053000    1.0933751   -6.7571799    435.47599   0.03446312  0.034343964            3 
 1054000    1.0704069   -6.7876436    435.34768  0.034420278  0.034336138            2 
 1055000    1.0793123   -6.7823689    434.52909  0.034322993   0.03432835            4 
 1056000    1.1007915    -6.781003    434.88154  0.034318303  0.034320668            4 
 1057000    1.0777934     -6.78086    435.42768  0.034328893  0.034312938            2 
 1058000    1.0805976   -6.7936512    436.25222  0.034361391  0.034305067            2 
 1059000    1.0797349    -6.770581    435.92026  0.034302822  0.034296839            1 
 1060000    1.0575781   -6.7790411    436.14844  0.034288399  0.034288691            2 
 1061000    1.0625799   -6.8112436    436.34148  0.034271244  0.034280409            4 
 1062000    1.0842695   -6.8021044    436.58239  0.034257877  0.034272113            4 
 1063000    1.0587911   -6.7830012     436.4531  0.034215514  0.034263736            1 
 1064000    1.0869044    -6.778305    437.41479  0.034258677  0.034255397            3 
 1065000    1.0681709   -6.7937622    437.01191  0.034194985  0.034247143            1 
 1066000    1.0672923   -6.7333833    437.02994  0.034164317  0.034238864            2 
 1067000    1.0535727   -6.8118432    437.46429  0.034166221  0.034230435            4 
 1068000    1.0779343   -6.8094382    437.40117  0.034129305  0.034221888            1 
 1069000    1.0702179    -6.784707    437.91087  0.034137112  0.034213418            1 
 1070000     1.100104   -6.8119996    438.50377  0.034151384  0.034205045            3 
 1071000     1.084186   -6.7383401    439.35045  0.034185376  0.034196581            2 
 1072000    1.0793351   -6.7500766    439.41401  0.034158427  0.034188229            3 
 1073000    1.0846043    -6.818965    439.01911  0.034095923  0.034179923            2 
 1074000    1.0932115   -6.7464237    440.14009  0.034151155   0.03417171            3 
 1075000    1.0692953   -6.8035575    439.74944  0.034089104  0.034163512            1 
 1076000    1.0856777    -6.808048    439.91969  0.034070608  0.034155274            2 
 1077000    1.0839966   -6.7707786    441.32461  0.034147679  0.034147084            3 
 1078000    1.0703659   -6.7605664    441.01439  0.034092021  0.034138922            2 
 1079000    1.0703678   -6.8053157    440.73487  0.034038838  0.034130792            2 
 1080000    1.0694129    -6.826905    441.67133  0.034079578  0.034122523            2 
 1081000     1.065675   -6.8154513    442.61477  0.034120781  0.034114386            2 
 1082000    1.0925966    -6.789751    442.28486  0.034063837  0.034106255            2 
 1083000    1.1007439   -6.8181759    442.47027  0.034046651  0.034098059            3 
 1084000    1.0734926   -6.7756077    443.92925  0.034127402  0.034090052            3 
 1085000    1.0930342   -6.8159752    443.30502  0.034048005  0.034081771            3 
 1086000    1.0619406   -6.7754617    444.49696  0.034108115  0.034073722            2 
 1087000    1.0557197   -6.7864561    443.67258  0.034013537  0.034065506            3 
 1088000    1.0823544   -6.7996757    443.85252  0.033996057  0.034057219            3 
 1089000    1.1091179   -6.7790034    442.32539  0.033847979  0.034048792            5 
 1090000    1.0786338   -6.7461144    443.70454  0.033922365  0.034040224            2 
 1091000    1.0838753   -6.7648453     445.2933  0.034012626  0.034031599            3 
 1092000     1.095241   -6.7854107    444.68776  0.033935268  0.034022957            4 
 1093000    1.0856281   -6.7925903    441.89627   0.03369139  0.034014178            2 
 1094000     1.066128   -6.8004791     444.8712  0.033887203  0.034005275            4 
 1095000    1.0845494   -6.7691379    445.26019  0.033885859  0.033996347            2 
 1096000    1.0829827   -6.7913237    443.96581  0.033756524   0.03398736            2 
 1097000    1.0672786   -6.7702894    443.32493  0.033677069  0.033978283            5 
 1098000    1.0528928   -6.7510966     445.3916  0.033803248  0.033969152            1 
 1099000    1.0686066   -6.7877392      445.575  0.033786397  0.033960041            2 
 1100000    1.0808239   -6.7672465     445.4117   0.03374331  0.033950956            4 
 1101000    1.0845754   -6.7891066    446.44976  0.033791232  0.033941838            4 
 1102000     1.052994   -6.7617861    445.69649  0.033703606  0.033932675            2 
 1103000    1.0706546   -6.7848862    446.72717   0.03375092  0.033923565            3 
 1104000    1.0924485   -6.8227652    446.48142  0.033701798  0.033914398            3 
 1105000     1.083838   -6.7788998    446.87426  0.033700924  0.033905461            5 
 1106000    1.0985406   -6.8236623    446.99987  0.033679918  0.033896368            5 
 1107000    1.0469416   -6.8168459    447.17643  0.033662784  0.033887168            2 
 1108000    1.0544626   -6.8089947    449.00993  0.033770302  0.033878193            2 
 1109000    1.0798661    -6.831651    447.34846  0.033615003  0.033869151            3 
 1110000    1.0894734   -6.8002383     448.5328  0.033673633  0.033860006            2 
 1111000    1.0629974   -6.8157918    447.89007  0.033595115  0.033850702            9 
 1112000    1.0805882   -6.8006907    448.49704   0.03361039  0.033841374            3 
 1113000    1.0697734   -6.7984661    449.63988  0.033665759  0.033832228            3 
 1114000    1.0466576    -6.788693    450.29301  0.033684397  0.033823222            2 
 1115000    1.0643221   -6.8156056    450.18532  0.033646138  0.033814399            5 
 1116000     1.081935   -6.8479294    450.08222   0.03360829  0.033805594            3 
 1117000     1.073077   -6.7595219    451.03847  0.033649543   0.03379647            1 
 1118000    1.0955819   -6.7867521    451.10253   0.03362422  0.033787708            3 
 1119000    1.0718083   -6.8263662    450.80897  0.033572309  0.033778883            1 
 1120000    1.0755493   -6.7935992    452.00629   0.03363142  0.033769818            4 
 1121000    1.0556892   -6.7776948    451.75108  0.033582447  0.033760811            3 
 1122000    1.0692778    -6.787854    451.70684  0.033549231  0.033751547            3 
 1123000    1.0645942    -6.797028    452.52456  0.033580035  0.033742393            2 
 1124000     1.055443   -6.7844379    452.47443  0.033546443  0.033733067            2 
 1125000    1.0758192    -6.759566    452.64884  0.033529544  0.033723876            2 
 1126000    1.0837041   -6.7959558    452.66415    0.0335009  0.033714487            2 
 1127000    1.0817852   -6.7655859    454.20189  0.033584878  0.033705391            2 
 1128000    1.1090808   -6.8450773    451.68652  0.033369276  0.033696111            3 
 1129000    1.0670379   -6.7835527     453.6913  0.033487696  0.033686813            3 
 1130000    1.0671536   -6.8149045    454.07137  0.033486089  0.033677877            1 
 1131000    1.0651036   -6.8310213    453.78916  0.033435688  0.033668607            3 
 1132000    1.0468073   -6.8000949      455.214  0.033511042  0.033659553            2 
 1133000    1.0801232   -6.7989799    455.69341  0.033516726  0.033650363            7 
 1134000    1.0702927   -6.8332612    455.19419  0.033450484  0.033641129            3 
 1135000    1.0618773   -6.8220779    455.01721  0.033408018  0.033631976            2 
 1136000    1.0715525   -6.8054825    455.82582  0.033437927  0.033622889            1 
 1137000    1.0621576   -6.7781694    456.77592  0.033478153  0.033613741            2 
 1138000    1.0313306   -6.8115269    456.44675   0.03342463  0.033604518            2 
 1139000    1.0830924   -6.7988145    455.95113  0.033359023  0.033595328            5 
 1140000    1.0689431   -6.7951219    455.46183  0.033293993  0.033586329            3 
 1141000     1.071579     -6.83575    457.24934  0.033395365  0.033577185            1 
 1142000    1.0526612   -6.8161725    458.31912  0.033444185  0.033568209            3 
 1143000    1.0614081   -6.7784007    459.45387  0.033497657  0.033559286            5 
 1144000    1.0596636   -6.8206775    459.58264  0.033477756  0.033550361            3 
 1145000    1.0772345   -6.8253776    457.42282  0.033291326  0.033541492            4 
 1146000    1.0745303   -6.8387071    458.87744  0.033368051  0.033532706            2 
 1147000    1.0611389   -6.8249107    459.52576  0.033386062  0.033523835            3 
 1148000    1.0771808   -6.8205959    459.48712  0.033354175  0.033514868            3 
 1149000     1.078365   -6.8095681    459.61102  0.033334132  0.033505806            5 
 1150000    1.0660823   -6.7965317    460.31351  0.033356052  0.033496724            4 
 1151000    1.0686641   -6.8341511    461.16719  0.033388878  0.033487786            3 
 1152000    1.0931449    -6.803049    461.68281  0.033397194  0.033478853            2 
 1153000    1.0658144   -6.8429495    460.86924  0.033309427  0.033469894            2 
 1154000    1.0580823   -6.8514953    460.00643  0.033218258  0.033460946            2 
 1155000    1.0633377   -6.8088579    462.24138  0.033350749  0.033451979           12 
 1156000    1.0424019   -6.7846735    461.86826  0.033295001   0.03344318            4 
 1157000    1.0750605   -6.7854251      462.967  0.033345361  0.033434592            2 
 1158000     1.059532   -6.7854535    462.60368   0.03329042  0.033425949            1 
 1159000    1.0582165   -6.8093154    462.19262  0.033232142  0.033416835            3 
 1160000     1.058387   -6.8129975     462.4678  0.033223262  0.033407761            2 
 1161000     1.077029   -6.7955651    463.45635  0.033265601  0.033398721            5 
 1162000    1.0591232   -6.7936905    462.76456  0.033187361   0.03338955            2 
 1163000    1.0796567   -6.7962143    461.96598  0.033101603  0.033380158            5 
 1164000    1.0620107   -6.8214269    463.35896  0.033172892  0.033370854            4 
 1165000    1.0673577   -6.7908466    463.06882  0.033123664  0.033361623            3 
 1166000    1.0843484   -6.7992494    464.12398  0.033170667  0.033352311            1 
 1167000    1.0588037   -6.8174031    463.89815  0.033126117  0.033343092            4 
 1168000    1.0699248    -6.800756    464.54589   0.03314397  0.033334082            3 
 1169000    1.0292566   -6.8041288    465.00342  0.033148234  0.033325051            2 
 1170000    1.0452765    -6.811438    464.65072  0.033094781  0.033315977            3 
 1171000    1.0880807   -6.7855752    465.67066  0.033139102  0.033306864            3 
 1172000    1.0659979   -6.8235108    466.48474   0.03316871  0.033297718            3 
 1173000      1.07214   -6.8095312    465.94875  0.033102355  0.033288782            3 
 1174000    1.0878595   -6.8129717    467.43432  0.033179608  0.033279859            1 
 1175000    1.0587294   -6.8118092    467.27684  0.033140201  0.033270715            5 
 1176000    1.0890129   -6.8364519    466.55854  0.033061121  0.033261447            2 
 1177000     1.080136   -6.7970311    468.25795  0.033153353  0.033252347            4 
 1178000    1.0658443   -6.7860442      467.913  0.033100807  0.033243289            2 
 1179000     1.083527   -6.8153211    468.26067  0.033097305  0.033234245            4 
 1180000    1.0539855   -6.8093126    468.02288  0.033052464  0.033225307            3 
 1181000    1.0480103   -6.7807604    468.33262  0.033046332  0.033216236            1 
 1182000    1.0838745   -6.8294258    468.67031  0.033042182  0.033207009            4 
 1183000    1.0943153   -6.8122125    469.57263  0.033077813  0.033197864            2 
 1184000    1.0614338   -6.8215102    466.54857  0.032837033  0.033188594            2 
 1185000    1.0851849    -6.794715    469.71294  0.033031852  0.033179398            2 
 1186000    1.0576575    -6.853191    468.51796  0.032920037  0.033170178            2 
 1187000    1.0637576   -6.8388865    469.20933  0.032940841   0.03316078            2 
 1188000    1.0522189   -6.8330795     468.5838  0.032869234  0.033151512            2 
 1189000    1.0479602   -6.8304124    469.84818  0.032930206  0.033142023            3 
 1190000    1.0490962   -6.8350853    469.53117  0.032880334  0.033132727            3 
 1191000    1.0520999   -6.8280844    470.65661  0.032931473  0.033123423            3 
 1192000    1.0583438   -6.7999068    470.77434  0.032912077   0.03311419            4 
 1193000    1.0455912    -6.810158    471.12115  0.032908714  0.033105056            4 
 1194000    1.0561353   -6.8208988    471.52509  0.032909345  0.033095864            2 
 1195000    1.0857345   -6.8204361    471.50956  0.032880722   0.03308653            6 
 1196000    1.0413067   -6.8112426    472.90991  0.032950802  0.033077275            3 
 1197000    1.0571367   -6.8034453    472.72611  0.032910478  0.033068095            7 
 1198000     1.056836   -6.8279961    472.73716  0.032883776  0.033058881            3 
 1199000    1.0540609   -6.8014313    473.28283  0.032894275  0.033049656            1 
 1200000    1.0531367   -6.8218331     472.2725  0.032796701  0.033040334            6 
 1201000    1.0657311   -6.7997903    473.49874  0.032854478  0.033031122            3 
 1202000    1.0415664   -6.8392012    474.33425   0.03288507  0.033022033            4 
 1203000    1.0650752   -6.7999427     475.5638  0.032942906  0.033013082            4 
 1204000    1.0575385   -6.8112337    475.58413  0.032916952  0.033003977            3 
 1205000    1.0572756   -6.8127733    475.51431  0.032884807  0.032995005            2 
 1206000    1.0597685   -6.8389156     475.4789  0.032855092  0.032986153            3 
 1207000    1.0521183   -6.8392976    477.34824  0.032956934   0.03297744            3 
 1208000    1.0653172    -6.819566    478.47346  0.033007275  0.032968998            2 
 1209000    1.0365787   -6.8080056    478.72556   0.03299735  0.032960595            1 
 1210000    1.0703913   -6.7979352     479.1826  0.033001556  0.032952214            3 
 1211000    1.0613701    -6.837602    478.08527  0.032898793  0.032944087            4 
 1212000    1.0555605   -6.8290684    480.62783  0.033046468  0.032935951            2 
 1213000    1.0678908   -6.8668965    480.17723  0.032988268  0.032927964            1 
 1214000    1.0531733   -6.8701575    480.37753  0.032974844  0.032919944            3 
 1215000    1.0422171   -6.8185355    481.78998   0.03304458  0.032911758            3 
 1216000    1.0459161   -6.8476979    482.86065  0.033090779  0.032903948            3 
 1217000    1.0726971   -6.8483346    480.38211  0.032893873  0.032896045            2 
 1218000    1.0502987   -6.8230956    482.25653   0.03299511  0.032888052            7 
 1219000    1.0596772   -6.8306744    482.27636  0.032969398  0.032880366            2 
 1220000    1.0327471   -6.8244622    482.36548  0.032948462  0.032872402            1 
 1221000    1.0764719   -6.8672769    481.55586   0.03286622  0.032864299            2 
 1222000    1.0454145   -6.8118639    482.34057  0.032892837  0.032856215            6 
 1223000    1.0490193   -6.8209695     482.8864  0.032903135  0.032848117            3 
 1224000    1.0805272   -6.8248633    483.71013  0.032932334  0.032839988            2 
 1225000    1.0485786   -6.8279977    483.71951  0.032906089  0.032831643            2 
 1226000    1.0408057   -6.8179676    483.05803  0.032834287  0.032823462            3 
 1227000    1.0465374   -6.8167335    483.99041  0.032870851  0.032815306            6 
 1228000    1.0308579   -6.8640912    483.25199  0.032793973  0.032807102            4 
 1229000    1.0535276   -6.8272896    484.11165   0.03282558  0.032799011            4 
 1230000    1.0563484    -6.785275    485.66908  0.032904409  0.032790879            3 
 1231000    1.0676456   -6.8095575    484.41315  0.032792658  0.032782762            2 
 1232000    1.0405375   -6.8421877    484.18385  0.032750531  0.032774621            2 
 1233000    1.0325923   -6.8278038    485.66793  0.032824272  0.032766476            6 
 1234000    1.0527442   -6.8184347    486.39009  0.032846441  0.032758459            3 
 1235000    1.0561237   -6.8363473    485.83959  0.032782698  0.032750455            3 
 1236000    1.0539711   -6.8811165    485.20733  0.032713547   0.03274228            4 
 1237000    1.0391108   -6.8447686    486.55701  0.032778026  0.032734122            2 
 1238000    1.0529901   -6.8320264    486.02146  0.032715499  0.032725967            2 
 1239000    1.0372244   -6.8279457    487.44948  0.032785141  0.032717612            1 
 1240000    1.0490834   -6.8287478    486.26938  0.032679394  0.032709348            2 
 1241000     1.044064   -6.8212286    487.38783  0.032728165  0.032701044            3 
 1242000    1.0521537    -6.846534    485.83786  0.032597817  0.032692712            2 
 1243000     1.051599   -6.8135334    487.60084  0.032689786  0.032684413            1 
 1244000     1.039167   -6.8498189     488.6953  0.032736824  0.032675995            5 
 1245000    1.0445233   -6.8376434    488.11734  0.032671843  0.032667369            3 
 1246000    1.0609138   -6.8110951    487.79832  0.032624286  0.032658922            2 
 1247000    1.0665907    -6.803774    488.50588  0.032645408  0.032650424            2 
 1248000    1.0722247   -6.8422384    489.21314  0.032666476  0.032642169            2 
 1249000    1.0481883   -6.8397661    489.94361  0.032689059  0.032634029            3 
 1250000    1.0674522   -6.8123584    491.23346  0.032748898  0.032625852            2 
 1251000     1.049868   -6.8204556    489.45469  0.032604229  0.032617713            4 
 1252000    1.0381443     -6.83558    489.94779  0.032611008  0.032609599            2 
 1253000    1.0653808    -6.870381    488.97757  0.032520456  0.032601365            2 
 1254000     1.038574   -6.8127718    491.79175  0.032681536  0.032593205            3 
 1255000    1.0638528   -6.8619364    490.43869   0.03256565  0.032585285            1 
 1256000    1.0707556   -6.8241123    492.88843  0.032702258  0.032577067            3 
 1257000    1.0625882   -6.8064882    492.63935  0.032659729  0.032569041            3 
 1258000    1.0336327   -6.8133483    492.70782  0.032638303  0.032560984            3 
 1259000    1.0782339   -6.8354913    492.16962  0.032576756  0.032553054            5 
 1260000    1.0290789   -6.8132035    493.31019  0.032626335  0.032545026            2 
 1261000    1.0301506   -6.8194959    493.00878  0.032580543  0.032537032            2 
 1262000     1.041037   -6.8635072    491.18838  0.032434521  0.032528851            4 
 1263000    1.0571593   -6.8380571    493.99711  0.032594161  0.032520696            4 
 1264000    1.0445274   -6.8452948    491.93971  0.032432734  0.032512632            2 
 1265000    1.0585846   -6.8386698    493.86272  0.032533776  0.032504328            2 
 1266000    1.0666509   -6.8678127    493.86092   0.03250796  0.032496254            2 
 1267000    1.0647106   -6.8491043    494.62842  0.032532782  0.032488205            7 
 1268000    1.0479493   -6.8624841    493.73577   0.03244846  0.032480096            3 
 1269000    1.0416523   -6.8614014    494.35738   0.03246371  0.032471822            2 
 1270000     1.062005   -6.8502642    495.63003  0.032521655  0.032463567            3 
 1271000    1.0409835   -6.8488784    495.65314  0.032497583  0.032455124            3 
 1272000    1.0503414   -6.8708555    494.18159  0.032375628  0.032446856            1 
 1273000    1.0340693   -6.8580313    495.41591  0.032430997  0.032438664            4 
 1274000    1.0546978   -6.8453464    496.32294   0.03246487  0.032430637            1 
 1275000    1.0415685   -6.8671669    496.00271  0.032418478  0.032422596            4 
 1276000    1.0632136   -6.8599835    498.38572  0.032548702  0.032414477            2 
 1277000    1.0311251   -6.8324904    497.24505  0.032448776  0.032406385            2 
 1278000    1.0389531   -6.8441677    498.59743  0.032511569  0.032398337            5 
 1279000     1.047912   -6.7995409    500.19574  0.032590288  0.032390584            2 
 1280000    1.0420506   -6.8423234    499.18903  0.032499285  0.032382728            3 
 1281000    1.0561387    -6.815404    499.25592  0.032478267  0.032374944            3 
 1282000    1.0535534   -6.8405185    501.54301    0.0326016  0.032367399            3 
 1283000    1.0751874    -6.870305    499.88402  0.032468435  0.032359706            5 
 1284000    1.0571202   -6.8823086    500.69445  0.032495746  0.032351845            3 
 1285000    1.0460428   -6.8538134     500.2475  0.032441472  0.032344158            5 
 1286000    1.0714774   -6.8506782    500.80108  0.032452118  0.032336497            4 
 1287000    1.0473421   -6.8674018    502.03883  0.032507046  0.032328728            2 
 1288000     1.045535   -6.8431742    501.08433  0.032420052   0.03232089            2 
 1289000    1.0491136   -6.8780132    501.47644  0.032420251  0.032313131            1 
 1290000    1.0318899   -6.8715049    501.81998  0.032417311  0.032305335            2 
 1291000    1.0720621   -6.8681412    501.87805  0.032395949  0.032297574            4 
 1292000    1.0340053   -6.8411835    502.40381  0.032404786  0.032290002            3 
 1293000    1.0514826   -6.8310813    503.54401   0.03245321  0.032282495            2 
 1294000    1.0680355   -6.8336264    504.71829  0.032503754  0.032275151            3 
 1295000    1.0414166   -6.8470812    505.00092  0.032496841  0.032267694            2 
 1296000    1.0428322   -6.8669452     504.1448  0.032416718  0.032260147           10 
 1297000    1.0728449   -6.8350844    504.05219  0.032385774  0.032252442            3 
 1298000    1.0610207   -6.8697302    504.98459  0.032420685  0.032244946            2 
 1299000    1.0556132   -6.8032715     504.2987  0.032351725  0.032237499            1 
 1300000    1.0299647   -6.8687413    504.11576  0.032315113    0.0322301            5 
 1301000    1.0481123   -6.8810322    505.55944  0.032382747  0.032222587            2 
 1302000    1.0493541    -6.861745    505.54954  0.032357242  0.032215186            2 
 1303000    1.0320132   -6.8664526    506.72745  0.032407742   0.03220787            1 
 1304000    1.0455216   -6.8573204    507.09442  0.032406341  0.032200462            3 
 1305000    1.0347539   -6.8472928    507.86239  0.032430548  0.032193064            2 
 1306000    1.0395288   -6.8681768    506.85363  0.032341349  0.032185566            2 
 1307000    1.0639437   -6.8452669    509.38451  0.032477972  0.032178355            5 
 1308000    1.0541397   -6.8846734    507.94998  0.032361747  0.032171116            3 
 1309000    1.0483593   -6.8552066    509.79066  0.032454205  0.032163952            2 
 1310000    1.0455761   -6.8428465    508.91574  0.032373775   0.03215675            2 
 1311000    1.0460209    -6.872583    509.02464  0.032356003  0.032149459            2 
 1312000    1.0586765   -6.8619335    508.82656   0.03231876  0.032142246            6 
 1313000    1.0471175   -6.8443443    510.23671  0.032383645  0.032135081            3 
 1314000    1.0440983   -6.8649669    510.56415  0.032379766  0.032127954            1 
 1315000    1.0671158   -6.8540616    512.22241  0.032460229  0.032120908            2 
 1316000    1.0164707   -6.8502976    510.17796  0.032306102   0.03211385            2 
 1317000    1.0260602   -6.9104197    510.53501  0.032304164  0.032106764            2 
 1318000    1.0448543   -6.8611386    511.19543  0.032321411  0.032099664            4 
 1319000    1.0526549   -6.8637776    511.36304  0.032307496  0.032092568            3 
 1320000    1.0433973   -6.8544398    514.07963  0.032454522  0.032085662            2 
 1321000     1.042806   -6.8467567    513.68807  0.032405253  0.032078773            2 
 1322000    1.0349394   -6.8667939    514.02933  0.032402252  0.032071818            4 
 1323000    1.0423502   -6.8588626    513.95387  0.032373007  0.032064935            3 
 1324000    1.0291295   -6.8614291    513.38273  0.032312609  0.032058173            1 
 1325000    1.0279008   -6.8682138    514.08708  0.032332521  0.032051211            2 
 1326000    1.0461733   -6.8530583    515.30476  0.032384663  0.032044432            3 
 1327000    1.0435214   -6.8916059    514.93664  0.032337141  0.032037598            4 
 1328000    1.0417683   -6.8295161    514.76363  0.032301935  0.032030858            2 
 1329000    1.0293779   -6.8782212    516.78092  0.032404121  0.032024104            2 
 1330000    1.0567478   -6.8698407     516.8627  0.032384881  0.032017382            2 
 1331000    1.0540903    -6.878871    514.81695  0.032232466  0.032010441            3 
 1332000    1.0580919   -6.8426425    517.90203  0.032401278  0.032003528            3 
 1333000    1.0318756    -6.863443    517.02499  0.032322143  0.031996789            2 
 1334000    1.0374696   -6.8599028    517.01482  0.032297278  0.031990015            2 
 1335000    1.0262752   -6.8650139      516.733  0.032255493  0.031983211            3 
 1336000    1.0415778   -6.8764313    518.50154  0.032341663  0.031976241            3 
 1337000    1.0533319   -6.8742331    517.81331  0.032274577  0.031969355            7 
 1338000    1.0124574   -6.8941689    516.08405  0.032142753   0.03196225            2 
 1339000    1.0479895    -6.864838     517.9318  0.032233744  0.031955431            5 
 1340000    1.0330001   -6.8595354    518.64464   0.03225402   0.03194846            6 
 1341000    1.0584273    -6.856498    519.68892  0.032294862    0.0319417            3 
 1342000    1.0488206   -6.8714461      520.595  0.032327061  0.031934955            7 
 1343000    1.0104552    -6.861467    521.21976  0.032341757  0.031928284            2 
 1344000    1.0327784   -6.8454306    520.39382  0.032266482  0.031921669            2 
 1345000    1.0585309    -6.878582    520.31197  0.032237421  0.031914768            1 
 1346000    1.0471608    -6.852519    518.64979  0.032110562  0.031907914            2 
 1347000    1.0402594   -6.8965416    520.36831  0.032193041  0.031901146            4 
 1348000    1.0432217    -6.857919    519.72622  0.032129464  0.031894293            4 
 1349000    1.0364595   -6.9041727    520.40203  0.032147395  0.031887542            4 
 1350000     1.031404   -6.8839084    520.19754  0.032110959  0.031880677            3 
 1351000    1.0451814   -6.8699688    519.42535   0.03203956  0.031873801            3 
 1352000    1.0274171   -6.8583038    521.49309  0.032143312  0.031866721            3 
 1353000     1.030006   -6.8678112    521.73457  0.032134428  0.031859877            4 
 1354000    1.0378349   -6.8917945    519.88306  0.031996742  0.031852879            3 
 1355000    1.0455052   -6.8924695    520.96375  0.032039591  0.031845754            2 
 1356000    1.0329551    -6.841815     522.2176  0.032093018  0.031838741            3 
 1357000    1.0446569   -6.8729692    523.64924  0.032157286  0.031831814            2 
 1358000    1.0356175   -6.8708251    521.87753  0.032024885  0.031825004            3 
 1359000    1.0354913   -6.8659642    523.56542  0.032104821  0.031818106            1 
 1360000    1.0195485   -6.8539589    524.40938  0.032132927  0.031811249            2 
 1361000    1.0062367   -6.8762922    523.35269  0.032044618  0.031804481            2 
 1362000    1.0390641   -6.8544182    525.63482  0.032160721  0.031797772            3 
 1363000     1.035529   -6.8729233    526.09065  0.032164995  0.031791095            2 
 1364000    1.0402036   -6.8852188    525.62058  0.032112694  0.031784535            2 
 1365000    1.0402532   -6.8662118    526.15057  0.032121524     0.031778            3 
 1366000     1.030348   -6.8543331    526.99166  0.032149321  0.031771466            3 
 1367000    1.0524567   -6.8913276    526.41042   0.03209037  0.031764865            2 
 1368000    1.0251087    -6.853988    526.96756   0.03210085  0.031758303            2 
 1369000    1.0240736   -6.8594666    528.13098  0.032148221  0.031751905            4 
 1370000    1.0382431   -6.9113902    528.00226  0.032116926  0.031745416            3 
 1371000    1.0274634   -6.8970773    527.28423  0.032049856  0.031738856            4 
 1372000    1.0146455   -6.8977385    527.64592  0.032048464  0.031732161            3 
 1373000    1.0373303   -6.8776667    527.61789  0.032023421  0.031725544            4 
 1374000    1.0365197   -6.8764485    527.99966  0.032023269     0.031719            4 
 1375000    1.0147035   -6.8497166    529.35485  0.032082112  0.031712555            5 
 1376000    1.0343055   -6.8744645    529.58319  0.032072626  0.031706109            3 
 1377000    1.0160867    -6.884971    529.77458  0.032060916  0.031699564            2 
 1378000    1.0306451     -6.88445    528.70051  0.031972697  0.031692853            5 
 1379000    1.0219502   -6.8869859    530.56842   0.03206239  0.031686188            3 
 1380000    1.0450179   -6.8858038    530.96616  0.032063174  0.031679653            3 
 1381000     1.031674   -6.8578485    532.15359  0.032111609  0.031673163            6 
 1382000    1.0379035   -6.8750143    531.18291  0.032029843   0.03166672            5 
 1383000     1.027899   -6.8570755    531.74528  0.032040569  0.031660348            3 
 1384000      1.00339   -6.8843227    532.10121  0.032038849  0.031653984            3 
 1385000    1.0397404   -6.8775846    534.43414  0.032156085  0.031647672            2 
 1386000    1.0273066   -6.8648362    533.44045  0.032073139  0.031641556            2 
 1387000    1.0289693   -6.8407061    533.25114  0.032038641  0.031635217            3 
 1388000    1.0167342   -6.8701425    533.75238  0.032045652  0.031628948            2 
 1389000    1.0373641   -6.8744699    534.28993  0.032054831  0.031622587            2 
 1390000    1.0332743   -6.8423887    536.00794  0.032134768  0.031616298            5 
 1391000    1.0191172   -6.9159302    532.92944  0.031927237  0.031610003            4 
 1392000    1.0220783   -6.9322207    533.39839  0.031932375  0.031603599            2 
 1393000    1.0395626   -6.8695123    535.37042  0.032027424   0.03159722            2 
 1394000    1.0249167   -6.9048812    533.92639  0.031918124  0.031590712            7 
 1395000    1.0328077   -6.8770928    535.05771  0.031962826  0.031584212            2 
 1396000     1.045443   -6.8675925    536.06063  0.031999799  0.031577768            3 
 1397000    1.0260618    -6.885022     536.0038  0.031973503  0.031571221            5 
 1398000    1.0249013   -6.8861662    535.10798  0.031897233  0.031564764            3 
 1399000    1.0254114   -6.8776721     536.8369  0.031977418  0.031558433            2 
 1400000    1.0066404   -6.9333418    536.12901  0.031912441  0.031551817            4 
 1401000    1.0400276   -6.8702901    535.78398   0.03186914  0.031545075            4 
 1402000     1.021082   -6.8685066    538.08065   0.03198292  0.031538635            2 
 1403000   0.99842712   -6.8408413    538.94303  0.032011347  0.031532246            3 
 1404000    1.0017155    -6.887177    537.96299  0.031930377  0.031525761            4 
 1405000    1.0109938   -6.8673968    537.69647  0.031891843  0.031519434            3 
 1406000    1.0043058   -6.9013852    537.71505  0.031870261  0.031512869            3 
 1407000    1.0169034   -6.8899541    537.81744  0.031853674  0.031506468            2 
 1408000    1.0310297   -6.8692616    539.77555  0.031946943   0.03150012            5 
 1409000    1.0276131   -6.8766225    539.88053  0.031930478  0.031493825            3 
 1410000    1.0301439    -6.877796    541.21028  0.031986423  0.031487513            1 
 1411000    1.0358395   -6.8958928    539.48125  0.031861638  0.031481277            5 
 1412000    1.0383394   -6.8828181    540.91297   0.03192357  0.031474914            2 
 1413000    1.0106714   -6.8921013    541.51669  0.031936582  0.031468625            1 
 1414000    1.0246339   -6.8967772     540.4086  0.031848692  0.031462331            2 
 1415000    1.0461924   -6.8581095    540.69704   0.03184317  0.031455906            2 
 1416000    1.0135235   -6.9452872    540.31683  0.031798307  0.031449489            3 
 1417000   0.99893992   -6.8899844    541.97275   0.03187325  0.031442881            5 
 1418000    1.0526859   -6.8812184    539.68532  0.031716344  0.031436306            6 
 1419000    1.0272626   -6.9446824     540.0912  0.031717829  0.031429985            6 
 1420000    1.0436024   -6.8782651    542.58178  0.031841654   0.03142348            2 
 1421000    1.0163455   -6.9025025    541.40768  0.031750392  0.031416977            3 
 1422000    1.0020867   -6.8694025    543.69977  0.031862387  0.031410442            5 
 1423000    1.0027563   -6.8896443    541.34919  0.031702342  0.031403972            2 
 1424000    1.0124236   -6.9040259    543.89704  0.031829181  0.031397237            3 
 1425000     1.026524   -6.9129339    541.12866  0.031644951  0.031390659            4 
 1426000    1.0173713   -6.8829469    541.98136   0.03167259   0.03138408            5 
 1427000    1.0332269    -6.858508    543.32367  0.031728783  0.031377467            1 
 1428000    1.0352069   -6.8836048    542.82204   0.03167729  0.031370918            5 
 1429000    1.0331666   -6.8883802    543.32835  0.031684648   0.03136426            2 
 1430000   0.98969621   -6.9008337    544.12277  0.031708786  0.031357403            5 
 1431000    1.0240453    -6.931754    543.19109  0.031632372  0.031350714            3 
 1432000    1.0321877   -6.9033844    541.62385  0.031519079   0.03134391            4 
 1433000    1.0083527   -6.9014627    545.05308  0.031696504  0.031337099            4 
 1434000    1.0273147   -6.8989841    545.03026  0.031673074  0.031330425            3 
 1435000    1.0219294    -6.876589    543.98853  0.031590507   0.03132368            4 
 1436000    1.0131446   -6.9455113    543.72112   0.03155299  0.031316844            3 
 1437000    1.0138925    -6.872001    546.01942  0.031664314  0.031310146            2 
 1438000    1.0349524   -6.8770047    546.77219  0.031685917  0.031303466            7 
 1439000    1.0082293   -6.8816463    544.83578  0.031551759  0.031296829            2 
 1440000    1.0169777   -6.8916669    545.74738  0.031582603  0.031290125            3 
 1441000    1.0265166   -6.8928222     546.5274  0.031605795  0.031283389            3 
 1442000    1.0304167   -6.8794058    548.00635  0.031669345  0.031276584            3 
 1443000    1.0388848    -6.913266    546.91284  0.031584248  0.031269981            4 
 1444000     1.015584   -6.8863405    546.70353  0.031550296  0.031263328            2 
 1445000    1.0222442   -6.8864627    547.87695  0.031596133  0.031256708            3 
 1446000    1.0178363   -6.9223262    546.78194  0.031511177  0.031250088            2 
 1447000    1.0086657     -6.89274    548.43361   0.03158452  0.031243653            4 
 1448000    1.0000513   -6.8756626    549.54086  0.031626431  0.031237273            5 
 1449000     1.017656   -6.8997407    549.61039  0.031608603   0.03123082            3 
 1450000    1.0362548   -6.8984459    550.24527  0.031623291  0.031224519            5 
 1451000    1.0042237   -6.8804179    550.46092  0.031613882  0.031218132            3 
 1452000    1.0185632   -6.9035402    550.75027  0.031608716  0.031211645            4 
 1453000   0.98575653   -6.8999016    549.24028   0.03150036  0.031205199            4 
 1454000    1.0166817   -6.9185722    550.84023  0.031570394  0.031198859            4 
 1455000    1.0235214   -6.8905359    552.74365  0.031657712  0.031192466            5 
 1456000    1.0570813   -6.9151871    551.21013  0.031548199  0.031186209            2 
 1457000     1.025407   -6.8993665    551.12871  0.031521889  0.031179948            1 
 1458000    1.0061092   -6.9095965    552.94234  0.031603929  0.031173821            4 
 1459000    1.0063685   -6.9237845    553.81018  0.031631835   0.03116774            1 
 1460000    1.0125454   -6.9060069    553.00814  0.031564392  0.031161652            4 
 1461000    1.0260585   -6.8937874    555.28579  0.031672701  0.031155555            5 
 1462000    1.0196567   -6.9328837    552.17015  0.031473447   0.03114945            5 
 1463000     1.010588   -6.9071948    554.32321  0.031574574  0.031143275            5 
 1464000    1.0368518   -6.8916358    554.96623  0.031589608  0.031137057            5 
 1465000    1.0090302   -6.9119473    555.39564  0.031592471   0.03113102            3 
 1466000    1.0244682   -6.9204645    556.92424  0.031657812  0.031125026            1 
 1467000   0.99195404   -6.9216412    554.97543   0.03152553  0.031118971            5 
 1468000    1.0080669   -6.9135357     557.1956  0.031630086  0.031112883            2 
 1469000    1.0221905   -6.9272797    555.29214  0.031500575  0.031106802            5 
 1470000    1.0099008   -6.9398303    555.18328  0.031472975  0.031100672            4 
 1471000    1.0139816   -6.9161408     556.9405  0.031551127  0.031094473            2 
 1472000     1.007592    -6.876251    556.03674  0.031478529   0.03108826            3 
 1473000    1.0311004   -6.9354697    555.33309  0.031417351  0.031082022            3 
 1474000    1.0242621   -6.8951039    555.68862  0.031416136  0.031075662            3 
 1475000    1.0217382   -6.9196537    557.03463  0.031470883  0.031069182            2 
 1476000    1.0187524   -6.8978393    556.05631  0.031394326  0.031062751            1 
 1477000   0.98246236   -6.9466788     553.3575  0.031220802  0.031056152            3 
 1478000    1.0154748   -6.9405593    556.15253  0.031357269  0.031049493            2 
 1479000    1.0284601   -6.9029849    556.71754  0.031367903  0.031043026            3 
 1480000    1.0271988   -6.9162528     557.9217   0.03141451  0.031036528            3 
 1481000    1.0248336    -6.909938    558.32173  0.031415807  0.031030229            2 
 1482000    1.0390855   -6.9097323    557.95352  0.031373905  0.031023925            3 
 1483000    1.0379854   -6.9259172    558.69606  0.031394474  0.031017594            2 
 1484000    1.0142111   -6.9026094    559.27033  0.031405567   0.03101116            2 
 1485000   0.99320345   -6.9087949    558.95392  0.031366662  0.031004554            4 
 1486000     1.005328    -6.932413    559.48684  0.031375439  0.030997938            3 
 1487000    1.0258416   -6.9133428    558.91233  0.031322143  0.030991331            3 
 1488000    1.0140972   -6.8866899     559.2505  0.031320032  0.030984747            2 
 1489000    1.0167177   -6.9046461    560.81079  0.031386321   0.03097827            4 
 1490000    1.0537643   -6.9314589    558.29548   0.03122458  0.030971709            3 
 1491000    1.0065398   -6.9177612    559.07958  0.031247461  0.030964939            1 
 1492000    0.9955383   -6.9247841    558.96798  0.031220285  0.030958264            6 
 1493000    1.0066194   -6.9634171    557.61988  0.031124128  0.030951392            4 
 1494000    1.0061215   -6.9361451    559.24132  0.031193737  0.030944487            2 
 1495000    1.0219615   -6.9148825    560.81806  0.031260761  0.030937712            2 
 1496000     1.006612   -6.8983151    560.02339  0.031195599  0.030930879            2 
 1497000    1.0014132   -6.9301954    560.17455  0.031183175  0.030923927            4 
 1498000    1.0054761   -6.9153692    560.04977  0.031155417   0.03091693            7 
 1499000    1.0099082   -6.9229598    558.67247  0.031058065  0.030909924            1 
 1500000    1.0055116     -6.91243    562.37828  0.031243238  0.030902987            6 
 1501000     1.013256   -6.9339155    561.05435   0.03114892  0.030896115            3 
 1502000    1.0007905   -6.9636523    560.44402   0.03109432  0.030889095            4 
 1503000     1.005371   -6.9529356    561.75485   0.03114631  0.030882357            3 
 1504000     1.030046    -6.913148    563.55065  0.031225103  0.030875398            3 
 1505000    1.0212578   -6.9318935    561.15722  0.031071828  0.030868541            3 
 1506000   0.99098047   -6.9137083    562.13319  0.031105201  0.030861564            2 
 1507000    1.0235931   -6.9276505    560.68058  0.031004235  0.030854589            3 
 1508000   0.99934562   -6.9318634    562.94987  0.031109078  0.030847751            2 
 1509000    1.0099149   -6.9299245    562.08529  0.031040716  0.030840805            3 
 1510000    1.0215238   -6.9435705    563.38265  0.031091758  0.030833886            2 
 1511000    1.0210975   -6.9267591    563.65876  0.031086409  0.030827088           12 
 1512000    1.0203069   -6.9197916    564.92164  0.031135452  0.030820443            7 
 1513000   0.99736065   -6.9331234    565.29582  0.031135483  0.030813783            4 
 1514000     1.014373   -6.9090525    565.72225  0.031138389  0.030807048            5 
 1515000    1.0237556   -6.9318093    563.07401  0.030972168  0.030800312            2 
 1516000   0.98455644   -6.9354571    564.92613  0.031053547  0.030793468            3 
 1517000    1.0198336    -6.925228    567.65505  0.031182985    0.0307865            3 
 1518000    1.0137664    -6.921358    564.39737  0.030983606  0.030779661            5 
 1519000    1.0319743   -6.9367013    564.69624  0.030979605  0.030772743            3 
 1520000    1.0075505    -6.919993    566.29599  0.031046929  0.030765929            1 
 1521000    1.0223204     -6.95484    565.17879  0.030965307  0.030759074            4 
 1522000   0.99125919   -6.9481556     564.8043  0.030924458  0.030752085            2 
 1523000     1.019924    -6.916706    564.60351  0.030893167  0.030745199            3 
 1524000   0.99336034   -6.9021498    565.88535  0.030942987  0.030738347            3 
 1525000    1.0207397   -6.9383699    566.09999  0.030934426  0.030731406            3 
 1526000    1.0325236   -6.9331944    567.49267  0.030990207  0.030724484            3 
 1527000     1.015942   -6.9175163    567.45674  0.030967951  0.030717643            2 
 1528000   0.99568036   -6.9163048    568.00053  0.030977341  0.030710766            5 
 1529000    1.0067339    -6.931537    567.33878  0.030921015  0.030703788            2 
 1530000    1.0379737   -6.9132395    567.82612  0.030927349  0.030696852            2 
 1531000    0.9965319   -6.9281419    567.68466  0.030899448  0.030689949            2 
 1532000    1.0179279   -6.9364519    568.88371  0.030944501  0.030683077            3 
 1533000    1.0108183   -6.9259382     569.2184  0.030942509  0.030676278            4 
 1534000     1.003487   -6.9312728    568.56747  0.030886977  0.030669417            3 
 1535000    1.0213584   -6.9369969    569.65539  0.030925917  0.030662456            2 
 1536000    1.0071724   -6.9408034     567.5376  0.030790886  0.030655369            4 
 1537000    0.9967501   -6.9807981    568.71387  0.030834628  0.030648166            4 
 1538000    1.0047029   -6.9280622    569.40547  0.030852052  0.030641072            3 
 1539000   0.99553479   -6.9485061    570.98832  0.030917713  0.030634155            3 
 1540000    1.0109301   -6.9374687    569.39596   0.03081147  0.030627216            2 
 1541000    1.0221863    -6.917911    570.65311  0.030859459  0.030620234            2 
 1542000    1.0131919   -6.9339572    568.72434  0.030735211  0.030613146            2 
 1543000    1.0027327   -6.9161192    570.87056  0.030831203  0.030606021            1 
 1544000    1.0039633   -6.9311522    571.17017  0.030827406  0.030598978            2 
 1545000   0.99953499    -6.888076    571.59066  0.030830132  0.030591864            5 
 1546000    1.0067286   -6.9069777     571.6449  0.030813115  0.030584861            3 
 1547000    1.0038997   -6.8897077     571.4042  0.030780231  0.030577756            4 
 1548000    1.0159206   -6.9259211    571.05714  0.030741664  0.030570635            5 
 1549000      1.00006   -6.9395682     571.4351  0.030742151  0.030563544            2 
 1550000    1.0085411   -6.9501668    571.10739  0.030704698  0.030556484            2 
 1551000    1.0112474   -6.9270415    572.30668  0.030749338  0.030549248            3 
 1552000   0.99908089   -6.9541089    572.32032  0.030730258  0.030542086            4 
 1553000    1.0087595   -6.9173899    573.03918  0.030749044  0.030535068            4 
 1554000   0.99086056   -6.9161729    575.18902  0.030844542    0.0305281            1 
 1555000    1.0120097   -6.9479477    573.04705  0.030709917  0.030521041            7 
 1556000   0.97971928   -6.9602822    572.38569  0.030654761  0.030513855            2 
 1557000    1.0050849   -6.9412699    574.27764  0.030736333  0.030506615            3 
 1558000    1.0214127   -6.9471893    574.15333  0.030709956  0.030499478            6 
 1559000   0.96953383   -6.9618187    573.40177  0.030650084   0.03049237            4 
 1560000    1.0151191   -6.9282361     573.5567  0.030638712  0.030485236            4 
 1561000   0.99533217   -6.9177119    576.05281  0.030752339  0.030478164            1 
 1562000    1.0107232   -6.9155456    575.61404  0.030709242  0.030471192            3 
 1563000    1.0236046   -6.9579765    575.09597  0.030661973  0.030464241            2 
 1564000    1.0050781   -6.9115265    577.50549  0.030770753  0.030457382            3 
 1565000   0.99516047   -6.9294577    576.51456  0.030698326  0.030450537            3 
 1566000    1.0052621   -6.9317406    576.36111  0.030670557  0.030443635            3 
 1567000    1.0094027   -6.9661713    576.23471  0.030644262  0.030436682            2 
 1568000   0.98298098   -6.9704643    578.56636  0.030748637  0.030429937            3 
 1569000    1.0055654   -6.9077097    579.38214  0.030772368  0.030423271            1 
 1570000   0.99182192   -6.9485183     579.2878   0.03074776  0.030416607            3 
 1571000    1.0049973   -6.9692096    579.35745  0.030731882   0.03040989            5 
 1572000    1.0243067   -6.9540288     578.2868  0.030655577  0.030403259            2 
 1573000    1.0117242   -6.9592399    579.25007   0.03068712  0.030396518            3 
 1574000   0.99935798    -6.936126    578.65284  0.030636004  0.030389858            1 
 1575000   0.97801141   -6.9545354    580.12627  0.030694511  0.030383298            5 
 1576000   0.98415311   -6.9276603    580.12209  0.030674815  0.030376571            2 
 1577000    1.0105273   -6.9541868    580.24344  0.030661775  0.030369701            4 
 1578000    1.0051893   -6.9565842    580.54919  0.030658491  0.030362822            2 
 1579000    1.0000802   -6.9487512    578.81085  0.030547332  0.030355969            3 
 1580000   0.99459048   -6.9812042    578.03951  0.030487316   0.03034915            8 
 1581000   0.99049313   -6.9298232     580.5039  0.030597928  0.030342148            5 
 1582000    1.0233074   -6.9658617    579.69555  0.030536007  0.030335211            1 
 1583000    1.0070031   -6.9182341    579.94523   0.03052986  0.030328157            4 
 1584000      1.00933   -6.9178143    581.09431  0.030571039  0.030321155            3 
 1585000   0.99015392   -6.9157011    581.32515  0.030563888  0.030314218            4 
 1586000   0.98409038   -6.9387845    579.56918  0.030452353  0.030307209            2 
 1587000    1.0063865   -6.8847869    583.82486   0.03065663  0.030300285            2 
 1588000      1.00993   -6.9730094    581.34743  0.030507317  0.030293225            3 
 1589000   0.99035207   -6.9453852     582.4145  0.030544079  0.030286117            6 
 1590000    1.0109816   -6.9565285    582.01499   0.03050393  0.030279049            8 
 1591000    1.0034762   -6.9781592    580.37076  0.030398636  0.030271907            3 
 1592000   0.99063933   -6.9541256    582.91363  0.030512648  0.030264777            3 
 1593000   0.97131126   -6.9280357    582.32503  0.030462703  0.030257779            5 
 1594000   0.99959087   -6.9671825    582.77801  0.030467274  0.030250761            3 
 1595000   0.99507898   -6.9570177    582.23065  0.030419574  0.030243736            2 
 1596000    1.0058469   -6.9894488    583.18257  0.030450218   0.03023662            4 
 1597000   0.96553158   -6.9862039    583.15588  0.030429758  0.030229644            2 
 1598000    1.0006252   -6.9271548    585.88647  0.030553112  0.030222714            2 
 1599000   0.98426969   -6.9644911    583.16519  0.030392182  0.030215842            3 
 1600000   0.98771098   -6.9819637    583.44066  0.030387535  0.030208803            3 
 1601000    1.0146308   -6.9439334    586.45234  0.030525315   0.03020191            3 
 1602000    1.0017241   -6.9267367    583.84187  0.030370468  0.030195066            4 
 1603000   0.99065026   -6.9448736    585.48625  0.030437006  0.030188141            4 
 1604000    1.0000054   -6.9441187    583.64572  0.030322408   0.03018118            3 
 1605000   0.98163387   -6.9765857    584.18559  0.030331547  0.030174174            4 
 1606000   0.99556378   -6.8980387    585.64418  0.030388345   0.03016722            3 
 1607000   0.99601953   -6.9387006    586.66615  0.030422431  0.030160107            2 
 1608000   0.99736842   -6.9083701    584.69653  0.030301437  0.030153096            2 
 1609000    0.9941648   -6.9799687    584.65916  0.030280669  0.030146128            5 
 1610000    1.0133866   -6.9595722    585.56957  0.030308984   0.03013904            2 
 1611000    1.0096356   -6.9583059    588.19155  0.030425799  0.030132039            4 
 1612000   0.98943569   -6.9790102    586.77955   0.03033393  0.030125028            3 
 1613000    1.0127927   -6.9291587    586.35648  0.030293267  0.030118085            4 
 1614000   0.99299941   -6.9554227    587.16462  0.030316224  0.030111127            2 
 1615000     0.981047   -6.9565328    587.79506  0.030329982  0.030104014            3 
 1616000   0.99216371   -6.9752217    587.05058  0.030272823  0.030096929            2 
 1617000    1.0120068   -6.9843062    587.79292  0.030292358  0.030089944            5 
 1618000    1.0014656   -6.9707487     587.5444  0.030260836  0.030082979            4 
 1619000   0.98242075   -6.9742332    588.79917  0.030306731     0.030076            4 
 1620000   0.98594754   -6.9476635    589.14898  0.030306018  0.030069042            1 
 1621000    1.0008647    -6.999792      588.444  0.030251079  0.030062045            5 
 1622000    1.0114691   -6.9225852    589.94747  0.030309673    0.0300551            3 
 1623000    0.9940594   -6.9913114    588.68283  0.030226064  0.030048098            3 
 1624000   0.98022197    -6.925627    589.57088  0.030253021  0.030041164            3 
 1625000   0.99974223   -6.9693015    590.30789  0.030272199  0.030034193            2 
 1626000   0.99719001   -6.9788649    588.53978  0.030162965  0.030027246            5 
 1627000   0.99485036   -6.9524556    590.57145  0.030248486  0.030020256            3 
 1628000     0.978503   -6.9555161    591.29532  0.030266959  0.030013187            2 
 1629000   0.97752532    -6.962068    590.32992  0.030198993  0.030006105            2 
 1630000    1.0122864   -6.9223909    590.92887  0.030211088  0.029999159            4 
 1631000    1.0066609   -6.9610287    591.91043  0.030242716  0.029992194            3 
 1632000   0.99944881   -6.9579879    591.19117  0.030187458  0.029985127            2 
 1633000    1.0008979   -6.9500647    592.79525  0.030250829  0.029978106            2 
 1634000   0.99016122   -6.9645623    591.58899  0.030170797  0.029971082            4 
 1635000    1.0073147   -6.9570841    592.22696  0.030184861  0.029964016            3 
 1636000   0.99868151   -6.9373601    591.78761  0.030144031   0.02995694            2 
 1637000    1.0045766   -6.9844413    591.46684  0.030109288  0.029949823            3 
 1638000    1.0044331   -6.9785475    591.18118  0.030076373  0.029942662            3 
 1639000   0.99215041   -6.9552783    591.83703  0.030091368  0.029935583            2 
 1640000    0.9967855   -6.9504927    592.92143  0.030128121  0.029928451            2 
 1641000   0.98108333   -6.9491594    591.83449  0.030054565  0.029921387            2 
 1642000    1.0189498   -6.9482535    592.29618  0.030059693  0.029914356            2 
 1643000    1.0022859   -6.9912343    592.86854  0.030070427  0.029907244            3 
 1644000    1.0020875   -6.9751814    593.41686   0.03007993  0.029900166            4 
 1645000   0.98264564   -7.0094872    593.96146  0.030089233  0.029893086            3 
 1646000   0.99750712     -6.97165     594.2392  0.030085014  0.029885952            5 
 1647000   0.97769848   -6.9369177    597.30024  0.030221627  0.029878949            4 
 1648000     1.000211   -7.0129734    594.81169  0.030077452  0.029872019            5 
 1649000   0.98473959   -6.9290622    595.50514  0.030094256  0.029865048            2 
 1650000   0.98838786   -6.9432904    597.38882  0.030171152  0.029858233            5 
 1651000   0.98282238   -6.9612004    595.23446  0.030044138  0.029851452            3 
 1652000    1.0000738   -6.9608844     596.3308  0.030081255  0.029844419            3 
 1653000   0.99236821   -7.0037155    594.90149  0.029991001  0.029837408            7 
 1654000   0.97986136   -6.9992667    595.68308  0.030012247  0.029830287            3 
 1655000   0.99033927    -6.939298    596.93939  0.030057371  0.029823168            3 
 1656000   0.97200361     -6.94809    595.25876  0.029954648  0.029816057            3 
 1657000   0.99821479   -6.9430642    598.23155  0.030086077  0.029808908            2 
 1658000    1.0169461     -6.97091    597.23817  0.030018002  0.029801656            5 
 1659000   0.99537209   -6.9601302    596.97202  0.029986539  0.029794531            3 
 1660000   0.97332578    -6.944121    598.54787  0.030047584  0.029787414            6 
 1661000   0.97599197   -6.9753042    596.01002  0.029902168  0.029780332            6 
 1662000   0.98158237   -6.9933136    596.85243  0.029926416  0.029773145            2 
 1663000   0.98279849   -6.9626025    596.28405  0.029879938  0.029766008            6 
 1664000   0.97929608   -6.9688859    596.28369  0.029861964   0.02975889            2 
 1665000     1.004163   -6.9796546    597.99749  0.029929804  0.029751813            4 
 1666000   0.97088646   -7.0005348    599.11262  0.029967618  0.029744594            3 
 1667000   0.98012414   -6.9613443    595.41557  0.029764826  0.029737302            1 
 1668000    0.9936035   -6.9528124    599.23912  0.029938006  0.029730133            2 
 1669000   0.97095156   -6.9796115    598.88839  0.029902556  0.029722946            5 
 1670000   0.95859355    -7.017904    598.57427  0.029868976  0.029715678            4 
 1671000   0.98452945   -6.9937613       597.72  0.029808498  0.029708364            4 
 1672000   0.98522021   -6.9842922    597.94021  0.029801645  0.029701069            3 
 1673000   0.98919528   -6.9580453    597.95358  0.029784498  0.029693784            3 
 1674000   0.96509163   -6.9507849    599.28148  0.029832809  0.029686553            7 
 1675000   0.98025046   -6.9861775    598.45847  0.029774053  0.029679216            3 
 1676000    1.0059267   -6.9803789    597.02221  0.029684875  0.029671855            2 
 1677000   0.98120017   -6.9570491    598.85876  0.029758436  0.029664398            3 
 1678000   0.98697467   -6.9659344    599.85015  0.029789936  0.029657116            6 
 1679000   0.98797606   -6.9709944    600.09143  0.029784169  0.029649828            3 
 1680000   0.99556009   -6.9830037    599.91246  0.029757562  0.029642506            2 
 1681000   0.97114156   -6.9692513    601.30592  0.029808939  0.029635115            4 
 1682000   0.97727259   -6.9784334    600.26224  0.029739508  0.029627814            7 
 1683000   0.99003693   -6.9381106    602.46125  0.029830721  0.029620497            4 
 1684000   0.99826996   -6.9645551    601.12494   0.02974688  0.029613297            2 
 1685000   0.97528879   -6.9679789     600.0627  0.029676691  0.029605948            7 
 1686000   0.98294565   -6.9924135    600.63581  0.029687417  0.029598556            3 
 1687000   0.98160246   -6.9651492     601.9677  0.029735611  0.029591249            2 
 1688000   0.97643302   -6.9869675    600.64765  0.029652826  0.029583901            3 
 1689000   0.99698353   -7.0166139    601.27435  0.029666191  0.029576673            6 
 1690000   0.98539491   -6.9495613    602.64267  0.029716108  0.029569505            2 
 1691000   0.99979121   -7.0067958    600.56659  0.029596225  0.029562169            1 
 1692000   0.99290116   -6.9715749    602.93043  0.029695155  0.029554752            3 
 1693000   0.99177484   -6.9691997    602.62334    0.0296625  0.029547402            3 
 1694000   0.98364202   -6.9555352    602.25928   0.02962708   0.02954001            3 
 1695000   0.99495013   -6.9389169    604.43207  0.029716424  0.029532641            4 
 1696000   0.96841384   -6.9661337    603.51328  0.029653758  0.029525201            2 
 1697000   0.97035312   -7.0166478    601.07446  0.029516522  0.029517706            5 
 1698000   0.97550645   -7.0046446     604.5925  0.029671795  0.029510187            4 
 1699000   0.98543908   -7.0137454    602.31294  0.029542522  0.029502699            2 
 1700000    0.9700917   -7.0292779    601.53923  0.029487217  0.029495139            4 
 1701000    1.0066027   -7.0127521    603.24913  0.029553651  0.029487586            2 
 1702000   0.97844133   -6.9595793    604.11717  0.029578788  0.029480138            5 
 1703000   0.98695226   -6.9742248    603.81071  0.029546424  0.029472725            2 
 1704000   0.99010492   -7.0123511    602.98681  0.029488792  0.029465292            3 
 1705000   0.98684343   -6.9888769    605.02283  0.029571008  0.029457992            3 
 1706000   0.99303141   -7.0050869    604.51003  0.029528626  0.029450703            3 
 1707000   0.96415759   -6.9932643    605.41575  0.029555543  0.029443403            7 
 1708000   0.98188673   -6.9506395    605.45506  0.029540157    0.0294361            2 
 1709000   0.98356534    -6.949228    607.56584  0.029625797  0.029428818            2 
 1710000   0.95118763   -7.0149316     604.1317  0.029441116  0.029421516            4 
 1711000   0.96821823   -6.9459228    607.91923  0.029608379  0.029414186            4 
 1712000   0.98370698   -6.9580449    607.39073  0.029565359  0.029406861            5 
 1713000   0.98309216   -7.0380854    606.23873  0.029492057  0.029399468            4 
 1714000   0.96226437   -7.0131731    603.78785  0.029355691  0.029391911            4 
 1715000   0.98665195   -7.0066897    605.50413  0.029421969  0.029384367            3 
 1716000   0.98338959   -6.9620743    606.58281  0.029457207  0.029377005            3 
 1717000   0.98921058   -7.0221808    606.70628  0.029446044  0.029369543            6 
 1718000   0.96748512   -6.9957878    607.63797  0.029474096  0.029362156            8 
 1719000    0.9954799   -6.9991775    607.94863   0.02947201   0.02935478            3 
 1720000   0.98157032   -6.9836508    608.15385  0.029464818  0.029347284            3 
 1721000   0.97461748   -7.0107218    606.89499  0.029386742  0.029339726            4 
 1722000   0.98113687   -6.9719907    607.85188  0.029415983  0.029332274            1 
 1723000   0.95988638   -7.0012558    608.31513  0.029421316  0.029324821            3 
 1724000   0.95957157   -6.9858102    606.95286  0.029338402  0.029317399            2 
 1725000   0.98962251   -6.9955922    609.94861  0.029466116  0.029310104            2 
 1726000   0.96665176   -6.9914286    609.97446  0.029450293  0.029302648            4 
 1727000    0.9775234   -6.9940111     607.9952  0.029337734  0.029295275            4 
 1728000   0.99216107   -7.0061269    609.25179  0.029381356  0.029287966            4 
 1729000   0.97810657   -7.0305052    608.34161  0.029320494  0.029280534            3 
 1730000   0.96733982   -6.9650999    609.98226  0.029382575   0.02927309            1 
 1731000   0.96757699   -6.9730342      612.002  0.029462835  0.029265708            3 
 1732000   0.98272155   -6.9791948    610.12162  0.029355351  0.029258246            7 
 1733000   0.96995991    -6.983183    610.25941  0.029345038  0.029250619            4 
 1734000   0.98049702    -6.961772    610.05175  0.029318135  0.029242989            3 
 1735000   0.97016092   -7.0172848    610.12954  0.029304973  0.029235418            6 
 1736000    1.0081781   -7.0500338    607.94031  0.029183003  0.029227777            3 
 1737000   0.96048163   -7.0178439    610.08166  0.029268934  0.029220209            2 
 1738000   0.98299518   -7.0191776    611.65999  0.029327771  0.029212523            3 
 1739000   0.95304273   -6.9934884    609.99148  0.029230951  0.029204948            2 
 1740000   0.97391374   -7.0098144    610.42427  0.029234879  0.029197286            3 
 1741000   0.95979296    -7.004183       610.26  0.029210224  0.029189767            3 
 1742000   0.96773763   -7.0351783    611.65492  0.029260185  0.029182126            5 
 1743000   0.98584208   -6.9842087    611.53659  0.029237741  0.029174505            2 
 1744000   0.97702459   -7.0168228    610.50089  0.029171487   0.02916696            7 
 1745000   0.97466394   -6.9932889    612.13437  0.029232778  0.029159319            2 
 1746000   0.96109483   -6.9973232    611.47693  0.029184657  0.029151704            3 
 1747000   0.96317436   -6.9745552    612.99141  0.029240193  0.029144166            3 
 1748000   0.96815232    -6.993078    613.01295  0.029224492  0.029136569            4 
 1749000   0.96534434    -7.038162    611.72278  0.029146311  0.029129042            4 
 1750000   0.97573972   -7.0413657    611.86163  0.029136268  0.029121354            4 
 1751000   0.96297867   -6.9970412      612.021  0.029127213  0.029113661            3 
 1752000   0.96714235   -7.0234493    612.56417  0.029136424    0.0291061            4 
 1753000   0.97783742   -6.9825079    611.36536  0.029062814  0.029098406            3 
 1754000    0.9768243   -6.9750357    613.72362  0.029158287  0.029090866            2 
 1755000   0.98468471   -7.0313532    613.13462  0.029113705  0.029083264            6 
 1756000   0.96837832   -6.9973859    614.45848  0.029159951   0.02907573            3 
 1757000   0.96814128   -7.0408894    613.46499  0.029096234  0.029068207            3 
 1758000   0.96809098   -7.0064788    613.47852  0.029080324  0.029060657            3 
 1759000    0.9815451   -7.0017614    614.47902  0.029111191  0.029053151            2 
 1760000   0.96787668   -7.0243945    616.78038  0.029203616  0.029045679            3 
 1761000   0.97566828   -7.0382328    615.75054  0.029138299  0.029038257            2 
 1762000   0.98114856    -6.999256    616.11864  0.029139172  0.029030778            6 
 1763000   0.97589374   -6.9793479    615.77559  0.029106428   0.02902335            1 
 1764000   0.94212111    -7.032437    614.76836  0.029042345  0.029015891            3 
 1765000   0.97388458   -6.9964605    616.64646  0.029114564  0.029008411            3 
 1766000    0.9718995   -7.0105009    617.11497  0.029120186  0.029000899            2 
 1767000    1.0005326   -7.0378551    617.51413   0.02912253  0.028993443            4 
 1768000   0.97517421   -6.9988809    617.06262  0.029084777  0.028985967            2 
 1769000   0.97083599   -7.0077169    617.50612  0.029089227  0.028978594            2 
 1770000   0.95608486   -6.9626515    618.38602  0.029114219  0.028971253            4 
 1771000   0.96874157   -7.0198373    617.44289  0.029053401  0.028963851            2 
 1772000   0.98852005    -7.006586    617.66509  0.029047455  0.028956426            3 
 1773000   0.98977833   -7.0000548    618.34498  0.029063028  0.028949082            3 
 1774000   0.97361452   -6.9883618    619.77667  0.029113899  0.028941805            7 
 1775000   0.95817424   -7.0296085    617.04377  0.028969191   0.02893462            6 
 1776000    0.9535079   -7.0026684    619.18582  0.029053389  0.028927151            2 
 1777000   0.97882817   -7.0072852    619.38326  0.029046298  0.028919772            2 
 1778000   0.95048848   -7.0254391    620.42841  0.029078947  0.028912394            4 
 1779000   0.94471363   -7.0083794     618.4154  0.028968306  0.028905001            2 
 1780000   0.97232002   -7.0311896    619.82396  0.029017976  0.028897647            2 
 1781000   0.97181763   -7.0491938    620.37929  0.029027666  0.028890324            4 
 1782000   0.97745594    -7.081005    619.78861  0.028983755  0.028882925            5 
 1783000   0.97802129   -7.0157145    618.88231  0.028925141  0.028875596            7 
 1784000   0.95557405    -7.036992    618.68065  0.028899507  0.028868047            6 
 1785000   0.98399248   -7.0348934    619.69558    0.0289307  0.028860562            3 
 1786000   0.94957531   -7.0220974    621.09725  0.028979902  0.028853195            2 
 1787000   0.95426635   -7.0013825    621.74878  0.028994067  0.028845877            3 
 1788000   0.94086684   -7.0333269    619.23785  0.028860825  0.028838421            3 
 1789000   0.95308925   -6.9997773    621.12426  0.028932563  0.028830991            2 
 1790000   0.96628149   -7.0285462    620.36265  0.028880943  0.028823623            2 
 1791000    0.9681003    -7.038203    622.53426   0.02896586  0.028816188            3 
 1792000   0.95366031   -7.0306937    620.17287  0.028839884  0.028808742            2 
 1793000   0.97366217   -7.0232429    622.71107  0.028941767  0.028801301            5 
 1794000   0.94661352   -6.9754162    623.05572  0.028941645  0.028793999            5 
 1795000   0.94751358   -7.0236024    621.30061  0.028844039   0.02878664            3 
 1796000   0.96151219   -6.9936221    623.64438  0.028936729  0.028779293            4 
 1797000   0.95986421   -7.0265009    621.53711  0.028822904  0.028771909            5 
 1798000   0.95853226   -7.0715036     621.1868  0.028790638  0.028764452            4 
 1799000    0.9658752   -7.0356611    623.10739    0.0288636  0.028757075            4 
 1800000   0.96007954   -7.0374917    622.53645  0.028821132  0.028749699            2 
 1801000   0.96014305   -6.9859011    623.07129  0.028829876  0.028742383            5 
 1802000   0.95057648   -7.0479755     622.7376  0.028798446  0.028735047            4 
 1803000   0.95558514   -7.0129422    623.36822   0.02881162   0.02872764            2 
 1804000   0.95181432   -7.0100344     624.9528  0.028868847  0.028720246            4 
 1805000   0.96467318   -7.0352741    625.28553  0.028868215  0.028712924            5 
 1806000   0.96776544   -7.0478528    623.18102  0.028755123  0.028705541            4 
 1807000   0.96275068   -7.0186336    624.64581  0.028806761  0.028698077            2 
 1808000   0.95767638   -6.9932914    624.95098  0.028804894  0.028690757            1 
 1809000   0.95586537   -7.0408287    625.14116  0.028797731  0.028683442            3 
 1810000    0.9359065   -7.0017087    627.50091  0.028890465  0.028676051            6 
 1811000   0.95215617    -7.048461    624.21156  0.028723153  0.028668688            3 
 1812000   0.95749603   -7.0035012    626.02199  0.028790562  0.028661306            2 
 1813000   0.96088739    -7.046755     623.8962  0.028676972  0.028653946            3 
 1814000    0.9736029   -7.0401592     626.2533  0.028769446  0.028646564            2 
 1815000   0.95888913   -7.0401497    626.15663  0.028749157  0.028639211            4 
 1816000   0.95611028   -7.0318623    626.57381  0.028752469  0.028631893            2 
 1817000    0.9663492   -7.0698217    626.97867  0.028755213  0.028624588            5 
 1818000   0.96566937   -6.9819846    626.73217  0.028728097  0.028617371            5 
 1819000   0.96895657   -7.0404357     627.3128  0.028738904  0.028610108            4 
 1820000   0.95403697   -7.0118992    629.20891  0.028809932  0.028602838            2 
 1821000   0.95078273    -7.015223    628.50978  0.028762117  0.028595597            3 
 1822000   0.96069923   -7.0268829    628.63854   0.02875222  0.028588357            3 
 1823000   0.95503856   -7.0529802    628.38367  0.028724797  0.028581083            3 
 1824000   0.95268439   -7.0197971    629.68635  0.028768565  0.028573856            1 
 1825000    0.9849121   -7.0411659    628.34396  0.028691505  0.028566575            2 
 1826000   0.95549364   -7.0343074    628.45802  0.028680997  0.028559304            6 
 1827000    0.9648193   -7.0295582    628.86721  0.028683963  0.028551952            2 
 1828000   0.97248557   -7.0174988    629.39866  0.028692499  0.028544741            4 
 1829000   0.96700639   -7.0315126    629.71457  0.028691205  0.028537587            5 
 1830000   0.97437655   -7.0320272    629.54491  0.028667801  0.028530484            9 
 1831000    0.9561971   -7.0310759    630.43014  0.028692433  0.028523241            3 
 1832000   0.94738278   -7.0263171    630.79573  0.028693401  0.028516107            3 
 1833000    0.9449871   -7.0201811    630.50394  0.028664482  0.028509013            3 
 1834000   0.96512127   -7.0162457    631.03103  0.028672802  0.028501903            4 
 1835000   0.94626691   -6.9913532    631.63656  0.028684676  0.028494842            1 
 1836000   0.93195293   -7.0220844    629.88837  0.028589704  0.028487701            4 
 1837000   0.94993507   -7.0259347    631.33581  0.028639803  0.028480476            2 
 1838000   0.94326947   -7.0334737    631.00073  0.028609029  0.028473291            4 
 1839000   0.96068521   -7.0271236    632.34823  0.028654533  0.028466026            1 
 1840000    0.9533636   -7.0213541    632.10577  0.028627979  0.028458837            6 
 1841000   0.95645624   -7.0318442    631.13871  0.028568654  0.028451557            3 
 1842000   0.95541802   -7.0299984     633.8952   0.02867785  0.028444356            3 
 1843000   0.94069574   -7.0706837    633.29027  0.028634937  0.028437199            3 
 1844000   0.95815034   -7.0387892    632.92921  0.028603092  0.028430022            5 
 1845000   0.96115963   -7.0500514    632.75744   0.02857983  0.028422893            2 
 1846000    0.9613443   -7.0361986    632.11785  0.028535475  0.028415699            3 
 1847000   0.96795418   -7.0082346     633.0274  0.028561063  0.028408471            4 
 1848000   0.96703356   -7.0020487    634.03511   0.02859105  0.028401361            2 
 1849000   0.94988302   -7.0315515    633.31587  0.028543171  0.028394258            3 
 1850000    0.9380532   -7.0458675    632.24172  0.028479357  0.028387078            4 
 1851000   0.97900734   -7.0417972    634.80102  0.028579192  0.028379938            4 
 1852000   0.94017739   -7.0707404    633.74928  0.028516436  0.028372807            3 
 1853000    0.9615448   -7.0109968    635.60832  0.028584652  0.028365748            3 
 1854000   0.93487374   -7.0486717    635.43612  0.028561494  0.028358525            2 
 1855000   0.95729326   -7.0707735    634.20779  0.028490916  0.028351304            4 
 1856000   0.92284436    -7.053527    635.77228   0.02854581   0.02834411            3 
 1857000   0.93884951   -7.0296853    634.52881  0.028474637  0.028336943            5 
 1858000    0.9508209   -7.0338919    635.27897  0.028492957  0.028329823            2 
 1859000     0.955112    -7.013881    635.04475  0.028467131  0.028322579            3 
 1860000   0.96321943   -7.0072777    636.25769  0.028506169  0.028315331            1 
 1861000   0.94901159   -7.0206182    635.22692  0.028444695  0.028308046            2 
 1862000   0.93477491   -7.0449956     634.6079  0.028401714  0.028300748            8 
 1863000   0.95587737   -7.0408229     636.5559  0.028473604   0.02829359            2 
 1864000   0.96882422   -7.0240292    636.18957  0.028441951  0.028286312            3 
 1865000   0.94094653   -7.0531046    636.26862  0.028430233   0.02827909            3 
 1866000   0.96448845   -7.0755436    635.41866  0.028377039  0.028271933            2 
 1867000   0.93062222   -7.0524827    635.96574  0.028386259  0.028264706            4 
 1868000   0.93091369   -7.0753131    635.21821  0.028337715  0.028257423            8 
 1869000   0.95588623   -7.0484635    637.30063  0.028415402  0.028250075            4 
 1870000   0.93289049   -7.0305078    636.81829  0.028378712  0.028242713            3 
 1871000   0.94369299   -7.0188233    637.62661  0.028399546  0.028235376            4 
 1872000   0.95604271    -7.014654    638.14965  0.028407659  0.028228131           11 
 1873000   0.98482427   -7.0329278    637.75195  0.028374798  0.028220848            3 
 1874000   0.93920475   -7.0133275     637.6639  0.028355741  0.028213557            4 
 1875000   0.92968345   -7.0809593    636.03751  0.028268334  0.028206165            4 
 1876000   0.93495394   -7.0292876    637.94129  0.028337833   0.02819888            5 
 1877000   0.95709985   -7.0628273    637.03823  0.028282642   0.02819155            4 
 1878000   0.96041749   -7.0205803    638.12784  0.028315932  0.028184283            2 
 1879000   0.96223354   -7.0359422    639.91911  0.028380304  0.028176999            5 
 1880000   0.96180038   -7.0358115    638.01107  0.028280633  0.028169689            4 
 1881000   0.95280042   -7.0696309    638.12998  0.028270866  0.028162415            6 
 1882000   0.96840476   -7.0694387    637.56511  0.028230832  0.028155068            4 
 1883000   0.95237609   -7.0486829    638.19095  0.028243536   0.02814772            3 
 1884000   0.94832935   -7.0256734    639.63922  0.028292605  0.028140511            2 
 1885000   0.93567085   -7.0424089    639.69212  0.028279934  0.028133254            2 
 1886000   0.94884204   -7.0354726    641.10101  0.028327192  0.028125939            3 
 1887000   0.97225967   -7.0063296    639.76189  0.028253042  0.028118621            1 
 1888000   0.95130647   -7.0534154    637.18587  0.028124376  0.028111257            3 
 1889000   0.93507626   -7.0478234    639.75844  0.028222977  0.028103801            2 
 1890000   0.93445953   -7.0554615    640.08132   0.02822228  0.028096428            7 
 1891000   0.94112555   -7.0530781    638.93467  0.028156825  0.028089101            3 
 1892000   0.95730843   -7.0631906    640.01467  0.028189512  0.028081681            3 
 1893000   0.92319622   -7.0431129    639.88401  0.028168868  0.028074313            3 
 1894000   0.95397035   -7.0552671    639.91983  0.028155571   0.02806688            1 
 1895000   0.94480098   -7.0511984    640.62953  0.028171923  0.028059458            3 
 1896000   0.95558756   -7.0416959      638.784  0.028075949  0.028052023            2 
 1897000   0.95247736   -7.0583779    639.79228  0.028105442  0.028044597            4 
 1898000   0.95054506   -7.0118787     639.1267  0.028061411  0.028037078            3 
 1899000   0.95704649   -7.0308257    641.30983  0.028142436  0.028029601            3 
 1900000   0.92579563   -7.0593326    640.45569  0.028090162  0.028022155            4 
 1901000   0.93923259   -7.0682238    640.00207    0.0280555   0.02801463            3 
 1902000   0.94715763   -7.0886751     641.7701  0.028118213  0.028007153            8 
 1903000   0.94366003   -7.0427893    641.33464  0.028084368  0.027999713            4 
 1904000   0.92782753   -7.0604393    642.12816  0.028104349  0.027992362            3 
 1905000   0.95394672   -7.0044831    641.50918  0.028062519  0.027985065            2 
 1906000   0.94302159   -7.0484674    643.29619  0.028125926  0.027977768            3 
 1907000   0.93524066   -7.0785409    641.65132  0.028039299  0.027970439            4 
 1908000   0.95202211   -7.0131144    643.45603  0.028103425  0.027963108            4 
 1909000   0.94635102   -7.0348138    643.48646  0.028090032  0.027955845            3 
 1910000   0.93377245   -7.0471669    643.07007  0.028057159  0.027948595            3 
 1911000   0.94620393   -7.0677894    642.27068  0.028007617   0.02794133            3 
 1912000   0.95966511   -7.0614754    642.97899   0.02802384  0.027934072            3 
 1913000   0.94583785    -7.038378     644.1593  0.028060607  0.027926789            1 
 1914000   0.95245353   -7.0592286    643.79174  0.028029943  0.027919532            5 
 1915000   0.93762898   -7.0380037    645.97676   0.02811039  0.027912308            5 
 1916000   0.94225575   -7.0562915    643.38725  0.027983092  0.027905018            2 
 1917000   0.94584188   -7.0716785    642.23386  0.027918356   0.02789772            2 
 1918000   0.95166673   -7.0286287     646.6754  0.028096776  0.027890476            4 
 1919000   0.97043071   -7.0447266    645.30338  0.028022554   0.02788323            8 
 1920000   0.95517287   -7.0584526    645.06262   0.02799751  0.027875925            4 
 1921000   0.91217921   -7.0402574    644.43179   0.02795557  0.027868654            3 
 1922000    0.9216179   -7.0259787    645.23312  0.027975768  0.027861439            5 
 1923000   0.96356545   -7.0766368    645.40071  0.027968483  0.027854168            4 
 1924000   0.92722586   -7.0285973    646.89553   0.02801869   0.02784689            4 
 1925000   0.94337236   -7.0368326    646.11218  0.027970224  0.027839639            4 
 1926000   0.95790083   -7.0692521    646.19126  0.027959123  0.027832355            3 
 1927000   0.93906303   -7.0351349    646.13886  0.027942348  0.027825186            2 
 1928000   0.94710509   -7.0770067    645.19929  0.027887245  0.027817955            2 
 1929000   0.94013405   -7.0422277    647.31047  0.027963991  0.027810732            2 
 1930000    0.9508836   -7.0753072    648.12264   0.02798457  0.027803547            2 
 1931000   0.95456238   -7.0544943    646.30581  0.027891671  0.027796372            3 
 1932000   0.94627856   -7.0537036    647.54889  0.027930853  0.027789159            3 
 1933000   0.93560409   -7.0641851    645.92258  0.027846292  0.027781784            2 
 1934000   0.92784762   -7.0756923    647.35574  0.027893646  0.027774558            3 
 1935000   0.95427197   -7.0561172    646.39373    0.0278378  0.027767251            4 
 1936000   0.91139301   -7.0356911    648.82258  0.027927969  0.027759997            4 
 1937000   0.94895598   -7.0581957    649.51384   0.02794329  0.027752714            5 
 1938000   0.93160567    -7.038309    648.23176  0.027873743  0.027745414            4 
 1939000   0.95454278   -7.0803064     648.9713  0.027891151  0.027738135            3 
 1940000   0.93427776   -7.0599452     649.1365   0.02788387  0.027730803            2 
 1941000   0.92730633   -7.0638541    649.93475  0.027903776  0.027723495            6 
 1942000   0.96057142   -7.0613843    648.39481  0.027823327  0.027716139            2 
 1943000   0.91299094   -7.0533654     647.7206  0.027780091  0.027708835            5 
 1944000   0.97076237   -7.0664521    649.38987  0.027837357  0.027701533            4 
 1945000   0.95771891   -7.1075941    646.74994  0.027709938  0.027694222            1 
 1946000   0.96617586   -7.0554468    649.57714  0.027816767  0.027686801            2 
 1947000   0.95180118   -7.0845677    650.52615  0.027843098  0.027679489            3 
 1948000   0.95561482   -7.0738069    649.66028  0.027791764  0.027672227            5 
 1949000   0.94836881   -7.0613062     650.8776  0.027829554  0.027664966            3 
 1950000   0.93803097     -7.04536    650.37143  0.027793651  0.027657678            4 
 1951000   0.93355519   -7.0598642    650.96847  0.027804906   0.02765048            3 
 1952000   0.94777761    -7.074869    649.82348  0.027741781   0.02764328            4 
 1953000   0.94141667   -7.0647236    651.59538  0.027803182  0.027636045            4 
 1954000   0.93805754   -7.0537424    651.60922  0.027789544  0.027628881            3 
 1955000   0.95372939   -7.0456959     652.0098  0.027792404  0.027621671            2 
 1956000   0.94109837   -7.0227139    650.58202  0.027717366  0.027614486            2 
 1957000   0.92178676   -7.0331604    652.09695  0.027767712  0.027607357            2 
 1958000   0.93906505   -7.0713358    653.23616  0.027802016  0.027600207            6 
 1959000   0.96253211   -7.0440862    652.75911  0.027767531  0.027593124            4 
 1960000   0.97259551   -7.0677258    653.22303  0.027773088  0.027586097            4 
 1961000   0.95275673    -7.059414    654.68301  0.027820968  0.027579015            3 
 1962000   0.92220646   -7.0817239    653.33206  0.027749408   0.02757205            5 
 1963000   0.94459746   -7.0637254    654.90059  0.027801859  0.027565033            3 
 1964000     0.941198    -7.071598    654.22185  0.027758904  0.027557902            4 
 1965000   0.92642768   -7.0778073    654.78868  0.027768816    0.0275508            3 
 1966000   0.93971021   -7.0568897    654.83407  0.027756615  0.027543713            3 
 1967000   0.92783742   -7.0476404     655.5464  0.027772683   0.02753667            2 
 1968000   0.92113114    -7.058679    655.28364  0.027747444  0.027529712            5 
 1969000   0.96165944   -7.0994728    655.03553  0.027722851  0.027522704            3 
 1970000    0.9606359     -7.08889    654.65285  0.027692591  0.027515702            3 
 1971000   0.93532596   -7.0546939    655.92397  0.027732283  0.027508724            1 
 1972000   0.92928627   -7.0499227    656.62095  0.027747674  0.027501747            3 
 1973000   0.94913125    -7.044142     657.2404  0.027759774  0.027494867            1 
 1974000   0.92715108   -7.0932574    655.64855   0.02767851  0.027487946            3 
 1975000   0.94306682   -7.0854152    656.13097  0.027684851  0.027480948            2 
 1976000   0.91673432   -7.0844296     657.9278  0.027746618  0.027474007            2 
 1977000    0.9375351    -7.087761    655.86488  0.027645628  0.027466998            2 
 1978000   0.94778439   -7.0702096    657.01688  0.027680185  0.027460072            3 
 1979000   0.94280781   -7.0690277     658.1264  0.027712919  0.027453191            2 
 1980000    0.9119941   -7.0792607    656.25617  0.027620209  0.027446128            3 
 1981000   0.94105245   -7.0739902    657.70869  0.027667369  0.027439137            6 
 1982000   0.91746086   -7.0764091    658.91024  0.027703929  0.027432186            3 
 1983000   0.91548195    -7.054813    657.43632  0.027628018  0.027425211            5 
 1984000   0.92856431   -7.0984944    657.37039  0.027611323  0.027418189            3 
 1985000   0.93745825    -7.116809    658.89469  0.027661406  0.027411182            3 
 1986000   0.94300279   -7.1023521    658.06783  0.027612782  0.027404166            5 
 1987000   0.95660599   -7.0973366    657.92546  0.027592915  0.027397146            3 
 1988000   0.93988524   -7.0808256    661.17248  0.027715144  0.027390292            4 
 1989000   0.92573485   -7.0753386    661.76512   0.02772604  0.027383438            2 
 1990000   0.94208874   -7.0874968    660.91327  0.027676435  0.027376542            3 
 1991000    0.9364476   -7.0905569    660.55597  0.027647579  0.027369671            8 
 1992000   0.91543957   -7.0716428    661.44516  0.027670899  0.027362842            8 
 1993000   0.94622754   -7.0860651    660.71114  0.027626323  0.027356064            3 
 1994000   0.92180597   -7.0951323    660.94362  0.027622184  0.027349228            5 
 1995000   0.92375889   -7.0831333    661.39165  0.027627053  0.027342487            4 
 1996000   0.93439449   -7.0929978    661.49539  0.027617543  0.027335677            2 
 1997000   0.91841987   -7.0472216    661.85618  0.027618769  0.027328834            3 
 1998000    0.9507326   -7.0644525    663.09097  0.027656447  0.027322052            3 
 1999000   0.92884817      -7.0619    662.66643  0.027624914  0.027315368            3 
 2000000   0.92611391   -7.0800763    662.80911  0.027617046  0.027308625            4 
 2001000   0.93357308   -7.0571268    663.29891  0.027623643  0.027301904            5 
 2002000   0.93857811   -7.1098497    661.33362  0.027528039  0.027295163            5 
 2003000   0.90729315   -7.0751643    662.87419   0.02757839  0.027288357            4 
 2004000   0.93754615   -7.0786977    665.51803  0.027674569  0.027281595            3 
 2005000   0.94721174   -7.0873507    664.18829  0.027605498  0.027274894            4 
 2006000   0.93194352   -7.0711024    663.25823    0.0275531  0.027268139            4 
 2007000   0.92981834   -7.0577352    665.95802  0.027651471  0.027261376            3 
 2008000   0.95403814   -7.0646018    665.71649  0.027627676  0.027254655            3 
 2009000   0.93169529   -7.1106645    663.99658  0.027542583  0.027247884            2 
 2010000   0.93773805   -7.1135536    661.55536  0.027427668  0.027241034            2 
 2011000   0.93401463   -7.0766841     665.0227  0.027557712   0.02723423            3 
 2012000   0.93136362   -7.0769482    665.54223  0.027565533  0.027227486            3 
 2013000   0.92712415   -7.0819327    665.61818  0.027554983  0.027220705            4 
 2014000   0.93124665    -7.126963      663.989  0.027473891  0.027213975            3 
 2015000   0.93268307   -7.0755178    665.62664  0.027527983  0.027207237            5 
 2016000   0.93654536   -7.0693218    666.77587  0.027561833  0.027200516            3 
 2017000    0.9288808   -7.1037383    664.88232  0.027469935  0.027193746            5 
 2018000   0.90173725   -7.1263404     663.4903   0.02739884  0.027186949            4 
 2019000   0.92288044   -7.0646443    665.64561  0.027474228  0.027180186            2 
 2020000   0.93182135   -7.0772448    666.47303  0.027494762  0.027173477            8 
 2021000   0.95820245   -7.0732031    666.20304  0.027470025  0.027166777            3 
 2022000   0.93335974   -7.1081326    666.48694  0.027468139   0.02716006            2 
 2023000   0.92993228   -7.0529688    665.74682  0.027424074  0.027153337            2 
 2024000   0.93182008   -7.0712073    668.21774  0.027512259  0.027146679            2 
 2025000   0.94514571   -7.1027643    667.40394  0.027465183  0.027140031            7 
 2026000   0.91635983   -7.0870671     667.6486   0.02746169  0.027133382            3 
 2027000   0.92128664   -7.0711983    667.63909  0.027447751  0.027126662            4 
 2028000   0.92685161    -7.103342    667.86589  0.027443536  0.027119927            4 
 2029000   0.92439228   -7.0791841    667.99132  0.027435162  0.027113212            5 
 2030000   0.90755042    -7.085036    668.03292  0.027423355  0.027106479            4 
 2031000    0.9342335   -7.1137067    668.86171  0.027443858  0.027099798            1 
 2032000   0.91714433   -7.1036879    667.06236   0.02735656  0.027093092            4 
 2033000   0.92536918   -7.1558336     667.9581  0.027379821  0.027086389            2 
 2034000   0.91923181   -7.1240915    667.58618  0.027351122  0.027079659            4 
 2035000   0.94641878   -7.0586049    669.10788  0.027399995  0.027072978            2 
 2036000   0.92654924   -7.0962331    667.91219  0.027337598  0.027066355            5 
 2037000   0.90160975   -7.0824293    668.29473  0.027339827  0.027059633            5 
 2038000   0.93081486    -7.068821    667.93027  0.027311509  0.027052846            3 
 2039000   0.93443085   -7.0949018     668.8037  0.027333811  0.027046015            6 
 2040000   0.91894711   -7.1184513    667.77433  0.027278363  0.027039145            1 
 2041000   0.91113575   -7.0647094    670.29129  0.027367764  0.027032322            3 
 2042000   0.91616629   -7.1126211    669.36601  0.027316602  0.027025565            5 
 2043000   0.93153595    -7.078152    669.24908  0.027298462   0.02701884            4 
 2044000   0.93999755   -7.1034264    668.61548  0.027259274  0.027012103            7 
 2045000   0.90887236   -7.1005518    669.70787  0.027290459    0.0270053            2 
 2046000   0.91585076   -7.0790212    669.58257  0.027272018  0.026998533            3 
 2047000   0.92810811   -7.0699756    670.43022  0.027293202  0.026991765            5 
 2048000   0.92538529   -7.1190248    670.71515  0.027291469  0.026984919            6 
 2049000   0.93629514   -7.0706874    669.73353  0.027238227  0.026978102            4 
 2050000   0.93304683   -7.0811244    670.43111  0.027253297  0.026971296            5 
 2051000   0.93173614   -7.0962334     672.3986  0.027319949  0.026964574            5 
 2052000   0.91920652    -7.128494    669.58433  0.027192346  0.026957715            7 
 2053000     0.923909    -7.130556    667.49123   0.02709414  0.026950787            7 
 2054000   0.92718129   -7.1007735    668.28312  0.027113077  0.026943849            4 
 2055000   0.93459745   -7.0912198    669.81434  0.027161976  0.026936899           12 
 2056000    0.9031169   -7.0901533    669.80245  0.027148283  0.026930004            3 
 2057000   0.92462981   -7.1051101    669.66248  0.027129415  0.026923118            6 
 2058000    0.9447951   -7.1190971    670.37793  0.027145203  0.026916122            4 
 2059000   0.91244497   -7.1042801    670.31872  0.027129623  0.026909205            2 
 2060000   0.93303127    -7.124055     670.1889  0.027111202  0.026902252            3 
 2061000   0.91859875   -7.1350759    669.98897  0.027089963  0.026895282            1 
 2062000   0.92881136   -7.0858809    670.74552    0.0271074  0.026888305            9 
 2063000    0.9082233   -7.0934422    671.85883  0.027139232  0.026881335            7 
 2064000   0.91156954   -7.0903967    672.49553   0.02715179   0.02687435            6 
 2065000    0.9193318   -7.1192991    670.90096  0.027074292  0.026867401            2 
 2066000   0.91270154   -7.0851749     671.6333  0.027090727   0.02686041            4 
 2067000   0.90882566   -7.1076491    670.74689  0.027041884  0.026853467            5 
 2068000   0.93101607   -7.1213503    671.61503  0.027063791  0.026846528            3 
 2069000   0.91854831   -7.0962336     673.0417  0.027108172  0.026839508            6 
 2070000   0.92399905   -7.1152201    670.27896  0.026983855  0.026832602            5 
 2071000   0.91887338   -7.1206416     671.7468  0.027029889  0.026825661            3 
 2072000   0.89611517   -7.1184693    672.68029  0.027054388  0.026818727            6 
 2073000   0.90543691   -7.1526677    673.08725  0.027057696   0.02681176            4 
 2074000   0.91740945   -7.1475302    672.80811  0.027033434  0.026804828            3 
 2075000   0.91737384   -7.0931004    674.61089  0.027092807  0.026797848            2 
 2076000   0.94044786    -7.109276    673.57576  0.027038205  0.026790949            3 
 2077000   0.90542895   -7.0880371    675.42323  0.027099311  0.026784064            5 
 2078000   0.93502577   -7.1031602    673.44635  0.027006992  0.026777204            4 
 2079000   0.92076684   -7.1084971    674.32153  0.027029082  0.026770309            2 
 2080000   0.93826024   -7.0994002    673.35127  0.026977214  0.026763338            2 
 2081000   0.91982492   -7.1434778    673.76094  0.026980656  0.026756424            6 
 2082000    0.9005601   -7.1290576    673.87316  0.026972188  0.026749437            1 
 2083000   0.94328866   -7.1194662    673.20159  0.026932373  0.026742406            4 
 2084000   0.92602768   -7.1061858    675.25488  0.027001555  0.026735449            5 
 2085000   0.91786103   -7.0953479    674.92286  0.026975334  0.026728503            5 
 2086000   0.92591033   -7.1264015    674.64337  0.026951237  0.026721566            3 
 2087000   0.92180867   -7.1558909    672.86604  0.026867355  0.026714494            8 
 2088000   0.90939575   -7.1275652    673.96474  0.026898337  0.026707453           10 
 2089000   0.90262457   -7.1658409    673.43498  0.026864328  0.026700444            6 
 2090000   0.94850508   -7.1412833    673.53829  0.026855594  0.026693415            3 
 2091000   0.91304757   -7.1193893    675.92846  0.026938007  0.026686392            2 
 2092000   0.94087797   -7.1325836    674.25879   0.02685862   0.02667937            3 
 2093000   0.90863681   -7.1118369    675.00479  0.026875489  0.026672435            4 
 2094000   0.91717006   -7.1303951    676.19911  0.026910184  0.026665427            3 
 2095000   0.92089927   -7.1460333    674.25418  0.026819975  0.026658498            4 
 2096000    0.9319265   -7.1309343    674.39673  0.026812847   0.02665143            3 
 2097000   0.90397101   -7.0904401    675.84559  0.026857637  0.026644393            4 
 2098000   0.90790979   -7.1210102    676.80289   0.02688286  0.026637375            3 
 2099000   0.91916765   -7.1237442    676.76185  0.026868423  0.026630329            3 
 2100000   0.91777937   -7.1144404    677.13649  0.026870496  0.026623348            8 
 2101000   0.92550733   -7.1093519    676.02748  0.026813719  0.026616435            4 
 2102000   0.89812717    -7.132333    677.37401  0.026854345  0.026609442            5 
 2103000   0.90782675   -7.1224796    677.93285   0.02686372  0.026602484            4 
 2104000   0.92214148   -7.0962669     676.8638  0.026808611  0.026595527            2 
 2105000   0.93305486   -7.1291873    677.48961   0.02682065  0.026588593            3 
 2106000   0.91925404   -7.1265375    678.01446  0.026828682  0.026581604            3 
 2107000   0.89528618   -7.0992769    676.29259  0.026747848  0.026574693            6 
 2108000   0.91200261   -7.1154423    677.60051  0.026786864  0.026567831            3 
 2109000   0.89058294   -7.1116179    678.69753   0.02681751  0.026561044            3 
 2110000   0.93127843   -7.1135885    679.35687   0.02683084  0.026554208            2 
 2111000   0.92608623   -7.0970186    679.33878  0.026817416  0.026547366            3 
 2112000   0.89934522   -7.1039473    679.96632  0.026829479  0.026540567            6 
 2113000   0.90584974   -7.1008219    678.74016  0.026768424  0.026533783            2 
 2114000   0.91057536   -7.1058217    680.13971  0.026810931  0.026526963            8 
 2115000   0.91563627   -7.1137984    681.26343  0.026842531  0.026520109            2 
 2116000   0.93932012   -7.0884105    680.53266  0.026801066  0.026513215            4 
 2117000   0.91889806   -7.1392647    680.23772  0.026776796   0.02650639            6 
 2118000    0.9063567   -7.1173828    681.41015  0.026810283  0.026499605            3 
 2119000   0.93597509   -7.1380596    678.20797  0.026671699   0.02649277            4 
 2120000   0.91679064   -7.1100481    680.19744  0.026737321  0.026485961            8 
 2121000   0.89909459   -7.1121195    680.06885  0.026719663  0.026479169            3 
 2122000   0.93372788   -7.1261705    679.78116  0.026695773  0.026472384            6 
 2123000   0.89792579   -7.1203759    681.52476  0.026751639  0.026465607            7 
 2124000    0.8891316   -7.1306752    680.80894   0.02671096  0.026458706            5 
 2125000   0.90140215   -7.1300148    681.17588   0.02671278  0.026451855            5 
 2126000   0.91489023   -7.1218285    682.60872  0.026756378  0.026445026            3 
 2127000   0.92259378   -7.1344406    682.50441  0.026739712  0.026438175            3 
 2128000   0.90396231   -7.1172768    682.13511  0.026712684  0.026431303            3 
 2129000   0.92866284   -7.1153707    683.08606   0.02673736  0.026424514            5 
 2130000   0.91305694   -7.1447546    682.06616  0.026684904  0.026417764            5 
 2131000   0.90805982   -7.1091898     682.0638   0.02667229  0.026410971            5 
 2132000   0.91906809   -7.1227852    682.09893  0.026661153  0.026404214            3 
 2133000   0.89498661   -7.1852477    681.23325  0.026614832  0.026397474            5 
 2134000   0.90662065   -7.1281604    684.40295  0.026726138  0.026390638            4 
 2135000   0.91349083   -7.1349975    681.67004  0.026606949  0.026383795            2 
 2136000   0.91138682   -7.1288787    683.88458   0.02668089  0.026376968            3 
 2137000   0.90321758   -7.1486593    681.88762  0.026590533  0.026370199            4 
 2138000    0.8998166   -7.1476401    680.97508  0.026542527  0.026363352            5 
 2139000    0.9270717   -7.1432215    683.60156  0.026632443  0.026356585            5 
 2140000   0.91037886   -7.1043996     685.1191  0.026679093  0.026349887            4 
 2141000   0.89338298   -7.1169833     683.0132  0.026584665  0.026343166            2 
 2142000   0.91768424   -7.1315029    683.84192  0.026604494  0.026336436            3 
 2143000   0.91158299   -7.1365614    682.95909   0.02655775  0.026329646            2 
 2144000   0.89264408   -7.1301076    684.04588  0.026587604  0.026322838            2 
 2145000   0.90977033   -7.1205792    685.03905  0.026613794  0.026316029            5 
 2146000   0.89174168   -7.1312754    685.32623  0.026612544   0.02630929            4 
 2147000   0.91913853   -7.1156161    686.24823  0.026635935  0.026302548            1 
 2148000   0.87945208   -7.1475852     684.2659  0.026546629  0.026295816            5 
 2149000   0.90306986   -7.1745298    685.96177  0.026600038  0.026289003            2 
 2150000   0.89775934   -7.1151144    686.10162  0.026593086  0.026282298            2 
 2151000   0.92420691    -7.173193    686.41221  0.026592756  0.026275479            4 
 2152000   0.91956878   -7.1225703    686.12196  0.026569159  0.026268769            3 
 2153000   0.90894697   -7.1204552    688.00836  0.026629833   0.02626208            4 
 2154000   0.90282376   -7.1473674    686.84147  0.026572326  0.026255424            3 
 2155000    0.9098302   -7.1571947    686.83839  0.026559876  0.026248728            4 
 2156000   0.89416134   -7.1446144    687.57781  0.026576137  0.026242061            5 
 2157000   0.91117733   -7.1216427    686.89667  0.026537501  0.026235358            3 
 2158000   0.91148623   -7.1081235    686.39286  0.026505748   0.02622868            4 
 2159000   0.89903786   -7.1642737    686.53028  0.026498776  0.026221984            3 
 2160000   0.88463361   -7.1246189    688.07708  0.026546183   0.02621528            4 
 2161000   0.91506931   -7.1575002    687.67332  0.026518329  0.026208599            3 
 2162000     0.894045   -7.1213722     688.3392   0.02653173  0.026201897            3 
 2163000   0.90702116   -7.1483859    688.24372  0.026515785  0.026195235            5 
 2164000   0.90633463   -7.1356387    688.81963   0.02652571  0.026188548            7 
 2165000   0.90140942   -7.1459603    686.67021  0.026430724  0.026181781            4 
 2166000   0.89975704   -7.1403918    686.78905  0.026423094  0.026175028            3 
 2167000   0.88742253   -7.1531574    687.01622  0.026419636  0.026168256            2 
 2168000   0.90354358   -7.1678933    687.21267  0.026415001  0.026161478            4 
 2169000   0.89186979   -7.1472406    688.53296  0.026453548  0.026154778            2 
 2170000   0.90735118   -7.1498772    689.37569  0.026473721  0.026148088            7 
 2171000   0.89033472   -7.1506008    691.28024  0.026534632  0.026141435            7 
 2172000   0.90859318   -7.1340429    688.72672  0.026424444  0.026134742            2 
 2173000   0.91710839    -7.137037     689.6378  0.026447223  0.026128001            5 
 2174000    0.8931713   -7.1236589    690.54898  0.026469986  0.026121283            3 
 2175000   0.90263016   -7.1485169    690.27983  0.026447503  0.026114602            2 
 2176000   0.91876984   -7.1543768    690.64521  0.026449342  0.026107906            3 
 2177000   0.91402054   -7.0951165     691.1806  0.026457687  0.026101283            3 
 2178000   0.93196938   -7.0855064    691.63102  0.026462772  0.026094771            3 
 2179000   0.89435069   -7.1376314    692.27437  0.026475232  0.026088206            4 
 2180000   0.89869424   -7.1641474    691.03478  0.026415703  0.026081536            5 
 2181000   0.90508051   -7.1636791    692.02988  0.026441612  0.026074878            2 
 2182000   0.90061659   -7.1556964    690.08913  0.026355375  0.026068249            3 
 2183000   0.92333051    -7.152821    692.42508  0.026432474  0.026061664            2 
 2184000   0.91809669   -7.1040658    691.70504  0.026392897  0.026055075            2 
 2185000   0.88937923   -7.1234735    690.81899  0.026347025  0.026048492            3 
 2186000   0.91063928   -7.1456577     690.8175  0.026334915  0.026041843            2 
 2187000   0.89795226   -7.1837171    690.29534  0.026302978  0.026035175            3 
 2188000   0.89957369   -7.1382328    692.93973  0.026391672   0.02602851           10 
 2189000   0.90715007   -7.1519588    693.88082  0.026415441  0.026021974            3 
 2190000   0.89220899    -7.129472     693.4363  0.026386465  0.026015433            3 
 2191000   0.89322104   -7.1474703    695.09414  0.026437477  0.026008904           11 
 2192000   0.91086483    -7.140888    693.10129  0.026349653  0.026002369            4 
 2193000   0.90249781   -7.1714999    693.56815  0.026355379  0.025995807            3 
 2194000   0.89051689   -7.1334959    692.63257  0.026307831  0.025989232            4 
 2195000   0.89366193   -7.1495685    692.63954   0.02629611  0.025982735            4 
 2196000   0.89532869   -7.1281954    694.24524  0.026345068  0.025976201            2 
 2197000   0.89249366   -7.1321112    693.85856   0.02631841  0.025969665            5 
 2198000   0.89620193   -7.1722886    693.03626   0.02627526  0.025963033            3 
 2199000   0.89867228   -7.1637336      693.616  0.026285281  0.025956353            1 
 2200000   0.89287021   -7.1445176    693.52817  0.026270006  0.025949639            6 
 2201000   0.90115838   -7.1718005    693.84929  0.026270229  0.025942965            2 
 2202000   0.90562829   -7.1681641    694.11565  0.026268379  0.025936342            3 
 2203000   0.90600185   -7.1919096    695.24055  0.026299007  0.025929711            3 
 2204000   0.90305436   -7.1296897    694.47086  0.026257972  0.025923154            3 
 2205000   0.91766811   -7.1881137    693.18056    0.0261973  0.025916499            3 
 2206000   0.90679849   -7.1732059    694.82114  0.026247399  0.025909817            2 
 2207000   0.87562304   -7.1770569    694.52624  0.026224371  0.025903141           14 
 2208000    0.9014893   -7.1647734    693.85514  0.026187166  0.025896518            9 
 2209000   0.87483979   -7.1803996    694.07535  0.026183618  0.025889885            5 
 2210000   0.90068154   -7.1477397    694.56705  0.026190311   0.02588329            5 
 2211000   0.88293667   -7.1540493    696.95045  0.026268297   0.02587668            3 
 2212000   0.89021234   -7.1872385    695.44663  0.026199767  0.025870082            5 
 2213000   0.90271942   -7.1748117     695.5373  0.026191343  0.025863484            3 
 2214000   0.91051544   -7.2068757    694.02599  0.026122628  0.025856821            5 
 2215000   0.90976734   -7.1561467     696.2779  0.026195557  0.025850196            6 
 2216000   0.91631566   -7.1271158     697.2956  0.026222007  0.025843571            3 
 2217000   0.89110763   -7.1857016     695.0914  0.026127327  0.025836931            3 
 2218000   0.90701789   -7.1769052    694.65238  0.026099052  0.025830247            3 
 2219000   0.90210185   -7.1781527    697.03376  0.026176722  0.025823586            5 
 2220000   0.90272751   -7.1726642     697.1836  0.026170555  0.025816986            3 
 2221000   0.89510846    -7.159172    697.53311  0.026171886  0.025810439            7 
 2222000   0.89002645   -7.1669188    696.00819  0.026102918  0.025803889            6 
 2223000    0.9023784   -7.1631185    695.40204  0.026068453  0.025797262            3 
 2224000   0.88542675   -7.1539887    696.33209   0.02609158  0.025790635            1 
 2225000   0.88862923   -7.1574523    696.76611  0.026096109  0.025784004            4 
 2226000   0.89567049   -7.1665149    698.46538     0.026148  0.025777451            6 
 2227000   0.90373184   -7.1693026    696.73423   0.02607148  0.025770911            6 
 2228000   0.87149156   -7.1545123    698.17635  0.026113718  0.025764383            3 
 2229000   0.88942213   -7.1537739    697.47664  0.026075843   0.02575783            5 
 2230000   0.88507241   -7.1840246    696.66944  0.026033985  0.025751264            4 
 2231000   0.90058082   -7.1470556    702.05822    0.0262236  0.025744708            6 
 2232000   0.90068868   -7.2035936    698.89537  0.026093764  0.025738244            5 
 2233000   0.89802149    -7.172602    696.88642  0.026007106  0.025731696            4 
 2234000   0.90400325   -7.1605376    699.04429  0.026075958  0.025725132            7 
 2235000     0.892561   -7.1631729    701.14701  0.026142692  0.025718641            5 
 2236000   0.88419317   -7.1662986    699.60546  0.026073549  0.025712186            2 
 2237000    0.8687159   -7.1751694    699.76109  0.026067691  0.025705709            2 
 2238000   0.88856312   -7.1903764    699.17748  0.026034312  0.025699199            5 
 2239000   0.89151459    -7.158615    701.15337  0.026096225  0.025692718            6 
 2240000   0.87598133    -7.157096    701.05078  0.026080758  0.025686181            3 
 2241000   0.90387181   -7.1369551    700.66074  0.026054616  0.025679701            2 
 2242000    0.8896898   -7.1884714    698.31234  0.025955707  0.025673129            2 
 2243000   0.89446681   -7.1720057     697.5404  0.025915456  0.025666497            3 
 2244000   0.88626879   -7.1636005    701.35195  0.026045453  0.025659956            2 
 2245000   0.90105246   -7.1904514    699.49877  0.025965062  0.025653415            2 
 2246000   0.88227242   -7.1385749    700.77821  0.026000973  0.025646857            9 
 2247000   0.91240865   -7.1921381     700.6486  0.025984594  0.025640263            6 
 2248000    0.8821483   -7.1731764    701.77344  0.026014733  0.025633683            4 
 2249000   0.89918898   -7.1791213     699.8279  0.025931077  0.025627131            2 
 2250000    0.8934481   -7.1705824    702.21823  0.026008083  0.025620544            3 
 2251000   0.88875933    -7.206241    700.97313  0.025950434  0.025613978            6 
 2252000   0.90333981   -7.1612032    704.45058  0.026067591  0.025607453            3 
 2253000   0.88677124   -7.1619641    701.82074  0.025958749  0.025600887            4 
 2254000   0.88216299   -7.1570016    702.19385  0.025961027  0.025594419            4 
 2255000   0.90198549   -7.1882002    700.54511  0.025888585   0.02558786            5 
 2256000    0.8992564   -7.1781663    700.56131  0.025877708  0.025581311            2 
 2257000   0.89994044   -7.1883488    701.23727    0.0258912  0.025574772            4 
 2258000   0.89409644   -7.1710109    701.78309  0.025899878  0.025568227            4 
 2259000   0.89244423   -7.1509189    703.46084  0.025950304  0.025561738            3 
 2260000    0.8891691   -7.1716255    701.44823   0.02586461  0.025555252            6 
 2261000   0.88519357   -7.1581368    704.10091   0.02595094  0.025548713            7 
 2262000   0.88831892   -7.1956883    701.23591   0.02583392  0.025542143            2 
 2263000   0.88706361   -7.1885667    704.56141  0.025944963  0.025535557            5 
 2264000    0.8947319   -7.1684371    701.81392  0.025832373  0.025529003            3 
 2265000    0.8805227   -7.1890194    702.25244  0.025837102  0.025522439            2 
 2266000   0.89083791   -7.1985518     702.4537  0.025833102  0.025515872            6 
 2267000    0.8786257   -7.1772972    703.21524    0.0258497   0.02550933            7 
 2268000    0.8962212   -7.1581072    704.69356   0.02589262  0.025502763            4 
 2269000   0.88109973      -7.1704    704.26581  0.025865499  0.025496222            6 
 2270000   0.89399522   -7.1529642    703.17867  0.025814195  0.025489705            3 
 2271000   0.89788255   -7.2202018    702.95578  0.025794649   0.02548315            4 
 2272000   0.89287812   -7.1819971     702.9089  0.025781577  0.025476572            6 
 2273000   0.87511082   -7.2160296     705.2777  0.025857079  0.025470022            1 
 2274000   0.88912049   -7.1386683    707.17784  0.025915342   0.02546353            4 
 2275000   0.86568631   -7.1778762    705.26214  0.025833778  0.025457017            7 
 2276000   0.87844145   -7.1351087     704.8309  0.025806638   0.02545039            7 
 2277000   0.87760867   -7.2168283    704.29253  0.025775601  0.025443747            5 
 2278000   0.87994072   -7.1691829    706.37488  0.025840463  0.025437117            3 
 2279000   0.90313761   -7.1755963    705.01542  0.025779414  0.025430497            2 
 2280000    0.8914828     -7.20063    701.65011  0.025645106  0.025423833           10 
 2281000   0.89629981   -7.1846943     704.8991  0.025752561  0.025417173            2 
 2282000   0.90422268   -7.1700172    705.05824  0.025747087  0.025410515            3 
 2283000   0.87172644     -7.15953    706.34468  0.025782767  0.025403892            2 
 2284000   0.87669953   -7.1304269    703.22535  0.025657667  0.025397239            3 
 2285000   0.89339595    -7.165182    704.09556  0.025678175  0.025390553            4 
 2286000   0.89004939   -7.1358899    707.78914  0.025801587  0.025383911            3 
 2287000   0.90162339   -7.1696352    705.11674  0.025692929  0.025377313            5 
 2288000   0.87774644   -7.1664042    705.69705  0.025702835  0.025370722            3 
 2289000   0.87905006   -7.2076443    705.23808  0.025674897  0.025364094            6 
 2290000   0.88822926   -7.1741396    705.11687  0.025659275  0.025357378            3 
 2291000   0.89573605   -7.1840789    705.27853  0.025653955  0.025350725            5 
 2292000   0.86594127   -7.1868608    705.26655  0.025642327  0.025344097            4 
 2293000   0.88490359   -7.1698769    707.14711  0.025699488  0.025337449            3 
 2294000   0.88945168   -7.1607969    705.82971  0.025640428  0.025330849            4 
 2295000   0.87179087   -7.1690566    706.42024  0.025650699  0.025324264            2 
 2296000   0.88035306    -7.172414    706.41193  0.025639225  0.025317644            5 
 2297000   0.87823466   -7.1966515    704.91007  0.025573577  0.025311069            5 
 2298000   0.89246689   -7.1695347     706.7306  0.025628467  0.025304524           10 
 2299000   0.87615676   -7.1749987    707.75186  0.025654337  0.025297951            3 
 2300000   0.90055513   -7.1834005    706.61278  0.025601912  0.025291337            3 
 2301000   0.89492147   -7.2024971    707.00982  0.025605165  0.025284698            5 
 2302000   0.85598865   -7.1817651    706.53414  0.025576822  0.025277995            6 
 2303000    0.8979676   -7.2137632    708.13144  0.025623514  0.025271296            3 
 2304000    0.8930871   -7.2112693    705.81173  0.025528492  0.025264595            7 
 2305000   0.87346435    -7.195327    707.44275  0.025576383  0.025257905           10 
 2306000    0.8757102   -7.2148109    706.39134  0.025527296  0.025251223            2 
 2307000   0.89234961   -7.1751382    704.96567  0.025464733  0.025244462            2 
 2308000   0.88017183     -7.14514    707.82508  0.025556943  0.025237777            4 
 2309000   0.87768986   -7.1852106    708.40507  0.025566806  0.025231107           11 
 2310000   0.87800478   -7.1761277     706.7294  0.025495289  0.025224468            3 
 2311000   0.87262671   -7.2040884    707.41099  0.025508834  0.025217778            3 
 2312000   0.89686986   -7.2283645    705.98917  0.025446553  0.025211049            2 
 2313000    0.8831859   -7.1976464    707.62096  0.025494342  0.025204416            4 
 2314000   0.88189056   -7.1811704    706.33482  0.025437007  0.025197755            2 
 2315000   0.88075046   -7.2164279    707.01442  0.025450483  0.025191069            3 
 2316000   0.88567169   -7.1674754    708.58462  0.025495992  0.025184344            2 
 2317000   0.86806504   -7.2047737    707.57445  0.025448657  0.025177664            6 
 2318000   0.88462832   -7.2085657     707.7155  0.025442749  0.025171005            8 
 2319000   0.86312706    -7.154308    708.25484  0.025451158  0.025164348            6 
 2320000    0.8759134    -7.213237    706.89385  0.025391302  0.025157683           10 
 2321000   0.88003259   -7.1518209    708.77094  0.025447757  0.025150962            3 
 2322000   0.86635386   -7.1539543    710.91612  0.025513786  0.025144345            3 
 2323000   0.88269602   -7.2002156    709.26946  0.025443731  0.025137702            6 
 2324000   0.87416766   -7.1942771    709.26612  0.025432664  0.025131036            4 
 2325000   0.89151996   -7.1753766     710.1695  0.025454104  0.025124408            5 
 2326000   0.88190803   -7.2130396    708.10119  0.025369059   0.02511774            5 
 2327000   0.88566834   -7.1708776    709.49488  0.025408068  0.025111074            5 
 2328000   0.87928297   -7.2101194    707.92664  0.025341017  0.025104428           10 
 2329000   0.86578816   -7.1999587    709.03875  0.025369928  0.025097707            9 
 2330000    0.8830612   -7.1708303    708.74488  0.025348529  0.025090981            2 
 2331000   0.90771559   -7.1688408    709.69396  0.025371584   0.02508427            7 
 2332000   0.85569253   -7.2206378    709.00783  0.025336186  0.025077525            3 
 2333000   0.90524656   -7.2027036    708.92436  0.025322345  0.025070743            6 
 2334000   0.89205869   -7.1937089    708.26676  0.025288016   0.02506395            2 
 2335000   0.89134952    -7.193926    709.97116  0.025338014  0.025057245            2 
 2336000   0.87450039   -7.2018065    707.13695  0.025226061  0.025050449            6 
 2337000   0.87314375   -7.1770562    711.95164  0.025386951  0.025043692            8 
 2338000    0.8798695   -7.1801166    707.32762  0.025211278  0.025036876            2 
 2339000   0.89321067   -7.1969065    709.08835   0.02526323  0.025029991            2 
 2340000   0.89690764   -7.1866358    710.07603  0.025287608   0.02502322            3 
 2341000   0.88516996   -7.1979933    710.10793  0.025277941  0.025016446            2 
 2342000   0.86457999   -7.1947684    711.09516  0.025302276  0.025009649            3 
 2343000   0.87608703   -7.2314596    707.91743  0.025178455  0.025002792            2 
 2344000   0.89196792   -7.2097973    710.00143  0.025241803  0.024995992            5 
 2345000   0.90105921   -7.2180766    709.80637  0.025224107  0.024989119            6 
 2346000   0.86195796   -7.2101985    709.10396  0.025188404   0.02498224            4 
 2347000   0.89360053   -7.2300206    710.01289  0.025209945  0.024975397            3 
 2348000   0.88271724   -7.1958544    709.74885  0.025189837  0.024968513            2 
 2349000   0.88417241   -7.2150839    710.56114   0.02520793  0.024961678            5 
 2350000   0.87675995    -7.185853    709.94005  0.025175179  0.024954913            4 
 2351000   0.87954134   -7.1742894    711.88456  0.025233396  0.024948145            4 
 2352000   0.86711502   -7.1834681     709.3835  0.025134053  0.024941416            3 
 2353000   0.85812996   -7.2352936    709.89668  0.025141546  0.024934641            3 
 2354000   0.87353822   -7.2162633    709.08703  0.025102203  0.024927828            5 
 2355000   0.88474773   -7.2013125    710.89671  0.025155581  0.024921073            7 
 2356000   0.86669542   -7.1908712    713.52418  0.025237839  0.024914291            3 
 2357000   0.87710427   -7.2038364    710.64808  0.025125445  0.024907492            3 
 2358000   0.87857156   -7.1794343    712.90792  0.025194654  0.024900773            4 
 2359000   0.86761404   -7.2226859    712.30197  0.025162568   0.02489403            3 
 2360000   0.87265001   -7.1977171    713.06579  0.025178877   0.02488727            5 
 2361000   0.88258992   -7.1973243     710.8096  0.025088578  0.024880526            5 
 2362000   0.87773801   -7.2269999    714.05453   0.02519244  0.024873784            3 
 2363000   0.85992083   -7.2060447    714.01876  0.025180518  0.024866996            3 
 2364000   0.87637924   -7.1997022    713.85708  0.025164167  0.024860362            3 
 2365000   0.87733357   -7.2172147    713.98771  0.025158129   0.02485371            3 
 2366000   0.88142128   -7.2069059    713.80915  0.025141207  0.024847047            2 
 2367000   0.87635286    -7.185257    715.86413  0.025202934  0.024840412            6 
 2368000   0.88779648   -7.2288755    714.76068  0.025153459  0.024833783            4 
 2369000   0.88096508   -7.2195089    714.21676  0.025123708  0.024827078            5 
 2370000   0.85472893    -7.186415    715.53718  0.025159535  0.024820399            2 
 2371000   0.87624738   -7.2227229    713.50789  0.025077601  0.024813736            3 
 2372000   0.89763525    -7.198445    717.08772  0.025192795  0.024807172            2 
 2373000   0.86039023   -7.1909175     716.6467  0.025166691  0.024800609            4 
 2374000    0.8627238   -7.2069968    715.09256  0.025101536  0.024794027            4 
 2375000   0.88752223   -7.2277356    714.83277  0.025081852  0.024787461            6 
 2376000   0.88195799   -7.1863741    718.21349  0.025189867  0.024780891            3 
 2377000   0.86546556   -7.1809035    717.35891   0.02514931  0.024774332            3 
 2378000   0.88432598   -7.1835914    716.31035  0.025101989  0.024767784            2 
 2379000   0.88708596   -7.2275686    715.04765  0.025047207  0.024761196            7 
 2380000   0.89152858   -7.2293557    716.43963  0.025085421  0.024754596            2 
 2381000   0.86944678   -7.2020578    717.64114  0.025116938  0.024748008            2 
 2382000    0.8580297   -7.2139817    716.64876  0.025071675  0.024741467            5 
 2383000   0.85273491   -7.2112031    719.70378  0.025167988  0.024734908            4 
 2384000   0.87505147   -7.2499468    717.56464  0.025082657   0.02472838            5 
 2385000   0.86950487   -7.2489998    715.74191  0.025008452  0.024721833            5 
 2386000   0.87861416   -7.2147052    718.70335  0.025101402   0.02471528            6 
 2387000   0.85518613   -7.1993621    717.79149  0.025059052  0.024708796            3 
 2388000   0.86472083     -7.21736    717.50447  0.025038542  0.024702292            2 
 2389000   0.86256444   -7.2153691    719.05425  0.025082121  0.024695748            3 
 2390000   0.86694172   -7.2214992    716.61666  0.024986634  0.024689238            3 
 2391000   0.85649955   -7.2172786    717.19668  0.024996399  0.024682628            3 
 2392000   0.87006117      -7.2244     716.2651  0.024953494  0.024676084            5 
 2393000   0.89023216     -7.20248    717.94632  0.025001613  0.024669537            7 
 2394000   0.89400702    -7.189256     718.7797  0.025020179  0.024662988            3 
 2395000   0.86193828     -7.20618    717.90761  0.024979388  0.024656457            2 
 2396000   0.85130983   -7.2254538    718.34846  0.024984295  0.024649934            5 
 2397000   0.85902041   -7.1758787    719.30969   0.02500729    0.0246434            2 
 2398000   0.88090486   -7.2327095    718.34328  0.024963278  0.024636834            4 
 2399000    0.8845305   -7.2045863     718.0504  0.024942698  0.024630279            7 
 2400000   0.86267607   -7.2372904    720.24822  0.025008619  0.024623723            4 
 2401000   0.85667642   -7.1945148    718.48207  0.024936904  0.024617166           12 
 2402000   0.87628189   -7.2163302    719.87077  0.024974701  0.024610622            9 
 2403000   0.85826671   -7.1784227    720.39846  0.024982607  0.024604105            3 
 2404000   0.87236108   -7.2077132    720.09622  0.024961738  0.024597629            4 
 2405000   0.86344278   -7.2392994    719.82808  0.024942068   0.02459114            3 
 2406000   0.86827644   -7.2284189    720.51557  0.024955513  0.024584613            4 
 2407000   0.87428038   -7.2225105    721.71362  0.024986623  0.024578111            5 
 2408000   0.87072205   -7.2042507    721.14216   0.02495647  0.024571571            5 
 2409000   0.84966679    -7.212515    721.39591  0.024954888    0.0245651            3 
 2410000   0.88592016   -7.1884422    721.13212  0.024935412  0.024558617            4 
 2411000   0.86573046   -7.1899782    720.18613  0.024892373  0.024552148            5 
 2412000   0.86224713   -7.2395303    720.96782  0.024909059  0.024545639            2 
 2413000   0.86731451   -7.2138742     721.5752  0.024919713  0.024539108            5 
 2414000   0.87875542   -7.2148344     721.5005  0.024906811  0.024532537            5 
 2415000    0.8728989   -7.2387444    721.56832  0.024898838  0.024526039            3 
 2416000   0.87849405   -7.2261286    723.46015  0.024953785  0.024519568            3 
 2417000   0.87596875   -7.1990851    722.09342  0.024896339  0.024513121            6 
 2418000    0.8799851    -7.231264    719.90841  0.024810739  0.024506587            2 
 2419000    0.8682368   -7.2302315    720.71638  0.024828317  0.024500076            6 
 2420000    0.8782863   -7.2417612    719.60934  0.024779936   0.02449354            3 
 2421000   0.87164947   -7.2116405    722.66903  0.024875018  0.024487022            2 
 2422000   0.86753482   -7.2398447    723.51658  0.024893909  0.024480528            5 
 2423000   0.87092005   -7.1983007    722.95488  0.024864317  0.024474023            4 
 2424000   0.86670931   -7.2059873    721.66521  0.024809723  0.024467591            2 
 2425000    0.8803102   -7.2452044    722.30098   0.02482134  0.024461054            4 
 2426000   0.85380813   -7.2621628    721.78162  0.024793268  0.024454517            3 
 2427000   0.85534902   -7.2101618     723.6251   0.02484635  0.024447983            4 
 2428000   0.86910296   -7.2387125    721.58214  0.024765999  0.024441447            5 
 2429000   0.85876772   -7.2038212    722.87501  0.024800158  0.024434981            3 
 2430000   0.84972769   -7.2062647    722.92492  0.024791664  0.024428515            3 
 2431000   0.86611151   -7.2370568    724.89803  0.024849103  0.024422026            5 
 2432000   0.87282764   -7.2200681    724.18347  0.024814401   0.02441562            8 
 2433000   0.86411342    -7.227748    722.27453  0.024738818  0.024409188            4 
 2434000   0.87031426   -7.2301961    723.55686  0.024772558  0.024402732            9 
 2435000   0.83637227   -7.2254523    724.36144  0.024789919  0.024396276            4 
 2436000    0.8737481   -7.2564517    724.83469  0.024795932  0.024389816            3 
 2437000   0.84526143   -7.2279306    724.06201  0.024759336  0.024383372            2 
 2438000   0.88468355   -7.2329636    723.98956  0.024746703  0.024376937            3 
 2439000   0.86684697   -7.2517676    724.79264  0.024763996  0.024370489            4 
 2440000   0.85569452   -7.2277188    725.78234  0.024787648  0.024364054            5 
 2441000    0.8537693   -7.2373362    723.82803  0.024710775  0.024357587            3 
 2442000    0.8764076   -7.2529859    725.27518   0.02475004  0.024351124            3 
 2443000   0.85147524   -7.2323165    724.55194  0.024715239   0.02434466            4 
 2444000   0.88173819   -7.2432004    723.47262  0.024668325  0.024338194            5 
 2445000   0.84150843   -7.2781824    724.50848   0.02469354  0.024331701            3 
 2446000   0.85566109   -7.2238887    724.98195  0.024699576  0.024325206            2 
 2447000   0.85397487    -7.245197    724.70804  0.024680154  0.024318731            3 
 2448000   0.87672407   -7.2612668    723.79728  0.024639069  0.024312311            8 
 2449000   0.84258283   -7.2461397    726.64935  0.024726057  0.024305911            6 
 2450000   0.83917131   -7.2419989    725.85039  0.024688789  0.024299485            2 
 2451000   0.87837587   -7.2511116    725.28569  0.024659516   0.02429306            3 
 2452000   0.82915776   -7.2376868    726.59554  0.024693976  0.024286663            2 
 2453000   0.85428456   -7.2575414    725.93055  0.024661318  0.024280328           10 
 2454000   0.86063074   -7.2172574    726.46156    0.0246693  0.024273953            4 
 2455000   0.86577041   -7.2348051    727.78526  0.024704184  0.024267586            2 
 2456000   0.86284107   -7.2317622    725.93743  0.024631427  0.024261213           11 
 2457000   0.85879193   -7.2665601    726.74309  0.024648728  0.024254793            4 
 2458000    0.8550971   -7.2442889    725.87107  0.024609136  0.024248382            5 
 2459000   0.85912482    -7.252272    724.23288  0.024543611  0.024241976            3 
 2460000   0.84293789   -7.2485934    726.72652  0.024618107  0.024235552            6 
 2461000   0.88097354   -7.2669648    726.86867  0.024612917  0.024229131            2 
 2462000   0.85779658   -7.2740474    726.00541  0.024573701  0.024222673            3 
 2463000   0.85234223   -7.2502082    725.03511  0.024530894   0.02421623            3 
 2464000   0.84456987   -7.2452678    726.60753  0.024574118  0.024209798            4 
 2465000   0.86757906   -7.2468797    727.25743   0.02458612  0.024203418            3 
 2466000   0.85487033   -7.2243616     726.1651  0.024539237  0.024197042            3 
 2467000   0.87595417   -7.2093609    727.91892  0.024588533  0.024190721            4 
 2468000   0.85742153   -7.2184861     727.9524    0.0245797  0.024184344            2 
 2469000   0.86633298   -7.2342955    726.14685  0.024508804  0.024177939            5 
 2470000   0.85285754   -7.2254529    727.11428  0.024531521   0.02417158            4 
 2471000   0.84966162   -7.2600452    726.14996  0.024489072  0.024165223            5 
 2472000   0.86803176   -7.2692596    728.19128   0.02454798  0.024158864            2 
 2473000    0.8350302   -7.2379986    728.27107  0.024540742  0.024152487            4 
 2474000   0.83026189   -7.2689312    727.48472  0.024504336  0.024146133            7 
 2475000   0.83869907   -7.2747634     729.8881  0.024575357  0.024139736            6 
 2476000   0.85667152   -7.2323508    731.04698  0.024604435  0.024133423            3 
 2477000   0.86050876   -7.2391748    730.86696  0.024588446    0.0241271            3 
 2478000   0.86553535   -7.2367333    729.67979  0.024538599   0.02412075            5 
 2479000   0.84259238   -7.2299598    730.14789  0.024544436  0.024114412            3 
 2480000   0.85227162   -7.2313441    731.93759  0.024594677  0.024108071            5 
 2481000   0.85246642   -7.2441063    730.44573  0.024534654  0.024101688            3 
 2482000   0.86960893   -7.2538407    729.11346  0.024480038  0.024095285            4 
 2483000   0.85659634   -7.2456559    727.60671   0.02441961  0.024088897            6 
 2484000   0.84760151   -7.2730465    729.39372   0.02446973  0.024082498            3 
 2485000   0.85592676   -7.2796122    729.40252  0.024460178  0.024076118            5 
 2486000   0.84534957   -7.2474947    729.89622  0.024466889  0.024069702            6 
 2487000   0.85219945   -7.2382029    729.67567  0.024449661  0.024063273            8 
 2488000   0.85579891   -7.2264502    731.44197  0.024498994  0.024056907            5 
 2489000   0.84206212   -7.2382596    731.17393  0.024480177  0.024050572            6 
 2490000    0.8451375   -7.2518241    729.91179  0.024428105  0.024044207            3 
 2491000   0.85927169   -7.2637797    729.76155  0.024413273  0.024037838            6 
 2492000    0.8554589   -7.2541153      730.344  0.024422953   0.02403146            4 
 2493000   0.84459209   -7.2712924    729.89734  0.024398226  0.024025059            5 
 2494000   0.84925368   -7.2333799    732.04668  0.024460261  0.024018657            3 
 2495000   0.83785681   -7.2535788     729.9949  0.024381927  0.024012281            4 
 2496000   0.84500629   -7.2494547    730.52799  0.024389957  0.024005941            8 
 2497000   0.86005211   -7.2611591     732.0545  0.024431134  0.023999581            4 
 2498000   0.84094935   -7.2564864    732.18972  0.024425865  0.023993219            4 
 2499000   0.85438293    -7.271531     730.5495  0.024361395  0.023986808            5 
 2500000   0.86407088   -7.2493155     732.2718   0.02440906   0.02398046            3 
 2501000   0.83314884   -7.2405636    732.09063  0.024393264  0.023974131            3 
 2502000   0.85322476   -7.2780355    731.08387  0.024349982  0.023967775            3 
 2503000   0.87488578   -7.2750055    730.82567  0.024331658  0.023961347            3 
 2504000   0.85391719   -7.2855149    730.77624  0.024320296  0.023954896            6 
 2505000   0.84334712   -7.2574335    730.42447  0.024298885  0.023948476            8 
 2506000   0.86168227    -7.255021    730.64985  0.024296683  0.023942016            8 
 2507000   0.84151744   -7.2566822     729.9445  0.024263545  0.023935561            6 
 2508000   0.83648153   -7.2565989     731.8052  0.024315696  0.023929119            3 
 2509000   0.86305305   -7.2732281    730.74078  0.024270651  0.023922745            3 
 2510000   0.85965359   -7.2561775    731.24776  0.024277814  0.023916347            3 
 2511000   0.84728867   -7.2665262     731.4658  0.024275382  0.023909951            2 
 2512000   0.86491181   -7.2498863    731.71387  0.024273947  0.023903569            5 
 2513000   0.84942713   -7.2590743    731.91077  0.024270817  0.023897172            2 
 2514000   0.84932425    -7.270262    733.19798  0.024303831   0.02389076            4 
 2515000    0.8413317   -7.2721733     731.2442   0.02422943   0.02388437            4 
 2516000   0.87051005   -7.2697576    733.50649   0.02429473   0.02387795            3 
 2517000   0.84935389   -7.2335416    732.49199   0.02425149  0.023871558            4 
 2518000   0.85675107   -7.2537234    732.28749   0.02423509  0.023865168            8 
 2519000    0.8474985   -7.2423334    733.66802   0.02427114  0.023858818            7 
 2520000   0.82078113   -7.2422662    735.50929  0.024322397  0.023852468            2 
 2521000   0.84900997   -7.2644912    733.54603  0.024247852  0.023846147            2 
 2522000   0.82466544   -7.2780875    734.07439  0.024255696  0.023839799            3 
 2523000   0.83481072   -7.2852433    733.17114  0.024216248   0.02383339            4 
 2524000   0.85493048    -7.268009    733.37053  0.024213237  0.023827009            4 
 2525000   0.84009475   -7.2605817    733.29097  0.024201022  0.023820655            7 
 2526000   0.84977538   -7.2574847    734.15386  0.024219908  0.023814371            4 
 2527000   0.85745348   -7.2630546    732.75254  0.024164112  0.023808036            1 
 2528000   0.83790387   -7.2404735    733.61067  0.024182841   0.02380169            5 
 2529000   0.85897893   -7.2769583    732.62792  0.024140896   0.02379534            6 
 2530000   0.85780194   -7.2561125    734.53548  0.024194186  0.023788964            2 
 2531000   0.85680401    -7.249651    736.60653  0.024252816  0.023782648            3 
 2532000    0.8501423   -7.2634461    735.32992  0.024201222  0.023776346            3 
 2533000   0.85656929   -7.2635373    734.14646  0.024152733  0.023770022            4 
 2534000   0.84689649   -7.2741909    735.36641  0.024183321  0.023763688            3 
 2535000    0.8430233   -7.2482542    734.22529  0.024136269  0.023757319            4 
 2536000   0.82500518   -7.2762433    735.73846  0.024176474  0.023750914            6 
 2537000   0.83611232   -7.3053235    734.99763   0.02414261   0.02374451            8 
 2538000   0.83128358    -7.273126    732.48173   0.02405049  0.023738078            4 
 2539000   0.84961299   -7.2882898    734.06974  0.024093138   0.02373164            8 
 2540000   0.84651406   -7.2781132    734.73719  0.024105551  0.023725247            5 
 2541000   0.82411728   -7.2933455    733.88149  0.024068001  0.023718856            8 
 2542000   0.85120287   -7.2704332    736.10926  0.024131565  0.023712443            3 
 2543000    0.8388944   -7.2863338    734.55491   0.02407114  0.023705977            3 
 2544000   0.85336413   -7.2871381    733.98803  0.024043109  0.023699523            4 
 2545000   0.85700473   -7.2969569      734.114  0.024037787  0.023693119            5 
 2546000   0.85693055   -7.2696427    735.98959  0.024089735  0.023686674            6 
 2547000   0.85504498   -7.3043554    734.19159   0.02402145  0.023680239            7 
 2548000    0.8436416   -7.3015161    735.82613   0.02406548  0.023673793            3 
 2549000   0.84708955   -7.2696747     734.8108  0.024022846  0.023667351            9 
 2550000   0.84028696   -7.2420276    736.45201  0.024067059  0.023660912            8 
 2551000   0.85027657   -7.2787155    735.37062  0.024022299   0.02365449            3 
 2552000   0.83806506   -7.2817096    736.61536  0.024053532  0.023648067            5 
 2553000   0.83362312   -7.2565044    736.55161  0.024042029  0.023641638            2 
 2554000   0.84239583   -7.2344031    736.04037  0.024015935  0.023635225            2 
 2555000   0.84024206   -7.2773267    737.04839  0.024039413  0.023628822            3 
 2556000   0.85410344   -7.2746157    736.16772  0.024001295  0.023622462            5 
 2557000   0.84053017   -7.2625588    736.77376   0.02401166  0.023616096            6 
 2558000   0.82616683   -7.2768583    736.32263  0.023987576  0.023609662            4 
 2559000   0.83380079   -7.2956047    735.41594  0.023948676  0.023603218            2 
 2560000   0.86770509   -7.2890759     735.8811  0.023954463  0.023596807            2 
 2561000   0.82659271   -7.2819875     737.3974  0.023994449  0.023590413           11 
 2562000   0.85418136   -7.2810289    735.79256  0.023932883  0.023584008            3 
 2563000   0.85554576   -7.3021202    737.42308   0.02397656   0.02357762            3 
 2564000   0.83655609    -7.267531    737.22525  0.023960779  0.023571223            3 
 2565000   0.84699018   -7.2637089    736.83175  0.023938653  0.023564863            9 
 2566000   0.84514054   -7.2894587    737.73725  0.023958731  0.023558547            3 
 2567000   0.84411266   -7.2726695    737.91307  0.023955105  0.023552222            7 
 2568000   0.82157375   -7.2672132    736.92867  0.023913833  0.023545865           10 
 2569000   0.85099469   -7.2490134    737.90061  0.023936052  0.023539484            6 
 2570000   0.84059925   -7.2998913    738.21101  0.023936803  0.023533106            3 
 2571000   0.85877104   -7.2973771    736.63992  0.023876569  0.023526689            5 
 2572000   0.84257488   -7.2685661    736.97471  0.023878133  0.023520284            5 
 2573000   0.83538758   -7.2986613    736.70934  0.023860258   0.02351388            6 
 2574000   0.86955459    -7.286044    739.29879  0.023934822  0.023507479            8 
 2575000   0.81654483   -7.2847355    739.30395  0.023925694  0.023501097            7 
 2576000   0.84723863   -7.2312439    738.58801  0.023893246  0.023494761            6 
 2577000   0.85000897   -7.2807975    738.40028  0.023877903  0.023488425            7 
 2578000   0.84057912    -7.280894    738.94612  0.023886285  0.023482066            5 
 2579000   0.84379258   -7.2839839    739.52692   0.02389579  0.023475674            6 
 2580000   0.83744704   -7.2764599    738.79063  0.023862747  0.023469341            3 
 2581000   0.85164813   -7.2558481    736.45811   0.02377819  0.023463001            9 
 2582000    0.8536478   -7.2669423    739.62927  0.023871329  0.023456668            4 
 2583000   0.84626591   -7.2627887    738.58304  0.023828334  0.023450343            8 
 2584000   0.83191397   -7.2840506    739.87253  0.023860698  0.023443995            9 
 2585000   0.83740425   -7.2691106      740.744  0.023879562  0.023437649            5 
 2586000   0.83168893   -7.2914175    739.21346  0.023821006  0.023431326            5 
 2587000   0.81757319   -7.2708462    739.64624  0.023825739  0.023424996            6 
 2588000   0.83464999   -7.2681247     740.0348  0.023829044   0.02341867            3 
 2589000   0.82762241   -7.2968951    740.45205  0.023833271  0.023412321            5 
 2590000   0.85213164   -7.2897107    738.12712  0.023749264  0.023405907            6 
 2591000   0.83810985   -7.2866666    739.80109  0.023793937   0.02339949            3 
 2592000   0.82914942   -7.2653372    739.35659  0.023770467  0.023393099            3 
 2593000   0.84697519   -7.3050126    739.39029  0.023762382  0.023386711            4 
 2594000   0.81928918   -7.2685209    740.93056  0.023802704   0.02338031            3 
 2595000   0.82992658   -7.2547088    741.72524  0.023819051  0.023373934            4 
 2596000    0.8327221   -7.2871045    740.07628  0.023756943  0.023367548            2 
 2597000   0.83623849   -7.3026088    741.21758  0.023784417  0.023361162            4 
 2598000   0.82340081   -7.2919873    739.69265  0.023726349   0.02335477            3 
 2599000   0.82164638   -7.2823316    740.39646  0.023739786  0.023348353            3 
 2600000   0.83711543     -7.32154    739.22658   0.02369316  0.023341938            3 
 2601000   0.85081235   -7.3019556    739.58509  0.023695537  0.023335507            3 
 2602000   0.84548719   -7.2947802    739.31265  0.023677705    0.0233291            4 
 2603000   0.82845781   -7.3145245    737.92555  0.023624201  0.023322623            7 
 2604000   0.84754242   -7.2760308    739.01038  0.023649846  0.023316204            6 
 2605000   0.84177225   -7.2884643    741.44414  0.023718623   0.02330986            7 
 2606000   0.83266701   -7.2665977     743.3727  0.023771192  0.023303508            4 
 2607000   0.82479426   -7.2952429    741.40023  0.023699023  0.023297169            2 
 2608000   0.84091844   -7.2765373     741.8682  0.023704889  0.023290819            4 
 2609000   0.83694616   -7.2851558    742.79719  0.023725475  0.023284455            3 
 2610000   0.83749492    -7.298313    741.34208  0.023669926  0.023278126            5 
 2611000   0.84074782   -7.3005907    740.76265  0.023642367  0.023271755            3 
 2612000   0.83183714   -7.3042475    740.79149  0.023634236  0.023265363            5 
 2613000   0.83111723   -7.3061134    739.55873  0.023585876  0.023258971            7 
 2614000   0.83238202   -7.3143875    742.53001  0.023671576  0.023252603            3 
 2615000   0.83970863   -7.2725512    740.95486  0.023612328  0.023246222            4 
 2616000   0.83286944   -7.2882039     741.4849  0.023620187  0.023239824            7 
 2617000   0.84145199   -7.2951627    741.19597  0.023601961  0.023233431            6 
 2618000   0.83172469   -7.3020957    741.70833  0.023609254  0.023227056           10 
 2619000   0.83330163   -7.3057857    741.00872  0.023577979  0.023220657            4 
 2620000   0.81549916   -7.3030844    742.31742  0.023610605  0.023214218            7 
 2621000   0.82258252   -7.2805547    739.37172   0.02350794  0.023207763            6 
 2622000   0.83899951   -7.2920198    740.41738  0.023532208  0.023201331            4 
 2623000   0.81416892   -7.3207399    740.84466  0.023536811  0.023194837            4 
 2624000   0.83397432   -7.3262301    740.36769  0.023512693  0.023188344            4 
 2625000   0.83116315   -7.3102799    741.18602  0.023529715  0.023181852            6 
 2626000    0.8288911   -7.2943746    738.64479  0.023440111  0.023175324            5 
 2627000   0.81907064   -7.3158001    738.73971    0.0234342  0.023168827            5 
 2628000    0.8362712   -7.2943609    741.38047   0.02350902  0.023162331            3 
 2629000   0.82828203   -7.2998712     740.5272  0.023473032   0.02315585            3 
 2630000    0.8355846   -7.3095589    741.82978   0.02350538  0.023149375            4 
 2631000   0.82890681   -7.2687855    741.25164  0.023478134  0.023142888            4 
 2632000   0.84584781   -7.2948035    740.27367  0.023438249  0.023136399            4 
 2633000   0.82973323   -7.3002744    740.58331  0.023439148   0.02312992            4 
 2634000   0.83334215   -7.3183762     742.5715  0.023493151  0.023123443            9 
 2635000   0.83589549   -7.2904125     742.7382  0.023489507  0.023116949            4 
 2636000   0.81560515   -7.2973157    739.84533  0.023389142  0.023110457            6 
 2637000   0.84550866   -7.3124347    741.14141   0.02342123  0.023103942            5 
 2638000   0.82851965   -7.3033698     742.4386   0.02345333  0.023097484            8 
 2639000   0.84702738   -7.3049002    742.28189  0.023439494  0.023091011            7 
 2640000    0.8378329   -7.2910173    742.86555  0.023449039  0.023084546            1 
 2641000   0.84424969   -7.3114857    742.88554  0.023440791  0.023078091            9 
 2642000   0.81993657   -7.2934664     741.6818   0.02339395  0.023071664            4 
 2643000     0.838478   -7.3226551    743.36494  0.023438168  0.023065203            2 
 2644000   0.83641531   -7.3060105     742.8123  0.023411885  0.023058747            2 
 2645000   0.84028364   -7.3037667    741.08812  0.023348712  0.023052302            5 
 2646000   0.80991221   -7.2994767    742.45103  0.023382811  0.023045859            8 
 2647000   0.83995977   -7.2723437    743.48196  0.023406434  0.023039403            3 
 2648000   0.81657007   -7.3223622    741.84533  0.023346089  0.023032972            4 
 2649000    0.8244613   -7.2828813    744.43172   0.02341864  0.023026544            2 
 2650000   0.82197773   -7.3137519    743.21587  0.023371568  0.023020138            6 
 2651000    0.8128571   -7.3042645    743.01511  0.023356441  0.023013724            4 
 2652000   0.83923739   -7.3293311    741.58005  0.023302541   0.02300728            4 
 2653000   0.80354341   -7.3177317    741.66396  0.023296393  0.023000813            4 
 2654000   0.83190378   -7.3139676    743.40925  0.023342416  0.022994365            4 
 2655000   0.82538502   -7.3213518     742.4149  0.023302414  0.022987935            2 
 2656000   0.82287478   -7.3273252    741.95631  0.023279252  0.022981482            2 
 2657000     0.818568   -7.2897804    742.71112  0.023294164  0.022975011            3 
 2658000   0.84012515    -7.323779    742.24512   0.02327079  0.022968578            4 
 2659000   0.83443188   -7.3317176    741.17745  0.023228577  0.022962083           10 
 2660000   0.83168987   -7.3039926    741.62264  0.023233792  0.022955579            3 
 2661000   0.82223575   -7.2723893    743.03971  0.023269438  0.022949083           10 
 2662000   0.83216874   -7.3079856    741.35771  0.023208043  0.022942561            3 
 2663000   0.82048022   -7.3061809    741.69653   0.02320993  0.022936008            9 
 2664000    0.8329076   -7.3245651    740.68343  0.023169527  0.022929448            5 
 2665000   0.81942983   -7.3395255    742.54742  0.023219119  0.022922888           10 
 2666000   0.82101902   -7.2980037    744.04997  0.023257376  0.022916356            4 
 2667000   0.80665037   -7.3157557    744.49366  0.023262519  0.022909835            7 
 2668000   0.82501297   -7.3414698    745.18898  0.023275518  0.022903358            2 
 2669000     0.825846    -7.318943     742.5465  0.023184292  0.022896878            3 
 2670000   0.81785799   -7.2852858    744.11721  0.023224632   0.02289042            4 
 2671000   0.81561939   -7.3293273    744.79191  0.023236987  0.022883939            9 
 2672000   0.83195135   -7.3299466    743.57563  0.023190358  0.022877465           10 
 2673000   0.82629202   -7.3304324    744.69334  0.023216528  0.022870987            6 
 2674000   0.83372199   -7.3255577    742.13515  0.023128121  0.022864487            5 
 2675000    0.8151274   -7.3401965    746.40734  0.023252565  0.022857981            5 
 2676000   0.80322666   -7.3425007     745.4607  0.023214396  0.022851466            8 
 2677000    0.8056949   -7.3037657    745.39344  0.023203631   0.02284498            6 
 2678000     0.818717   -7.3459409     744.0615  0.023153519  0.022838504            6 
 2679000   0.83038936   -7.3068174    745.65117  0.023194325  0.022832039            4 
 2680000   0.80909383   -7.3103498    743.25159  0.023111057  0.022825565            6 
 2681000   0.83076471   -7.3170646    746.53763  0.023204576  0.022819118            4 
 2682000   0.82000055   -7.3487678    743.98182  0.023116512  0.022812643            4 
 2683000   0.81982665   -7.3429787    746.09298  0.023173468  0.022806169            9 
 2684000   0.82638374   -7.3331218    745.19936  0.023137089  0.022799713            7 
 2685000   0.82136214   -7.3442681    744.07245  0.023093496  0.022793249            4 
 2686000   0.82796823   -7.3069895    744.51304  0.023098568  0.022786749            4 
 2687000   0.82503589    -7.344115    745.70677  0.023126993  0.022780286            3 
 2688000    0.8268148   -7.3489986    745.52119  0.023112636  0.022773839            6 
 2689000   0.84457997   -7.3204323    744.09407  0.023059814  0.022767373            3 
 2690000   0.83817245   -7.2996449    747.25312  0.023149105  0.022760901            4 
 2691000    0.8289672   -7.3047963    745.80926   0.02309579  0.022754423            6 
 2692000   0.81440157   -7.3425328    746.03378  0.023094161  0.022747922            4 
 2693000   0.82821953    -7.332519    746.15995   0.02308949   0.02274144            3 
 2694000   0.82407093   -7.3305148    745.34685  0.023055768  0.022734912            4 
 2695000   0.81494966   -7.3305029    745.05697  0.023038249  0.022728401            6 
 2696000   0.81763104   -7.3043212    746.85181  0.023085182  0.022721949            3 
 2697000   0.83225366   -7.3189899    747.35455  0.023092156  0.022715502            3 
 2698000   0.82453832   -7.3225002    746.83582  0.023067575  0.022709054            6 
 2699000   0.81061525   -7.3462124    746.34181  0.023043776  0.022702601           10 
 2700000   0.81565518   -7.3152246    746.69718  0.023046209  0.022696154            3 
 2701000   0.81991515   -7.3285638    745.34845  0.022996065  0.022689732            3 
 2702000   0.81977907   -7.3185815    745.39101  0.022988867  0.022683301            6 
 2703000   0.82385667    -7.346388    746.60923  0.023017919  0.022676925            5 
 2704000   0.80898113   -7.3025523    746.22622  0.022997603  0.022670513            6 
 2705000   0.84522852   -7.3043812    746.59414  0.023000436  0.022664093            6 
 2706000   0.81640936   -7.3490938    747.07731  0.023006815  0.022657662            2 
 2707000   0.83537467   -7.3283864    747.83474  0.023021633   0.02265125            3 
 2708000   0.81543581   -7.3232791    745.42364  0.022938935  0.022644852            4 
 2709000   0.81994744   -7.3208401    748.02987   0.02301064  0.022638444            4 
 2710000   0.82043623   -7.3150589    746.79457  0.022964163   0.02263206            4 
 2711000   0.80981963   -7.3211832    748.06229   0.02299466  0.022625693            3 
 2712000   0.80794628   -7.3255292    748.57644   0.02300198  0.022619298           10 
 2713000   0.80552543   -7.3153553    748.42204  0.022988759  0.022612911            8 
 2714000   0.82305556   -7.3414744    748.83556  0.022992986  0.022606548            5 
 2715000     0.802019    -7.324105    748.39244  0.022970916  0.022600134            5 
 2716000   0.81003776    -7.312278     747.9177  0.022947892  0.022593732            3 
 2717000   0.79103818   -7.3245688    748.94258   0.02297088  0.022587315            5 
 2718000   0.79634658   -7.3318518    748.41816   0.02294635  0.022580885            8 
 2719000    0.8209982   -7.3218316    747.19264  0.022900351  0.022574462            5 
 2720000   0.83613208   -7.3037775    748.59021  0.022934749   0.02256809            3 
 2721000   0.82225288    -7.307592    747.89472   0.02290502  0.022561702            5 
 2722000   0.83124401   -7.3169845     750.1248  0.022964879  0.022555343            4 
 2723000   0.83708534   -7.3314845    751.58464  0.023001121  0.022549013            6 
 2724000   0.80954442   -7.3084112    748.73656  0.022905548  0.022542653            4 
 2725000   0.81498661   -7.3303335    747.85704  0.022870246  0.022536267            5 
 2726000    0.8196689   -7.3505735    749.39996  0.022909023  0.022529837            3 
 2727000   0.80607642   -7.3395957    747.87617  0.022854057  0.022523373            2 
 2728000   0.82682382   -7.3561997    746.49429  0.022803467  0.022516892            6 
 2729000   0.80096702   -7.3539495    747.64392  0.022830216  0.022510424            2 
 2730000   0.83349475   -7.3395455    749.74952  0.022886127  0.022503979            2 
 2731000   0.81267285   -7.3462994    747.59038  0.022811863   0.02249754            3 
 2732000   0.82903579   -7.3532929    748.47849  0.022830603  0.022491094            3 
 2733000   0.83064595   -7.3486664    749.14493   0.02284257  0.022484674            5 
 2734000   0.80727045   -7.3426393    749.37677  0.022841282  0.022478223            5 
 2735000   0.82735954   -7.3424631    749.92835  0.022849736    0.0224718            4 
 2736000   0.81097257   -7.3805162    747.72066  0.022774143  0.022465359            7 
 2737000   0.80034138   -7.3498131    747.84483  0.022769603  0.022458888            5 
 2738000    0.7946473   -7.3498863    749.31108  0.022805913  0.022452423            7 
 2739000   0.80991248   -7.3497369    749.86247  0.022814363  0.022445957            5 
 2740000    0.8083735   -7.3630744    749.81596  0.022804622  0.022439492            3 
 2741000   0.81003953   -7.3207861    749.85894  0.022797608  0.022433028            5 
 2742000   0.82585813   -7.3280617    749.02239   0.02276387  0.022426547            3 
 2743000   0.81684547   -7.3690217    749.75234  0.022777748  0.022420084            6 
 2744000   0.80723556   -7.3538215    750.13228  0.022780985  0.022413649           11 
 2745000   0.81465156   -7.3225653    747.59777  0.022695743   0.02240722            5 
 2746000   0.83876906   -7.3292898    749.92174  0.022758004  0.022400826            2 
 2747000   0.83063978   -7.3495277    748.63135  0.022710574  0.022394443            3 
 2748000   0.79253014   -7.3608255    749.08697  0.022716126  0.022388054            4 
 2749000    0.8143381   -7.3189768    750.16716  0.022740608  0.022381652            4 
 2750000    0.8065394   -7.3052661    750.49871  0.022742385  0.022375306            6 
 2751000   0.80090664   -7.3608418    750.82544  0.022744016  0.022368916            5 
 2752000   0.82712373   -7.3496354    751.68287  0.022761715  0.022362529           12 
 2753000   0.81070323   -7.3332551    749.44767  0.022685787  0.022356146            6 
 2754000   0.79874849   -7.3291304    751.28248   0.02273307  0.022349742            3 
 2755000    0.7941885    -7.328822    749.85582  0.022681664  0.022343371            3 
 2756000   0.79663598    -7.352251    747.93015  0.022615208  0.022336975            2 
 2757000   0.81860751   -7.3381535    750.45267  0.022683251  0.022330633            2 
 2758000   0.81082972    -7.366444    752.28236  0.022730311  0.022324275            4 
 2759000   0.82361826   -7.3277246    751.09331  0.022686158  0.022317911            5 
 2760000   0.80762526   -7.3852971    751.23591  0.022682244  0.022311546            6 
 2761000   0.81003081   -7.3417598    752.05528  0.022698759  0.022305167            5 
 2762000   0.79792187   -7.3231503    751.43444  0.022671809  0.022298822            3 
 2763000    0.8181987   -7.3595596    753.02176  0.022711478  0.022292513            3 
 2764000   0.80190822   -7.3384013    751.89195  0.022669198  0.022286189            7 
 2765000   0.80454053    -7.339156    751.03464  0.022635161  0.022279861            8 
 2766000   0.80579231   -7.3810289    753.65641  0.022705966   0.02227353            4 
 2767000   0.82899355   -7.3475702    751.40777  0.022630038  0.022267211            5 
 2768000   0.80711667    -7.353411    749.74831  0.022571902  0.022260856            6 
 2769000   0.80150504   -7.3497785    753.00981  0.022661906  0.022254521            5 
 2770000   0.81365585   -7.3885684    753.14937  0.022657923  0.022248239            6 
 2771000    0.8062626   -7.3556648    752.57542  0.022632486  0.022241937            6 
 2772000   0.80415751   -7.3576282    751.51781  0.022592527   0.02223566            3 
 2773000   0.81238503    -7.334989    753.88376   0.02265548  0.022229372            6 
 2774000   0.80235746    -7.344662    754.73351   0.02267284  0.022223118            3 
 2775000   0.83640396   -7.3919513    753.22854  0.022619476  0.022216832            7 
 2776000   0.80271158   -7.3455206    753.76266  0.022627361   0.02221053            4 
 2777000   0.81835996   -7.3397485    753.54573  0.022612704  0.022204261            6 
 2778000   0.80118691   -7.3545017    751.30566  0.022537367  0.022197963            6 
 2779000   0.80585903   -7.3530692    754.59536  0.022627904  0.022191668            5 
 2780000     0.813027   -7.3511183    752.86143  0.022567789  0.022185414            3 
 2781000   0.79903894   -7.3551898     753.8372  0.022588913  0.022179189            8 
 2782000   0.79385895   -7.3327314    754.54638  0.022602036  0.022172945            4 
 2783000   0.82078698   -7.3384851    754.18659  0.022583141  0.022166725            5 
 2784000   0.81987859   -7.3835162    756.23755  0.022636421  0.022160482            5 
 2785000   0.82167712   -7.3762192    754.86432  0.022587203   0.02215423            5 
 2786000   0.80303953   -7.3571412    755.76451  0.022606021  0.022148019            6 
 2787000   0.80022028   -7.3417567    755.44923  0.022588483  0.022141809            5 
 2788000   0.79129255   -7.3522049    754.72306  0.022558676   0.02213559            5 
 2789000   0.81822281   -7.3519597    756.61696  0.022607176    0.0221294            4 
 2790000   0.81827068   -7.3843062    755.19641  0.022556643  0.022123225            4 
 2791000   0.78331389   -7.3598733    755.66273  0.022562485  0.022116995            5 
 2792000   0.81493537   -7.3639791    755.58994  0.022552231  0.022110798            9 
 2793000   0.80624474   -7.3488303    754.99897  0.022526524  0.022104594            7 
 2794000   0.78626277      -7.3606    755.34191   0.02252869  0.022098382            8 
 2795000   0.79307283   -7.3707009    756.61488  0.022558583  0.022092187            5 
 2796000    0.8162371    -7.347742    754.71916  0.022494014  0.022086025            5 
 2797000   0.79448863   -7.3736417    755.65357  0.022513812  0.022079847            6 
 2798000   0.80096426   -7.3547109    757.67762  0.022566048  0.022073684            7 
 2799000   0.81021383    -7.363636    756.65979  0.022527682  0.022067525            3 
 2800000   0.78747448   -7.3451249    755.81559  0.022494512  0.022061387            3 
 2801000   0.81007811   -7.3819113    757.24859  0.022529114  0.022055262            2 
 2802000   0.79352392    -7.352942    755.97411   0.02248317  0.022049116            5 
 2803000   0.81228641   -7.3477034      757.358  0.022516292  0.022042983            4 
 2804000   0.80798249   -7.3673089    756.19942   0.02247383  0.022036861            4 
 2805000   0.80773436   -7.3777337    757.29518  0.022498371  0.022030721            4 
 2806000   0.82347165   -7.3551953    756.90139  0.022478659  0.022024576            4 
 2807000   0.80711162   -7.3687473    759.37064  0.022543957  0.022018455            2 
 2808000   0.78062484   -7.3678117    757.55046   0.02248191  0.022012319            5 
 2809000   0.80443808    -7.372616    758.19225  0.022492947  0.022006171            4 
 2810000   0.81288502   -7.4107914    755.91765  0.022417487   0.02200001            4 
 2811000   0.81743186    -7.389042      757.544  0.022457726  0.021993875            6 
 2812000    0.7943817   -7.3903817    757.48596  0.022448019  0.021987755            8 
 2813000   0.79871941   -7.3668961    758.04121  0.022456488  0.021981624            4 
 2814000   0.79533083   -7.3696964    759.87721  0.022502879  0.021975529            5 
 2815000   0.79789203   -7.3675615    759.02449  0.022469641  0.021969442            3 
 2816000   0.80246066   -7.3400101    759.84361  0.022485902  0.021963358            2 
 2817000   0.80151618   -7.3664475    759.53372  0.022468753  0.021957302            4 
 2818000   0.80854691    -7.339902     762.3192  0.022543151  0.021951245            9 
 2819000    0.7997621   -7.3591659    761.57897  0.022513272  0.021945189           13 
 2820000   0.78172147   -7.3394357    759.82371  0.022453419  0.021939136            4 
 2821000   0.80715903   -7.3611997    757.63238  0.022380727  0.021933071            3 
 2822000   0.80720501   -7.3703258    759.12395  0.022416842  0.021926992            3 
 2823000   0.80177029   -7.3611707    759.82465  0.022429586  0.021920899            3 
 2824000   0.80443254   -7.3401852    759.43353  0.022410102  0.021914837            3 
 2825000   0.80405537   -7.3763495    760.13667  0.022422911  0.021908789            3 
 2826000   0.81414601   -7.3693719    760.22285  0.022417518  0.021902722            4 
 2827000   0.81970252   -7.3535114    759.93482  0.022401097  0.021896658            5 
 2828000   0.79499909   -7.3814521    758.97765  0.022364971   0.02189056           10 
 2829000   0.77796515   -7.3812154    760.82209  0.022411397  0.021884491            5 
 2830000   0.79293846   -7.3883458    759.04097   0.02235103  0.021878376            4 
 2831000   0.80085858   -7.3894234    761.36299  0.022411486  0.021872296            4 
 2832000   0.79581939   -7.3986316    760.42621  0.022376007  0.021866222            8 
 2833000   0.80508374   -7.3958297     758.8182  0.022320808  0.021860144            5 
 2834000   0.78399076    -7.385918    760.46089  0.022361235  0.021854057            4 
 2835000   0.80381767   -7.3814208    761.40582  0.022381124  0.021847959            3 
 2836000   0.78429263   -7.3778591    759.56935  0.022319269  0.021841877            5 
 2837000   0.80211725   -7.3999898    761.13083  0.022357268  0.021835773            7 
 2838000   0.79991481   -7.3667661    760.30458  0.022325129  0.021829708            3 
 2839000   0.79495723   -7.3867787    760.27079  0.022316273  0.021823622            5 
 2840000   0.78694673    -7.384878    761.26086  0.022337466  0.021817592            5 
 2841000   0.79459092   -7.3677219    761.44337  0.022334957  0.021811567            4 
 2842000   0.80483727   -7.3465347    761.90479  0.022340628   0.02180554            6 
 2843000   0.81638229   -7.3422815    760.62849   0.02229536  0.021799506            5 
 2844000   0.81387656   -7.3514505    761.14249  0.022302581  0.021793493            6 
 2845000   0.76835899   -7.3535539    761.73411  0.022312071  0.021787497            6 
 2846000   0.79635022   -7.3911571    759.98574  0.022253038  0.021781456            6 
 2847000   0.80319287   -7.3729182    760.45028  0.022258819  0.021775419            6 
 2848000   0.79849289   -7.3790206    762.42538  0.022308795  0.021769394            6 
 2849000   0.78223741   -7.3928674    761.21302  0.022265503  0.021763401            7 
 2850000   0.81100709   -7.3779245    760.55903  0.022238568  0.021757373            4 
 2851000   0.80586641   -7.4118284     761.2809  0.022251868  0.021751345            3 
 2852000   0.78371614   -7.3950402    762.63566  0.022283651  0.021745262            2 
 2853000   0.79369166   -7.3551348    762.77023  0.022279771  0.021739218            3 
 2854000   0.79082524   -7.4094145    761.08034  0.022222622  0.021733156           13 
 2855000   0.79257741   -7.3861195    761.93706  0.022239844  0.021727092            3 
 2856000    0.7897558   -7.3663453    762.49986  0.022248479  0.021721028            7 
 2857000   0.78822191   -7.3926436     761.1673  0.022201823  0.021714966            3 
 2858000    0.8109547   -7.3533611     761.6145  0.022207094  0.021708958            4 
 2859000   0.80191998   -7.3402172    761.60861  0.022199155  0.021702953           10 
 2860000   0.78258341   -7.3576079    763.53353   0.02224748  0.021696974            4 
 2861000   0.80513664   -7.3722584    762.13901  0.022199086  0.021690974            5 
 2862000   0.79551777   -7.3666159    762.13618  0.022191247  0.021684951            6 
 2863000    0.7824377   -7.3558223    762.87475  0.022204993   0.02167892            8 
 2864000   0.78504427   -7.3733286    762.40596    0.0221836  0.021672912            3 
 2865000   0.80615475   -7.3828723    761.35015  0.022145147  0.021666912            5 
 2866000   0.80651805   -7.4027615    762.28934  0.022164728  0.021660885            4 
 2867000   0.77704509   -7.3797088    761.92554  0.022146423  0.021654874            5 
 2868000   0.79190369   -7.3771675    764.13691  0.022202955  0.021648894           16 
 2869000   0.81054018   -7.3744261    762.60199  0.022150633  0.021642912            8 
 2870000   0.78603845   -7.3630457    763.63934  0.022173035  0.021636937            8 
 2871000   0.78716883   -7.3917242    763.83714  0.022171054  0.021630962            3 
 2872000   0.79144625   -7.4164038    765.29903  0.022205752  0.021624991            6 
 2873000   0.79132544   -7.3846629    765.16564  0.022194154  0.021619028            7 
 2874000   0.78983669   -7.3826323    764.37023  0.022163368  0.021613068            6 
 2875000   0.80385196   -7.3726119     764.4207  0.022157122  0.021607104            6 
 2876000   0.78286906   -7.3873684    763.32292  0.022117609  0.021601124            5 
 2877000    0.7978651   -7.4075278    764.55377  0.022145573  0.021595136            6 
 2878000   0.77739181    -7.368873    764.63857  0.022140334  0.021589166            9 
 2879000   0.80082354    -7.409112    762.69724  0.022076451  0.021583184            6 
 2880000   0.79302419   -7.3769278    764.24627  0.022113607   0.02157722            4 
 2881000    0.7904359   -7.3907369    762.16764  0.022045807  0.021571218            3 
 2882000   0.78266456   -7.4322437    763.84376  0.022086623   0.02156521            3 
 2883000   0.78706225   -7.4005544     764.3328  0.022093097  0.021559211            7 
 2884000   0.76700341   -7.3735469    764.07955  0.022078119  0.021553197            3 
 2885000   0.77123234   -7.3799063     764.6398  0.022086649  0.021547214            7 
 2886000    0.7821642   -7.4049679    765.29268  0.022097848  0.021541219            7 
 2887000   0.79197568   -7.3963099    762.21792  0.022001441  0.021535217            9 
 2888000   0.79104004   -7.3942813    764.90771  0.022071437  0.021529221            8 
 2889000   0.79304668   -7.3949247    763.31137   0.02201775  0.021523226            6 
 2890000   0.76792163   -7.4087673    763.33156  0.022010714  0.021517207            5 
 2891000   0.78195576   -7.3994151    764.46313  0.022035718   0.02151116            6 
 2892000   0.78616438   -7.3971247    762.96625  0.021984966  0.021505107            7 
 2893000   0.79497982   -7.3942167    764.84323  0.022031433  0.021499097            5 
 2894000     0.795442   -7.4037679    765.06329  0.022030157  0.021493096            2 
 2895000   0.79403807   -7.3653494    765.25934  0.022028191  0.021487112            5 
 2896000   0.79866958   -7.3875876    764.93916  0.022011371  0.021481166            4 
 2897000   0.80996048   -7.3843723    765.88573  0.022031001  0.021475191            8 
 2898000   0.77596092    -7.358905    766.37216  0.022037387  0.021469221            3 
 2899000   0.79757935   -7.3929193    766.37396  0.022029837  0.021463255            5 
 2900000   0.79364108   -7.3982941    765.61652  0.022000475  0.021457314            5 
 2901000   0.78331951   -7.3609135    766.72443  0.022024717  0.021451375            8 
 2902000    0.7868763   -7.3866637    765.53465  0.021982961  0.021445424            6 
 2903000   0.79866002   -7.3919569    767.99594  0.022046042  0.021439473            6 
 2904000   0.77244967   -7.4139343    764.97893  0.021951875   0.02143351            5 
 2905000   0.76938071   -7.3753339    765.50352  0.021959367  0.021427558            4 
 2906000   0.78206313   -7.4087442    764.30401  0.021917413  0.021421588            6 
 2907000   0.78030395   -7.3733903    765.54559  0.021945465  0.021415592            4 
 2908000   0.79406795   -7.4225327    764.86781  0.021918495  0.021409616            4 
 2909000   0.78668781   -7.3958718    764.93567  0.021912904  0.021403653            5 
 2910000   0.78679022   -7.3937689    766.59788  0.021952975  0.021397698            4 
 2911000   0.79743173   -7.3944208    766.81199  0.021951563   0.02139174            5 
 2912000   0.77967216   -7.3753331     768.7845  0.022000472  0.021385833            5 
 2913000    0.7992037   -7.4108104    767.25309   0.02194911  0.021379895            3 
 2914000   0.79005247   -7.3930286    764.70963  0.021868841  0.021373932            7 
 2915000   0.79952402   -7.3970756     767.1572  0.021931309  0.021367989            3 
 2916000   0.79207875   -7.3797933    766.63324  0.021908815  0.021362034            7 
 2917000   0.78834088   -7.3828772    766.52224  0.021898133  0.021356072            6 
 2918000   0.79030256   -7.3869342    766.95948  0.021903115  0.021350119            7 
 2919000   0.78866171   -7.3762392    767.53042  0.021911911  0.021344177            3 
 2920000   0.78974665   -7.3878359    767.27962  0.021897249  0.021338224            6 
 2921000   0.79606596   -7.4046816    765.93309  0.021851338  0.021332239            6 
 2922000   0.78320883   -7.4034194    766.14837  0.021849999  0.021326253            3 
 2923000   0.77556662   -7.4115036    766.87897  0.021863353  0.021320254            6 
 2924000   0.76901017   -7.3820988    767.39748  0.021870653  0.021314282            5 
 2925000   0.79069509   -7.4083837    766.63902  0.021841568   0.02130829            3 
 2926000   0.78686048   -7.4180367    766.03372  0.021816864  0.021302287            4 
 2927000   0.78259676   -7.4017638     765.7584  0.021801572  0.021296293            8 
 2928000   0.77623593   -7.4369442    766.54058  0.021816387  0.021290293            4 
 2929000   0.78007078   -7.3936401    767.08744  0.021824498  0.021284313            9 
 2930000   0.79070631   -7.4153937    766.98169  0.021814041  0.021278342            8 
 2931000   0.77429441   -7.4375148    766.44562  0.021791357  0.021272366            6 
 2932000   0.78538735   -7.4489263    765.96836   0.02177036  0.021266366            9 
 2933000    0.7792854   -7.3846886    767.50575  0.021806619   0.02126039            3 
 2934000   0.77093163   -7.4382448    766.15559  0.021760838  0.021254416            7 
 2935000   0.77029759   -7.4365499    765.31298    0.0217295  0.021248434            3 
 2936000   0.78010755   -7.4169918    765.77598   0.02173524  0.021242482            4 
 2937000   0.78492296   -7.4338224    767.22884  0.021769063  0.021236532            6 
 2938000   0.77416759   -7.4096041    767.43835  0.021767596  0.021230598           11 
 2939000   0.76330674   -7.4150206    767.17783  0.021752802  0.021224664            4 
 2940000   0.76231537   -7.4134695    767.75107  0.021761652  0.021218747            2 
 2941000   0.78382707   -7.4013182    768.03793  0.021762381  0.021212844            5 
 2942000   0.78260739   -7.4374239    768.45033  0.021766665  0.021206951            5 
 2943000   0.78820942   -7.4412826    766.00552  0.021690042  0.021201036            3 
 2944000   0.78323729   -7.3894523    768.48257   0.02175279  0.021195131            5 
 2945000   0.77453112   -7.3908107    768.35733   0.02174186  0.021189262            2 
 2946000   0.78951574   -7.4020099    770.52916  0.021795914   0.02118337            9 
 2947000   0.78129747   -7.4170019    767.92552  0.021714894  0.021177494            2 
 2948000    0.7898473   -7.4411593    766.87511  0.021677836  0.021171593            6 
 2949000   0.77923723    -7.407143    769.96168  0.021757705  0.021165718            6 
 2950000   0.77462175   -7.3972029    769.84085  0.021746917  0.021159876            5 
 2951000   0.78321605    -7.382647    770.84475  0.021767897   0.02115406            6 
 2952000   0.77576731   -7.4387622    768.69791  0.021699918  0.021148208            5 
 2953000   0.78289802   -7.4210095    768.24993  0.021679928  0.021142311            9 
 2954000   0.77512135   -7.4127412    769.33241  0.021703126  0.021136447            6 
 2955000   0.77612112   -7.4031232    772.38352  0.021781825   0.02113063            3 
 2956000    0.8090428   -7.4271266    768.95338  0.021677757   0.02112481            6 
 2957000   0.77545881   -7.4114262    769.25589  0.021678951  0.021118943            5 
 2958000   0.78536292   -7.4316082    772.13455   0.02175272  0.021113123            5 
 2959000   0.77472759   -7.4044352    772.66612  0.021760339  0.021107327            4 
 2960000   0.79784922   -7.4486385    770.98262  0.021705592  0.021101558            4 
 2961000    0.7710208   -7.4184008    772.52154  0.021741572  0.021095779            2 
 2962000   0.77965894   -7.4197018    769.72091  0.021655439  0.021089984            7 
 2963000   0.77502564   -7.4171377    772.32788   0.02172145  0.021084204            8 
 2964000   0.78934346   -7.4113355    772.16219  0.021709463  0.021078415            7 
 2965000   0.78706548   -7.3848835    772.34493  0.021707277   0.02107263            5 
 2966000   0.76749648   -7.4357195    772.33377  0.021699645  0.021066865           19 
 2967000    0.7819849   -7.4107984    772.92253  0.021708868  0.021061102            5 
 2968000   0.76933911   -7.4250771    772.24148  0.021682431   0.02105531            4 
 2969000   0.79884339   -7.4361927    771.16442  0.021644898  0.021049501            4 
 2970000    0.8082814   -7.4514521    771.23852  0.021639689  0.021043664            4 
 2971000   0.76679619   -7.4448651     770.2009  0.021603301  0.021037844           12 
 2972000   0.78543604   -7.4131402     771.2956  0.021626727  0.021032011            4 
 2973000   0.78669113   -7.4113442    771.24048  0.021617908  0.021026185            8 
 2974000   0.78312525   -7.4544358    772.24414  0.021638762  0.021020354           14 
 2975000   0.78582134   -7.4433106     770.2718  0.021576241  0.021014515            7 
 2976000   0.76463863   -7.4593172    770.37577  0.021571902  0.021008665            4 
 2977000   0.80531442   -7.4413117    770.65014  0.021572336  0.021002815            6 
 2978000   0.78174185   -7.4250592    771.31084  0.021583581  0.020996969            5 
 2979000   0.77280572   -7.4285848    771.21221  0.021573576  0.020991139            8 
 2980000   0.77594079   -7.4258172    770.97242  0.021559631  0.020985335            6 
 2981000   0.76739803   -7.4229518    771.70008  0.021572741  0.020979509            3 
 2982000   0.77859946   -7.4204801    771.15924  0.021550392   0.02097368            4 
 2983000   0.78720857   -7.4493508    771.01729  0.021539202  0.020967853            6 
 2984000   0.78082227   -7.4366281     772.5158  0.021573833  0.020962052            7 
 2985000   0.78022452   -7.4245883     770.7386  0.021516991  0.020956227            5 
 2986000   0.76961338   -7.4186318    771.58161  0.021533311  0.020950411            8 
 2987000   0.78393008   -7.4193671    771.26016  0.021517134  0.020944613            5 
 2988000   0.77354652   -7.4001477    771.92347  0.021528432  0.020938851            6 
 2989000   0.79118294   -7.4133159    773.36155  0.021561324  0.020933091            2 
 2990000   0.77314689   -7.3953628    773.52133  0.021558565  0.020927354            6 
 2991000   0.78542544   -7.4219486    773.63038  0.021554396  0.020921614            3 
 2992000   0.77524122   -7.4195904    772.79939  0.021524047  0.020915863           10 
 2993000   0.78830598   -7.4269871    772.55476  0.021510045  0.020910105           11 
 2994000   0.75664252     -7.43478    772.35531  0.021497309  0.020904336            4 
 2995000   0.78079656   -7.4267225    773.51056  0.021522275  0.020898562            7 
 2996000   0.79512756   -7.4228058     773.2192  0.021506987  0.020892809           10 
 2997000   0.79200718   -7.4234133     773.2648  0.021501079  0.020887027            4 
 2998000   0.78673916   -7.4508279    772.43776  0.021470918  0.020881262            6 
 2999000   0.79089006   -7.4488727    771.73855   0.02144433  0.020875509            3 
 3000000   0.78256553   -7.4038139     773.4993  0.021486092  0.020869748            4 
 3001000   0.79285924   -7.4170082    772.54199  0.021452349  0.020863962            2 
 3002000   0.75522289   -7.4351725    774.68031  0.021504561  0.020858198            2 
 3003000   0.76958149   -7.4489097    774.37895  0.021489037  0.020852457           10 
 3004000   0.77896792   -7.4576392    772.71555   0.02143574   0.02084669            5 
 3005000   0.78349693    -7.435205    775.13704  0.021495758  0.020840927            8 
 3006000   0.76954322   -7.4162585    773.88494  0.021453896  0.020835189            3 
 3007000   0.76953531   -7.4245082    774.43563  0.021462023  0.020829461            5 
 3008000   0.75988932   -7.4316601    775.93812  0.021496513  0.020823723            5 
 3009000   0.76361712   -7.4528263    774.88687  0.021460254  0.020818022            6 
 3010000   0.76223368   -7.4370519    775.04259  0.021457436  0.020812323            4 
 3011000   0.77596593   -7.4302568    776.30868   0.02148535  0.020806633            4 
 3012000   0.76325477   -7.4346264    775.00159  0.021442054  0.020800949            7 
 3013000   0.76559031   -7.4098045    775.22934  0.021441236  0.020795299            3 
 3014000   0.76528518   -7.4268781    776.60328   0.02147211   0.02078965            4 
 3015000   0.78444954   -7.4265783    777.03265  0.021476856  0.020783995            3 
 3016000   0.75560653   -7.4541856    775.90121  0.021438473  0.020778329            6 
 3017000    0.7842205   -7.4552158    775.61416  0.021423438  0.020772657            3 
 3018000   0.74863329   -7.4339527    776.10299  0.021429837  0.020766971            5 
 3019000   0.77604124   -7.4385053    777.73518  0.021467792  0.020761296            3 
 3020000   0.77178162    -7.448012    775.90113  0.021410075  0.020755616            6 
 3021000   0.78403004    -7.439473    776.81278  0.021428136  0.020749947            2 
 3022000    0.7865433   -7.4491682    777.56376  0.021441754  0.020744281            3 
 3023000   0.78001185   -7.4309008    775.83826  0.021387095  0.020738611            6 
 3024000   0.75814377   -7.4316372    775.32068  0.021365759  0.020732946            3 
 3025000   0.77206072   -7.4310325    777.29041  0.021412959  0.020727316            3 
 3026000   0.77029171   -7.4198921    778.12454  0.021428854  0.020721704            5 
 3027000   0.75470115   -7.4213085    776.27555  0.021370872   0.02071608            4 
 3028000   0.77882044   -7.4270054    777.88288  0.021408049   0.02071044            6 
 3029000   0.78042549   -7.4258855     778.6934  0.021423281  0.020704841            3 
 3030000   0.77345396   -7.4312098    777.13592  0.021373375  0.020699247            4 
 3031000   0.77566386   -7.4451356     777.7049  0.021381967  0.020693657            4 
 3032000   0.77296155   -7.4589751    774.71172  0.021292648  0.020688043            5 
 3033000   0.77497755   -7.4447211    777.99287  0.021375779  0.020682408            6 
 3034000   0.74600069   -7.4355185    777.73482  0.021361646  0.020676727            4 
 3035000   0.76862913   -7.4372609     776.4285   0.02131874  0.020671091            2 
 3036000   0.77875831   -7.4379073    777.33016  0.021336467  0.020665462            9 
 3037000   0.76853979   -7.4325384    775.33701   0.02127475  0.020659815           11 
 3038000   0.76922239   -7.4540618    778.44368  0.021352965   0.02065415           12 
 3039000   0.78402519   -7.4575088     778.5415  0.021348621  0.020648495            4 
 3040000   0.77876516   -7.4411518     778.2176  0.021332719  0.020642839            4 
 3041000   0.76706865   -7.4363919     778.9449  0.021345635   0.02063722            4 
 3042000   0.75669393   -7.4190255    778.33519  0.021321915  0.020631603            4 
 3043000    0.7575953    -7.437605    779.28165  0.021340827  0.020626016            5 
 3044000   0.77299899   -7.4445869    778.55502  0.021313924  0.020620412            3 
 3045000   0.75341858   -7.4332628     777.3036  0.021272677  0.020614796            4 
 3046000   0.76798207     -7.45772    779.00624  0.021312274  0.020609186            3 
 3047000   0.76162093   -7.4437037    779.43734   0.02131707  0.020603545            6 
 3048000   0.77524809   -7.4598984    780.04043  0.021326565  0.020597907            5 
 3049000   0.75800162   -7.4594023    777.52927  0.021250937  0.020592264            3 
 3050000    0.7701098   -7.4762065    777.67055  0.021247829  0.020586609           11 
 3051000   0.75668347   -7.4622272    778.95939  0.021276068   0.02058093            6 
 3052000   0.77427701   -7.4535517    780.02156  0.021298098  0.020575277            7 
 3053000   0.76239257   -7.4528166    778.19106  0.021241158  0.020569637            6 
 3054000   0.75468065   -7.4694516    777.20582  0.021207319   0.02056399            4 
 3055000   0.77593886   -7.4497956    778.82133  0.021244444  0.020558368            6 
 3056000   0.77041125   -7.4495997    778.54065  0.021229839  0.020552748            3 
 3057000   0.76030419   -7.4535919    779.59386  0.021251604  0.020547114            5 
 3058000   0.76861836   -7.4360759    779.69325  0.021247364  0.020541504            8 
 3059000   0.74981297   -7.4377447    778.78378  0.021215642  0.020535883            5 
 3060000   0.75643701    -7.450245    778.78937  0.021208861  0.020530262           10 
 3061000   0.73553238   -7.4396278    777.87706  0.021177095  0.020524651            8 
 3062000   0.77802923   -7.4437826      779.009  0.021200985   0.02051904            5 
 3063000   0.77160839   -7.4644535    777.85215   0.02116259  0.020513399            6 
 3064000   0.76018606   -7.4782598      776.949  0.021131119  0.020507718            5 
 3065000   0.76340715   -7.4828781    778.67434  0.021171135  0.020502033            3 
 3066000   0.77652878   -7.4466815    778.56109  0.021161152  0.020496404           11 
 3067000   0.75932095   -7.4497449    778.42032  0.021150427   0.02049078           12 
 3068000   0.75423108   -7.4575613    778.88622  0.021156188  0.020485143            7 
 3069000   0.74513973     -7.46582    778.95256  0.021151096  0.020479517            3 
 3070000   0.75680821   -7.4634879    781.03408  0.021200708  0.020473863            3 
 3071000   0.74467524   -7.4857038    779.07338    0.0211406  0.020468211            6 
 3072000   0.77209867   -7.4614889    779.72431  0.021151375  0.020462578            6 
 3073000   0.75103287   -7.4691388    779.91775  0.021149738  0.020456946           11 
 3074000   0.75402592   -7.4754772    779.56083  0.021133182  0.020451325            8 
 3075000   0.76894298   -7.4607777    778.01191  0.021084334  0.020445692            6 
 3076000   0.75296621    -7.454704    780.48823  0.021144566  0.020440064           10 
 3077000   0.76588611   -7.4351933    779.80697  0.021119244  0.020434446            5 
 3078000   0.76772632   -7.4343955    778.55835  0.021078578   0.02042887            5 
 3079000   0.75998861   -7.4687861     778.4999   0.02107015   0.02042323            5 
 3080000   0.77157852   -7.4653149    779.49343   0.02109019  0.020417582            3 
 3081000   0.76170749   -7.4718461    778.88525  0.021066895  0.020411968            5 
 3082000   0.75355542   -7.4660239    779.99384  0.021090035  0.020406355            5 
 3083000   0.77398063   -7.4721333    778.49938  0.021042799  0.020400725            4 
 3084000   0.75021146   -7.4569801    778.02842   0.02102325  0.020395092            6 
 3085000   0.73739062   -7.4612923    779.33528  0.021051736  0.020389464            5 
 3086000   0.75575569   -7.4925208    779.25253   0.02104268  0.020383831            4 
 3087000   0.73856379   -7.4662258    779.19802  0.021034392   0.02037819            4 
 3088000   0.75156659   -7.4600062     779.7311  0.021041966  0.020372544            6 
 3089000   0.73576819     -7.48144     779.8443  0.021038208  0.020366906            5 
 3090000   0.76357925   -7.4284038    780.94655  0.021061126  0.020361314            4 
 3091000   0.75604069   -7.4557746    781.01867  0.021056257  0.020355697            2 
 3092000   0.74563756   -7.4684569    782.11162  0.021078903  0.020350085            5 
 3093000   0.76507566   -7.4793851    780.02292  0.021015813  0.020344454           11 
 3094000   0.75370988   -7.4531423    779.92108  0.021006278  0.020338808            4 
 3095000   0.73786654    -7.480463    780.59965  0.021017761  0.020333162            7 
 3096000   0.75629998   -7.4509048    779.59737  0.020983995  0.020327532            7 
 3097000    0.7587877   -7.4696149    778.84013  0.020956843  0.020321874            3 
 3098000   0.76083287   -7.4837403    780.57057  0.020996626  0.020316223            5 
 3099000   0.75862159   -7.4943961    778.43615  0.020932455   0.02031058            5 
 3100000   0.75845423   -7.4591639    778.98154  0.020940364  0.020304942            3 
 3101000   0.75610008   -7.4438119    779.02671  0.020934825  0.020299318            5 
 3102000   0.76634473   -7.4801297     779.0273  0.020928092  0.020293684            5 
 3103000    0.7566818   -7.4743404    779.99919  0.020947449  0.020288029            3 
 3104000   0.77475842    -7.477861    780.99076  0.020967321  0.020282407            3 
 3105000    0.7498509   -7.5013312    778.99797  0.020907084  0.020276753            6 
 3106000   0.73162033   -7.4867943    780.29115  0.020935049  0.020271097            6 
 3107000   0.75502752    -7.484503    781.67848  0.020965521  0.020265433            9 
 3108000   0.75194924   -7.4693496    778.55089  0.020874917  0.020259791            4 
 3109000   0.73539152    -7.471553    780.58903  0.020922832  0.020254138            7 
 3110000   0.75157633   -7.4646202    778.39727  0.020857376  0.020248466           10 
 3111000   0.75599614   -7.4721139    778.74524  0.020859992  0.020242796            3 
 3112000   0.75825311   -7.4618631    781.39563  0.020924262  0.020237141            3 
 3113000   0.76419457   -7.4648659    779.88572  0.020877121   0.02023153            5 
 3114000    0.7590006   -7.4973024    779.97901  0.020872913  0.020225902            5 
 3115000    0.7430517   -7.4909079    780.30438  0.020874916  0.020220268            3 
 3116000   0.75847753   -7.4772801    780.34974   0.02086943  0.020214633            3 
 3117000   0.74622259   -7.4641023    781.60064  0.020896178  0.020209008            6 
 3118000   0.75562848   -7.4883756    780.81644  0.020868517  0.020203384            5 
 3119000   0.75493701    -7.496436    780.77968  0.020860844  0.020197756            6 
 3120000   0.75219547   -7.4796834    780.10508   0.02083614  0.020192147            8 
 3121000   0.73449956       -7.463    782.29006  0.020887805  0.020186549            6 
 3122000   0.75390582    -7.478702    782.03059  0.020874188  0.020180974            7 
 3123000   0.75963818   -7.4558092    781.66549  0.020857762  0.020175388            4 
 3124000   0.75387338   -7.4832925    782.09409  0.020862518  0.020169808            5 
 3125000   0.75577014    -7.474795    781.53823  0.020841019  0.020164209            6 
 3126000   0.74688978   -7.4697672    781.60954  0.020836253  0.020158634            7 
 3127000   0.72886881   -7.4531719    781.05713  0.020814869  0.020153072            4 
 3128000   0.76265411   -7.4485765    783.24168  0.020866413  0.020147518            8 
 3129000   0.74736177   -7.4676721    783.71856  0.020872445  0.020141964            8 
 3130000   0.74971835   -7.4884901    782.17891  0.020824785  0.020136398            3 
 3131000   0.72974947   -7.4929676    782.23779  0.020819701  0.020130832            5 
 3132000   0.74966571   -7.4617637    782.06202  0.020808376  0.020125254            3 
 3133000   0.76405274   -7.4356995    783.45946  0.020838905  0.020119691            5 
 3134000    0.7446192   -7.4857928    783.35575  0.020829498  0.020114148            3 
 3135000   0.74734875   -7.5153969    782.93112  0.020811566  0.020108563            2 
 3136000    0.7676887   -7.4656608    783.95396   0.02083211  0.020102998            4 
 3137000   0.74144331   -7.4517863    784.10451  0.020829469  0.020097453            4 
 3138000   0.75519336   -7.4840154    781.79205   0.02076142  0.020091899            3 
 3139000   0.75330784   -7.5009454    782.47827  0.020773024  0.020086339            4 
 3140000   0.73638945   -7.4678611    781.14325  0.020730978  0.020080762            4 
 3141000   0.75601215   -7.5016553    782.90091   0.02077101  0.020075174            8 
 3142000   0.75130845   -7.5120121    782.24258  0.020746939  0.020069596            2 
 3143000   0.75021492   -7.4890267    782.26131  0.020740834  0.020064001            3 
 3144000   0.75641436   -7.4672751    782.42817   0.02073866  0.020058387            4 
 3145000   0.74842723   -7.4834394    781.39609  0.020704719  0.020052783            6 
 3146000   0.73112174   -7.4781892    781.45859  0.020699793  0.020047197            5 
 3147000   0.73422432   -7.4818233    782.28788  0.020715175  0.020041603            5 
 3148000   0.75223858   -7.4824419    782.51674  0.020714653  0.020036033            5 
 3149000    0.7482898   -7.4800662    782.54674  0.020708869  0.020030455           12 
 3150000   0.74407919   -7.4997323    781.01879  0.020661873  0.020024867            6 
 3151000   0.75338691   -7.4909657    782.62236  0.020697724  0.020019274            5 
 3152000    0.7299732   -7.4864383    784.46168  0.020739786  0.020013701            5 
 3153000   0.73946516   -7.5016213    780.35536  0.020624679  0.020008118           12 
 3154000   0.74822021   -7.5123253    782.39515  0.020672034  0.020002516            4 
 3155000   0.76242179   -7.5061426    782.35594  0.020664446  0.019996923            9 
 3156000   0.73825305   -7.4728228     780.3213  0.020604174   0.01999131            5 
 3157000   0.75249988   -7.4868192    782.54832  0.020656433  0.019985721            5 
 3158000   0.73740556   -7.4671719    782.68015  0.020653371  0.019980152            8 
 3159000   0.74366865   -7.4990836    783.29164  0.020662964  0.019974573            4 
 3160000   0.73500357   -7.4905892    783.32714  0.020657361  0.019968988           10 
 3161000   0.75618495   -7.4807724    783.66673  0.020659779  0.019963425            8 
 3162000   0.75446965   -7.4810444    784.67032  0.020679694   0.01995787           10 
 3163000   0.75263363   -7.4906695    785.21124  0.020687407  0.019952274            5 
 3164000   0.73141613   -7.4909786    783.73985  0.020642116  0.019946681            3 
 3165000   0.74739882   -7.4963576    783.18255   0.02062092  0.019941073            6 
 3166000   0.73453742   -7.4807965     783.3047  0.020617622  0.019935475            5 
 3167000   0.74670669   -7.5063829    783.61422  0.020619256  0.019929864            9 
 3168000   0.74034396   -7.4901885    781.59543  0.020559644  0.019924272            4 
 3169000   0.73876413   -7.5030023     781.9325   0.02056202  0.019918675            7 
 3170000   0.73903841   -7.4870812    784.26713  0.020616907  0.019913087           10 
 3171000   0.74695202   -7.4852912    782.17449  0.020555411  0.019907489            6 
 3172000   0.72424221   -7.5047613    780.88525   0.02051506  0.019901891            5 
 3173000   0.74313996   -7.4876677    783.48946   0.02057699  0.019896275            6 
 3174000   0.73280676   -7.4914634    783.93175  0.020582119  0.019890714            9 
 3175000   0.74248162   -7.4911417    783.93588  0.020575745  0.019885146            6 
 3176000   0.73246983   -7.5002054    782.65372  0.020535625  0.019879564            3 
 3177000   0.73950331   -7.4956321    782.14037  0.020515695  0.019873972            4 
 3178000   0.73804775   -7.4853328    783.10367  0.020534499  0.019868393            4 
 3179000   0.75607667   -7.4902269    782.56496  0.020513919  0.019862804            3 
 3180000   0.73210559   -7.5075828    782.89749  0.020516182  0.019857208            5 
 3181000   0.73633856   -7.5217779    782.11877  0.020489332  0.019851586            8 
 3182000   0.72141999   -7.5344855    782.15324  0.020483795   0.01984598            5 
 3183000   0.71920303   -7.4729991     783.5406  0.020513682  0.019840388            7 
 3184000   0.74918535   -7.5059214    782.75666  0.020486722  0.019834811           11 
 3185000    0.7431026   -7.4976355    783.01566  0.020487066  0.019829218            4 
 3186000   0.74453606   -7.4934551    784.18704  0.020511274  0.019823644            4 
 3187000    0.7469952   -7.4730749    783.27082  0.020480881  0.019818081            7 
 3188000   0.75102093   -7.4740687     784.4335  0.020504849  0.019812517           11 
 3189000   0.75189679   -7.4892495    784.56164  0.020501767  0.019806987            8 
 3190000   0.73577455    -7.524598    783.55635  0.020469079  0.019801433           12 
 3191000   0.74448156   -7.4665014     782.4559  0.020433926    0.0197959           12 
 3192000   0.73144143    -7.487477    784.75187  0.020487465  0.019790356           10 
 3193000    0.7423475   -7.5263487    783.68377  0.020453173  0.019784806            8 
 3194000   0.73144285   -7.4988016    785.21055  0.020486604  0.019779262            5 
 3195000   0.72893286    -7.456296    784.64334  0.020465397  0.019773725            6 
 3196000   0.72919243   -7.4812348    784.59557  0.020457749  0.019768191            5 
 3197000   0.74391076   -7.4989659    785.47992  0.020474401  0.019762638            9 
 3198000   0.74091648   -7.4874334    785.67904  0.020473187  0.019757085            6 
 3199000   0.74607775   -7.5022135     784.9126  0.020446822  0.019751534            5 
 3200000   0.74345724   -7.5137078    785.85144  0.020464881  0.019745984            5 
 3201000   0.73082561   -7.4740604    785.26935  0.020443334  0.019740451            9 
 3202000    0.7429748   -7.5005468    786.91005  0.020479649  0.019734916            6 
 3203000   0.74567556   -7.4886237    786.26512  0.020456476  0.019729396            7 
 3204000   0.74479354   -7.4953341    785.68056  0.020434888  0.019723882            4 
 3205000    0.7241017    -7.518373    785.49557  0.020423702  0.019718376            7 
 3206000   0.74049495    -7.492125    785.84812  0.020426495  0.019712839            8 
 3207000   0.73846998   -7.5203814    785.90388  0.020421575  0.019707304            4 
 3208000   0.73477238   -7.5053161    786.31479  0.020425883  0.019701756            3 
 3209000   0.74546036   -7.4876699    786.73859  0.020430523  0.019696243            4 
 3210000   0.72345671   -7.4825445    785.97312  0.020404287  0.019690727            9 
 3211000   0.73644085   -7.4824998    786.51975  0.020412119  0.019685214            3 
 3212000   0.74090051   -7.5070386    786.43257  0.020403502  0.019679691            7 
 3213000   0.73209885     -7.53315    786.01451  0.020386309  0.019674175           14 
 3214000   0.74660524   -7.5269689    786.23961  0.020385802  0.019668651            4 
 3215000   0.71422424   -7.5025662     784.7673  0.020341299  0.019663114            7 
 3216000   0.74894808   -7.5158566    786.52854  0.020380611  0.019657568            8 
 3217000   0.73373229   -7.5216523    784.53975  0.020322758  0.019652047            5 
 3218000   0.72887061   -7.5223247    785.91694  0.020352106  0.019646518           14 
 3219000   0.72685951   -7.5365969    784.66597  0.020313399  0.019640962            4 
 3220000   0.72931587      -7.5274    785.32503  0.020324147  0.019635401            3 
 3221000   0.75304282   -7.5355665    784.92693  0.020307537  0.019629844            6 
 3222000   0.73301928   -7.5199788    785.02681  0.020303818   0.01962429            3 
 3223000   0.73664302   -7.5002849    785.23132  0.020302806  0.019618731            6 
 3224000   0.72938549   -7.5211924    785.16181  0.020294712  0.019613184            5 
 3225000   0.73637382    -7.523235    785.49661   0.02029707  0.019607628            3 
 3226000   0.73700411   -7.5301681    785.83809  0.020299599  0.019602065            9 
 3227000   0.74023917   -7.5320341    786.39938  0.020307803  0.019596512            4 
 3228000   0.74084667   -7.5335307      785.015  0.020265773  0.019590937            7 
 3229000   0.72707901    -7.516836    785.56822  0.020273775  0.019585388            3 
 3230000   0.73174183   -7.5272038    783.65615  0.020218167  0.019579826           11 
 3231000   0.72991235   -7.5495642     783.8558  0.020217059  0.019574276            6 
 3232000   0.72483373   -7.5106177    786.94624  0.020290487  0.019568739            4 
 3233000   0.73743847   -7.5176162    785.22754   0.02023991  0.019563184            3 
 3234000   0.74386464   -7.5313963    784.08165  0.020204124  0.019557623            5 
 3235000   0.73604215   -7.5256944    783.51737  0.020183343  0.019552097            6 
 3236000    0.7414469   -7.5119981    785.01752  0.020215738  0.019546574            6 
 3237000   0.73008939   -7.5021253    785.40413  0.020219445  0.019541024            5 
 3238000   0.73161768   -7.5520425      785.298  0.020210469  0.019535489            5 
 3239000   0.71789101   -7.5206641    784.95173  0.020195321  0.019529948            3 
 3240000   0.72606566   -7.4982927    785.33827  0.020199029  0.019524421            2 
 3241000   0.74571961   -7.5016013     784.2059  0.020163681   0.01951891            5 
 3242000   0.73512226   -7.5059112    786.40013  0.020213863  0.019513391            6 
 3243000   0.71437867   -7.5061191    786.56912  0.020211972   0.01950789            5 
 3244000   0.73438065   -7.5273314    786.22117  0.020196804  0.019502365            6 
 3245000   0.73594797    -7.523377    786.38889  0.020194887  0.019496852            4 
 3246000   0.72892263   -7.5100231    786.82543  0.020199872  0.019491362            3 
 3247000   0.72309571    -7.495567    788.07523  0.020225727  0.019485863            6 
 3248000   0.74448887   -7.5208692    786.07899  0.020168283  0.019480362            6 
 3249000   0.73574313   -7.5154326    788.15553  0.020215336  0.019474854            6 
 3250000   0.73642403   -7.5201084    787.13299  0.020182897  0.019469356            6 
 3251000    0.7286304   -7.5330743    786.66146  0.020164602  0.019463846            4 
 3252000   0.73569815     -7.52697    786.49347  0.020154097  0.019458325           13 
 3253000   0.73325341   -7.5100369    785.84205  0.020131214  0.019452815            8 
 3254000   0.72769338   -7.5523174    785.73621  0.020122316  0.019447293            5 
 3255000    0.7336921   -7.5297966    787.37628  0.020158123  0.019441754            6 
 3256000   0.73146705   -7.5190018    785.89684  0.020114067  0.019436223            3 
 3257000   0.71132326    -7.517254     786.0151  0.020110918  0.019430689            6 
 3258000   0.72355013   -7.5352485    786.48951  0.020116879  0.019425163            9 
 3259000   0.72650712   -7.5330202    786.22892  0.020104043  0.019419637            8 
 3260000   0.72818624   -7.5311046    787.51898  0.020130853  0.019414105           10 
 3261000   0.71913825   -7.5398243    785.22678  0.020066104  0.019408576            8 
 3262000   0.74287883   -7.5290268    786.39565  0.020089813  0.019403042            6 
 3263000    0.7313907   -7.5207526    787.40613  0.020109463  0.019397501            5 
 3264000   0.71959171   -7.5543772    786.70506  0.020085403  0.019391943           11 
 3265000    0.7260029   -7.5381629    785.64773  0.020052265  0.019386373            9 
 3266000   0.74219319   -7.5317638    786.77996  0.020075014  0.019380811            5 
 3267000     0.739413   -7.5382641    786.73489   0.02006772  0.019375254            3 
 3268000   0.73568015   -7.5063903    787.68416  0.020085785  0.019369694            4 
 3269000   0.72553284   -7.5075145     786.1544  0.020040644  0.019364144            9 
 3270000   0.72284918   -7.5589628     786.6895  0.020048152  0.019358593           10 
 3271000   0.73467346   -7.5311922    786.22519  0.020030194  0.019353048            3 
 3272000   0.71069467   -7.5481597    785.82958  0.020013997  0.019347479            5 
 3273000   0.74590455   -7.5564962    785.42495   0.01999758  0.019341916           12 
 3274000   0.73085358   -7.5379297    786.82906  0.020027211  0.019336349           12 
 3275000   0.72938835   -7.5429391    786.41825  0.020010643    0.0193308            8 
 3276000   0.72232682   -7.5442627    785.64993   0.01998499  0.019325247           16 
 3277000   0.71873032   -7.5404465    787.99107  0.020038426  0.019319703            5 
 3278000   0.71624602   -7.5196863    786.42345  0.019992461  0.019314182            4 
 3279000   0.73795726   -7.5491368    786.48374  0.019987896  0.019308676            5 
 3280000   0.73228992   -7.5083936    787.81733  0.020015684  0.019303161            5 
 3281000    0.7159961    -7.521581    786.76176  0.019982774  0.019297644            6 
 3282000   0.72247241   -7.5152557    787.79574  0.020002939  0.019292135            3 
 3283000   0.72584114   -7.5192187    786.70389  0.019969131  0.019286618            5 
 3284000   0.71712922   -7.5247212       786.18  0.019949756  0.019281091            9 
 3285000   0.73822366    -7.540433     785.2863  0.019921012  0.019275568            4 
 3286000    0.7196292   -7.5520675    785.83203   0.01992879  0.019270032            6 
 3287000   0.73029547   -7.5225644    787.51435  0.019965378  0.019264518            5 
 3288000   0.73414711   -7.5407944    785.43652  0.019906643  0.019259005            3 
 3289000   0.73651188   -7.5681902    785.07858  0.019891522  0.019253468            3 
 3290000   0.73269605    -7.542954    786.33504  0.019917301  0.019247914            5 
 3291000    0.7210225   -7.5381787    787.27214  0.019934978    0.0192424            8 
 3292000   0.72033986   -7.5491118    787.28101  0.019929147  0.019236903            4 
 3293000   0.73284863   -7.5701471    788.03517   0.01994218    0.0192314            6 
 3294000   0.72226644   -7.5422674    788.09616  0.019937668  0.019225916            4 
 3295000   0.73182936   -7.5234504    787.45788  0.019915475  0.019220423           10 
 3296000   0.73074847   -7.5388102    785.38424  0.019857005  0.019214928            5 
 3297000    0.7345634   -7.5358696    788.43118  0.019927995  0.019209422            4 
 3298000   0.73639226   -7.5432916    787.77556  0.019905386  0.019203932            4 
 3299000   0.73077577   -7.5456283    787.16966  0.019884047  0.019198424           13 
 3300000   0.71381911   -7.5518038    787.31192  0.019881614  0.019192917           14 
 3301000   0.73392483   -7.5402465    787.80299  0.019887988  0.019187396            7 
 3302000   0.73538943   -7.5586739    787.67564  0.019878751  0.019181879            6 
 3303000   0.72916915   -7.5333779    788.22461  0.019886583  0.019176367            5 
 3304000   0.72354173   -7.5561616    786.76168  0.019843666  0.019170859            9 
 3305000   0.72813607   -7.5266734    789.14553  0.019897769  0.019165333            8 
 3306000   0.72801125   -7.5260358    788.54486   0.01987661  0.019159832           11 
 3307000   0.72781231   -7.5480138     786.7747  0.019825993  0.019154327           14 
 3308000   0.71565201   -7.5271377    787.91162   0.01984864  0.019148839            6 
 3309000   0.70480328    -7.537975    789.10477   0.01987269  0.019143339            3 
 3310000    0.7354351   -7.5454027    787.98429  0.019838477  0.019137821            3 
 3311000   0.71434784   -7.5534466    786.20663  0.019787744  0.019132311           11 
 3312000   0.71835917    -7.530575    786.60351  0.019791755  0.019126813            4 
 3313000   0.71843026   -7.5407078    789.46697  0.019857807  0.019121323            8 
 3314000   0.72861335   -7.5206638    790.37055  0.019874536  0.019115823            7 
 3315000   0.72272069   -7.5308057    787.42508  0.019794497  0.019110327           12 
 3316000   0.73024458   -7.5528175    787.31413  0.019785739  0.019104815            8 
 3317000   0.72811719   -7.5532039      787.002  0.019771933    0.0190993            6 
 3318000   0.73399931   -7.5696877    785.89667  0.019738212  0.019093789            5 
 3319000    0.7369109   -7.5425533    787.16725  0.019764167  0.019088276           10 
 3320000    0.7148362   -7.5638551     786.5716  0.019743263  0.019082752            5 
 3321000   0.71931141   -7.5891271    786.73508   0.01974142  0.019077208            9 
 3322000   0.72031237   -7.5376377    786.91012  0.019739869  0.019071679            7 
 3323000   0.71649427   -7.5558875    787.47943  0.019748205  0.019066163           11 
 3324000   0.71621631   -7.5265882    787.91791  0.019753257  0.019060669            6 
 3325000   0.71217597   -7.5456108    787.55966  0.019738337  0.019055166            4 
 3326000   0.71673126   -7.5294305    788.51558  0.019756354  0.019049666            6 
 3327000   0.71363415   -7.5719403    787.94278  0.019736068  0.019044176            4 
 3328000   0.72351451   -7.5483151    788.30733  0.019739266  0.019038675           14 
 3329000   0.70217035   -7.5380546     788.4075  0.019735844  0.019033198            6 
 3330000   0.72254634   -7.5434089    789.03562  0.019745636  0.019027733           13 
 3331000   0.72085271   -7.5104327    789.26222  0.019745377  0.019022279            8 
 3332000   0.72484224   -7.5471292    788.63623  0.019723795  0.019016815            7 
 3333000    0.7042839   -7.5587998    788.60794   0.01971717  0.019011366            8 
 3334000   0.70859474   -7.5577128    788.01222  0.019696366  0.019005896            4 
 3335000    0.7135949   -7.5542864    787.26108  0.019671691  0.019000432            4 
 3336000   0.70190483   -7.5350212    789.60849  0.019724433  0.018994951            7 
 3337000   0.70659892   -7.5578774    787.97054  0.019677618  0.018989471            4 
 3338000   0.71237109   -7.5592263    790.26183  0.019728925  0.018983999            6 
 3339000   0.71295609   -7.5364931    787.96687   0.01966574  0.018978502            5 
 3340000   0.72086519    -7.521939    787.60235  0.019650757  0.018973017            5 
 3341000   0.72014234   -7.5463864    788.42378  0.019665364   0.01896754            8 
 3342000   0.71016126   -7.5643946    787.88837  0.019646129  0.018962055            6 
 3343000   0.71658244   -7.5721612    787.30141  0.019625621   0.01895655            4 
 3344000   0.72649925   -7.5625296    786.94496  0.019610869  0.018951037            4 
 3345000   0.72131738   -7.5658886    786.45821   0.01959288  0.018945547            7 
 3346000    0.6990495   -7.5892347     787.8605  0.019621949   0.01894005            4 
 3347000   0.72280518   -7.5942279    788.17384  0.019623888  0.018934555            6 
 3348000   0.71336717   -7.5762074    789.53609  0.019651934  0.018929066            4 
 3349000   0.71372712   -7.5805577    788.65042  0.019624028  0.018923569            4 
 3350000    0.7072912   -7.5615068    788.19538   0.01960685  0.018918072            6 
 3351000    0.7226402   -7.5354769      789.331   0.01962924  0.018912578            5 
 3352000   0.71278471   -7.5582843    787.95551  0.019589188  0.018907089            6 
 3353000   0.72263165   -7.5692869    789.57504  0.019623597  0.018901606            7 
 3354000   0.70831417   -7.5459257    787.62719   0.01956935  0.018896115            6 
 3355000   0.70975584   -7.5640083     789.6227  0.019613082  0.018890626            5 
 3356000   0.70578784   -7.5852915    788.47312  0.019578693  0.018885122            5 
 3357000   0.72135569   -7.5657503    786.75733  0.019530268  0.018879636            4 
 3358000   0.72139665   -7.5607496    787.69248  0.019547659  0.018874167            5 
 3359000   0.72215279    -7.569791    788.95611  0.019573189  0.018868695            4 
 3360000   0.71282614   -7.5764136     786.9342  0.019517217  0.018863209            5 
 3361000   0.70891678   -7.5891143    788.85308  0.019558987  0.018857724            5 
 3362000    0.7337673   -7.5537789    789.21664  0.019562181  0.018852245            6 
 3363000   0.72301294   -7.5929428     788.1658  0.019530325  0.018846751            6 
 3364000    0.7090893    -7.570926    789.95474  0.019568835  0.018841254            5 
 3365000    0.7153833   -7.6140751    787.98853  0.019514327  0.018835766            7 
 3366000   0.70911726   -7.5455437    790.19909  0.019563257  0.018830271            9 
 3367000   0.71670222   -7.5809086    787.43324  0.019488992  0.018824795            3 
 3368000   0.71373747   -7.5931533    788.37619  0.019506537  0.018819299            3 
 3369000   0.70073545   -7.5896824    789.41937   0.01952655  0.018813801            4 
 3370000   0.69774743   -7.5733578    788.83054  0.019506195  0.018808311            8 
 3371000   0.71962205    -7.570851    788.89804  0.019502078  0.018802823            8 
 3372000   0.71637142    -7.573095    788.91015  0.019496593  0.018797354            5 
 3373000   0.71975082   -7.5555854    788.06127  0.019469841  0.018791883            2 
 3374000   0.71674136    -7.602922    787.08739  0.019440016  0.018786398            6 
 3375000   0.71843678   -7.5777942    789.71508  0.019499138  0.018780897            4 
 3376000    0.7098687   -7.5699971    787.10328  0.019428892  0.018775424           13 
 3377000   0.70710101   -7.5793318    789.64917  0.019485963  0.018769939            6 
 3378000   0.70533509    -7.576037    788.31736   0.01944734  0.018764487            9 
 3379000   0.71948312   -7.5779179     787.5447  0.019422529   0.01875901           12 
 3380000   0.70951578   -7.5892161    788.70735  0.019445447  0.018753536            5 
 3381000   0.69638102   -7.5710652    788.31225  0.019429958  0.018748057            3 
 3382000   0.72231556   -7.5747868    788.73361  0.019434595  0.018742596            7 
 3383000   0.70174568   -7.5749325    789.37024  0.019444532  0.018737159            3 
 3384000   0.70440257   -7.5967869    789.05067  0.019430917  0.018731714           19 
 3385000   0.71080702    -7.575367     788.8112  0.019419281  0.018726255           10 
 3386000   0.73500583   -7.5765889    789.38199  0.019427594  0.018720786            6 
 3387000   0.70955377   -7.5614352    788.71209  0.019405376  0.018715317            8 
 3388000   0.71390037   -7.6034675    788.71076  0.019399615  0.018709859            5 
 3389000   0.72273941   -7.5570857    788.85561  0.019397453  0.018704392            8 
 3390000   0.70478501   -7.5854864     789.5712  0.019409322  0.018698943           13 
 3391000   0.71947939   -7.5774803    790.03217  0.019414926  0.018693506           11 
 3392000   0.71123494    -7.571746    788.48574   0.01937121  0.018688052            8 
 3393000   0.71733637   -7.5837352    788.70616  0.019370915  0.018682588            7 
 3394000   0.71256698   -7.5843238    789.90956  0.019394755  0.018677131            8 
 3395000   0.70868756   -7.5687263     789.5717  0.019380749  0.018671671            5 
 3396000   0.69565367   -7.5648887    790.88466   0.01940726  0.018666233            3 
 3397000   0.69956512   -7.5953761    789.28299  0.019362256  0.018660801            9 
 3398000   0.71127365   -7.6211137     788.2874  0.019332141  0.018655333            5 
 3399000   0.70069636   -7.5756802    789.98401   0.01936805  0.018649859            7 
 3400000   0.70529784   -7.5893976    790.00357  0.019362833  0.018644393            7 
 3401000   0.70478174   -7.6064515    789.29055  0.019339668  0.018638926            5 
 3402000   0.69611253   -7.5916356    788.88582   0.01932407  0.018633467            5 
 3403000   0.70899266   -7.5906146    788.39394  0.019306346  0.018628018            7 
 3404000   0.70674953   -7.5944932    789.41132  0.019325581  0.018622572           11 
 3405000   0.71117646   -7.5878279    789.43936  0.019320591   0.01861712            4 
 3406000   0.71286288   -7.5867166    788.57202  0.019293698  0.018611667            4 
 3407000   0.70493008   -7.5627853    788.43228  0.019284617  0.018606207            8 
 3408000   0.70856686   -7.5656738    790.25248  0.019323466  0.018600756            6 
 3409000    0.6977639    -7.606582    789.23171  0.019292845  0.018595314            4 
 3410000   0.68425459    -7.581079     788.7761  0.019276053  0.018589873           10 
 3411000   0.69673675    -7.604082    789.74329  0.019294031  0.018584421            6 
 3412000   0.70153254    -7.569933    790.05443  0.019295976  0.018578989            7 
 3413000   0.70049893   -7.5840767    788.86961  0.019261393  0.018573552            6 
 3414000   0.70263964    -7.574363    790.98078  0.019307283   0.01856812            5 
 3415000   0.70635545   -7.5701779    792.28256  0.019333396   0.01856271            5 
 3416000   0.71626792   -7.5976392    789.14797  0.019251268  0.018557302            3 
 3417000   0.70215414   -7.5740142    789.57921  0.019256151  0.018551877           11 
 3418000   0.70656781   -7.5836078    790.43972  0.019271497  0.018546456            4 
 3419000   0.69775544   -7.5777774    790.35441  0.019263781  0.018541055            8 
 3420000   0.70344802   -7.5721264    789.29106  0.019232238  0.018535634           19 
 3421000   0.71587418   -7.5702671    788.40858   0.01920512  0.018530217            5 
 3422000   0.69550651   -7.5938604    791.07883  0.019264534  0.018524809            7 
 3423000   0.69165741   -7.5863589    788.58424  0.019198175   0.01851937            7 
 3424000   0.70155899    -7.591624    790.99632  0.019251273  0.018513946            9 
 3425000   0.70327893   -7.5867462    790.75017  0.019239663  0.018508527            7 
 3426000   0.69780739   -7.5811436     790.7412  0.019233829  0.018503112            6 
 3427000   0.70014211   -7.5553349    788.76316  0.019180118  0.018497681            5 
 3428000   0.69994037   -7.6220484    787.86003  0.019152568  0.018492237            5 
 3429000   0.69683762   -7.6055707    789.75668  0.019193076  0.018486794            5 
 3430000   0.71039703   -7.5796225    790.26568  0.019199846  0.018481362           12 
 3431000   0.69643439   -7.5944932    790.48245  0.019199515  0.018475941            6 
 3432000   0.70987886   -7.6001908    791.12121  0.019209431  0.018470525            5 
 3433000   0.70592652     -7.59234    791.12998  0.019204049  0.018465124            6 
 3434000   0.70790653   -7.5820327    790.27071  0.019177604  0.018459704            8 
 3435000   0.70060287   -7.6050375    790.82615  0.019185496  0.018454272            8 
 3436000   0.69866798   -7.5927943    789.39213  0.019145133  0.018448854            8 
 3437000   0.70359943   -7.5819512    789.84663  0.019150583  0.018443417            5 
 3438000   0.69679902   -7.6194494    789.91473  0.019146663  0.018437986            6 
 3439000   0.69172015   -7.6179306    788.72101  0.019112169  0.018432564           11 
 3440000   0.70121332   -7.6175884    790.12492  0.019140623  0.018427124            8 
 3441000   0.70326526   -7.5893347     790.0541  0.019133345  0.018421688            4 
 3442000   0.69137068   -7.5883044    789.50132  0.019114403  0.018416271            8 
 3443000   0.68974778   -7.5895794    791.46492  0.019156378  0.018410852            4 
 3444000   0.70994916    -7.602561    790.93413  0.019137973  0.018405437            4 
 3445000   0.69179242   -7.5949512     791.1862  0.019138515  0.018400028            5 
 3446000   0.69504386   -7.5995333    790.85622  0.019124981  0.018394607            8 
 3447000   0.69587008   -7.5954318    790.34544  0.019107084   0.01838918            3 
 3448000   0.71279057   -7.6055919    789.84876  0.019089539  0.018383764            8 
 3449000   0.70201756   -7.5960709    789.88025  0.019084765  0.018378321            5 
 3450000    0.7176179   -7.6345997    789.69027  0.019074644  0.018372874            5 
 3451000   0.69899639   -7.6052353    788.53066  0.019041115  0.018367435           17 
 3452000   0.69667419   -7.6143561    790.24848  0.019077068  0.018361975           14 
 3453000    0.7167597   -7.6058326    789.85642  0.019062082   0.01835655           10 
 3454000   0.69704231   -7.6064803    789.89724  0.019057548  0.018351101            3 
 3455000   0.69858907   -7.5950377    789.16049  0.019034262  0.018345667           10 
 3456000   0.69906338   -7.6036614    789.19823  0.019029664   0.01834022            8 
 3457000   0.70174421   -7.6063123    789.54983  0.019032635  0.018334768            8 
 3458000   0.70156532   -7.6020726    788.54089  0.019002817  0.018329337            4 
 3459000   0.70463693   -7.6099419     789.2356   0.01901406  0.018323912            3 
 3460000    0.7090527   -7.6040021     788.8944  0.019000347  0.018318488            3 
 3461000    0.7092687     -7.58691     788.8752  0.018994395  0.018313084            7 
 3462000   0.69011167   -7.5941442    789.86654  0.019012771  0.018307667            3 
 3463000   0.70625884   -7.6157935    789.59315  0.019000702  0.018302247            4 
 3464000   0.69319705   -7.6035193    790.22362  0.019010383  0.018296826            9 
 3465000   0.69401147    -7.609279     789.1877  0.018979983  0.018291415            8 
 3466000   0.67760693   -7.6003534    788.91315  0.018967906  0.018285995            8 
 3467000   0.68133543   -7.6190355    789.59223  0.018978758  0.018280577           10 
 3468000   0.69335014   -7.6154216    788.90086  0.018956672  0.018275144            4 
 3469000   0.71507187   -7.6015418    791.22899  0.019007134  0.018269724            8 
 3470000   0.69986381   -7.6073536    789.95468  0.018971054  0.018264313            2 
 3471000   0.69193504    -7.604721     790.0062  0.018966825  0.018258904            5 
 3472000   0.68247423   -7.6122937    788.04015  0.018914174  0.018253483            5 
 3473000   0.69121202   -7.6136696    789.65883  0.018947568  0.018248034           12 
 3474000   0.69456194   -7.6334975      789.931  0.018948642  0.018242605            5 
 3475000   0.67873509   -7.6332572      789.898  0.018942398  0.018237185            6 
 3476000   0.70196472   -7.6030208    790.40895  0.018949198  0.018231786            5 
 3477000   0.69674989   -7.6165379    789.07699  0.018911825  0.018226376           10 
 3478000   0.70138692   -7.6218958    789.84844  0.018924872  0.018220961           10 
 3479000   0.69747979   -7.6067877    790.62376  0.018938003  0.018215564           10 
 3480000    0.6901223   -7.6101995    791.17084  0.018945662   0.01821016            8 
 3481000   0.69686288   -7.5996166    790.32454  0.018919959  0.018204746           11 
 3482000   0.69720172    -7.619907    790.21514  0.018911907  0.018199343            6 
 3483000     0.685718   -7.6045716     791.1955  0.018929933  0.018193947            5 
 3484000   0.70599292   -7.6039165    791.47569  0.018931202  0.018188532            8 
 3485000   0.69305664   -7.6074796    788.75862  0.018860799  0.018183127           12 
 3486000   0.69813164   -7.6126267     790.0217  0.018885583  0.018177709            9 
 3487000   0.68126844   -7.6337285    790.05572   0.01888098  0.018172296           11 
 3488000    0.6997501   -7.6205713    790.47455  0.018885573  0.018166883            8 
 3489000   0.69352362   -7.6209195     788.2277  0.018826495  0.018161461            7 
 3490000   0.70056933   -7.6151131    789.95667  0.018862385  0.018156044            5 
 3491000   0.69069105   -7.6144165    791.07167  0.018883598  0.018150625            7 
 3492000   0.68102618    -7.611054    789.62389   0.01884364  0.018145224            4 
 3493000   0.70167722   -7.6063775    790.06404  0.018848746  0.018139812            5 
 3494000   0.69560418   -7.6144702    789.93411  0.018840252  0.018134412            5 
 3495000   0.68171671   -7.6348767    789.24884  0.018818523  0.018129006            7 
 3496000   0.68816512   -7.6268849    790.52775  0.018843625  0.018123589            8 
 3497000   0.68852482   -7.6394635    788.75761  0.018796054  0.018118182            4 
 3498000   0.70632417   -7.6560151    789.56832  0.018809994  0.018112745            6 
 3499000   0.67988045   -7.6423643    788.88329  0.018788304  0.018107322            5 
 3500000   0.68463685   -7.6261452    788.80585  0.018781092  0.018101898            9 
 3501000   0.69647868   -7.6493209    788.40398  0.018766162  0.018096461            4 
 3502000   0.68553628   -7.6324324    789.56804  0.018788503  0.018091041            6 
 3503000   0.67032801   -7.6501081    788.44962  0.018756533  0.018085628           19 
 3504000   0.70163475   -7.6130103    790.23764  0.018793703  0.018080219            7 
 3505000   0.71033234   -7.5905515    790.57111   0.01879627  0.018074828            5 
 3506000   0.69074347   -7.6426733    789.73437   0.01877102  0.018069428           11 
 3507000   0.68546873   -7.6416864    791.08633  0.018797793  0.018064021            7 
 3508000   0.68625538   -7.6086906     790.6734  0.018782625  0.018058617            4 
 3509000    0.6919856   -7.6381788    789.66361  0.018753292  0.018053219            5 
 3510000   0.69041601   -7.6302241    789.70174  0.018748854  0.018047804            6 
 3511000    0.6811487   -7.6229815    791.06475  0.018775865  0.018042395            5 
 3512000   0.70007944   -7.6271049    789.73472   0.01873896  0.018036992            5 
 3513000    0.6720929   -7.6151345    790.72156  0.018757035  0.018031592            7 
 3514000   0.68397494   -7.6340878    790.25876  0.018740722  0.018026181           15 
 3515000   0.68560388   -7.6393825    788.61302  0.018696373  0.018020761            6 
 3516000   0.67243207   -7.6170575    790.35307  0.018732297  0.018015355            6 
 3517000   0.68643959    -7.637153    790.59326  0.018732662   0.01800995            7 
 3518000   0.67870192   -7.6297507    791.50722  0.018748987  0.018004535            6 
 3519000   0.70907625   -7.6139262    790.06162  0.018709426  0.017999143           14 
 3520000   0.69659733   -7.6229153    790.95148  0.018725177  0.017993743            9 
 3521000   0.69271625   -7.6285357    790.08163  0.018699272   0.01798832            3 
 3522000   0.68493364   -7.6113065    790.36596   0.01870069    0.0179829            3 
 3523000   0.68623146    -7.629137    790.59011  0.018700684   0.01797749            6 
 3524000   0.69785024    -7.608464    788.50005  0.018645953  0.017972081            4 
 3525000   0.70024305   -7.6339948    789.46072  0.018663374  0.017966665           10 
 3526000   0.67289723   -7.6138324    788.68414  0.018639727  0.017961252            3 
 3527000   0.70065791   -7.6295234    788.17873  0.018622501  0.017955847            7 
 3528000   0.68424728   -7.6277133    789.99944  0.018660229  0.017950456           11 
 3529000   0.69269028    -7.623648    789.96284  0.018654077  0.017945072            8 
 3530000   0.68270971   -7.6429903    788.55841  0.018615638  0.017939672            5 
 3531000   0.68842821   -7.6380047    790.71903  0.018661357  0.017934254            6 
 3532000   0.69587432   -7.6243083    790.02728  0.018639753  0.017928838            8 
 3533000   0.69900389   -7.6412159    791.33236   0.01866526  0.017923431            6 
 3534000   0.69674328   -7.6406146    791.02234  0.018652668   0.01791803            5 
 3535000   0.69470612   -7.6259813     789.3769  0.018608602  0.017912639            8 
 3536000   0.68639238   -7.6451762    790.35142  0.018626306  0.017907259           12 
 3537000   0.68954137   -7.6276116    790.60143   0.01862693  0.017901879           18 
 3538000   0.68465125   -7.6224945    789.49432  0.018595589  0.017896491           16 
 3539000   0.67807732   -7.6031106    789.40644  0.018588265  0.017891098           15 
 3540000   0.68133273   -7.6358209    788.36216  0.018558431  0.017885727           15 
 3541000   0.69011716   -7.6551834    790.27137  0.018598121  0.017880325            4 
 3542000   0.68624076   -7.6346728    789.71175  0.018579704  0.017874916           15 
 3543000   0.68509076   -7.6422629    788.77733  0.018552482  0.017869509            8 
 3544000   0.67648922   -7.6393156    790.32169  0.018583561  0.017864102           18 
 3545000   0.67652015   -7.6354912    788.41555  0.018533511   0.01785871            4 
 3546000   0.68596265   -7.6330859    790.06626  0.018567077  0.017853307            4 
 3547000   0.67822039   -7.6456354     791.6209  0.018598367  0.017847915           17 
 3548000   0.68408019    -7.632491    789.19278  0.018536095  0.017842515           10 
 3549000   0.68428846   -7.6518199    789.54595  0.018539165  0.017837118            6 
 3550000   0.68850371   -7.6430025    790.04079  0.018545558  0.017831728           12 
 3551000   0.68545344   -7.6514288    788.34413  0.018500519  0.017826346           25 
 3552000   0.69742281    -7.665251    788.71896  0.018504105  0.017820955            6 
 3553000   0.68976397   -7.6556806    789.40468   0.01851498  0.017815545            9 
 3554000    0.6708128   -7.6525606    790.04173  0.018524708   0.01781015            5 
 3555000   0.67544874   -7.6652475    791.01181  0.018542237  0.017804755            4 
 3556000   0.67898657   -7.6391504    790.66434  0.018528879  0.017799359            6 
 3557000   0.66840286   -7.6514815    788.94531  0.018483397  0.017793986            9 
 3558000   0.67386588   -7.6550087    790.52561  0.018515215  0.017788611            5 
 3559000   0.68607923   -7.6263416    790.07933  0.018499563  0.017783227            6 
 3560000   0.67378864    -7.633388    790.36487   0.01850105   0.01777786            6 
 3561000   0.67143207   -7.6375128    789.25675  0.018469923  0.017772499            6 
 3562000   0.68608531   -7.6395894    789.64728  0.018473874  0.017767143            5 
 3563000   0.67388917   -7.6384874     790.0578  0.018478291  0.017761797            8 
 3564000   0.67199909   -7.6403539    790.14004  0.018475029  0.017756432            6 
 3565000   0.68476913   -7.6554297    792.63638    0.0185282  0.017751073            4 
 3566000   0.68447005   -7.6213484    791.15268  0.018488332   0.01774571            3 
 3567000   0.68078041   -7.6320657    791.72321  0.018496477  0.017740369            8 
 3568000   0.68480539   -7.6287314    791.63015   0.01848912  0.017735018           19 
 3569000   0.69369598   -7.6498343    789.89026  0.018443314  0.017729648            7 
 3570000   0.66079951   -7.6365952    788.69953  0.018410353  0.017724291            9 
 3571000   0.69406705   -7.6410666    789.46135  0.018422976  0.017718924            6 
 3572000   0.67976465   -7.6421709    790.86636  0.018450596  0.017713561            6 
 3573000   0.66587667   -7.6351217    790.28947  0.018431978  0.017708191           11 
 3574000   0.67184862   -7.6506347     789.5004  0.018408422  0.017702835            5 
 3575000   0.69479849   -7.6691919    788.82804    0.0183876  0.017697464            7 
 3576000    0.6800411    -7.639718    791.52689  0.018445351  0.017692089           10 
 3577000   0.68392084   -7.6360595    790.93344  0.018426369  0.017686743           17 
 3578000   0.67834825   -7.6532391    790.04404  0.018400504  0.017681395            8 
 3579000   0.67909012   -7.6609191    790.97539  0.018417048  0.017676044            8 
 3580000    0.6711219   -7.6593076    791.12672  0.018415426  0.017670705            3 
 3581000    0.6768726   -7.6431266    792.28048  0.018437133  0.017665372            6 
 3582000   0.66628894   -7.6622382    791.06044  0.018403602   0.01766004           10 
 3583000    0.6847458   -7.6477885    789.98825  0.018373529  0.017654705           10 
 3584000   0.67038254   -7.6540474    791.62431  0.018406443  0.017649368           10 
 3585000   0.66440997   -7.6736119    790.05828  0.018364906  0.017644005            8 
 3586000   0.67433769   -7.6507436    791.47835  0.018392786  0.017638644           13 
 3587000   0.69591121   -7.6749251    789.75732  0.018347675   0.01763329            6 
 3588000   0.66803221   -7.6390757    790.29424  0.018355032  0.017627946            7 
 3589000   0.68711956    -7.653317    790.13675   0.01834626  0.017622593           12 
 3590000   0.67631969   -7.6835906    791.04424  0.018362215  0.017617244           10 
 3591000   0.67051084   -7.6678075    789.46204  0.018320385  0.017611898            9 
 3592000   0.67118066   -7.6615893    790.65116  0.018342872  0.017606555           19 
 3593000    0.6664512   -7.6498988    790.52111  0.018334751    0.0176012            7 
 3594000   0.67882251   -7.6494191    791.21832  0.018345815   0.01759585           19 
 3595000   0.68187598   -7.6434029    791.55515   0.01834852  0.017590514            9 
 3596000   0.66971458   -7.6577676    790.55159  0.018320161  0.017585175            6 
 3597000   0.68239755   -7.6678904     789.4814  0.018290274  0.017579842            3 
 3598000   0.67835275   -7.6349877    789.81968  0.018293026  0.017574495            8 
 3599000   0.66901879   -7.6534745    790.16145  0.018295856  0.017569164           25 
 3600000   0.68969299   -7.6794416    791.24849  0.018315937   0.01756382            7 
 3601000   0.67814431   -7.6808927    791.59172  0.018318794  0.017558485            6 
 3602000   0.68723979   -7.6846486    790.39595  0.018286044  0.017553147            5 
 3603000   0.68158583     -7.63046    790.81743  0.018290717  0.017547809            8 
 3604000   0.66524641   -7.6746691    792.13426   0.01831609  0.017542477           13 
 3605000   0.68159886   -7.6718349    790.42908  0.018271592  0.017537142            5 
 3606000   0.67934023   -7.6587051    790.39405  0.018265716  0.017531813           14 
 3607000   0.67237623   -7.6429874    789.42558  0.018238277  0.017526495            7 
 3608000   0.68539832   -7.6704836    791.58668  0.018283136  0.017521163            5 
 3609000   0.68013922   -7.6724286    790.26273    0.0182475  0.017515832            5 
 3610000   0.67852363   -7.6916323    791.84608  0.018278995   0.01751051           14 
 3611000   0.66524304    -7.661011    789.75657  0.018225713  0.017505186            5 
 3612000   0.65915273   -7.6469767    791.23011  0.018254663  0.017499868            7 
 3613000   0.67055165   -7.6558198    793.18809  0.018294771  0.017494572            7 
 3614000   0.66545044   -7.6643965    790.22149  0.018221303  0.017489278            6 
 3615000   0.66787408   -7.6746978    790.79268   0.01822943   0.01748399            5 
 3616000   0.66546413   -7.6493634    790.92869  0.018227523  0.017478715            4 
 3617000    0.6692404   -7.6643451    790.81141  0.018219782  0.017473426            4 
 3618000   0.66466727   -7.6746898    791.15613  0.018222686  0.017468134            4 
 3619000   0.68076375   -7.6702218    790.32856  0.018198595  0.017462835            8 
 3620000    0.6769657   -7.6728507    791.09976  0.018211321  0.017457536            4 
 3621000   0.65549548   -7.6491107    791.70482  0.018220216  0.017452242            6 
 3622000   0.67991332   -7.6796976    793.88683  0.018265388  0.017446942            5 
 3623000   0.67048562   -7.6458791    793.73576  0.018256872  0.017441657            8 
 3624000    0.6769308   -7.6761303    790.47296  0.018176807  0.017436373            5 
 3625000   0.67850604   -7.6457722    790.19994  0.018165516  0.017431079            8 
 3626000   0.66827161   -7.6700159    790.47605  0.018166852  0.017425778            5 
 3627000   0.66104242   -7.6589234    791.15454  0.018177432   0.01742049            6 
 3628000   0.67200208   -7.6490454    791.74517  0.018185988  0.017415199           12 
 3629000    0.6533343   -7.6918344    789.66236  0.018133149  0.017409892           14 
 3630000   0.67466101   -7.6701884    789.97562  0.018135345  0.017404586           10 
 3631000   0.66463624   -7.6654126    791.81142  0.018172483  0.017399296            8 
 3632000   0.67776024   -7.6747443    792.12559  0.018174688  0.017394021            5 
 3633000   0.67708891   -7.6568338    791.34117  0.018151692  0.017388732            7 
 3634000   0.70192954   -7.6795406    791.01974  0.018139326  0.017383427            6 
 3635000   0.67627612   -7.6722772    791.62397  0.018148188  0.017378138           10 
 3636000   0.67116041    -7.653603    792.01479  0.018152154  0.017372855            9 
 3637000   0.66739115   -7.6751474    789.57725  0.018091313  0.017367577            6 
 3638000    0.6778676   -7.6535463    791.86217  0.018138679  0.017362302            6 
 3639000   0.66224433   -7.6851622    790.73426  0.018107865   0.01735701            7 
 3640000   0.66198424   -7.6823363    790.99435  0.018108845  0.017351708            9 
 3641000   0.67176092   -7.6756861    789.93077  0.018079529  0.017346415            8 
 3642000   0.66347152   -7.6863915    789.83577  0.018072391  0.017341136            9 
 3643000   0.67531783    -7.670644    790.60622  0.018085054  0.017335839            7 
 3644000   0.66111358    -7.670044    791.93394  0.018110454  0.017330557            6 
 3645000   0.66508337   -7.6733731    790.96689  0.018083376  0.017325292            8 
 3646000   0.68984362   -7.6778765    791.26106   0.01808514  0.017320026            3 
 3647000   0.66884423   -7.6687292    790.07635  0.018053111  0.017314735            6 
 3648000   0.66264358   -7.6821384    791.11284  0.018071839  0.017309447           10 
 3649000   0.68086123   -7.6646283    791.07493  0.018066021  0.017304175           10 
 3650000   0.66045889   -7.6848915     789.8366  0.018032799  0.017298895           13 
 3651000   0.66173209    -7.680918    791.56242  0.018067251  0.017293604            9 
 3652000    0.6578724   -7.6833132    791.51039  0.018061117  0.017288323           13 
 3653000   0.67683535   -7.6760957    791.41927  0.018054094  0.017283035           11 
 3654000   0.67487839   -7.6983037     792.8579  0.018081963  0.017277762            6 
 3655000   0.65864441    -7.653213    791.27837  0.018041003   0.01727251            7 
 3656000   0.66649161   -7.6762208    792.09515  0.018054685  0.017267243            4 
 3657000    0.6689502   -7.6665067     789.2994  0.017986041  0.017261991            7 
 3658000   0.67565869    -7.680178    791.38704  0.018028682  0.017256724            4 
 3659000   0.66618708   -7.6545645    791.50273   0.01802639  0.017251445            5 
 3660000   0.65514431   -7.6539392    790.91913  0.018008177  0.017246182            7 
 3661000   0.65706419   -7.6792614    790.00568  0.017982466  0.017240904            5 
 3662000    0.6725111   -7.6737892    790.66525  0.017992564  0.017235627            9 
 3663000   0.66907022   -7.6668865    791.79703  0.018013401  0.017230358            7 
 3664000   0.67238181   -7.6568752     789.6633  0.017959955  0.017225101            5 
 3665000   0.66479412   -7.6533894    790.62085  0.017976827   0.01721984            6 
 3666000   0.65188324   -7.6804609    791.92246  0.018001511  0.017214576            7 
 3667000   0.66128743   -7.6701308    791.21679  0.017980565  0.017209308            7 
 3668000   0.66329652   -7.6797613    790.70507  0.017964037  0.017204039            6 
 3669000   0.67847833   -7.6839309    791.22818  0.017971022  0.017198769            5 
 3670000   0.67380841   -7.6676916    790.95638  0.017959954    0.0171935            4 
 3671000    0.6668576   -7.6961561    791.93615  0.017977303  0.017188225            6 
 3672000   0.67150006   -7.6798287    792.01045  0.017974093  0.017182941            6 
 3673000   0.67836815   -7.6841246    789.59146  0.017914318  0.017177657           11 
 3674000   0.65310299    -7.678433    792.37086  0.017972484  0.017172381            6 
 3675000   0.65344567   -7.6933746    788.92925  0.017889552  0.017167097            5 
 3676000   0.66406392   -7.6898366    789.06761  0.017887822  0.017161818            5 
 3677000   0.65786274     -7.66243    789.98177  0.017903675  0.017156548            6 
 3678000   0.65651511    -7.708576    788.98872  0.017876308  0.017151255            5 
 3679000   0.67755154   -7.6598231    791.22063  0.017922004  0.017145977            4 
 3680000   0.65903259   -7.6793977    790.00491  0.017889604  0.017140711            4 
 3681000   0.66933004   -7.6649256    789.86367  0.017881546  0.017135432            9 
 3682000   0.64989054    -7.669918    790.43896   0.01788971  0.017130152           13 
 3683000   0.66156929   -7.6878589    789.81253  0.017870679  0.017124872            7 
 3684000   0.66451165   -7.6858703    789.65184  0.017862193  0.017119597           11 
 3685000   0.66492723   -7.6901084    788.32091  0.017827248  0.017114313           10 
 3686000   0.67487827   -7.6901063    789.01884   0.01783819   0.01710903           12 
 3687000   0.66088561   -7.6841609    789.30001  0.017839707  0.017103747            9 
 3688000   0.65972475   -7.6645597    790.50692  0.017862141  0.017098464           14 
 3689000   0.66332593   -7.6990857    790.20448  0.017850467  0.017093182           14 
 3690000    0.6601425   -7.6837867    789.93405  0.017839522    0.0170879            6 
 3691000   0.66489044   -7.6800439    789.94939  0.017835036  0.017082614            8 
 3692000   0.66696565   -7.7063013    788.50919  0.017797697  0.017077328            8 
 3693000   0.64240423   -7.7174674    789.75469  0.017820983  0.017072033            6 
 3694000   0.66663714   -7.7092637    789.47673  0.017809888  0.017066748            6 
 3695000   0.66108981   -7.7107774    790.11533  0.017819471  0.017061473            9 
 3696000   0.66802089   -7.6823096    789.40278  0.017798584  0.017056215            6 
 3697000   0.64603228   -7.7046543    790.44602  0.017817285  0.017050965            5 
 3698000   0.64539297   -7.6842183    790.59003  0.017815712  0.017045707            8 
 3699000   0.66189724   -7.6918908    791.24007   0.01782554  0.017040442           13 
 3700000   0.65379878   -7.6949756    788.93549  0.017768817  0.017035175           16 
 3701000   0.66689194   -7.6785565     789.3107  0.017772465  0.017029916           13 
 3702000   0.66272431   -7.7042299    789.11572  0.017763275  0.017024658            5 
 3703000   0.66620189   -7.6642126    789.74621  0.017772667  0.017019399            4 
 3704000   0.66389702   -7.6757683    789.46313    0.0177615  0.017014149            3 
 3705000   0.64153727   -7.6954917    789.43038  0.017755969  0.017008895            5 
 3706000   0.64471131   -7.7118354    789.49309  0.017752588  0.017003639            4 
 3707000   0.65622757   -7.7047706    789.85321  0.017755894  0.016998389            4 
 3708000   0.65439718   -7.6811165    790.76213  0.017771533  0.016993145            3 
 3709000      0.65091   -7.6839228     789.4017  0.017736176  0.016987907            7 
 3710000   0.65431988   -7.7221561    790.16697  0.017748584  0.016982671            6 
 3711000   0.64831266    -7.680904    790.66525  0.017754991  0.016977449            3 
 3712000   0.66574657   -7.6966642    790.97962  0.017757265  0.016972237            4 
 3713000    0.6608317   -7.7052836    791.62773  0.017767029  0.016967022            5 
 3714000   0.66541988   -7.6995016    790.74357  0.017742406  0.016961796            5 
 3715000    0.6533946   -7.7017552    790.91221  0.017741413  0.016956573            4 
 3716000    0.6562983   -7.7121735    790.61808  0.017730043  0.016951364            5 
 3717000   0.64724632   -7.6690154    792.53954  0.017768351  0.016946157            4 
 3718000   0.67416636   -7.6766645    791.71365  0.017745061  0.016940942            5 
 3719000   0.65636153   -7.6991017    791.05717   0.01772558  0.016935737            2 
 3720000   0.65251315   -7.6971129    791.29294  0.017726096  0.016930538            3 
 3721000   0.65832029   -7.6903688    790.81391  0.017710604  0.016925335            4 
 3722000   0.65629872   -7.6692906    790.91401  0.017708087  0.016920123            7 
 3723000    0.6519134   -7.6933106    792.36997   0.01773592  0.016914922           10 
 3724000   0.65650172   -7.6976878    791.42287  0.017709964  0.016909711            6 
 3725000   0.64740133   -7.6952285    790.01746  0.017673769  0.016904499            8 
 3726000    0.6399271   -7.6920284    790.74718  0.017685346  0.016899297           18 
 3727000   0.65448491   -7.7011213    790.26837  0.017669895  0.016894088           15 
 3728000   0.64480133   -7.7033104    791.61488  0.017695254  0.016888871           30 
 3729000   0.66064277    -7.667584    790.09334  0.017656506  0.016883661           24 
 3730000   0.64958539   -7.7210728    789.39955  0.017636272  0.016878449           16 
 3731000   0.65125575   -7.7200254     788.1492  0.017603618  0.016873213           11 
 3732000   0.66203374   -7.7101181    789.69262  0.017633365  0.016867995           23 
 3733000    0.6377887   -7.7160813    790.83626  0.017654171  0.016862776           15 
 3734000   0.66619123    -7.710384    791.49142  0.017664065  0.016857576           20 
 3735000   0.65918104   -7.7164372    789.95304  0.017625012  0.016852376           18 
 3736000    0.6619181   -7.6928426    790.08067  0.017623141   0.01684718           14 
 3737000   0.65501122   -7.7106927    790.19362  0.017620944  0.016842014            7 
 3738000   0.65901936    -7.717571    790.33441  0.017619369  0.016836818           11 
 3739000   0.64148226   -7.7111984    790.03299  0.017607939  0.016831622            8 
 3740000   0.65934952   -7.6859835    789.98575  0.017602178  0.016826431            7 
 3741000   0.65970943   -7.6998666    790.66187  0.017612534  0.016821234            9 
 3742000   0.63968481   -7.7194436    791.39782  0.017624217   0.01681604            6 
 3743000   0.64978798   -7.7148591    791.03824  0.017611502  0.016810842           16 
 3744000   0.64043401   -7.7049206    790.72776  0.017599888  0.016805648           20 
 3745000   0.65460802   -7.7130472    790.04984  0.017580103  0.016800451            9 
 3746000   0.65577583   -7.7146992    791.26774  0.017602504  0.016795247            5 
 3747000   0.64285842    -7.728842    790.42931  0.017579159  0.016790053            7 
 3748000   0.65946014   -7.7076813    790.40209  0.017573864  0.016784851            9 
 3749000   0.64971922   -7.7080457    790.82835  0.017578651  0.016779656           11 
 3750000   0.65175493   -7.7022674    791.27057  0.017583791  0.016774467            6 
 3751000    0.6559131   -7.7122766    790.79168  0.017568464  0.016769276            9 
 3752000   0.65317643   -7.6933866     791.1588  0.017571935  0.016764096            5 
 3753000   0.66813583   -7.6991815    789.73085  0.017535546  0.016758915            5 
 3754000   0.65202461   -7.7165919    790.71687  0.017552763  0.016753727            6 
 3755000   0.65452489   -7.7181155     789.3384  0.017517497  0.016748536            6 
 3756000   0.65763943   -7.7058624    789.85197  0.017524227  0.016743363            6 
 3757000   0.66665605   -7.7127668    790.45863  0.017533019  0.016738191           10 
 3758000   0.65892937   -7.7144612    790.54183  0.017530199  0.016733011            7 
 3759000   0.65671994   -7.7059167    790.35497  0.017521392  0.016727834            7 
 3760000   0.64862661   -7.7104549    790.12485  0.017511632  0.016722661           15 
 3761000   0.64659679   -7.6933215    791.30766  0.017533184  0.016717491            7 
 3762000   0.65306997    -7.702273    791.89145  0.017541455  0.016712326            9 
 3763000   0.65257757   -7.7182263    791.49625  0.017528042  0.016707161           11 
 3764000   0.64278889   -7.7291163     791.0962  0.017514528  0.016701987            5 
 3765000   0.65799549   -7.7008725    791.48729  0.017518532  0.016696824           23 
 3766000   0.64273727   -7.7236167    790.69755  0.017496405  0.016691653           14 
 3767000   0.64130358   -7.7318193    790.17273  0.017480151  0.016686475           12 
 3768000    0.6477077    -7.724801    790.94293  0.017492545  0.016681298           13 
 3769000    0.6455302   -7.6995401     790.3397  0.017474567  0.016676138           13 
 3770000   0.64355627   -7.7291502    790.71244  0.017478171  0.016670985           11 
 3771000     0.652521    -7.695414    791.81724   0.01749795  0.016665823            8 
 3772000   0.65617359   -7.7230746    791.56313  0.017487697  0.016660659            9 
 3773000   0.66368487   -7.7149202    789.20104  0.017430891  0.016655486           15 
 3774000   0.64629103   -7.7358847     790.5621  0.017456326   0.01665032           11 
 3775000   0.63352231   -7.6988125    790.87446  0.017458597  0.016645168            5 
 3776000   0.65534149   -7.7206195    790.18072  0.017438664  0.016640024           12 
 3777000   0.65252735   -7.6975297    790.46238  0.017440261  0.016634874           14 
 3778000   0.65420337   -7.7188048    790.49505  0.017436365  0.016629727            9 
 3779000   0.64371231   -7.7339358    791.20223  0.017447346  0.016624578            7 
 3780000   0.65023075   -7.7372151    789.35753  0.017402062  0.016619425            5 
 3781000   0.65411837   -7.7413289    789.57106  0.017402166  0.016614276           10 
 3782000   0.64566937   -7.7484699    791.27973  0.017435214  0.016609125           10 
 3783000   0.64457239   -7.7179392    792.34463  0.017454063  0.016603976           14 
 3784000   0.65120919   -7.7106197    791.74131  0.017436163  0.016598832            9 
 3785000   0.61954537   -7.7159989    792.28488  0.017443525  0.016593691           14 
 3786000   0.64603599   -7.7245402    791.61428  0.017424157  0.016588545           13 
 3787000   0.64715157   -7.7240496    790.01719  0.017384411  0.016583408           20 
 3788000   0.64603163   -7.7148497    790.71779  0.017395235  0.016578281           15 
 3789000   0.65497987   -7.7217415    791.90151  0.017416678  0.016573151            8 
 3790000   0.64417842   -7.7176499    790.59046  0.017383255  0.016568025            5 
 3791000   0.64894574   -7.7200815    792.52535  0.017421203  0.016562907            8 
 3792000    0.6490681   -7.7188956    791.66913  0.017397792  0.016557796           12 
 3793000   0.64747417   -7.7205831     791.7035   0.01739396  0.016552687           12 
 3794000   0.66458232   -7.7262557    790.37339  0.017360161  0.016547578           11 
 3795000   0.63731382   -7.7265038    792.19857  0.017395665  0.016542477           10 
 3796000   0.63348079   -7.7258734    791.26069  0.017370493  0.016537364           11 
 3797000   0.64548366   -7.7317426    789.20857   0.01732088  0.016532246           14 
 3798000    0.6250588   -7.7139334    790.72764   0.01734965  0.016527124            8 
 3799000   0.63593179   -7.7366459      790.608  0.017342459  0.016522009            9 
 3800000    0.6492336    -7.735402    789.18259  0.017306636  0.016516896            5 
 3801000   0.64456101   -7.7061411    789.92444  0.017318347   0.01651178            5 
 3802000   0.64114124   -7.7261398    792.21637  0.017364027  0.016506665            8 
 3803000   0.63845816   -7.7291143    791.60194  0.017345997  0.016501546           12 
 3804000   0.64723214   -7.7463996    790.95498  0.017327265  0.016496435            8 
 3805000   0.64897408   -7.7547955    791.87663  0.017342896  0.016491312            6 
 3806000   0.63754358   -7.7408312    792.17577  0.017344889  0.016486198            4 
 3807000   0.64528245   -7.7512967    791.13807  0.017317618  0.016481085           12 
 3808000   0.63810215   -7.7065929     791.9337  0.017330482  0.016475979            9 
 3809000   0.64159014   -7.7345364    790.41243   0.01729265  0.016470889            9 
 3810000   0.64449185   -7.7315088    792.09083  0.017324821  0.016465802           10 
 3811000   0.63822804   -7.7371349    790.87653  0.017293723  0.016460712           11 
 3812000   0.63901976   -7.7518921    791.84924   0.01731045  0.016455619            8 
 3813000   0.63313188   -7.7463703    790.80309  0.017283047  0.016450525           15 
 3814000   0.65176583   -7.7283347    790.49768  0.017271842  0.016445425            7 
 3815000   0.65358166   -7.7373309    792.83386  0.017318345  0.016440327           12 
 3816000   0.62881856   -7.7239019    789.71344  0.017245664  0.016435225            5 
 3817000   0.63091731   -7.7291678     791.4766  0.017279639  0.016430122            4 
 3818000    0.6318729   -7.7399349    791.37696  0.017272939  0.016425027            7 
 3819000   0.63821094   -7.7491208    790.91845  0.017258411  0.016419927            4 
 3820000    0.6293434   -7.7212799    790.92935  0.017254131  0.016414842            6 
 3821000   0.64232992   -7.7365234     791.3776  0.017259391  0.016409759            4 
 3822000   0.64021957    -7.723466    790.41748  0.017233941  0.016404679            5 
 3823000   0.63577073   -7.7397318    790.90587  0.017240079  0.016399588            4 
 3824000   0.65393844   -7.7169602    789.79132  0.017211282  0.016394494           13 
 3825000   0.64171499   -7.7420793    790.29993  0.017217864  0.016389402           10 
 3826000   0.65037905   -7.7304658    792.26901  0.017256251  0.016384316            5 
 3827000   0.64239851   -7.7571561    789.72827  0.017196417  0.016379222            5 
 3828000   0.63515706   -7.7336173    789.67415  0.017190747  0.016374129            5 
 3829000   0.63815133   -7.7495124     791.3137   0.01722194  0.016369042            4 
 3830000   0.62502364   -7.7481279    789.65314  0.017181313  0.016363965            6 
 3831000   0.63050682   -7.7165226    791.23943  0.017211334  0.016358893            7 
 3832000   0.62333544   -7.7212293    792.84642  0.017241789  0.016353814            6 
 3833000   0.63947145   -7.7189221    792.59456  0.017231815  0.016348743            7 
 3834000   0.64347362   -7.7215805    792.72045  0.017230057  0.016343678            6 
 3835000   0.64504035   -7.7348973    791.94118  0.017208631   0.01633862            4 
 3836000   0.63455887   -7.7270267    792.73159  0.017221315  0.016333558            5 
 3837000   0.63992945   -7.7095788    792.09722   0.01720305   0.01632849            3 
 3838000   0.63756735   -7.7414013     791.5519  0.017186727  0.016323423           11 
 3839000   0.63973618    -7.734687    791.50321  0.017181193  0.016318356            4 
 3840000   0.63864243    -7.717855    792.07242  0.017189072  0.016313297            5 
 3841000   0.64620142   -7.7396493    790.68781  0.017154556  0.016308238            7 
 3842000   0.62832723   -7.7334634    791.52049  0.017168152  0.016303195            7 
 3843000   0.64038004   -7.7200255    791.52535   0.01716379  0.016298148            5 
 3844000    0.6182951   -7.7167079    793.00012  0.017191296  0.016293108            8 
 3845000   0.63503031   -7.7140784    789.74832  0.017116348  0.016288072            4 
 3846000   0.63550525   -7.7397361    789.99942  0.017117339  0.016283041            7 
 3847000   0.64210183   -7.7318528    791.49516   0.01714529  0.016278004           12 
 3848000   0.61505861    -7.747947    792.62081  0.017165211   0.01627297            9 
 3849000    0.6312755   -7.7443824     790.5122  0.017115099  0.016267919           12 
 3850000   0.63880047   -7.7544119    791.02421  0.017121736   0.01626288            6 
 3851000    0.6296222   -7.7438127    791.26205  0.017122437  0.016257848            7 
 3852000   0.63008611   -7.7436582    791.78204  0.017129241  0.016252819           11 
 3853000   0.62110771   -7.7500337    791.34559  0.017115356  0.016247778            9 
 3854000   0.63286291   -7.7216235    792.85023  0.017143449  0.016242748            7 
 3855000   0.65209694   -7.7381559    790.77367  0.017094113  0.016237716           18 
 3856000   0.63189844    -7.743756    790.85817  0.017091506  0.016232683            8 
 3857000    0.6335116    -7.733431    790.58301   0.01708113  0.016227645            9 
 3858000   0.63748651    -7.753639    790.77911  0.017080938  0.016222621            8 
 3859000   0.63101046   -7.7639993    791.59862  0.017094209  0.016217595           27 
 3860000   0.63385714   -7.7470827    791.27997  0.017082901  0.016212574           33 
 3861000   0.62368418   -7.7343522    791.67114  0.017086919  0.016207554           25 
 3862000   0.64186441   -7.7505891    792.14457   0.01709271  0.016202538           16 
 3863000   0.63344366   -7.7828348    793.00772  0.017106906  0.016197516           13 
 3864000   0.61454675   -7.7467161    790.96355  0.017058393  0.016192493           15 
 3865000   0.64056322   -7.7413859    792.58452  0.017088929   0.01618748           17 
 3866000   0.62481528   -7.7147604    789.86852  0.017025964  0.016182464           12 
 3867000   0.63089924   -7.7566982    791.71014  0.017061248  0.016177446           13 
 3868000   0.62547773   -7.7435646    791.23064  0.017046506  0.016172432           18 
 3869000   0.63757653   -7.7536981    791.48808  0.017047645  0.016167421           18 
 3870000   0.63061848   -7.7328824    793.69721   0.01709081  0.016162412           10 
 3871000    0.6245322   -7.7353447     792.7963     0.017067  0.016157403           19 
 3872000    0.6336636   -7.7649977    791.63775  0.017037658  0.016152391           14 
 3873000   0.65168102   -7.7372989    793.54835  0.017074368  0.016147385            9 
 3874000   0.64495272   -7.7422983     792.8034  0.017053937  0.016142383           14 
 3875000   0.64738808   -7.7395339     792.2918  0.017038533  0.016137393            9 
 3876000   0.61844711       -7.737    791.55648  0.017018328  0.016132402           13 
 3877000   0.62831569   -7.7242891    791.47418   0.01701217  0.016127413           11 
 3878000    0.6347042   -7.7593424    792.15306  0.017022371   0.01612242            6 
 3879000   0.64040623   -7.7632369    791.03095  0.016993876  0.016117431           15 
 3880000   0.64418186   -7.7105016    791.43033  0.016998074  0.016112441            6 
 3881000   0.62330991   -7.7296812    791.50657  0.016995331  0.016107458            9 
 3882000   0.63159332   -7.7404122    791.91426  0.016999705   0.01610248            6 
 3883000   0.63215751   -7.7440665     790.4797   0.01696454  0.016097493            7 
 3884000   0.62049538   -7.7523243    790.63964  0.016963604  0.016092499            5 
 3885000   0.64012209    -7.734205    791.50573  0.016977815  0.016087512            5 
 3886000   0.62547656   -7.7511751    791.14381  0.016965685  0.016082525            5 
 3887000   0.63285443   -7.7339269    792.02312  0.016980171   0.01607753            5 
 3888000   0.62832084   -7.7688472    791.97718  0.016974819  0.016072535            5 
 3889000   0.62903825   -7.7262885    791.18596    0.0169535  0.016067548            9 
 3890000   0.63141752   -7.7547637     793.1094  0.016990347  0.016062561            7 
 3891000   0.63517472   -7.7567462    792.09972  0.016964356  0.016057575            8 
 3892000   0.63227498   -7.7530499     792.7033  0.016972921  0.016052598            5 
 3893000   0.63714444   -7.7303243    791.49061  0.016942602  0.016047622            6 
 3894000   0.63859526   -7.7338824    792.06288  0.016950498  0.016042654            6 
 3895000   0.64583538   -7.7240815    791.74274  0.016939297   0.01603769            4 
 3896000    0.6205391   -7.7410992    791.51661  0.016930112   0.01603273            3 
 3897000   0.62481483   -7.7387376     793.0124  0.016957754  0.016027757           10 
 3898000   0.64201786     -7.75057       791.62  0.016923636    0.0160228            6 
 3899000   0.62700839   -7.7370695     792.0959  0.016929467  0.016017839           13 
 3900000   0.63935725     -7.75161    793.23086  0.016949377  0.016012863            6 
 3901000   0.62433582   -7.7437138    794.15424  0.016964758  0.016007899           12 
 3902000   0.63147408   -7.7525507    792.80499  0.016931595  0.016002942           10 
 3903000   0.61814599   -7.7283805    791.13391  0.016891577  0.015997982           10 
 3904000    0.6298575   -7.7646349    793.13146  0.016929889  0.015993021            6 
 3905000    0.6421126   -7.7564238    790.60803  0.016871704  0.015988063            7 
 3906000   0.62001067    -7.751935    792.42108  0.016906065  0.015983103            7 
 3907000   0.63396741   -7.7547556    792.36289  0.016900497  0.015978154            8 
 3908000   0.63144864   -7.7537436    791.41032   0.01687586  0.015973196           17 
 3909000   0.63756136   -7.7527657    791.27281  0.016868611  0.015968224           14 
 3910000   0.62656438    -7.767504    791.71943  0.016873816  0.015963264           11 
 3911000   0.61922907   -7.7689413    792.39359  0.016883866  0.015958303           13 
 3912000   0.62379489   -7.7642508    791.12777  0.016852586  0.015953347           12 
 3913000   0.62537792   -7.7317303    791.91643  0.016865074  0.015948417           11 
 3914000    0.6222909   -7.7598724    793.27173  0.016889621  0.015943482            7 
 3915000   0.63135976   -7.7513985    791.67176  0.016851251  0.015938548            5 
 3916000    0.6344126   -7.7656116    793.18991  0.016879254  0.015933602            8 
 3917000   0.61692498   -7.7687794    791.45244  0.016837981  0.015928664            9 
 3918000   0.63111183   -7.7806913    791.04205  0.016824954  0.015923719            6 
 3919000   0.62450089   -7.7715897    791.40382  0.016828354  0.015918775            7 
 3920000   0.63764999    -7.758615    791.56377  0.016827461  0.015913829           15 
 3921000   0.63755195   -7.7707616    791.51005  0.016822028  0.015908889           13 
 3922000   0.64170781   -7.7406271    791.94616  0.016827005  0.015903953            6 
 3923000   0.61986124   -7.7492413    791.76893  0.016818951  0.015899012            6 
 3924000   0.61672142   -7.7578096    791.04428  0.016799275  0.015894076            9 
 3925000   0.60830798   -7.7635326    792.47222  0.016825312   0.01588914            4 
 3926000   0.62131266   -7.7612472    790.72352  0.016783909  0.015884199           12 
 3927000   0.63082378   -7.7679622    790.95753  0.016784601  0.015879256            6 
 3928000   0.62173206   -7.7884952    791.13301  0.016784051  0.015874305            5 
 3929000   0.62648175   -7.7739039    790.08456  0.016757541  0.015869358            7 
 3930000   0.61268473   -7.7911724    792.73239  0.016809423  0.015864408           10 
 3931000   0.61980281   -7.7899651    793.06271  0.016812149  0.015859452            4 
 3932000    0.6291693   -7.7856071    792.62074  0.016798507  0.015854504            8 
 3933000   0.61175875   -7.7775472    790.68887  0.016753303  0.015849558            6 
 3934000   0.62885201   -7.7561057     792.0081  0.016776989  0.015844616           13 
 3935000   0.63644828    -7.767193    792.31737  0.016779275  0.015839674            9 
 3936000    0.6080051   -7.7958032    789.92974  0.016724461  0.015834734            8 
 3937000   0.63196529   -7.7883871    791.08059  0.016744573  0.015829791            7 
 3938000    0.6252372   -7.8098794    790.27741  0.016723324  0.015824852            8 
 3939000   0.61463206   -7.7829533    790.58591  0.016725605  0.015819902           14 
 3940000    0.6324054   -7.7852459    792.07198  0.016752791  0.015814966            6 
 3941000   0.61677747   -7.7676943    791.04313  0.016726785  0.015810028            9 
 3942000   0.62972284    -7.776207    792.21582  0.016747333  0.015805094            7 
 3943000   0.62219108   -7.7885209    789.62584  0.016688347  0.015800156           10 
 3944000   0.62135788   -7.7760328    792.37385  0.016742179  0.015795227           17 
 3945000    0.6223945   -7.7827483    792.26611  0.016735659  0.015790307            7 
 3946000   0.61097274   -7.7860805    790.55509  0.016695284  0.015785388            5 
 3947000    0.6254781   -7.7924966    791.24852  0.016705695  0.015780462            8 
 3948000    0.6136684   -7.7748343    789.88698  0.016672724   0.01577554            8 
 3949000   0.62880873    -7.787747    788.49008  0.016639024  0.015770616           15 
 3950000   0.61913008   -7.7909614    790.41481  0.016675418  0.015765701           16 
 3951000   0.63111231   -7.7976126    790.89938  0.016681418  0.015760788            6 
 3952000    0.6269055   -7.8021813    790.20311  0.016662515  0.015755871            6 
 3953000   0.63073215    -7.777286    790.12167  0.016656583  0.015750967            9 
 3954000   0.62013527    -7.771534    791.52437  0.016681933  0.015746053            8 
 3955000   0.61533121   -7.7956666    792.98463  0.016708484  0.015741147            3 
 3956000   0.61736322   -7.7897454    791.00475  0.016662554  0.015736244            7 
 3957000   0.60649847   -7.7903024    790.16995  0.016640762  0.015731348            4 
 3958000   0.62402673   -7.7924063    792.51188  0.016685866  0.015726451            5 
 3959000   0.61470831   -7.8001542    790.15101  0.016631957  0.015721551            4 
 3960000   0.60897202     -7.78781    790.91096  0.016643749  0.015716658            2 
 3961000    0.6253839   -7.7977598    792.01817  0.016662841  0.015711762            3 
 3962000   0.61850802   -7.7962848    792.02817  0.016658846  0.015706867            9 
 3963000   0.61987137   -7.7790524    791.21696  0.016637584  0.015701979            6 
 3964000   0.62877786   -7.7975088    791.93868   0.01664856  0.015697082            6 
 3965000   0.61723351   -7.7937503    792.78332  0.016662113  0.015692187            6 
 3966000    0.6222469   -7.7655406    791.19313  0.016624498  0.015687302            4 
 3967000   0.60099408   -7.7801868    792.14227  0.016640246  0.015682422            4 
 3968000   0.62951646   -7.7865732    790.52844   0.01660216  0.015677541            5 
 3969000   0.61171324   -7.7892988    792.10189  0.016631013  0.015672651            4 
 3970000   0.61088128   -7.7756515    791.23799   0.01660869  0.015667774            4 
 3971000   0.60716508   -7.7811262    791.82727  0.016616874  0.015662895            4 
 3972000   0.62827223   -7.7757787    793.06641  0.016638688  0.015658024            6 
 3973000   0.62041615   -7.7885171    792.30448  0.016618518  0.015653149            2 
 3974000   0.63544346   -7.7857801    791.86494  0.016605119  0.015648273            7 
 3975000   0.63050648   -7.7888519    790.26765  0.016567456  0.015643388            6 
 3976000   0.61035536   -7.7672997     792.2576  0.016604997   0.01563851            6 
 3977000   0.60876429   -7.8014695    791.89638  0.016593252  0.015633641            7 
 3978000   0.60220712   -7.7830077    793.23679  0.016617161  0.015628774            7 
 3979000   0.60409019   -7.7781795    790.81281  0.016562219  0.015623906            8 
 3980000   0.62592948   -7.8296615    791.65051  0.016575597  0.015619033            6 
 3981000   0.61053016   -7.7976718    790.76104  0.016552814   0.01561416            2 
 3982000   0.61300464   -7.7943349    791.19421  0.016557723  0.015609274            4 
 3983000   0.60841313   -7.7957001    790.47473  0.016538512  0.015604408            7 
 3984000   0.61818013   -7.7908127    791.23821  0.016550331  0.015599539            4 
 3985000   0.61931959   -7.8014841    790.73624  0.016535681  0.015594677            5 
 3986000   0.60908602   -7.8111747    790.62455  0.016529197  0.015589809            5 
 3987000   0.60447023   -7.8053778    790.97609  0.016532399  0.015584938            5 
 3988000   0.60150223   -7.7875286    790.68042  0.016522075  0.015580072           14 
 3989000   0.61616365   -7.8164544    790.87557   0.01652201  0.015575198           10 
 3990000   0.60457528    -7.795339     790.4194  0.016508342  0.015570335            7 
 3991000   0.60958794   -7.8021804    791.20542  0.016520618  0.015565479            5 
 3992000   0.61441374   -7.7924791    791.59614  0.016524635  0.015560612            4 
 3993000   0.60515056    -7.778531    790.38087  0.016495135   0.01555576            8 
 3994000   0.61729621   -7.8154887    791.62946  0.016517056  0.015550912            6 
 3995000   0.62040358   -7.7955543    791.51755  0.016510587  0.015546056           10 
 3996000   0.60816441   -7.7970777    791.34538  0.016502865  0.015541211            9 
 3997000   0.59822968    -7.809906    792.28383  0.016518302   0.01553637            9 
 3998000   0.62241994   -7.8005763    792.36844  0.016515934  0.015531538           10 
 3999000    0.6123053   -7.7988426    789.26106  0.016447051  0.015526705            6 
 4000000    0.6228512   -7.8059181    792.65926  0.016513734  0.015521868            8 
 4001000   0.61275075   -7.7991634    792.57066  0.016507762  0.015517031            6 
 4002000   0.60647876   -7.8157114    792.30069  0.016498015  0.015512199            7 
 4003000   0.61528676   -7.8077202    790.53281  0.016457091  0.015507362           12 
 4004000   0.60537064   -7.7998417    791.14678  0.016465759  0.015502535           10 
 4005000   0.60979036   -7.8060104     791.0594  0.016459829  0.015497701            4 
 4006000   0.61523406   -7.8076216    791.18878  0.016458412  0.015492863            6 
 4007000   0.60963852   -7.8129964    790.36453  0.016437163  0.015488023           15 
 4008000   0.61544919   -7.8024207    792.30876  0.016473486  0.015483189            5 
 4009000   0.60579728   -7.8164018    791.04485  0.016443104  0.015478356           10 
 4010000   0.60561543   -7.8031795    791.26945  0.016443671  0.015473523           10 
 4011000   0.60823904   -7.7953765    792.31234  0.016461239  0.015468693            9 
 4012000   0.60987996   -7.8165568     790.8409  0.016426572   0.01546387            9 
 4013000   0.61741422   -7.8001238    791.46373  0.016435413  0.015459044            8 
 4014000   0.62975623   -7.7964788    790.44917  0.016410255  0.015454227            7 
 4015000   0.60175295   -7.8207889    790.84314  0.016414345  0.015449401           10 
 4016000   0.60929509   -7.8202238    790.02724  0.016393327  0.015444576           10 
 4017000   0.61918343    -7.804618    791.99736  0.016430117  0.015439755            7 
 4018000   0.59956347   -7.8229159     791.8097  0.016422136  0.015434934            7 
 4019000   0.61084959   -7.8135354    793.01836  0.016443111  0.015430124            7 
 4020000   0.61784043   -7.8220868    791.61753  0.016409982  0.015425309            6 
 4021000   0.60467152   -7.8301979    790.26192  0.016377806  0.015420503            7 
 4022000   0.60404974   -7.7943267    791.95682  0.016408852  0.015415683            7 
 4023000   0.59730537   -7.8252165    790.25546  0.016369531  0.015410865           13 
 4024000   0.60632911   -7.8216876    791.07106  0.016382353  0.015406047            7 
 4025000   0.60611388   -7.8101247    791.83709  0.016394143   0.01540124            8 
 4026000   0.58378836   -7.8010429    791.36094  0.016380215   0.01539644            8 
 4027000   0.60442777   -7.8046118     791.5131  0.016379296  0.015391631            6 
 4028000   0.60829096    -7.792949    791.39042  0.016372691  0.015386824            8 
 4029000   0.59764015   -7.8107496    788.40366  0.016306852   0.01538202           10 
 4030000   0.60977022    -7.798344    790.99807  0.016356453  0.015377206            4 
 4031000   0.60584739   -7.8055538    792.45456  0.016382506  0.015372396            3 
 4032000   0.60937031   -7.8182168    790.81984  0.016344656   0.01536758            6 
 4033000   0.61658758   -7.8258977    790.34868  0.016330868  0.015362769           10 
 4034000   0.60300085   -7.8500736    789.94982   0.01631858  0.015357951            9 
 4035000   0.61178121   -7.8054837    791.15663   0.01633946  0.015353128            7 
 4036000   0.60643628   -7.8155402    791.00175  0.016332213  0.015348316           10 
 4037000   0.61058452   -7.7802525    790.94216  0.016326937  0.015343517           15 
 4038000   0.61149247   -7.8233422    790.36758  0.016311037  0.015338719           11 
 4039000   0.60146983   -7.7943795    791.22963  0.016324784  0.015333922           11 
 4040000   0.59788734   -7.8100873    792.49565  0.016346857  0.015329134            5 
 4041000   0.59933622   -7.7982255    790.44439  0.016300511  0.015324352            7 
 4042000   0.60138869   -7.8001933    791.84769   0.01632541  0.015319572            7 
 4043000   0.60144332   -7.7973461    789.91998  0.016281639  0.015314781            6 
 4044000   0.60940617   -7.8107852     790.7358  0.016294424  0.015309981            6 
 4045000    0.6058131   -7.7983502    792.63341  0.016329489  0.015305191            6 
 4046000   0.59605715   -7.8065323     790.8285  0.016288279  0.015300403            6 
 4047000   0.62005357   -7.7960586    789.20545  0.016250833  0.015295606            7 
 4048000   0.61102811   -7.8177411    791.03686   0.01628452  0.015290807            9 
 4049000   0.61932675   -7.8011784     789.8989  0.016257078  0.015286022            6 
 4050000   0.60025736   -7.7982681     790.2061  0.016259385  0.015281235            6 
 4051000   0.61398493   -7.8116323    791.91098  0.016290442  0.015276448           21 
 4052000   0.60893394   -7.8239321    790.53222  0.016258066  0.015271666            5 
 4053000    0.6089398   -7.8097401    792.57888  0.016296136  0.015266888           13 
 4054000   0.58497278   -7.7997264    791.90109  0.016278184   0.01526212            8 
 4055000   0.59116736   -7.8127836    789.92823  0.016233626  0.015257348            8 
 4056000   0.60082842   -7.8277264    790.02336  0.016231578   0.01525257           11 
 4057000   0.59563135   -7.8007449    791.20774  0.016251905  0.015247799            9 
 4058000    0.6103083   -7.7993929    792.03006  0.016264787  0.015243028            9 
 4059000   0.59532472   -7.8174726    790.24804  0.016224194  0.015238258            9 
 4060000   0.61381289   -7.8072843    790.00688  0.016215248  0.015233483            9 
 4061000   0.61058971   -7.7977035    792.07464  0.016253686  0.015228713            8 
 4062000    0.6061238   -7.7990003     791.6457  0.016240885  0.015223943            4 
 4063000   0.60236896   -7.8120337    790.71012  0.016217699  0.015219171            8 
 4064000   0.58193474    -7.796488    791.35978   0.01622703    0.0152144            5 
 4065000   0.59629985   -7.8121539    789.98403  0.016194835  0.015209633           13 
 4066000   0.60568793   -7.8065311    791.24065  0.016216606  0.015204866            5 
 4067000   0.60120819   -7.8101209    790.39354  0.016195261  0.015200105            6 
 4068000   0.59861415    -7.798502    790.01699  0.016183567   0.01519534            6 
 4069000   0.59871806   -7.8041488    790.66068  0.016192772  0.015190577            7 
 4070000   0.60030043   -7.8066006    790.35793  0.016182595  0.015185814            6 
 4071000    0.6006058   -7.8124538    792.71125  0.016226792  0.015181055            9 
 4072000   0.60116184   -7.8112464    790.63378  0.016180292   0.01517629            5 
 4073000   0.60601575   -7.8137241    790.05199  0.016164416  0.015171525            5 
 4074000   0.61126686   -7.8175137    792.21426  0.016204677  0.015166766            5 
 4075000   0.60004607   -7.7968316     790.9986  0.016175841  0.015162018            5 
 4076000   0.59373539    -7.820335    791.07696  0.016173474  0.015157266           14 
 4077000   0.58265824   -7.8347566    791.24281  0.016172897  0.015152504            6 
 4078000    0.5998178   -7.8400586    788.88203  0.016120689  0.015147748            3 
 4079000   0.60709296   -7.8098425    791.20171  0.016164127   0.01514299            4 
 4080000   0.59639444   -7.8366239    789.94137  0.016134423  0.015138228            7 
 4081000   0.61554564   -7.8405775    790.97823  0.016151642  0.015133474            4 
 4082000   0.58386441   -7.8136873    790.02697  0.016128266   0.01512871            4 
 4083000   0.59082264   -7.8391979    789.49353  0.016113428   0.01512395            7 
 4084000   0.58729326   -7.8325374    789.80436  0.016115825  0.015119189            7 
 4085000   0.60359452   -7.8074893    790.24861  0.016120943   0.01511443            8 
 4086000   0.58878685   -7.8203342     791.0054  0.016132432   0.01510969            9 
 4087000   0.60687337   -7.8170179    789.12387   0.01609012  0.015104947            6 
 4088000   0.59193892   -7.8201193    788.96275    0.0160829  0.015100195            7 
 4089000   0.60113642   -7.8233372    789.42107  0.016088307  0.015095434            8 
 4090000   0.58893863   -7.8356563     790.1461  0.016099146  0.015090686            7 
 4091000   0.60919964   -7.8229657    789.92832  0.016090775  0.015085927            6 
 4092000   0.59424218   -7.8426419    789.97767  0.016087848  0.015081173            5 
 4093000     0.617553   -7.8129555    790.40887  0.016092696  0.015076428            5 
 4094000   0.58289939   -7.8096205    789.26982   0.01606558  0.015071677            6 
 4095000   0.60093316    -7.842043    789.93063  0.016075104   0.01506693           12 
 4096000   0.59608679   -7.8169553    789.72413  0.016066978  0.015062192            5 
 4097000   0.59510558   -7.8420035    789.85841  0.016065788  0.015057452            6 
 4098000   0.59242207   -7.8153003    790.37915  0.016072457  0.015052722            9 
 4099000   0.58761421   -7.8058474    789.46128  0.016049876  0.015047982           10 
 4100000   0.61110242   -7.8313354    790.40013  0.016065043  0.015043256           11 
 4101000   0.59696912   -7.8066062    790.86367  0.016070545  0.015038532            8 
 4102000   0.60381383   -7.8455061    790.58308  0.016060927  0.015033811           11 
 4103000   0.59670384   -7.8153879    789.37606  0.016032498  0.015029085           12 
 4104000   0.58702182   -7.8202656    790.24983  0.016046333  0.015024361            6 
 4105000   0.59957209   -7.8519519    790.03808  0.016038126  0.015019635            4 
 4106000   0.60041276   -7.8351717    788.91133  0.016011352  0.015014911           15 
 4107000   0.59380566   -7.8190824    789.29368  0.016015211  0.015010176            7 
 4108000   0.59745551   -7.8468642     790.3547  0.016032836  0.015005448           15 
 4109000   0.59119187   -7.8720787    790.13908  0.016024562  0.015000719            6 
 4110000   0.60568283   -7.8336352    790.23721  0.016022652  0.014995988           10 
 4111000   0.59831332   -7.8493283     790.3041  0.016020111  0.014991264            8 
 4112000    0.5957872   -7.8303711    788.86013  0.015986951  0.014986539            7 
 4113000   0.59494527   -7.8327831    790.33353  0.016012917  0.014981813           15 
 4114000   0.61360034   -7.8455372    788.63697  0.015974659  0.014977086            9 
 4115000   0.58179881   -7.8333202    788.95393  0.015977196  0.014972365           13 
 4116000   0.59600426   -7.8179996    789.37284  0.015981795  0.014967645            6 
 4117000   0.59261716    -7.823319    790.06567  0.015991937  0.014962935            8 
 4118000   0.60447638   -7.8406861    790.71747  0.016001244  0.014958224            8 
 4119000   0.59414302   -7.8345541    789.28561  0.015968391  0.014953518            8 
 4120000    0.5917375   -7.8185227    790.05353  0.015980047  0.014948816            9 
 4121000   0.59181412   -7.8319077    787.54304  0.015925403  0.014944108            6 
 4122000   0.58900618    -7.828517    790.05067  0.015972236  0.014939407            6 
 4123000   0.58453388   -7.8343578    791.21794  0.015991954  0.014934722            4 
 4124000   0.59965299   -7.8179198    792.15251  0.016006961  0.014930037            6 
 4125000   0.59114394   -7.8282978    791.04759  0.015980759  0.014925354           12 
 4126000   0.58615943    -7.840896    790.93943  0.015974702  0.014920674            8 
 4127000   0.59984335   -7.8146575     790.3647  0.015959226  0.014915994           17 
 4128000   0.59861607   -7.8511417    790.09145  0.015949844  0.014911307            5 
 4129000   0.60531824   -7.8190986    789.64384  0.015936947  0.014906617           11 
 4130000   0.58704416   -7.8223214    789.42871  0.015928747  0.014901922            9 
 4131000   0.59363918   -7.8436853    790.06684  0.015937764  0.014897234           12 
 4132000   0.59226458   -7.8223275    789.79694  0.015928464  0.014892543           10 
 4133000    0.5910532   -7.8297274    789.94731  0.015927642  0.014887856           11 
 4134000   0.58936367   -7.8212334    789.65204  0.015917837  0.014883169            7 
 4135000   0.59163975   -7.8394862    789.80089  0.015916987  0.014878483           11 
 4136000   0.58979791    -7.832489    789.80104  0.015913141    0.0148738            7 
 4137000   0.58823728   -7.8319783    788.82852  0.015889705  0.014869112            8 
 4138000   0.58654143   -7.8571785    788.81405  0.015885574  0.014864428           10 
 4139000   0.59966691   -7.8345672    789.31035  0.015891728  0.014859741           13 
 4140000   0.59028368   -7.8095974    789.41836  0.015890064   0.01485506           17 
 4141000   0.59780021   -7.8510454    790.11044  0.015900154  0.014850381            8 
 4142000   0.58954291   -7.8433029    790.23301  0.015898781  0.014845701            8 
 4143000   0.58569339   -7.8396869     790.9796  0.015909961  0.014841015            8 
 4144000   0.59476734   -7.8363029    790.21213  0.015890688  0.014836337           11 
 4145000   0.57714925   -7.8437533    791.09303  0.015904564  0.014831671            8 
 4146000   0.58757641   -7.8463139    789.70222  0.015872773  0.014826993           10 
 4147000   0.57864007   -7.8306999    790.18185  0.015878584  0.014822322           10 
 4148000   0.57836078    -7.850614     789.7526  0.015866132  0.014817649            8 
 4149000   0.57966642   -7.8653955    789.52046  0.015857646  0.014812975            9 
 4150000   0.58432092    -7.858182    789.35522  0.015850506  0.014808308            6 
 4151000   0.58018005   -7.8224834    788.28253  0.015825153  0.014803641            6 
 4152000   0.57748935   -7.8413571    788.43753  0.015824453  0.014798977            8 
 4153000   0.59239369   -7.8513056    788.77134   0.01582734  0.014794313           10 
 4154000   0.59051734   -7.8472319    788.21082  0.015812286  0.014789645            8 
 4155000   0.59257462    -7.839035    790.34649  0.015851313  0.014784988            5 
 4156000   0.58469888    -7.836284    790.16488  0.015843858  0.014780327            6 
 4157000   0.59028502   -7.8720512    791.09873  0.015858767  0.014775666            6 
 4158000   0.57932032   -7.8369472    789.01032  0.015813098  0.014771014            6 
 4159000   0.58931585    -7.830798    789.11856  0.015811464  0.014766361            8 
 4160000   0.59692713   -7.8757135    790.54097  0.015836157  0.014761699           12 
 4161000   0.57963925   -7.8530964    789.60746  0.015813656  0.014757043           10 
 4162000   0.58147684   -7.8565844    788.63163  0.015790318  0.014752383           10 
 4163000   0.59176056   -7.8435514      789.714  0.015808191  0.014747733            8 
 4164000   0.58541855    -7.862545    790.27591   0.01581564  0.014743081            9 
 4165000   0.58857183   -7.8594705    791.92571  0.015844852  0.014738432            6 
 4166000    0.5867634   -7.8742454    790.70438  0.015816618  0.014733783            6 
 4167000   0.58243567   -7.8563417    788.96575  0.015778053  0.014729135           11 
 4168000   0.57633733   -7.8271316     788.8012  0.015770977  0.014724489           10 
 4169000    0.5889684   -7.8515478    789.33737  0.015777912  0.014719848            5 
 4170000   0.58730924   -7.8598401    788.81387  0.015763666  0.014715206            7 
 4171000   0.57443024   -7.8671867     789.3805  0.015771208  0.014710567            8 
 4172000   0.58410365   -7.8581077    788.89535  0.015757737   0.01470592            8 
 4173000   0.59495118   -7.8554952    790.03087  0.015776637  0.014701284            6 
 4174000   0.57694562   -7.8601807    789.25472  0.015757361  0.014696648            6 
 4175000   0.60300331   -7.8581909    791.32474  0.015794905  0.014692016            6 
 4176000   0.57951501   -7.8702361    789.96422  0.015763973  0.014687388            5 
 4177000   0.58838508   -7.8537562    790.85561  0.015777983  0.014682762           10 
 4178000   0.57746932   -7.8694546    787.62587  0.015709787  0.014678132            6 
 4179000   0.57668708   -7.8736008     788.7883  0.015729208  0.014673502           13 
 4180000   0.58934264   -7.8797494    789.07074  0.015731075  0.014668867           12 
 4181000   0.57000443   -7.8637251    788.89378  0.015723786  0.014664235           12 
 4182000   0.58599791   -7.8580907    788.87127  0.015719577  0.014659612            6 
 4183000   0.58444328    -7.867318    789.68064  0.015731944  0.014654982            3 
 4184000   0.57928852   -7.8587839    789.84859  0.015731529  0.014650353            5 
 4185000   0.59876212   -7.8671533    788.64138  0.015703731  0.014645734            5 
 4186000   0.56842729    -7.863253    790.67992  0.015740562  0.014641109            6 
 4187000   0.58080472   -7.8445581    789.42794  0.015711885  0.014636486            5 
 4188000   0.58689598   -7.8762744    789.26937  0.015704978  0.014631869            6 
 4189000   0.57616987    -7.844219    789.27112  0.015701264  0.014627249            5 
 4190000   0.58512531   -7.8549035    788.88242  0.015689786  0.014622633            5 
 4191000   0.58242112   -7.8537555    789.15226  0.015691407  0.014618015            4 
 4192000   0.58238319   -7.8709526    790.99864  0.015724369  0.014613404            6 
 4193000   0.57894383   -7.8517841    789.97085  0.015700192  0.014608794            6 
 4194000   0.58185393   -7.8598432    787.49044  0.015647163  0.014604185           12 
 4195000   0.57951949   -7.8514248    789.46361   0.01568263  0.014599575            5 
 4196000   0.57911924   -7.8700437    789.83522  0.015686273  0.014594972            6 
 4197000   0.58222959   -7.8631086    788.39368  0.015653913  0.014590364            7 
 4198000   0.58292127   -7.8529317    789.72491   0.01567661  0.014585769            9 
 4199000   0.56196419   -7.8764423    790.99115  0.015698006  0.014581171            6 
 4200000   0.59006042    -7.873116    789.63452  0.015667352  0.014576565            5 
 4201000    0.5713335   -7.8723453    788.72272  0.015645535  0.014571966            7 
 4202000   0.57746688   -7.8755277    790.35896  0.015674262   0.01456737            8 
 4203000   0.57774558   -7.8742462    790.00721  0.015663558  0.014562767           10 
 4204000   0.57445178   -7.8662813    789.81118  0.015655946  0.014558162           11 
 4205000   0.59391099   -7.8717281    789.49574  0.015645972  0.014553563            8 
 4206000   0.57438581   -7.8528296    787.95192  0.015611664  0.014548966           11 
 4207000   0.57979997   -7.8717565    789.72273   0.01564303  0.014544373            6 
 4208000   0.57300295   -7.8631749    788.96539  0.015624315  0.014539783           11 
 4209000   0.56575554   -7.8708672    789.40181  0.015629243  0.014535191            9 
 4210000   0.57415987   -7.8593326    788.47889  0.015607262  0.014530608           18 
 4211000   0.56655413   -7.8721032    789.00641  0.015613995  0.014526025            7 
 4212000   0.57163214   -7.8863968    786.85917  0.015567806  0.014521429           13 
 4213000    0.5954627   -7.8856552    788.13027  0.015589253  0.014516835           13 
 4214000   0.58434758    -7.853892    790.11987  0.015624899  0.014512246           11 
 4215000   0.56779481   -7.8898223    788.58129  0.015590773  0.014507653           10 
 4216000   0.56785534   -7.9072102    788.31902  0.015581891  0.014503066           11 
 4217000   0.57274132   -7.8962268    789.73654  0.015606208   0.01449848           13 
 4218000   0.58496994   -7.9046144    789.57091  0.015599236  0.014493895            6 
 4219000   0.57181486   -7.8923071    788.94019   0.01558308  0.014489309           12 
 4220000   0.57297652   -7.8706348    790.12477   0.01560278  0.014484732            9 
 4221000   0.56779173   -7.8849811    788.61667   0.01556931  0.014480154           15 
 4222000   0.58810203   -7.8854097    788.39707  0.015561288  0.014475579           11 
 4223000   0.57565801   -7.8920921    789.32865  0.015575986  0.014471001           10 
 4224000   0.57396321   -7.9173353    787.75473  0.015541247  0.014466414           12 
 4225000   0.56962267   -7.8996117    787.68522  0.015536198  0.014461839            9 
 4226000   0.58423858   -7.8950115    787.84184   0.01553561  0.014457261            9 
 4227000   0.57293253   -7.9026056    789.86161  0.015571753  0.014452682            7 
 4228000   0.57529207   -7.8968547    789.72198  0.015565318  0.014448111           12 
 4229000   0.58229471    -7.887833    789.45762  0.015556428   0.01444354           18 
 4230000   0.57545603   -7.8921331    788.43442  0.015532593  0.014438966           10 
 4231000    0.5699584   -7.8845106     789.0147  0.015540351  0.014434394           16 
 4232000   0.57183721   -7.9038378    788.19796  0.015520596  0.014429821            9 
 4233000   0.58475689   -7.8787828    787.99022   0.01551284  0.014425254            8 
 4234000   0.57938704   -7.8761275    788.78715  0.015524861  0.014420694           17 
 4235000   0.56918587    -7.885861    789.71819  0.015539516  0.014416134           11 
 4236000   0.57801288   -7.8761359    789.40005  0.015529589  0.014411573           15 
 4237000   0.57746025   -7.8849596    787.29615  0.015484544  0.014407018           20 
 4238000   0.57879014   -7.9003095    788.05876  0.015495886  0.014402461           16 
 4239000   0.56762542    -7.897443    788.50907  0.015501083  0.014397901           13 
 4240000   0.58581239   -7.9019936    788.82552  0.015503646  0.014393343           15 
 4241000   0.57554554   -7.9012643    788.19855  0.015487671  0.014388784           13 
 4242000   0.56767542   -7.9091001    788.47738  0.015489497  0.014384226           14 
 4243000   0.57392763   -7.8866632    787.68806  0.015470344  0.014379673           11 
 4244000   0.57226588   -7.8947684    787.04426  0.015454058  0.014375119           11 
 4245000   0.57155204   -7.8796249    786.52768  0.015440276  0.014370567           17 
 4246000   0.55672968   -7.8897085    789.12747  0.015487664  0.014366015           10 
 4247000   0.57480054   -7.8993902    788.78889  0.015477374  0.014361469           12 
 4248000   0.57230474   -7.8872744    788.39799  0.015466062  0.014356922            7 
 4249000   0.58345756   -7.9001152    787.57606  0.015446302  0.014352378           12 
 4250000   0.56831533   -7.8854606    789.01895   0.01547096  0.014347835           12 
 4251000   0.56825637   -7.8899865    787.30478  0.015433717  0.014343292            9 
 4252000   0.57451065   -7.8997352    788.34558  0.015450486  0.014338751           11 
 4253000   0.56571336   -7.8853851    788.22372  0.015444465  0.014334209           11 
 4254000   0.56922805   -7.8919157    786.74779  0.015411922  0.014329674           10 
 4255000   0.58092421   -7.8977852    787.42955  0.015421652  0.014325132           10 
 4256000   0.56473028   -7.9020061     788.0978  0.015431113  0.014320598           10 
 4257000   0.56961897   -7.9010237    788.52927  0.015435934  0.014316067           10 
 4258000   0.55860866   -7.8910793    787.60323  0.015414186  0.014311537            8 
 4259000   0.56414789   -7.9089261    789.37566  0.015445247  0.014307008           18 
 4260000   0.56685169   -7.8909583    788.15176  0.015417679  0.014302479            5 
 4261000   0.56245022    -7.878673    787.45776  0.015400488  0.014297957            9 
 4262000   0.57234373   -7.8961304    788.58729   0.01541896  0.014293435           16 
 4263000   0.56177356   -7.8957293     789.2199  0.015427709  0.014288915            8 
 4264000   0.57704523   -7.8950747    787.35799  0.015387703  0.014284393            9 
 4265000   0.56902984   -7.9225436    788.93453  0.015414899  0.014279865           12 
 4266000   0.55982436   -7.9027266    789.48256  0.015421991  0.014275345            6 
 4267000   0.57061535   -7.9050411    788.72143  0.015403512  0.014270831            6 
 4268000   0.56978537   -7.8985315    787.64208  0.015378828  0.014266317            5 
 4269000   0.56732644    -7.887945    787.23902  0.015367358  0.014261806            5 
 4270000   0.57307865   -7.8822438    789.57021  0.015409255  0.014257296            9 
 4271000   0.57387711   -7.8807261    787.10002   0.01535745  0.014252786            4 
 4272000   0.57859677   -7.8997494    788.19465  0.015375208  0.014248273            8 
 4273000   0.55470525    -7.861105    788.71789  0.015381814  0.014243764            8 
 4274000   0.56873681   -7.8855044    788.30943  0.015370251  0.014239259            9 
 4275000    0.5628669   -7.9119166    787.66412  0.015354076  0.014234756           11 
 4276000   0.56634429   -7.9082614    789.99255  0.015395863  0.014230257           10 
 4277000   0.55914265   -7.9156402    788.23106  0.015357943  0.014225753            7 
 4278000   0.56269194   -7.9168163    788.62002   0.01536193  0.014221257            5 
 4279000   0.56959596   -7.8914352    789.16202  0.015368895  0.014216762            7 
 4280000   0.55389717   -7.8884583    788.50721  0.015352555  0.014212267            7 
 4281000   0.56492907   -7.9093025    788.44026  0.015347665  0.014207773            6 
 4282000   0.57070391   -7.9051381    787.88351  0.015333246  0.014203275            7 
 4283000   0.56902733   -7.9110869    789.36885  0.015358566  0.014198776            4 
 4284000   0.55754762   -7.9125148     787.2068  0.015312924  0.014194276           11 
 4285000   0.57302064   -7.8938809    788.45251  0.015333577  0.014189783            6 
 4286000   0.57418015   -7.8925214    788.49427  0.015330811  0.014185294           12 
 4287000    0.5743275   -7.9125295    787.20998   0.01530227  0.014180809            7 
 4288000   0.56422149   -7.9035766    787.89375   0.01531199  0.014176318           18 
 4289000   0.57322976   -7.8932676    788.22556  0.015314867   0.01417183            8 
 4290000   0.54930296   -7.9105558    787.23983  0.015292149   0.01416734           10 
 4291000   0.56842387   -7.9026233    788.15173  0.015306295   0.01416285           12 
 4292000   0.56739909   -7.8955677    787.37167  0.015287583  0.014158354           10 
 4293000   0.56790018    -7.881925    787.36706  0.015283932  0.014153866            6 
 4294000   0.56435287   -7.9221821    788.05915  0.015293804  0.014149379            8 
 4295000   0.55614054    -7.883743    788.75322   0.01530371  0.014144897            8 
 4296000   0.56924784    -7.911281    787.60925  0.015277957  0.014140412           12 
 4297000   0.56610511   -7.8954099    786.50013  0.015252892  0.014135931            9 
 4298000   0.56544363   -7.8976882     787.3999  0.015266789  0.014131449           13 
 4299000   0.55857543   -7.9109363    787.38776  0.015263002  0.014126965            7 
 4300000   0.56298517   -7.9113636    787.59097  0.015263391  0.014122488            8 
 4301000   0.56733758   -7.9035503    787.47489  0.015257593  0.014118008           14 
 4302000   0.57088488   -7.9199847    788.78837   0.01527949  0.014113526           10 
 4303000   0.56868453   -7.9232588    787.26948  0.015246523  0.014109052           10 
 4304000    0.5588332   -7.9214203    788.41638  0.015265187  0.014104574           10 
 4305000   0.55895407   -7.9125532    787.62005  0.015246226  0.014100097            8 
 4306000   0.57638247    -7.909481     786.9169  0.015229078  0.014095626            9 
 4307000   0.56465407    -7.913265     787.8614  0.015243816  0.014091158            8 
 4308000   0.56206948   -7.8997229    787.91553  0.015241325  0.014086691            8 
 4309000   0.56459461   -7.9171905    787.33529  0.015226566  0.014082226            9 
 4310000   0.56449457   -7.9176949    787.10909   0.01521866  0.014077765           13 
 4311000   0.57076026   -7.9112091    788.15644  0.015235375  0.014073302            9 
 4312000   0.56518472    -7.916387    786.87744  0.015207124  0.014068841            6 
 4313000   0.57032362     -7.91682    788.59648  0.015236813  0.014064383           11 
 4314000    0.5596432   -7.9193167    787.74583  0.015216849  0.014059918           15 
 4315000   0.56273821    -7.911912    788.11412  0.015220435  0.014055459            9 
 4316000   0.56243128   -7.9230223    786.93733  0.015194187  0.014051001           10 
 4317000    0.5586414   -7.9062194    787.95465  0.015210305  0.014046549           13 
 4318000   0.55294246    -7.903654    786.93288  0.015187063  0.014042101           11 
 4319000   0.57900744   -7.9111348    787.94475  0.015203071  0.014037659           10 
 4320000   0.56224883   -7.9130263    787.37576  0.015188576   0.01403322           12 
 4321000   0.55646496   -7.9127114    788.66684   0.01520996  0.014028778           13 
 4322000   0.55761638   -7.9124892    789.25814  0.015217842  0.014024341           11 
 4323000   0.56115583    -7.926289    787.55284  0.015181449  0.014019902            5 
 4324000   0.55165937   -7.9152429    786.68772  0.015161265  0.014015458            6 
 4325000   0.56868944   -7.8879857    787.14255  0.015166523  0.014011017            8 
 4326000   0.57140241   -7.9292675    787.69498  0.015173659  0.014006581           13 
 4327000   0.56762409   -7.9156541    786.90446  0.015154928  0.014002148            8 
 4328000   0.56623058   -7.8968192    788.25286  0.015177389  0.013997717            8 
 4329000   0.55730277   -7.9200369    787.43332  0.015158107  0.013993285           17 
 4330000   0.55092892   -7.9352685    787.67055  0.015159172  0.013988859           10 
 4331000   0.54884777   -7.9135881    788.54055  0.015172411  0.013984436           20 
 4332000   0.56912129   -7.9446583    786.84626  0.015136316  0.013980012           17 
 4333000   0.55786402   -7.9164482    787.85535   0.01515223  0.013975583            7 
 4334000   0.55058798    -7.921948    787.48189  0.015141553  0.013971156           18 
 4335000   0.55827476   -7.9044319    788.63417  0.015160211  0.013966734           12 
 4336000   0.55695361   -7.9204209    788.03911  0.015145278  0.013962314            8 
 4337000   0.57215921   -7.9108242    787.84905  0.015138134  0.013957891           11 
 4338000    0.5541345   -7.9233397    788.02407  0.015138007  0.013953477           21 
 4339000   0.54489095   -7.9157589    786.70532   0.01510919  0.013949063           24 
 4340000   0.55991355    -7.903795       786.87  0.015108871  0.013944649           20 
 4341000   0.56882595   -7.9207552    787.43352  0.015116208  0.013940235           14 
 4342000   0.55978875   -7.9375307    787.38327  0.015111762  0.013935817           12 
 4343000   0.55007037    -7.908155    787.31358  0.015106946  0.013931399           16 
 4344000    0.5608731   -7.9237854    786.76723  0.015092987  0.013926988           19 
 4345000   0.55078237   -7.9406344     786.9877  0.015093742  0.013922574           14 
 4346000   0.54998983    -7.928344    788.20467  0.015113604  0.013918163           10 
 4347000   0.56311167   -7.9376488    787.54669  0.015097513  0.013913758           13 
 4348000   0.54732208   -7.9024544    786.04631  0.015065285  0.013909349           14 
 4349000   0.56465091   -7.9220163    787.79713  0.015095369  0.013904942           10 
 4350000   0.55718894   -7.9298224     788.5329  0.015105994  0.013900537           10 
 4351000   0.55724216   -7.9264044    786.76018   0.01506857  0.013896136           10 
 4352000   0.55171897   -7.9352486    786.70502  0.015064051  0.013891734           15 
 4353000   0.56908575   -7.9140529    787.91307  0.015083718  0.013887336            9 
 4354000    0.5459263   -7.9252468     788.7548  0.015096363   0.01388294           10 
 4355000   0.55712614   -7.9159344    786.89398   0.01505729  0.013878542           13 
 4356000   0.55741588   -7.9296787    787.12223    0.0150582  0.013874151           13 
 4357000   0.56895886   -7.9258901    787.58431  0.015063582  0.013869757           13 
 4358000   0.55203219   -7.9275836    787.04373  0.015049788  0.013865366           11 
 4359000   0.56146978   -7.9412874    786.35748  0.015033216  0.013860972           12 
 4360000      0.54215   -7.9219754    786.06595  0.015024196  0.013856582            9 
 4361000   0.55915271    -7.931789    787.63307  0.015050697  0.013852192            9 
 4362000   0.54925155   -7.9241104    787.18902  0.015038763  0.013847809           18 
 4363000   0.54799761   -7.9303205    788.66699  0.015063546  0.013843431           14 
 4364000   0.54559603   -7.9336957    786.48447  0.015018417  0.013839049           19 
 4365000   0.55760953   -7.9334697    787.54163  0.015035159  0.013834661           16 
 4366000   0.55000495   -7.9119024    786.88906   0.01501926   0.01383028            8 
 4367000   0.55323182   -7.9173995    787.07659  0.015019399  0.013825899           11 
 4368000   0.55398404   -7.9336309    788.51515  0.015043406  0.013821522            7 
 4369000   0.56048176   -7.9350737    787.69364  0.015024293  0.013817151           10 
 4370000   0.55232532   -7.9261707     787.6255  0.015019556   0.01381278            6 
 4371000   0.56443222   -7.9214805     788.1228  0.015025601  0.013808409            7 
 4372000   0.55792268   -7.9353589    786.03199  0.014982311  0.013804039           12 
 4373000   0.55325753   -7.9340492    787.32296  0.015003487  0.013799667           19 
 4374000   0.55295858   -7.9502114    786.69808  0.014988151  0.013795299           11 
 4375000   0.54859928   -7.9288917    787.87072  0.015007061  0.013790928           10 
 4376000   0.54483861   -7.9470252    786.73096  0.014981927  0.013786556           14 
 4377000   0.56337955   -7.9456461    787.51417  0.014993416  0.013782189            7 
 4378000   0.54911435   -7.9374491    787.26323  0.014985215  0.013777823           12 
 4379000   0.55767486   -7.9467781      787.338  0.014983215  0.013773456            6 
 4380000   0.53475704   -7.9329064    787.83825  0.014989312  0.013769095           13 
 4381000   0.55062843   -7.9402882    787.15855  0.014972962  0.013764729           14 
 4382000   0.54636459   -7.9714447    786.31647  0.014953531  0.013760363           11 
 4383000   0.55806195   -7.9479365    787.73388  0.014977068  0.013756003           16 
 4384000   0.57047477   -7.9355993    786.90564  0.014957908  0.013751638            8 
 4385000   0.55428994   -7.9476497    787.62836  0.014968232  0.013747283           10 
 4386000   0.56138008    -7.928346    786.77657  0.014948635  0.013742927            7 
 4387000   0.57108917   -7.9424683    786.94672   0.01494846   0.01373857           10 
 4388000   0.54173617   -7.9424783    788.54268  0.014975362  0.013734215           12 
 4389000   0.55519387   -7.9436919    786.39665  0.014931204  0.013729861           10 
 4390000   0.55446088   -7.9345387    786.26944  0.014925388  0.013725507           14 
 4391000   0.55148508   -7.9372147    785.65668   0.01491036  0.013721156           13 
 4392000   0.54753665   -7.9336289    786.94974  0.014931499  0.013716799            9 
 4393000   0.54708654   -7.9514467    786.81613  0.014925566  0.013712452           16 
 4394000   0.55453967   -7.9388578    787.42807  0.014933775  0.013708109           14 
 4395000   0.54463376   -7.9428297    787.98236  0.014940887  0.013703763            9 
 4396000   0.55676797    -7.922002    787.36145  0.014925718  0.013699418           14 
 4397000   0.54902138   -7.9495214    787.40297   0.01492311  0.013695076           11 
 4398000   0.54896129   -7.9520672    785.89382  0.014891121   0.01369073           14 
 4399000   0.55141404   -7.9373932    785.94973  0.014888795  0.013686381           10 
 4400000   0.54481687   -7.9481707    787.97227  0.014923717  0.013682037           12 
 4401000   0.54434855   -7.9498661    787.67157  0.014914632  0.013677696           13 
 4402000     0.553756   -7.9469796    785.76916   0.01487523  0.013673361           11 
 4403000   0.54434298   -7.9341129    787.51892  0.014904968  0.013669025           15 
 4404000   0.55614005   -7.9472879    787.92248   0.01490922   0.01366469           14 
 4405000   0.55106893   -7.9456173    787.42881  0.014896497  0.013660356           25 
 4406000   0.54828228   -7.9534549    787.10042  0.014886905  0.013656026           10 
 4407000   0.54667036   -7.9522855    786.77185  0.014877314  0.013651701           15 
 4408000   0.55655026    -7.936343    787.02543  0.014878732  0.013647377           12 
 4409000   0.54547236   -7.9517689    786.27313  0.014861139  0.013643047           14 
 4410000    0.5414222    -7.949321      786.343  0.014859089  0.013638721            9 
 4411000   0.54605539   -7.9412177    786.96414  0.014867455  0.013634391           16 
 4412000    0.5586611   -7.9605111    785.22274  0.014831194  0.013630067           11 
 4413000   0.54307121   -7.9296257    785.22266  0.014827832  0.013625744            8 
 4414000   0.54240147   -7.9476878    786.16368  0.014842238  0.013621427           13 
 4415000   0.54132089   -7.9489505     787.4159  0.014862512  0.013617109           15 
 4416000   0.54991383   -7.9595118    786.56423  0.014843075  0.013612795           12 
 4417000   0.53094166   -7.9345337    786.60344  0.014840454  0.013608481           16 
 4418000   0.53672135   -7.9641401    786.79782  0.014840762  0.013604175           14 
 4419000   0.54426194   -7.9387567    785.95199  0.014821453  0.013599864           11 
 4420000   0.55800526   -7.9563904    787.08405  0.014839443  0.013595554           10 
 4421000   0.55249717   -7.9465755    786.23695  0.014820119  0.013591242           17 
 4422000   0.53132214   -7.9462729    785.90495  0.014810511  0.013586931           13 
 4423000   0.54231806   -7.9594484    785.75604  0.014804357  0.013582628           16 
 4424000   0.54773537   -7.9492225    786.88632  0.014822301  0.013578327            8 
 4425000   0.54478161   -7.9415892    786.47201  0.014811149  0.013574027           13 
 4426000   0.54796756   -7.9736333     787.3589  0.014824501   0.01356973           15 
 4427000   0.54262663   -7.9501057    787.77725  0.014829027  0.013565429           12 
 4428000   0.54061512   -7.9416685    787.07422  0.014812448  0.013561135            7 
 4429000   0.53759922   -7.9550486     787.2159  0.014811769   0.01355684           10 
 4430000   0.53689394   -7.9423207    786.86526   0.01480183  0.013552546           14 
 4431000   0.54092537   -7.9432807    786.43752  0.014790445   0.01354825           14 
 4432000   0.54580742   -7.9560344    786.43926   0.01478714  0.013543957           10 
 4433000   0.54273877   -7.9656389    786.59811   0.01478679  0.013539668           13 
 4434000   0.54007265   -7.9774925    787.54924  0.014801331  0.013535379            9 
 4435000   0.55052171   -7.9572674    786.12525  0.014771237  0.013531092           15 
 4436000   0.53712887   -7.9578554    786.10924  0.014767607  0.013526805           14 
 4437000   0.54847031   -7.9640729    787.99249  0.014799649  0.013522519           18 
 4438000    0.5356611   -7.9608361    785.26073  0.014745019  0.013518232           12 
 4439000   0.53248209   -7.9569387    785.01062  0.014737002  0.013513949           18 
 4440000   0.53769403   -7.9623859    785.65367  0.014745752  0.013509667           13 
 4441000   0.53841636   -7.9520553    786.97633  0.014767251  0.013505393           12 
 4442000   0.54427212   -7.9488666    784.97245  0.014726333  0.013501113            8 
 4443000   0.54145676   -7.9540725    785.19408  0.014727175  0.013496832            7 
 4444000   0.53690916   -7.9599046    785.67759  0.014732928  0.013492553           15 
 4445000    0.5275169   -7.9509983    787.51665  0.014764092  0.013488281           21 
 4446000   0.55073778    -7.971755     786.8044  0.014747421  0.013484007            8 
 4447000   0.55348488   -7.9504755    787.16086  0.014750785  0.013479734           13 
 4448000   0.53683319   -7.9598058    786.11113  0.014727801  0.013475466            8 
 4449000   0.54274733   -7.9569764    786.36183  0.014729187  0.013471195           13 
 4450000   0.54290766   -7.9724057    785.29224  0.014705847   0.01346693           13 
 4451000   0.54377593   -7.9708777    786.41682  0.014723598   0.01346266           10 
 4452000   0.53837309   -7.9607082    785.27325  0.014698885  0.013458393            6 
 4453000    0.5441021   -7.9649974    786.93875  0.014726752  0.013454127           19 
 4454000   0.55136532   -7.9511086     785.4372  0.014695352  0.013449866            8 
 4455000   0.53987041   -7.9648516    785.71964  0.014697337    0.0134456            8 
 4456000   0.52229343   -7.9358632    785.60815  0.014691954  0.013441335            8 
 4457000   0.53966345   -7.9649333    786.34231  0.014702384  0.013437076           13 
 4458000   0.53772552   -7.9481841    785.81821  0.014689289  0.013432824            9 
 4459000   0.53299801   -7.9217015    785.86654  0.014686898  0.013428569           10 
 4460000   0.54193642   -7.9516052    784.95608  0.014666593  0.013424314           13 
 4461000   0.54296586   -7.9751766    785.45101  0.014672551  0.013420061            9 
 4462000   0.54027249    -7.952559    786.23041  0.014683819   0.01341581           12 
 4463000   0.54092474   -7.9363761    785.15723  0.014660491  0.013411566            7 
 4464000   0.53222401   -7.9585511    786.54272   0.01468307   0.01340732           12 
 4465000    0.5421075   -7.9634367    785.74956  0.014664979   0.01340307           18 
 4466000   0.54310649   -7.9565364    786.16379  0.014669424  0.013398827            9 
 4467000   0.52845838   -7.9512087    786.65771  0.014675355  0.013394585            8 
 4468000   0.54106263   -7.9720245     786.6179  0.014671328  0.013390349           19 
 4469000    0.5283279   -7.9562064    786.89305  0.014673175  0.013386113           10 
 4470000   0.53198363   -7.9675864    787.06273  0.014673056  0.013381879           14 
 4471000   0.53298119   -7.9555679    785.82011  0.014646614  0.013377641           12 
 4472000   0.54515338   -7.9587547    786.66309  0.014659047   0.01337341            9 
 4473000   0.53430754   -7.9532183    787.12924  0.014664454  0.013369183           11 
 4474000   0.54795092   -7.9555158    785.91074   0.01463848   0.01336495           12 
 4475000   0.53610913   -7.9549665    786.28183   0.01464212   0.01336072            9 
 4476000    0.5369593   -7.9543481    786.05849   0.01463469  0.013356495           10 
 4477000   0.53362024   -7.9635598    785.93604  0.014629142  0.013352266            9 
 4478000   0.52900954   -7.9716671     784.6051  0.014601107   0.01334804           11 
 4479000   0.53554187   -7.9722959    786.74064   0.01463758  0.013343814            7 
 4480000   0.52842609   -7.9648267    784.68559  0.014596086  0.013339589           11 
 4481000   0.51822176   -7.9575527    786.34446  0.014623679  0.013335365           13 
 4482000   0.53306853   -7.9762025    786.19949  0.014617721  0.013331147            8 
 4483000   0.52639747   -7.9568845     786.1134   0.01461286  0.013326928           10 
 4484000   0.54469544    -7.973199    785.80367  0.014603845   0.01332271            9 
 4485000   0.52962995   -7.9563075    784.66921   0.01457951  0.013318497           10 
 4486000   0.52344898   -7.9607217    786.30849  0.014606711  0.013314279           12 
 4487000   0.54045358   -7.9703432    787.42314  0.014624158  0.013310066            7 
 4488000   0.53889354   -7.9820034    786.35151  0.014601001  0.013305851           11 
 4489000   0.52259393   -7.9589177    786.41898  0.014599001  0.013301637            8 
 4490000   0.53710169   -7.9745068    786.77392  0.014602337  0.013297422           11 
 4491000   0.53300871   -7.9532227    786.27575  0.014589842  0.013293204            9 
 4492000   0.51554347   -7.9761261    785.10026  0.014564787  0.013288993           14 
 4493000   0.53645986   -7.9513621    786.45735  0.014586715  0.013284782           13 
 4494000   0.53543442   -7.9617836    786.26216   0.01457985  0.013280576           12 
 4495000   0.54350969   -7.9562754     785.8595  0.014569142  0.013276369           13 
 4496000    0.5301218   -7.9703865    785.02096  0.014550359  0.013272166           14 
 4497000   0.53911304   -7.9587494    784.94889  0.014545788  0.013267962           12 
 4498000   0.52080271   -7.9867639    785.25453  0.014548216  0.013263758            8 
 4499000   0.53052232   -7.9749194    785.81292  0.014555326  0.013259561           12 
 4500000     0.542545   -7.9606406    784.99894  0.014537017  0.013255362           15 
 4501000   0.53689001   -7.9709323     784.8903  0.014531776  0.013251161           11 
 4502000    0.5257363   -7.9576648    785.68978  0.014543347  0.013246967           13 
 4503000    0.5348641   -7.9644198    787.68476  0.014577037  0.013242775            9 
 4504000   0.52773578    -7.974158    785.10986  0.014526159  0.013238585            9 
 4505000   0.53008173   -7.9604877     785.5238  0.014530592    0.0132344           17 
 4506000   0.53996721   -7.9689766    785.86857  0.014533743  0.013230215            7 
 4507000   0.53866558   -7.9716251    786.00848  0.014533106  0.013226035            8 
 4508000   0.52388888     -7.96392    785.47464  0.014520013  0.013221857           13 
 4509000   0.52983452   -7.9705437    785.33221  0.014514161  0.013217673           12 
 4510000   0.54285756    -7.962375    785.50042  0.014514051  0.013213496           12 
 4511000   0.52513238   -7.9537559    786.61435  0.014531411   0.01320932           10 
 4512000   0.53323592   -7.9634422    785.87087  0.014514459  0.013205146            8 
 4513000   0.53647105   -7.9790336    786.22332  0.014517751  0.013200974            8 
 4514000   0.52784355   -7.9512855     786.4435    0.0145186    0.0131968           10 
 4515000   0.52639127   -7.9792534    785.07815  0.014490184  0.013192631           14 
 4516000   0.53361439   -7.9939331      784.889  0.014483485   0.01318846           12 
 4517000   0.52424231   -7.9614206    785.82851  0.014497611  0.013184292            8 
 4518000   0.53252396   -7.9673037    785.97088  0.014497028  0.013180122           10 
 4519000   0.52670409   -7.9626263    785.40648  0.014483412  0.013175958            9 
 4520000    0.5339021   -7.9655439     786.0871  0.014492756  0.013171794            8 
 4521000    0.5263878   -7.9640754    786.42823  0.014495839  0.013167632            7 
 4522000   0.53553571   -8.0041831    785.71052  0.014479407  0.013163471           12 
 4523000   0.53270412   -7.9829335    784.94558  0.014462112  0.013159313           22 
 4524000   0.53143392   -7.9663488    784.03182  0.014442083  0.013155154           10 
 4525000   0.52761455    -7.963112    784.53376  0.014448136  0.013150999           12 
 4526000   0.52693139   -7.9690143    785.88703   0.01446986  0.013146844           10 
 4527000   0.52627106   -7.9669005    787.43957  0.014495243   0.01314269           11 
 4528000   0.52708133   -7.9552251    786.49092  0.014474583  0.013138538           13 
 4529000   0.52367527   -7.9714597    785.92737  0.014461017  0.013134387           11 
 4530000   0.52958158   -7.9692733    787.15887   0.01448048  0.013130234           12 
 4531000   0.53530373   -7.9584766     786.0718   0.01445729  0.013126085           12 
 4532000   0.51926051   -7.9749356    784.65374  0.014428025  0.013121938           15 
 4533000   0.52474901   -7.9786118    785.24089  0.014435637  0.013117789           16 
 4534000   0.53433075   -7.9782906    784.86995  0.014425635  0.013113645            9 
 4535000   0.52068423   -7.9631025    786.52303   0.01445283  0.013109502           18 
 4536000    0.5173187   -7.9696695    785.29667  0.014427114  0.013105361           11 
 4537000   0.52932497   -7.9731623    785.67142  0.014430817   0.01310122           14 
 4538000   0.53970393   -7.9947191    785.86795  0.014431246  0.013097075           10 
 4539000   0.52838066   -7.9789982    786.53236  0.014440265  0.013092935            7 
 4540000    0.5206896   -7.9849113    786.10868  0.014429308  0.013088795           10 
 4541000   0.52806834   -7.9607949    784.82716  0.014402612  0.013084659            5 
 4542000   0.53408505   -7.9892056    785.54803  0.014412667  0.013080527            7 
 4543000   0.52769411   -7.9885901    785.84842  0.014415005  0.013076391            6 
 4544000   0.52174334   -7.9731961    786.14406  0.014417255  0.013072256            8 
 4545000   0.51370131   -7.9798044     785.1301  0.014395491   0.01306812            7 
 4546000   0.52745067   -7.9635778      785.625  0.014401397  0.013063987            8 
 4547000   0.51681571   -7.9580666    783.85615  0.014365812  0.013059853           15 
 4548000   0.51993342   -7.9776593    784.97377  0.014383131  0.013055721           11 
 4549000   0.51699077   -7.9904082    786.34129  0.014405021  0.013051593            8 
 4550000   0.52291088   -7.9708295    785.62084   0.01438866  0.013047469           15 
 4551000   0.52502819   -7.9877862    785.38226   0.01438113   0.01304334            7 
 4552000   0.52221153   -7.9798594    784.39588  0.014359913  0.013039212            9 
 4553000   0.52591031   -7.9726381     784.5707  0.014359959  0.013035086            7 
 4554000   0.52238027   -7.9834379    785.11601  0.014366784  0.013030962            6 
 4555000    0.5184197   -7.9817481    785.01296  0.014361745   0.01302684           15 
 4556000    0.5291028    -7.980297     785.2382  0.014362712  0.013022721           12 
 4557000    0.5289971   -7.9897333    784.66967  0.014349164    0.0130186           11 
 4558000   0.51100542   -7.9758024     784.9873  0.014351823   0.01301448           14 
 4559000   0.51630146   -7.9999801    786.39172  0.014374346  0.013010362           14 
 4560000   0.52254161   -7.9575679    786.21584   0.01436798  0.013006245           10 
 4561000   0.51238772   -7.9800561    785.16748  0.014345675  0.013002132           11 
 4562000   0.51710048   -7.9650409    784.24422  0.014325665   0.01299802           22 
 4563000   0.53085107   -7.9893921    785.01421  0.014336588  0.012993912           18 
 4564000   0.52020633   -7.9842662     785.2859  0.014338408  0.012989807           17 
 4565000   0.52604192   -7.9664695    786.33211  0.014354365  0.012985701            8 
 4566000    0.5245882   -7.9894693    786.50285  0.014354337  0.012981597           20 
 4567000   0.53607585   -7.9834258    785.97557  0.014341573  0.012977499           10 
 4568000   0.52007953   -7.9794121    786.02464  0.014339329  0.012973397            9 
 4569000   0.50689691   -7.9842528    784.89153  0.014315524    0.0129693           13 
 4570000   0.52628309   -7.9919552    784.90818  0.014312695  0.012965204            8 
 4571000   0.52133974   -7.9844762    785.93865   0.01432835  0.012961112            9 
 4572000   0.53054809   -7.9820697    784.60022  0.014300821  0.012957016           12 
 4573000   0.51766815   -7.9880434    785.59938  0.014315901  0.012952922            8 
 4574000   0.53899024   -7.9871659    784.68934  0.014296191  0.012948833           10 
 4575000   0.52122443   -7.9808435    784.83819  0.014295778  0.012944747           16 
 4576000   0.53401726   -7.9995161    785.33363  0.014301676  0.012940662            7 
 4577000   0.52058174   -7.9893224    785.89437  0.014308761  0.012936578            7 
 4578000   0.52129667   -7.9958581    785.35452  0.014295808  0.012932492            6 
 4579000   0.52096343   -7.9745967    785.18709  0.014289639   0.01292841            8 
 4580000   0.51816497   -7.9828761    783.24894  0.014251254  0.012924325            5 
 4581000   0.52207282    -7.973607    784.20424  0.014265521  0.012920243            7 
 4582000   0.52643579   -8.0002988    785.22331  0.014280942  0.012916166            5 
 4583000   0.51266596   -7.9855274    785.50042  0.014282865  0.012912092           12 
 4584000   0.51073504   -7.9744006    784.84453  0.014267825  0.012908014           12 
 4585000   0.51528626   -8.0028701    785.79689  0.014282023  0.012903938           10 
 4586000   0.50586729    -7.991493    785.40491  0.014271786   0.01289986            8 
 4587000   0.51934553   -7.9984737     786.0481  0.014280359  0.012895786            7 
 4588000   0.52496952   -7.9844273    784.44548  0.014248138  0.012891712            4 
 4589000   0.51535472    -7.997977    784.40443  0.014244288  0.012887642            6 
 4590000   0.51240056    -7.985813    784.18063  0.014237121  0.012883573            7 
 4591000   0.53289538   -7.9842142    784.10235  0.014232599  0.012879506           10 
 4592000   0.51442432   -7.9862545    784.85604  0.014243177  0.012875442           10 
 4593000    0.5097752   -7.9926777    784.93822  0.014241567  0.012871375           12 
 4594000    0.5166093   -7.9900995    785.30719   0.01424516  0.012867311           15 
 4595000   0.52042578   -7.9739697    784.82808  0.014233371  0.012863246            6 
 4596000   0.50799671   -7.9667638    783.89483  0.014213353  0.012859188           14 
 4597000   0.50769871   -7.9775047    784.04643  0.014213009  0.012855134           10 
 4598000   0.51775859   -7.9802615    784.62265  0.014220361  0.012851081           22 
 4599000   0.52051272   -7.9864469    784.62092  0.014217238  0.012847024           12 
 4600000   0.51613305   -7.9879681    785.61479  0.014232152  0.012842975           12 
 4601000   0.51560122   -7.9904691    783.58915   0.01419237  0.012838919           18 
 4602000   0.52185938   -7.9946824    784.47745  0.014205372  0.012834869            7 
 4603000   0.51389818   -8.0026025    785.49127   0.01422064   0.01283082           21 
 4604000   0.50521822   -7.9901676     784.6958  0.014203153   0.01282677           11 
 4605000   0.51354074   -7.9964331     785.4332  0.014213413  0.012822725           14 
 4606000   0.51339608   -7.9705013     785.2492  0.014206998   0.01281868           18 
 4607000   0.52158756   -7.9801765    784.45964  0.014189632  0.012814635           12 
 4608000   0.50738704   -7.9914476    782.98878  0.014159953   0.01281059           14 
 4609000    0.5086183    -7.997791    784.74347  0.014188607  0.012806542            7 
 4610000   0.52045553   -8.0074896    785.31883   0.01419593  0.012802498            8 
 4611000   0.52206913   -7.9814716    785.28836    0.0141923  0.012798456           10 
 4612000   0.50635457   -7.9989573     783.2965  0.014153232  0.012794418            8 
 4613000   0.50049334   -7.9985029    783.93379  0.014161677  0.012790378            9 
 4614000   0.52653394   -8.0040462     785.9107  0.014194313   0.01278634            9 
 4615000   0.51560457   -7.9954377    785.10072  0.014176611  0.012782304            6 
 4616000   0.51497072   -7.9729927    784.49494  0.014162604  0.012778267           10 
 4617000   0.52276739   -7.9894735    784.27329  0.014155535  0.012774234            7 
 4618000   0.51409864     -8.00597    785.86199  0.014181139  0.012770203            8 
 4619000   0.50286879   -7.9910684    784.79678  0.014158851  0.012766173           10 
 4620000   0.51360961   -7.9980084    783.97973  0.014141049  0.012762144           14 
 4621000   0.52516796   -7.9932066    783.85946  0.014135819  0.012758115           10 
 4622000   0.51217013   -8.0037962    783.72033  0.014130253  0.012754086            6 
 4623000   0.50692135   -7.9914135    783.93511  0.014131068  0.012750058            5 
 4624000   0.50162386   -8.0009278    783.45433  0.014119347  0.012746036            8 
 4625000   0.51262953   -7.9995378     785.4435  0.014152135  0.012742015            7 
 4626000   0.52327792   -7.9803916    785.12519  0.014143342  0.012737995            5 
 4627000   0.50757489   -8.0192131    783.73296  0.014115211  0.012733978            8 
 4628000   0.51035832   -7.9886914    785.12713  0.014137265  0.012729958            8 
 4629000   0.51540145   -8.0183442    784.95163  0.014131051   0.01272594            9 
 4630000    0.4988059    -7.990283    784.76242  0.014124594  0.012721924            6 
 4631000   0.51735549   -7.9896988    784.28607  0.014112972  0.012717907            8 
 4632000   0.51114098   -7.9865231    783.79163   0.01410103  0.012713891           12 
 4633000   0.51089434   -8.0153711    783.75254  0.014097283  0.012709879            6 
 4634000   0.51048042    -8.006774     784.3351  0.014104717  0.012705866            9 
 4635000   0.50994545   -7.9925076    784.11435  0.014097705  0.012701857            5 
 4636000   0.51874456   -7.9982905    784.40691  0.014099923  0.012697847           12 
 4637000   0.51185352   -8.0055139    784.40262  0.014096805   0.01269384            9 
 4638000   0.50158559   -8.0006849    784.16692  0.014089531  0.012689831            6 
 4639000   0.51131931   -7.9971465    784.94901  0.014100543  0.012685827            5 
 4640000   0.50515252   -8.0199298    784.30203  0.014085884  0.012681821            8 
 4641000   0.50999816   -8.0034453    784.69348  0.014089878  0.012677814           10 
 4642000   0.50050778   -7.9966388    784.28094  0.014079437  0.012673817            8 
 4643000   0.50857201   -8.0060838    783.65559   0.01406518   0.01266982            5 
 4644000   0.50327587   -8.0030402    784.18116  0.014071583  0.012665822           11 
 4645000   0.50692698   -8.0106916     784.5925  0.014075933  0.012661825            5 
 4646000   0.51686129   -7.9996363    783.44305  0.014052286  0.012657826            7 
 4647000   0.51063798   -8.0212207    783.52264  0.014050689  0.012653829            7 
 4648000   0.51407931   -7.9994064    783.45832  0.014046513  0.012649835           12 
 4649000   0.50065575   -7.9949147    783.62677  0.014046511  0.012645846            5 
 4650000   0.51142696   -7.9972358    784.81514  0.014064788  0.012641857            7 
 4651000    0.5088357   -8.0053699    782.38795  0.014018275  0.012637867            7 
 4652000   0.50781029   -8.0163375    784.83016   0.01405901  0.012633879           11 
 4653000   0.50046365   -7.9929257    784.40902  0.014048446  0.012629892            5 
 4654000   0.50785955   -8.0149474    783.98214  0.014037784  0.012625906            7 
 4655000   0.50376328   -7.9892588     782.7734  0.014013129  0.012621922            8 
 4656000   0.50684195   -7.9989693    784.16519   0.01403503  0.012617939            5 
 4657000   0.50544779   -7.9976469    783.40665  0.014018443  0.012613956           10 
 4658000   0.51175359   -8.0082033    783.51048  0.014017291  0.012609974            8 
 4659000   0.50824385   -8.0128444    783.60878   0.01401604     0.012606           10 
 4660000   0.51392715   -8.0208445    783.93899  0.014018938  0.012602027            5 
 4661000   0.50710568    -7.999946    783.34591  0.014005326  0.012598055            9 
 4662000   0.50412525   -8.0102119    783.50146  0.014005103  0.012594083            5 
 4663000   0.50985011   -7.9976257    783.02672  0.013993615  0.012590109           10 
 4664000   0.50288732   -7.9988867    784.38928   0.01401496  0.012586141            5 
 4665000   0.51117933   -8.0015958    785.02791  0.014023364  0.012582174            5 
 4666000    0.5079312   -8.0123199    784.91139  0.014018277   0.01257821            9 
 4667000   0.50279738   -8.0116102    784.60681  0.014009835  0.012574245            9 
 4668000   0.50340115   -8.0153364    784.31336  0.014001595  0.012570288            8 
 4669000   0.50269691   -8.0149218    783.05607  0.013976156  0.012566324            8 
 4670000   0.51036945   -8.0192068    784.65555  0.014001705  0.012562365            8 
 4671000   0.49792964   -8.0078536    784.13622  0.013989442  0.012558407           11 
 4672000   0.49929006   -8.0057375    783.89957  0.013982227  0.012554451            6 
 4673000   0.50804753    -8.008022     784.1144  0.013983066  0.012550497            5 
 4674000   0.51023725   -8.0186795    784.62698  0.013989213  0.012546542            5 
 4675000   0.49372596   -8.0035325    784.06015  0.013976117  0.012542591           10 
 4676000   0.50559706   -8.0216865    784.42808  0.013979685   0.01253864           11 
 4677000   0.49790634   -7.9997951    783.79636   0.01396544  0.012534689           10 
 4678000    0.5097142   -8.0197241    783.76822  0.013961953  0.012530744            7 
 4679000   0.50556671   -8.0263976    784.55669  0.013973012  0.012526799            9 
 4680000   0.51482679   -8.0157268    783.52451  0.013951647  0.012522854           15 
 4681000   0.50181602   -8.0009103    784.71485  0.013969858  0.012518914            6 
 4682000    0.5030546   -8.0177675    784.09534  0.013955848  0.012514974            7 
 4683000   0.49085019   -8.0149632    782.79015  0.013929642  0.012511033            8 
 4684000   0.49943285   -8.0087031    783.27087   0.01393522  0.012507094            9 
 4685000   0.51112784   -8.0030449    783.72298  0.013940288  0.012503151           11 
 4686000      0.51366   -8.0199588    783.49074  0.013933183  0.012499212           13 
 4687000   0.48902777   -8.0172491    783.11939  0.013923608  0.012495276           11 
 4688000   0.50291258    -8.009694    783.05922  0.013919568  0.012491342            6 
 4689000   0.50973373   -8.0039705    785.12582  0.013953327  0.012487408            9 
 4690000    0.5183344   -8.0139215    784.50308  0.013939287  0.012483474           10 
 4691000   0.51096852   -8.0187638    783.24399  0.013913948   0.01247954            9 
 4692000   0.50883348    -8.019968    783.16075  0.013909505  0.012475607            9 
 4693000   0.49923745   -8.0107126    783.68512  0.013915852  0.012471677            6 
 4694000   0.49674921   -8.0149342    783.67996  0.013912796  0.012467752            8 
 4695000    0.5058507   -8.0264292    783.22392  0.013901738  0.012463822           10 
 4696000   0.49670124   -8.0147137    785.06147  0.013931386  0.012459897           15 
 4697000    0.4964155   -8.0154208    783.17304  0.013894916  0.012455975           11 
 4698000   0.50354618   -8.0154809    784.95528  0.013923572  0.012452052            7 
 4699000   0.49701095   -8.0200447    782.76781  0.013881815  0.012448132            4 
 4700000   0.50424425   -8.0143192    783.37281  0.013889589  0.012444211            6 
 4701000   0.50001633   -8.0239696    785.15472  0.013918222  0.012440293            6 
 4702000   0.50427364   -8.0377432    784.51815   0.01390398  0.012436376            5 
 4703000   0.49223102    -8.013842    783.03092  0.013874671  0.012432457           10 
 4704000   0.49761278   -8.0219923    784.78205  0.013902743  0.012428542            6 
 4705000   0.49311238   -8.0287325    783.35592  0.013874529  0.012424629           10 
 4706000   0.49655709   -8.0168106    783.05357  0.013866227  0.012420718            6 
 4707000   0.50087882   -8.0170083    783.63534  0.013873581   0.01241681           12 
 4708000   0.49757187   -8.0173669    783.29851  0.013864672  0.012412903            7 
 4709000   0.49099528   -8.0108306    783.61187  0.013867273  0.012408994            5 
 4710000   0.49830529   -7.9941593    784.54915  0.013880912  0.012405088            8 
 4711000   0.50023662   -8.0267241    782.94933  0.013849666  0.012401185            7 
 4712000   0.50580113   -8.0383785    783.57567  0.013857804  0.012397284            7 
 4713000   0.49320055   -8.0005737    783.71777  0.013857376  0.012393387            4 
 4714000   0.48894603   -8.0222252    783.37927  0.013848453  0.012389494            4 
 4715000   0.49592743   -7.9988079    783.65894  0.013850458  0.012385595            6 
 4716000    0.4893725   -8.0282595    781.99711  0.013818156  0.012381695            9 
 4717000   0.48669466   -8.0266402    783.26703  0.013837662  0.012377797            8 
 4718000   0.49591494   -8.0243785    782.75449  0.013825676  0.012373902            9 
 4719000   0.49884742    -8.041315    783.13813  0.013829521  0.012370011           12 
 4720000   0.50074062   -8.0192876    784.11209  0.013843787  0.012366118            9 
 4721000   0.49709505   -7.9998869    783.69897  0.013833562  0.012362228            6 
 4722000   0.49036795   -8.0358474    783.91163  0.013834386  0.012358339            8 
 4723000   0.50749068   -8.0219809    784.77448  0.013846681   0.01235445            6 
 4724000   0.49742821     -8.02449    784.27384  0.013834918  0.012350565            5 
 4725000   0.49787471   -8.0116874    782.87445   0.01380731  0.012346679            9 
 4726000   0.49529419   -8.0272673    783.52804  0.013815913  0.012342797            6 
 4727000   0.50115369   -8.0267649    784.12547  0.013823522  0.012338913            9 
 4728000    0.4862821   -8.0193072    784.07168   0.01381965  0.012335034            7 
 4729000   0.48504865   -8.0294406    783.71918  0.013810516  0.012331156            8 
 4730000    0.4952959   -8.0094139    783.20107  0.013798468  0.012327281            6 
 4731000   0.48949715   -8.0311305    782.49986    0.0137832  0.012323403           11 
 4732000   0.49056118   -8.0299122    782.97888  0.013788724   0.01231953           12 
 4733000   0.49564346   -8.0335112    783.64366  0.013797515  0.012315657           11 
 4734000   0.48235832   -8.0244237    783.89846  0.013799086  0.012311785            8 
 4735000   0.49346948   -8.0093199    782.70667  0.013775197  0.012307915            8 
 4736000   0.49965616    -8.021815    782.51996  0.013769003  0.012304048           10 
 4737000   0.48945438   -8.0210625    782.51042  0.013765928  0.012300179           11 
 4738000   0.49370244   -8.0335851    783.43938  0.013779361  0.012296311            7 
 4739000   0.49024291   -8.0350606    783.37487   0.01377532  0.012292444           10 
 4740000   0.49054693   -8.0261682    783.58699  0.013776143   0.01228858           10 
 4741000   0.50571999   -8.0349187    782.65988  0.013756941   0.01228472            6 
 4742000   0.47897846   -8.0316038    784.08377  0.013779063  0.012280861            9 
 4743000   0.48650485   -8.0284893    783.04095  0.013757835  0.012276998           10 
 4744000   0.49644995   -8.0362967    784.03473  0.013772392  0.012273145            8 
 4745000   0.50194831   -8.0380123     782.4219  0.013741164  0.012269287            9 
 4746000   0.49098964   -8.0247706    784.36894  0.013772456  0.012265431           10 
 4747000   0.49925069   -8.0300097    783.30741   0.01375092  0.012261576            8 
 4748000   0.48739659   -8.0205676    783.87562  0.013757997  0.012257721           12 
 4749000    0.5020679   -8.0249782    783.55307   0.01374944  0.012253871           10 
 4750000   0.49596803    -8.021247     782.3045   0.01372464  0.012250024           11 
 4751000   0.48913854   -8.0302551    783.15907  0.013736741  0.012246175            7 
 4752000   0.49666776   -8.0336848    782.84231  0.013728295  0.012242328           10 
 4753000   0.49401025    -8.023195    784.28863  0.013750765  0.012238488            4 
 4754000   0.49881253   -8.0406842    782.40968  0.013714936  0.012234643           11 
 4755000   0.49550072    -8.017574    783.09274  0.013724023  0.012230801            7 
 4756000   0.48540524   -8.0409031    783.78805   0.01373332   0.01222696            6 
 4757000   0.49528112   -8.0291328    782.45689  0.013707114  0.012223118           13 
 4758000   0.49355545   -8.0379604    783.10955  0.013715664  0.012219279           10 
 4759000    0.4974713    -8.035017    782.80199  0.013707396  0.012215445            8 
 4760000   0.48338589   -8.0329976    783.39741  0.013714941  0.012211612            9 
 4761000   0.49731542   -8.0186324    782.76325   0.01370096  0.012207777            8 
 4762000   0.49145737   -8.0339128    783.13606  0.013704607  0.012203946           11 
 4763000   0.48759782   -8.0322817    783.47547  0.013707668  0.012200117           13 
 4764000   0.48647544   -8.0292531    781.41802  0.013668801  0.012196284           13 
 4765000   0.48492027   -8.0282918    782.00742   0.01367624  0.012192457           12 
 4766000   0.49575565   -8.0452132     783.7795  0.013704356  0.012188629            9 
 4767000   0.48251926   -8.0503755    782.24686  0.013674688  0.012184802           10 
 4768000   0.48841435    -8.044529    783.98155  0.013702138  0.012180974            7 
 4769000   0.49147293   -8.0269213    783.08297  0.013683564  0.012177149            7 
 4770000   0.49562193   -8.0360584    782.92937  0.013678011  0.012173322            7 
 4771000   0.48939049   -8.0309317    782.63824  0.013670059  0.012169501           12 
 4772000    0.4891084    -8.047018    782.96775  0.013672949  0.012165679            9 
 4773000   0.49120751   -8.0427243     782.6893  0.013665223  0.012161855           13 
 4774000   0.49032694   -8.0421835    782.42649  0.013657773  0.012158038           12 
 4775000   0.48595065   -8.0540316    782.94005  0.013663875  0.012154222            8 
 4776000   0.48307238   -8.0382366    783.26139  0.013666621  0.012150408           11 
 4777000   0.49929518   -8.0396984    782.64895  0.013653076  0.012146595            7 
 4778000    0.4789475   -8.0346007    783.02724  0.013656817  0.012142783            7 
 4779000   0.49355151   -8.0380822    782.31495  0.013641538  0.012138972            5 
 4780000   0.49002363   -8.0454049    782.64665  0.013644467  0.012135164            5 
 4781000   0.48144394   -8.0390226    783.23824  0.013651925  0.012131358           10 
 4782000   0.48912743   -8.0452721    782.83544  0.013642051  0.012127557            6 
 4783000   0.48557202   -8.0468991    782.63859  0.013635769  0.012123756            7 
 4784000   0.49289207    -8.046748     783.3235  0.013644849  0.012119955            9 
 4785000   0.48542652   -8.0310721     782.3254  0.013624615  0.012116153            8 
 4786000   0.48823527   -8.0279326    781.57465  0.013608696  0.012112353            8 
 4787000   0.48701406   -8.0326759    782.98099  0.013630336  0.012108555           10 
 4788000   0.48622915   -8.0430594     784.0159  0.013645501  0.012104761            5 
 4789000   0.48077879   -8.0595553    782.12885  0.013609815  0.012100966            8 
 4790000   0.49718447   -8.0289744    782.23049  0.013608742  0.012097173            7 
 4791000     0.490132   -8.0404492    783.47291  0.013627512  0.012093382            8 
 4792000    0.4903019    -8.021111    781.69322  0.013593719  0.012089588            9 
 4793000   0.49016486   -8.0455093    782.85726  0.013611121  0.012085801            7 
 4794000   0.48912732   -8.0637143    782.53501  0.013602681  0.012082008            7 
 4795000   0.48916137   -8.0440266    783.55205  0.013617519  0.012078222           10 
 4796000   0.48427809    -8.040842    783.15133  0.013607717  0.012074436            8 
 4797000   0.49880881   -8.0311578    782.37064  0.013591318  0.012070654            8 
 4798000   0.47138483   -8.0347045    783.07694  0.013600753  0.012066877           10 
 4799000   0.47720724   -8.0507388    784.40851  0.013621041  0.012063097            4 
 4800000   0.48085762    -8.046748    782.12693  0.013578593  0.012059318           22 
 4801000   0.48066837   -8.0419579    781.83247  0.013570653   0.01205554            6 
 4802000   0.48334973    -8.040594    782.94842  0.013587193  0.012051763            8 
 4803000   0.48329593    -8.049221    782.74117  0.013580769   0.01204799            6 
 4804000   0.49647683   -8.0441648    782.80888  0.013579116  0.012044217            7 
 4805000   0.46786627   -8.0465559    782.77558  0.013575712  0.012040442            8 
 4806000   0.47982425   -8.0389606    783.50412   0.01358552  0.012036671            8 
 4807000   0.48368312   -8.0584554    783.19063  0.013577259  0.012032902            5 
 4808000   0.48367393   -8.0400519    784.69349  0.013600483  0.012029132           11 
 4809000   0.48723841   -8.0394464     782.5524  0.013560553  0.012025366           10 
 4810000   0.47860362   -8.0551159    782.85748  0.013563019  0.012021604            7 
 4811000   0.47650413   -8.0379918    783.01589  0.013562944  0.012017844            8 
 4812000   0.48065333   -8.0606704    781.61216  0.013535816  0.012014082           12 
 4813000    0.4882076   -8.0455347    782.77333  0.013553108  0.012010319            9 
 4814000   0.47961022   -8.0648521    783.39177  0.013560999  0.012006559           11 
 4815000   0.47925597   -8.0218124    782.85328  0.013548863  0.012002801            6 
 4816000    0.4804008   -8.0598035    783.23494  0.013552653  0.011999041            7 
 4817000   0.48910722   -8.0610378     782.8932  0.013543928  0.011995284            6 
 4818000   0.47865742    -8.051632    783.18916  0.013546236  0.011991528            6 
 4819000   0.48359707   -8.0479716    783.32017   0.01354569  0.011987772            7 
 4820000   0.47872417    -8.048139    782.76495  0.013533281  0.011984016            7 
 4821000   0.48030176   -8.0622504    781.08497  0.013501434  0.011980261            7 
 4822000   0.47997759   -8.0563883    782.51973   0.01352343  0.011976507           11 
 4823000   0.48314987   -8.0560994    782.83251   0.01352603  0.011972757            7 
 4824000   0.47935851   -8.0604311    782.73955   0.01352162  0.011969012            7 
 4825000    0.4802321   -8.0522966    782.93599  0.013522211  0.011965266           13 
 4826000    0.4799415   -8.0577909    783.02008  0.013520861  0.011961522            9 
 4827000   0.47047661   -8.0606196    782.61998  0.013511152  0.011957781            7 
 4828000   0.47109337   -8.0496692    783.08353  0.013516355  0.011954038            5 
 4829000   0.48010031   -8.0523202    782.27499  0.013499603  0.011950298            6 
 4830000   0.48994216   -8.0515967    782.89597  0.013507522   0.01194656           10 
 4831000     0.459436   -8.0578557    781.97446   0.01348883  0.011942822            7 
 4832000   0.49007983   -8.0388492    783.18025  0.013506834  0.011939084            7 
 4833000   0.47732621   -8.0504948    782.28197   0.01348855  0.011935354            9 
 4834000   0.48769914   -8.0571484     782.1672  0.013483781  0.011931622            7 
 4835000   0.47640553   -8.0558827    783.41677   0.01350253  0.011927892           12 
 4836000   0.48266076   -8.0609584    782.28708  0.013480271   0.01192416            7 
 4837000    0.4830666   -8.0449348    783.07071  0.013490985   0.01192043           11 
 4838000   0.47103601   -8.0431755    782.28506  0.013474663  0.011916699           12 
 4839000    0.4719197   -8.0532791    781.99465  0.013466878  0.011912969            6 
 4840000   0.48100413   -8.0466437    781.47121  0.013455083  0.011909241            5 
 4841000    0.4787828    -8.058241    782.29377  0.013466463  0.011905517            7 
 4842000   0.47123152   -8.0490215    782.40226  0.013465549  0.011901792           10 
 4843000   0.48472208   -8.0474333    782.49711  0.013464401  0.011898072            7 
 4844000   0.47792113   -8.0606882    782.21929  0.013456842  0.011894351            8 
 4845000   0.47130298   -8.0609255    781.44844  0.013440806  0.011890631           14 
 4846000   0.47627704   -8.0565703    782.17492  0.013450525  0.011886912            6 
 4847000   0.47259182   -8.0594355    781.07322  0.013428809  0.011883195           15 
 4848000   0.48839934    -8.055097    782.09133  0.013443539  0.011879479            8 
 4849000   0.47342944   -8.0677424    781.09401  0.013423627  0.011875765            6 
 4850000   0.46144212   -8.0638531    781.66372  0.013430648  0.011872051            6 
 4851000   0.48082916   -8.0495356    782.84698  0.013448206   0.01186834           14 
 4852000   0.47711147   -8.0687267    782.15175  0.013433494  0.011864631           10 
 4853000   0.47288733   -8.0469929    781.32795   0.01341658  0.011860922            7 
 4854000   0.46715022   -8.0556498    781.45323  0.013415967  0.011857214            8 
 4855000   0.47095134   -8.0588447    782.49142  0.013431023  0.011853512            6 
 4856000   0.46974796    -8.073225    782.96126   0.01343632  0.011849806           11 
 4857000   0.46806297    -8.058253    782.18268  0.013420196  0.011846105            9 
 4858000   0.47423471   -8.0626907    782.41565  0.013421429  0.011842404            6 
 4859000   0.46527852   -8.0679575     783.1656  0.013431529  0.011838706            5 
 4860000   0.47130865   -8.0616782    781.66144  0.013402974  0.011835009            8 
 4861000   0.46859334   -8.0543773    781.86427  0.013403694  0.011831309            8 
 4862000   0.47223227   -8.0645565    781.96833  0.013402721  0.011827612            6 
 4863000   0.47438763   -8.0635776    781.16358  0.013386174  0.011823918           10 
 4864000   0.46415741   -8.0549811    780.69841  0.013375452  0.011820224            6 
 4865000   0.46802196   -8.0699342    781.42026  0.013385068  0.011816532            8 
 4866000   0.46795833   -8.0756898    782.27851  0.013397015  0.011812842            7 
 4867000   0.47673475   -8.0765825    782.65431  0.013400697  0.011809151            8 
 4868000   0.46445474   -8.0429785    782.15926   0.01338947  0.011805461            6 
 4869000   0.46939952   -8.0746942    781.97309  0.013383533  0.011801776            8 
 4870000   0.48864048   -8.0607501    781.67977  0.013375766  0.011798091           13 
 4871000    0.4716959   -8.0673237    781.89946  0.013376779  0.011794408           11 
 4872000   0.47691243   -8.0576509    782.16346  0.013378548   0.01179073            7 
 4873000   0.47281508   -8.0656565    781.88982  0.013371124  0.011787052            6 
 4874000   0.47062251   -8.0692431    782.14589  0.013372758  0.011783375           11 
 4875000   0.46237046   -8.0573191    781.45784  0.013358254  0.011779696            8 
 4876000   0.47049618   -8.0602108    781.32239  0.013353199  0.011776019           11 
 4877000   0.47029099   -8.0703229    781.92832  0.013360815  0.011772344            6 
 4878000   0.46463702    -8.080742    781.28118   0.01334702  0.011768669           22 
 4879000   0.47357063   -8.0761727    781.47318  0.013347564  0.011764996            5 
 4880000   0.46424758   -8.0570432    781.97926  0.013353471  0.011761328           11 
 4881000   0.47260171   -8.0782167    781.65267  0.013345159  0.011757658            8 
 4882000   0.46988025   -8.0606315    782.08108  0.013349739   0.01175399            9 
 4883000   0.46271266   -8.0806373    782.35592  0.013351695  0.011750326           12 
 4884000   0.46695681   -8.0775426    782.11402  0.013344834  0.011746661           10 
 4885000   0.46128556   -8.0638799    781.93314  0.013339016     0.011743           12 
 4886000   0.46360324   -8.0618529    781.40551  0.013327287  0.011739339            8 
 4887000   0.46643096   -8.0575284    782.22338  0.013338507  0.011735681           10 
 4888000   0.47385506   -8.0687742    781.93772  0.013330908  0.011732023           13 
 4889000   0.46783763   -8.0550038    782.58313  0.013339182   0.01172837           14 
 4890000   0.47335073   -8.0588865    781.65975  0.013320718  0.011724714            9 
 4891000    0.4655746   -8.0710535    781.70101  0.013318698   0.01172106            6 
 4892000   0.47152929   -8.0693733    781.71968  0.013316293  0.011717407            6 
 4893000   0.47470452   -8.0413211     781.0129  0.013301535  0.011713757           11 
 4894000   0.47178827   -8.0547821    780.84407  0.013295942  0.011710106            8 
 4895000    0.4651015   -8.0638671    782.21192  0.013316512  0.011706457           10 
 4896000   0.47244908   -8.0640089    781.30945  0.013298432   0.01170281            5 
 4897000   0.47126451    -8.087927     782.4493  0.013315113  0.011699164            4 
 4898000   0.46479353   -8.0797275    781.64594  0.013298726  0.011695514            7 
 4899000    0.4734344   -8.0741893    782.75213  0.013314828   0.01169187           19 
 4900000   0.46123994   -8.0480607    780.92542  0.013281045  0.011688227           10 
 4901000   0.47707807   -8.0722446    782.06659  0.013297738  0.011684583           10 
 4902000   0.46251831    -8.080331    782.30916  0.013299149  0.011680943           13 
 4903000    0.4650694   -8.0724303    781.07293  0.013275425  0.011677303            7 
 4904000   0.47648649   -8.0537433    782.18957  0.013291693  0.011673667            9 
 4905000    0.4772431   -8.0760994    782.43199  0.013293102  0.011670029            9 
 4906000   0.46060192   -8.0563252    780.50897  0.013257728  0.011666394            8 
 4907000   0.46292708    -8.075395     782.7214  0.013292599   0.01166276            9 
 4908000   0.45949919   -8.0596454    781.63479  0.013271441  0.011659132           10 
 4909000    0.4637305   -8.0718168    782.66256  0.013286184  0.011655501            9 
 4910000   0.46813906    -8.066119    782.55033  0.013281574  0.011651871            9 
 4911000   0.45863099   -8.0620926    780.42944  0.013242881  0.011648242           10 
 4912000   0.46955329     -8.05819    781.91988   0.01326547  0.011644615            7 
 4913000   0.46513142   -8.0668736    781.92282   0.01326282  0.011640992           10 
 4914000   0.46348623   -8.0582845    781.78322  0.013257754  0.011637368           11 
 4915000   0.47112659   -8.0723964    782.06687  0.013259865  0.011633742            9 
 4916000   0.46431756   -8.0752324    781.62212  0.013249629  0.011630124            9 
 4917000   0.46740568   -8.0782775    782.65726  0.013264478  0.011626502            9 
 4918000   0.46507876   -8.0713027    782.09386  0.013252234  0.011622883            7 
 4919000   0.46374957    -8.068231    782.02018  0.013248292  0.011619267            7 
 4920000   0.46815573   -8.0737529    781.41344  0.013235322  0.011615651           10 
 4921000   0.45575344   -8.0635784    782.09446  0.013244165  0.011612037            6 
 4922000   0.46913358   -8.0710493    781.07926  0.013224287  0.011608424            7 
 4923000    0.4621494   -8.0718537    781.52387  0.013229126  0.011604814           16 
 4924000   0.46788812   -8.0761869    781.38535  0.013224095  0.011601202           12 
 4925000   0.46564521   -8.0849765    782.73588  0.013244262   0.01159759            9 
 4926000   0.46669394   -8.0512683    781.58401  0.013222087  0.011593978            7 
 4927000   0.45455264   -8.0798656    781.44755  0.013217095  0.011590371            7 
 4928000   0.46490285   -8.0678991    781.92529  0.013222492  0.011586764            8 
 4929000   0.45935005   -8.0764306    781.38014  0.013210593  0.011583156            8 
 4930000    0.4753687   -8.0823642    782.51163  0.013227039  0.011579554           10 
 4931000   0.46093761   -8.0949753    781.91094  0.013214205  0.011575951            9 
 4932000   0.47705423    -8.095188    781.70421  0.013208033  0.011572347            7 
 4933000   0.46116711   -8.0771655    780.52219  0.013185387  0.011568746            8 
 4934000    0.4581845   -8.0830161    781.71049  0.013202785  0.011565144            9 
 4935000    0.4601964   -8.0803406    781.87136  0.013202826  0.011561548            6 
 4936000   0.45521838   -8.0781883    782.03807  0.013202966  0.011557951            6 
 4937000   0.44820354    -8.083167    780.20432  0.013169339  0.011554357           11 
 4938000   0.46430733   -8.0854115    781.30631  0.013185269  0.011550761            7 
 4939000   0.45418022   -8.0924508    780.96208  0.013176791  0.011547164            7 
 4940000   0.46274198   -8.0568386     781.9594  0.013190948  0.011543569            6 
 4941000   0.46830173   -8.0773894    781.18331  0.013175189  0.011539977           12 
 4942000   0.45348188   -8.0818632    780.98572  0.013169191  0.011536385            8 
 4943000   0.46520374   -8.0781863    780.69866  0.013161688  0.011532792            6 
 4944000   0.45480152    -8.065463       780.86  0.013161745  0.011529204            6 
 4945000   0.46180869   -8.0864767    781.00345  0.013161501  0.011525613            5 
 4946000   0.46470093    -8.084377    781.58273    0.0131686  0.011522023            9 
 4947000   0.45536962   -8.0738933    780.80607  0.013152855  0.011518437            9 
 4948000   0.46452698   -8.0698194     779.7561  0.013132513  0.011514849           14 
 4949000   0.45772255   -8.0718547    780.91033  0.013149295  0.011511267            6 
 4950000   0.45262892    -8.080617    780.36566  0.013137469  0.011507686            7 
 4951000   0.46061603   -8.0798696    782.01735  0.013162616  0.011504108           14 
 4952000   0.46328904   -8.0636502    781.75891  0.013155609  0.011500527           11 
 4953000    0.4533252    -8.072677    781.57547  0.013149866  0.011496953            9 
 4954000   0.46731164   -8.0788335    781.24913  0.013141723  0.011493378           13 
 4955000   0.46853606   -8.0800958    780.73775   0.01313047  0.011489803            9 
 4956000   0.45980984   -8.0653218    780.88056  0.013130222   0.01148623            8 
 4957000   0.45872818   -8.0793769    780.98425  0.013129316  0.011482658            9 
 4958000   0.45568113   -8.0685098     781.2164   0.01313057  0.011479087            5 
 4959000    0.4649086   -8.0696182    780.69814  0.013119213  0.011475521            8 
 4960000   0.44917095   -8.0709903    781.17885  0.013124645  0.011471952            7 
 4961000   0.46177715   -8.0876527    781.66737  0.013130205  0.011468387           10 
 4962000   0.44899291   -8.0814333    780.78711  0.013112776  0.011464822            9 
 4963000   0.46387977    -8.091933    782.05307   0.01313139  0.011461262           13 
 4964000   0.47201865   -8.0869541    781.14864  0.013113562    0.0114577            8 
 4965000   0.44913908   -8.0736904    781.35098  0.013114317  0.011454141            8 
 4966000   0.45460901   -8.0677431    780.17967   0.01309202  0.011450583           11 
 4967000   0.45202655   -8.0974573    780.79532  0.013099714  0.011447029            9 
 4968000    0.4596519   -8.0752496    782.33676  0.013122933  0.011443474            9 
 4969000   0.45906593   -8.0764425    780.57544  0.013090753  0.011439921            6 
 4970000   0.45737811   -8.0767443    780.60065  0.013088542  0.011436368            6 
 4971000   0.46626173   -8.0846778    779.73891  0.013071463  0.011432816            5 
 4972000   0.46014854   -8.0849823    781.75881  0.013102688  0.011429267            6 
 4973000   0.45872528   -8.0889593    781.04811  0.013088145   0.01142572            9 
 4974000   0.45592982   -8.0822499    780.23512  0.013071892  0.011422172           13 
 4975000   0.45202981   -8.0802579    780.38278  0.013071738  0.011418627            9 
 4976000   0.45941195   -8.0807082    781.54738  0.013088615  0.011415082            8 
 4977000    0.4544542   -8.0777838    780.27334  0.013064653  0.011411538            9 
 4978000   0.45802362   -8.0703113    781.29124  0.013079069  0.011407996           10 
 4979000   0.46016801   -8.0940275    780.41069  0.013061704  0.011404456            6 
 4980000   0.45307977     -8.08176    779.61893  0.013045832  0.011400915           10 
 4981000   0.44360595   -8.0827682    780.81351  0.013063199  0.011397376           15 
 4982000   0.45445309   -8.0845755     780.3287  0.013052467  0.011393837            5 
 4983000   0.45864547   -8.0950007    780.88532  0.013059156  0.011390301           11 
 4984000   0.44171287   -8.0906045    781.23616  0.013062402  0.011386764            8 
 4985000    0.4477015   -8.0801324    780.70216  0.013050855   0.01138323            9 
 4986000   0.46115384   -8.0814018    780.43505  0.013043773  0.011379695           13 
 4987000   0.46460801    -8.103105    780.73724  0.013046207  0.011376163            8 
 4988000   0.45201336   -8.0845349    779.84431  0.013028674  0.011372629           10 
 4989000   0.45202577   -8.0856678    780.13667  0.013030946    0.0113691            8 
 4990000   0.44878838    -8.093435    780.59998  0.013036072  0.011365571            5 
 4991000   0.45274962   -8.0964055    780.05623  0.013024381  0.011362043            8 
 4992000   0.44586615   -8.0941003     780.5088  0.013029327  0.011358515           12 
 4993000   0.45255677   -8.0941604    780.95978  0.013034244  0.011354989            7 
 4994000   0.45336052   -8.0918408    780.87587  0.013030234  0.011351465           10 
 4995000   0.45053978   -8.0993682     781.3567  0.013035647  0.011347942           15 
 4996000   0.45448709   -8.0777686    779.31634  0.012999005  0.011344422           14 
 4997000   0.45219001    -8.097124     780.7005  0.013019487  0.011340901            8 
 4998000    0.4592849   -8.1017252    780.93721  0.013020828  0.011337383           13 
 4999000   0.45209349   -8.0963117    781.01374    0.0130195  0.011333864           14 
 5000000   0.44591936   -8.0854087    781.07775  0.013017963  0.011330349           14 
 5001000   0.45180967   -8.0983579    779.43919  0.012988056  0.011326832           10 
 5002000   0.45555841   -8.0919258    780.13678  0.012997081  0.011323318            8 
 5003000   0.44603993   -8.0852471    780.14924  0.012994691  0.011319804            9 
 5004000   0.45130883   -8.0882169    779.91897  0.012988259  0.011316292           15 
 5005000   0.45629945   -8.0814511    780.19904  0.012990327  0.011312783            8 
 5006000   0.45311048   -8.0882856    779.55168  0.012976956  0.011309276           15 
 5007000   0.44911665   -8.0954993    780.09769  0.012983451  0.011305765           10 
 5008000   0.45357967   -8.0894125    780.42452  0.012986297  0.011302258            6 
 5009000   0.45383385   -8.1027731    781.76193  0.013005955  0.011298749            7 
 5010000   0.43799982   -8.1051548    779.74732  0.012969849  0.011295243           11 
 5011000   0.44592657   -8.0976825    781.14858  0.012990564  0.011291739            7 
 5012000    0.4435558   -8.1051343    780.39017  0.012975362  0.011288234           12 
Loop time of 11312.1 on 48 procs for 5000000 steps with 4000 atoms

Performance: 76378.457 tau/day, 442.005 timesteps/s
99.4% CPU use with 48 MPI tasks x no OpenMP threads

MPI task timing breakdown:
Section |  min time  |  avg time  |  max time  |%varavg| %total
---------------------------------------------------------------
Pair    | 706.27     | 757.03     | 789.92     |  74.3 |  6.69
Neigh   | 72.244     | 74.299     | 76.458     |  11.1 |  0.66
Comm    | 665.72     | 706.44     | 754.47     |  76.8 |  6.25
Output  | 13.475     | 13.48      | 13.579     |   0.4 |  0.12
Modify  | 9624.7     | 9650.3     | 9675.4     |  12.6 | 85.31
Other   |            | 110.5      |            |       |  0.98

Nlocal:        83.3333 ave          89 max          73 min
Histogram: 1 0 3 4 4 8 5 8 9 6
Nghost:        1886.33 ave        1912 max        1869 min
Histogram: 2 5 5 11 13 7 2 2 0 1
Neighs:        11890.1 ave       13270 max        9844 min
Histogram: 1 0 0 10 6 7 6 11 4 3
FullNghs:      23780.8 ave       25735 max       20817 min
Histogram: 1 1 3 6 5 6 6 9 6 5

Total # of neighbors = 1141480
Ave neighs/atom = 285.37000
Neighbor list builds = 268864
Dangerous builds = 3

#clear
#
#next RN
#
#jump SELF
Total wall time: 3:08:35
