
units lj                  # Use reduced LJ style units
atom_style atomic         # Uncharged point particles
atom_modify map hash      # Needed for indexing of clusters etc
                          # Used to be able to find where atoms are in relation to each other.

lattice fcc 1.0 spacing 1 1 1
Lattice spacing in x,y,z = 1.5874011 1.5874011 1.5874011
region box block 0 10 0 10 0 10 units lattice
create_box 2 box
Created orthogonal box = (0.0000000 0.0000000 0.0000000) to (15.874011 15.874011 15.874011)
  3 by 4 by 4 MPI processor grid
create_atoms 1 box
Created 4000 atoms
  using lattice units in orthogonal box = (0.0000000 0.0000000 0.0000000) to (15.874011 15.874011 15.874011)
  create_atoms CPU = 0.003 seconds
set type 1 type/fraction 2 0.35 78393
Setting atom values ...
  1418 settings made for type/fraction
mass 1 1.0
mass 2 1.0
pair_style lj/cut  3.5
pair_modify tail  yes
pair_coeff 1  1  1.0  1.0   # Intearaction between 1 and 1 set with epsilon = 1 and sigma = 1
pair_coeff 1  2  1.5  0.8
pair_coeff 2  2  0.5  0.88

write_data data.0
System init for write_data ...
Neighbor list info ...
  update every 1 steps, delay 10 steps, check yes
  max neighbors/atom: 2000, page size: 100000
  master list distance cutoff = 3.8
  ghost atom cutoff = 3.8
  binsize = 1.9, bins = 9 9 9
  1 neighbor lists, perpetual/occasional/extra = 1 0 0
  (1) pair lj/cut, perpetual
      attributes: half, newton on
      pair build: half/bin/atomonly/newton
      stencil: half/bin/3d
      bin: standard
WARNING: Not all mixed pair coeffs generated from mixing. Use write_data with 'pair ij' option to store all pair coeffs. (../write_data.cpp:312)


#############################
#   M E L T   S Y S T E M   #
#############################

velocity all create 2.4 6229865 mom yes dist gaussian # Assign velocities
                                                    # Temperature 2.4, random number seed, zero linear momentum
                                                                                # Gaussian distribution

timestep 0.002   # simulation timestep
thermo 1000       # output thermodynamic data every 1000 steps bf 100

# Define a fix  in this case with index 1 applied to all
# particles in the simulation. This fix is for simulations
# in the anisotropic NPT ensemble. Note that we use the MTK
# correction.
fix 1 all npt temp 2.4 2.4 0.1 iso 5.68 5.68 0.5 mtk yes tchain 5 pchain 5 # Use NPT ensemble
                                                                         # Set temperature and pressure and damping
                                                                         # Numbers of thermostats in chain and in barostat
run 10000          # run for 10000 steps
Per MPI rank memory allocation (min/avg/max) = 3.642 | 3.644 | 3.648 Mbytes
Step Temp E_pair E_mol TotEng Press Volume 
       0          2.4   -6.1483103            0   -2.5492103   -4.0910289         4000 
    1000    2.3559853   -5.0294327            0   -1.4963382    5.7555345    3997.8791 
    2000    2.4626979    -5.043064            0   -1.3499406    5.4512557    4041.4017 
    3000    2.3891864   -4.9855947            0    -1.402711    5.7248695    4025.8656 
    4000    2.4042659   -5.0808769            0   -1.4753797    5.6338046    3998.1318 
    5000    2.3620164   -5.0091603            0   -1.4670215    5.6279241    4023.3697 
    6000    2.3671699   -4.9672069            0   -1.4173398    5.3301879     4072.739 
    7000    2.3887189   -4.9582913            0   -1.3761087    5.7871801    4035.6557 
    8000    2.3987249   -4.9706734            0   -1.3734856    5.7457076    4034.1443 
    9000    2.3569929    -4.999839            0   -1.4652335    5.4358397    4043.7674 
   10000    2.4394898   -5.0211093            0   -1.3627895    5.9665144    3996.5803 
Loop time of 2.50363 on 48 procs for 10000 steps with 4000 atoms

Performance: 690199.018 tau/day, 3994.207 timesteps/s
99.5% CPU use with 48 MPI tasks x no OpenMP threads

MPI task timing breakdown:
Section |  min time  |  avg time  |  max time  |%varavg| %total
---------------------------------------------------------------
Pair    | 1.0795     | 1.1528     | 1.2267     |   2.8 | 46.04
Neigh   | 0.20364    | 0.21495    | 0.22854    |   0.9 |  8.59
Comm    | 0.76922    | 0.85615    | 0.95292    |   4.1 | 34.20
Output  | 0.00025171 | 0.00025515 | 0.00031703 |   0.0 |  0.01
Modify  | 0.23087    | 0.26002    | 0.29148    |   3.5 | 10.39
Other   |            | 0.0195     |            |       |  0.78

Nlocal:        83.3333 ave          93 max          75 min
Histogram: 4 5 6 8 2 6 7 4 4 2
Nghost:        1639.42 ave        1670 max        1611 min
Histogram: 2 2 6 9 9 9 3 3 2 3
Neighs:        9558.88 ave       10888 max        8331 min
Histogram: 3 3 7 9 5 6 2 6 3 4

Total # of neighbors = 458826
Ave neighs/atom = 114.70650
Neighbor list builds = 907
Dangerous builds = 203

# Equilibrate just above the melting temperature to avoid step fn in T

fix 1 all npt temp 1.25 1.25 0.1 iso 5.68 5.68 0.5 mtk yes tchain 5 pchain 5
run 2000
Per MPI rank memory allocation (min/avg/max) = 3.643 | 3.645 | 3.649 Mbytes
Step Temp E_pair E_mol TotEng Press Volume 
   10000    2.4394898   -5.0211093            0   -1.3627895    5.9665144    3996.5803 
   11000    1.2421035   -6.9435392            0   -5.0808498    5.7386313    3215.4646 
   12000     1.237558   -7.0031769            0    -5.147304    5.7908205    3193.1676 
Loop time of 0.591929 on 48 procs for 2000 steps with 4000 atoms

Performance: 583853.527 tau/day, 3378.782 timesteps/s
99.6% CPU use with 48 MPI tasks x no OpenMP threads

MPI task timing breakdown:
Section |  min time  |  avg time  |  max time  |%varavg| %total
---------------------------------------------------------------
Pair    | 0.26438    | 0.28501    | 0.31169    |   2.2 | 48.15
Neigh   | 0.037864   | 0.04049    | 0.043881   |   0.6 |  6.84
Comm    | 0.18836    | 0.21556    | 0.23932    |   2.8 | 36.42
Output  | 5.2009e-05 | 5.3151e-05 | 6.7851e-05 |   0.0 |  0.01
Modify  | 0.042532   | 0.045992   | 0.049593   |   0.9 |  7.77
Other   |            | 0.004823   |            |       |  0.81

Nlocal:        83.3333 ave          93 max          75 min
Histogram: 2 4 6 9 3 10 6 3 4 1
Nghost:        1907.56 ave        1943 max        1878 min
Histogram: 1 2 8 10 8 8 6 3 0 2
Neighs:        11954.3 ave       13189 max       10269 min
Histogram: 2 2 2 4 7 5 10 9 3 4

Total # of neighbors = 573806
Ave neighs/atom = 143.45150
Neighbor list builds = 142
Dangerous builds = 10

#############################
# L I N E A R  Q U E N C H  #
#############################

# Define solid atoms. This closely follows ten Wolde  Ruiz-Montero and Frenkel  Faraday Discuss  1996  104  93-110
# Compute components of the per-atom q6 vector
compute q6 all orientorder/atom degrees 1 6 components 6 nnn NULL cutoff 1.3 # compute the Q6 parameter.
                                                                             # Use all neighbours within 1.3 unit cell.

# get number of connections
compute coord_number all coord/atom orientorder q6 0.5

# An atom is solid if it has 8 or more connections (of a possible 14)
variable is_solid atom c_coord_number>=8
group solid dynamic all var is_solid    # Must be dynamic to update
dynamic group solid defined

# do clustering
compute cluster solid cluster/atom 1.3 # Create a cluster where all atoms within are solid and max 1.3 units from another member

# define chunks one chunk per cluster
compute clus_chunks solid chunk/atom c_cluster nchunk every compress yes  # Says which atoms are in which chunk

# count the size of each chunk
compute size_chunks solid property/chunk clus_chunks count


# Find the maximum entry in the vector of chunk sizes
variable max_n equal max(c_size_chunks)


# Thermo style which includes this variable
# thermo_style custom step temp pe vol v_max_n

thermo ${N}  # Print the thermo information every 100 steps
thermo 1000  

# Reset the npt fix at a lower temperature (below freezing)
fix 1  all npt temp  ${temp} ${temp}  0.1  iso  5.68  5.68  0.5  mtk yes tchain  5  pchain  5
fix 1  all npt temp  0.45 ${temp}  0.1  iso  5.68  5.68  0.5  mtk yes tchain  5  pchain  5
fix 1  all npt temp  0.45 0.45  0.1  iso  5.68  5.68  0.5  mtk yes tchain  5  pchain  5

dump dmp2 all dcd ${N} traj.dcd
dump dmp2 all dcd 1000 traj.dcd


compute msd all msd com yes
variable twopoint equal c_msd[4]/6/(step*dt+1.0e-6)
fix 9 all vector 10 c_msd[4]
variable fit equal slope(f_9)/6/(10*dt)
thermo_style custom step temp pe c_msd[4] v_twopoint v_fit v_max_n

fix 1 all npt temp 1.25 ${temp} 0.1 iso 5.68 5.68 0.5 mtk yes tchain 5 pchain 5
fix 1 all npt temp 1.25 0.45 0.1 iso 5.68 5.68 0.5 mtk yes tchain 5 pchain 5
run 2000000 # 5000000  # Run for this many steps
Neighbor list info ...
  update every 1 steps, delay 10 steps, check yes
  max neighbors/atom: 2000, page size: 100000
  master list distance cutoff = 3.8
  ghost atom cutoff = 3.8
  binsize = 1.9, bins = 8 8 8
  4 neighbor lists, perpetual/occasional/extra = 1 3 0
  (1) pair lj/cut, perpetual
      attributes: half, newton on
      pair build: half/bin/atomonly/newton
      stencil: half/bin/3d
      bin: standard
  (2) compute orientorder/atom, occasional
      attributes: full, newton on
      pair build: full/bin/atomonly
      stencil: full/bin/3d
      bin: standard
  (3) compute coord/atom, occasional
      attributes: full, newton on
      pair build: full/bin/atomonly
      stencil: full/bin/3d
      bin: standard
  (4) compute cluster/atom, occasional
      attributes: full, newton on
      pair build: full/bin/atomonly
      stencil: full/bin/3d
      bin: standard
Per MPI rank memory allocation (min/avg/max) = 9.816 | 9.823 | 9.827 Mbytes
Step Temp PotEng c_msd[4] v_twopoint v_fit v_max_n 
   12000     1.237558   -7.0031769 9.8094854e-31 6.8121423e-33 8.3333333e+20            2 
   13000    1.2485344   -6.9664239   0.52110061 0.0033403884  0.042482557            6 
   14000    1.2340464   -6.9759838    1.0335332 0.0061519831  0.043115291            2 
   15000    1.2423904   -7.0286093    1.5245678 0.0084698207  0.042099372            2 
   16000    1.2737664    -7.036595    2.0122529  0.010480484  0.042057608            1 
   17000     1.276807   -6.9865135    2.4385688  0.011953768  0.041201278            1 
   18000    1.2186544   -7.0191786    2.8683826  0.013279549  0.040097671            1 
   19000    1.2544516   -6.9688583    3.3641985  0.014755256  0.039515255            1 
   20000    1.2591227   -7.0188781    3.7740521  0.015725217  0.038955747            2 
   21000     1.246464   -6.9576162    4.1834787  0.016601106  0.038474172            3 
   22000    1.2660356   -7.0411472    4.6011581  0.017428629  0.038091048            2 
   23000    1.2367558    -7.022612     5.097856  0.018470492  0.037842471            1 
   24000    1.2558021   -7.0262019    5.5451717  0.019254068  0.037752874            1 
   25000    1.2650787   -7.0510877    5.9793061   0.01993102  0.037653171            2 
   26000     1.244361    -6.982236     6.425543  0.020594689   0.03756207            2 
   27000    1.2307222   -6.9809159    6.8544988   0.02115586  0.037441702            2 
   28000    1.2527508   -7.0428382    7.3742161  0.021947071  0.037453779            1 
   29000    1.2561321   -7.0022586    7.8828104  0.022651754  0.037584436            1 
   30000    1.2381437   -7.0552685     8.423923  0.023399786  0.037733668            2 
   31000    1.2531414   -7.0241734    8.8724541  0.023850683  0.037934392            3 
   32000    1.2374536    -7.051998    9.2946394   0.02420479  0.038018615            2 
   33000    1.2436219   -6.9841406    9.7165498  0.024536742  0.038065865            2 
   34000    1.2785212   -7.0157946     10.06872  0.024678235  0.038005435            4 
   35000    1.2329496   -6.9969511    10.493404  0.024984294  0.037918111            1 
   36000    1.2555102   -6.9869111    10.962795   0.02537684  0.037817961            1 
   37000    1.2022999   -7.0021908    11.391117  0.025655668  0.037740641            2 
   38000    1.2527318   -7.0259254    11.814197  0.025908327  0.037692611            1 
   39000    1.2446626   -7.0497091     12.20894  0.026087478  0.037589518            1 
   40000    1.2765025    -7.039648    12.578461  0.026205126  0.037479869            1 
   41000    1.2640692   -7.0707692    12.914121  0.026248212  0.037364419            1 
   42000     1.222034   -7.0331493    13.385992  0.026559507  0.037231673            1 
   43000    1.2211447   -7.0059993    13.875887  0.026891254  0.037122664            2 
   44000    1.2309271    -7.042607    14.241335  0.026972225  0.037016277            3 
   45000    1.2454927   -7.0536459    14.847004  0.027494451  0.036953968            1 
   46000    1.2338748   -7.0354918    15.393756  0.027887239   0.03696391            1 
   47000    1.2283361   -7.0125678    15.692737  0.027824002  0.036949087            3 
   48000    1.2332788   -7.0812913    16.109905  0.027968585  0.036916774            1 
   49000    1.2325186   -7.0121951     16.41447  0.027915765  0.036859401            3 
   50000    1.2172808   -7.0804615    16.839097  0.028065162  0.036787639            2 
   51000    1.2252684   -7.0340504    17.355521  0.028358695  0.036728527            1 
   52000    1.2299669   -7.0711785     17.79093  0.028511106  0.036689505            2 
   53000    1.2476158   -6.9926596    18.174379  0.028576067  0.036664833            1 
   54000     1.237552    -7.046223    18.452288  0.028475753   0.03660527            1 
   55000    1.2682482    -7.065361    18.834336  0.028536873  0.036527831            2 
   56000    1.2479802    -7.030538     19.26048  0.028661428  0.036439466            3 
   57000    1.2106233   -7.0797387    19.739006  0.028858196  0.036362695            2 
   58000    1.2441282   -7.0637686    20.115589  0.028901708  0.036297872            1 
   59000    1.2508812   -7.0888639    20.727748   0.02927648   0.03625282            1 
   60000    1.2316582   -7.0782806     21.04407  0.029227875  0.036236202            2 
   61000    1.2677532   -7.0241047    21.517941  0.029396095  0.036195803            1 
   62000    1.2473869   -7.0707288    21.882165  0.029411512  0.036155334            2 
   63000    1.2449893   -7.0358533    22.359943  0.029576644  0.036116212            1 
   64000    1.2024016   -7.0778623     22.67739  0.029527851  0.036089146            1 
   65000    1.2184369   -7.0515465    23.247076  0.029803943   0.03606969            1 
   66000    1.2260062   -7.0259299    23.816879  0.030071817  0.036070526            2 
   67000    1.2315135   -7.0709485    24.303399  0.030228108  0.036065637            1 
   68000    1.2359963   -7.0614222    24.676585  0.030240913  0.036075313            1 
   69000    1.2158731   -7.0309819    25.145753  0.030369267  0.036087956            4 
   70000    1.2351929   -7.0643776     25.50412  0.030362048  0.036095125            2 
   71000     1.225085     -7.04684    25.897309  0.030395903  0.036092163            3 
   72000    1.2258018   -7.0604669    26.448081  0.030611205  0.036102031            2 
   73000    1.2162293   -7.0187466    26.891055  0.030697551  0.036116485            1 
   74000    1.2242034   -7.0099755    27.339701  0.030787952  0.036133005            2 
   75000    1.2081122   -7.0030174    27.682985  0.030758872  0.036148727            3 
   76000    1.2030682   -7.0218206    28.143971  0.030859618  0.036154568            2 
   77000    1.2283486   -7.0941136     28.42383   0.03076172  0.036139169            2 
   78000    1.2232538   -7.0685054    28.930294  0.030908434  0.036114436            1 
   79000    1.2100759   -7.0951001     29.27065  0.030876213  0.036095049            2 
   80000    1.2435611   -7.0770236    29.725384  0.030963941  0.036081465            2 
   81000    1.2232472   -7.0723025    30.185745  0.031055293  0.036070859            2 
   82000     1.193491   -7.0898432    30.586923  0.031084271  0.036064578            2 
   83000    1.2231135   -7.1117203    31.159952  0.031285092  0.036065831            2 
   84000    1.2091718   -7.0725323    31.476972  0.031227155  0.036062662            1 
   85000    1.1998414   -7.0734526    31.991671  0.031364383  0.036057835            1 
   86000    1.1992476    -7.058219    32.351726  0.031348571  0.036054835            3 
   87000    1.2220914   -7.0788288    32.677347   0.03130014  0.036038869            1 
   88000     1.225373    -7.093501    33.041327  0.031289135   0.03602535            1 
   89000    1.2190273   -7.1057843    33.444344  0.031314929  0.036005271            1 
   90000    1.1962813   -7.1111869    33.957811  0.031442417  0.035995262            2 
   91000    1.2060248   -7.0540293    34.479375  0.031574519  0.035983355            3 
   92000    1.1911237   -7.0431047    34.952649  0.031660008  0.035975631            1 
   93000    1.2294158   -7.0990249    35.176513  0.031520173  0.035967861            2 
   94000    1.2166229   -7.0163685    35.703157  0.031651735  0.035955931            2 
   95000    1.1909915   -7.0612209    36.022683  0.031598844  0.035941901            2 
   96000     1.217997   -7.0634408    36.574332  0.031748552   0.03593002            2 
   97000    1.1929665   -7.0540832    36.884159  0.031687422  0.035920075            1 
   98000    1.2183762    -7.068112    36.934477  0.031406868  0.035891385            1 
   99000    1.2320476   -7.0920017    37.154084  0.031274482  0.035848586            2 
  100000    1.2000542   -7.0597097     37.73672  0.031447266  0.035803779            1 
  101000    1.2013845    -7.073018    38.170192  0.031493558  0.035767384            1 
  102000    1.2054885   -7.0860655    38.506912  0.031459895  0.035732232            1 
  103000    1.2020137   -7.1038824    38.904332  0.031475997  0.035703847            1 
  104000    1.2252375   -7.0850641    39.353968  0.031533628  0.035671614            1 
  105000    1.2071556   -7.0549836     39.87428  0.031646254  0.035639584            2 
  106000    1.1938895   -7.0826754    40.123253  0.031543438  0.035605775            3 
  107000     1.196516   -7.0947149    40.604577  0.031623502  0.035577023            2 
  108000    1.2111906   -7.0613089    41.050398   0.03167469  0.035548812            2 
  109000    1.2332736   -7.0490915    41.385309  0.031640144  0.035517116            1 
  110000    1.1906509   -7.1104617    41.668246  0.031566853  0.035484423            1 
  111000    1.2007115   -7.1002121    42.153424  0.031646715  0.035456502            1 
  112000    1.2045593   -7.1239031    42.417168  0.031560393  0.035429004            3 
  113000    1.2049679   -7.0858337    42.842489  0.031594756  0.035400367            1 
  114000    1.2058737   -7.0618557    43.288577  0.031643696   0.03536509            1 
  115000    1.1768427   -7.1149662    43.746395  0.031700286  0.035330423            1 
  116000     1.186802   -7.0947928    44.142878  0.031711838  0.035300704            1 
  117000    1.2105405   -7.0931133    44.563862  0.031740643  0.035276066            1 
  118000    1.2035081   -7.0685745     44.93368  0.031732825  0.035248952            2 
  119000    1.2136486    -7.133051    45.247277  0.031685768  0.035223241            2 
  120000    1.2204759   -7.1189739    45.604098  0.031669513  0.035198137            1 
  121000    1.2071411   -7.0780143    45.917118   0.03162336  0.035169089            3 
  122000    1.1958151   -7.1230996    46.157092  0.031528068  0.035136526            2 
  123000    1.1991664    -7.075005     46.62262  0.031587141  0.035101295            1 
  124000    1.2080833   -7.0904708    47.224719  0.031737043  0.035070753            2 
  125000    1.2282209   -7.1440634    47.572357  0.031714904  0.035041117            1 
  126000    1.2149682   -7.1229346    47.929629   0.03169949  0.035012379            1 
  127000    1.2014483   -7.0828572     48.29497  0.031689613  0.034980784            2 
  128000    1.2082433   -7.0962489    48.697043  0.031703804  0.034949465            2 
  129000       1.2113   -7.1158572    48.974611  0.031637345  0.034915654            3 
  130000    1.1747101   -7.1069624    49.493618  0.031726678  0.034885089            1 
  131000    1.2013454   -7.1054057    49.936674  0.031766332  0.034856989            2 
  132000     1.227298   -7.0944459    50.398581  0.031817286  0.034833808            3 
  133000    1.1833257    -7.102614    50.772151  0.031812125  0.034810439            1 
  134000    1.1728352   -7.0639152     51.37064  0.031946916  0.034790575            2 
  135000    1.1919388    -7.106213    51.605483  0.031855237  0.034772899            2 
  136000    1.2222054   -7.1190046    52.215378  0.031994716  0.034754228            1 
  137000     1.212854   -7.1107706    52.120272  0.031703329  0.034732003            3 
  138000    1.1862699   -7.1386419    52.484902  0.031693781   0.03470786            2 
  139000    1.1952065   -7.0954545    53.085581  0.031825888   0.03467742            1 
  140000    1.2107345   -7.1024064    53.241619   0.03169144  0.034651604            2 
  141000    1.1821397   -7.1692801    53.438848  0.031583243  0.034624349            1 
  142000    1.1981011   -7.1845193    53.924002  0.031645541  0.034594835            2 
  143000      1.20276   -7.1440588     54.36878  0.031683438  0.034564937            1 
  144000    1.1981624    -7.127101    54.711616  0.031661815  0.034534443            1 
  145000    1.1924013   -7.1080933    55.193144  0.031720198  0.034505773            2 
  146000    1.1971687   -7.1277596    55.442337   0.03164517  0.034476176            2 
  147000    1.2081081   -7.0524972    55.911634  0.031695937  0.034448517            1 
  148000    1.1949043   -7.1346331     56.21148  0.031650608  0.034419299            2 
  149000    1.2046441   -7.1177687    56.446699  0.031569742  0.034388199            1 
  150000    1.2378422   -7.1888386    56.494295   0.03138572  0.034354118            2 
  151000    1.2068954   -7.0895649    57.063952  0.031492247  0.034318545            3 
  152000    1.1753272   -7.1366484    57.242939   0.03138319  0.034281911            1 
  153000    1.2063653   -7.2021284    57.438472  0.031284571  0.034242769            2 
  154000    1.2212242   -7.1047282    58.479609   0.03164481  0.034210211            1 
  155000    1.1769302    -7.123417    58.719088  0.031569402   0.03418125            3 
  156000    1.2167372   -7.1376246    59.187343   0.03161717  0.034151689            4 
  157000    1.1994028   -7.1815566    59.264708  0.031456852  0.034121597            2 
  158000    1.2074449   -7.1504479    59.989432  0.031639996  0.034093831            2 
  159000     1.182864   -7.1419672    60.099904  0.031498902  0.034067197            2 
  160000    1.1870285   -7.1537278    60.477162  0.031498522  0.034039993            1 
  161000    1.1921194   -7.1340094    60.737643  0.031437703  0.034008382            2 
  162000    1.1789382   -7.1592154     60.77401  0.031262351  0.033973656            2 
  163000    1.1957982    -7.172395    61.294119  0.031336462  0.033937887            2 
  164000    1.1857827   -7.0958617    61.736008  0.031369923  0.033905195            1 
  165000    1.1740839   -7.1751128    62.171021  0.031399505  0.033874899            2 
  166000    1.1593965   -7.1439794    62.717012  0.031484444  0.033846405            1 
  167000    1.1737425   -7.1369929    63.315753  0.031594687   0.03382265            2 
  168000    1.1825052     -7.12595    63.702911  0.031598666  0.033800471       -1e+20 
  169000    1.1685797     -7.14679    64.020866  0.031568474  0.033778542            1 
  170000    1.1846176    -7.154461    64.347761   0.03154302   0.03375432            1 
  171000    1.1624576   -7.1112149    64.913433  0.031634226  0.033732685            1 
  172000    1.2024831   -7.1594254    65.245728  0.031611302  0.033714258            1 
  173000    1.1600616    -7.123006    65.479115     0.031541  0.033694343            1 
  174000    1.1951242   -7.1082127    66.072959  0.031644138  0.033672448            1 
  175000     1.189638    -7.159534    66.089448  0.031471166  0.033648137            2 
  176000    1.1881135   -7.1659181    66.284671  0.031384787   0.03362266            2 
  177000    1.1466563   -7.1637086    66.653584   0.03138116  0.033595785            2 
  178000    1.2157324   -7.2254758    67.383686   0.03154667  0.033573888            1 
  179000    1.1852529   -7.1533595    67.742597  0.031537522  0.033554383            1 
  180000    1.1904669   -7.1245428    68.311418  0.031625656  0.033536861            2 
  181000    1.1890126    -7.131484    68.821827  0.031685924  0.033518073            2 
  182000    1.1808564   -7.1364064    69.173932  0.031673045  0.033500139            2 
  183000    1.1900601   -7.1696396    69.335372  0.031573484  0.033482905            1 
  184000    1.1725488   -7.1844378    69.642251  0.031540874  0.033463657            4 
  185000    1.1654803   -7.1484809     69.78266  0.031433631  0.033441676            1 
  186000    1.1811445   -7.1317581    70.036617  0.031378413  0.033419976            1 
  187000    1.1657287   -7.1536314    70.296332  0.031326351  0.033397091            2 
  188000    1.1783437   -7.1879517    70.704175  0.031340503  0.033371701            3 
  189000    1.1832495    -7.204965    70.714318  0.031179153  0.033345429            2 
  190000    1.2063705   -7.0959468    71.289169  0.031267179  0.033320337            2 
  191000    1.1810925   -7.1249847    71.924224  0.031380552  0.033296362            1 
  192000    1.1622515    -7.145429    71.905241  0.031208872  0.033270724            2 
  193000    1.1869351   -7.2039797    72.441024  0.031278508  0.033246145            1 
  194000    1.1857747   -7.1418904    72.953317  0.031337335   0.03322458            3 
  195000    1.1985361   -7.1798701    73.612624  0.031458386  0.033204308            1 
  196000    1.1797657   -7.1645083    73.893323  0.031417229  0.033186168            3 
  197000    1.1712615   -7.1699485      74.1534  0.031367766  0.033164195            2 
  198000     1.183831   -7.1548876    74.549547  0.031376072   0.03314511            2 
  199000    1.1754025   -7.1484448    75.074936  0.031438415   0.03312844            2 
  200000    1.1809828   -7.1491102    75.683813  0.031534922  0.033113927            1 
  201000    1.1790994   -7.1714112    75.769187  0.031413427  0.033098245            1 
  202000    1.2013174   -7.1448339    76.033362  0.031366898  0.033080567            1 
  203000    1.1760138   -7.2447537     76.62219  0.031454101  0.033065583            1 
  204000    1.1674688   -7.1400127    76.895158  0.031411421   0.03305083            1 
  205000    1.1814292   -7.1686594    77.412692  0.031468574  0.033036495            1 
  206000    1.1746687   -7.1791195    77.775679  0.031462653   0.03302372            1 
  207000    1.1390603   -7.1412039    78.465474  0.031588355  0.033010715            1 
  208000    1.1698499   -7.1921557    78.377866  0.031401389  0.032998213            1 
  209000    1.1659572    -7.161908    78.735415  0.031393706  0.032984473            2 
  210000    1.1701806   -7.1884472    79.230597  0.031440713  0.032970405            1 
  211000    1.1483812   -7.1588898    79.838016  0.031531602  0.032956654            2 
  212000    1.1770982   -7.2007294    79.965694  0.031433056  0.032941527            2 
  213000    1.1672279   -7.1939149    80.307051  0.031419034  0.032925589            3 
  214000     1.150454   -7.1375867    80.794765  0.031462136  0.032911635            1 
  215000    1.1722695   -7.1817523    80.940603  0.031372327  0.032898961            1 
  216000    1.1823474    -7.161244    81.684535  0.031514095  0.032885752            1 
  217000     1.150426   -7.1401559    81.913445  0.031456776  0.032872697            1 
  218000      1.17196   -7.1672635    82.384542  0.031492562  0.032859891            2 
  219000    1.1703349   -7.2057378    82.657517  0.031452632  0.032845819            1 
  220000    1.1679215   -7.1532982     83.27776  0.031544606  0.032833496            2 
  221000    1.1388895   -7.2062495    82.788911  0.031217538    0.0328197            3 
  222000    1.1621373   -7.2013279    83.274076  0.031259037  0.032803658            3 
  223000    1.1759782   -7.1909498    83.743253   0.03129419  0.032787554            1 
  224000    1.1443947   -7.2160621    84.016082  0.031255983  0.032770735            3 
  225000     1.176497   -7.1665935    84.571087  0.031322625  0.032754847            1 
  226000      1.18162   -7.2221004     84.77077  0.031257658  0.032739192            2 
  227000    1.1699181   -7.1971451    84.972949  0.031194181  0.032722017            2 
  228000    1.1631884   -7.2001346    85.597363  0.031285586  0.032705097            2 
  229000    1.1623835   -7.2737788    85.432442  0.031088953  0.032689072            2 
  230000    1.1630623    -7.156616    86.095366  0.031193973   0.03267177            2 
  231000    1.1808428   -7.2261331    86.857115  0.031333735  0.032656746            2 
  232000    1.1402423   -7.1923566    87.068022  0.031274433  0.032641409            1 
  233000    1.1547954   -7.1809147    87.335927  0.031236025  0.032626624            2 
  234000    1.1505424   -7.2015851    87.672629  0.031222446  0.032610212            2 
  235000     1.153386   -7.1832945    88.160441  0.031262568  0.032594746            1 
  236000    1.1701112   -7.2004969    88.444801  0.031230509  0.032580082            1 
  237000    1.1597347   -7.2196889    88.211643  0.031016752  0.032561089            2 
  238000    1.1839581    -7.241143    88.811399  0.031096428   0.03254214            2 
  239000    1.1661566   -7.2176929     88.83649  0.030975066   0.03252225            3 
  240000    1.1555627   -7.1710284     89.74059  0.031159927  0.032503843            1 
  241000    1.1478998   -7.2287308    89.592997  0.030979598  0.032485809            1 
  242000    1.1624244   -7.1977043    90.389302  0.031125793  0.032468528            2 
  243000    1.1716078   -7.2271325    90.558793  0.031055827  0.032451821            2 
  244000    1.1379676   -7.2143352    91.317542  0.031187685  0.032434785            1 
  245000    1.1542171   -7.1960236    91.833477  0.031235877  0.032420913            1 
  246000    1.1451829    -7.190228    91.984889  0.031160193  0.032406478            5 
  247000    1.1389681   -7.2010709    92.185643  0.031101769  0.032391784            3 
  248000    1.1936585   -7.2140409    92.452386   0.03106599  0.032376464            3 
  249000     1.154801   -7.2086632    92.975068  0.031116154  0.032361489            1 
  250000    1.1609872   -7.2021693    93.045872  0.031015291  0.032346656            1 
  251000    1.1490062   -7.1867947      93.8471  0.031157736  0.032332244            3 
  252000     1.154466   -7.1842243    94.193339  0.031148591  0.032316916            2 
  253000    1.1138382   -7.2089964    94.438917  0.031106362  0.032301654            1 
  254000    1.1762328   -7.1520024    95.240122  0.031246759  0.032286576            1 
  255000    1.1516236    -7.157539    95.452991  0.031193788  0.032274693            4 
  256000    1.1523421   -7.2536194    95.235883  0.031001264  0.032262016            1 
  257000    1.1427485   -7.2126435    95.939263  0.031108711    0.0322483            1 
  258000    1.1538437   -7.1914719    96.528563  0.031178476  0.032235834            3 
  259000    1.1515444   -7.2012842    96.528891  0.031058202  0.032222471            1 
  260000    1.1489886   -7.2672042    96.413471  0.030901753  0.032208362            1 
  261000    1.1302861   -7.2383531    96.981542  0.030964733  0.032192674            2 
  262000    1.1300867   -7.2229601    97.259891   0.03093508  0.032176408            1 
  263000    1.1336293   -7.2132786    97.512472  0.030897488  0.032160193            1 
  264000    1.1662707   -7.2377633    97.396422   0.03074382  0.032141398            1 
  265000    1.1120971   -7.1839763    98.128708  0.030858084   0.03212225            2 
  266000    1.1397791    -7.233168    98.253339  0.030781121  0.032103457       -1e+20 
  267000    1.1396846   -7.1543783    98.768055  0.030826484  0.032084715            1 
  268000    1.1422741   -7.1801769    98.987335  0.030779644  0.032066201            1 
  269000    1.1444697   -7.2364472    99.136042  0.030711289  0.032046809            1 
  270000     1.147179    -7.224478    99.543797  0.030723394  0.032028193            1 
  271000     1.145835   -7.2858936    99.671487  0.030649289   0.03200878            1 
  272000    1.1322748   -7.2310147     100.4259  0.030767739  0.031990678            1 
  273000    1.1584664   -7.2132807    100.92488   0.03080735  0.031974424            2 
  274000    1.1508328   -7.2628052      101.088  0.030744525  0.031957932            1 
  275000     1.138406   -7.2471345    101.69894   0.03081786  0.031942299            1 
  276000    1.1272242   -7.2600138    102.08521  0.030822831  0.031927402            2 
  277000    1.1440346   -7.2458456    102.68034  0.030890595  0.031912646            2 
  278000    1.1561456   -7.2017975     103.3146  0.030969604  0.031899667            1 
  279000    1.1063243   -7.2281268    103.53176  0.030923463  0.031887552            1 
  280000    1.1447352   -7.1826788    104.33485  0.031052037  0.031876655            2 
  281000    1.1224568   -7.2478888    104.72156  0.031056216  0.031866872            2 
  282000    1.1628029   -7.2471834     105.4598  0.031164244  0.031857852            2 
  283000    1.1466667   -7.2508012    105.19321  0.030975623  0.031848084            1 
  284000    1.1189185   -7.2382694    105.69759   0.03101455  0.031838006            2 
  285000    1.1402199   -7.2380931    105.69045  0.030903642  0.031827512            1 
  286000    1.1436147   -7.2798142    105.89032  0.030853824  0.031814535            2 
  287000    1.1579154   -7.2363245    106.17989  0.030830397  0.031802008            5 
  288000    1.1394086   -7.2512402    106.59078  0.030842241  0.031789505            3 
  289000    1.1218151   -7.3057044    106.43918  0.030691804  0.031776492            1 
  290000    1.1234902   -7.2490887    107.24781  0.030818335   0.03176356            1 
  291000    1.1551373   -7.2501185    107.70925  0.030844573  0.031750461            2 
  292000    1.1553332   -7.2271162    107.97411   0.03081453   0.03173817            1 
  293000    1.1336476   -7.2101074    108.62254  0.030893783  0.031726296            1 
  294000    1.1269418     -7.24461    109.07915  0.030918125  0.031716161            2 
  295000    1.1129806   -7.2767396      108.964  0.030780791  0.031703732            1 
  296000    1.1150543   -7.2260486    109.77033  0.030903808  0.031692198            5 
  297000    1.1537139    -7.248943    109.74345  0.030792215  0.031681162            1 
  298000    1.1521764   -7.2789912    110.31341   0.03084827  0.031670858            6 
  299000    1.1188011   -7.2876417    110.32308  0.030747793  0.031660739            2 
  300000    1.1243045   -7.2597265     111.1103  0.030863971  0.031650963            1 
  301000    1.1175301   -7.2188603    111.74187  0.030936288  0.031642144            1 
  302000     1.164985   -7.2601542    111.91361   0.03088124  0.031632872            2 
  303000    1.1296131   -7.3133115    112.14258  0.030842295  0.031624097            2 
  304000    1.1090878   -7.2718741     112.2903  0.030781333  0.031614423            1 
  305000    1.0984756   -7.2864904    113.16461  0.030919294  0.031605346            1 
  306000    1.1232533   -7.2649803    113.43485  0.030891843    0.0315972            2 
  307000    1.1423185   -7.2735982    113.44469  0.030793889  0.031587427            1 
  308000    1.1608482   -7.2907675    113.76131  0.030779575  0.031577757            1 
  309000    1.1211122   -7.2855088    113.94352  0.030729105  0.031568093            1 
  310000    1.1454562   -7.2623971    114.53484  0.030788935  0.031558402            2 
  311000    1.1248309   -7.2852116    114.83155  0.030769441  0.031549049            1 
  312000    1.1268077   -7.3031389    114.95887  0.030704827  0.031540329            1 
  313000    1.1102535   -7.2694724    115.31925  0.030702675  0.031531018            4 
  314000    1.1296175   -7.2798093    115.97366  0.030778572  0.031521371            1 
  315000    1.1340619   -7.2873288    115.98617  0.030684171  0.031512016            2 
  316000    1.1265006   -7.2494072    116.35655  0.030684743  0.031501743            2 
  317000    1.1131134    -7.292575    116.31151  0.030576106  0.031490811            1 
  318000    1.1535746   -7.2960724    116.83045  0.030615946  0.031478464            1 
  319000    1.1071569   -7.3118295    116.88265  0.030533606  0.031467586            1 
  320000    1.0995381   -7.2368794    117.73506  0.030660173   0.03145662            1 
  321000    1.1464041   -7.3015885     118.0501  0.030646443  0.031445537            1 
  322000    1.1265485   -7.2692061    118.25238  0.030603619  0.031435054            1 
  323000    1.1420571   -7.3220393    118.21708  0.030499762  0.031423011            1 
  324000    1.1400241   -7.2914181    118.52941  0.030485959  0.031411321            2 
  325000    1.1133905   -7.2785419    119.66642  0.030683698  0.031400798            1 
  326000    1.1215442   -7.2784121     120.4008    0.0307773   0.03139103            1 
  327000    1.1164386   -7.2709702    120.41857  0.030687708  0.031382309            3 
  328000     1.104741    -7.281003    120.47934  0.030609587  0.031373037            1 
  329000    1.1417281   -7.2589037    121.25513  0.030713052  0.031363691            3 
  330000    1.1305294   -7.3238077    121.11901  0.030585609  0.031353788            2 
  331000    1.1320479   -7.3264152    121.32515  0.030545103  0.031343625            1 
  332000     1.119334   -7.3129458    121.76779  0.030564205  0.031333124            1 
  333000    1.1325042    -7.271679    121.84964  0.030492903   0.03132241            2 
  334000    1.1144466   -7.2261659    122.94721  0.030675452  0.031311168            1 
  335000     1.121643   -7.3379563    122.92352  0.030577989  0.031300679            2 
  336000    1.1150173   -7.2990852     123.7552  0.030693253  0.031291065            2 
  337000    1.1215796    -7.284257    123.93952  0.030647755  0.031282309            2 
  338000    1.1149184   -7.3002511     124.4356  0.030679389  0.031272841            2 
  339000    1.1258442   -7.3120186    124.41762  0.030584469  0.031263273            1 
  340000    1.1111372   -7.3142324    124.51982  0.030519564  0.031253458            2 
  341000    1.0950725   -7.3217696    125.05822  0.030561636  0.031243438            2 
  342000    1.1136997   -7.3338631    124.87314  0.030427179  0.031232499            3 
  343000     1.106217   -7.2852926    125.73714  0.030548383  0.031221644            1 
  344000    1.1355764   -7.3187542    125.89678   0.03049825   0.03121114            1 
  345000    1.1054618   -7.2681571    126.22954  0.030490227  0.031200489            2 
  346000    1.1119336    -7.313981    126.51491  0.030470835  0.031189688            1 
  347000    1.1196492   -7.3785602    125.98035  0.030254646  0.031177565            3 
  348000    1.1052616   -7.3203642    126.82283  0.030369453   0.03116534            1 
  349000    1.1295695   -7.3144052     127.0792  0.030343649  0.031152772            3 
  350000     1.138771   -7.2861325    127.31795  0.030313797  0.031139494            1 
  351000    1.1175052   -7.3103982     127.1626   0.03019055  0.031125372            2 
  352000    1.1057364   -7.3069805    127.79813   0.03025524   0.03111137            1 
  353000    1.1109368   -7.2785416    127.79913  0.030169767  0.031095831            1 
  354000    1.1278901   -7.3029199    127.68817  0.030058421  0.031080537            1 
  355000    1.1254158   -7.2625051    128.27681  0.030111926  0.031065045            2 
  356000    1.1186945   -7.3258485    127.64861  0.029880294  0.031048002            1 
  357000    1.0964072   -7.2898728    128.29162  0.029946689  0.031030136            2 
  358000    1.0908688   -7.3239378    128.23818  0.029850601  0.031012198            2 
  359000    1.0783807   -7.3308554    128.55891  0.029841902  0.030994099            1 
  360000    1.0969497    -7.312121    129.01181  0.029863846  0.030974815            1 
  361000    1.1061382   -7.3436052    129.07053  0.029794674  0.030955058            1 
  362000        1.114   -7.2807477    129.79754  0.029879729  0.030935757            2 
  363000     1.139042   -7.3423908    129.77938  0.029793246  0.030916906            1 
  364000    1.1047268   -7.3172148    130.40854  0.029855435  0.030898614            2 
  365000    1.0942402   -7.3366101    130.41874  0.029775968  0.030879587            2 
  366000    1.1166413   -7.2835208    130.32047  0.029672238  0.030859118            1 
  367000    1.0974576   -7.3230823    130.91117  0.029725516  0.030839145            4 
  368000    1.0790235   -7.2853275    131.25287  0.029722118  0.030819625            1 
  369000    1.0990291   -7.3005851    130.95485  0.029574266  0.030799674            1 
  370000    1.1127803   -7.3162919    131.45214  0.029606337  0.030779624            3 
  371000    1.0900881   -7.3215495    131.82449  0.029610172  0.030758589            1 
  372000    1.1162148    -7.331193    132.29527  0.029636036    0.0307384            2 
  373000    1.0972589   -7.3369296    132.18214   0.02953131  0.030718379            1 
  374000    1.0920916   -7.3358399    132.39296  0.029499323  0.030697894            4 
  375000    1.1031235   -7.2805575    132.99159  0.029553687  0.030677931            3 
  376000    1.1055708   -7.3125252    133.13343  0.029506523  0.030657038            1 
  377000    1.1077805   -7.3184862    132.73375  0.029339909  0.030635896            2 
  378000    1.1000505   -7.3423897    133.68735   0.02947252  0.030614746            1 
  379000    1.1242013   -7.3507784    133.57586  0.029370241  0.030593139            1 
  380000    1.1097218   -7.3165509     134.2011  0.029430065  0.030572744            2 
  381000     1.084781   -7.3214814    134.39477  0.029395181  0.030551883            2 
  382000       1.0841    -7.328266    134.40104  0.029319598  0.030530432            1 
  383000    1.0812475   -7.3809839    134.79521   0.02932881  0.030508537            1 
  384000    1.1214809   -7.3565404    135.02791  0.029302933  0.030486661            2 
  385000    1.1104691   -7.3107549    135.46546  0.029321529   0.03046544            4 
  386000    1.0899275   -7.3095253    135.90547  0.029340558  0.030444137            3 
  387000    1.1088812   -7.3618451    135.46751  0.029170438  0.030422428            2 
  388000    1.1058612   -7.3518633    136.11131  0.029233529  0.030400362            1 
  389000    1.0909805    -7.343129    136.12984  0.029162347  0.030378018            2 
  390000    1.0860053   -7.3029426    136.30032  0.029124001  0.030355829            2 
  391000    1.0937477   -7.3440614    136.49419  0.029090834  0.030333446            1 
  392000    1.1069189   -7.3686613    136.55039  0.029028569  0.030310819            1 
  393000    1.0987443   -7.3567547    136.45891  0.028935308  0.030287552            1 
  394000    1.1090032    -7.352736    137.31687  0.029043331  0.030263968            2 
  395000    1.0947002   -7.3344783    137.84787   0.02908183  0.030241116            3 
  396000    1.1010818   -7.3098577    137.60081    0.0289564  0.030218386            2 
  397000    1.0974565   -7.3435062    138.04777  0.028977282  0.030195356            2 
  398000    1.0528223   -7.3590193    138.34364  0.028966423  0.030172534            1 
  399000    1.1196048   -7.3101927    138.60293  0.028947981  0.030150583            4 
  400000    1.0959606   -7.3230832    138.80141  0.028916961  0.030127608            1 
  401000    1.1005103   -7.3592758    139.14375  0.028915991  0.030104617            1 
  402000    1.1021469   -7.3315796     139.7543  0.028970626  0.030081771            1 
  403000    1.0826894   -7.3301738    139.49438  0.028844991  0.030059514            2 
  404000    1.1057664   -7.3550422    139.73768  0.028823779   0.03003654            2 
  405000    1.1031643   -7.3219002    139.90297  0.028786619  0.030013565            3 
  406000    1.0898023   -7.3522013    140.29403  0.028795982  0.029990507            2 
  407000    1.0859714    -7.357309    140.58218   0.02878423  0.029967926            2 
  408000    1.0952051   -7.3561452    140.89795  0.028778176  0.029945221            2 
  409000    1.0678458   -7.3679876    140.86441   0.02870098   0.02992185            1 
  410000    1.1162535   -7.3879266    141.23651  0.028706607  0.029898918            2 
  411000    1.1028644   -7.3512693    142.02181  0.028795988   0.02987603            1 
  412000    1.1023151   -7.3441464     142.2816   0.02877864  0.029853707            1 
  413000    1.1055558   -7.3884154    142.05415  0.028663065  0.029831742            2 
  414000    1.0947485   -7.3474795    142.59745  0.028703191  0.029809512            1 
  415000    1.1077969   -7.3828573    142.82202   0.02867912  0.029786945            1 
  416000    1.0833643   -7.3225413    143.31333  0.028708601  0.029764062            2 
  417000    1.0977328   -7.3400904    143.30897  0.028638884  0.029742474            3 
  418000    1.0797225   -7.3443507    143.53283  0.028614999  0.029720466            1 
  419000    1.0734519   -7.3764542    143.08192  0.028457024  0.029697645            2 
  420000     1.091417   -7.3745265    143.60059   0.02849218  0.029674364            1 
  421000    1.0659127   -7.3883192    143.77892  0.028459803  0.029650672            2 
  422000    1.1096905   -7.3711482    144.01277  0.028438541  0.029626647            1 
  423000    1.0673667   -7.3644331    144.11331  0.028391117  0.029602646            2 
  424000    1.0903623   -7.3578916    144.72151  0.028443694  0.029579455            2 
  425000    1.0971859   -7.4050577    144.49441  0.028332238  0.029556271            4 
  426000    1.0962558   -7.3657506     145.0579  0.028375959  0.029533336            2 
  427000    1.1099894      -7.4186    145.76485  0.028447472  0.029510344            1 
  428000    1.1101616   -7.3708907    146.12995  0.028452092  0.029488127            2 
  429000    1.0788805   -7.4011946    145.97869  0.028356389  0.029466197            1 
  430000    1.0928014   -7.4058124    146.36451  0.028365216  0.029443607            1 
  431000    1.0666157   -7.3402873    146.53934  0.028333206  0.029421707            2 
  432000    1.0609044   -7.3673028    147.01535  0.028359443  0.029399631            2 
  433000    1.0770244   -7.3755784    147.18637  0.028326861  0.029377195            1 
  434000    1.0663459    -7.381249    147.37336  0.028297496  0.029355497            2 
  435000    1.0492956   -7.4185594    147.40777  0.028239037  0.029333297            2 
  436000    1.1098253   -7.4158528     148.0467  0.028296387  0.029310943            3 
  437000    1.0507918   -7.3694659    149.04138  0.028421316  0.029289857            1 
  438000     1.081057   -7.3864122    148.85283  0.028320554  0.029268459            1 
  439000     1.066671   -7.4146521    148.75572  0.028237608   0.02924796            1 
  440000    1.0932499   -7.4198058    149.00593  0.028220821  0.029227347            1 
  441000    1.0860896   -7.3770691    149.70082  0.028288136  0.029206561            2 
  442000    1.0986447   -7.3806755    150.22581  0.028323117  0.029186139            2 
  443000    1.0941318   -7.4157599    149.78876  0.028176967  0.029165135            1 
  444000     1.076934   -7.3933552     150.3814  0.028224737  0.029144759            1 
  445000    1.0559281   -7.4133537    150.76547  0.028233234  0.029124896            3 
  446000    1.0709691   -7.3773558    150.80977  0.028178209  0.029104763            1 
  447000    1.0769032   -7.4106418    151.09687  0.028168693  0.029084623            1 
  448000    1.0749426   -7.4065637    151.85963  0.028247699  0.029064528            1 
  449000    1.0561732    -7.395778    152.32856  0.028271819  0.029044819            3 
  450000    1.0696053   -7.4257596    151.94488   0.02813794  0.029024662            2 
  451000    1.0572075   -7.4377676    151.93654  0.028074009  0.029004309            2 
  452000    1.0803775   -7.4038765     152.0442  0.028031747  0.028983372            1 
  453000    1.0734679   -7.4680053    151.73382   0.02791277  0.028962124            5 
  454000    1.0609135   -7.3968115    152.62111  0.028014154   0.02894062            2 
  455000    1.0731898    -7.399723     152.5647  0.027942252  0.028918538            1 
  456000    1.0731556   -7.4100584     152.3901  0.027849068  0.028896556            5 
  457000    1.0784817   -7.4697204    152.57762  0.027822323  0.028874157            3 
  458000     1.065516   -7.4291071    153.10316  0.027857199  0.028851704            1 
  459000    1.0871685   -7.4080435    153.23676  0.027820763  0.028829091            2 
  460000    1.0575656   -7.4347348    153.70547  0.027845194  0.028806421            1 
  461000    1.0700136   -7.3724075    154.36577  0.027904152  0.028784148            2 
  462000    1.0552963   -7.4408084    153.60854  0.027707168    0.0287618       -1e+20 
  463000     1.040986   -7.4407647    154.32438  0.027776166  0.028739608            4 
  464000     1.088195   -7.4643354     153.7103  0.027606016   0.02871697            2 
  465000    1.0765039   -7.3858347    154.79666  0.027741336  0.028694261            2 
  466000    1.0742889   -7.4636221    154.80473  0.027683249  0.028671828            4 
  467000    1.0665394   -7.4190607    155.13643   0.02768316  0.028649796            1 
  468000    1.0692032   -7.4135419    155.32895   0.02765829  0.028628012            1 
  469000    1.0816309   -7.4285867    155.32356  0.027598358  0.028606363            1 
  470000    1.0561774   -7.3941079    156.49132  0.027746687  0.028584965            1 
  471000    1.0728876   -7.4497788    155.97794  0.027596946  0.028563168            3 
  472000    1.0922566   -7.4082672    156.49997  0.027630645  0.028541159            1 
  473000    1.0635237   -7.4297154      157.011  0.027662262  0.028519666            1 
  474000    1.0802534   -7.3924865     157.1174  0.027622609  0.028498573            2 
  475000     1.093365   -7.4235937    157.73312  0.027672477  0.028477128            1 
  476000    1.0516845   -7.4178503    157.73153  0.027614064  0.028456198            2 
  477000    1.0530763   -7.4432843    157.85095  0.027577036  0.028435466            1 
  478000    1.0394058   -7.3827829    158.08913  0.027560867  0.028414584            1 
  479000    1.0650854    -7.447096    158.15879  0.027515447  0.028393261            3 
  480000    1.0764614   -7.4342944    158.69494  0.027551205  0.028372206            2 
  481000    1.0808255   -7.4162102    159.23754  0.027587931  0.028351875            2 
  482000    1.0665884   -7.4090845    159.00317  0.027490174  0.028332631            1 
  483000    1.0675167   -7.4158599    159.71793  0.027556579  0.028313036            1 
  484000    1.0677081   -7.4468896    159.98272  0.027545235  0.028293439            1 
  485000    1.0569904   -7.4441738    159.91204  0.027476295  0.028273964            4 
  486000    1.0840929   -7.4323815    160.89992  0.027589149  0.028254618            3 
  487000    1.0587292   -7.4298643    160.89162  0.027531079  0.028235015            3 
  488000    1.0538069   -7.4696291    160.92352  0.027480109  0.028215416            2 
  489000    1.0472122   -7.4529643    161.17015  0.027465942  0.028196063            2 
  490000    1.0785916   -7.3963369     161.7628   0.02751068  0.028176568            1 
  491000     1.061655   -7.3973821    161.85221  0.027469825  0.028157255            4 
  492000    1.0649226   -7.4465615    161.70729  0.027389445  0.028137534            1 
  493000    1.0524983   -7.4339412    161.62358  0.027319739  0.028117175            2 
  494000    1.0750853   -7.4447979    161.58256  0.027257516  0.028096652            3 
  495000    1.0485762   -7.4308087    161.68276   0.02721932  0.028075735            1 
  496000    1.0560104   -7.4292223    162.40282   0.02728542   0.02805487            4 
  497000     1.051597   -7.4452846    162.41841  0.027233134  0.028034058            2 
  498000    1.0497328   -7.4155331    162.85978  0.027252306  0.028013348            4 
  499000    1.0449019   -7.4234932    163.12809    0.0272425  0.027993093            2 
  500000    1.0587895   -7.4306836     162.7778  0.027129633  0.027972361            2 
  501000    1.0637807   -7.4673369      163.705  0.027229708  0.027951245            1 
  502000    1.0561269   -7.4241914    162.86537  0.027036084  0.027930136            1 
  503000    1.0540678   -7.4201317    163.72932  0.027125467   0.02790925            2 
  504000     1.030486     -7.43401    163.73899  0.027073245  0.027888161            1 
  505000    1.0398713   -7.4492328    163.96601  0.027057097  0.027866881            1 
  506000    1.0463385    -7.426236    164.36488  0.027069315  0.027845582            1 
  507000     1.046427   -7.4695711    164.11589  0.026974999  0.027824187            1 
  508000    1.0412281   -7.4534619    164.39218  0.026967222  0.027803124            4 
  509000    1.0689198   -7.4292678    165.09686  0.027029611   0.02778293            2 
  510000    1.0113662   -7.4308793    165.72619  0.027079443  0.027763006            4 
  511000    1.0277863   -7.4301223    165.60119  0.027006065  0.027743092            1 
  512000    1.0462469   -7.4818427    166.07529  0.027030483  0.027722943            2 
  513000    1.0482106   -7.4479006    166.55497  0.027055714  0.027702568            3 
  514000     1.057023   -7.4939615    166.74459  0.027033818  0.027682764            2 
  515000    1.0288741   -7.4883867    166.93774   0.02701258  0.027663131            2 
  516000    1.0623995   -7.4911597    167.08652  0.026984257  0.027643772            2 
  517000    1.0441269   -7.4565169    167.61079  0.027016569   0.02762498            1 
  518000    1.0417047   -7.4665211    168.07221  0.027038644  0.027606105            2 
  519000     1.044366   -7.4526151     168.2212  0.027010469  0.027587476            2 
  520000    1.0486803   -7.4740808    168.72437  0.027039161  0.027568858            2 
  521000    1.0472851   -7.4462431    168.63537  0.026973028  0.027549772            1 
  522000    1.0462185   -7.4300187    168.84326  0.026954543  0.027530655            1 
  523000    1.0482454   -7.4543385    169.10656  0.026944958  0.027512093            3 
  524000    1.0407487   -7.4671683    169.32585  0.026928411  0.027493496            2 
  525000    1.0274076   -7.4677404    169.73057  0.026941361  0.027474838            1 
  526000    1.0315806   -7.4670796     169.6848   0.02688289  0.027456521            3 
  527000    1.0586101   -7.4424914    170.31771  0.026931959  0.027438637            6 
  528000    1.0335042   -7.4477646    170.48814   0.02690785   0.02742045            1 
  529000    1.0651501   -7.4905838    170.13435  0.026801252  0.027401982            2 
  530000    1.0334686   -7.4820722     170.6791  0.026836336  0.027383432            2 
  531000    1.0309175   -7.4531355    171.11347  0.026853966  0.027364918            2 
  532000    1.0481767   -7.5127462    171.26573  0.026827338  0.027346709            1 
  533000    1.0689915   -7.4450769    171.58215  0.026826478  0.027328987            1 
  534000    1.0669315   -7.4749714     171.5984  0.026778776  0.027310956            1 
  535000    1.0633986   -7.4640616    172.17488  0.026818517   0.02729315            3 
  536000     1.039127   -7.4401456    172.15341  0.026765144  0.027275214            2 
  537000    1.0477939   -7.4731814    172.31685  0.026740666  0.027256606            2 
  538000    1.0342665   -7.4763095    172.23651  0.026678518  0.027238435            2 
  539000    1.0611531   -7.4712927    172.84892  0.026723705  0.027220216            2 
  540000    1.0392067   -7.4372866    173.59311  0.026789059  0.027202176            2 
  541000    1.0378686   -7.4616262    172.92018  0.026635887  0.027183742            1 
  542000    1.0369077    -7.479682    173.83972  0.026728125  0.027165417            3 
  543000    1.0394382   -7.4791065    173.57415  0.026638144  0.027147099            1 
  544000     1.033798   -7.4845805    174.25116  0.026692886  0.027128783            2 
  545000    1.0376247   -7.5055418    173.86631  0.026585063  0.027110322            5 
  546000    1.0289641   -7.4621245    174.27706  0.026599063  0.027091804            1 
  547000    1.0365917   -7.4902799    173.78806  0.026475938  0.027073292            1 
  548000    1.0295422   -7.4833997    174.55116  0.026543667  0.027054642            4 
  549000     1.027329   -7.4488001    174.63699  0.026508347   0.02703602            3 
  550000    1.0312273   -7.4827375    174.76927  0.026480192  0.027017269            2 
  551000    1.0304359   -7.4896009    175.00378  0.026467601  0.026998464            2 
  552000    1.0310269   -7.4889183    175.10103  0.026434334  0.026979576            1 
  553000    1.0156374   -7.4857628    174.93457  0.026361448  0.026960739            1 
  554000    1.0413407   -7.4693912    176.15917  0.026498069  0.026941902            3 
  555000    1.0611892   -7.4455385      175.531  0.026356006  0.026923324            2 
  556000    1.0331931   -7.5191447    175.54952  0.026311379  0.026904343            2 
  557000     1.027826   -7.4992016    176.20782   0.02636263  0.026885529            2 
  558000    1.0274934   -7.5415939    176.52444   0.02636267  0.026866845            3 
  559000    1.0295285   -7.4747472    177.38448  0.026443721  0.026848772            3 
  560000    1.0521192   -7.4712863    177.18109  0.026366233  0.026830615            4 
  561000    1.0276766   -7.5111554    177.43504  0.026356957  0.026812613            3 
  562000    1.0306425   -7.5214377    177.15556  0.026268618  0.026794341            2 
  563000    1.0096589   -7.4819935    177.50226  0.026273277  0.026776183            3 
  564000     1.013379   -7.5245001    177.72489  0.026259588  0.026758256            2 
  565000    1.0244212   -7.4751724    178.43834  0.026318339  0.026740719            1 
  566000    1.0160169   -7.4877225     178.3561  0.026259732  0.026723054            1 
  567000    1.0175254   -7.4972976    178.26993  0.026200754  0.026704875            2 
  568000    1.0066252   -7.5272982    178.69826  0.026217467  0.026686437            2 
  569000    1.0200923   -7.5155067    178.93571  0.026206167  0.026668099            1 
  570000    1.0362674   -7.5581864    178.75892  0.026134344  0.026649348            1 
  571000    1.0272231   -7.5506391    178.83355  0.026099467  0.026630683            3 
  572000    1.0379791   -7.5160129    178.85076  0.026056346  0.026612149            1 
  573000     1.033952   -7.4850521    179.47341  0.026101427  0.026593715            3 
  574000    1.0210878   -7.5351168    179.21911  0.026019034  0.026575356            1 
  575000    1.0510774   -7.4797816    180.23747  0.026121373  0.026556831            3 
  576000    1.0388223   -7.5048813    179.79206  0.026011582  0.026538497            2 
  577000    1.0152617   -7.5150663      179.934  0.025987001   0.02651998            4 
  578000    1.0327828    -7.534755    180.51431  0.026025708  0.026501627            2 
  579000    1.0224411   -7.5494859    180.69684  0.026007029  0.026483128            1 
  580000    1.0033063   -7.5287277    180.94802  0.025998279  0.026464383            1 
  581000    1.0268958   -7.5075958    181.58803  0.026045328  0.026446018            2 
  582000    1.0101206   -7.5209366    180.90436  0.025902686  0.026427271            1 
  583000    1.0289517   -7.5373987    181.71467  0.025974081  0.026408672            1 
  584000    1.0088416   -7.5195302     181.6764  0.025924143  0.026390021            1 
  585000    1.0106236   -7.5440163    181.77803  0.025894307  0.026371531            1 
  586000    1.0269517   -7.5280966     182.6474  0.025973748  0.026353152            1 
  587000    1.0169639   -7.5241696    182.78367  0.025948846  0.026335048            2 
  588000       1.0135   -7.5241705     182.4412  0.025856179  0.026316836            1 
  589000    1.0042857   -7.5279532    182.09066  0.025762685   0.02629813            1 
  590000    1.0259619   -7.4986697    182.98152  0.025844847  0.026279526            1 
  591000    1.0240297   -7.5131878    183.26963  0.025841741  0.026260943            1 
  592000    1.0356773   -7.4794707    183.41979  0.025819227  0.026242621            2 
  593000    1.0288283   -7.5183511    183.23906  0.025750289  0.026224345            2 
  594000    1.0348065     -7.52152     183.8312  0.025790011  0.026205756            1 
  595000    1.0228545   -7.5574086    183.21943  0.025660984  0.026187079            1 
  596000    1.0057727   -7.5624013    183.49832  0.025656924  0.026168062            1 
  597000    1.0342112   -7.5264459    183.97175  0.025680032  0.026149353            2 
  598000     1.022311   -7.5611238     183.7869  0.025611329  0.026130568            2 
  599000    1.0053509   -7.5176384    184.28606  0.025638016  0.026111709            2 
  600000    1.0074588   -7.5453733     184.1526  0.025576749  0.026093173            1 
  601000   0.99223873   -7.5291409    183.98632  0.025511138  0.026074307            1 
  602000   0.98525326   -7.5924017    184.55493  0.025547471  0.026055528            1 
  603000    1.0187686   -7.5058345    184.76003  0.025533448  0.026036652            2 
  604000   0.99951715    -7.510673     185.1638  0.025546882  0.026017862            1 
  605000    1.0326677   -7.5640991    185.06767  0.025491415  0.025998944            1 
  606000    1.0105124   -7.5021583     186.0179  0.025580019  0.025980469            1 
  607000    1.0201757   -7.5430721    185.94252  0.025527529  0.025961822            2 
  608000     1.002172   -7.5322203    186.02871  0.025497357  0.025943223            1 
  609000   0.99257728   -7.5257666    186.36647  0.025501706  0.025924791            1 
  610000    1.0073458    -7.535866    186.72039   0.02550825  0.025906615            2 
  611000    1.0296924   -7.5419223    186.02318  0.025371411   0.02588834            2 
  612000      1.01105   -7.5025532     186.6121  0.025410144  0.025869612            2 
  613000   0.99406484   -7.5832846     186.2521  0.025319753  0.025851007            3 
  614000    1.0032508    -7.542717    186.64094   0.02533129  0.025832024            1 
  615000    1.0098043   -7.5307271     187.0648  0.025347534  0.025812937            2 
  616000   0.99819098   -7.5391109    187.39063  0.025350464  0.025794057            2 
  617000   0.98790487   -7.5467136    187.18303  0.025281339  0.025775379            1 
  618000     1.003331   -7.5474618    187.14409   0.02523518   0.02575623            2 
  619000    1.0197466   -7.5811125    187.50064  0.025242413  0.025737164            1 
  620000    1.0168781   -7.5771346    188.06972  0.025278188  0.025718502            3 
  621000     1.019792   -7.5734017    188.43982  0.025287148  0.025699979            2 
  622000   0.99943296    -7.525469    188.58478  0.025265914   0.02568144            1 
  623000    1.0045524   -7.6040193    188.15245   0.02516753  0.025663192            1 
  624000   0.99888751   -7.5744413    188.69871  0.025200149  0.025644444            1 
  625000   0.99402468   -7.5506473    188.73259  0.025164345   0.02562576            2 
  626000   0.99750871   -7.5644184    188.58258  0.025104177  0.025606758            1 
  627000    1.0004516   -7.6054563    188.88856  0.025104806    0.0255877            2 
  628000   0.97429305   -7.5671601    188.92759   0.02507001  0.025568565            1 
  629000    1.0158463   -7.5973503     189.5175  0.025108307  0.025549399            2 
  630000   0.98734004   -7.5570041    189.61817  0.025081769  0.025530133            2 
  631000   0.99738419   -7.5415081    189.51178  0.025027968  0.025511154            3 
  632000   0.99701987   -7.5733782    189.60813  0.025001073  0.025492104            2 
  633000    1.0030264   -7.5637922    190.22847  0.025043242  0.025473343            3 
  634000   0.99857798   -7.5419151    190.72799    0.0250694  0.025454665            1 
  635000   0.97677939   -7.5751656     190.4674  0.024995722  0.025435878            2 
  636000    1.0019984   -7.5492107     190.6717  0.024983189  0.025417058            4 
  637000    1.0007757   -7.5654589    190.92306  0.024976852  0.025398205            2 
  638000    1.0094875   -7.5709109    191.08297  0.024958591  0.025379458            2 
  639000   0.98800832   -7.5850936    191.39766  0.024960572  0.025360714            2 
  640000   0.98807527    -7.582855    191.41032  0.024923219  0.025342486            2 
  641000   0.99975918   -7.5662188    191.81773  0.024937303   0.02532449            3 
  642000   0.99594054   -7.5800211    191.94397  0.024914845  0.025306331            3 
  643000    1.0009542   -7.5679581    192.59739  0.024960782  0.025288164            2 
  644000   0.97548072    -7.571131    192.27119  0.024879813  0.025269886            2 
  645000   0.98518117   -7.6022373    191.66187  0.024762515  0.025251315            1 
  646000    1.0099449   -7.6068292    192.70061   0.02485818  0.025232756            2 
  647000    0.9895363    -7.623045     192.6946  0.024818986  0.025214097            3 
  648000   0.99607412   -7.6234988    192.63078  0.024772476  0.025195591            4 
  649000    1.0049497   -7.6203065    192.83311  0.024760286  0.025177076            1 
  650000    1.0077299   -7.5505773    193.05282  0.024750362  0.025158427            3 
  651000    1.0082896   -7.5887282    193.00166  0.024705793   0.02513984            5 
  652000   0.99846657   -7.5542982    193.57659  0.024741384  0.025121493            3 
  653000   0.98268434   -7.6173275    192.93394  0.024621482  0.025102786            2 
  654000   0.98243845   -7.5649811    194.08423  0.024730406  0.025084172            2 
  655000   0.99691246   -7.6084482    193.75225  0.024650414   0.02506553            2 
  656000   0.97713857   -7.6339782     193.2734  0.024552007   0.02504689            3 
  657000   0.98716236    -7.605363    194.06899   0.02461555  0.025027946       -1e+20 
  658000   0.99222597   -7.5970714    193.71981  0.024533917  0.025009216            4 
  659000    1.0065755   -7.5687724    193.87773  0.024516657  0.024990334            5 
  660000    1.0004159   -7.5943435    194.85773  0.024603249  0.024971877            1 
  661000   0.99186191   -7.6167686    194.69996  0.024546137  0.024953129            3 
  662000   0.97364894   -7.5862803    194.38913  0.024469931  0.024934366            1 
  663000   0.98007158   -7.5945908    194.90624  0.024498019  0.024915764            1 
  664000   0.98853016   -7.6037134    194.84651  0.024453628  0.024897121            3 
  665000   0.98828073   -7.6146278    195.61779  0.024513507  0.024878517            7 
  666000   0.96047451   -7.5805871    195.61305  0.024476107  0.024859848            2 
  667000    1.0060459   -7.5545834    195.86247  0.024470573  0.024841392            2 
  668000    1.0015781   -7.6130965    195.35393  0.024370501   0.02482286            2 
  669000   0.97713581   -7.6156814    195.25874  0.024322215  0.024803833            1 
  670000    1.0012614   -7.6216598    196.00447  0.024378666  0.024784767            3 
  671000   0.98118872   -7.6267419    195.52308  0.024282548  0.024765746            3 
  672000    1.0021019   -7.6293559    195.80296  0.024281121  0.024746418            2 
  673000    0.9829758   -7.6487758    196.40609  0.024319724  0.024727174            1 
  674000    1.0002171    -7.617239    196.26226  0.024265858  0.024707987            2 
  675000    0.9825496   -7.6167116    197.05827  0.024328182  0.024688932            1 
  676000   0.99000613   -7.5848001    196.68498  0.024246176  0.024670176            2 
  677000   0.98054975   -7.6115925    197.33821  0.024290769  0.024651404            3 
  678000   0.98056834   -7.6291614    197.06545  0.024221418  0.024633014            4 
  679000     0.978621   -7.6255052    197.66209   0.02425897  0.024614492            1 
  680000   0.98000218   -7.6276575    197.89612  0.024251976  0.024596101            1 
  681000   0.97890067   -7.6094901    197.84923  0.024210626  0.024578047            5 
  682000    0.9918549    -7.592129     198.3748  0.024239345   0.02455987            2 
  683000   0.96245132    -7.623803    198.38174  0.024204702  0.024541537            2 
  684000   0.97814439   -7.6190947    198.93508   0.02423673  0.024523195            2 
  685000   0.96733274   -7.6395226    197.98176  0.024085373  0.024504791            3 
  686000   0.97635505   -7.6285857    198.95785  0.024168835  0.024486374            1 
  687000    1.0166363    -7.627679    198.64253  0.024095407  0.024468087            3 
  688000   0.96520384   -7.6157476    198.51874   0.02404539  0.024449553            1 
  689000   0.99374471   -7.6019495    198.70232  0.024032695  0.024431025            1 
  690000   0.97208736    -7.591501    199.14231  0.024051003  0.024412539            2 
  691000   0.96853331    -7.611196    198.84998  0.023980944  0.024393927            2 
  692000   0.97332285   -7.6048186    199.88468  0.024070891  0.024375335            1 
  693000   0.96452265   -7.6171295    199.72447  0.024016892  0.024356853            2 
  694000   0.97436169   -7.6177638    199.69194  0.023978379   0.02433845            1 
  695000   0.99420398   -7.6398165    199.41819  0.023911054  0.024319996            2 
  696000   0.95438431   -7.6350031    199.91375  0.023936034  0.024301648            1 
  697000    0.9754437   -7.6213505    200.39245  0.023958925  0.024283063            1 
  698000   0.98576453   -7.6582199     200.2315  0.023905385  0.024264853            3 
  699000   0.98541817   -7.6057502    200.82441   0.02394187  0.024246604            2 
  700000     0.967503   -7.6261556    201.02164  0.023931148  0.024228539            2 
  701000     0.977246   -7.6574596    201.50085  0.023953977  0.024210444            1 
  702000    0.9742055   -7.6429109    201.40062  0.023907955  0.024192346            1 
  703000   0.96957963    -7.612147    200.95756  0.023821428  0.024173994            2 
  704000   0.95977317   -7.6815975    201.18235  0.023814199  0.024155585            3 
  705000   0.95517815   -7.6350045    200.93955   0.02375172  0.024137043            2 
  706000   0.97152577   -7.6467741     201.3633  0.023768095  0.024118581            2 
  707000   0.99232097   -7.6513181    201.25544  0.023721763  0.024100049            2 
  708000   0.96319582   -7.6174094    201.72606  0.023743651  0.024081634            1 
  709000   0.96549448   -7.6698559    201.55595  0.023690168   0.02406342            1 
  710000    0.9763199   -7.6399748    201.89948  0.023697122  0.024045152            1 
  711000   0.95950099    -7.638224    202.53268  0.023738008  0.024026937            6 
  712000   0.97880538   -7.6466986    202.85948  0.023742916  0.024009163            1 
  713000   0.99440221   -7.6712495    203.08669  0.023736172   0.02399103            1 
  714000   0.97786969   -7.6782131    202.67674  0.023655081  0.023973121            3 
  715000   0.96193469   -7.6486118    203.20246   0.02368327  0.023954974            2 
  716000   0.96360189   -7.6367519    203.46935  0.023681256  0.023937259            1 
  717000     0.966228   -7.6056024    203.71753  0.023677073  0.023919579            1 
  718000   0.97292437   -7.6461708    203.59648  0.023630046  0.023901658            1 
  719000   0.94957434   -7.6431629    203.47197  0.023582751  0.023883777            3 
  720000   0.95929607   -7.6619537     202.7512  0.023466574  0.023865765            2 
  721000   0.95602396   -7.6952061    203.67484  0.023540781  0.023847709            2 
  722000   0.96093842   -7.6492708    203.91911   0.02353637  0.023829553            4 
  723000   0.95652143   -7.6607258    204.24837  0.023541767  0.023811828            2 
  724000   0.93911337    -7.650158    204.12094  0.023494583  0.023794173            2 
  725000   0.96527624    -7.657322    204.81852  0.023542358  0.023776403            3 
  726000   0.97881276   -7.6646617    205.19243   0.02355285  0.023758847            4 
  727000   0.95619291   -7.6940618    204.96501  0.023494385  0.023741184            2 
  728000   0.96597425   -7.6867538    205.52635  0.023526368  0.023723767            2 
  729000   0.93751565   -7.7031466    205.13881  0.023449795  0.023706294            2 
  730000   0.98152663   -7.6728947    205.80451  0.023493666  0.023689087            2 
  731000   0.95149213   -7.6668723    205.91294  0.023473887  0.023671794            1 
  732000   0.96077273   -7.6977084    206.31791  0.023487923  0.023654672            3 
  733000   0.98322901   -7.6584748     206.3393  0.023458311  0.023637542            2 
  734000   0.96197103   -7.6881311    206.81703  0.023480589  0.023620585            2 
  735000   0.95234041   -7.6806056    207.00937   0.02347045  0.023603794            2 
  736000   0.97256438   -7.6710613    206.80032  0.023414891  0.023587106            1 
  737000   0.95917715   -7.7046526    207.31448  0.023441257  0.023570271            2 
  738000   0.95961556   -7.6938542    207.53064  0.023433902  0.023553697            1 
  739000   0.95052803   -7.6885581    207.95135  0.023449633  0.023537266            1 
  740000   0.98274033   -7.6634037    208.13741  0.023438898  0.023520832            2 
  741000   0.95480985   -7.6690195    207.69538  0.023357555  0.023504514            2 
  742000   0.97062242    -7.708022    207.78399  0.023336028  0.023487955            3 
  743000   0.96375872   -7.6920067    208.01606  0.023330648  0.023471051            4 
  744000   0.96967878    -7.700143    208.40829  0.023343222  0.023454518            1 
  745000   0.96176435   -7.6872781    207.92873  0.023258247  0.023437642            4 
  746000   0.93526882   -7.6633287    209.34172   0.02338491  0.023421241            2 
  747000   0.93446715   -7.7048153    208.95483  0.023310446  0.023404914            1 
  748000   0.96962214   -7.7178584    208.90572   0.02327381  0.023388511            1 
  749000   0.96614787   -7.6749067    209.99536   0.02336397  0.023372328            1 
  750000    0.9582939    -7.675168     209.6609  0.023295655  0.023356263            3 
  751000   0.94208202   -7.7250348    209.60047   0.02325793  0.023340073            2 
  752000   0.94805712   -7.6882824    209.85763  0.023255499  0.023323987            1 
  753000   0.96306052   -7.6968277    210.54096  0.023300239  0.023307884            3 
  754000   0.95194193   -7.7300697    209.93117  0.023201942  0.023291893            1 
  755000   0.95512299   -7.6976222    210.09975  0.023189817   0.02327563            4 
  756000   0.94280432    -7.688296     210.6191  0.023216391   0.02325955            2 
  757000   0.95464884   -7.7001476     210.5203  0.023174845  0.023243822            3 
  758000   0.96418133   -7.6610278    211.31326  0.023231449  0.023227838            1 
  759000    0.9319146   -7.6898983     211.3701  0.023207081  0.023212001            4 
  760000   0.92980644   -7.6952032     210.7602  0.023109671  0.023195937            2 
  761000   0.94853181   -7.6684489    211.60522  0.023171838  0.023179943            2 
  762000   0.93877097   -7.6743283    211.54409  0.023134743  0.023163921            1 
  763000   0.96551085   -7.7162894    211.39079  0.023087679  0.023147823            1 
  764000   0.94969743   -7.7162605     211.8377  0.023106206  0.023131855            1 
  765000   0.95960874   -7.6855645    212.46014  0.023143806  0.023116083            3 
  766000   0.95465466   -7.7074213    212.32826  0.023099245  0.023100354            2 
  767000   0.96849115   -7.6881932    212.50112   0.02308791   0.02308453            2 
  768000   0.93954207   -7.7188659    212.85598  0.023096352  0.023068844            1 
  769000   0.93411135   -7.6807285    212.32639  0.023008928  0.023053129            1 
  770000   0.94928688   -7.7207851    212.89964  0.023041087  0.023037367            3 
  771000   0.96911896   -7.7249675    212.70353  0.022990005  0.023021524            1 
  772000   0.93314662   -7.7412227    212.40693  0.022928209  0.023005551            1 
  773000   0.92771557   -7.7180499    212.96477  0.022958686  0.022989635            1 
  774000   0.93656128   -7.6776904    213.41826  0.022977848  0.022973966            2 
  775000   0.94462221   -7.6984904    213.69928  0.022978417  0.022958231            1 
  776000   0.93365207   -7.7225934    213.52249   0.02292982  0.022942392            2 
  777000   0.93988783   -7.7263039    213.89981  0.022940777   0.02292674            4 
  778000   0.94177496   -7.7144402    214.00836  0.022922918   0.02291104            1 
  779000   0.94936793   -7.7197236    213.96392  0.022888738  0.022895118            2 
  780000   0.94409962   -7.7494148    213.68242  0.022829319  0.022879208            2 
  781000   0.92701024   -7.7151429    214.00438  0.022834441  0.022863534            1 
  782000   0.94331535   -7.7053301    214.72258  0.022881775  0.022847747            3 
  783000   0.94821744   -7.7076458    214.93866   0.02287555  0.022831968            1 
  784000   0.93107347   -7.6734235     215.1676  0.022870706  0.022816388            2 
  785000    0.9132667   -7.6969911    214.86488  0.022809436  0.022800945            1 
  786000   0.95027569   -7.6950627    215.56077  0.022854195  0.022785428            1 
  787000   0.94840006   -7.7244571     215.3903  0.022807105  0.022770143            3 
  788000   0.94329091   -7.6926896    214.89124  0.022725385  0.022754621            1 
  789000   0.92478483    -7.726169    215.50249  0.022761142  0.022739115            1 
  790000   0.93885195   -7.6908072    216.55978  0.022843859  0.022723861            5 
  791000   0.95688096   -7.7261444    216.37465  0.022795475  0.022708656            3 
  792000   0.94466011    -7.728896    215.91199  0.022718013  0.022693128            1 
  793000   0.93959545   -7.7254414    216.51356  0.022752581  0.022677824            3 
  794000   0.95051419   -7.7718866     215.8952  0.022659026  0.022662364            1 
  795000   0.93435197   -7.7025103    216.32185  0.022675246  0.022646957            4 
  796000   0.95390049   -7.7296451    216.21454  0.022635525  0.022631265            1 
  797000   0.93079622   -7.7671563    216.32374  0.022618542   0.02261581            2 
  798000   0.95091685   -7.7271871    216.57137  0.022616058  0.022600212            2 
  799000   0.93011147   -7.7388007    216.58151   0.02258881  0.022584525            1 
  800000   0.95238652   -7.7351352     217.2481  0.022630011  0.022568747            2 
  801000   0.94625781   -7.7580396    216.97657  0.022573509  0.022552929            1 
  802000   0.95497853   -7.7443757    216.22266  0.022467026   0.02253699            1 
  803000   0.93489325     -7.73104    216.87626  0.022506876  0.022520939            2 
  804000   0.94178001    -7.763977    216.20546  0.022409355  0.022504719            2 
  805000   0.92985926   -7.7184532    217.16393  0.022480738  0.022488576            1 
  806000   0.94472944   -7.7089185    217.22826  0.022459498  0.022472677            2 
  807000   0.94097304   -7.7322372    217.63054  0.022473207  0.022456828            3 
  808000   0.94097326   -7.7421975    217.30635  0.022411958  0.022441006            3 
  809000   0.94264433   -7.7233724    217.28983  0.022382554  0.022424955            1 
  810000   0.93464178   -7.7026812    218.07721  0.022435927  0.022409043            2 
  811000   0.91357315   -7.7478333    217.52588  0.022351611  0.022392935            1 
  812000   0.93111109   -7.7731532      217.135   0.02228397  0.022376596            5 
  813000   0.92121472   -7.7172845    217.85246    0.0223301  0.022360281            1 
  814000   0.91755152   -7.7626066     218.3142  0.022349939  0.022344327            2 
  815000   0.92869432   -7.7610081    218.20754   0.02231161  0.022328329            3 
  816000   0.92491824   -7.7808697    217.91605  0.022254499  0.022312063            5 
  817000   0.91842424   -7.7882145    217.89093  0.022224698  0.022295792            2 
  818000      0.92272   -7.7662961    218.28452  0.022237624  0.022279712            2 
  819000    0.9205759   -7.7716079    218.95981  0.022279183  0.022263757            4 
  820000   0.92519467    -7.771048    218.31729  0.022186716  0.022247804            1 
  821000   0.94047976   -7.7429249    219.62648  0.022292578  0.022231754            2 
  822000   0.92663417   -7.7771439    218.73183   0.02217476  0.022215728            2 
  823000   0.93714908   -7.7954312    218.82897  0.022157652  0.022199774            3 
  824000   0.92492083   -7.7759095    219.09213  0.022157375  0.022183759            2 
  825000   0.91350978     -7.75519    219.41723  0.022163357  0.022167791            2 
  826000   0.91805638   -7.7641871    219.16592   0.02211117  0.022151755            3 
  827000   0.93122939   -7.7142382    219.65684  0.022133902  0.022135804            2 
  828000   0.92540311   -7.7474442    220.28424  0.022170314  0.022120123            4 
  829000   0.92418826   -7.7672167    220.28877  0.022144026  0.022104402            3 
  830000   0.93674651   -7.7595129    220.19511  0.022107943  0.022088739            1 
  831000   0.90541334   -7.7303753    220.76465  0.022138453  0.022073229            1 
  832000   0.90942238   -7.7639315    220.58241   0.02209359  0.022057608            3 
  833000   0.91279492   -7.7450082    220.92671  0.022101511  0.022041754            3 
  834000   0.93490305   -7.8029536    220.30637  0.022013026  0.022025893            2 
  835000   0.90901502   -7.7946011    220.08305  0.021964376  0.022009922            4 
  836000   0.91938077   -7.7437107    221.15151  0.022044609  0.021994016            2 
  837000   0.91231097    -7.800832    220.85129   0.02198838  0.021978253            3 
  838000   0.90202235   -7.7692721    220.88273  0.021965267  0.021962495            2 
  839000   0.91957286   -7.7945569    221.05608  0.021956305   0.02194675            3 
  840000   0.92377308   -7.8105174    220.85569  0.021910287   0.02193083            2 
  841000   0.90921862   -7.7840458    221.52688  0.021950741  0.021914908            1 
  842000   0.89727771   -7.7663742    221.00816  0.021873333  0.021899101            1 
  843000   0.90103638   -7.7566178    221.37382  0.021883533  0.021883087            2 
  844000   0.92358526   -7.7744796    221.20817  0.021841249  0.021867079            2 
  845000   0.92866698   -7.7810134    221.87357  0.021881022  0.021851046            3 
  846000   0.93752429   -7.8130277    221.42633  0.021811104  0.021835191            2 
  847000   0.90638155   -7.7870497    221.90617  0.021832563  0.021819228            3 
  848000   0.90544059   -7.7766383    222.12244   0.02182807  0.021803412            4 
  849000   0.93798219   -7.7982648    222.10599  0.021800745  0.021787591            1 
  850000   0.93501471   -7.8083583    222.21267  0.021785556   0.02177162            1 
  851000   0.92221224   -7.7698578    222.40726  0.021779011  0.021755992            2 
  852000   0.92877866    -7.768302    222.74137  0.021786128  0.021740269            3 
  853000   0.91565969   -7.7749106    222.59878  0.021746657  0.021724551            1 
  854000   0.91670812   -7.8148776    221.93175  0.021656104  0.021708738            4 
  855000   0.91604324   -7.8025377    222.59255   0.02169518  0.021692852            3 
  856000     0.920613   -7.8160359    222.11172  0.021623026  0.021676781            2 
  857000   0.91514807   -7.8115595    223.12373  0.021696201  0.021660668            2 
  858000   0.89561289   -7.7803151    222.32239  0.021593083  0.021644495            2 
  859000   0.89344406   -7.8104906    222.01418  0.021538046  0.021628295            2 
  860000    0.9077533   -7.8111789    222.74271  0.021583596    0.0216119            2 
  861000   0.90716868   -7.8103813    222.82092  0.021566098  0.021595576            2 
  862000   0.91523266   -7.7927016    223.52532  0.021609176  0.021579338            2 
  863000   0.90572569   -7.8059468    222.88726  0.021522524  0.021563063            2 
  864000   0.93647189   -7.8093031    223.15313  0.021523257  0.021546858            2 
  865000   0.90235698    -7.793072    223.01076  0.021484659  0.021530633            1 
  866000     0.901546    -7.775477    223.26197  0.021484023  0.021514445            3 
  867000    0.9246751   -7.7675748    223.50067  0.021482186  0.021498276            3 
  868000   0.91201111   -7.8027561    223.96403  0.021501923  0.021482262            1 
  869000   0.91420033   -7.8040898    223.57142   0.02143953  0.021466241            1 
  870000   0.89667919   -7.8116862    222.88344  0.021348988  0.021450083            2 
  871000   0.90850305   -7.8117363    223.47905  0.021381463  0.021433769            1 
  872000   0.89836858   -7.8214959    223.20919  0.021331154  0.021417542            5 
  873000   0.89380161   -7.8039687     224.1259  0.021394225  0.021401264            3 
  874000   0.89456041   -7.8238458    224.05373  0.021362866  0.021385105            3 
  875000   0.91094514   -7.7938175     224.3961  0.021371057  0.021369148            2 
  876000   0.89264957   -7.7887258    224.63536  0.021369422  0.021353219            1 
  877000   0.91347402   -7.7970362    224.27094  0.021310428  0.021337243            2 
  878000   0.91543154   -7.7865021     224.5591  0.021313506  0.021321125            4 
  879000    0.8947531   -7.8323877    224.01206  0.021237397  0.021305023            2 
  880000   0.90372504   -7.7947248    224.82212  0.021289973  0.021288981            3 
  881000   0.90118892   -7.7987083    224.90713  0.021273849  0.021272926            3 
  882000   0.89753426   -7.8448495    224.03863  0.021167671  0.021256709            1 
  883000   0.87671152   -7.8245438    224.77236  0.021212944  0.021240504            1 
  884000   0.87858095    -7.821689    224.98277  0.021208783    0.0212242            1 
  885000   0.89723059   -7.8283405    225.14874  0.021200447  0.021207934            1 
  886000   0.90538409   -7.8342082    225.10305  0.021172221  0.021191753            2 
  887000   0.89822103   -7.8602834    224.76185  0.021116295  0.021175514            3 
  888000   0.89927617   -7.8127918    225.80021   0.02118996  0.021159385            2 
  889000   0.91300925   -7.8336427    225.38072  0.021126802  0.021143262            2 
  890000   0.88849174   -7.8435061     224.7791  0.021046732  0.021127033            1 
  891000   0.89244286    -7.822304    225.56105  0.021096245  0.021110777            3 
  892000   0.92613795   -7.8545276    225.71674  0.021087139   0.02109467            1 
  893000   0.87952619    -7.834097    225.62969  0.021055403  0.021078629            2 
  894000   0.89829949   -7.8586615    225.87133  0.021054374  0.021062545            2 
  895000   0.88164055   -7.8476012    225.68445   0.02101345  0.021046391            1 
  896000   0.87788484   -7.8187754    226.20211  0.021038143  0.021030308            4 
  897000   0.89982001   -7.8252642    226.05694  0.021001202  0.021014281            2 
  898000    0.8755831   -7.8397838    225.39302  0.020916205  0.020998191            2 
  899000   0.89787451   -7.8365834    225.96058  0.020945549  0.020982088            5 
  900000   0.88889268   -7.8838656    225.83354  0.020910513  0.020965901            3 
  901000   0.89640292   -7.8473879    226.36839  0.020936773  0.020949677            5 
  902000   0.91318194   -7.8648906    226.20892  0.020898828  0.020933562            2 
  903000   0.89661101   -7.8592848    226.43281  0.020896346   0.02091746            2 
  904000   0.88529408   -7.8236112     227.0308  0.020928355  0.020901426            2 
  905000   0.88302913   -7.8691997    226.74648   0.02087905  0.020885314            2 
  906000   0.90046407   -7.8191674    227.74952  0.020948263  0.020869245            1 
  907000   0.88843336    -7.859021    226.59755  0.020819326  0.020853148            1 
  908000   0.89472487    -7.863173    227.17052  0.020848983  0.020836835            2 
  909000   0.89809844   -7.8295659     226.5435  0.020768565  0.020820553            3 
  910000   0.88985708   -7.8230325    227.09277  0.020796041  0.020804239            3 
  911000   0.90307261   -7.8462697    227.02255   0.02076679  0.020787994            4 
  912000   0.90022445   -7.8450895    227.23127  0.020763091  0.020771854            6 
  913000    0.9100035   -7.8473834    226.82736  0.020703483  0.020755711            1 
  914000   0.88793796   -7.8513609    226.88255  0.020685864   0.02073957            2 
  915000   0.89284296   -7.8542772    226.52744  0.020630915   0.02072327            1 
  916000   0.88542172    -7.831181    227.15735  0.020665698  0.020707002            4 
  917000   0.89156148   -7.8585528     227.9065  0.020711241   0.02069085            2 
  918000   0.87994363   -7.8215436    227.66254  0.020666534  0.020674604            2 
  919000   0.88404212   -7.8696783    227.28154  0.020609497  0.020658509            2 
  920000   0.89764361   -7.8965823    227.71999   0.02062681  0.020642285            3 
  921000   0.87839705   -7.8695085    227.88482  0.020619328  0.020626104            2 
  922000    0.9031117   -7.8904018    228.05697  0.020612525  0.020609961            1 
  923000   0.87535848   -7.8332298    227.90511  0.020576482   0.02059387            1 
  924000   0.88316343   -7.8529015    228.29563  0.020589433  0.020577933            5 
  925000   0.87808877   -7.8716763    228.64095  0.020598283  0.020561942            3 
  926000   0.89346568   -7.8972296    227.40894  0.020465168  0.020545818            4 
  927000   0.90955557   -7.8710205    228.13893  0.020508714  0.020529685            2 
  928000   0.87415836   -7.8573671    228.08783  0.020482025  0.020513357            1 
  929000   0.88117824   -7.8489618    228.73847  0.020518341  0.020497197            3 
  930000   0.87813206   -7.8746117    228.45582  0.020470952  0.020480973            3 
  931000   0.88529959   -7.8916107    228.51136  0.020453935  0.020464803            3 
  932000   0.89043231    -7.850219    228.67878  0.020446958  0.020448815            6 
  933000   0.87689605   -7.8989363    228.56538  0.020414915  0.020432745            4 
  934000   0.88487149    -7.859426    228.45377  0.020383099  0.020416789            1 
  935000   0.88044795   -7.8876948    228.57669  0.020372254  0.020400787            1 
  936000   0.87734949   -7.8758982    228.68879   0.02036047  0.020384727            5 
  937000   0.86891414   -7.8817024    228.64411  0.020334766  0.020368468            3 
  938000   0.88202535   -7.8851097    229.11788  0.020355177  0.020352246            1 
  939000   0.87727465   -7.8612398    228.97607  0.020320915  0.020336078            2 
  940000   0.86549806   -7.8596277    229.14967  0.020314687  0.020319973            2 
  941000   0.89048898   -7.8953549    228.87399  0.020268685  0.020303863            1 
  942000    0.9184185   -7.8864686    229.55629  0.020307528  0.020287862            2 
  943000   0.88035373   -7.8775502    229.58447  0.020288483  0.020271928            4 
  944000   0.87523238   -7.8604611    229.71558  0.020278564   0.02025597            2 
  945000   0.87322942   -7.8651267    229.67073  0.020253151  0.020240037            4 
  946000   0.87408028   -7.8997994    229.84216  0.020246842  0.020224056            1 
  947000   0.86697757   -7.8931937    229.66342  0.020209734  0.020207955            2 
  948000   0.87155137   -7.8825534     229.9566  0.020214188  0.020191997            4 
  949000   0.88338014   -7.8961862    228.86092  0.020096674  0.020175871            3 
  950000   0.84591876   -7.8834299    229.61024  0.020141249  0.020159655            2 
  951000   0.88176432   -7.8761074    229.87385  0.020143169  0.020143567            2 
  952000   0.87160324   -7.8872919    230.15809  0.020146892  0.020127432            3 
  953000   0.88985902   -7.9116587    229.53022  0.020070848  0.020111345            4 
  954000   0.87637545    -7.890801    229.66424  0.020061517  0.020095146            3 
  955000   0.85243883   -7.8960493    229.79804  0.020052185   0.02007911            1 
  956000   0.87016064   -7.9245129    229.99992  0.020048808  0.020063014            3 
  957000   0.87352708   -7.8902175    230.63185  0.020082885  0.020047098            5 
  958000    0.8519771   -7.9278729    230.49209  0.020049764  0.020031166            4 
  959000   0.88373911   -7.8874381    230.65129  0.020042691  0.020015323            2 
  960000    0.8605905   -7.8815176    230.82509    0.0200369  0.019999428            2 
  961000   0.88353525   -7.8634375    230.82047  0.020015649  0.019983594            2 
  962000   0.87204002   -7.8837442    231.10467  0.020019462  0.019967741            1 
  963000   0.86951589   -7.8812202    231.34972  0.020019879  0.019951874            2 
  964000   0.87032287   -7.8983255    230.85515  0.019956358  0.019935983            1 
  965000   0.86666771   -7.9084175    231.04561  0.019952125  0.019919841            1 
  966000   0.86077108   -7.9190171    230.49265  0.019883769   0.01990374            2 
  967000   0.87608829   -7.9168493     230.4277  0.019857609  0.019887669            2 
  968000   0.86561178   -7.9427879    230.94126  0.019881306  0.019871565            3 
  969000    0.8708379   -7.9101982    231.19178  0.019882334  0.019855486            1 
  970000   0.87967884   -7.9256502    231.51294  0.019889428   0.01983952            2 
  971000   0.87244496   -7.8779597    231.55303  0.019872385  0.019823564            5 
  972000    0.8505677   -7.9023398    231.12672  0.019815391  0.019807434            2 
  973000   0.85373345   -7.9072784    231.21221  0.019802347   0.01979142            3 
  974000   0.88008198   -7.9044923    231.77775  0.019830403  0.019775508            2 
  975000   0.87546335   -7.9279437    231.72553  0.019805601   0.01975961            1 
  976000   0.88226934   -7.8908958    231.94597   0.01980413  0.019743672            2 
  977000     0.835854   -7.9242124    231.73248   0.01976565  0.019727787            1 
  978000   0.85551745   -7.9153069    231.17807    0.0196982  0.019711858            1 
  979000   0.86734203    -7.965166    231.51368  0.019706646   0.01969581            2 
  980000   0.86228602    -7.924672    231.67325  0.019700106  0.019679787            4 
  981000    0.8548316   -7.9224711    231.39835  0.019656673  0.019663727            3 
  982000    0.8565375   -7.9377707    231.69045  0.019661444  0.019647675            2 
  983000   0.87201405   -7.9232493    232.19852  0.019684514  0.019631696            3 
  984000   0.88747621   -7.8815545    231.76072  0.019627433  0.019615773            3 
  985000   0.86995629   -7.9074102    232.58928  0.019677604  0.019599956            2 
  986000    0.8489314   -7.8993685    232.06095  0.019612994  0.019584015            1 
  987000   0.88088981   -7.9603364    231.91029  0.019580403  0.019568261            2 
  988000   0.85985845   -7.9293099    232.62567  0.019620924  0.019552448            2 
  989000   0.87081617   -7.9264843    232.73388  0.019610202  0.019536694            2 
  990000   0.83985666   -7.9429316    232.31751  0.019555346  0.019520766            1 
  991000   0.87693036    -7.927458     232.6671   0.01956501  0.019504973            3 
  992000   0.87442556   -7.9577678     232.6539  0.019544178  0.019489124            2 
  993000   0.84778701   -7.9203618    232.97168  0.019551165  0.019473381            2 
  994000   0.85593347   -7.9268885    232.86148  0.019522257  0.019457535            1 
  995000   0.86374952   -7.9562222    232.98069   0.01951262  0.019441691            3 
  996000   0.86402553   -7.9561833    233.13874  0.019506254  0.019425925            1 
  997000   0.86834447   -7.9716811    232.52881  0.019435708  0.019410192            1 
  998000   0.86367761   -7.9575289     232.6192  0.019423781  0.019394364            1 
  999000     0.853199   -7.9413565    233.08283  0.019443012  0.019378584            1 
 1000000     0.839803   -7.9539586    232.88198  0.019406831  0.019362649            6 
 1001000   0.85984229   -7.9707677    232.83017  0.019383131  0.019346799            2 
 1002000   0.85835979   -7.9446853    233.11716  0.019387654  0.019330928            2 
 1003000   0.83604391   -7.9665405    232.73588  0.019336646  0.019315023            4 
 1004000    0.8525627   -7.9723028    232.78901  0.019321797  0.019299116            4 
 1005000   0.85161796   -7.9267735    233.92124  0.019396455  0.019283368            2 
 1006000   0.86328222   -7.9371036    233.60315  0.019350824  0.019267615            1 
 1007000   0.85453399   -7.9663506    233.53601  0.019326052  0.019251899            2 
 1008000   0.85943334   -7.9725126    233.07695  0.019268928  0.019236233            4 
 1009000   0.84004776   -7.9290741    233.97909  0.019324339  0.019220625            1 
 1010000   0.86030678   -7.9604301    233.52883  0.019268055  0.019205065            1 
 1011000   0.84280999   -7.9630928    234.25733  0.019309044  0.019189503            2 
 1012000   0.83893712   -7.9257694    234.92941  0.019345307  0.019173959            2 
 1013000   0.84886058   -7.9672859    234.06203  0.019254856  0.019158463            2 
 1014000   0.86123485   -7.9882871    233.88234    0.0192211  0.019142816            1 
 1015000   0.85314508   -7.9628106    233.42082  0.019164271  0.019127164            1 
 1016000   0.86766434   -7.9777143     233.9127  0.019185753  0.019111459            4 
 1017000   0.85839036   -7.9736287    233.74617  0.019153242  0.019095731            4 
 1018000   0.84226423   -7.9840345    234.11694  0.019164779  0.019079888            1 
 1019000   0.83570334   -7.9477728    234.18588  0.019151609  0.019064239            2 
 1020000   0.84854409   -7.9545736    234.20847  0.019134679  0.019048753            2 
 1021000   0.83241879   -7.9346636    234.49026  0.019138937   0.01903315            2 
 1022000   0.85222217   -7.9732297    234.52309  0.019122887  0.019017486            4 
 1023000   0.86245188   -7.9676717     234.1067  0.019070276  0.019001831            3 
 1024000   0.83966197   -7.9508686    233.94042   0.01903812  0.018986145            4 
 1025000   0.83730323   -7.9639685    233.96618  0.019021641  0.018970361            4 
 1026000   0.83889442   -7.9419576     234.3918   0.01903767  0.018954722            3 
 1027000   0.84845578    -7.982626    234.30553  0.019012133  0.018939048            2 
 1028000   0.84237276   -7.9824239     234.2188  0.018986608  0.018923337            3 
 1029000   0.83961324   -7.9507359    234.56989   0.01899659  0.018907749            3 
 1030000   0.84738025   -7.9830051    234.48722  0.018971458  0.018892133            2 
 1031000   0.86610378   -7.9765456    233.88841  0.018904657  0.018876437            2 
 1032000   0.83772362   -7.9631664    234.56688  0.018941124  0.018860768            2 
 1033000    0.8620984   -7.9541693    234.50161  0.018917523  0.018845081            2 
 1034000   0.82686161   -7.9891749    234.37687  0.018889174  0.018829357            3 
 1035000   0.82488416   -7.9803481    234.53885  0.018883965  0.018813584            2 
 1036000   0.83797173   -7.9947259    234.67356  0.018876573  0.018797796            3 
 1037000   0.85743393   -8.0089036    234.43474  0.018839179   0.01878201            2 
 1038000   0.84546212   -7.9966448    234.75557  0.018846786  0.018766316            1 
 1039000   0.86029767   -7.9705757    234.83611  0.018835106  0.018750773            2 
 1040000   0.83983103   -7.9879542    235.07133  0.018835844  0.018735301            7 
 1041000   0.83199795   -7.9406922    235.89073  0.018883344  0.018719802            2 
 1042000   0.83080074   -7.9780793    235.43674  0.018828914  0.018704395            1 
 1043000   0.85678485    -7.933953    235.39198  0.018807285  0.018688907            6 
 1044000   0.83162438   -7.9760826    235.49293  0.018797329  0.018673527            2 
 1045000   0.82267971   -7.9670852    235.07411  0.018745941  0.018658099            3 
 1046000    0.8133642   -7.9592693    235.17491  0.018736051  0.018642664            2 
 1047000   0.81438756    -7.994439    235.42743  0.018738254  0.018627195            1 
 1048000   0.82879282   -7.9764846    235.07687  0.018692499  0.018611665            2 
 1049000   0.83719287   -7.9882495    235.56714  0.018713627   0.01859608            3 
 1050000   0.85204127   -8.0051577    235.21273  0.018667677  0.018580527            2 
 1051000    0.8303563   -8.0186753    234.98048    0.0186315  0.018564941            3 
 1052000   0.83072755   -8.0061276    235.56919  0.018660423  0.018549215            2 
 1053000   0.84221495   -7.9992014    235.46888  0.018634764  0.018533579            2 
 1054000   0.83539381   -8.0365021    235.15228  0.018592052  0.018517883            3 
 1055000   0.82004413   -8.0033813    235.41861  0.018595467  0.018502243            1 
 1056000   0.84400592    -8.015683    235.35015  0.018572455  0.018486566            1 
 1057000   0.83207616   -7.9996794    235.36022  0.018555678  0.018470961            3 
 1058000    0.8297137   -7.9879041    235.80327  0.018573037  0.018455493            2 
 1059000   0.83401075   -8.0133199    235.25941  0.018512702  0.018439996            2 
 1060000   0.84605919   -8.0066838    235.71199  0.018530817  0.018424447            1 
 1061000   0.81079209    -8.029834    235.73681  0.018515301  0.018408916            2 
 1062000   0.81794407   -8.0315765    235.76987  0.018500461  0.018393348            1 
 1063000   0.85436872   -8.0083568    235.33944  0.018449314  0.018377792            2 
 1064000   0.82944196     -8.00737    235.86146  0.018472859  0.018362192            1 
 1065000   0.83829682   -7.9887833    235.98341  0.018465055   0.01834657            1 
 1066000   0.84275128   -8.0139857    235.37345  0.018400051  0.018330986            2 
 1067000   0.82592533   -7.9855574    236.36844  0.018460515  0.018315445            2 
 1068000   0.80935121    -8.011327    236.18245  0.018428718  0.018299869            2 
 1069000   0.83581574   -8.0198234    235.57956   0.01836448  0.018284327            2 
 1070000   0.82733203   -7.9829538    235.80301   0.01836472  0.018268766            2 
 1071000   0.83830541   -8.0140667    235.81265  0.018348324  0.018253221            1 
 1072000   0.82074809   -8.0308024    235.68252  0.018321092  0.018237656            3 
 1073000   0.82358518   -7.9972818    236.22769  0.018346357  0.018222131            1 
 1074000   0.81660263   -8.0111664    235.58478   0.01827939  0.018206563            2 
 1075000   0.82322635   -8.0112597     235.8884  0.018285923  0.018190983            2 
 1076000    0.8270349   -8.0019052    235.99337  0.018277057  0.018175477            2 
 1077000   0.83101037   -8.0473032    236.20736  0.018276645  0.018159868            4 
 1078000   0.82272645   -8.0482174    235.44226  0.018200545  0.018144186            1 
 1079000   0.83785137   -8.0569347    235.06309  0.018154394  0.018128442            2 
 1080000   0.82663663   -8.0367784    235.25878  0.018152684  0.018112776            1 
 1081000   0.81399562   -8.0467929    235.97095  0.018190791  0.018097133            1 
 1082000   0.83253147   -8.0560633    235.75573  0.018157404  0.018081504            2 
 1083000   0.81547486   -8.0126032    236.25057  0.018178714  0.018066012            4 
 1084000    0.8183575   -8.0244368    236.48565  0.018180016  0.018050499            1 
 1085000   0.81800121   -8.0263771    236.55222  0.018168373  0.018035061            2 
 1086000   0.81622986   -8.0379701    236.61171  0.018156209  0.018019775            2 
 1087000   0.82016585   -8.0607709    235.77681  0.018075499  0.018004303            1 
 1088000   0.82479828   -8.0732069    235.83197  0.018063111  0.017988786            3 
 1089000    0.8141875   -8.0366154    236.75513  0.018117166  0.017973213            1 
 1090000   0.81057773   -8.0525753    236.41169  0.018074288  0.017957634            2 
 1091000   0.82432673     -8.03884     236.4976  0.018064283  0.017942187            1 
 1092000   0.81386911   -8.0371899    236.49919  0.018047863  0.017926644            1 
 1093000    0.8193871   -8.0363282    236.34828  0.018019844   0.01791114            2 
 1094000   0.80473831    -8.031487    236.77017  0.018035509  0.017895665            2 
 1095000    0.8237791   -8.0339357    236.56442   0.01800338  0.017880213            1 
 1096000   0.81432817   -8.0178628    236.91268  0.018013434  0.017864791            1 
 1097000   0.81490712    -8.064829    236.45917  0.017962562  0.017849361            4 
 1098000   0.82199425     -8.05463    236.07179  0.017916802  0.017833957            2 
 1099000   0.83045313   -8.0432619    236.53907  0.017935932  0.017818542            2 
 1100000   0.80977029   -8.0571023    236.87258  0.017944892  0.017803078            3 
 1101000   0.80568993   -8.0503706    236.28577  0.017884179  0.017787605            2 
 1102000   0.81835541   -8.0615185    236.40656  0.017877084   0.01777214            3 
 1103000   0.80561813   -8.0636653    236.07271  0.017835654  0.017756684            2 
 1104000    0.8069751   -8.0415677    236.22561   0.01783104  0.017741285            2 
 1105000   0.80539645   -8.0526786    236.61959  0.017844615  0.017725819            3 
 1106000    0.8041682   -8.0541854    236.68255  0.017833224   0.01771037            2 
 1107000   0.81166131   -8.0634676    236.68478  0.017817282  0.017694975            1 
 1108000   0.81390231   -8.0418397    236.59416  0.017794386  0.017679664            5 
 1109000   0.82534022   -8.0188292    237.41981  0.017840383  0.017664464            1 
 1110000     0.815903   -8.0615056     236.8984  0.017785165  0.017649291            2 
 1111000   0.82852368   -8.0522289    237.07374  0.017782309  0.017634051            1 
 1112000   0.78436818   -8.0135235    237.59647  0.017805491  0.017618839            4 
 1113000   0.82035208   -8.0820574    237.30939  0.017767999  0.017603664            1 
 1114000   0.80943384   -8.0754409    237.13817  0.017739241  0.017588443            2 
 1115000   0.82598961   -8.0573826    237.74743  0.017768866  0.017573245            3 
 1116000    0.7998494   -8.0667429    237.82053  0.017758403  0.017558111            3 
 1117000   0.79743782   -8.0725086    237.34988  0.017707392  0.017543008            1 
 1118000   0.81260924   -8.0773813    237.95585  0.017736721  0.017527835            3 
 1119000   0.81116882   -8.0373952    237.87229  0.017714648   0.01751268            1 
 1120000    0.7830758   -8.0775159    237.49647  0.017670869   0.01749756            2 
 1121000   0.79400224   -8.0853596    238.41294  0.017723233  0.017482515            2 
 1122000    0.8119058    -8.091947    238.13533  0.017686819  0.017467476            2 
 1123000   0.80014781   -8.0735117     238.2199  0.017677345  0.017452454            1 
 1124000   0.80684972   -8.0996573    238.06942  0.017650461  0.017437518            2 
 1125000   0.80402462   -8.0617332    238.33086  0.017654138   0.01742263            1 
 1126000   0.80846694   -8.0375653    238.08682  0.017620398  0.017407812            2 
 1127000   0.79666904   -8.0540445     238.1797  0.017611631  0.017392891            2 
 1128000   0.82563489   -8.0555516    238.21425  0.017598571  0.017377983            3 
 1129000   0.80749988   -8.0634789    238.56085  0.017608566  0.017363189            3 
 1130000   0.79079901   -8.0519757    239.15104  0.017636507  0.017348368            6 
 1131000      0.81183   -8.0881694    238.07238  0.017541436  0.017333622            2 
 1132000   0.79928023   -8.0348599    238.68558  0.017571082  0.017318866            2 
 1133000   0.77968612   -8.0695858    238.61827  0.017550623  0.017304065            4 
 1134000   0.79474259   -8.0603862    238.86267  0.017553106  0.017289297            1 
 1135000   0.80538268     -8.07204    238.79616  0.017532758  0.017274538            2 
 1136000   0.80446765   -8.1067544    238.41254  0.017489183  0.017259709            1 
 1137000   0.80577574   -8.0522652    238.73221   0.01749723  0.017244916            1 
 1138000   0.80206898   -8.0953675    238.52682  0.017466815   0.01723021            2 
 1139000   0.78202312   -8.0855445    239.10078  0.017493473  0.017215419            2 
 1140000   0.79806545   -8.1079901    238.37931  0.017425388  0.017200626            4 
 1141000   0.79878268   -8.0677966    238.85172  0.017444619  0.017185874            2 
 1142000   0.81030448    -8.100172    238.83232  0.017427927  0.017171156            6 
 1143000   0.79467378   -8.0441103    238.82495  0.017412143  0.017156487            7 
 1144000   0.80122537   -8.1020898    238.65214  0.017384334   0.01714179            2 
 1145000   0.79293058   -8.0718631     239.1974  0.017408836  0.017127155            3 
 1146000   0.79118079   -8.1079993    239.01849  0.017380635  0.017112512            1 
 1147000   0.81503836   -8.1341786    238.77349  0.017347682  0.017097795            1 
 1148000   0.79488458    -8.116339    239.14198  0.017359319  0.017083046            4 
 1149000   0.78159363    -8.102324    239.11145  0.017341997  0.017068338            2 
 1150000    0.7972547   -8.1099538    239.50977   0.01735578  0.017053734            4 
 1151000    0.7869213   -8.0832654    238.95038  0.017300201  0.017039199            2 
 1152000   0.80826415   -8.1049159    239.40755  0.017318255  0.017024677            4 
 1153000   0.79398973   -8.1141491    239.21597  0.017289388  0.017010089            1 
 1154000   0.79927663   -8.0883084    239.05673  0.017262906  0.016995497            1 
 1155000    0.7854554   -8.1299522    238.63312  0.017217397  0.016980889            1 
 1156000   0.80444093   -8.1144227    239.04631  0.017232289  0.016966253            4 
 1157000   0.79889202   -8.1119343    239.19955  0.017228432  0.016951654            1 
 1158000   0.79160445   -8.1183488     238.9025  0.017192178  0.016936969            3 
 1159000   0.79429007   -8.1215318    239.21518  0.017199826  0.016922324            2 
 1160000   0.79878481   -8.1220868    239.77672  0.017225339  0.016907787            1 
 1161000   0.79484991   -8.1148824    239.82546  0.017214001  0.016893257            1 
 1162000   0.79032277   -8.0955001      239.451  0.017172332  0.016878698            2 
 1163000   0.78689211   -8.1029669    239.62412  0.017169972  0.016864262       -1e+20 
 1164000   0.77567529   -8.1172574    240.08606  0.017188292  0.016849801            2 
 1165000   0.78501214   -8.1234302    239.34112  0.017120252  0.016835338            3 
 1166000   0.78724375   -8.1466687    239.47277  0.017114978  0.016820888            4 
 1167000   0.79526344   -8.1338057    239.96279  0.017135304  0.016806474            1 
 1168000    0.7916737   -8.1203637    239.80548  0.017109409  0.016792127            1 
 1169000   0.80189777   -8.0858713     240.7272  0.017160479  0.016777864            2 
 1170000   0.80142128   -8.0989794    240.59672  0.017136518  0.016763649            4 
 1171000   0.78862218   -8.1236456    240.39977  0.017107868  0.016749389            1 
 1172000   0.78226703   -8.0947253    240.32574  0.017088008  0.016735158            2 
 1173000   0.78807101   -8.0911783    240.88149  0.017112922   0.01672095            1 
 1174000   0.80780175   -8.1108067    240.40074  0.017064221  0.016706763            1 
 1175000   0.80152613   -8.1017544    240.35431  0.017046405  0.016692577            3 
 1176000   0.78794292    -8.131177    240.20578  0.017021384  0.016678352            3 
 1177000   0.78742279   -8.1282388    240.43478  0.017023136  0.016664142            1 
 1178000   0.79403722   -8.1072728     240.5304   0.01701545  0.016649993            2 
 1179000   0.79076732   -8.1122395    240.60208  0.017006084  0.016635805            2 
 1180000   0.77096357   -8.1537093    240.36102  0.016974648  0.016621604            4 
 1181000   0.79279661   -8.1351045     240.2785  0.016954453  0.016607374            2 
 1182000    0.7836639   -8.1225612    240.38727  0.016947777  0.016593204            2 
 1183000   0.76300981   -8.1191976    240.85645  0.016966501   0.01657905            1 
 1184000   0.76436642   -8.1285692    240.31794   0.01691427  0.016564915            3 
 1185000   0.79359536   -8.1362809    240.65183  0.016923476  0.016550725            3 
 1186000   0.77976412   -8.1942393    239.94367  0.016859448  0.016536522            2 
 1187000   0.77563552   -8.1638542    239.87145  0.016840175  0.016522317            2 
 1188000   0.78354215   -8.1558657    240.30427   0.01685636  0.016508136            2 
 1189000   0.79627231    -8.146668    241.08912  0.016897191  0.016494097            3 
 1190000   0.78305777    -8.165196    240.78179   0.01686147  0.016480057            2 
 1191000   0.77302844   -8.1592524    240.46801  0.016825358  0.016466014            2 
 1192000   0.78611815   -8.1211175    241.01035  0.016849157   0.01645202            2 
 1193000   0.77398595   -8.1492358    240.89479  0.016826962  0.016438046            3 
 1194000   0.76682973   -8.1497127    241.17525  0.016832443  0.016424092            2 
 1195000   0.78147073   -8.1391379    241.96957  0.016873749  0.016410213            3 
 1196000   0.77951748   -8.1684753    241.20039  0.016806047  0.016396438            2 
 1197000   0.79705128   -8.1333317    240.80256  0.016764311  0.016382596            2 
 1198000   0.78325165   -8.1443516    240.83097  0.016752294  0.016368739            3 
 1199000   0.77254719   -8.1256261    241.29085  0.016770284  0.016354827            2 
 1200000   0.78888244   -8.1563577    241.04969  0.016739562  0.016340955            2 
 1201000   0.77005129   -8.1502261    241.29046   0.01674233  0.016327129            2 
 1202000   0.76456277   -8.1640705    241.31714  0.016730251  0.016313289            4 
 1203000   0.76791196   -8.1486713    241.21774  0.016709458  0.016299429            4 
 1204000   0.76727144   -8.1659821    241.39951  0.016708161  0.016285601            4 
 1205000   0.77051942   -8.1786953    241.61355  0.016709098  0.016271812            1 
 1206000   0.78231272   -8.1497853    241.66481  0.016698784  0.016258051            1 
 1207000   0.76033044   -8.1558513    241.46451  0.016671121  0.016244353            4 
 1208000   0.78403055   -8.1067949    241.52318  0.016661367  0.016230585            2 
 1209000   0.75873996   -8.1500352    241.59514  0.016652546  0.016216858            2 
 1210000    0.7867267   -8.1737763    241.79369  0.016652458  0.016203118            1 
 1211000   0.77293475   -8.1763715    241.31838  0.016605999  0.016189405            2 
 1212000   0.77649543   -8.1898516    241.19684  0.016583941  0.016175659            1 
 1213000   0.76579629   -8.1662853    241.88677  0.016617667  0.016161896            2 
 1214000   0.76160691   -8.2018055    241.50025  0.016577447  0.016148233            3 
 1215000   0.76624909   -8.1715048    241.93815  0.016593837  0.016134544            1 
 1216000   0.76406581   -8.1698465    241.36225  0.016540724   0.01612088            2 
 1217000    0.7606907   -8.2059157    241.74484   0.01655333  0.016107173            1 
 1218000   0.76197813   -8.1929052    241.78066  0.016542191  0.016093498            3 
 1219000   0.76133543   -8.1717838    242.12751  0.016552332  0.016079851            2 
 1220000   0.75628187   -8.1536084    242.47575  0.016562551  0.016066242            3 
 1221000   0.77141938   -8.1473974    242.51394  0.016551593  0.016052671            4 
 1222000   0.77159583   -8.1488315    242.73263  0.016552962  0.016039088            3 
 1223000   0.74954862   -8.1690432    241.81941  0.016477201  0.016025573            1 
 1224000   0.78286975    -8.191026    242.09989  0.016482836  0.016012068            3 
 1225000   0.74822407   -8.1802043    242.01811  0.016463817  0.015998565            2 
 1226000   0.75493494   -8.1928134    241.80704  0.016436041  0.015985085            2 
 1227000   0.77151064   -8.1984362    242.04536  0.016438832  0.015971573            1 
 1228000   0.76989583   -8.1863079    242.31024   0.01644342  0.015958092            3 
 1229000   0.74371373   -8.2030837    242.09559  0.016415486  0.015944631            2 
 1230000   0.75000473   -8.2056561    241.59779  0.016368414  0.015931112            2 
 1231000   0.77370339   -8.2242258    242.53738  0.016418723  0.015917563            2 
 1232000   0.75246232   -8.1905191    242.19094  0.016381963  0.015903994            1 
 1233000   0.77139222   -8.2498725    242.26511  0.016373689   0.01589042            2 
 1234000   0.75991907   -8.2247926     241.6822  0.016321056  0.015876853            2 
 1235000   0.75902249    -8.211374    241.95101  0.016325979  0.015863308            3 
 1236000   0.75383397   -8.2262944    242.37575  0.016341407   0.01584972            2 
 1237000   0.75485052   -8.2056811    242.20052  0.016316392  0.015836214            2 
 1238000   0.75919886   -8.1651272    242.72682  0.016338639  0.015822758            1 
 1239000   0.77432534   -8.2060643    242.26894  0.016294655  0.015809323            1 
 1240000   0.74436492   -8.2209989    242.24677  0.016280025    0.0157959            5 
 1241000   0.77227405   -8.1932132    242.45121  0.016280635  0.015782455            1 
 1242000   0.73990389   -8.2118185    242.51083  0.016271526  0.015769081            2 
 1243000   0.78277305   -8.2122216     242.1711   0.01623566  0.015755728            4 
 1244000   0.76042474   -8.1999585    242.54827  0.016247874  0.015742376            1 
 1245000   0.74955524    -8.212063    242.70927    0.0162456  0.015729039            1 
 1246000   0.77047195   -8.2253857    242.58688  0.016224377  0.015715709            2 
 1247000   0.75276438   -8.2195352    242.59566  0.016211953  0.015702386            1 
 1248000   0.75123926   -8.2348873    242.45544  0.016189599  0.015689032            2 
 1249000   0.75816386    -8.224149    242.63299  0.016188483  0.015675669            2 
 1250000   0.73852881   -8.2221784    242.16756  0.016144504  0.015662326            1 
 1251000   0.76094747   -8.2264678    242.50792  0.016154271  0.015649018            2 
 1252000   0.75220523   -8.1935405    243.35751  0.016197917  0.015635798            1 
 1253000   0.75356071    -8.220765    243.43564  0.016190186  0.015622616            1 
 1254000   0.75930833    -8.213745    242.61511  0.016122748   0.01560945            3 
 1255000   0.74215992   -8.2010696    243.22882  0.016150652  0.015596285            2 
 1256000   0.74815896   -8.2221313    242.89503  0.016115647  0.015583046            2 
 1257000   0.74196042   -8.2371344    242.79996  0.016096523  0.015569798            3 
 1258000   0.75485575   -8.2454763    242.82102  0.016085123  0.015556558            1 
 1259000   0.76588608   -8.2291345    242.71509  0.016065336  0.015543409            2 
 1260000   0.74303832   -8.2296232    242.45686  0.016035507  0.015530297            5 
 1261000   0.73907011    -8.234272    243.13345  0.016067502  0.015517231            7 
 1262000   0.75065738   -8.1980556    243.20482  0.016059484  0.015504237            3 
 1263000   0.76388619   -8.2306863    243.24273  0.016049269  0.015491148            7 
 1264000   0.76219152   -8.2466274    242.65214  0.015997636  0.015478025            1 
 1265000    0.7614962   -8.2311137    243.06218  0.016012001  0.015464921            2 
 1266000   0.74524677   -8.2202288    242.76382  0.015979714  0.015451824            1 
 1267000   0.73782524   -8.2522522    242.41182   0.01594395  0.015438708            3 
 1268000   0.75058962   -8.2389784    242.52564  0.015938856  0.015425628            2 
 1269000    0.7465454   -8.2360822     242.7642  0.015941962  0.015412548            2 
 1270000   0.75115695   -8.2468942    243.31432  0.015965507  0.015399417            2 
 1271000   0.76205294    -8.224772    242.86878  0.015923733  0.015386347            1 
 1272000   0.74149752   -8.2189616    243.34953  0.015942711  0.015373321            6 
 1273000   0.76115891   -8.2294977    243.05632  0.015910992  0.015360307            4 
 1274000    0.7581101   -8.2425198    242.85988  0.015885654  0.015347279            2 
 1275000   0.73958901   -8.2205972    243.09386  0.015888487  0.015334237            2 
 1276000   0.73638007   -8.2267755    243.65231  0.015912507  0.015321249            3 
 1277000   0.74199411   -8.2595764    243.34524  0.015880008  0.015308279            8 
 1278000   0.76017327   -8.2370458    243.14939  0.015854812  0.015295266            3 
 1279000   0.75420096   -8.2382906    243.20045  0.015845742  0.015282266            2 
 1280000   0.73978141   -8.2324061    243.69963  0.015865861  0.015269263            4 
 1281000   0.74989781    -8.226823    243.47151  0.015838636  0.015256244            3 
 1282000   0.74731263   -8.2370409    242.59943  0.015769594  0.015243225            1 
 1283000   0.73421083   -8.2590292    242.69316   0.01576339    0.0152302            2 
 1284000   0.72961883   -8.2330398    242.84959  0.015761266  0.015217221            1 
 1285000   0.73542088   -8.2272536    243.46437   0.01578887  0.015204279            3 
 1286000    0.7565976   -8.2668671     243.4074    0.0157729  0.015191329            2 
 1287000   0.74385619   -8.2650421     242.8481   0.01572443  0.015178424            2 
 1288000   0.72704398   -8.2667471    243.19377  0.015734586  0.015165579            2 
 1289000   0.74446053   -8.2534792    243.16846  0.015720743  0.015152742            2 
 1290000   0.73649459    -8.229885     243.8455  0.015752293  0.015139887            2 
 1291000   0.72833022    -8.240544    243.58241   0.01572311  0.015127046            1 
 1292000   0.76648394   -8.2523885    243.83793  0.015727421  0.015114251            2 
 1293000   0.73912117   -8.2489035    243.67857  0.015704987  0.015101464            4 
 1294000   0.73725975   -8.2542007    243.43951  0.015677454   0.01508865            2 
 1295000    0.7365178   -8.2341219    243.84137  0.015691208  0.015075843            2 
 1296000   0.73940802   -8.2495224     243.3061  0.015644682  0.015063008            2 
 1297000   0.73716546   -8.2821441    242.95795  0.015610251  0.015050182            2 
 1298000   0.74421695   -8.2694781    243.55779  0.015636735  0.015037351            3 
 1299000   0.73553961   -8.2654567    243.28855  0.015607425  0.015024553            2 
 1300000   0.73879185   -8.2545784    243.42406  0.015604106  0.015011698            2 
 1301000   0.71953304   -8.2411912    243.78427  0.015615185  0.014998897            4 
 1302000   0.73133125   -8.2730096      243.798  0.015604071  0.014986117            2 
 1303000   0.72791996   -8.2704749    243.48257  0.015571922  0.014973348            2 
 1304000   0.74670682   -8.2502821     243.7303  0.015575812  0.014960682            3 
 1305000   0.74272733   -8.2699489    243.73612  0.015564248  0.014947981            4 
 1306000   0.72625369   -8.2535322    244.01504  0.015570127  0.014935286            1 
 1307000   0.74180227   -8.2799049    243.48766   0.01552459  0.014922573            2 
 1308000    0.7454411   -8.2778363    243.43724  0.015509508  0.014909799            2 
 1309000   0.73968432   -8.2708805    243.43552   0.01549755  0.014897104            3 
 1310000   0.73127145   -8.3019196    243.77198  0.015507124  0.014884402            2 
 1311000   0.73961995   -8.2720068    243.47755   0.01547658  0.014871683            2 
 1312000   0.72864447   -8.2998298    243.55956  0.015469992  0.014859016            4 
 1313000   0.73277258   -8.2794228    243.70694  0.015467564  0.014846348            2 
 1314000   0.72333236   -8.2925453    243.25242  0.015426967  0.014833706            6 
 1315000   0.72595137    -8.316497    243.15827   0.01540927  0.014820988            4 
 1316000   0.71895747   -8.2936679    243.67837  0.015430494  0.014808316            4 
 1317000   0.74870655   -8.2742072    244.06233  0.015443073  0.014795692            2 
 1318000    0.7231644   -8.2650295    244.26382  0.015444096  0.014783105            3 
 1319000   0.72777914   -8.3063098    243.49289   0.01538368  0.014770458            3 
 1320000   0.71878214   -8.2689049    243.71199  0.015385858  0.014757848            1 
 1321000   0.70479167   -8.2761022    244.12675  0.015400375  0.014745288            3 
 1322000   0.72493581   -8.2863209    243.44127  0.015345516  0.014732739            1 
 1323000   0.72655682    -8.274566     244.0467  0.015372052  0.014720216            3 
 1324000   0.72160642   -8.2546519    244.03485  0.015359696  0.014707716            1 
 1325000   0.73204959   -8.2865645    243.86304  0.015337298  0.014695266            2 
 1326000     0.718231   -8.3004485    243.82489  0.015323334  0.014682823            2 
 1327000   0.71967057   -8.2682424     244.6606  0.015364268  0.014670472            1 
 1328000   0.72654316   -8.2638269    244.52119   0.01534395  0.014658119            3 
 1329000    0.7217956   -8.2926567    244.40917   0.01532538  0.014645774            2 
 1330000   0.73828245   -8.3067423    243.76327  0.015273388  0.014633394            1 
 1331000   0.70598586   -8.3078004     244.7309  0.015322495  0.014621038            2 
 1332000   0.73397652   -8.2912514    244.70845  0.015309588   0.01460865            1 
 1333000   0.72205378   -8.2935531    244.54774  0.015288056  0.014596279            4 
 1334000   0.72849355    -8.297455    244.27001  0.015259246   0.01458393            7 
 1335000   0.71705344   -8.2987927    244.24633  0.015246338  0.014571604            7 
 1336000   0.71385877   -8.2945986    244.77064   0.01526763  0.014559322            2 
 1337000   0.71072775   -8.2768013    244.61473  0.015246493  0.014547085            5 
 1338000   0.71227219   -8.2771577    244.84703  0.015249566  0.014534844            5 
 1339000   0.72730029   -8.2545401    244.60983  0.015223415  0.014522656            2 
 1340000    0.7175037   -8.2813112    244.39903  0.015198945  0.014510432            2 
 1341000   0.71982477   -8.2753792    244.51127  0.015194585  0.014498191            2 
 1342000   0.72525753   -8.2901271    244.97885  0.015212298   0.01448599            2 
 1343000   0.70996711   -8.2953896    244.25508  0.015156061  0.014473806            4 
 1344000   0.71246265   -8.2968367    245.08626   0.01519632   0.01446159            2 
 1345000   0.70616427   -8.2858107    244.21406  0.015130983  0.014449374            1 
 1346000   0.70328786   -8.3024396    244.74588  0.015152667  0.014437181            2 
 1347000   0.69856846    -8.313795     243.9118  0.015089817  0.014424964            1 
 1348000   0.69608372    -8.281702    244.90743  0.015140173   0.01441275            1 
 1349000   0.73544751   -8.2897238    244.56795  0.015107978  0.014400561            4 
 1350000   0.74059712    -8.310003    244.07134  0.015066132   0.01438839            2 
 1351000   0.71630694   -8.3133246    244.51367  0.015082265  0.014376203            2 
 1352000   0.70216264   -8.3142371    244.89809  0.015094803  0.014364061            2 
 1353000   0.72531125   -8.3462464    244.64015   0.01506776  0.014351904            4 
 1354000   0.72124986   -8.3221675     245.0367  0.015081038  0.014339752            2 
 1355000   0.69721129   -8.3331477     244.4907  0.015036328  0.014327564            2 
 1356000   0.70485107   -8.3196629    244.80108  0.015044314  0.014315402            2 
 1357000   0.70566532    -8.362554    244.80365  0.015033385   0.01430323            2 
 1358000   0.70412788   -8.3543615    244.89126  0.015027692  0.014291039            3 
 1359000   0.71611652   -8.3336861    244.16101  0.014971855  0.014278883            1 
 1360000   0.70492903   -8.3205858    244.53288  0.014983632  0.014266767            2 
 1361000   0.70911471   -8.3293192    245.30145  0.015019682  0.014254661            1 
 1362000   0.70354629   -8.3440659    244.81876  0.014979121  0.014242592            3 
 1363000   0.71635622   -8.3208654    244.84499  0.014969735  0.014230524            2 
 1364000   0.70932212   -8.3395863    244.73747  0.014952191  0.014218477            2 
 1365000   0.70048788   -8.3080642    245.26336  0.014973343  0.014206416            3 
 1366000   0.69963035   -8.3382882    244.59024  0.014921317  0.014194362            3 
 1367000   0.70087677   -8.3264444    244.78592  0.014922331  0.014182327            3 
 1368000   0.72357722   -8.3231717    245.17052  0.014934851  0.014170353            4 
 1369000   0.70723904    -8.306375    245.47033  0.014942192  0.014158393            2 
 1370000   0.70893281   -8.3668575    244.65427  0.014881647  0.014146422            3 
 1371000    0.6950515   -8.3387633    244.98934  0.014891159  0.014134488            1 
 1372000   0.70084794    -8.327665    244.92578  0.014876444  0.014122584            3 
 1373000   0.71245538   -8.3401993    244.92894  0.014865801   0.01411067            2 
 1374000    0.7151246   -8.3368066     244.9811  0.014858145  0.014098773            1 
 1375000    0.6964796   -8.3325413    245.10352  0.014854758   0.01408684            2 
 1376000   0.69507115   -8.3283734    245.21286  0.014850585  0.014074953            2 
 1377000   0.70926662   -8.3270105    245.04365   0.01482956  0.014063064            2 
 1378000   0.71876451   -8.3338174    244.85212  0.014807216  0.014051197            1 
 1379000   0.70766798   -8.3523818    244.98002  0.014804207  0.014039284            1 
 1380000   0.70363456   -8.3506419    244.75602  0.014779953   0.01402739            1 
 1381000   0.70292624   -8.3407669    245.32376  0.014803509   0.01401549            2 
 1382000   0.70805341   -8.3439461     245.2704   0.01478958  0.014003606            2 
 1383000   0.69827001   -8.3459372    245.23851  0.014776965  0.013991728            2 
 1384000   0.71199479   -8.3376832    245.26416  0.014767832  0.013979814            2 
 1385000   0.70728341   -8.3500829    244.88516  0.014734366  0.013967928            1 
 1386000   0.69737315   -8.3335716      244.645  0.014709295  0.013956031            1 
 1387000   0.68496926   -8.3787481     244.9658  0.014717964  0.013944172            1 
 1388000   0.70072281   -8.3297677    245.25726  0.014724859  0.013932331            1 
 1389000   0.71927793   -8.3690756    244.73861  0.014683142  0.013920498            2 
 1390000   0.69426466   -8.3585211    244.72007  0.014671467  0.013908635            1 
 1391000   0.68480086   -8.3941346    244.91547  0.014672626  0.013896742            3 
 1392000   0.69971607   -8.3724941    244.84944  0.014658132  0.013884876            2 
 1393000   0.70821024    -8.403455    244.66831  0.014636774  0.013873055            4 
 1394000   0.69477011   -8.3670787    244.29237    0.0146038  0.013861225            3 
 1395000   0.69098795    -8.372973    244.51604  0.014606693  0.013849411            4 
 1396000   0.68664649   -8.3842031    244.75044  0.014610222  0.013837555            2 
 1397000   0.69587564   -8.3711725    244.45996  0.014582436  0.013825699            1 
 1398000    0.6936052   -8.3800866     244.9761  0.014602772  0.013813877            2 
 1399000   0.69396527   -8.3812807    244.84516  0.014584534  0.013802052            5 
 1400000    0.7016585   -8.3722044    244.93788  0.014579636   0.01379022            2 
 1401000   0.69308725   -8.3917955    244.24885  0.014528244  0.013778422            2 
 1402000   0.68346487   -8.3858597    244.61085  0.014539399  0.013766613            2 
 1403000   0.68844061   -8.3695814    245.11964  0.014559256  0.013754837            2 
 1404000   0.69218814   -8.3952236    244.60827  0.014518534  0.013743061            2 
 1405000   0.69318563   -8.4013672      245.048  0.014534282  0.013731308            2 
 1406000   0.67618913   -8.3892884    244.67126  0.014501616  0.013719552            2 
 1407000   0.68625937    -8.395448    244.61672  0.014488079  0.013707795            1 
 1408000   0.68992982   -8.3754536    244.40823  0.014465449  0.013696041            1 
 1409000   0.71112169   -8.3485695    244.58848  0.014465844  0.013684311            2 
 1410000   0.70065081   -8.3939535    244.45966   0.01444797  0.013672558            3 
 1411000    0.7054141   -8.3842796    244.44291  0.014436742  0.013660799            4 
 1412000   0.67677373   -8.3859028    244.32478  0.014419546  0.013649045            2 
 1413000   0.68395606   -8.3988608    244.00689  0.014390593   0.01363729            3 
 1414000   0.69351635    -8.393502    245.12065  0.014446054  0.013625544            4 
 1415000   0.68088054   -8.3990486     244.5047   0.01439957  0.013613801            1 
 1416000   0.69319348   -8.4155491     244.6422  0.014397493  0.013602107            2 
 1417000     0.681137   -8.3921854    244.61667  0.014385831  0.013590359            4 
 1418000   0.68451349   -8.4187122     244.9599  0.014395857  0.013578656            1 
 1419000   0.68095811   -8.4148596    244.37281  0.014351234  0.013566947            2 
 1420000   0.69920102   -8.3905993    244.65168  0.014357493  0.013555276            2 
 1421000   0.68897821   -8.4062699    244.30471  0.014327042  0.013543582            1 
 1422000   0.68205812   -8.3865758    244.77172  0.014344334  0.013531878            3 
 1423000   0.67824403   -8.3960653    244.65548  0.014327447  0.013520192            2 
 1424000   0.67709302   -8.4104482    244.54427  0.014310877  0.013508515            3 
 1425000   0.69105069   -8.4137648    244.25128  0.014283701  0.013496849            2 
 1426000   0.67921921   -8.4044582    244.26804  0.014274663  0.013485182            3 
 1427000   0.67412481   -8.4032202    244.11052  0.014255461  0.013473526            4 
 1428000    0.6814487   -8.4251262    243.87093  0.014231497  0.013461853            2 
 1429000    0.6925882   -8.4345542    244.55723   0.01426156  0.013450191            4 
 1430000   0.68814262   -8.4068215    244.40991  0.014243002  0.013438555            1 
 1431000   0.67149682   -8.4254264    244.73027  0.014251704  0.013426961            2 
 1432000   0.68615683   -8.4169361    243.87964  0.014192251  0.013415349            2 
 1433000   0.69187224     -8.42925    244.46277  0.014216258  0.013403732            2 
 1434000   0.67454661   -8.4384439    244.76482  0.014223897  0.013392153            2 
 1435000   0.68667611   -8.3965851    244.62355  0.014205781  0.013380574            3 
 1436000   0.69134068   -8.4078597    244.70355  0.014200531   0.01336905            3 
 1437000   0.66714773   -8.3892859    244.47838  0.014177591   0.01335752            2 
 1438000    0.6670679   -8.4193444    244.07692  0.014144467  0.013345986            2 
 1439000   0.69139669   -8.4403384    244.42446  0.014154764  0.013334451            2 
 1440000   0.65663325   -8.4319769    244.58991  0.014154509  0.013322928            3 
 1441000   0.69071289   -8.4266398    245.00545  0.014168717  0.013311415            1 
 1442000    0.6959043   -8.4106508    244.25964  0.014115791  0.013299915            3 
 1443000   0.68263432   -8.4122672    244.81885  0.014138303  0.013288438            3 
 1444000   0.67508094     -8.42589    244.55453  0.014113258  0.013276928            3 
 1445000   0.67644129   -8.4199482    244.29284  0.014088399  0.013265462            3 
 1446000   0.68306316   -8.4225067    243.84549  0.014052875  0.013254012            2 
 1447000   0.68290588   -8.4224203    244.33072  0.014071108   0.01324254            1 
 1448000   0.67256031   -8.4443326     243.9918  0.014041885  0.013231058            1 
 1449000   0.68219675   -8.4379295    244.52909  0.014063094  0.013219605            2 
 1450000   0.67729025   -8.4427184    244.44891  0.014048788    0.0132082            2 
 1451000   0.68779949   -8.4236389    244.39811  0.014036188  0.013196776            1 
 1452000   0.68088217   -8.4591247    244.02492  0.014005104   0.01318536            1 
 1453000   0.67558349   -8.4237104    244.82194  0.014041176  0.013173961            4 
 1454000   0.68204906   -8.4310997     244.2981  0.014001496  0.013162589            2 
 1455000   0.66671369    -8.418651    244.71508  0.014015755  0.013151236            2 
 1456000   0.66394863   -8.4359523    244.15012  0.013973794  0.013139876            3 
 1457000   0.67955837   -8.4346445    244.54571  0.013986828  0.013128554            3 
 1458000   0.68331868   -8.4268176    244.14372  0.013954259  0.013117214            2 
 1459000   0.66879459   -8.4252043     244.8598  0.013985595  0.013105886            2 
 1460000   0.66709799   -8.4346438    244.99168  0.013983544  0.013094618            1 
 1461000   0.67167555   -8.4519828    244.72153  0.013958563  0.013083361            1 
 1462000   0.65294745   -8.4203128    245.04508  0.013967458  0.013072137            6 
 1463000   0.66626903   -8.4415981    244.70417  0.013938492  0.013060899            3 
 1464000   0.66169965   -8.4253346    245.30038  0.013962909  0.013049665            3 
 1465000   0.67442398   -8.4063146    244.72147  0.013920448  0.013038447            6 
 1466000   0.66584747    -8.435757    245.03745  0.013928914  0.013027267            3 
 1467000   0.66806665   -8.4525324    245.11648  0.013923908  0.013016076            4 
 1468000   0.67063021    -8.453679    244.61273  0.013885827  0.013004891            2 
 1469000   0.66076534   -8.4382231    244.52634  0.013871474  0.012993731            2 
 1470000   0.66860061   -8.4534016    244.77611  0.013876197  0.012982597            2 
 1471000   0.67112574   -8.4499436    244.97151  0.013877833  0.012971436            2 
 1472000   0.66736189    -8.447042     244.4035  0.013836249  0.012960271            3 
 1473000    0.6523424   -8.4538085    245.08829  0.013865597  0.012949131            2 
 1474000   0.67464249   -8.4312206    244.96233  0.013849069  0.012937987            2 
 1475000   0.65132342   -8.4530017    244.78608  0.013829722  0.012926875            2 
 1476000   0.66311234   -8.4777744    244.83483  0.013823104  0.012915759            1 
 1477000   0.66230379   -8.4750234    245.11804  0.013829725  0.012904641            5 
 1478000    0.6732369   -8.4614044    244.89679  0.013807893  0.012893514            2 
 1479000   0.66608037   -8.4692517    244.50474  0.013776467  0.012882389            2 
 1480000   0.67050985   -8.4360952    244.87834  0.013788195  0.012871291            1 
 1481000   0.65508883   -8.4454537    244.89126  0.013779612  0.012860187            3 
 1482000   0.66546785   -8.4842221    244.51595   0.01374921  0.012849101            1 
 1483000   0.66288117   -8.4742858    244.81476   0.01375673  0.012838016            3 
 1484000   0.65929562   -8.4779573    244.30781  0.013718992  0.012826963            2 
 1485000   0.66412972   -8.4955816    244.52954  0.013722196  0.012815892            1 
 1486000   0.66124537   -8.4904294    244.61926  0.013717993  0.012804848            1 
 1487000   0.65262286   -8.4751695    244.25873  0.013688564  0.012793793            8 
 1488000   0.66914312   -8.4684264    244.07737  0.013669208  0.012782762            2 
 1489000   0.66528878   -8.4800062     244.4309  0.013679813  0.012771707            1 
 1490000   0.65739012   -8.4965318    244.35001  0.013666108  0.012760705            3 
 1491000   0.65606912   -8.4968523    245.06003  0.013696626  0.012749683            3 
 1492000   0.65190361   -8.4877199    244.69192  0.013666886  0.012738663            3 
 1493000   0.65993525   -8.4593883    244.82509  0.013665165  0.012727688            3 
 1494000   0.64565556    -8.475585    244.47718  0.013636612  0.012716709            3 
 1495000   0.64238498   -8.4565275     244.8506  0.013648306  0.012705737            2 
 1496000   0.64600459   -8.4864887    244.70807  0.013631243  0.012694758            1 
 1497000   0.65203877   -8.4905977     244.5275  0.013612085  0.012683781            2 
 1498000   0.66293259    -8.478837    245.11344  0.013635594  0.012672826            4 
 1499000    0.6547621   -8.4758581    244.96234  0.013618097  0.012661882            1 
 1500000   0.64489331   -8.4824812    244.51369  0.013584094  0.012650953            1 
 1501000   0.66988065   -8.4872506    244.78894  0.013590326  0.012640022            3 
 1502000   0.65825311   -8.4534425    244.51014  0.013565809  0.012629137            1 
 1503000   0.65981494   -8.4982529     244.1299  0.013535701  0.012618242            2 
 1504000   0.64652624   -8.5003297    244.22211   0.01353181  0.012607364            1 
 1505000   0.63663399    -8.479534     244.6837  0.013548377  0.012596471            1 
 1506000   0.65637981   -8.4964693     244.3854  0.013522875  0.012585595            4 
 1507000   0.65978993   -8.4858168    244.45714  0.013517869  0.012574735            2 
 1508000   0.65379515   -8.4595135    244.96038  0.013536714  0.012563927            2 
 1509000   0.64604044    -8.483963    244.79989  0.013518881  0.012553123            1 
 1510000    0.6590554   -8.4954814    244.60151  0.013498979  0.012542331            5 
 1511000   0.66173095   -8.5016113    244.32773  0.013474947  0.012531517            3 
 1512000   0.66025086   -8.5005975    244.16483  0.013457056  0.012520733            4 
 1513000   0.64719667   -8.4850356     244.4388  0.013463252  0.012509953            5 
 1514000   0.65538082    -8.453589    244.94054  0.013481976  0.012499224            2 
 1515000    0.6454434   -8.4650886    245.11345  0.013482588  0.012488485            3 
 1516000   0.65438958   -8.4753505    244.86275  0.013459914   0.01247775            4 
 1517000    0.6437565   -8.5211134    244.64795  0.013439241   0.01246698            2 
 1518000   0.64679997   -8.4992431    244.23361  0.013407642  0.012456228            2 
 1519000   0.64539495   -8.4838469    244.47547  0.013412084  0.012445498            3 
 1520000   0.63556699   -8.5038594    244.39226  0.013398698  0.012434782            3 
 1521000   0.65025677   -8.5028854    244.49507  0.013395522  0.012424058            1 
 1522000   0.64589626   -8.5136979     244.9358  0.013410852  0.012413356            2 
 1523000   0.65609682   -8.4879588    244.90956  0.013400611  0.012402663            3 
 1524000   0.63238063   -8.5188146    244.49469  0.013369132  0.012391989            3 
 1525000   0.65024536   -8.5137124    244.64094  0.013368358  0.012381321            3 
 1526000   0.62387393   -8.4962254    244.97764  0.013377984  0.012370649            4 
 1527000   0.64237537   -8.5266932    244.32229  0.013333458  0.012359981            3 
 1528000   0.65140757   -8.4671069    244.66447  0.013343394  0.012349337            1 
 1529000   0.64348992   -8.5116552    244.39109  0.013319767  0.012338694            4 
 1530000   0.64071972   -8.5176802    244.31594  0.013306968  0.012328043            1 
 1531000   0.64192631    -8.496304     244.7453  0.013321647  0.012317405            3 
 1532000   0.64039791   -8.5050831    244.70268  0.013310633  0.012306785            2 
 1533000   0.63679024   -8.5068598     244.1685  0.013272913  0.012296163            1 
 1534000   0.63617802    -8.507163    244.73593  0.013295085  0.012285554            1 
 1535000    0.6483747   -8.5029772    244.88016  0.013294254  0.012274947            3 
 1536000   0.64032739   -8.5069734    244.99117  0.013291621  0.012264349            3 
 1537000   0.63181191    -8.512773    244.45247  0.013253766  0.012253768            3 
 1538000   0.64977294    -8.505598    244.74332  0.013260908  0.012243211            1 
 1539000   0.64274112   -8.4984288    245.03458  0.013268063  0.012232643            2 
 1540000   0.65520658   -8.4834576    244.04259  0.013205768  0.012222092            3 
 1541000   0.64471127   -8.5124351    244.22359  0.013206986  0.012211552            4 
 1542000   0.63310934   -8.5043732    244.56535  0.013216891  0.012201023            4 
 1543000   0.64243569   -8.5174823    244.83778  0.013223038  0.012190484            4 
 1544000   0.63336277   -8.5052487    244.84187  0.013214695  0.012179975            3 
 1545000   0.63830931   -8.5137554    244.09802  0.013166021  0.012169466            5 
 1546000   0.63919878   -8.5151844    244.54975  0.013181854  0.012158957            2 
 1547000   0.64782508    -8.524971     244.5404  0.013172829  0.012148466            1 
 1548000   0.64423813   -8.5114675    244.61469  0.013168319  0.012137964           10 
 1549000   0.64953672   -8.5278462    244.31347  0.013143612  0.012127485            1 
 1550000   0.64416353   -8.5203177    244.35597  0.013137418  0.012116994            3 
 1551000   0.64652512   -8.5089847    244.19611  0.013120358  0.012106521            1 
 1552000   0.64140065   -8.5027138    244.42078  0.013123968  0.012096057            8 
 1553000   0.63682984   -8.5257614    244.33106  0.013110703  0.012085587            1 
 1554000   0.63657826   -8.5126386    244.47647  0.013110064  0.012075135            5 
 1555000   0.63236266   -8.5302607    244.33758   0.01309419  0.012064685            3 
 1556000   0.63740162   -8.5364646    244.00065   0.01306773  0.012054254            3 
 1557000   0.61906083   -8.5255908    244.71909  0.013097789  0.012043839            7 
 1558000   0.64008334   -8.5218519     244.3908  0.013071823   0.01203343            2 
 1559000   0.63810596   -8.5252365     243.8867  0.013036492  0.012023035            2 
 1560000   0.64161899   -8.5119925    244.48269  0.013059973   0.01201265            2 
 1561000   0.62464891   -8.5123816    244.45343  0.013050044  0.012002262            3 
 1562000   0.62721048   -8.5188001     244.4983  0.013044083  0.011991903            2 
 1563000   0.61629478   -8.5352028    244.52583  0.013037206  0.011981559            4 
 1564000   0.61952587   -8.5266362    244.33441  0.013018671  0.011971207       -1e+20 
 1565000   0.62755685   -8.5490979      244.262  0.013006496  0.011960872            1 
 1566000   0.63835921   -8.5427026    244.33991  0.013002336  0.011950547            1 
 1567000   0.64221659   -8.5402534      244.379  0.012996118  0.011940242            2 
 1568000   0.62179053   -8.5358983    244.72078  0.013005994  0.011929934            2 
 1569000   0.62927995   -8.5411687    244.17824  0.012968889  0.011919635            2 
 1570000   0.63467253   -8.5310829    244.06723  0.012954736  0.011909328            3 
 1571000    0.6256891   -8.5463242    243.93106  0.012939267   0.01189902            4 
 1572000   0.62857819   -8.5417132    244.34386  0.012952919   0.01188873            6 
 1573000   0.62808365    -8.539921      244.302  0.012942467  0.011878455            3 
 1574000   0.63133296   -8.5332339    244.01797  0.012919206  0.011868172            3 
 1575000   0.61592031   -8.5318013     244.0227  0.012911254  0.011857894            3 
 1576000   0.63064568   -8.5486056    244.45844  0.012926102  0.011847665            2 
 1577000   0.61597587   -8.5452933    244.46505  0.012918255  0.011837426            1 
 1578000    0.6170943   -8.5265685    244.49693  0.012911752  0.011827198            4 
 1579000   0.62266466   -8.5256205    244.48207   0.01290279  0.011817005            2 
 1580000   0.60684646   -8.5582043    243.89518   0.01286367  0.011806807            2 
 1581000   0.63141572   -8.5504357    244.13016  0.012867919  0.011796591            1 
 1582000   0.63149741   -8.5545551    244.13888  0.012860245   0.01178638            2 
 1583000   0.60745303   -8.5606867    244.06931  0.012848458  0.011776198            2 
 1584000   0.61943577   -8.5391262     244.5887  0.012867672  0.011766015            2 
 1585000   0.61674257   -8.5537876    244.03172  0.012830269  0.011755849            3 
 1586000    0.6143492   -8.5503933    244.18098  0.012830022   0.01174568            4 
 1587000   0.61499468     -8.54354    244.00736  0.012812821  0.011735515            2 
 1588000   0.61646002   -8.5723866    244.16629  0.012813093  0.011725351            2 
 1589000   0.61557455   -8.5605324    243.87927  0.012789977  0.011715206           10 
 1590000   0.64031765   -8.5686482    243.72089  0.012773632  0.011705078            2 
 1591000   0.63160378   -8.5739267    243.98668  0.012779524  0.011694948            2 
 1592000   0.61403786   -8.5936539    243.98285  0.012771297  0.011684844            1 
 1593000   0.62062984   -8.5769153    243.77601  0.012752459  0.011674732            2 
 1594000   0.62629591   -8.5649541    244.37102  0.012775566  0.011664651            2 
 1595000   0.62818536   -8.5584067    244.01314  0.012748858  0.011654563            6 
 1596000   0.61153688   -8.5885934    244.01627  0.012741033   0.01164449            2 
 1597000   0.62302463   -8.5951171     244.4073   0.01275346  0.011634417            2 
 1598000   0.59566591   -8.5719032    243.90642  0.012719359  0.011624364            1 
 1599000   0.60476746   -8.5752124    243.97795  0.012715132  0.011614323            2 
 1600000   0.61546545   -8.5547409    244.49966  0.012734357  0.011604295            1 
 1601000   0.61356475   -8.5719727    244.34104  0.012718147  0.011594293            1 
 1602000   0.61745623   -8.5646809    244.23153  0.012704512  0.011584267            3 
 1603000   0.61874643   -8.5750831    243.79898  0.012674099  0.011574269            3 
 1604000   0.61897517    -8.554331    244.26669  0.012690497  0.011564282            5 
 1605000   0.61028272   -8.5840572    243.51077  0.012643342  0.011554295            2 
 1606000   0.62428486   -8.6018908    243.96415  0.012658995  0.011544325            1 
 1607000   0.61825686   -8.5803153    243.74158  0.012639576  0.011534341            1 
 1608000    0.6116758   -8.5793601     244.0326  0.012646797   0.01152437            3 
 1609000   0.60150565   -8.5802956    244.00204  0.012637355    0.0115144            1 
 1610000   0.59941975   -8.5565228    243.93623  0.012626099  0.011504439            4 
 1611000    0.6169016   -8.5810982    243.98231  0.012620645  0.011494489            2 
 1612000   0.60131228   -8.6055202    243.91342  0.012609255  0.011484545            2 
 1613000   0.60477214   -8.5681125    243.65424  0.012588047  0.011474601            2 
 1614000   0.61547095   -8.5923111    244.02918  0.012599607  0.011464669            1 
 1615000    0.6036824   -8.5767359    243.93098  0.012586738  0.011454761            2 
 1616000   0.61714828   -8.5961549    243.64894  0.012564405  0.011444847            1 
 1617000    0.6106198   -8.5842697    243.99094   0.01257426  0.011434947            4 
 1618000   0.60214186   -8.5896029     243.4978   0.01254109  0.011425048            2 
 1619000   0.61413037   -8.5866085    244.13688  0.012566239  0.011415153            2 
 1620000   0.59283277   -8.5754386    243.44702  0.012522995  0.011405261            2 
 1621000   0.61322271   -8.6330739     243.1174  0.012498324  0.011395376            2 
 1622000   0.61368339   -8.5929096    243.79309  0.012525334  0.011385501            1 
 1623000   0.60099711   -8.6078544    243.88164  0.012522163  0.011375645            5 
 1624000   0.60742066    -8.606443    243.65624  0.012502886  0.011365817            3 
 1625000   0.60026207   -8.5846998     243.8363  0.012504425   0.01135598            5 
 1626000   0.59353863   -8.6040873    243.59315  0.012484274  0.011346135            5 
 1627000   0.59086626   -8.5865365    243.93448  0.012494083  0.011336291            4 
 1628000   0.61536827   -8.5930102    243.61941  0.012470281  0.011326468            1 
 1629000   0.60523181    -8.614182    243.42087  0.012452469  0.011316648            3 
 1630000   0.61586919   -8.6068767    243.76584  0.012462466  0.011306839            2 
 1631000   0.59768427   -8.6147861    243.54057  0.012443315  0.011297034            2 
 1632000   0.59234378   -8.5963786    244.00736  0.012459526  0.011287252            2 
 1633000   0.60723718   -8.5947983    243.25572   0.01241354  0.011277496            1 
 1634000   0.60708913   -8.5908914     243.7429  0.012430788  0.011267715            1 
 1635000   0.59902081   -8.5993224    243.44771   0.01240814  0.011257956            2 
 1636000   0.60177942    -8.611553    243.61962  0.012409312  0.011248195            2 
 1637000   0.59854426   -8.6084593    243.30995  0.012385968  0.011238442            3 
 1638000   0.59579018   -8.6090111    243.77702  0.012402168  0.011228696            3 
 1639000   0.57597822   -8.6290316    243.25357  0.012367987  0.011218959            1 
 1640000   0.60347259   -8.6144727    243.59632  0.012377862  0.011209237            1 
 1641000   0.59283937    -8.616609    243.04408  0.012342275  0.011199502            1 
 1642000   0.58959166   -8.6137538    243.23546  0.012344471  0.011189795            4 
 1643000   0.59048113   -8.6127734    243.50466  0.012350612    0.0111801            1 
 1644000   0.59450921   -8.6121316    243.77942  0.012357027  0.011170422            3 
 1645000   0.60463734    -8.595387    243.66646  0.012343792  0.011160756            4 
 1646000   0.60138008   -8.6151231     243.1464  0.012309964  0.011151098            2 
 1647000   0.58986048   -8.6198157     243.4851  0.012319626  0.011141445            2 
 1648000   0.61359112   -8.6341818    243.51745  0.012313787  0.011131789            5 
 1649000   0.59316264   -8.6115457    243.09301   0.01228487  0.011122143            2 
 1650000   0.58846715   -8.6185286    243.66002  0.012306061  0.011112524            3 
 1651000   0.59399117   -8.6335395    243.69386  0.012300316  0.011102906            4 
 1652000   0.59281885    -8.632986    243.53693  0.012284954  0.011093289            2 
 1653000   0.60214299   -8.6192296    243.75586  0.012288559  0.011083697            4 
 1654000   0.59121782   -8.6352138     243.1787  0.012252051  0.011074117            3 
 1655000   0.59100559   -8.6372932    243.20063  0.012245752  0.011064541            1 
 1656000   0.58858935   -8.6201758    243.44463  0.012250635  0.011054974            2 
 1657000   0.59946573   -8.6184748     243.2067  0.012231277   0.01104542            2 
 1658000    0.6015546   -8.6062921    243.70629  0.012249009  0.011035879            8 
 1659000   0.60164387    -8.635018    243.40046  0.012226264   0.01102635            3 
 1660000   0.57814462   -8.6350798    243.42665  0.012220213  0.011016826            2 
 1661000    0.6016034   -8.6179847    243.47027  0.012215045  0.011007311            1 
 1662000    0.5959464   -8.6051823    243.45506  0.012206933  0.010997806            3 
 1663000   0.57901741   -8.6370393    243.47291  0.012200486  0.010988329            2 
 1664000   0.59818918   -8.6413634    243.67407  0.012203229   0.01097884            1 
 1665000   0.59113689   -8.6537489    243.66995  0.012195693  0.010969358            6 
 1666000   0.58132237   -8.6353634    243.31175  0.012170456  0.010959898            1 
 1667000   0.58291532   -8.6196555    243.48014  0.012171573  0.010950447            2 
 1668000   0.58738531   -8.6092784    243.62257  0.012171391  0.010940996            1 
 1669000   0.60813377    -8.628787    243.54984  0.012160467   0.01093156            2 
 1670000    0.5788751   -8.6448902     243.4072  0.012146068  0.010922123            1 
 1671000   0.59621476    -8.619468    243.26077  0.012131496  0.010912703            3 
 1672000   0.58925884   -8.6480579    243.26633  0.012124518  0.010903295            2 
 1673000   0.58938563   -8.6247995    243.14407  0.012111181  0.010893898            2 
 1674000   0.58801003   -8.6302997     243.2502  0.012109229  0.010884512            4 
 1675000   0.58554147   -8.6264742    243.21056  0.012100028  0.010875129            2 
 1676000   0.57535211   -8.6288403    243.60166  0.012112254  0.010865752            3 
 1677000   0.58125525   -8.6533594    243.88035   0.01211888  0.010856389            5 
 1678000   0.58622791   -8.6300387    243.65058  0.012100247  0.010847036            6 
 1679000   0.57966247   -8.6360797    243.35551  0.012078395   0.01083769            3 
 1680000   0.59541297   -8.6241774     243.0498  0.012056042  0.010828347            1 
 1681000   0.58989647   -8.6270668    243.20476  0.012056552  0.010819009            1 
 1682000   0.58036214   -8.6515344    243.02719  0.012040586  0.010809679            3 
 1683000   0.58001773   -8.6187553    243.72804  0.012068134  0.010800353            3 
 1684000   0.57434513   -8.6467419    243.09976  0.012029878  0.010791038            2 
 1685000    0.5932945   -8.6450469    243.51562  0.012043305  0.010781722            3 
 1686000   0.58487066   -8.6364442    243.58192  0.012039439  0.010772428            1 
 1687000   0.58269355   -8.6598769    243.65903  0.012036111  0.010763146            2 
 1688000   0.57661821   -8.6518781    243.34133  0.012013296  0.010753858            1 
 1689000   0.59041295    -8.645698    243.00909  0.011989791  0.010744574            4 
 1690000     0.579856   -8.6292883    243.12288  0.011988308  0.010735305            2 
 1691000   0.58206421   -8.6511648    243.08953  0.011979574  0.010726026            3 
 1692000   0.56263493   -8.6578055    243.33379  0.011984525  0.010716765            3 
 1693000   0.57883605   -8.6677578    243.37722  0.011979583  0.010707509            3 
 1694000   0.57117134   -8.6682797    242.74814  0.011941565  0.010698257            1 
 1695000   0.58040963   -8.6450694    242.84393   0.01193923  0.010689026            4 
 1696000   0.58653964   -8.6414666    243.18146  0.011948775  0.010679811            4 
 1697000   0.58300595   -8.6642916    243.15342  0.011940357  0.010670596            2 
 1698000   0.58789812   -8.6667036    243.29813  0.011940426  0.010661382            8 
 1699000   0.56808029   -8.6645758    242.81566  0.011909734  0.010652168            4 
 1700000   0.56638869   -8.6584755    242.55823  0.011890109  0.010642958            4 
 1701000   0.56605965   -8.6742978    243.26032  0.011917515  0.010633757            5 
 1702000   0.56679682    -8.657837    243.13504  0.011904379  0.010624574            1 
 1703000    0.5626386   -8.6844375    242.94861  0.011888267  0.010615392            2 
 1704000   0.57161032   -8.6443301    242.60154  0.011864316  0.010606226            3 
 1705000   0.57019044     -8.66879    242.90229  0.011872057   0.01059706            2 
 1706000   0.57034035   -8.6647042    242.64987  0.011852768  0.010587911            3 
 1707000   0.55283126    -8.669845    242.83588  0.011854905  0.010578778            1 
 1708000   0.57238445   -8.6743473     242.6543  0.011839105  0.010569636            1 
 1709000   0.55634249   -8.6757126    242.80433  0.011839493  0.010560511            2 
 1710000   0.56237453   -8.6497348    243.12975  0.011848428  0.010551397            1 
 1711000   0.56887853   -8.6641679    243.12427  0.011841237  0.010542292            2 
 1712000   0.57824497   -8.6828598    243.02765  0.011829617  0.010533203            2 
 1713000   0.56076228   -8.6790547     243.1432  0.011828333  0.010524119            1 
 1714000   0.57294478   -8.6671708    242.94644  0.011811865  0.010515053            2 
 1715000   0.56669142   -8.6829656    243.12935  0.011813865     0.010506            1 
 1716000   0.57075356   -8.6708756    242.58862  0.011780721  0.010496955            3 
 1717000   0.56512103   -8.6648872    242.72181  0.011780325  0.010487904            1 
 1718000   0.56262804   -8.6645896    243.30989  0.011801993  0.010478881            1 
 1719000   0.57624461   -8.6921542    242.87553  0.011774071  0.010469849            1 
 1720000   0.56235767   -8.6765895    242.70762   0.01175909  0.010460839            1 
 1721000   0.57178131    -8.669938    242.81899   0.01175765   0.01045183            2 
 1722000   0.55768994   -8.6900868    242.65763  0.011743013  0.010442831            1 
 1723000   0.56474347   -8.6893014    242.73416  0.011739899  0.010433839            1 
 1724000   0.57034875   -8.6796394    242.69053  0.011730981   0.01042484            1 
 1725000   0.55560032   -8.6825404    243.19125   0.01174837  0.010415854            1 
 1726000   0.55666332    -8.690864    242.58397  0.011712243  0.010406878            1 
 1727000   0.55613263   -8.6791782    242.78223  0.011715028   0.01039792            2 
 1728000   0.56362801   -8.6930457    242.64026  0.011701401  0.010388972            1 
 1729000   0.55349975   -8.6919281    242.73363  0.011699134  0.010380032            1 
 1730000   0.56148108   -8.7128038     242.7801   0.01169461  0.010371088            1 
 1731000   0.55557968   -8.7017519    242.69116  0.011683572  0.010362152            4 
 1732000   0.56285156   -8.6880575    242.49375  0.011667328   0.01035323            1 
 1733000   0.56996684   -8.6981524     242.5544  0.011663512  0.010344325            2 
 1734000   0.55717298   -8.6897752     242.3657  0.011647717  0.010335424            1 
 1735000   0.56905042   -8.6925649     242.8053  0.011662118  0.010326523            1 
 1736000   0.55452282   -8.6788374    242.75135   0.01165281  0.010317644            1 
 1737000   0.57333486   -8.6835816    242.32444  0.011625621  0.010308779            1 
 1738000   0.54915446   -8.6809178    242.59025  0.011631677  0.010299918            2 
 1739000   0.55005357   -8.7058985    242.65276  0.011627984  0.010291072            4 
 1740000   0.56378639   -8.6966073    242.37872  0.011608176  0.010282226            2 
 1741000    0.5462405   -8.6954615    242.67331   0.01161561  0.010273392            1 
 1742000   0.55333885    -8.687247    242.63338  0.011607031  0.010264561            2 
 1743000     0.564728   -8.6905405    242.95154  0.011615583  0.010255748            2 
 1744000   0.55837481   -8.6979856    242.62355  0.011593251  0.010246941            5 
 1745000   0.54693718   -8.7015923    242.59594  0.011585288  0.010238137            3 
 1746000   0.54801515   -8.6987296    242.83324  0.011589979  0.010229341            1 
 1747000   0.55839458   -8.7199035    242.71926  0.011577908   0.01022056            1 
 1748000   0.54521849   -8.7103443    242.23777   0.01154833  0.010211776            2 
 1749000   0.55807742   -8.7037835     242.3115   0.01154524  0.010202996            1 
 1750000   0.56207523   -8.6955513    242.43222  0.011544392  0.010194243            2 
 1751000   0.55630867   -8.6926348    242.44246  0.011538286  0.010185478            3 
 1752000   0.55958643   -8.6958954    242.39752  0.011529562  0.010176734            1 
 1753000    0.5522994   -8.6944851    242.87103  0.011545495  0.010167993            1 
 1754000   0.55018113   -8.7041446       242.14  0.011504181   0.01015926            1 
 1755000   0.54472207   -8.7065396    241.94275   0.01148826   0.01015053            2 
 1756000   0.55755117   -8.7017432    242.51142  0.011508704  0.010141811            1 
 1757000   0.54428628   -8.6988456    242.32636  0.011493377  0.010133094            1 
 1758000   0.54619739   -8.7109303    241.85336  0.011464418  0.010124383            2 
 1759000   0.54880105   -8.7232056    242.56502  0.011491616  0.010115691            4 
 1760000   0.55824004    -8.702901    242.19152  0.011467401  0.010107006            6 
 1761000   0.55265618   -8.7171014    242.13556  0.011458242  0.010098322            2 
 1762000   0.55221783   -8.7107087    242.21628  0.011455556   0.01008966            2 
 1763000   0.54831175   -8.7005615    242.73858  0.011473746  0.010081001            1 
 1764000   0.54566796   -8.7104794     242.3279  0.011447841  0.010072366            3 
 1765000   0.55069728   -8.6885611    242.47377  0.011448242  0.010063728            5 
 1766000   0.53953875   -8.7095161    242.35713  0.011436256  0.010055089            3 
 1767000   0.54505243   -8.7207178     242.3585  0.011429848  0.010046473            2 
 1768000   0.54366421   -8.7146022    242.49084  0.011429621  0.010037864            5 
 1769000   0.54802853   -8.7371002    242.35902   0.01141695  0.010029263            1 
 1770000   0.54896729    -8.709165     242.5787  0.011420843  0.010020672            1 
 1771000   0.54991052    -8.722169    242.47674  0.011409596  0.010012082            4 
 1772000   0.53323226   -8.7248449    242.17356    0.0113889  0.010003502            4 
 1773000   0.55239544   -8.7149131    242.42095  0.011394104 0.0099949247            1 
 1774000   0.54271669   -8.7148855    242.21387  0.011377953 0.0099863566            1 
 1775000   0.54512369   -8.7121288    242.75741  0.011397062 0.0099778091            7 
 1776000   0.54650108   -8.7437053    242.25202   0.01136693 0.0099692662            2 
 1777000   0.53923778     -8.73604    242.19682  0.011357945 0.0099607238            2 
 1778000   0.55112962   -8.7120345    242.52904  0.011367128 0.0099521974            2 
 1779000   0.55083451    -8.723677    242.20213  0.011345425 0.0099436797            6 
 1780000   0.53434469   -8.7164673    242.36408  0.011346633 0.0099351641            6 
 1781000   0.54036234   -8.7261578    242.73312  0.011357529 0.0099266634            3 
 1782000   0.54502335   -8.7229877    242.56959  0.011343509 0.0099181679            5 
 1783000   0.53247189   -8.7250719    242.02381  0.011311638 0.0099096802            3 
 1784000   0.53403056   -8.7164338    242.18674  0.011312908 0.0099012006            5 
 1785000   0.54920872    -8.715871    242.46747  0.011319677 0.0098927252            4 
 1786000    0.5435361   -8.7039653    241.81343  0.011282822 0.0098842631            3 
 1787000   0.53895915   -8.7239247    242.27025  0.011297811 0.0098758014            2 
 1788000   0.52933238   -8.7309927    242.07931  0.011282593 0.0098673469            1 
 1789000   0.54943342   -8.7156834    242.52508  0.011297051 0.0098589114            2 
 1790000   0.54462191   -8.7194845    241.87954  0.011260686  0.009850485            2 
 1791000   0.54001768   -8.7189256    242.49101   0.01128285 0.0098420582            2 
 1792000   0.53696006   -8.7355722    242.05455  0.011256257 0.0098336435            5 
 1793000   0.53577392   -8.7238683    242.33101  0.011262828 0.0098252414            3 
 1794000   0.53590117   -8.7306735    242.07901  0.011244844 0.0098168404            7 
 1795000   0.53315075   -8.7356532    242.02154  0.011235912 0.0098084459            2 
 1796000   0.53997032   -8.7424087    242.43739  0.011248951 0.0098000653            3 
 1797000   0.52610648   -8.7434835    242.28518  0.011235632 0.0097916981            3 
 1798000   0.53612387   -8.7247837    242.23765  0.011227181 0.0097833386            2 
 1799000   0.53661685   -8.7083769    241.99388  0.011209648 0.0097749827            3 
 1800000   0.53015763   -8.7268149    242.24117  0.011214869 0.0097666441            2 
 1801000   0.54488013    -8.722191    242.48341  0.011219851 0.0097583168            1 
 1802000   0.53676751   -8.7437552    242.08342  0.011195127 0.0097499949            3 
 1803000   0.54763812   -8.7367878    241.89697    0.0111803 0.0097416813            1 
 1804000   0.54132978   -8.7327201    242.26772  0.011191229 0.0097333794            2 
 1805000   0.52673281   -8.7308662    242.33625  0.011188193 0.0097250895            2 
 1806000   0.53151939   -8.7440761    242.08415  0.011170365 0.0097167926            3 
 1807000   0.53793377   -8.7493981    241.92111  0.011156665 0.0097085106            4 
 1808000   0.54815561   -8.7293148    241.79877  0.011144855  0.009700231            4 
 1809000   0.54320659   -8.7271375    242.16609  0.011155615 0.0096919605            2 
 1810000   0.52782168   -8.7427623     241.9922  0.011141446 0.0096837006            3 
 1811000   0.53635643   -8.7566488    242.06068  0.011138445 0.0096754485            4 
 1812000   0.53590483   -8.7660698    242.03021  0.011130896 0.0096672022            3 
 1813000   0.53509492   -8.7449958    241.74298  0.011111554 0.0096589615            2 
 1814000   0.52731953   -8.7363849       241.99  0.011116777 0.0096507356            2 
 1815000   0.53182444   -8.7336797     242.0452  0.011113186 0.0096425164            2 
 1816000   0.52597696    -8.722647    242.50566  0.011128196 0.0096343065            2 
 1817000    0.5227234   -8.7255391    242.10249  0.011103581 0.0096260995            1 
 1818000   0.53215655   -8.7587885    242.03819  0.011094526 0.0096178961            4 
 1819000   0.53323896   -8.7442158    241.90351  0.011082257 0.0096097037            5 
 1820000   0.52752182   -8.7481136    241.48037  0.011056794 0.0096015249            4 
 1821000   0.52100794   -8.7558921    241.81778  0.011066162 0.0095933575            4 
 1822000   0.52602179   -8.7486547    241.73069  0.011056105 0.0095851907            1 
 1823000    0.5305805   -8.7347381    241.85528  0.011055736 0.0095770287            3 
 1824000   0.50837231   -8.7458057    241.53672  0.011035121 0.0095688808            4 
 1825000   0.53015817   -8.7490327    242.05858  0.011052903 0.0095607333            4 
 1826000   0.52557498   -8.7400278    241.60487  0.011026144 0.0095526053            3 
 1827000   0.53342789   -8.7543597    241.98951  0.011037653 0.0095444649            7 
 1828000   0.52428737   -8.7658343    241.69752  0.011018304  0.009536349            6 
 1829000   0.51942834   -8.7394589    241.86891  0.011020089 0.0095282352            4 
 1830000   0.51784248   -8.7432125    242.10406  0.011024775 0.0095201317            4 
 1831000   0.52170481   -8.7477723     241.9231  0.011010518 0.0095120285            3 
 1832000   0.52602659   -8.7611363    241.42349  0.010981782 0.0095039389            5 
 1833000   0.52292126   -8.7532354    241.99112  0.011001597 0.0094958502            5 
 1834000    0.5195388   -8.7484324    241.53449  0.010974849 0.0094877755            2 
 1835000   0.52289145   -8.7512951    241.81177  0.010981461 0.0094797183            6 
 1836000   0.52452039   -8.7455188    242.20545  0.010993349 0.0094716702            3 
 1837000    0.5257452   -8.7701567    241.38057  0.010949944 0.0094636247            3 
 1838000   0.51842506   -8.7502034    241.83096  0.010964407 0.0094555781            7 
 1839000   0.50875747   -8.7814756    241.93832   0.01096331 0.0094475421            5 
 1840000   0.51768632   -8.7523322    241.67404  0.010945382 0.0094395152            5 
 1841000   0.52656762    -8.759414    241.67787   0.01093961 0.0094315034            3 
 1842000   0.51207625   -8.7691909    241.81336  0.010939801 0.0094235023            3 
 1843000   0.52350914   -8.7601149    241.58571  0.010923571 0.0094155074            3 
 1844000   0.51723257   -8.7831258    241.39477  0.010909019 0.0094075093            2 
 1845000   0.52019752   -8.7729932    241.36452   0.01090174 0.0093995354            3 
 1846000   0.52209849   -8.7466189    241.87038   0.01091867 0.0093915622            5 
 1847000    0.5252623   -8.7670678    241.87819  0.010913111 0.0093835888            2 
 1848000   0.51075031   -8.7680904    241.69174  0.010898798 0.0093756314            5 
 1849000   0.51872796    -8.763762    241.69626  0.010893107 0.0093676802            2 
 1850000   0.51360658   -8.7563557    241.73237  0.010888846 0.0093597434            3 
 1851000   0.51057149   -8.7670274    241.79374  0.010885726 0.0093518154            4 
 1852000   0.50812005   -8.7686947    241.26689  0.010856142  0.009343891            6 
 1853000   0.51577049   -8.7736808    241.09694   0.01084264 0.0093359757            7 
 1854000   0.51574691   -8.7762217    241.60294  0.010859535 0.0093280677            4 
 1855000   0.50870847    -8.776906    241.97994  0.010870617 0.0093201712            6 
 1856000   0.50912416   -8.7643155    241.47572  0.010842121 0.0093122864            1 
 1857000   0.51988957   -8.7725496    241.55203  0.010839707 0.0093044057            6 
 1858000   0.51756198   -8.7703796    241.49298  0.010831225 0.0092965206            5 
 1859000   0.52352103   -8.7940899    241.54608  0.010827778 0.0092886498            3 
 1860000   0.49613516   -8.7571396    241.35039  0.010813189 0.0092807899            7 
 1861000   0.50250721    -8.769052    241.32778  0.010806367  0.009272941            2 
 1862000   0.50149015    -8.765064     241.4572  0.010806355 0.0092651016            4 
 1863000   0.51404015   -8.7643321    241.61161  0.010807461 0.0092572749            3 
 1864000   0.51305235   -8.7816877    241.70131  0.010805674 0.0092494477            5 
 1865000    0.5118204   -8.7628561    241.40408  0.010786599 0.0092416253            3 
 1866000    0.5040756   -8.7715533    241.67821  0.010793061 0.0092338123            6 
 1867000   0.51370082   -8.7835382    241.93579  0.010798776 0.0092260128            3 
 1868000   0.51461063   -8.7728994     241.8528  0.010789294  0.009218217            2 
 1869000   0.50291732   -8.7628494    241.03889   0.01074723 0.0092104348            3 
 1870000   0.50979384   -8.7874101    241.45088  0.010759843 0.0092026558            5 
 1871000   0.50679221   -8.7788196    241.29433   0.01074712 0.0091948846            4 
 1872000   0.52133853   -8.7806914    241.32139  0.010742583   0.00918713            6 
 1873000   0.50607379   -8.7831095    241.57633   0.01074819 0.0091793764            4 
 1874000   0.50736402   -8.7846871    241.31375  0.010730779  0.009171637            3 
 1875000   0.50224275   -8.7829587    241.56368  0.010736163 0.0091638922            8 
 1876000   0.50547261   -8.7834387    241.55949  0.010730255 0.0091561518            5 
 1877000   0.50199093   -8.7921202     241.5123  0.010722443 0.0091484277            7 
 1878000   0.50397757   -8.7900194    241.49033  0.010715758 0.0091407066            3 
 1879000   0.49038079   -8.7942798    241.36099  0.010704319 0.0091329969            4 
 1880000     0.501425   -8.7782901    241.64778  0.010711338 0.0091252966            6 
 1881000   0.49171221   -8.7949024     241.6611  0.010706233 0.0091176075            5 
 1882000    0.5020095    -8.769829    241.35272   0.01068689 0.0091099281            3 
 1883000   0.49458289   -8.7867655    241.28128  0.010678053 0.0091022404            2 
 1884000   0.50697377   -8.7976455    241.23928  0.010670527 0.0090945717            4 
 1885000   0.50078004   -8.7883923    241.22641  0.010664298 0.0090869107            8 
 1886000   0.49442981   -8.7871873    241.21315  0.010658057 0.0090792517            8 
 1887000   0.49035037   -8.7704316    241.56658  0.010668017  0.009071607            6 
 1888000   0.48954057   -8.7932198    241.43795  0.010656689 0.0090639652            2 
 1889000   0.49905308   -8.8024594    241.35455  0.010647368 0.0090563289            7 
 1890000   0.49767793   -8.7962061    240.83598  0.010618871 0.0090487096            1 
 1891000   0.49023576   -8.8048182    240.98214  0.010619696 0.0090410874            2 
 1892000   0.49394653   -8.7930512    241.55536   0.01063933 0.0090334718            5 
 1893000    0.5039447   -8.7974117    241.55855  0.010633851 0.0090258637            5 
 1894000   0.49507528   -8.7982463    240.97695  0.010602647 0.0090182645            3 
 1895000   0.49129452   -8.7912367    241.45759  0.010618188 0.0090106747            4 
 1896000   0.50094892   -8.8065683    241.42244  0.010611042 0.0090030921            5 
 1897000   0.49084201   -8.7996014    241.21549  0.010596358 0.0089955227            2 
 1898000   0.49795023   -8.7933441    241.12085   0.01058662 0.0089879543            4 
 1899000   0.49639252   -8.7964023    240.98375  0.010575029 0.0089804027            2 
 1900000   0.49200534   -8.7990292    241.23986  0.010580696 0.0089728612            8 
 1901000   0.49562334    -8.807224    241.05954  0.010567225 0.0089653217            7 
 1902000   0.49401221   -8.8096153    241.41318  0.010577163 0.0089577894            5 
 1903000   0.48818386   -8.7952689    241.14751  0.010559972 0.0089502707            2 
 1904000   0.48705402   -8.8131877    241.34325  0.010562992 0.0089427495            2 
 1905000   0.48912177    -8.789093    241.65404  0.010571043 0.0089352417            2 
 1906000   0.49031734   -8.8022131    241.15258  0.010543572 0.0089277441            7 
 1907000   0.49574875   -8.7972628    241.26605  0.010543001 0.0089202463            5 
 1908000   0.47855376    -8.798683    241.43453  0.010544835 0.0089127701            5 
 1909000   0.49057444   -8.8209367     240.7657  0.010510114 0.0089052907            7 
 1910000   0.49845595   -8.8056558    241.32012  0.010528801 0.0088978222            3 
 1911000   0.48258391   -8.8093636    241.24902  0.010520191 0.0088903607            4 
 1912000   0.48345078   -8.8073535    241.00056   0.01050386 0.0088829149            2 
 1913000   0.48712288    -8.812839     241.1267  0.010503864 0.0088754717            2 
 1914000   0.49368581   -8.8257206    241.14421  0.010499138 0.0088680407            1 
 1915000   0.49912529   -8.8205511    241.58284  0.010512743 0.0088606204            1 
 1916000   0.49147758   -8.7991884    241.38443  0.010498627 0.0088532008            5 
 1917000   0.47404966   -8.8089451    240.98954  0.010475984 0.0088457848            2 
 1918000   0.48928168   -8.8164521    240.90601  0.010466893 0.0088383829            3 
 1919000    0.4971695   -8.8134955    241.09715  0.010469739 0.0088309888            4 
 1920000   0.49286854   -8.8162253    241.04069  0.010461836 0.0088236011            5 
 1921000   0.48192601   -8.8204707    241.41795  0.010472755 0.0088162178            2 
 1922000   0.48588752   -8.8181461    241.03363  0.010450643 0.0088088509            4 
 1923000   0.48125925   -8.8017316    241.48859  0.010464924 0.0088014903            7 
 1924000   0.49456309   -8.8164476    241.12493  0.010443734 0.0087941335            5 
 1925000   0.47685885   -8.8096868    241.35625  0.010448323 0.0087867774            2 
 1926000   0.48916849   -8.8251935    241.01119  0.010427968 0.0087794258            5 
 1927000   0.49476063   -8.8228806    241.39901  0.010439327 0.0087720795            3 
 1928000   0.49326653   -8.8309925    241.02173  0.010417606 0.0087647553            5 
 1929000   0.48701374   -8.8295426    241.04244    0.0104131  0.008757436            2 
 1930000   0.49499649   -8.8238354    241.06128  0.010408518 0.0087501229            3 
 1931000   0.47160195   -8.8151905    241.14533  0.010406755 0.0087428114            5 
 1932000   0.47406531   -8.8141909    241.11957  0.010400257 0.0087355117            6 
 1933000   0.47752071   -8.8230563    240.98695   0.01038916 0.0087282226            3 
 1934000   0.48388867   -8.8321396    240.90089   0.01038008 0.0087209409            4 
 1935000   0.47026424   -8.8218938    241.50496  0.010400731 0.0087136658            1 
 1936000    0.4782017   -8.8179045    241.19444  0.010381992 0.0087063934            1 
 1937000   0.48184794   -8.8194321     241.2067   0.01037716 0.0086991264            3 
 1938000   0.47741976   -8.8163198     241.0628  0.010365618 0.0086918722            6 
 1939000   0.47775557   -8.8179918    241.38114  0.010373953 0.0086846226            3 
 1940000   0.48482917   -8.8275651    240.71124   0.01033983 0.0086773874            5 
 1941000   0.48438229   -8.8424515    240.77926  0.010337423 0.0086701601            1 
 1942000   0.47761828   -8.8525146    241.12862  0.010347092 0.0086629329            1 
 1943000   0.48009689   -8.8330385    240.65181  0.010321316 0.0086557082            6 
 1944000   0.47353662   -8.8322835    241.01873  0.010331736 0.0086484978            2 
 1945000   0.47052728   -8.8146745     240.7039  0.010312935 0.0086413021            4 
 1946000   0.48356587   -8.8299445    240.99432  0.010320072 0.0086341119            4 
 1947000   0.47523305   -8.8161122    240.79993  0.010306451 0.0086269281            6 
 1948000   0.47533025   -8.8262634    241.27452  0.010321463 0.0086197524            5 
 1949000   0.46852583   -8.8364091    241.12465  0.010309759 0.0086125851            5 
 1950000   0.47791861   -8.8291948    241.16866  0.010306353 0.0086054222            3 
 1951000    0.4875176   -8.8408487    240.91317  0.010290158 0.0085982695            6 
 1952000   0.48174385   -8.8375404    240.51737  0.010267989 0.0085911213            3 
 1953000   0.47475541   -8.8337763    240.85995  0.010277349 0.0085839855            3 
 1954000   0.47105574   -8.8279239     241.2109  0.010287056  0.008576854            3 
 1955000   0.47796548   -8.8328006    240.71546  0.010260676 0.0085697242            4 
 1956000   0.47199961   -8.8332285    241.18978  0.010275638 0.0085626115            4 
 1957000   0.45961376   -8.8517121    240.54025  0.010242729 0.0085555011            2 
 1958000   0.47855478   -8.8268139     240.7847  0.010247902 0.0085484017            5 
 1959000   0.47879846    -8.859319    240.68916  0.010238607  0.008541303            1 
 1960000   0.46871894   -8.8407916    240.93143  0.010243683 0.0085342162            6 
 1961000   0.46615885   -8.8443352    240.35233  0.010213851 0.0085271393            9 
 1962000    0.4659571   -8.8470126    240.71056   0.01022386 0.0085200641            5 
 1963000    0.4698065   -8.8322521     240.9638  0.010229402 0.0085130016            2 
 1964000   0.46983037    -8.838925    240.63667  0.010210314 0.0085059415            9 
 1965000   0.46152891   -8.8462256    240.85501  0.010214377 0.0084988903            3 
 1966000   0.47511341   -8.8501691    240.64568  0.010200309 0.0084918412            1 
 1967000   0.47150229   -8.8427865    240.74543  0.010199349  0.008484803            4 
 1968000   0.47113324   -8.8389798    240.61909  0.010188816 0.0084777683            5 
 1969000   0.46623897    -8.840702    240.70833  0.010187419 0.0084707395            3 
 1970000   0.46589646   -8.8569266    240.56152  0.010176037 0.0084637264            4 
 1971000    0.4657566   -8.8490241    240.77645  0.010179962  0.008456716            3 
 1972000   0.45630838   -8.8505317    240.76311  0.010174235 0.0084497132            5 
 1973000   0.46914456   -8.8342186    240.56402   0.01016067 0.0084427202            3 
 1974000   0.46816448   -8.8522603    241.17583   0.01018135 0.0084357363            6 
 1975000   0.47123385   -8.8589015    240.98456  0.010168125 0.0084287558            3 
 1976000   0.46490462   -8.8373993    240.72112  0.010151869 0.0084217864            2 
 1977000   0.46653659   -8.8464158    240.61671  0.010142333 0.0084148193            4 
 1978000   0.46191397   -8.8441381    240.40118  0.010128125 0.0084078639            3 
 1979000   0.45888386    -8.843834    240.83025  0.010141075 0.0084009092            4 
 1980000   0.46723098   -8.8456584    240.72913  0.010131697 0.0083939676            4 
 1981000   0.46069307   -8.8536679    240.50542  0.010117172 0.0083870352            5 
 1982000   0.46653897    -8.872426    240.71794  0.010121003 0.0083801095            6 
 1983000   0.46035088   -8.8444854     240.3123  0.010098853 0.0083731929            6 
 1984000   0.45829575   -8.8525636    240.66522  0.010108586 0.0083662809            2 
 1985000   0.45637792   -8.8400274    240.77224  0.010107986 0.0083593746            8 
 1986000   0.46760721   -8.8470681    240.72334  0.010100845  0.008352473            3 
 1987000   0.46334634   -8.8422487    240.87812  0.010102253 0.0083455827            3 
 1988000   0.44912136   -8.8635244    240.61468  0.010086128 0.0083386967            2 
 1989000   0.46529057   -8.8719025    240.66268  0.010083068  0.008331819            7 
 1990000   0.46811063   -8.8599651    240.39895  0.010066958 0.0083249477            5 
 1991000   0.45429209   -8.8542274    240.94607  0.010084801 0.0083180899            5 
 1992000   0.45248694   -8.8504427     240.6002   0.01006527  0.008311234            3 
 1993000   0.45511075    -8.846365    240.51569  0.010056686 0.0083043821            3 
 1994000   0.46138727   -8.8496238    240.54259  0.010052766 0.0082975429            4 
 1995000   0.44887227   -8.8750838    240.71961  0.010055122 0.0082907134            6 
 1996000   0.45635275   -8.8691476    240.59424   0.01004485 0.0082838832            3 
 1997000   0.45223149   -8.8716744    240.73553  0.010045716 0.0082770624            1 
 1998000   0.46267087   -8.8653273    240.45148  0.010028841 0.0082702474            4 
 1999000   0.45303504   -8.8428026    240.21885  0.010014126 0.0082634463            2 
 2000000   0.44956932    -8.856011    240.44837  0.010018682 0.0082566467            4 
 2001000   0.46684745    -8.869374    240.44632   0.01001359 0.0082498595            5 
 2002000   0.44260437   -8.8525181    240.80588  0.010023555 0.0082430736            6 
 2003000   0.46007129   -8.8549703     240.5815  0.010009215 0.0082362961            5 
 2004000   0.44494692   -8.8500648    240.38667  0.009996119 0.0082295274            2 
 2005000   0.44192927   -8.8804787    240.52003 0.0099966762  0.008222761            6 
 2006000   0.46047104   -8.8710618     240.5025 0.0099909646 0.0082160039            3 
 2007000   0.44689979   -8.8591344    239.95301  0.009963171 0.0082092518            1 
 2008000    0.4531685   -8.8645402    240.58569  0.009984466 0.0082025107            2 
 2009000   0.44701362   -8.8696322    240.64586 0.0099819919 0.0081957824            5 
 2010000    0.4476842   -8.8577234    240.25305 0.0099607402 0.0081890546            1 
 2011000   0.45211752   -8.8631123    240.17999 0.0099527596 0.0081823433            2 
 2012000   0.44887029   -8.8752458    240.81577 0.0099741456 0.0081756257            3 
Loop time of 4818.97 on 48 procs for 2000000 steps with 4000 atoms

Performance: 71716.614 tau/day, 415.027 timesteps/s
99.4% CPU use with 48 MPI tasks x no OpenMP threads

MPI task timing breakdown:
Section |  min time  |  avg time  |  max time  |%varavg| %total
---------------------------------------------------------------
Pair    | 311.88     | 331.19     | 350.63     |  56.2 |  6.87
Neigh   | 32.254     | 33.315     | 34.314     |  10.6 |  0.69
Comm    | 304.22     | 325.06     | 346.51     |  61.2 |  6.75
Output  | 4.114      | 4.116      | 4.1477     |   0.2 |  0.09
Modify  | 4070.2     | 4081.2     | 4094       |   7.6 | 84.69
Other   |            | 44.04      |            |       |  0.91

Nlocal:        83.3333 ave          91 max          74 min
Histogram: 1 2 2 4 9 10 9 7 1 3
Nghost:        2121.27 ave        2143 max        2104 min
Histogram: 2 2 8 11 5 10 5 2 2 1
Neighs:        13958.8 ave       15205 max       12279 min
Histogram: 1 1 5 6 5 5 10 7 7 1
FullNghs:      27918.0 ave       30737 max       24535 min
Histogram: 1 2 2 5 8 10 13 3 1 3

Total # of neighbors = 1340063
Ave neighs/atom = 335.01575
Neighbor list builds = 106930
Dangerous builds = 0

#clear
#
#next RN
#
#jump SELF
Total wall time: 1:20:22
