
units lj                  # Use reduced LJ style units
atom_style atomic         # Uncharged point particles
atom_modify map hash      # Needed for indexing of clusters etc
                          # Used to be able to find where atoms are in relation to each other.

lattice fcc 1.0 spacing 1 1 1
Lattice spacing in x,y,z = 1.5874011 1.5874011 1.5874011
region box block 0 10 0 10 0 10 units lattice
create_box 2 box
Created orthogonal box = (0.0000000 0.0000000 0.0000000) to (15.874011 15.874011 15.874011)
  3 by 4 by 4 MPI processor grid
create_atoms 1 box
Created 4000 atoms
  using lattice units in orthogonal box = (0.0000000 0.0000000 0.0000000) to (15.874011 15.874011 15.874011)
  create_atoms CPU = 0.002 seconds
set type 1 type/fraction 2 0.83 78393
Setting atom values ...
  3314 settings made for type/fraction
mass 1 1.0
mass 2 1.0
pair_style lj/cut  3.5
pair_modify tail  yes
pair_coeff 1  1  1.0  1.0   # Intearaction between 1 and 1 set with epsilon = 1 and sigma = 1
pair_coeff 1  2  1.5  0.8
pair_coeff 2  2  0.5  0.88

write_data data.0
System init for write_data ...
Neighbor list info ...
  update every 1 steps, delay 10 steps, check yes
  max neighbors/atom: 2000, page size: 100000
  master list distance cutoff = 3.8
  ghost atom cutoff = 3.8
  binsize = 1.9, bins = 9 9 9
  1 neighbor lists, perpetual/occasional/extra = 1 0 0
  (1) pair lj/cut, perpetual
      attributes: half, newton on
      pair build: half/bin/atomonly/newton
      stencil: half/bin/3d
      bin: standard
WARNING: Not all mixed pair coeffs generated from mixing. Use write_data with 'pair ij' option to store all pair coeffs. (../write_data.cpp:312)


#############################
#   M E L T   S Y S T E M   #
#############################

velocity all create 2.4 2750902 mom yes dist gaussian # Assign velocities
                                                    # Temperature 2.4, random number seed, zero linear momentum
                                                                                # Gaussian distribution

timestep 0.002   # simulation timestep
thermo 1000       # output thermodynamic data every 1000 steps bf 100

# Define a fix  in this case with index 1 applied to all
# particles in the simulation. This fix is for simulations
# in the anisotropic NPT ensemble. Note that we use the MTK
# correction.
fix 1 all npt temp 2.4 2.4 0.1 iso 5.68 5.68 0.5 mtk yes tchain 5 pchain 5 # Use NPT ensemble
                                                                         # Set temperature and pressure and damping
                                                                         # Numbers of thermostats in chain and in barostat
run 10000          # run for 10000 steps
Per MPI rank memory allocation (min/avg/max) = 3.642 | 3.644 | 3.648 Mbytes
Step Temp E_pair E_mol TotEng Press Volume 
       0          2.4   -3.5381599            0  0.060940148   -3.0801753         4000 
    1000    2.3829061   -2.8203924            0   0.75307319    5.4780833    3867.6024 
    2000    2.3861948   -2.8180878            0   0.76030951    5.6145227    3841.0041 
    3000    2.4110554   -2.7717024            0   0.84397654    5.7836541    3860.6548 
    4000    2.4418649   -2.7494314            0   0.91245028    5.8236127    3874.1144 
    5000    2.4343502   -2.8473459            0   0.80326651    5.7147933    3814.2636 
    6000    2.4229501   -2.8037828            0    0.8297338    5.7852282    3844.1635 
    7000    2.3957596   -2.8024684            0   0.79027256    5.5562942    3861.4791 
    8000    2.4145107   -2.8039177            0     0.816943    5.7062629    3852.6809 
    9000     2.421678   -2.7872453            0   0.84436354     5.906477    3839.5235 
   10000    2.3810378   -2.8207791            0   0.74988471    5.5908163    3857.9954 
Loop time of 2.57379 on 48 procs for 10000 steps with 4000 atoms

Performance: 671383.028 tau/day, 3885.318 timesteps/s
99.6% CPU use with 48 MPI tasks x no OpenMP threads

MPI task timing breakdown:
Section |  min time  |  avg time  |  max time  |%varavg| %total
---------------------------------------------------------------
Pair    | 1.1482     | 1.2065     | 1.297      |   3.3 | 46.88
Neigh   | 0.21326    | 0.22054    | 0.23682    |   1.1 |  8.57
Comm    | 0.7775     | 0.88102    | 0.95681    |   4.6 | 34.23
Output  | 0.00025393 | 0.00025932 | 0.00033041 |   0.0 |  0.01
Modify  | 0.2183     | 0.25006    | 0.27132    |   2.5 |  9.72
Other   |            | 0.0154     |            |       |  0.60

Nlocal:        83.3333 ave          94 max          74 min
Histogram: 1 1 6 9 10 7 6 4 3 1
Nghost:        1682.88 ave        1711 max        1649 min
Histogram: 1 0 6 7 5 8 8 6 5 2
Neighs:        9901.23 ave       11322 max        8343 min
Histogram: 2 3 2 6 11 4 7 8 3 2

Total # of neighbors = 475259
Ave neighs/atom = 118.81475
Neighbor list builds = 908
Dangerous builds = 216

# Equilibrate just above the melting temperature to avoid step fn in T

fix 1 all npt temp 1.25 1.25 0.1 iso 5.68 5.68 0.5 mtk yes tchain 5 pchain 5
run 2000
Per MPI rank memory allocation (min/avg/max) = 3.643 | 3.645 | 3.649 Mbytes
Step Temp E_pair E_mol TotEng Press Volume 
   10000    2.3810378   -2.8207791            0   0.74988471    5.5908163    3857.9954 
   11000     1.263356   -4.1376477            0   -2.2430875    5.8102423    2962.2566 
   12000    1.2637536   -4.1740841            0   -2.2789277    5.2995445    2979.4919 
Loop time of 0.634712 on 48 procs for 2000 steps with 4000 atoms

Performance: 544499.291 tau/day, 3151.038 timesteps/s
99.6% CPU use with 48 MPI tasks x no OpenMP threads

MPI task timing breakdown:
Section |  min time  |  avg time  |  max time  |%varavg| %total
---------------------------------------------------------------
Pair    | 0.27155    | 0.30918    | 0.33631    |   2.4 | 48.71
Neigh   | 0.039695   | 0.043076   | 0.048174   |   0.7 |  6.79
Comm    | 0.20645    | 0.23226    | 0.2717     |   3.0 | 36.59
Output  | 5.2592e-05 | 5.3842e-05 | 6.8876e-05 |   0.0 |  0.01
Modify  | 0.03925    | 0.045267   | 0.050271   |   1.5 |  7.13
Other   |            | 0.004872   |            |       |  0.77

Nlocal:        83.3333 ave          97 max          78 min
Histogram: 6 6 15 12 4 3 1 0 0 1
Nghost:        2008.23 ave        2032 max        1986 min
Histogram: 4 3 6 6 8 5 5 4 4 3
Neighs:        12849.5 ave       14925 max       11450 min
Histogram: 4 5 6 9 8 7 5 2 1 1

Total # of neighbors = 616778
Ave neighs/atom = 154.19450
Neighbor list builds = 143
Dangerous builds = 14

#############################
# L I N E A R  Q U E N C H  #
#############################

# Define solid atoms. This closely follows ten Wolde  Ruiz-Montero and Frenkel  Faraday Discuss  1996  104  93-110
# Compute components of the per-atom q6 vector
compute q6 all orientorder/atom degrees 1 6 components 6 nnn NULL cutoff 1.3 # compute the Q6 parameter.
                                                                             # Use all neighbours within 1.3 unit cell.

# get number of connections
compute coord_number all coord/atom orientorder q6 0.5

# An atom is solid if it has 8 or more connections (of a possible 14)
variable is_solid atom c_coord_number>=8
group solid dynamic all var is_solid    # Must be dynamic to update
dynamic group solid defined

# do clustering
compute cluster solid cluster/atom 1.3 # Create a cluster where all atoms within are solid and max 1.3 units from another member

# define chunks one chunk per cluster
compute clus_chunks solid chunk/atom c_cluster nchunk every compress yes  # Says which atoms are in which chunk

# count the size of each chunk
compute size_chunks solid property/chunk clus_chunks count


# Find the maximum entry in the vector of chunk sizes
variable max_n equal max(c_size_chunks)


# Thermo style which includes this variable
# thermo_style custom step temp pe vol v_max_n

thermo ${N}  # Print the thermo information every 100 steps
thermo 1000  

# Reset the npt fix at a lower temperature (below freezing)
fix 1  all npt temp  ${temp} ${temp}  0.1  iso  5.68  5.68  0.5  mtk yes tchain  5  pchain  5
fix 1  all npt temp  0.45 ${temp}  0.1  iso  5.68  5.68  0.5  mtk yes tchain  5  pchain  5
fix 1  all npt temp  0.45 0.45  0.1  iso  5.68  5.68  0.5  mtk yes tchain  5  pchain  5

dump dmp2 all dcd ${N} traj.dcd
dump dmp2 all dcd 1000 traj.dcd


compute msd all msd com yes
variable twopoint equal c_msd[4]/6/(step*dt+1.0e-6)
fix 9 all vector 10 c_msd[4]
variable fit equal slope(f_9)/6/(10*dt)
thermo_style custom step temp pe c_msd[4] v_twopoint v_fit v_max_n

fix 1 all npt temp 1.25 ${temp} 0.1 iso 5.68 5.68 0.5 mtk yes tchain 5 pchain 5
fix 1 all npt temp 1.25 0.45 0.1 iso 5.68 5.68 0.5 mtk yes tchain 5 pchain 5
run 2000000 # 5000000  # Run for this many steps
Neighbor list info ...
  update every 1 steps, delay 10 steps, check yes
  max neighbors/atom: 2000, page size: 100000
  master list distance cutoff = 3.8
  ghost atom cutoff = 3.8
  binsize = 1.9, bins = 8 8 8
  4 neighbor lists, perpetual/occasional/extra = 1 3 0
  (1) pair lj/cut, perpetual
      attributes: half, newton on
      pair build: half/bin/atomonly/newton
      stencil: half/bin/3d
      bin: standard
  (2) compute orientorder/atom, occasional
      attributes: full, newton on
      pair build: full/bin/atomonly
      stencil: full/bin/3d
      bin: standard
  (3) compute coord/atom, occasional
      attributes: full, newton on
      pair build: full/bin/atomonly
      stencil: full/bin/3d
      bin: standard
  (4) compute cluster/atom, occasional
      attributes: full, newton on
      pair build: full/bin/atomonly
      stencil: full/bin/3d
      bin: standard
Per MPI rank memory allocation (min/avg/max) = 9.831 | 9.837 | 9.841 Mbytes
Step Temp PotEng c_msd[4] v_twopoint v_fit v_max_n 
   12000    1.2637536   -4.1740841 7.5099558e-31 5.2152469e-33 8.3333333e+20            2 
   13000    1.3049072   -4.1389232   0.84337022 0.0054062191  0.070394005            5 
   14000    1.2127265   -4.1708756    1.7685131  0.010526863  0.074253086            2 
   15000     1.242635   -4.1357356    2.6490735  0.014717075  0.074494363            3 
   16000    1.2563791   -4.1813488    3.5737043  0.018613043  0.075121883            3 
   17000    1.2652512   -4.1732083    4.4053628  0.021594915  0.074713033            3 
   18000    1.2760641   -4.1362981    5.2399624  0.024259085  0.073797381            1 
   19000    1.2230404   -4.1255415    6.1647786  0.027038502  0.073610915            2 
   20000    1.2437754   -4.1708811    7.0497442  0.029373933  0.073338298            3 
   21000     1.244852   -4.1713541    7.9543019  0.031564689  0.073535211            3 
   22000    1.2107674   -4.2023043    8.8228396  0.033419846  0.073760872            2 
   23000    1.2480375   -4.1214828    9.7253055  0.035236613  0.073733698            1 
   24000    1.2359749   -4.1346018    10.700765  0.037155433   0.07382124            1 
   25000     1.220642   -4.1365004    11.670098  0.038900327  0.074035122            2 
   26000    1.2444913   -4.1733413    12.603903  0.040397125   0.07439111            2 
   27000    1.2801803   -4.1460974    13.528126  0.041753473  0.074682018            3 
   28000    1.2768692   -4.1326981    14.530318  0.043244992  0.074983316            1 
   29000    1.2320974   -4.1229417     15.46628  0.044443331  0.075394441            4 
   30000    1.2470983   -4.1906663    16.253293  0.045148036  0.075620215            3 
   31000    1.2675898   -4.1457243    17.252952  0.046378902   0.07572453            2 
   32000    1.2307918   -4.1567052    18.176354  0.047334254  0.075857281            3 
   33000    1.2097578   -4.2109371    19.013036  0.048012716   0.07596115            3 
   34000    1.2259107   -4.1490639    19.992413  0.049001012  0.076065492            2 
   35000    1.2321853   -4.1995888     20.96398  0.049914238    0.0762034            3 
   36000    1.2259864   -4.1606178    22.122322  0.051209078  0.076382271            3 
   37000     1.258234   -4.1858767    23.031834    0.0518735  0.076653066            1 
   38000    1.2662319   -4.1703966    23.971793   0.05256972  0.076880077            2 
   39000    1.2426043   -4.1658642    25.047865  0.053521078  0.077131025            2 
   40000    1.2417659   -4.2008722    25.962201  0.054087918  0.077353234            3 
   41000    1.2471867    -4.194508    26.955752  0.054788113  0.077555366            1 
   42000    1.2341797   -4.1527653     27.99458  0.055544802  0.077734688            3 
   43000    1.2453614   -4.2170253    28.544088     0.055318  0.077781216            1 
   44000     1.223854   -4.1722111    29.317828  0.055526188   0.07770479            2 
   45000    1.2371632   -4.1817635    30.045809  0.055640387  0.077571625            2 
   46000    1.2496162   -4.1928851     30.94499  0.056059764  0.077441906            1 
   47000    1.2218401   -4.1563333    31.975081  0.056693405  0.077328841            3 
   48000    1.2320645   -4.1876691    32.830436  0.056997284  0.077276404            1 
   49000    1.2327273   -4.1819359    34.064337  0.057932546  0.077235347            2 
   50000    1.2349901   -4.1556137    34.900504  0.058167506  0.077211026            4 
   51000    1.2234715   -4.1768583    35.753747  0.058421154  0.077132754            1 
   52000    1.2443002   -4.1872341    36.423642  0.058371221  0.077074474            2 
   53000    1.2150865   -4.2003987    37.216839  0.058517042  0.076981273            2 
   54000    1.2114593   -4.2041365    38.190028  0.058935227  0.076861856            4 
   55000    1.2502696   -4.1738324    39.125727  0.059281404  0.076767255            2 
   56000    1.2418287   -4.1570945     40.12451  0.059709091  0.076702796            4 
   57000    1.2324494   -4.1832241    41.072547  0.060047583  0.076636529            1 
   58000    1.2296716   -4.1914603    41.734219  0.059962958  0.076578675            1 
   59000     1.229641   -4.2117086    42.557535  0.060109512  0.076496899            3 
   60000    1.2150059   -4.1820344    43.258728  0.060081567  0.076398519            3 
   61000    1.2289847   -4.1726551    44.249432  0.060450043  0.076283507            4 
   62000     1.197507   -4.1821598    44.969431  0.060442783  0.076187767            3 
   63000     1.221823   -4.2165802    45.998784  0.060844952  0.076110038            3 
   64000    1.2332685   -4.1980882    46.944206  0.061125267  0.076027685            4 
   65000    1.2246433   -4.1975507    47.996244  0.061533645  0.075945253            3 
   66000    1.2214868   -4.1565923    48.660619  0.061440175  0.075871361            2 
   67000    1.2358412   -4.1476937    49.632339  0.061731764  0.075788415            2 
   68000    1.2307408   -4.2113415    50.326617  0.061674775  0.075701814            2 
   69000    1.2194453   -4.2372275    51.512876  0.062213618  0.075639417            3 
   70000    1.2117872   -4.2075286    52.274559  0.062231617  0.075578938            2 
   71000     1.201256   -4.1448863    53.182343   0.06242059  0.075519642            2 
   72000    1.2255926   -4.1949102     53.66226  0.062109097  0.075454271            2 
   73000    1.2068625   -4.1626804    54.827613  0.062588599  0.075373169            3 
   74000    1.2511141   -4.2120769    55.297573  0.062272041  0.075291142            1 
   75000    1.2207202   -4.2038224    55.910588  0.062122875  0.075192141            2 
   76000    1.2449894   -4.2250636     56.83671  0.062320953  0.075074932            2 
   77000    1.2553601   -4.1610185    57.919346  0.062683275  0.074952073            2 
   78000    1.2175477   -4.1959928    58.501281  0.062501369  0.074829957            4 
   79000    1.2334168   -4.1916077    59.766468  0.063044797  0.074737561            4 
   80000    1.2111954    -4.213761    60.548706  0.063071568  0.074645506            6 
   81000     1.191389   -4.2202699    61.511365  0.063283297  0.074584596            3 
   82000    1.2005913   -4.2074831    62.570565  0.063587972  0.074532457            1 
   83000    1.2170947   -4.1791057    63.225382  0.063479299  0.074483413            7 
   84000     1.231212    -4.209798    64.434911  0.063923522  0.074436575            1 
   85000    1.1963039   -4.1720633    65.387064  0.064104965  0.074407218            2 
   86000    1.2127619   -4.1962814    65.829389  0.063788168  0.074369188            2 
   87000    1.2175216   -4.1946884    66.768119  0.063954136  0.074336954            3 
   88000    1.2206276   -4.2141285    67.687968  0.064098455  0.074302466            3 
   89000    1.2167829   -4.2012495    69.042108  0.064646168  0.074281939            2 
   90000    1.2297914   -4.1837527    69.580602  0.064426483  0.074269931            1 
   91000    1.2285228   -4.2211157    70.066278  0.064163258  0.074238167            1 
   92000    1.2255877   -4.1621056     71.75136  0.064992173  0.074211611            1 
   93000     1.229525   -4.1792923    72.755357  0.065192972  0.074200567            3 
   94000    1.2159293   -4.2208671    73.185646  0.064880891  0.074217832            2 
   95000    1.2418663   -4.1905627    74.187961  0.065077159  0.074239505            3 
   96000    1.2021172   -4.2104991    75.672817  0.065688209  0.074260527            2 
   97000    1.2292502   -4.1990985    77.170788  0.066297927  0.074287468            3 
   98000    1.2166369   -4.2071194    77.493845  0.065896126  0.074319752            3 
   99000     1.216182   -4.2100775    78.144511  0.065778208   0.07433388            2 
  100000    1.2234527   -4.1887286    79.227657  0.066023048   0.07433855            2 
  101000    1.2203663   -4.1950072    79.995031  0.066002501   0.07434122            3 
  102000    1.1933298     -4.21965    80.364118  0.065656959   0.07434143            2 
  103000    1.2044285   -4.1938272    81.663803  0.066071037   0.07434313            2 
  104000    1.2261083   -4.2280172    82.212549  0.065875439  0.074340051            3 
  105000    1.1973609    -4.201533    83.302417  0.066113029  0.074337902            2 
  106000    1.1873934   -4.2209398    83.901772  0.065960512  0.074310987            2 
  107000    1.2005522   -4.2133777    84.004245  0.065423867  0.074273288            3 
  108000    1.1751975   -4.2488287    85.022181  0.065603535  0.074226487            3 
  109000    1.2181991   -4.1985274    86.082868   0.06581259  0.074189811            2 
  110000    1.2065109   -4.2613655    86.350509  0.065417052  0.074142852            2 
  111000    1.1995949   -4.2262107    87.375669  0.065597348  0.074094015            1 
  112000    1.1969669   -4.1943978    88.234986  0.065651031  0.074044468            1 
  113000    1.2077432   -4.2117092     88.82447  0.065504771  0.073974528            3 
  114000    1.1880792   -4.2197606    89.818965  0.065657138  0.073905399            4 
  115000    1.2082746   -4.2274689    90.732409  0.065748122  0.073846119            2 
  116000    1.2167715   -4.2370325    91.599274  0.065804076  0.073794474            2 
  117000     1.227701   -4.2067457    92.464955   0.06585823  0.073746778            2 
  118000    1.2213232   -4.1938871    92.967875  0.065655279  0.073685464            3 
  119000     1.200411   -4.2280136     93.20526  0.065269789  0.073622426            2 
  120000    1.2147849   -4.2097899    94.247224  0.065449461  0.073551182            2 
  121000    1.1916068   -4.1996993    95.482965  0.065759618  0.073482583            3 
  122000    1.1916848   -4.1969412    96.436886   0.06587219  0.073419715            1 
  123000     1.215367   -4.2376272     97.01661   0.06572941  0.073366956            3 
  124000    1.1819766   -4.2197882    97.719179  0.065671491  0.073316977            1 
  125000    1.2178189   -4.2384718    98.391822  0.065594548  0.073255649            2 
  126000    1.2185165   -4.2489364     99.04324  0.065504788  0.073186239            8 
  127000    1.1905747   -4.2134343    99.791269  0.065479835  0.073108757            3 
  128000    1.2265761    -4.198777    101.10662  0.065824619  0.073045666            2 
  129000    1.1917786   -4.2220354    101.65576  0.065669093  0.072987313            1 
  130000    1.2068423   -4.2009304    102.71249  0.065841338  0.072929146            1 
  131000    1.1992276   -4.2506317    103.01407  0.065530581  0.072863684            3 
  132000    1.1900022   -4.2446403    103.64424  0.065431971  0.072798646            3 
  133000    1.2197149   -4.2099819    104.81057  0.065670781  0.072734896            3 
  134000    1.1906036   -4.2365974     105.1875  0.065415114   0.07266424            2 
  135000    1.1898387    -4.220357     106.0513  0.065463763   0.07258764            2 
  136000    1.1970166   -4.2164001    106.99383  0.065559946  0.072519714            3 
  137000    1.1798376   -4.2065507    108.45165  0.065968154  0.072455965            3 
  138000    1.1626965   -4.2609708    108.88593  0.065752374  0.072400443            4 
  139000    1.2283752   -4.2405493    108.80792  0.065232567  0.072342221            1 
  140000    1.2049892   -4.2620591    109.77164  0.065340264  0.072273833            2 
  141000    1.1910859   -4.2531271    111.02556  0.065617941  0.072207446            1 
  142000    1.1729659   -4.2295642    112.37623  0.065948493   0.07215105            1 
  143000     1.220608   -4.2767477    113.04737  0.065878423  0.072097906            2 
  144000    1.2155568   -4.2341049    113.69214   0.06579406  0.072046771            3 
  145000    1.1928014   -4.2592585    114.14362  0.065599781  0.071996997            1 
  146000    1.1930874   -4.1931315    115.04372  0.065664223  0.071945936            2 
  147000    1.1961351   -4.2466153    115.80514  0.065649173  0.071894788            2 
  148000    1.2068705   -4.2348702     116.7271  0.065724721  0.071836305            2 
  149000     1.197811   -4.2320254    117.29832  0.065603085  0.071780346            2 
  150000    1.1814135   -4.2703461    117.86843   0.06548246  0.071722057            3 
  151000    1.2017131    -4.272376    118.54327  0.065421231  0.071662319            2 
  152000    1.1876237   -4.2265281    119.29884  0.065405066  0.071603805            2 
  153000    1.2205823   -4.2465933    120.24037  0.065490398  0.071544382            5 
  154000    1.1893987   -4.2611102    121.03964  0.065497643  0.071482589            6 
  155000    1.1949837   -4.2560574     121.9016  0.065538492  0.071419252            1 
  156000    1.1764282   -4.2576673    122.14085  0.065246178  0.071357629            3 
  157000    1.2059105   -4.2321479     123.4486  0.065524737  0.071296505            4 
  158000    1.1861167   -4.2271813    124.41212  0.065618206  0.071237516            3 
  159000    1.1718435   -4.2446313    124.87177   0.06544642  0.071178106            3 
  160000    1.2205527   -4.2472172    126.07048  0.065661707  0.071125061            1 
  161000    1.1808156   -4.2484716    126.75076  0.065605983  0.071071132            2 
  162000    1.1926809   -4.2380186    126.80261  0.065227678  0.071015216            4 
  163000    1.2218149    -4.247928    128.11975  0.065500895  0.070952092            3 
  164000    1.2108693   -4.2805745    128.20449  0.065144556  0.070893053            1 
  165000    1.1982254   -4.2267937    128.93992  0.065121173  0.070825149            2 
  166000    1.2170991   -4.2695769    128.90544  0.064711564  0.070750796            4 
  167000    1.1950232   -4.2757776    129.98508  0.064862814  0.070676704            2 
  168000    1.1778801   -4.2172684    131.18612  0.065072478  0.070602087            2 
  169000    1.1492789   -4.2404831     131.6229  0.064902811  0.070530336            2 
  170000    1.2098192   -4.2401386    132.17867  0.064793464  0.070456485            2 
  171000    1.1878032   -4.2322498    132.69917  0.064668211  0.070383575            3 
  172000    1.1678617   -4.2838925    132.62997  0.064258705  0.070303508            2 
  173000    1.1995295   -4.2632304    133.84075  0.064470494  0.070219521            2 
  174000    1.1941009   -4.2040486    135.34233  0.064819125  0.070139854            2 
  175000    1.2027225    -4.266891    135.16147  0.064362605  0.070062064            2 
  176000    1.1621174   -4.2399471     136.4238  0.064594601  0.069983892            3 
  177000    1.1964242   -4.2906027    136.58308  0.064304654  0.069908683            2 
  178000    1.1674031   -4.2356165    138.04983   0.06463007  0.069833359            6 
  179000    1.1606696   -4.2604846    138.52776  0.064491509  0.069759945            3 
  180000    1.1631008    -4.256666     138.7923  0.064255696  0.069682966            3 
  181000    1.1810826    -4.266815    139.45296  0.064204862  0.069607313            2 
  182000    1.1641904   -4.2708561    140.81585   0.06447612  0.069533815            3 
  183000    1.1842662   -4.2804736    141.60028  0.064481004  0.069469753            1 
  184000    1.1911578   -4.2612239    143.14488  0.064830107  0.069411897            2 
  185000    1.1916918   -4.2904443    143.48669  0.064633645  0.069356783            3 
  186000    1.1716937   -4.2596553    144.77367  0.064862753  0.069306417            4 
  187000    1.1730579   -4.2705974    145.99602  0.065060616  0.069251475            1 
  188000    1.1961859   -4.2673044    146.37051  0.064880546  0.069201797            1 
  189000    1.1758604   -4.2968724    146.06093  0.064400761  0.069152225            1 
  190000    1.1856613   -4.2676772    147.71136  0.064785686  0.069105393            2 
  191000    1.2066746   -4.2496227    149.36973  0.065170038  0.069064236            3 
  192000    1.1717416   -4.2854843    149.81946  0.065025806  0.069025933            1 
  193000    1.1749882   -4.2262661    151.31752  0.065335718   0.06898671            1 
  194000    1.1713236   -4.2542393    151.43521  0.065049487  0.068947129            2 
  195000    1.1757503   -4.2689701    151.83778  0.064887941  0.068902988            1 
  196000    1.1893594   -4.2749249    153.01145  0.065055887  0.068869027            3 
  197000    1.1614788   -4.2430153    154.10713  0.065189143  0.068832937            2 
  198000    1.1740034   -4.2716198    153.90183  0.064773497  0.068796868            4 
  199000    1.1998457   -4.2206802    155.42471  0.065085723  0.068760133            1 
  200000    1.1790584   -4.2841785    156.04497  0.065018736  0.068728818            2 
  201000    1.1779906   -4.2654002    157.26416  0.065200728  0.068695554            2 
  202000    1.1673425   -4.2730747    158.10285   0.06522395  0.068666237            1 
  203000    1.1896505   -4.2822026    157.99368  0.064857831  0.068632662            1 
  204000    1.1606663   -4.2908547    159.43258  0.065127688  0.068601061            2 
  205000    1.1689222   -4.3054846    159.88927  0.064995638  0.068572405            4 
  206000    1.1537139   -4.2596809     161.2051   0.06521242   0.06853895            2 
  207000    1.1734102   -4.3142105    160.89398  0.064772133  0.068507061            2 
  208000    1.1840436   -4.2572024    162.81043  0.065228537  0.068478157            2 
  209000    1.1650361   -4.3149927    162.80834  0.064915606  0.068448824            2 
  210000       1.1717   -4.3143572    163.38552  0.064835523  0.068419609            3 
  211000    1.1558997   -4.2405763    164.49468  0.064966304   0.06839115            5 
  212000    1.1860988   -4.2510646     166.1149  0.065296736  0.068366633            3 
  213000    1.1783767   -4.3232346    166.60647  0.065182499  0.068346333            2 
  214000    1.1746552   -4.2752674    167.35267  0.065168486  0.068327684            2 
  215000    1.1806392   -4.2971814    169.60595  0.065738742  0.068313036            4 
  216000    1.1784902   -4.3202653    169.63231  0.065444563  0.068295576            3 
  217000    1.1597219   -4.3017403    170.36978  0.065426184  0.068277588            1 
  218000    1.1500174   -4.3078821    170.77906  0.065282513  0.068261732            1 
  219000    1.1929834   -4.2753698    171.41842   0.06522771  0.068245426            2 
  220000    1.1736542   -4.2853388     172.8187  0.065461629  0.068231014            4 
  221000    1.1782778    -4.290136    172.77338  0.065148331  0.068216067            2 
  222000    1.1825911   -4.2922919    174.00546  0.065317365   0.06819641            1 
  223000    1.1565841   -4.3002604    175.18733  0.065466117  0.068180105            2 
  224000    1.1783004   -4.2895533    176.32333  0.065596478  0.068164659            2 
  225000    1.1654705   -4.2911861    176.59774  0.065406569  0.068145532            2 
  226000    1.1727506   -4.2959127    176.73914  0.065169298  0.068123073            2 
  227000    1.1778685   -4.2922528    177.57722  0.065189875  0.068098144            2 
  228000    1.1701815   -4.2823002    179.13989  0.065475106  0.068078448            2 
  229000    1.1533766   -4.3005167    179.56478  0.065343808  0.068054289            4 
  230000    1.1666431   -4.3139435    180.32872  0.065336491  0.068033344            3 
  231000    1.1626235   -4.2625415     181.4457  0.065456603  0.068014466            3 
  232000    1.1733011   -4.3018603    181.76492  0.065289124  0.067994815            2 
  233000    1.1527794   -4.2852041    181.86184  0.065043577  0.067974765            1 
  234000     1.163194    -4.275007    183.35719  0.065298146  0.067950994            1 
  235000    1.1766478   -4.2673109     184.6993  0.065496205  0.067926626            1 
  236000    1.1369951   -4.3211323    184.27296  0.065068134  0.067904025            4 
  237000    1.1352593     -4.32257    184.93524  0.065026456  0.067879598            3 
  238000    1.1277844   -4.3157153    185.54773  0.064967693  0.067855113            1 
  239000    1.1462817   -4.3098662    186.40798  0.064995808   0.06783067            2 
  240000    1.1673821   -4.2735282    187.42391  0.065077746   0.06781132            4 
  241000    1.1920117   -4.2861541    188.76462  0.065271305   0.06779026            2 
  242000    1.1534226   -4.3197553    189.76251  0.065345218  0.067771766            4 
  243000    1.1584785   -4.3117823    191.07118  0.065525094  0.067756382            2 
  244000    1.1743932   -4.3153125    191.92146  0.065546945  0.067741296            2 
  245000    1.1314169   -4.2474862    192.69146  0.065541313  0.067729517            2 
  246000    1.1560431   -4.2798067     192.9862  0.065374728  0.067716927            4 
  247000    1.1561996   -4.2942517    193.58629  0.065312513  0.067703494            4 
  248000    1.1478481   -4.2901582    194.63287   0.06540083  0.067688828            2 
  249000     1.162182   -4.2831611    194.48719  0.065089421   0.06767289            1 
  250000    1.1384529   -4.3087752     195.0407  0.065013565  0.067653273            2 
  251000    1.1491102   -4.3098682    195.83654  0.065018773  0.067636551            5 
  252000    1.1819038   -4.2930782    198.62712  0.065683571  0.067622017            8 
  253000      1.16419   -4.2886187    197.81258  0.065155657  0.067606662            3 
  254000     1.177272    -4.305031    198.52207  0.065131911  0.067589629            3 
  255000    1.1705222   -4.2713975    199.88598  0.065322215  0.067569501            6 
  256000    1.1213769   -4.3250639    200.46976  0.065257082  0.067551983            2 
  257000    1.1269555   -4.3201685    201.25169  0.065256708  0.067534741            2 
  258000     1.135644   -4.3284536    201.47441  0.065075712  0.067516797            5 
  259000    1.1510854    -4.290881    201.94051  0.064974424   0.06749652            1 
  260000     1.160123   -4.2981151    203.20656  0.065130309  0.067477113            2 
  261000    1.1553822   -4.3022659    204.24984  0.065213869  0.067457431            2 
  262000    1.1764485   -4.3120357    205.08268  0.065229861  0.067439056            1 
  263000      1.15287    -4.322786    205.78132  0.065203208   0.06742075            2 
  264000    1.1494386    -4.318216    206.90774  0.065311787  0.067408371            1 
  265000    1.1537445   -4.2961265    207.53518  0.065262636  0.067393322            2 
  266000    1.1533346   -4.3109019     207.5399  0.065018766  0.067378068            2 
  267000    1.1650084   -4.2913062    208.83013  0.065177944  0.067363542            6 
  268000    1.1294616   -4.3251623     209.6403  0.065186659   0.06734713            3 
  269000    1.1184612   -4.3260725    209.61683  0.064937061  0.067329714            2 
  270000    1.1357887   -4.3203551    210.54277  0.064982335   0.06731289            3 
  271000    1.1633578   -4.3230511    210.88118   0.06484661  0.067295001            1 
  272000    1.1473635   -4.3217963     212.5379  0.065115777  0.067275724            1 
  273000    1.1550512    -4.332994     212.8506  0.064972709  0.067254741            1 
  274000    1.1473628   -4.3262665    213.23442  0.064852318  0.067235404            1 
  275000    1.1683863   -4.3161063    214.12042  0.064884977  0.067216218            2 
  276000    1.1530247   -4.3466031    215.14197  0.064958325   0.06719863            3 
  277000    1.1452623   -4.3381568    215.28564  0.064767039  0.067178176            2 
  278000    1.1614658   -4.3150136    217.19271  0.065105729  0.067160649            3 
  279000    1.1504545   -4.3273911    216.46774  0.064655835  0.067142254            1 
  280000    1.1360562   -4.3634244    217.59294  0.064759802  0.067121852            2 
  281000    1.1447062   -4.3569064    218.29847  0.064738574  0.067102614            2 
  282000    1.1405123   -4.3173842    220.98577  0.065303125  0.067083206            2 
  283000    1.1586318   -4.3408534    220.03493  0.064792381  0.067064946            3 
  284000    1.1286897   -4.3102683    220.90455   0.06481941  0.067045662            2 
  285000    1.1555832   -4.3424432    220.62306  0.064509668  0.067025399            3 
  286000     1.141391   -4.3390256    221.68936  0.064594801  0.067001517            2 
  287000     1.147944   -4.3378125    222.30438  0.064548309  0.066979024            2 
  288000    1.1244205   -4.3364804    223.49323   0.06466818  0.066956064            3 
  289000    1.1456413   -4.3146236    225.33838  0.064976464  0.066936622            3 
  290000    1.1402144   -4.3323232    224.58394  0.064535614  0.066919043            2 
  291000    1.1401688   -4.3284201     227.0841  0.065029812  0.066898071            3 
  292000    1.1329503   -4.3395922    226.63466   0.06467884  0.066879036            1 
  293000    1.1566935   -4.3341942    227.84234  0.064801577  0.066858875            1 
  294000    1.1515635   -4.3080688    228.83082  0.064861342  0.066839705            3 
  295000    1.1147018   -4.3231506    228.59672  0.064575344  0.066819392            3 
  296000    1.1415619   -4.3308276    229.31945  0.064560656  0.066798472            3 
  297000    1.1433691   -4.3261043    231.00872  0.064817262   0.06677894            4 
  298000    1.1252669   -4.3742077    230.95143  0.064583734  0.066758318            2 
  299000    1.1363118   -4.3570308    231.49911  0.064520377  0.066737332            2 
  300000    1.1374672   -4.3353601    232.26305  0.064517513   0.06671709            3 
  301000    1.1355136   -4.3332613    232.69634  0.064423129  0.066695702            2 
  302000    1.0990974   -4.3403693    233.63705  0.064469385  0.066674239            4 
  303000     1.143869   -4.3275715    234.74428  0.064561133  0.066653805            1 
  304000    1.1332295   -4.3812498    234.29775  0.064226356  0.066629202            2 
  305000    1.1321128   -4.3831099    234.41642  0.064048201   0.06660509            1 
  306000    1.1390607   -4.3571597    235.84822  0.064228818  0.066580188            2 
  307000    1.1173963   -4.3008006    236.89185   0.06430289  0.066554132            4 
  308000    1.1146965   -4.3806884     235.9023   0.06382638  0.066527096            2 
  309000    1.1369594   -4.3820533    238.12816  0.064220108  0.066498085            3 
  310000    1.1309088     -4.35531    238.18338   0.06402779  0.066469683            4 
  311000    1.1439902   -4.3529428    239.14048  0.064078371  0.066438931            2 
  312000    1.1232416   -4.3589985    239.92993  0.064083849  0.066407296            2 
  313000    1.1256387   -4.3562046    239.74831  0.063830753  0.066375545            2 
  314000    1.1047007    -4.338117     241.3662  0.064056847  0.066345062            2 
  315000    1.1344243   -4.3444377     240.5556  0.063639049  0.066314991            3 
  316000    1.1530813   -4.3154243    242.35639  0.063912551  0.066283864            3 
  317000    1.1461691   -4.3442849    243.20976  0.063935267  0.066255617            4 
  318000    1.1310721   -4.3643469    243.55095  0.063823624  0.066227975            2 
  319000    1.1350948   -4.3558573    244.58458  0.063893567  0.066200476            1 
  320000    1.1448301   -4.3660479     245.5599   0.06394789  0.066173643            1 
  321000     1.113069   -4.3329373    246.71344  0.064048142  0.066147844            3 
  322000    1.1125577     -4.35614    247.77753  0.064124621  0.066124391            1 
  323000    1.1698347   -4.3317264    248.07991  0.064004105  0.066098401            3 
  324000    1.1226091   -4.3621906    247.89526  0.063759068  0.066071509            3 
  325000     1.146328   -4.3646988     248.7864  0.063791384  0.066042975            5 
  326000    1.1256058     -4.34949    248.97013  0.063642671  0.066014332            2 
  327000    1.1452411   -4.3668798    249.55543  0.063597204   0.06598567            1 
  328000    1.1070276   -4.3532672    250.19126  0.063564852  0.065957815            2 
  329000    1.1212242   -4.3719126    252.08598  0.063851565  0.065930552            3 
  330000    1.1045019   -4.3845865    252.09149  0.063659466  0.065903378            2 
  331000    1.1032943   -4.3381168    252.62794  0.063602201  0.065874947            2 
  332000    1.1406529   -4.3222238    254.01478   0.06375873  0.065847725            3 
  333000    1.1279544   -4.3601753    255.14003  0.063848856  0.065819994            2 
  334000    1.1365646   -4.3814495    254.34823  0.063460137  0.065792735            2 
  335000    1.1172932   -4.3642084    255.26581  0.063498957  0.065761163            2 
  336000    1.1153936    -4.356266    255.80316  0.063443243  0.065729748            2 
  337000    1.1137943   -4.3668385    256.68807  0.063473804  0.065698369            1 
  338000     1.152082   -4.3414286    256.74925  0.063301097  0.065668871            2 
  339000    1.1303089   -4.4078379    256.92507  0.063157587  0.065638616            4 
  340000    1.1137052   -4.3723797    258.46701  0.063349757  0.065608188            2 
  341000    1.1294586   -4.3277677    258.77644  0.063239599  0.065578078            2 
  342000    1.1093454   -4.3717797    260.71366  0.063526721  0.065547016            2 
  343000    1.1007226   -4.3563157    260.77651  0.063356781  0.065517974            2 
  344000    1.1224804   -4.3637634    260.44525  0.063092358  0.065486798            3 
  345000    1.1314257   -4.3714741    261.37417  0.063133857  0.065456295            2 
  346000      1.11123   -4.3716653    262.02635  0.063108465  0.065423743            2 
  347000    1.1451405   -4.3544422    262.89425  0.063135026  0.065393093            4 
  348000    1.1165426   -4.3642051     263.0234   0.06298453  0.065361658            2 
  349000    1.0911011   -4.3658674    264.08979   0.06305869  0.065331411            3 
  350000    1.1078732   -4.3762842    265.62744  0.063244628  0.065302815            6 
  351000    1.1347071   -4.3760949    267.08033  0.063409385  0.065274054            1 
  352000    1.1367776   -4.3868699    266.61274  0.063118547  0.065246433            2 
  353000    1.1330306   -4.3511914    267.49036  0.063146923  0.065217768            2 
  354000    1.1416028   -4.3443106    268.65367   0.06324239  0.065189411            3 
  355000    1.0939586   -4.4059549    268.45284    0.0630171  0.065157376            2 
  356000    1.0879023    -4.355037    269.58122  0.063104218  0.065125748            1 
  357000    1.1146901   -4.3944403    269.39567  0.062884144  0.065095005            3 
  358000    1.1200105   -4.3833523    270.27994  0.062914325  0.065066016            4 
  359000    1.1173259   -4.4205231     270.7099  0.062838882  0.065037401            2 
  360000    1.1020246   -4.3908383    273.61773  0.063337438   0.06500864            3 
  361000    1.1110293   -4.3700591    273.80536    0.0632053  0.064982024            3 
  362000    1.0959657    -4.409941    274.74584  0.063247201  0.064957068            1 
  363000    1.1035233   -4.3794977    274.93413  0.063116191  0.064932309            2 
  364000    1.1047042   -4.3705075    275.51189  0.063075065   0.06490816            2 
  365000    1.1381009   -4.3878941    275.69316  0.062943645   0.06488361            4 
  366000    1.1013259   -4.3868801    277.81884  0.063255656  0.064859107            4 
  367000    1.1212823   -4.4228564    276.61432  0.062809792  0.064835052            3 
  368000    1.1037103   -4.4023922    277.36251  0.062808539  0.064809188            2 
  369000    1.0906197   -4.3890516    279.51799   0.06312511  0.064785248            2 
  370000     1.123374   -4.3941286    280.01397   0.06306621  0.064760337            2 
  371000    1.0903421   -4.3979499    280.75968   0.06306372  0.064733928            4 
  372000    1.1143766   -4.3704431     281.8084  0.063129122  0.064708789            1 
  373000    1.0975804   -4.4098067    282.50981   0.06311658  0.064687296            2 
  374000    1.1191428   -4.3960736    283.29339  0.063122413  0.064665572            3 
  375000    1.0845824   -4.3773429    284.20683  0.063157074  0.064641882            1 
  376000    1.0924976   -4.3822143    285.57242  0.063291759  0.064620163            1 
  377000    1.1134251   -4.3899353    284.16026  0.062811729  0.064598372            3 
  378000    1.1229399   -4.3929915    286.15591  0.063085517   0.06457421            1 
  379000    1.1105503   -4.3394316    286.53909  0.063003317  0.064550986            2 
  380000    1.1152448   -4.4067153    286.44193  0.062816213  0.064527134            2 
  381000    1.0951373   -4.3831138    288.64142  0.063132419  0.064505235            2 
  382000    1.1213829   -4.4159952    287.44032  0.062705131   0.06448086            1 
  383000    1.1070439   -4.3601159    290.58264  0.063225118  0.064457815            3 
  384000    1.1045362   -4.3820118      289.295  0.062781034  0.064435252            2 
  385000    1.1004314   -4.4282177    289.46806  0.062655425  0.064411799            3 
  386000    1.1010706   -4.4053741    291.91201  0.063020728    0.0643898            4 
  387000    1.1052263   -4.4265771    290.64711   0.06258551  0.064365616            2 
  388000    1.1256996   -4.3946417    292.32228  0.062783994  0.064342087            4 
  389000    1.1215356   -4.4170075    290.57972  0.062249297  0.064317019            3 
  390000    1.1041835   -4.3803689    294.01204  0.062823085  0.064292569            4 
  391000     1.099911   -4.3701319    293.12432  0.062473214   0.06426777            2 
  392000    1.1001451   -4.4098819    294.12189  0.062525913  0.064241594            3 
  393000     1.081267   -4.3839184     295.2507   0.06260617   0.06421516            5 
  394000    1.0862515   -4.4115589    295.26482  0.062450257  0.064187576            3 
  395000     1.095506   -4.3910619    296.29967  0.062510478  0.064161275            3 
  396000    1.0820888   -4.3973459    296.56015  0.062407439  0.064135465            2 
  397000    1.0901397   -4.4031274    296.87621  0.062316584  0.064109529            1 
  398000    1.1033157   -4.3761835    299.50708  0.062710863  0.064085615            1 
  399000    1.0952657   -4.4097164    298.53449  0.062350563  0.064061394            2 
  400000    1.0848958   -4.4186665    299.46323  0.062388173   0.06403658            3 
  401000    1.1227983   -4.3955934    300.24876  0.062395836  0.064011746            3 
  402000     1.103317   -4.4041127    300.85866  0.062367053  0.063987247            2 
  403000    1.0968875   -4.3951409    302.49591  0.062550849  0.063963679            4 
  404000    1.1032076   -4.3743433    303.42616  0.062587905  0.063940848            2 
  405000    1.0898477   -4.4020068    303.38907  0.062425734   0.06391735            2 
  406000    1.1101843   -4.4364439    304.39587  0.062478626  0.063892842            4 
  407000    1.0874528   -4.4138617    304.98371  0.062445477  0.063868018            3 
  408000    1.0927183   -4.4396852    304.30893  0.062154602  0.063842384            2 
  409000    1.0847538   -4.4336867    305.82329  0.062311183   0.06381817            1 
  410000     1.091939   -4.4239251    306.91504  0.062381107   0.06379411            3 
  411000    1.0859264   -4.3514543    308.98372  0.062648766  0.063770872            2 
  412000    1.0930056   -4.4384151    308.55723  0.062410443  0.063747386            3 
  413000    1.0782961   -4.4182324    307.50048  0.062046103  0.063723176            2 
  414000    1.0992023   -4.4229493    309.40927  0.062280448  0.063699519            3 
  415000    1.0973548   -4.4020456    309.76958  0.062202727  0.063676538            2 
  416000    1.1242892   -4.4018511    311.00887  0.062301456  0.063654278            2 
  417000    1.0660213    -4.419458    310.54004   0.06205836  0.063631744            3 
  418000      1.08993   -4.4181706    311.61311  0.062123825  0.063608433            2 
  419000    1.0838021   -4.4647943    311.19964  0.061893325  0.063582444            7 
  420000    1.0893051   -4.4085329    313.03532  0.062110183  0.063556936            2 
  421000    1.0777781   -4.4267914    311.98295  0.061754346  0.063532866            2 
  422000    1.0880657   -4.4272546    313.86321  0.061979307  0.063505785            3 
  423000    1.0753051   -4.4298526    313.24099  0.061710203  0.063478467            3 
  424000    1.0854798   -4.4565455    314.29519  0.061771853  0.063450201            4 
  425000    1.0695077    -4.437576    314.40735  0.061648499  0.063421743            6 
  426000    1.0730049   -4.4145878    315.85416  0.061786808  0.063393122            3 
  427000    1.1123463   -4.4109893    317.13074  0.061891246  0.063363111            3 
  428000    1.0888865   -4.4045494    317.40341  0.061799729  0.063336101            2 
  429000    1.1114703   -4.4394858    316.52688  0.061485408  0.063308251            4 
  430000    1.1073049   -4.4444942    317.77588  0.061584473   0.06327975            1 
  431000    1.1010373   -4.4590985    317.11284  0.061313387  0.063250435            2 
  432000    1.0764482   -4.4264912    318.90275  0.061516734  0.063219598            1 
  433000    1.0924994   -4.4051392    319.10829  0.061414221  0.063190714            1 
  434000    1.0880362   -4.4288797    319.53574  0.061354788  0.063158493            7 
  435000    1.0928835   -4.4271184    318.34041  0.060984754  0.063126226            3 
  436000    1.0921571   -4.4368306    319.07667  0.060985602  0.063093336            3 
  437000    1.0955008   -4.4447185     320.2061  0.061061423  0.063060235            1 
  438000    1.0705356   -4.4313235    321.51402  0.061170857  0.063028024            1 
  439000    1.0892013   -4.4168007     322.2453  0.061170331  0.062996615            3 
  440000     1.077922   -4.4259935    323.25234  0.061222035  0.062964942            1 
  441000    1.0728774   -4.4431955     322.9348  0.061023206  0.062933147            4 
  442000    1.0761494   -4.4544287    324.39912  0.061161222  0.062899475            4 
  443000     1.067724   -4.4715313    324.37296   0.06101824  0.062866785            5 
  444000    1.0928373   -4.4647358    324.27286  0.060862022  0.062832539            5 
  445000    1.0691982   -4.4512607    324.80068  0.060824097   0.06279836            4 
  446000    1.1031199   -4.4239212    324.83907  0.060694894  0.062764726            2 
  447000    1.1038805   -4.4380044    327.53398  0.061061518  0.062731174            3 
  448000    1.0700943   -4.4410872    326.71619    0.0607731  0.062698857            2 
  449000    1.0507477   -4.4382841    327.24321  0.060735563  0.062667734            3 
  450000    1.0694585   -4.4372211    328.21999   0.06078148  0.062636934            4 
  451000    1.0626905   -4.4742763    329.07847  0.060805334  0.062606928            2 
  452000    1.0666921   -4.4478033    331.13574    0.0610501     0.062578            6 
  453000    1.0748233   -4.4328646    331.33024  0.060951111  0.062548723            6 
  454000    1.0591259   -4.4659814    330.49562   0.06066366  0.062519688            2 
  455000    1.0617713   -4.4621662    332.18747  0.060840196  0.062491353            4 
  456000    1.0629982   -4.4417169    332.62338  0.060786436  0.062462295            2 
  457000    1.0734261   -4.4094081     334.6921  0.061030653  0.062433842            1 
  458000    1.0742515   -4.4444564    334.98265  0.060950264  0.062407361            3 
  459000    1.0812926   -4.4476253    336.14137  0.061027844  0.062379256            1 
  460000    1.0797171   -4.4842931    335.04595  0.060696731  0.062350924            5 
  461000    1.0867318   -4.4635175    336.23596   0.06078018  0.062323117            3 
  462000    1.0573221   -4.4581893    337.14746  0.060813033  0.062295322            3 
  463000    1.0732685   -4.4203907    340.17917  0.061227353  0.062269266            2 
  464000    1.0594103   -4.4508847    338.99845  0.060883343  0.062243581            3 
  465000    1.0631644    -4.494061    338.74391  0.060706794  0.062218012            2 
  466000    1.0742546   -4.4496084    339.77048  0.060760099  0.062191779            3 
  467000    1.0892665   -4.4320653    341.03658  0.060855922  0.062166013            2 
  468000    1.0861107    -4.474688     340.3002  0.060594765  0.062137588           11 
  469000    1.0716571   -4.4966483    339.95269  0.060403818  0.062109097            2 
  470000    1.0540732   -4.4522422    341.25115  0.060505523  0.062080325            3 
  471000     1.091285   -4.4398427    343.49511  0.060774081  0.062052004            2 
  472000    1.0553282   -4.4583148    343.64542  0.060671862  0.062024015            3 
  473000    1.0706801   -4.4376674    344.74594  0.060737481  0.061996451            3 
  474000    1.0730621   -4.4430087    343.52237  0.060394229  0.061969115            3 
  475000    1.0758486   -4.4855348    343.13863  0.060199759   0.06194069            3 
  476000    1.0606638   -4.4456918    345.37759  0.060465264  0.061911937            3 
  477000    1.0541794   -4.4662938    345.62004  0.060380859  0.061883701            4 
  478000    1.0766823   -4.4192412    346.99793  0.060494757  0.061855879            1 
  479000    1.0702458   -4.4383703     345.7947  0.060159134  0.061827748            4 
  480000    1.0609056   -4.4576134    347.30065  0.060295251  0.061798487            1 
  481000    1.0729644   -4.4871865    345.72407  0.059896755  0.061769154            3 
  482000    1.0508877   -4.4590562    348.03552  0.060172116  0.061738789            3 
  483000    1.0522246   -4.4948049    348.22791   0.06008073   0.06170921            5 
  484000    1.0757154   -4.4713043     348.7409  0.060044921   0.06167929            2 
  485000    1.0709383   -4.4465083    349.61172  0.060070742  0.061650616            2 
  486000    1.0833152   -4.4770525    351.37605  0.060249665  0.061622674            2 
  487000    1.0499106   -4.4347705    351.92867  0.060220512  0.061594906            3 
  488000    1.0543001   -4.4787921    352.46431  0.060188578   0.06156596            3 
  489000    1.0720931   -4.4523222    352.47422  0.060067181  0.061537027            3 
  490000     1.046661   -4.4819641    352.61358  0.059968295  0.061508581            3 
  491000     1.062168   -4.4300228    355.07325   0.06026362  0.061480754            2 
  492000    1.0444125   -4.4549203    355.38974  0.060194739  0.061452728            2 
  493000    1.0584673   -4.4718408    354.74918  0.059964364  0.061424149            4 
  494000    1.0557847   -4.4395795    355.76759  0.060014776  0.061395954            2 
  495000    1.0778533    -4.450223    356.15515  0.059958779  0.061367627            3 
  496000    1.0686495   -4.4936633    356.33136  0.059867501  0.061339604            4 
  497000    1.0674094   -4.4595348    357.91508  0.060012588  0.061311593            2 
  498000    1.0798964      -4.4399    358.92665  0.060061353  0.061283537            4 
  499000    1.0657105   -4.4865915    358.21919  0.059822845  0.061254862            4 
  500000    1.0529117   -4.4904302    358.87966  0.059813277  0.061226803            2 
  501000    1.0233635   -4.4676676    360.24245  0.059920567  0.061199767            4 
  502000    1.0517552   -4.4394692    360.85048  0.059902138  0.061172555            2 
  503000    1.0585388   -4.4847952    360.76329  0.059768603  0.061145757            4 
  504000    1.0741666   -4.4754862    361.01004  0.059690813  0.061117367            2 
  505000    1.0316193   -4.4863894    361.80084  0.059703109  0.061088668            5 
  506000    1.0582371   -4.4231793     363.8235  0.059918231  0.061060053            2 
  507000    1.0428594   -4.4792802    364.08082  0.059842345  0.061032254            2 
  508000    1.0570255   -4.4658501    364.40637  0.059777948   0.06100523            6 
  509000    1.0716935   -4.4983625    362.76759  0.059392205  0.060977824            2 
  510000    1.0613181   -4.4917184    364.89315  0.059623064  0.060949689            3 
  511000    1.0428016   -4.4818468    365.88139  0.059667546  0.060922729            3 
  512000    1.0752078   -4.4479637     366.3842  0.059632844   0.06089565            3 
  513000    1.0527617   -4.4777275    366.90282  0.059600848  0.060868664            5 
  514000    1.0436234   -4.4833033    367.08886  0.059515054  0.060840421            3 
  515000    1.0504735   -4.4955103     367.7063  0.059499401  0.060812744            4 
  516000      1.04075   -4.5036429    367.06883  0.059281141  0.060783947            5 
  517000    1.0746337   -4.4951254    368.58235  0.059410437  0.060756235            5 
  518000    1.0220407   -4.4854407    369.48484  0.059440932    0.0607289            5 
  519000    1.0563656    -4.465461    372.18795  0.059760429  0.060701516            2 
  520000    1.0594701   -4.5095473     371.3132  0.059505321  0.060673993            2 
  521000    1.0524837   -4.4947825    370.17575  0.059209172  0.060645622            3 
  522000    1.0649479   -4.4727608    371.78052  0.059351935  0.060617461            3 
  523000    1.0404707   -4.4584531    373.35617  0.059489511  0.060589736            3 
  524000    1.0374356   -4.4916632    373.28635  0.059364877  0.060560659            3 
  525000    1.0247308   -4.4825584    372.96028  0.059200045  0.060532234            5 
  526000    1.0396742   -4.5119594    373.20735   0.05912664  0.060503421            3 
  527000    1.0533568    -4.521186    373.36158  0.059038834  0.060474708            3 
  528000    1.0340776   -4.4911984    374.27323    0.0590709  0.060446648            2 
  529000    1.0539401   -4.5075986    374.56191  0.059004711  0.060418657            3 
  530000    1.0138902   -4.5002423    375.57354  0.059052443  0.060390781            2 
  531000    1.0393277   -4.5028111    376.05765  0.059017208   0.06036116            3 
  532000     1.044471   -4.4980246    376.53381   0.05898086  0.060333172            2 
  533000    1.0446419   -4.5410551     375.9769   0.05878313  0.060304175            2 
  534000    1.0093857    -4.453034    379.61039  0.059240073  0.060276064            4 
  535000    1.0247459   -4.5188087    377.52008  0.058803751  0.060247259            3 
  536000    1.0176248   -4.4884188    380.09327  0.059094104  0.060218542            3 
  537000    1.0279322   -4.4673088    381.03447  0.059130116  0.060190661            1 
  538000    1.0429322   -4.5137667    379.56941  0.058793279  0.060162817            4 
  539000     1.041584   -4.5044643    381.96442  0.059054487  0.060133937            6 
  540000    1.0204552   -4.5053479    381.91947   0.05893819  0.060106488            3 
  541000    1.0393816   -4.5056746    382.36131  0.058897306  0.060079472            2 
  542000      1.05527   -4.5206199    384.12695   0.05906011  0.060052858            2 
  543000     1.028043   -4.5200043    383.21074  0.058810734  0.060026444            3 
  544000    1.0424184   -4.5128275    383.60324  0.058762751  0.060000321            3 
  545000    1.0397884   -4.5258048    384.26778  0.058756541  0.059974066            2 
  546000    1.0283777   -4.5543435    384.08464  0.058620977  0.059946959            4 
  547000    1.0415782   -4.4948689    386.97066  0.058953482  0.059920236            2 
  548000    1.0512642   -4.5031411    387.34469  0.058902781  0.059893701            1 
  549000     1.028569   -4.5229279    385.49036  0.058514019  0.059866686            3 
  550000    1.0425549   -4.5007984     386.9809   0.05863347  0.059839827            6 
  551000    1.0441821   -4.4877817     389.2934    0.0588768  0.059812812            3 
  552000    1.0272948   -4.5069902    389.26888  0.058766437  0.059786093            2 
  553000    1.0281315   -4.5109226    389.76077  0.058734293   0.05975909            2 
  554000    1.0570923   -4.5060925    390.41517   0.05872671  0.059732508            2 
  555000    1.0441688   -4.5247445    390.61347  0.058650671  0.059704983            6 
  556000    1.0206598   -4.5051228    391.38548  0.058660893  0.059677906            4 
  557000    1.0059523   -4.5408019    391.32036  0.058545835  0.059650735            4 
  558000     1.047925   -4.5465326    389.66096  0.058193095  0.059622812            5 
  559000    1.0183256   -4.5170371    392.27359  0.058478472  0.059594909            2 
  560000    1.0445002   -4.5262707    392.74214  0.058443771   0.05956771            5 
  561000    1.0314119   -4.5014431    393.85666  0.058505148  0.059540528            3 
  562000    1.0332447   -4.4979467    395.30788  0.058616234  0.059515243            6 
  563000    1.0206491   -4.4886553    394.01443  0.058320667  0.059489844            3 
  564000    1.0514912   -4.5134981    395.27851  0.058404035   0.05946401            6 
  565000    1.0347519   -4.5331616    394.75525  0.058223489   0.05943754            2 
  566000    1.0299632   -4.5143502    396.80115  0.058421842  0.059410601            2 
  567000     1.014696   -4.5103283    395.15707  0.058077171  0.059383455            3 
  568000    1.0423007    -4.511082    398.04141  0.058398095  0.059357346            3 
  569000    1.0393124   -4.5359528    397.22288  0.058175583  0.059329763            3 
  570000    1.0382115   -4.5738109    397.95652  0.058180778  0.059302261            4 
  571000    1.0305633    -4.540726    398.21049   0.05811595  0.059274617            4 
  572000    1.0403038   -4.5068473    399.18525  0.058156359  0.059246901            2 
  573000    1.0352896   -4.4835644    400.09618  0.058187344  0.059219701            5 
  574000    1.0304766    -4.511446    400.35667   0.05812379  0.059192114            3 
  575000    1.0267512   -4.5211188     401.4401  0.058179724  0.059164406            2 
  576000    1.0212088   -4.5644474    398.79723  0.057696359  0.059136037            2 
  577000    1.0426835   -4.5548423    400.55022   0.05784954  0.059106881            5 
  578000    1.0333833    -4.513582    401.04515  0.057820812  0.059077435            5 
  579000    1.0367872   -4.5602203    402.94665  0.057994625  0.059049814            3 
  580000    1.0139586    -4.468009    404.25293  0.058082318  0.059022329            5 
  581000     1.027115    -4.547446    403.16617  0.057826473  0.058996115            2 
  582000    1.0180716   -4.5226232    404.24827  0.057882054  0.058969326            2 
  583000    1.0055056   -4.5238244    405.03628  0.057895409   0.05894163            2 
  584000    1.0311221   -4.5401462     406.1943  0.057961516   0.05891438            2 
  585000    1.0245591   -4.5614827    404.75141  0.057656896  0.058886933            2 
  586000    1.0261298   -4.5469659     407.5592  0.057957793  0.058860962            6 
  587000    1.0257639   -4.5682589    406.52634  0.057712427  0.058834363            5 
  588000    1.0179663   -4.5270379    407.25433   0.05771745  0.058807656            4 
  589000    1.0104864   -4.5705678    406.83451  0.057560061  0.058780693            4 
  590000    1.0304237   -4.5424826    407.42001    0.0575452  0.058753444            2 
  591000    1.0369174   -4.5546744    408.96016  0.057664998    0.0587269           13 
  592000    1.0119861   -4.5496933    409.90158   0.05770011  0.058700389            5 
  593000    1.0384547   -4.5376144    410.42616  0.057676526  0.058674633            4 
  594000   0.99470098    -4.527789    412.15481  0.057821942  0.058649421            4 
  595000    1.0119818   -4.5372462    411.26449  0.057600068   0.05862294            4 
  596000    1.0047306    -4.545235    411.59515  0.057549657  0.058596128            6 
  597000    1.0066784   -4.5479262    412.89402  0.057634564  0.058569471            4 
  598000    1.0028235   -4.5444827     413.5231  0.057625849  0.058543072            4 
  599000    1.0451843   -4.5657161    413.17667  0.057481452  0.058516608            3 
  600000     1.026381   -4.5571712    413.79524  0.057471561  0.058490494            6 
  601000     1.037751   -4.5603386    413.46963  0.057330786  0.058464368            2 
  602000    1.0211159   -4.5427745     414.4013  0.057364521  0.058436635            1 
  603000    1.0043804   -4.5381631    414.21288   0.05724335  0.058408817            2 
  604000    1.0085491   -4.5688265    414.96919  0.057252923  0.058380363            3 
  605000    1.0131873    -4.527698     417.5044  0.057507493  0.058352317            2 
  606000    1.0242779   -4.5511484    417.81386  0.057455152  0.058325005            3 
  607000   0.98845222   -4.5509918    418.28748  0.057425519  0.058297592            2 
  608000    1.0001588   -4.5665559    419.26117  0.057464524  0.058271927            2 
  609000    1.0260263   -4.5190487    420.76361  0.057575753  0.058246707            3 
  610000    0.9989305   -4.5262214     422.0097  0.057651598   0.05822154            2 
  611000     1.021246   -4.5675091     420.2682  0.057319721  0.058195052            3 
  612000    1.0201033   -4.5198082    421.88116  0.057445692  0.058169182            2 
  613000    1.0032153   -4.5565532    421.60586  0.057314554  0.058144271            3 
  614000     1.035879   -4.5371632    422.74905  0.057376364  0.058117988            3 
  615000    1.0085724   -4.5646556    422.65576  0.057270428   0.05809239            4 
  616000   0.98642509   -4.5671893    423.54443  0.057297677  0.058066564            2 
  617000   0.99449079   -4.5798476    423.75235  0.057232895  0.058041924            5 
  618000    1.0180273   -4.5670417    425.64977  0.057396139  0.058016468            2 
  619000    1.0225576    -4.542594    425.20598   0.05724367  0.057991304            4 
  620000    1.0029097   -4.5583259    426.43352  0.057316333  0.057966158            5 
  621000   0.97099014   -4.5517059    425.97199  0.057162102  0.057940879            3 
  622000    1.0277531   -4.5575266    427.21896  0.057237267  0.057915452            3 
  623000    1.0050324   -4.5767234     425.4123  0.056903732  0.057889887            2 
  624000    1.0131745    -4.559588    427.89178  0.057143667  0.057864724            2 
  625000    1.0050633   -4.5632003    429.98367  0.057331156  0.057839714            6 
  626000    1.0138179   -4.5150862    428.55615   0.05704954  0.057814676            4 
  627000   0.98544573   -4.5977859    428.43639  0.056942635  0.057790107            3 
  628000    1.0209617   -4.5536577    430.73344  0.057156772  0.057764845            5 
  629000   0.99100618   -4.5621551    430.84545  0.057080743  0.057740192            2 
  630000   0.99505915   -4.5955815    429.98234  0.056875971  0.057715672            3 
  631000    1.0003285   -4.6096881    428.17304  0.056546888  0.057690163            5 
  632000   0.98979524   -4.5762425    430.11921  0.056714031  0.057663997            4 
  633000   0.99745325   -4.5695219    432.02099  0.056874801  0.057637516            9 
  634000    1.0028767   -4.5972741    432.66683  0.056869983  0.057611127            3 
  635000   0.99963414   -4.5633288    431.61745   0.05664271  0.057585165            4 
  636000    1.0078482   -4.5718769    432.39147  0.056655067  0.057559284            3 
  637000   0.99693451   -4.5379156    433.07518  0.056655571  0.057532343            5 
  638000    1.0179413   -4.6010838    431.78383  0.056398097  0.057505052            5 
  639000   0.98381434   -4.5720255     432.9357  0.056460055  0.057476797            3 
  640000   0.99175352   -4.5994614    433.06591   0.05638879  0.057449034            5 
  641000    1.0096544   -4.5754373     434.8165  0.056528406  0.057421601            4 
  642000    1.0087655   -4.5283436    434.37472  0.056383012  0.057394833            6 
  643000    1.0241918   -4.5604618    435.91514  0.056494964  0.057368465            3 
  644000   0.97794235   -4.5655444     436.1938  0.056443296  0.057341579            3 
  645000   0.99749802   -4.5835245    435.98508  0.056328821  0.057312902            2 
  646000   0.99782162   -4.5778891     436.1921  0.056268331  0.057284974            7 
  647000    1.0022705    -4.592755    436.67961  0.056244154  0.057256924            5 
  648000   0.99273908   -4.5899153    436.85105  0.056179404  0.057229323            6 
  649000   0.99468021   -4.5780824     435.7509  0.055951579   0.05720091            8 
  650000   0.99768425   -4.5801718    437.10988  0.056039728  0.057172644            2 
  651000    0.9898423   -4.6003088    437.70722   0.05603011  0.057144237            3 
  652000   0.97551782   -4.5546833    438.48877  0.056044065  0.057115907            2 
  653000   0.99428175   -4.5575158      439.267  0.056057555  0.057087936            2 
  654000   0.97382726   -4.6174835    438.40937   0.05586256  0.057060153            7 
  655000   0.99809941   -4.5518587    441.18769   0.05613075  0.057032812            3 
  656000   0.98720295   -4.6327318    439.08631  0.055778241  0.057004478            3 
  657000    1.0019834   -4.5709649    440.20012  0.055834617  0.056974954            4 
  658000   0.98169726   -4.5983109    439.87697  0.055708837  0.056945611            4 
  659000    1.0056008   -4.5592594    442.82215  0.055996731  0.056917158            3 
  660000    1.0160151   -4.5790258    441.32642  0.055723033  0.056887896            4 
  661000   0.97350761   -4.6119799    441.44322  0.055653456  0.056858265            5 
  662000    1.0010825   -4.5860374     442.6242  0.055718052  0.056829645            3 
  663000    1.0028508   -4.5628601    444.57303  0.055878963  0.056801078            2 
  664000    1.0038523   -4.6017871    443.45473  0.055654459  0.056772187            5 
  665000   0.99553538   -4.6141037    442.84039  0.055493783  0.056743276            3 
  666000   0.97330737   -4.5868775    445.85787  0.055788022  0.056714448            2 
  667000    1.0022825   -4.5562545    446.56364  0.055792558  0.056686285            6 
  668000    1.0055085   -4.5780258    445.43874  0.055568705  0.056658283            4 
  669000    1.0004677   -4.6115505    444.99314  0.055430136  0.056629477            2 
  670000   0.99597532   -4.6166303    444.90764  0.055336771  0.056600341            3 
  671000   0.97002481   -4.6262948    445.92186  0.055380261  0.056572128            3 
  672000   0.97757279   -4.5849974    448.09115  0.055566858   0.05654338            3 
  673000    1.0015175   -4.6300516    447.01643  0.055351217  0.056514555            2 
  674000   0.98577628   -4.6045962    451.31691  0.055800805  0.056486028            4 
  675000   0.99831738   -4.6105764    449.02215  0.055434834  0.056457242            3 
  676000   0.97268004   -4.5744802    451.99634   0.05571947  0.056429158            3 
  677000   0.95904499   -4.5963088    448.47757  0.055204034  0.056401145            4 
  678000   0.98207672   -4.5964946    451.12486  0.055447991  0.056372867            4 
  679000   0.96299887   -4.6259386    451.36266  0.055395516  0.056344242            4 
  680000   0.98257615   -4.6271409     451.4429  0.055323885  0.056315996            3 
  681000    0.9910651   -4.6020419    452.96488  0.055428889  0.056287456            4 
  682000   0.97500885   -4.6316171     452.5337  0.055294929  0.056258668            3 
  683000   0.98629072   -4.6071995    452.04917  0.055154852  0.056229778            2 
  684000   0.96591327   -4.6014623    453.18694  0.055212834  0.056200562            2 
  685000   0.98476171   -4.6074579    453.37206  0.055154752  0.056172167            4 
  686000   0.97253431   -4.6062231    453.91939  0.055140839  0.056142894            1 
  687000   0.98002884    -4.608805    454.01572  0.055072261  0.056114592            5 
  688000   0.97774601   -4.6256908    455.25777  0.055142656  0.056085663            3 
  689000   0.99523153   -4.6295813    454.24615  0.054940269  0.056057615            3 
  690000   0.97481871   -4.6296971    454.96039  0.054946907  0.056029407            4 
  691000   0.98841541   -4.5964063      456.681  0.055074891  0.056000969            5 
  692000   0.98196406   -4.6295898    455.18038  0.054814593  0.055972052            2 
  693000   0.98930704   -4.6198442    455.85976  0.054817191  0.055943285            8 
  694000   0.97173835    -4.648131    455.71751  0.054721122   0.05591383            4 
  695000   0.96855552   -4.6076022    457.46453  0.054851862  0.055885539            2 
  696000   0.96961724   -4.6001478    457.79455  0.054812565  0.055856399            3 
  697000   0.97389557   -4.6004753    459.82115  0.054976225  0.055827399            3 
  698000   0.94856111   -4.5968107    459.36394  0.054842878  0.055798913            4 
  699000   0.97345406   -4.5909612    458.71294  0.054686807  0.055769998            4 
  700000   0.95855765   -4.6454415    458.12864  0.054539124  0.055741006            2 
  701000   0.96424713   -4.6125592    460.15832  0.054702605  0.055711796            4 
  702000   0.96575664   -4.6479678    460.69222  0.054688061  0.055683318            3 
  703000    0.9821243   -4.6435304    460.59004  0.054598156  0.055654152            3 
  704000   0.96237428   -4.6102516    463.31392  0.054843031  0.055626022            7 
  705000   0.99261596   -4.6364853     460.3613  0.054416229  0.055596699            6 
  706000   0.98759224   -4.6031963    463.49186  0.054708671  0.055567869            9 
  707000   0.95888777   -4.6050618     464.7259  0.054776744  0.055538747            3 
  708000   0.97700599   -4.6492492    462.89745  0.054484163  0.055508952            3 
  709000   0.97321228    -4.653117    461.58449  0.054252996  0.055479612            6 
  710000   0.95712908   -4.6348753    463.80606  0.054437331  0.055450239            2 
  711000   0.98411496   -4.6081562    466.16882  0.054637695  0.055421678            2 
  712000   0.94825787   -4.6299536    463.81088  0.054284981  0.055392199            3 
  713000   0.98338615   -4.6713499    464.22552  0.054257307  0.055362376            2 
  714000   0.96853922   -4.6284019    466.72822  0.054473415  0.055333639            6 
  715000   0.96826068   -4.6344352    466.28406  0.054345461  0.055305102            5 
  716000   0.97836952   -4.6260525    466.03598  0.054240687  0.055275964            4 
  717000   0.97646744   -4.6393565    464.89626  0.054032573  0.055246647            6 
  718000   0.97403268   -4.6722034    466.53254  0.054147231  0.055216994            4 
  719000   0.96551324   -4.6404936    467.77918   0.05421641   0.05518716            4 
  720000   0.95438922   -4.6286824    468.01283  0.054168151   0.05515709            3 
  721000   0.97592299   -4.6368656    467.98215  0.054089476  0.055128094            3 
  722000   0.96342693   -4.6579713    470.19186  0.054269605   0.05509888            3 
  723000   0.97192212   -4.6512226     469.8113   0.05415068  0.055070197            2 
  724000   0.96346788   -4.6417885    471.77456   0.05430186  0.055041968            4 
  725000   0.95265008   -4.6632298    471.70887   0.05421941  0.055013431            1 
  726000   0.96569145   -4.6198994    471.84708  0.054160593  0.054985528            2 
  727000   0.96819429   -4.6527736    471.64626  0.054063074  0.054957305            2 
  728000   0.96534081   -4.6333319    471.88417  0.054016046   0.05492889            2 
  729000   0.97370114   -4.6388282    475.27718   0.05432981  0.054900936            6 
  730000    0.9837981    -4.633364    473.38137  0.054038969  0.054874079            5 
  731000   0.94994626   -4.6314108    475.15046  0.054166719  0.054846922            4 
  732000   0.97664684   -4.6621156    473.86271  0.053946119   0.05481979            7 
  733000   0.97216149   -4.6456444    476.24332   0.05414317  0.054792463            6 
  734000   0.97637485   -4.6406321    474.92639   0.05391989   0.05476524            2 
  735000   0.95602275   -4.6375817     476.5261  0.054027903  0.054737363            3 
  736000   0.97169453   -4.6534416    475.47888  0.053835923  0.054708942            4 
  737000    0.9489864   -4.6457455    477.31443  0.053970424  0.054681015            4 
  738000   0.97392782   -4.6500379    479.13615  0.054102998  0.054653546            2 
  739000   0.95050457   -4.6205427    478.72488  0.053983409  0.054626313            4 
  740000   0.95903818   -4.6354502    479.28558  0.053973602  0.054599333            3 
  741000   0.94884673   -4.6558063    477.26474  0.053673497   0.05457164            3 
  742000   0.94930428   -4.6555066    480.48971  0.053963354  0.054544316            4 
  743000   0.94310969   -4.6470924    479.56432  0.053786936  0.054516808            8 
  744000   0.93908745   -4.6353629    480.15426  0.053780719  0.054489305            6 
  745000   0.96168138   -4.6809252     479.9609  0.053686901  0.054462371            5 
  746000    0.9536604   -4.6416227    480.79011  0.053707564  0.054436102            4 
  747000   0.95445452   -4.6616445    481.53564  0.053718835  0.054409097            3 
  748000   0.96645886   -4.6287916     482.9094  0.053800066  0.054381943            6 
  749000   0.92478645    -4.633775    481.49073  0.053570398  0.054355069            3 
  750000   0.95543173   -4.6795154    480.42121  0.053380134  0.054327576            7 
  751000   0.96653912   -4.6646958    481.51633  0.053430574  0.054299809            3 
  752000   0.96228728   -4.6798961    483.75709  0.053607834  0.054272336            4 
  753000   0.95615046   -4.6620963    481.93847  0.053335378  0.054244762            4 
  754000   0.94702722   -4.6510008    484.87887  0.053589618  0.054217898            4 
  755000   0.94148683   -4.6599221      484.389   0.05346457  0.054190637            8 
  756000   0.95646332   -4.6243308    485.80704  0.053550158   0.05416356            3 
  757000   0.96038416   -4.6817352    485.89042  0.053488597   0.05413603            3 
  758000   0.93158486   -4.6864851    486.00122  0.053430214   0.05410782            5 
  759000   0.95402153   -4.6732698    483.91511  0.053130776  0.054079478            3 
  760000   0.94780099   -4.6541865    483.62282  0.053028818  0.054051407            2 
  761000   0.94842928   -4.6516047    486.59528  0.053284634  0.054023183            4 
  762000   0.94329119   -4.7008507    485.11972  0.053053338  0.053994798            4 
  763000   0.92941937   -4.6396223    488.07686  0.053306778  0.053966789            4 
  764000   0.93857946   -4.6216258     486.7369  0.053090849  0.053938207            8 
  765000   0.95211454   -4.6594386    487.35657  0.053088951  0.053910436            4 
  766000   0.96353747    -4.668941    487.12747   0.05299472  0.053882627            5 
  767000   0.93750346   -4.6636003    489.87141  0.053223752  0.053854228            6 
  768000    0.9532271   -4.6821442     488.5053  0.053006217  0.053826049            3 
  769000   0.93664737   -4.6849537    488.95314  0.052985819  0.053797239            2 
  770000   0.95066233   -4.6533437     489.5134  0.052977641  0.053768805            3 
  771000   0.94799958   -4.6650521    488.14772  0.052761318   0.05373967            3 
  772000   0.94722769   -4.6473053    490.04103  0.052897347  0.053710455            1 
  773000   0.94649034   -4.6717172    489.81455  0.052804501  0.053681473            3 
  774000   0.94646722   -4.6952215    490.12437  0.052769635  0.053652173            3 
  775000   0.93672669   -4.6826209    489.09213  0.052590551  0.053623073            3 
  776000     0.912826   -4.6460687    492.42273  0.052880447  0.053594402            3 
  777000   0.93508427   -4.6865076    490.57778  0.052614519  0.053565275            2 
  778000   0.93778481   -4.6537703    490.88975  0.052580307  0.053536758            7 
  779000   0.96281967   -4.6521386    493.88891  0.052833645  0.053508545            3 
  780000    0.9553516   -4.6776165    493.14102  0.052686007  0.053480149            4 
  781000   0.94560749   -4.7044981    493.68898  0.052677015  0.053452081            6 
  782000   0.92840095   -4.7150889    493.63626  0.052604034   0.05342397            3 
  783000   0.93825995   -4.6838033    492.33328  0.052398178  0.053395374            4 
  784000   0.93097147   -4.6649789    494.81898  0.052595555  0.053366966            7 
  785000   0.93834588   -4.6971299    493.74862  0.052414928  0.053338548            4 
  786000   0.95404569   -4.6774745    493.25746  0.052296168  0.053309357            6 
  787000    0.9414508   -4.6848779    496.18554  0.052539765  0.053280512            6 
  788000   0.92500931   -4.6779153    494.47465  0.052292158  0.053252082            3 
  789000   0.92669554   -4.7070514    494.42956   0.05222112  0.053223671            4 
  790000   0.93854578   -4.7046523     496.1709  0.052338703  0.053194833            5 
  791000   0.94055144    -4.710527    496.12812  0.052268027  0.053165723            4 
  792000   0.94223817   -4.6727485    497.86054  0.052384316  0.053137045            4 
  793000   0.92656808   -4.6919004    496.64987  0.052191033  0.053108038            2 
  794000   0.91823745   -4.6805306    498.74892  0.052345605  0.053079158            4 
  795000   0.94485896   -4.6992148    497.82581  0.052182999  0.053050543            3 
  796000   0.94070536   -4.6981035    497.47065  0.052080261  0.053021881           12 
  797000   0.94898993   -4.7129061     497.2097  0.051987631  0.052992441            7 
  798000   0.93421805   -4.6658683    498.06355  0.052011649  0.052962959            2 
  799000   0.92384873   -4.7111132    498.53804  0.051996041  0.052933551           10 
  800000   0.92163984   -4.6987323    496.01265  0.051667984  0.052903818            5 
  801000   0.93445643     -4.71132    498.92372  0.051906338  0.052874261            5 
  802000   0.95335759   -4.6526069    501.75934  0.052136258  0.052845189            8 
  803000   0.94031615   -4.6821423    500.42629   0.05193299  0.052816249            4 
  804000   0.91332313   -4.7211544    501.05378  0.051933435  0.052787294            3 
  805000   0.95104211   -4.6921739    502.30746  0.051998702  0.052758403            5 
  806000   0.92114696   -4.6903073     501.0142  0.051800476   0.05272907            3 
  807000   0.93328624   -4.7144409    502.09531  0.051847926  0.052700391            3 
  808000      0.93339   -4.7241696    502.03085  0.051777109  0.052671165            5 
  809000   0.94018305   -4.7045641     502.6269  0.051774505  0.052642281            4 
  810000   0.92866798   -4.6858508    503.88833  0.051840363  0.052613561            2 
  811000   0.92707056    -4.715387    505.51597  0.051943688  0.052585087            7 
  812000   0.93300504    -4.709208     504.9601   0.05182267  0.052556764            3 
  813000    0.9115747   -4.7040043    505.71265  0.051836065  0.052527999            3 
  814000   0.93236953   -4.7086082    503.81557   0.05157817  0.052499383            4 
  815000   0.91902212   -4.7222896    506.01863  0.051740146  0.052471561            5 
  816000   0.95246893   -4.7328165    506.11217  0.051686292  0.052443323            4 
  817000   0.93314127   -4.7121639     507.8706  0.051802386  0.052415253            2 
  818000   0.92039811   -4.7229664    506.60612  0.051610241  0.052387636            2 
  819000   0.90960777   -4.6889288    508.42917   0.05173272  0.052360047            6 
  820000   0.93768131   -4.7213904    509.01148  0.051728809  0.052332652            4 
  821000   0.91473282   -4.7265179    508.70994  0.051635194  0.052305021            5 
  822000   0.91308472   -4.6993918    510.21972  0.051725438  0.052277311            6 
  823000   0.92415332   -4.7177046    509.27431   0.05156686  0.052250306            3 
  824000   0.92724212   -4.7183896    510.48324  0.051626541  0.052223047            5 
  825000    0.9175733   -4.7296064    508.50267  0.051363906  0.052195347            4 
  826000   0.92843723   -4.7225697    508.70705  0.051322341  0.052167176            3 
  827000   0.92661224   -4.7217681    511.16954  0.051508418  0.052139522           12 
  828000   0.93316926   -4.7020052    510.79896  0.051408913  0.052111986            1 
  829000   0.91213235   -4.7225149      511.562  0.051423602  0.052084889            3 
  830000   0.93631243   -4.7040161    512.42032  0.051447824  0.052057579            3 
  831000    0.8910125   -4.6897495    514.66892  0.051611403  0.052030104            3 
  832000   0.90343425   -4.7263359    512.83546  0.051365731   0.05200265            4 
  833000   0.91567167   -4.7417155    511.69713  0.051190189  0.051974885            4 
  834000   0.91649962   -4.7399214    512.07465  0.051166532  0.051947317            3 
  835000   0.91897505   -4.6925958    514.66422  0.051363695  0.051920396            5 
  836000   0.91220658    -4.711081    516.37052   0.05147234  0.051893194            3 
  837000   0.92759929   -4.6980992    514.71758  0.051246274  0.051866467            4 
  838000   0.92481086   -4.7136363    514.96841  0.051210064  0.051839325            5 
  839000   0.91014445   -4.7212701    516.76458  0.051327431  0.051811656            5 
  840000   0.91923811   -4.7580796     514.7209  0.051063581  0.051784542            3 
  841000    0.9404906   -4.7295817    517.35273  0.051263647  0.051757378            4 
  842000   0.93320025   -4.7555339    517.88754  0.051255695  0.051730383            7 
  843000   0.90015442   -4.7157642    517.50657  0.051157233  0.051703453            3 
  844000   0.91945581   -4.7318337    516.31598  0.050979066  0.051676593            5 
  845000   0.91369091   -4.7314844    519.32341  0.051215327  0.051649795            2 
  846000   0.93466294   -4.7522852    518.40681  0.051064501   0.05162272            5 
  847000   0.91369596   -4.7535178    517.98252  0.050962468  0.051595564            4 
  848000   0.92120697   -4.7021621    519.09707  0.051011897  0.051568244            3 
  849000    0.9149618   -4.7348925    518.40603  0.050883985  0.051540778            2 
  850000   0.90225242   -4.7271399    521.44223  0.051121787  0.051513369            3 
  851000   0.88933012    -4.742593    519.30258  0.050852191  0.051486728            3 
  852000   0.91497561   -4.7170773    520.99507  0.050958047  0.051459776            3 
  853000    0.9074008   -4.7471263     519.6456  0.050766471  0.051433211            3 
  854000   0.94186887   -4.7223107    522.89263  0.051023871  0.051406633            3 
  855000   0.91653796   -4.7402502    521.25189  0.050804278  0.051380159            3 
  856000   0.92534342   -4.7453464    521.94286  0.050812194  0.051353548            6 
  857000   0.90926445   -4.7449658    524.17891  0.050970333   0.05132697            5 
  858000    0.9229959   -4.7748225    522.54402  0.050752138  0.051300272            5 
  859000   0.89097117   -4.7256281    525.65902  0.050995249  0.051273134            5 
  860000   0.89991725   -4.7579612    523.86059  0.050761685  0.051246738            3 
  861000   0.92672836    -4.737322    524.91418  0.050804702  0.051220382            3 
  862000   0.90329394   -4.7292498    525.40773  0.050793478   0.05119423            2 
  863000   0.90398378   -4.7533912    524.26624  0.050624395  0.051168564            2 
  864000   0.92347546   -4.7621615    526.19999  0.050752314  0.051142431            7 
  865000   0.91218487   -4.7446038    526.07094  0.050681208  0.051116415            8 
  866000   0.89496038   -4.7253305    526.97945  0.050710108  0.051090478            4 
  867000   0.89758694   -4.7331894    528.02534  0.050752147  0.051064645            3 
  868000   0.92265586   -4.7564046    528.31573  0.050721556  0.051039447            1 
  869000   0.90940957   -4.7454395    528.42287  0.050673463  0.051014552            4 
  870000   0.91808086   -4.7309881    531.03271  0.050865202  0.050989235            6 
  871000   0.92359065    -4.768865    529.14132  0.050625844  0.050964375            2 
  872000   0.90200173   -4.7668798    529.65237  0.050616626  0.050939171            5 
  873000   0.91251627   -4.7367326    531.53632  0.050738481  0.050913469            4 
  874000   0.92285068   -4.7377875    529.18955   0.05045667  0.050888283            6 
  875000   0.89181775   -4.7848005    529.79165  0.050456348  0.050862662            6 
  876000   0.87682635   -4.7658851    530.10395  0.050428458  0.050837292            8 
  877000   0.90417037   -4.7562269    530.96885   0.05045314  0.050811576            7 
  878000   0.90516064   -4.7726897    532.36754   0.05052843   0.05078609            7 
  879000   0.89216494   -4.7649623    532.72698  0.050505023  0.050761001            6 
  880000   0.89806554   -4.7701298     531.8498  0.050364564  0.050736101            8 
  881000   0.89804727   -4.7474552    535.12405  0.050617106  0.050711126            4 
  882000    0.9218139   -4.7612664    533.42793  0.050399464  0.050686017            3 
  883000   0.90548548    -4.720681    534.69205  0.050461688  0.050660963            3 
  884000   0.88378399   -4.7725225    533.47252  0.050289642  0.050635539            4 
  885000   0.88695787   -4.7629855     533.4357   0.05022935  0.050609979            5 
  886000   0.90467664   -4.7490696    534.38674  0.050262109  0.050584843            2 
  887000   0.89599554   -4.7657158    536.01915  0.050358808  0.050559447            5 
  888000   0.90889232   -4.7670958    534.04557  0.050116889  0.050533812            5 
  889000   0.89587395   -4.7794904    536.04502   0.05024794   0.05050792            7 
  890000    0.8890728   -4.7981765    534.04322  0.050004047  0.050482203            9 
  891000   0.89405624   -4.7456755    535.66473  0.050099582  0.050456242            5 
  892000   0.90522512   -4.7530678    535.93692  0.050068845  0.050430502           10 
  893000    0.8959082   -4.7497268    536.99851  0.050111843  0.050404514            3 
  894000   0.90941808   -4.7290129    537.89775  0.050139611  0.050378832            3 
  895000   0.87566573   -4.7309229    538.59692  0.050148689  0.050352702            3 
  896000   0.91606242   -4.7419456    536.77049   0.04992285  0.050326434            5 
  897000   0.89476546   -4.7709996    537.36826   0.04992273  0.050299997            5 
  898000   0.90058399     -4.78397    536.17667  0.049756558  0.050273121            7 
  899000   0.90750804    -4.783987    537.79201  0.049850946  0.050246451            4 
  900000   0.90341542   -4.7785359    535.57591  0.049590362  0.050219873            6 
  901000   0.89776001   -4.7756712    537.90125  0.049750393  0.050193018            6 
  902000   0.89158741     -4.76989    538.55228  0.049755385  0.050166597            6 
  903000   0.88989133   -4.7709536    538.21433  0.049669096  0.050140488            6 
  904000   0.90491021   -4.7371574    540.50625  0.049825429  0.050113963            6 
  905000   0.88480159   -4.7477149    539.73479  0.049699336  0.050087181            4 
  906000   0.89975565   -4.7809223    538.53474  0.049534101  0.050060296            4 
  907000   0.91622041   -4.7910622    537.79128   0.04941118  0.050033131            3 
  908000     0.900047   -4.7522134    539.98169  0.049557791  0.050005776            8 
  909000   0.87778475   -4.7568167    538.80028  0.049394965  0.049978427            3 
  910000   0.87936674   -4.7856842    539.59392  0.049413363  0.049950403            4 
  911000   0.89617965   -4.7807587    539.54893  0.049355006  0.049923004            5 
  912000   0.89670782   -4.7532653    540.63373  0.049400012  0.049895193            5 
  913000   0.88757244    -4.777959    541.46233  0.049421534  0.049867547            3 
  914000    0.8805725   -4.7986167    537.66507   0.04902125    0.0498397            4 
  915000   0.88202669   -4.7782979    541.99725  0.049362226  0.049811849            4 
  916000   0.87198378   -4.8224173    539.21203  0.049054952  0.049783961            3 
  917000   0.90002979   -4.7759905    540.43221  0.049112341  0.049756082            3 
  918000   0.91098819    -4.769626     539.7742   0.04899911  0.049727951            3 
  919000   0.89511975    -4.795279    540.62515  0.049022955  0.049699394            4 
  920000   0.87073906    -4.811687    541.13386  0.049015749  0.049671106            5 
  921000   0.88342551   -4.7937054    540.56556  0.048911107  0.049642722            8 
  922000   0.90717593   -4.7981835    540.37231  0.048840592  0.049614251            3 
  923000   0.87898461   -4.7623106    540.68475  0.048815886  0.049586158            5 
  924000   0.89325585   -4.7780631    542.93135   0.04896567  0.049557994            8 
  925000   0.87358456   -4.8034584    540.08516  0.048656321  0.049529914            4 
  926000   0.89878536   -4.7906834    543.74614  0.048933238  0.049501662            5 
  927000   0.87944399    -4.757023    543.16398  0.048828118   0.04947396            4 
  928000   0.87945496   -4.7855722    542.16729  0.048685999  0.049446067            3 
  929000   0.89462219   -4.8031578    543.36699  0.048741209  0.049418296            4 
  930000   0.87298966   -4.8111594    544.47162   0.04878778  0.049390064            7 
  931000   0.89316797   -4.8060234    543.23457  0.048624648  0.049361649            7 
  932000   0.87800578   -4.7816373    544.82827  0.048714974  0.049333449            5 
  933000   0.88414579   -4.7908864    544.41549  0.048625892  0.049305336            5 
  934000   0.86596467   -4.7755648    546.47571  0.048757647  0.049276669            7 
  935000   0.87286068   -4.8009783    543.45823  0.048436562  0.049248182            3 
  936000   0.90499452   -4.7738408    544.17373  0.048448516  0.049219504            4 
  937000   0.86601273   -4.8083582    543.85686  0.048368629  0.049190981            3 
  938000   0.87523682     -4.82482    545.23162  0.048439199  0.049162222            4 
  939000   0.86346067    -4.810338    545.13291  0.048378852  0.049133788           10 
  940000   0.89670728   -4.7903557    545.58338  0.048367321  0.049105195            8 
  941000   0.88834769   -4.7973384    547.47461  0.048483405  0.049076619           14 
  942000   0.88597587   -4.7791726    548.18752  0.048495004  0.049048532            4 
  943000   0.86758754   -4.8127316    546.77674  0.048318906  0.049020552            4 
  944000   0.85846462   -4.8122824    546.75296  0.048265621  0.048991787            2 
  945000   0.89076468   -4.8074836    549.20529  0.048430801   0.04896302            5 
  946000   0.87368619   -4.7971579    547.49613  0.048229046  0.048934285            3 
  947000   0.89967796   -4.8252037     546.6179  0.048100836  0.048905888            4 
  948000   0.87728283   -4.8164237    547.25981  0.048106524  0.048877334            6 
  949000    0.8625952   -4.8276822    549.18212  0.048224633  0.048848644            5 
  950000   0.87549087   -4.7929132    548.50935  0.048114855  0.048819993            5 
  951000   0.88397404   -4.8099053    547.73903   0.04799676  0.048791122            4 
  952000   0.89796637   -4.8162293    549.08681  0.048064322  0.048761875            4 
  953000   0.86124597   -4.7998874    548.38399   0.04795243  0.048732584            5 
  954000   0.88244436   -4.8041747    549.25031   0.04797784  0.048703435            4 
  955000    0.8682525   -4.8258668    550.91269  0.048072661  0.048674465            5 
  956000   0.86193473   -4.8014804    547.61313  0.047734757  0.048645558            2 
  957000   0.86557041   -4.8032525    550.41316  0.047928698  0.048616713            3 
  958000   0.89476237   -4.8114425    550.35495  0.047873604  0.048587863           14 
  959000   0.87510741   -4.8319738    550.30936  0.047819722  0.048559521            6 
  960000   0.86716351   -4.7952282     550.6998  0.047803802  0.048531043            7 
  961000   0.87526589   -4.8203486    552.15417  0.047880175  0.048502319            4 
  962000   0.86214897   -4.7923005    551.32086  0.047758217  0.048474325            6 
  963000   0.88607324   -4.8208813    552.95642  0.047850158  0.048446116            5 
  964000   0.87827446   -4.8265763     553.6726  0.047862431  0.048418204            3 
  965000   0.86267215   -4.8405932    552.88888  0.047745154   0.04838993            5 
  966000   0.88545448   -4.7949369    552.14815  0.047631828  0.048361875            4 
  967000   0.85575325   -4.8007889    554.76757  0.047808305  0.048333796            6 
  968000   0.86838412   -4.8365981    552.70911  0.047581707  0.048305608            4 
  969000   0.83969071    -4.849832    553.59349  0.047608659  0.048277675            7 
  970000   0.87010778   -4.8289835    553.14631  0.047521161  0.048249356            4 
  971000   0.86783432   -4.8368661    555.44251  0.047669285  0.048221248            4 
  972000   0.86346021   -4.7838272    555.02139  0.047584139  0.048193564            4 
  973000   0.88124524   -4.8177671    556.50734  0.047662499  0.048165598            4 
  974000    0.8678721   -4.8344565    555.13098  0.047495806   0.04813764            9 
  975000   0.88411393   -4.8262437    556.42412  0.047557617  0.048109431           10 
  976000   0.86522714   -4.8102754    556.13047  0.047483817  0.048081429            3 
  977000   0.86133378    -4.828782    555.11937  0.047348974  0.048053506            9 
  978000   0.85097966   -4.8290452    557.64385  0.047515666  0.048025277            9 
  979000   0.87249448   -4.8527909     555.7319  0.047304384  0.047997171            3 
  980000   0.86396551   -4.8281086    558.08916  0.047456561  0.047968368            8 
  981000   0.86868475   -4.8409932    555.09376  0.047153734  0.047939659            4 
  982000   0.85271232   -4.8082868    558.12463  0.047362919   0.04791117            6 
  983000   0.85605129    -4.820506    556.85698  0.047207272  0.047882724            3 
  984000   0.84807746   -4.8458323     555.8928  0.047077642  0.047854581            7 
  985000   0.85234165    -4.824127    557.71019  0.047183603  0.047826368            4 
  986000   0.87360642    -4.833884    558.11916  0.047170314  0.047798064            4 
  987000   0.85403419   -4.8393025    557.54522  0.047074065  0.047769994            2 
  988000   0.88498104   -4.8197899     559.5396  0.047194635  0.047741911            5 
  989000   0.86698282    -4.859007    557.18927  0.046948877  0.047713732            4 
  990000   0.87378521   -4.8404841    557.89205   0.04696061   0.04768545            7 
  991000   0.84645707   -4.8409519     560.0607  0.047095585  0.047657455            3 
  992000   0.85749459   -4.8256575    562.13591  0.047222438  0.047629605            5 
  993000   0.86337524   -4.8373882    560.23315  0.047015202  0.047601721            4 
  994000   0.85068756   -4.8448133    560.82385  0.047017425  0.047574029            6 
  995000   0.86043552   -4.8163903    563.07781  0.047158945  0.047546518            5 
  996000   0.85565842   -4.8407064    560.80302   0.04692127  0.047519175            3 
  997000   0.87690572   -4.8023726    562.31077  0.047000232  0.047491901            5 
  998000   0.85198223   -4.8317833    562.41304  0.046961677  0.047464271            5 
  999000   0.85396319   -4.8469806    563.94228  0.047042232  0.047436451            3 
 1000000   0.85515249   -4.8409035    563.46755  0.046955629  0.047408604            9 
 1001000   0.86185346   -4.8298944    562.99857  0.046869678  0.047381276            8 
 1002000   0.84196198   -4.8717452    560.67955  0.046630035  0.047353551            2 
 1003000   0.88050483   -4.8710605    564.42712  0.046894909  0.047325825            4 
 1004000   0.85517827   -4.8406621    564.91753  0.046888905  0.047298418            3 
 1005000   0.86067559   -4.8463482    563.46389  0.046721715  0.047270853            3 
 1006000   0.84804771   -4.8375273    563.59367  0.046686023  0.047242798            2 
 1007000   0.84754954   -4.8534566    564.89097  0.046747018  0.047214973            3 
 1008000   0.87616768   -4.8517757    564.75971  0.046689791  0.047187514            9 
 1009000   0.85223389   -4.8524722    564.47367  0.046619893  0.047159957            6 
 1010000   0.84713912   -4.8598801    565.26998  0.046639437    0.0471323            6 
 1011000   0.85052301   -4.8749348    563.84627  0.046475954  0.047104402            4 
 1012000   0.85988395   -4.8537314    563.45554  0.046397854  0.047076475            6 
 1013000    0.8589717   -4.8767321    565.18355  0.046494205  0.047048352            3 
 1014000   0.84286714   -4.8579237    566.92181  0.046591207  0.047020656            9 
 1015000   0.83860957   -4.8729879    563.36023  0.046252893  0.046992882            7 
 1016000   0.87319948   -4.8336205     566.9026  0.046497916  0.046965176            3 
 1017000   0.86598315   -4.8706961    566.63381  0.046430171  0.046937607            9 
 1018000   0.84248019   -4.8521204    567.80566   0.04648049  0.046909684            4 
 1019000   0.83054707   -4.8819511    565.52435  0.046248311  0.046881748            5 
 1020000   0.84568577   -4.8698664    569.00829  0.046487605  0.046854015            4 
 1021000   0.84157773   -4.8431177    568.04141  0.046363158  0.046826717            3 
 1022000   0.84871855   -4.8544805    568.34461  0.046342516  0.046799487            7 
 1023000   0.83218949   -4.8619561    569.46915  0.046388819  0.046772024            6 
 1024000   0.83836712   -4.8617321    568.16264  0.046237194  0.046744541            8 
 1025000   0.82991036   -4.8537701    569.10457  0.046268664  0.046717259            3 
 1026000   0.84916636   -4.8717129     569.9479  0.046292064  0.046689647            7 
 1027000   0.86366581   -4.8479967    570.58627  0.046298789  0.046662338            4 
 1028000   0.83359162   -4.8588231    571.06924  0.046292902  0.046635024            4 
 1029000    0.8377593    -4.875427    571.71762  0.046300423  0.046607951            6 
 1030000   0.84427523   -4.8496385    572.41767  0.046312109  0.046581316            4 
 1031000   0.83271694   -4.8677996    573.87523     0.046385  0.046554573            3 
 1032000    0.8267615    -4.867227    571.22105  0.046125731  0.046527754            5 
 1033000   0.85327725   -4.8901953    571.50369  0.046103879  0.046500931            4 
 1034000   0.84080313   -4.8955146    571.97417  0.046097209  0.046473976            4 
 1035000   0.86329902   -4.9088986    571.58324  0.046021195  0.046447271            4 
 1036000   0.83603971   -4.8637634    573.07564  0.046096818   0.04642052            4 
 1037000   0.82198676   -4.8659139    573.67873   0.04610083  0.046393674            6 
 1038000   0.84635895   -4.8433128    575.34754  0.046190393  0.046367366            6 
 1039000     0.849518   -4.8834576    575.66131  0.046171103  0.046340874            4 
 1040000   0.85699543   -4.8745617    573.99228  0.045992972  0.046314071            5 
 1041000   0.83842354    -4.873883    574.32612  0.045975514  0.046287428            6 
 1042000   0.86039671   -4.8802266    573.58838  0.045872391   0.04626085            5 
 1043000   0.82277486   -4.8818003    576.11463  0.046030252   0.04623406            2 
 1044000   0.84430075     -4.89229    573.79774  0.045801224  0.046207157           11 
 1045000   0.83145112    -4.889315    575.21615  0.045870506  0.046180247            6 
 1046000   0.83368062   -4.8826734    574.63239  0.045780146  0.046153232            5 
 1047000   0.84437265   -4.9119034    575.43645  0.045800418  0.046126447           13 
 1048000   0.85479027   -4.8748749     577.1376  0.045891984  0.046099779            8 
 1049000   0.84612471   -4.8851118    576.58506  0.045804343  0.046073033           10 
 1050000   0.81895165   -4.8872066    577.23409   0.04581223  0.046046659            6 
 1051000   0.83539707   -4.8813512    576.56651  0.045715708  0.046020209           12 
 1052000   0.83585456    -4.863971    579.90861  0.045936994  0.045993744           10 
 1053000   0.83193218   -4.9018435    577.38612  0.045693741  0.045967903            8 
 1054000    0.8459161   -4.8799266    578.70339  0.045754537  0.045941287            3 
 1055000   0.83360045   -4.8769429    579.33928  0.045761396  0.045915085            5 
 1056000    0.8431481   -4.8873473     578.6501  0.045663675  0.045888545            5 
 1057000   0.84116888   -4.8837288    579.00696  0.045648609  0.045862073            3 
 1058000   0.82242946   -4.8912755     579.8367  0.045670818  0.045835548            3 
 1059000   0.81450119   -4.8942537    578.29799  0.045506609  0.045808794            5 
 1060000   0.82876597   -4.8816708    578.10728  0.045448686  0.045782206            2 
 1061000   0.83041873    -4.898862    577.72324  0.045375686  0.045755634            5 
 1062000   0.82977898   -4.9010163    577.38883  0.045306719  0.045728926            4 
 1063000   0.82318523   -4.8946091    579.24544  0.045409645  0.045702265            4 
 1064000   0.82842258   -4.8962851    579.60122  0.045394832  0.045676132            4 
 1065000   0.83139552   -4.8863948    579.70915  0.045360653  0.045649702            9 
 1066000   0.83465491   -4.9091336    580.42049  0.045373709  0.045623175            4 
 1067000    0.8182663   -4.8910263    582.05042  0.045458484  0.045596813            5 
 1068000   0.80572063   -4.9050396    581.23098  0.045351981  0.045570255            8 
 1069000   0.81115528   -4.8858434    580.66464  0.045265407  0.045543927            4 
 1070000   0.82317434   -4.9186134    578.75254  0.045074185  0.045517378            7 
 1071000    0.8273103   -4.9153495    580.39474  0.045159877   0.04549077            4 
 1072000   0.81709186   -4.9084845    580.54485  0.045129419  0.045464066            7 
 1073000   0.81382702   -4.9081199    579.64143  0.045017197  0.045437369            4 
 1074000   0.81806738    -4.914102    580.79042  0.045064434  0.045410575           10 
 1075000   0.81765742   -4.9166043    580.94435  0.045034445  0.045383999            4 
 1076000   0.82262989   -4.9082579    579.95043  0.044915616  0.045357125           12 
 1077000   0.82003549   -4.9156189    581.23341  0.044973182  0.045330125           15 
 1078000   0.82385687   -4.9148239    579.96622  0.044833505  0.045303055            4 
 1079000   0.79986311   -4.8878194    583.14232   0.04503725  0.045276185            5 
 1080000    0.8285888   -4.9081259    582.56245  0.044950806  0.045249252            4 
 1081000   0.81935082   -4.8789845    582.83812  0.044930475  0.045222557            8 
 1082000   0.81710883   -4.8948018    583.35082  0.044928436  0.045195729            7 
 1083000    0.8234474   -4.8925911    581.68458  0.044758739  0.045168851            9 
 1084000   0.81711711   -4.9375315     580.6148  0.044635209   0.04514185            4 
 1085000   0.83159727   -4.9328338    582.05309  0.044704538  0.045114547            3 
 1086000   0.80228609   -4.9195789    581.54672  0.044624518  0.045087575            7 
 1087000   0.80831586   -4.8987985    583.87706  0.044762118  0.045060507           10 
 1088000   0.84442179   -4.9150986     583.1184  0.044662868  0.045033362            5 
 1089000   0.81530278   -4.8930968    585.47406  0.044802116  0.045006544            3 
 1090000   0.81120647   -4.9256023    583.16108   0.04458418  0.044979679            3 
 1091000   0.81283442   -4.9293807    585.38501  0.044713185  0.044952905            5 
 1092000    0.8054623   -4.9350287    583.72324  0.044545425  0.044925668           10 
 1093000   0.80672695   -4.9299326    582.83646  0.044437058  0.044898766            4 
 1094000   0.82849636   -4.9036342      586.969  0.044711228  0.044871824            8 
 1095000   0.82293969   -4.9387014    584.73478  0.044500363   0.04484522            3 
 1096000   0.82657869   -4.9119755    585.89177  0.044547732  0.044818463            3 
 1097000   0.81523475   -4.9097296    585.56046  0.044481955  0.044791612            2 
 1098000   0.82060367   -4.9222952     586.5563  0.044517023  0.044764587            3 
 1099000   0.80856118   -4.9340112    585.77988  0.044417643  0.044737483            7 
 1100000   0.80419869   -4.9418502    583.89977  0.044234831  0.044710413            5 
 1101000   0.81503188   -4.9480875    586.23154  0.044371143  0.044683507           13 
 1102000   0.83229498   -4.9218701    586.06846  0.044318546  0.044656795            5 
 1103000   0.80514375   -4.9314268      585.086   0.04420414  0.044630199           14 
 1104000    0.7843444   -4.9099595    588.71922  0.044438347  0.044603346            6 
 1105000   0.80457031    -4.949592    585.28939  0.044139471  0.044576545            6 
 1106000   0.80414146   -4.9160859    587.65295  0.044277648  0.044549855            3 
 1107000   0.80633459   -4.9359745    588.21031  0.044279608  0.044523228            3 
 1108000   0.81144815   -4.9120712    588.15242   0.04423529  0.044496481            6 
 1109000   0.82034418   -4.9274611    588.52761  0.044223595  0.044469674           11 
 1110000   0.82201476   -4.9386896    588.45698  0.044178452  0.044442936           15 
 1111000    0.8075886   -4.9418684    589.21323  0.044195412  0.044415963            7 
 1112000   0.80713776   -4.9555419     588.2656  0.044084652  0.044389096            6 
 1113000   0.81083514   -4.9215046    587.66807  0.044000305  0.044362377            3 
 1114000   0.80110599    -4.933044    587.44963  0.043944467  0.044335576            4 
 1115000   0.81900911    -4.929961    590.15917  0.044107561  0.044308949            2 
 1116000    0.8087897   -4.9398269    588.01823  0.043908172  0.044282432            5 
 1117000     0.818382   -4.9259499    590.38494   0.04404543  0.044255562            7 
 1118000   0.81707288   -4.9278239    589.83701  0.043965191  0.044228777            3 
 1119000   0.80575273   -4.9505306    588.66975  0.043838974  0.044201894            7 
 1120000   0.81089449   -4.9568737    590.38731  0.043927627  0.044174954            4 
 1121000   0.80093696   -4.9163485    591.98551  0.044007249  0.044148073            4 
 1122000   0.81169897   -4.9365684    589.22585  0.043763061  0.044121417            2 
 1123000   0.80664971   -4.9443928    591.00651  0.043856226  0.044094794            4 
 1124000   0.79995136   -4.9358159    589.74924  0.043723994  0.044068085            3 
 1125000   0.80915554   -4.9551538    590.93525  0.043772981  0.044041241            3 
 1126000   0.79783096   -4.9506293    591.42969    0.0437707  0.044014473           11 
 1127000   0.82182984   -4.9419103    591.59233  0.043743887  0.043987685            5 
 1128000   0.80322293   -4.9263878    592.39423  0.043764349  0.043961012            3 
 1129000   0.80304264   -4.9409876    592.11742  0.043705154  0.043934187            6 
 1130000   0.79900037    -4.949099    592.94339  0.043727388  0.043907458            5 
 1131000   0.81998892   -4.9556497    590.88419  0.043537002  0.043880759            7 
 1132000   0.80138847   -4.9289272    591.86131  0.043570473  0.043853841            7 
 1133000   0.79646668   -4.9608805     591.3049  0.043491093  0.043826889           10 
 1134000   0.81378412   -4.9528783    592.16871  0.043516219  0.043799696            5 
 1135000   0.79754019   -4.9755671    591.53628  0.043431445  0.043772751            5 
 1136000   0.80084568   -4.9626697     591.5869  0.043396926  0.043745892            7 
 1137000   0.82370315   -4.9556127    592.65582  0.043437102   0.04371927            6 
 1138000   0.79653103   -4.9708448    591.46984  0.043312085  0.043692521            5 
 1139000   0.79041487    -4.949596    593.62441  0.043431695  0.043665863           22 
 1140000   0.80258069   -4.9527204    593.21115  0.043363388   0.04363913            9 
 1141000   0.78507943   -4.9612374    591.70596  0.043215452  0.043612438            7 
 1142000    0.7880566   -4.9604627    594.50887  0.043382142  0.043585839            3 
 1143000    0.7703909    -4.969337    593.53967  0.043273525  0.043558976            6 
 1144000   0.77624972   -4.9556108     593.9037  0.043262216  0.043532299            7 
 1145000   0.78766918   -4.9558762    592.54534   0.04312557  0.043505582            5 
 1146000   0.79582399   -4.9502784    593.53186  0.043159676  0.043478747            6 
 1147000   0.80223087   -4.9382499    593.98768  0.043155164  0.043451974            7 
 1148000   0.79419814    -4.968064    593.45123  0.043078632  0.043425264           11 
 1149000   0.78331121   -4.9534866    594.43342  0.043112375   0.04339872            8 
 1150000    0.7990995   -4.9547333    595.03998  0.043118839  0.043372133            6 
 1151000    0.8104966   -4.9720419     596.1654  0.043162858  0.043345746            6 
 1152000   0.81886416   -4.9744377    595.36441  0.043067448  0.043319259            8 
 1153000   0.79237598   -4.9960366    595.95173  0.043072545  0.043292755            8 
 1154000   0.79995525   -4.9880393    595.13017  0.042975893  0.043266256            5 
 1155000   0.78492127   -4.9996896    596.15767  0.043012819  0.043239838            5 
 1156000   0.78313786   -4.9609927     598.9561  0.043177343  0.043213291            7 
 1157000   0.78470693   -4.9967989    596.54493  0.042966359  0.043186728            9 
 1158000   0.79452131   -4.9786363     597.4341  0.042993242  0.043160531           11 
 1159000   0.77525802   -5.0049948    597.42649    0.0429556  0.043134389            8 
 1160000   0.78870908   -4.9801791    597.28703  0.042908551  0.043107993            6 
 1161000   0.80193946   -4.9684783    597.24149  0.042868324  0.043081857           12 
 1162000   0.79877908   -5.0011578    598.61367  0.042929838   0.04305578            6 
 1163000    0.7960901   -4.9871589    597.40976  0.042806661  0.043029327           10 
 1164000    0.7954885   -4.9777967     597.8172  0.042799055  0.043003078            4 
 1165000   0.80181373   -4.9899369    599.27341  0.042866482  0.042977095           15 
 1166000   0.78099633   -4.9795308    598.83443  0.042798344  0.042950955            3 
 1167000   0.76180323   -4.9942101    598.64902   0.04274843  0.042924761            9 
 1168000   0.78189491   -4.9748755    598.76409  0.042720041  0.042898597            7 
 1169000   0.79444745   -4.9812088    600.62029  0.042815818   0.04287239            9 
 1170000   0.77917263   -4.9865456    598.67314  0.042640537  0.042846452            9 
 1171000   0.77566297   -4.9883121    600.46364  0.042731543  0.042820777            3 
 1172000   0.78250413   -5.0077445    599.68154  0.042639473  0.042794753            6 
 1173000   0.78770095   -5.0039265    600.98025  0.042695386  0.042768829            5 
 1174000   0.79733817    -4.974734    601.94855  0.042727751  0.042742997           10 
 1175000   0.80588354   -4.9931371     602.5162  0.042731645  0.042717239           13 
 1176000   0.79487238   -4.9680457     601.6054  0.042630768  0.042691519            9 
 1177000   0.78922772   -4.9857768    601.78468  0.042607242  0.042666033            3 
 1178000   0.77656349   -4.9798043     602.2387  0.042603191  0.042640523            4 
 1179000   0.79016445   -4.9889603    602.64525  0.042595791  0.042615024            5 
 1180000   0.78507519   -4.9760995    604.00401   0.04265565  0.042589543            4 
 1181000   0.77379085     -4.97676    601.69193  0.042456388  0.042563994            6 
 1182000   0.78559917   -4.9953593    604.81066  0.042640345  0.042538539            8 
 1183000   0.77638955    -4.995234    604.42815  0.042577357  0.042512879            5 
 1184000   0.79197463   -4.9889159    603.57687   0.04248148  0.042487593            7 
 1185000   0.77883891   -5.0088809    604.05395  0.042479181  0.042462366           10 
 1186000   0.79739038   -4.9869404    604.24169  0.042456555  0.042437253            8 
 1187000   0.77029091      -4.9987    602.66297  0.042309953  0.042411797            7 
 1188000   0.76412196   -5.0090525    603.55243   0.04233673  0.042386237            4 
 1189000   0.77182995   -4.9898594    604.99992  0.042402574  0.042360826            4 
 1190000     0.790875   -4.9879283     605.5669  0.042406646  0.042335567            8 
 1191000   0.77510306   -5.0028291     605.8389  0.042390072  0.042310415           13 
 1192000    0.7814323   -5.0121427    605.24681  0.042313116  0.042285146            7 
 1193000   0.77574644   -4.9857874    605.63424  0.042304711  0.042260175            7 
 1194000   0.78314485   -5.0129529    605.43566   0.04225542  0.042234996            7 
 1195000   0.77517644   -5.0112229    606.12205  0.042267925  0.042210041            5 
 1196000   0.77029907   -5.0176872    605.59624  0.042195948   0.04218457           16 
 1197000   0.79300991   -5.0034928    604.68526  0.042097275  0.042159192            3 
 1198000   0.75581927   -5.0148879    606.77259  0.042207331  0.042134032            9 
 1199000   0.77500075   -5.0058338    604.22536   0.04199509  0.042108897            7 
 1200000   0.78092882   -4.9787425    607.73568  0.042203867  0.042083737            6 
 1201000   0.77222585   -5.0280543    608.10193  0.042194139  0.042058635            6 
 1202000   0.78841226    -5.025255    604.98666  0.041943057  0.042033415            4 
 1203000   0.78289975   -4.9844506    606.76676  0.042031502  0.042007845            4 
 1204000   0.77727404   -4.9994943    606.81029  0.041999605  0.041982743            7 
 1205000   0.77458522   -4.9938267    607.75796  0.042030288  0.041957296            4 
 1206000   0.76272999    -5.020485    607.76046  0.041995609  0.041931953           10 
 1207000   0.77468491   -4.9795682     608.2186  0.041992447  0.041906532            5 
 1208000   0.77311359   -5.0280639     606.2062   0.04181886  0.041880924           11 
 1209000   0.76775898   -5.0137589    607.64422   0.04188339  0.041855243            4 
 1210000   0.78183644   -5.0011424      608.231  0.041889187   0.04182962            4 
 1211000   0.75705406   -5.0046666    607.72581  0.041819833  0.041803937            7 
 1212000   0.79519191   -5.0124036    607.13997  0.041745048  0.041778244            7 
 1213000    0.7782618   -5.0201312    606.54256  0.041669591  0.041752512            7 
 1214000   0.75319504   -5.0181858    607.33347  0.041689557  0.041726714            7 
 1215000   0.76379397   -5.0321263    607.67115  0.041678406  0.041700721            7 
 1216000    0.7583857   -5.0372809     606.3556  0.041553975  0.041674822            6 
 1217000   0.76860141   -5.0145019    608.16647  0.041643829  0.041648739            6 
 1218000   0.74373227   -5.0137838    607.05613  0.041533671   0.04162296            3 
 1219000   0.77283437   -5.0182775    607.80794  0.041550994  0.041597263            7 
 1220000    0.7853762   -5.0488347    608.17707   0.04154215  0.041571593            5 
 1221000   0.79713759   -5.0259035    608.40786  0.041523878  0.041545839            4 
 1222000   0.77917759   -5.0322665    609.21558  0.041544979  0.041520306            5 
 1223000   0.76955789   -5.0390242    609.20007  0.041509953  0.041494545            6 
 1224000   0.77355867   -5.0320742    609.89618  0.041523433  0.041469017            6 
 1225000   0.76845466   -5.0277827    608.56608  0.041399053  0.041443415            6 
 1226000   0.75313256   -5.0147619    609.96182  0.041460156  0.041417965            4 
 1227000   0.76843291   -5.0514254    607.91333   0.04128724  0.041392429            9 
 1228000   0.77240067   -5.0565368    608.67546  0.041305338  0.041366736            7 
 1229000   0.77644785   -5.0306901    609.69195  0.041340653  0.041341272            6 
 1230000   0.76409261   -5.0371976    608.55192  0.041229805   0.04131568           13 
 1231000   0.75438315   -5.0328633    609.78546  0.041279818  0.041290094            5 
 1232000    0.7639951    -5.031655    611.87952  0.041387954  0.041264624           10 
 1233000    0.7529777   -5.0145101    612.33165  0.041384945  0.041239538            4 
 1234000   0.76946825   -5.0454795    610.06861  0.041198583  0.041214403           11 
 1235000   0.76788636   -5.0572484    609.57595   0.04113198  0.041188902            4 
 1236000   0.76339118   -5.0207518    611.79096  0.041248042  0.041163686            8 
 1237000   0.76664153    -5.031827    611.89696  0.041221838  0.041138422            7 
 1238000   0.76685839   -5.0417173    609.07532  0.040998608  0.041113092           11 
 1239000   0.77179279   -5.0436802    613.07726  0.041234682    0.0410876            3 
 1240000   0.76718383    -5.031142     611.9225  0.041123824  0.041062329            5 
 1241000   0.75890428   -5.0249772    612.56483  0.041133819  0.041037192            9 
 1242000   0.75222783   -5.0570011    613.16329  0.041140854  0.041012117            5 
 1243000    0.7711552    -5.050764    613.76439  0.041148055  0.040987103            6 
 1244000   0.75004649   -5.0497087    611.56567  0.040967689  0.040961965            6 
 1245000   0.76599928   -5.0323952    612.78859  0.041016639  0.040936946           13 
 1246000    0.7543788   -5.0513468    612.20186   0.04094448   0.04091185            6 
 1247000   0.75339078   -5.0563706    612.18628  0.040910604  0.040886507            5 
 1248000   0.74875755   -5.0778459    610.13543  0.040740881  0.040861275           10 
 1249000   0.75541001   -5.0183784    614.95951  0.041030125  0.040836206            7 
 1250000    0.7480733   -5.0362725    611.53644  0.040769096  0.040811083            6 
 1251000   0.76847165    -5.045382    612.24729  0.040783859  0.040785908            6 
 1252000   0.76824989   -5.0381359    613.32554  0.040823053  0.040760791            8 
 1253000   0.74540638   -5.0469752    614.93111  0.040897254  0.040735655            3 
 1254000    0.7566783   -5.0344038      615.259   0.04088643  0.040710672            5 
 1255000   0.75754084   -5.0567171    613.73034  0.040752347   0.04068574           14 
 1256000   0.75342549   -5.0058552    614.81198  0.040791666  0.040660951            6 
 1257000   0.75956625   -5.0277543    614.68606  0.040750866   0.04063605            6 
 1258000   0.74263879   -5.0333696    615.60054   0.04077905  0.040611129            5 
 1259000   0.75838485   -5.0608897    614.76644  0.040691451   0.04058619            9 
 1260000   0.74279116   -5.0602797    613.89491  0.040601515  0.040561174            9 
 1261000   0.75747622     -5.08005    613.71316  0.040557306  0.040536149            7 
 1262000   0.76204783   -5.0552654    614.50671  0.040577569  0.040511091            3 
 1263000   0.75442932   -5.0620803    614.85833  0.040568642  0.040486004            5 
 1264000   0.73055541   -5.0629844    615.29113   0.04056508  0.040460979            5 
 1265000   0.74325828   -5.0948376    615.76602  0.040564296  0.040435729            4 
 1266000    0.7602329   -5.0428107    615.08212  0.040487238  0.040410667            8 
 1267000   0.75180696    -5.055958    616.67841  0.040560274  0.040385738            8 
 1268000   0.76332204   -5.0555814    615.48299  0.040449723  0.040360658            9 
 1269000    0.7539544   -5.0668607    616.05835  0.040455631  0.040335665            7 
 1270000   0.74871814   -5.0888714    616.05834  0.040423776  0.040310648            6 
 1271000    0.7596417   -5.0746004    614.71931  0.040304177  0.040285643            5 
 1272000   0.73610826   -5.0631063     616.2716  0.040374188  0.040260638            3 
 1273000   0.73950277   -5.0730787    615.10329  0.040265992  0.040235609            8 
 1274000   0.74663302   -5.0612628    618.69907  0.040469589  0.040210806            4 
 1275000    0.7510888   -5.0578067    615.33921  0.040218249  0.040185902            5 
 1276000   0.74834795    -5.087193    617.35909  0.040318645  0.040160904           11 
 1277000   0.75042936   -5.0712268    616.77491   0.04024895  0.040135791            5 
 1278000   0.72714238   -5.0672354    617.49669   0.04026452  0.040110763            7 
 1279000   0.74201119   -5.0651365    617.89177  0.040258781   0.04008583            5 
 1280000   0.74772996   -5.0684823    616.64116  0.040145909  0.040060876            6 
 1281000   0.75095155   -5.0673865    616.14767  0.040082466  0.040035919            7 
 1282000    0.7516176   -5.1076949    616.67148   0.04008525  0.040011058           15 
 1283000   0.75931641   -5.0833459    618.26572  0.040157555  0.039986036            8 
 1284000   0.73612779   -5.0920702    618.59065  0.040147369  0.039961269            8 
 1285000   0.73884677   -5.0707558    618.69855  0.040123123  0.039936665            6 
 1286000    0.7329407   -5.0680276    617.15653  0.039991999   0.03991191            5 
 1287000   0.72381483    -5.088038    619.56274  0.040116727  0.039887186            9 
 1288000   0.74781692     -5.07325    618.58846  0.040022545  0.039862739            6 
 1289000   0.73252262   -5.0835284    619.62228  0.040058332  0.039838256            7 
 1290000   0.73342564   -5.0707298    618.62899  0.039963113  0.039813673            8 
 1291000   0.73909009   -5.0740968    619.51334  0.039989242  0.039789161            5 
 1292000   0.75239993   -5.0701553    620.59493  0.040028053  0.039764606            9 
 1293000   0.75499732   -5.0724578    619.19054  0.039906583  0.039739894            9 
 1294000   0.74027125   -5.1086728    620.50689  0.039960516  0.039715442            9 
 1295000   0.73262587   -5.0890505    619.42573  0.039860085  0.039690976            8 
 1296000    0.7418224   -5.0865832    621.21873   0.03994462  0.039666489           12 
 1297000   0.72383907   -5.0875774    619.78484  0.039821693  0.039642079            6 
 1298000    0.7432068   -5.0994496    620.25499  0.039821198  0.039617596            9 
 1299000   0.72983621    -5.074108    622.37806  0.039926742  0.039593242            8 
 1300000   0.74862334    -5.085457    620.89277  0.039800818  0.039568865           10 
 1301000   0.74014135   -5.0865837    622.00605  0.039841535  0.039544665            6 
 1302000   0.72604136   -5.0975816    622.53437   0.03984475  0.039520143            9 
 1303000   0.74572382   -5.1000116    620.37702  0.039676197  0.039495988            7 
 1304000   0.73484545   -5.1181736    620.67564  0.039664854  0.039471855            8 
 1305000   0.72332121   -5.0930778    620.57828  0.039628242   0.03944759           10 
 1306000   0.73725394   -5.0807135    621.41777  0.039651466  0.039423242            4 
 1307000   0.72654169   -5.0765537    621.65037  0.039635958  0.039399108           12 
 1308000   0.73489746   -5.1212439    620.73124  0.039547097  0.039374818           10 
 1309000   0.74667432   -5.0790462    624.62929  0.039765042  0.039350674            4 
 1310000   0.72445759   -5.1117376    621.55012  0.039538812  0.039326639           11 
 1311000   0.72901209    -5.119418    622.95752  0.039598114  0.039302377           10 
 1312000   0.73131883      -5.1011    622.40879  0.039533079  0.039278375            7 
 1313000   0.72539294   -5.0876025    623.46667  0.039570111  0.039254359           12 
 1314000   0.72383454   -5.1111983    622.90638  0.039504463    0.0392304            6 
 1315000    0.7379102   -5.0855056    623.60399   0.03951863  0.039206605            6 
 1316000   0.73271636    -5.139266    623.61889  0.039489545  0.039182542           12 
 1317000   0.73328906   -5.1086011    623.21414   0.03943395  0.039158506            8 
 1318000   0.72796437    -5.114812     622.8303  0.039379761  0.039134367           24 
 1319000   0.71251783   -5.1082042    623.95484  0.039420953  0.039110246            8 
 1320000   0.73152168   -5.0967423    622.96382  0.039328524  0.039086123            4 
 1321000   0.71591355   -5.1100594    623.74853  0.039348254  0.039062057            7 
 1322000   0.72996821   -5.0998352    623.54144  0.039305436  0.039038075            5 
 1323000    0.7264684   -5.1215834    623.77837   0.03929065   0.03901411            4 
 1324000   0.73514314   -5.1080236    625.78835  0.039387484  0.038990445            9 
 1325000   0.72690679   -5.1293687     625.2099  0.039321377  0.038966621            9 
 1326000   0.70795761   -5.1299403    624.40075  0.039240872   0.03894284           11 
 1327000   0.71934757   -5.1202771    625.37558  0.039272518  0.038919059            7 
 1328000     0.738259   -5.1308128    623.52854  0.039127042  0.038895316            6 
 1329000    0.7143557   -5.1136564    625.82685  0.039241714  0.038871419           13 
 1330000   0.72412481   -5.0990388    626.98796   0.03928496  0.038847716           10 
 1331000   0.73231865   -5.1033932    627.29026  0.039274372  0.038824069           11 
 1332000    0.7081588   -5.1193887    625.63064  0.039141056  0.038800375           10 
 1333000   0.73076083   -5.0992045    625.33019   0.03909291  0.038776787            9 
 1334000   0.70558487   -5.1169973    626.91298   0.03916248   0.03875303            6 
 1335000   0.74012709   -5.1290277    625.68936  0.039056764  0.038729098           10 
 1336000   0.73657447   -5.1539557    625.85117  0.039037623  0.038705027           10 
 1337000   0.71733097   -5.1331885    624.81254  0.038943689  0.038680864            4 
 1338000   0.72391847   -5.1052182    626.91405  0.039045469  0.038656708            5 
 1339000   0.71999437   -5.0851675    626.59879  0.038996688   0.03863287            6 
 1340000   0.70331307   -5.1174927     627.4229  0.039018837  0.038609015            5 
 1341000   0.71338866   -5.1325445    626.24985  0.038916844   0.03858514            6 
 1342000   0.72074124   -5.1345789    627.41144  0.038959975  0.038561374            4 
 1343000   0.71293312   -5.1558433    624.06634  0.038723401  0.038537524            8 
 1344000   0.72730115   -5.1257303    626.98872  0.038875789  0.038513736           11 
 1345000   0.70465105   -5.1157155    626.90024  0.038841403  0.038489981           19 
 1346000   0.71005747   -5.1269692    627.42071  0.038844769  0.038466329            6 
 1347000   0.71916901   -5.1616894     628.0739  0.038856341  0.038442441            8 
 1348000   0.71457468   -5.1307885    627.36666  0.038783794  0.038418765            4 
 1349000    0.7336812   -5.1229923    627.69434  0.038775287  0.038394939           10 
 1350000   0.71769431   -5.1340988     626.8411  0.038693895  0.038371166            8 
 1351000   0.72585366   -5.1444607    627.83407  0.038726503  0.038347549            4 
 1352000   0.71669416   -5.1603594    628.32929  0.038728384  0.038323964            6 
 1353000   0.72547796   -5.1298128    630.40556   0.03882764  0.038300514           13 
 1354000   0.70769033   -5.1347329    630.93283  0.038831415  0.038277005            4 
 1355000   0.70460828   -5.1497851    628.14806  0.038631492  0.038253581            5 
 1356000   0.70116103   -5.1283761    629.82945  0.038706333  0.038230086            4 
 1357000   0.70425621   -5.1397785    629.21424   0.03864003  0.038206806           19 
 1358000   0.70165429   -5.1406511    630.15144  0.038669087    0.0381835           12 
 1359000   0.72525614   -5.1685352    628.21109  0.038521651  0.038159815            7 
 1360000   0.69871119   -5.1099007    630.20032  0.038615216  0.038136154           16 
 1361000   0.70749748   -5.1487974    628.42214  0.038477966   0.03811268            4 
 1362000    0.7267228   -5.1580368    629.25402  0.038500613   0.03808909           11 
 1363000   0.70788355   -5.1157818     628.7496  0.038441526  0.038065631            7 
 1364000    0.6945133   -5.1346612     630.6787  0.038531201  0.038042144            6 
 1365000   0.70401584    -5.145575    628.96755  0.038398507  0.038018687            7 
 1366000   0.70387595   -5.1535787    631.11742   0.03850155  0.037995238            9 
 1367000   0.71319685    -5.134576     630.1342  0.038413448  0.037971954            7 
 1368000   0.71147119   -5.1595755    627.69157  0.038236572  0.037948547            8 
 1369000   0.71518036   -5.1728746     627.9738  0.038225822  0.037924898           19 
 1370000   0.70621593   -5.1382507    630.09632  0.038327027  0.037901231           13 
 1371000    0.7054765   -5.1474589    628.87224  0.038224668  0.037877521           11 
 1372000     0.698094   -5.1460885    631.16251  0.038335915  0.037854051           14 
 1373000   0.71291397   -5.1530275    630.88522  0.038291164  0.037830661            6 
 1374000   0.69536666   -5.1384381    631.95303  0.038328059  0.037807263            4 
 1375000   0.71761852   -5.1597534    631.84952   0.03829391  0.037783972            3 
 1376000   0.71252899   -5.1301633     632.3722  0.038297735  0.037760653            6 
 1377000   0.71571067   -5.1636607    629.98883  0.038125686  0.037737215           14 
 1378000   0.72985326   -5.1954661    630.69727  0.038140861  0.037713706           19 
 1379000   0.72228706   -5.1450599    631.64195   0.03817029  0.037690732           25 
 1380000   0.69770964   -5.1589525    633.65996   0.03826449  0.037667806           11 
 1381000   0.68063597    -5.177537    632.84748  0.038187755   0.03764459            7 
 1382000   0.71075811   -5.1361622    631.78925  0.038096313  0.037621284            7 
 1383000   0.70251028    -5.171914    633.09806   0.03814763  0.037598101            6 
 1384000   0.69368443   -5.1511808    634.55999  0.038208092  0.037575054            6 
 1385000   0.69806011    -5.188181    631.82062  0.038015681  0.037552074            8 
 1386000   0.69825537   -5.1639147    633.46705  0.038087245  0.037528842           18 
 1387000   0.71052737   -5.1680379    635.07445   0.03815636  0.037505979            9 
 1388000   0.69582532   -5.1682054    633.20679  0.038016738  0.037483057           12 
 1389000   0.70299536   -5.1685975     633.4806  0.038005795  0.037460056           14 
 1390000   0.72264655   -5.1454059    636.27249  0.038145833  0.037437078            5 
 1391000    0.7101886   -5.1537643    634.03247  0.037984212   0.03741422            8 
 1392000   0.68956918   -5.1708478    633.86592  0.037946954  0.037391278            4 
 1393000   0.69898275   -5.1706411    634.12842  0.037935416  0.037368352           13 
 1394000   0.69608538    -5.156751    635.00102  0.037960367  0.037345458            6 
 1395000    0.7011163   -5.1429683    633.16784  0.037823646  0.037322554            4 
 1396000   0.68602905   -5.1947162     633.7861  0.037833458  0.037299637            8 
 1397000   0.69363822   -5.2038116     633.8915  0.037812664  0.037276667           32 
 1398000   0.69385217   -5.1647594    635.38725  0.037874777  0.037253732            4 
 1399000    0.7054581   -5.1552449    635.01754  0.037825681  0.037230804            6 
 1400000    0.6911299   -5.1898586    633.74845  0.037723122  0.037207873           11 
 1401000   0.69977882   -5.1813879    635.48565  0.037799527  0.037184813            3 
 1402000     0.689139   -5.1896745    635.84204  0.037793749  0.037161886            8 
 1403000    0.7109726   -5.1576574    635.18588  0.037727838  0.037139013            5 
 1404000   0.67162033   -5.1737424    634.97193  0.037688267  0.037116141           10 
 1405000   0.70619981   -5.1953186    634.00977  0.037604375  0.037093301            9 
 1406000   0.68639764    -5.188268    635.89941  0.037689629  0.037070485           21 
 1407000   0.68527485   -5.1772738    634.65538   0.03758916  0.037047654            7 
 1408000   0.69546499   -5.1876832    637.22072  0.037714295  0.037024903           12 
 1409000   0.69402405    -5.192964    635.79441  0.037603171  0.037001976            9 
 1410000   0.69492428    -5.180993    637.80845  0.037695535  0.036979192            7 
 1411000   0.70050713   -5.1722072    636.85956  0.037612778  0.036956402            9 
 1412000   0.68911645   -5.2067857    634.38259  0.037439954  0.036933579           16 
 1413000    0.6844298   -5.2059512    634.63251  0.037428197  0.036910517            6 
 1414000   0.69205642   -5.1910056    635.56457  0.037456658  0.036887656           14 
 1415000   0.69881583   -5.1850839    637.06919  0.037518798  0.036864858            9 
 1416000   0.68465373   -5.1936802    636.58899  0.037464041  0.036842128            6 
 1417000   0.68384693   -5.2019362    635.14505  0.037352684  0.036819391            6 
 1418000   0.68925617   -5.1717732    635.11464  0.037324556  0.036796573            8 
 1419000   0.69509034   -5.2033122    635.71672   0.03733361  0.036773679            6 
 1420000   0.69457038   -5.1942911    634.95866  0.037262832  0.036750789           10 
 1421000   0.67404751   -5.2113224    636.64855  0.037335712  0.036727923           11 
 1422000   0.68394891   -5.2005914     635.1719   0.03722292  0.036705207            5 
 1423000   0.67537908   -5.2099558    635.06654  0.037190591  0.036682273            6 
 1424000   0.69630713   -5.1913336    636.21393   0.03723162  0.036659368            9 
 1425000   0.69045336   -5.2143325    636.06127  0.037196565   0.03663642            6 
 1426000   0.67684223   -5.2017364    637.37136   0.03724704  0.036613459            6 
 1427000   0.68752504   -5.1935494    635.70849  0.037123832  0.036590552            7 
 1428000   0.68581637   -5.2003741    637.45414  0.037199705  0.036567741           10 
 1429000   0.68662093   -5.2027386    635.95808  0.037086429  0.036544981           20 
 1430000   0.68656542   -5.1941082    636.98062  0.037120083  0.036522261           13 
 1431000   0.68798294   -5.2101008    636.06701   0.03704094  0.036499589           10 
 1432000   0.68481233   -5.2072694    637.30213  0.037086949  0.036477223            4 
 1433000   0.67742009     -5.19307    639.40681  0.037183462  0.036454668            5 
 1434000   0.67420889   -5.1921417    636.85333  0.037009143  0.036432043            5 
 1435000   0.68313636   -5.2032752    637.28265  0.037008284  0.036409263            5 
 1436000   0.67656087   -5.2225499    635.11983  0.036857001  0.036386504            7 
 1437000   0.68055255   -5.1854681    637.17759  0.036950684  0.036363766           16 
 1438000   0.67597812   -5.2073703    637.90576  0.036967186  0.036341123           12 
 1439000   0.67632979   -5.1921095    636.84155  0.036879868  0.036318357           12 
 1440000   0.68914778   -5.1988412     637.4933  0.036891973  0.036295638           13 
 1441000   0.69186969   -5.2078973    638.85792  0.036945288  0.036273034            4 
 1442000   0.67647109   -5.2178574    638.71889  0.036911632  0.036250363            5 
 1443000   0.68940815   -5.1993477    637.76467  0.036830946  0.036227743            9 
 1444000   0.67163935    -5.204459    639.40514  0.036900112  0.036205223           19 
 1445000   0.66475879   -5.2335822    638.40715  0.036817021  0.036182748           29 
 1446000   0.67672685   -5.1991389    637.13304  0.036718133  0.036160131            6 
 1447000   0.66616462   -5.2431191    638.10009   0.03674845  0.036137576            7 
 1448000   0.68812949   -5.2087968    637.19726  0.036671113  0.036114959            9 
 1449000   0.67327316   -5.2028423    639.19219  0.036760535  0.036092462           10 
 1450000   0.67094772   -5.2118185     638.0296  0.036668368  0.036069796           10 
 1451000    0.6655175   -5.2240254    639.23978    0.0367126  0.036047075           11 
 1452000   0.66511974   -5.2236353    639.30141  0.036690852  0.036024511            9 
 1453000   0.67374904   -5.2294075    638.60653  0.036625747  0.036002033            9 
 1454000   0.68627208   -5.2124572    641.63819  0.036774312  0.035979609            8 
 1455000   0.67538032   -5.2124245    638.24974  0.036554968  0.035957116            7 
 1456000   0.67228263   -5.2212107    638.21374  0.036527801  0.035934478            6 
 1457000   0.67343879   -5.2115457    639.47938  0.036575119  0.035911738           10 
 1458000   0.66842899   -5.2268991    637.84219  0.036456458  0.035889085            8 
 1459000    0.6612707   -5.2360863    638.60075  0.036474797  0.035866443           11 
 1460000   0.66493146   -5.2263317    639.55787  0.036504444  0.035843819            8 
 1461000   0.65913873   -5.2267743    639.01859  0.036448699  0.035821247            9 
 1462000   0.67736231   -5.2330788    639.17084  0.036432446  0.035798605           12 
 1463000   0.68346388   -5.2484931    638.18414  0.036351341  0.035776028           12 
 1464000   0.65356002   -5.2379405    638.39626  0.036338585  0.035753414           20 
 1465000   0.66083208   -5.2467142    639.67659  0.036386609  0.035730787           12 
 1466000   0.65923912   -5.2629593    639.29361  0.036340019  0.035708365            7 
 1467000   0.66660685    -5.225974    640.09555  0.036360801  0.035686063            9 
 1468000   0.67565018   -5.2192372    641.85758  0.036436057  0.035663872           14 
 1469000   0.68142517   -5.2221343    641.99077  0.036418809  0.035641792            7 
 1470000   0.65166487   -5.2167596    639.85452  0.036272932   0.03561941           23 
 1471000    0.6656617   -5.2503299    639.16256  0.036209073  0.035597028           10 
 1472000   0.64816408   -5.2219542    640.29179  0.036248403  0.035574507           10 
 1473000   0.68225384   -5.2430181    638.52792  0.036124006   0.03555201            7 
 1474000   0.68497777   -5.2409501    639.48621  0.036153675  0.035529494           18 
 1475000   0.67696064   -5.2427061    640.03259  0.036160033   0.03550709            9 
 1476000   0.65946024    -5.265172    639.50366  0.036105672  0.035484573           14 
 1477000   0.65462534    -5.249995    640.34628  0.036128768  0.035462092           11 
 1478000   0.66509132    -5.263753     638.8222  0.036018392  0.035439481           15 
 1479000   0.65690129   -5.2184574    641.66103  0.036153991  0.035417044           12 
 1480000   0.66167614   -5.2474758    640.11007  0.036042234  0.035394521            8 
 1481000   0.66832846   -5.2477772    640.24214  0.036025329   0.03537196           11 
 1482000   0.66051855   -5.2391855    641.07092  0.036047623  0.035349313            4 
 1483000   0.64765217   -5.2371812    639.14969  0.035915357  0.035326717           15 
 1484000   0.64943333   -5.2673575    639.34405  0.035902069  0.035304129           20 
 1485000   0.65675894   -5.2216245    639.92542  0.035910518  0.035281617           10 
 1486000   0.66280114   -5.2481679    642.14943  0.036011072  0.035259325            7 
 1487000   0.66196171   -5.2547119    639.23826  0.035823709  0.035236876            7 
 1488000   0.66162243   -5.2602599    639.95306  0.035839665  0.035214498            8 
 1489000   0.66190338   -5.2524945    640.60798  0.035852249  0.035191934            9 
 1490000   0.65894756   -5.2584381     640.0744  0.035798345  0.035169402           10 
 1491000   0.66758083   -5.2482293    640.50069   0.03579816  0.035146945           11 
 1492000   0.66221581   -5.2495254    639.85005  0.035737827  0.035124478            3 
 1493000    0.6663186   -5.2514353    641.85936  0.035826042  0.035102052            9 
 1494000   0.64654933   -5.2759054    639.51308  0.035671189  0.035079425            9 
 1495000   0.64901069   -5.2380429    641.43228  0.035754308  0.035056903            8 
 1496000   0.63957545   -5.2657584    638.00124  0.035539285  0.035034278           10 
 1497000   0.64501217   -5.2924705    638.59477  0.035548584  0.035011624            5 
 1498000   0.65431881   -5.2662842    640.70619  0.035642311  0.034989082            7 
 1499000   0.65680524   -5.2585867    638.76431   0.03551058  0.034966481            7 
 1500000   0.64868392    -5.289764    639.70453  0.035539141  0.034943802           16 
 1501000   0.65692371   -5.2744013    639.13508  0.035483849  0.034921266           10 
 1502000   0.64026113   -5.2557767    642.46416  0.035644927  0.034898757           24 
 1503000   0.65791237   -5.2892451    640.00425  0.035484822  0.034876206            5 
 1504000   0.67540945   -5.2521701     640.8148  0.035506139  0.034853722           10 
 1505000   0.65629188   -5.2557764    641.54995  0.035523253  0.034831383           12 
 1506000   0.66510419   -5.2643289    641.20639  0.035480655  0.034809134           22 
 1507000   0.65945691   -5.2486008    642.35005  0.035520352  0.034786886           12 
 1508000   0.65187828   -5.2532716    640.55543  0.035397625  0.034764517            6 
 1509000   0.65054907   -5.2909983    642.37211  0.035474492  0.034742213           33 
 1510000    0.6535564   -5.2558241    642.52507  0.035459441  0.034720005           13 
 1511000   0.64655207   -5.2762222    641.48973  0.035378873  0.034697702           13 
 1512000   0.65166194   -5.2994215    642.09249  0.035388695  0.034675416           20 
 1513000   0.64327645   -5.2662415    641.81174  0.035349843  0.034653111           10 
 1514000   0.65175187    -5.301587    641.67923    0.0353192  0.034630844           11 
 1515000   0.64582782   -5.2832763    641.28841   0.03527439  0.034608508           19 
 1516000   0.64070128   -5.2919451    641.35447  0.035254753  0.034586327           12 
 1517000   0.66317832   -5.2665876    641.62544  0.035246398  0.034564253            9 
 1518000   0.64265657   -5.2385561     643.7508  0.035339855  0.034542174            9 
 1519000   0.65092049   -5.2757589    641.85672   0.03521268  0.034520179            6 
 1520000   0.65064059   -5.2491676    645.30032  0.035378307  0.034498324           14 
 1521000   0.64880565   -5.2733398    644.38706  0.035305011  0.034476475           11 
 1522000   0.65664602   -5.2661047    644.36629  0.035280677  0.034454535           17 
 1523000   0.63745976   -5.2566156    643.74521  0.035223529   0.03443254            7 
 1524000   0.63207637   -5.2522523    642.99175  0.035159217  0.034410557            8 
 1525000   0.63528584   -5.2753219    642.39285  0.035103435  0.034388617            8 
 1526000   0.63689783   -5.2886063    642.11741  0.035065389  0.034366568           60 
 1527000   0.63955182   -5.3000301    641.77864  0.035023938  0.034344328           10 
 1528000   0.65899049   -5.3056785    641.45004  0.034983096  0.034322024           11 
 1529000   0.62672325   -5.3038322    642.17019  0.034999465  0.034299768           12 
 1530000   0.63864972   -5.2951663    643.83481  0.035067256  0.034277685           27 
 1531000   0.64963231   -5.2852933    643.92312  0.035049158  0.034255666           23 
 1532000   0.65011458    -5.297721    643.25169  0.034989757  0.034233594            8 
 1533000   0.63131215   -5.3169376    641.82938  0.034889616   0.03421155            7 
 1534000   0.63466707   -5.2908775    644.69491  0.035022539  0.034189623           12 
 1535000   0.64132243   -5.2892982     643.8974  0.034956428  0.034167608            8 
 1536000   0.64375205   -5.3062852    644.58699  0.034971082  0.034145559           10 
 1537000    0.6403844   -5.3032344    643.53416  0.034891247  0.034123675           18 
 1538000   0.63089876   -5.3054559    644.17234  0.034903139  0.034101746            8 
 1539000   0.62926789    -5.264557     644.4628  0.034896188   0.03407981           10 
 1540000   0.64143208   -5.2946219    642.27159  0.034754956  0.034057833            6 
 1541000   0.62693778   -5.3047707    644.15263  0.034834124  0.034035955            8 
 1542000   0.64437824   -5.3131951    644.22444  0.034815415  0.034014044            8 
 1543000   0.63585041   -5.3061903    641.77956   0.03466081  0.033992005           21 
 1544000   0.63610514    -5.277344     644.9666  0.034810373  0.033969988           24 
 1545000   0.63491655   -5.3166895    642.35375  0.034646912  0.033948094            9 
 1546000   0.65205626   -5.3291505    641.77108  0.034593094     0.033926           17 
 1547000   0.63781853     -5.31032    642.69111  0.034620292  0.033903967            7 
 1548000   0.63217845   -5.2838336    643.99353  0.034668041  0.033881888            6 
 1549000     0.624138   -5.3047549    642.97642  0.034590942  0.033859853            9 
 1550000   0.62378342   -5.3136163    641.39231  0.034483458  0.033837636            9 
 1551000   0.64668918   -5.2983777    643.36965  0.034567464  0.033815551           11 
 1552000   0.63170643   -5.3211296    642.58203  0.034502901  0.033793539           17 
 1553000   0.63124381   -5.3312537    642.89238  0.034497338  0.033771539           14 
 1554000   0.63926819   -5.3209216    644.14199  0.034542149  0.033749525           25 
 1555000   0.64078342   -5.3222654    641.79337  0.034394071  0.033727456            6 
 1556000   0.62306925   -5.3122919    643.18935   0.03444673  0.033705436            8 
 1557000   0.62832179   -5.3224393    644.51046  0.034495315  0.033683411           13 
 1558000   0.63218031   -5.3047884    643.71404  0.034430576  0.033661459            9 
 1559000   0.60723438   -5.3114493    642.50166  0.034343685  0.033639399           18 
 1560000   0.64032829   -5.3389175    642.84105    0.0343398  0.033617288           11 
 1561000   0.62242647   -5.3383531    643.20387   0.03433717  0.033595287           12 
 1562000   0.62942783   -5.3356441    641.38318  0.034218053  0.033573271           28 
 1563000   0.63789351   -5.3350982    641.66049  0.034210945  0.033551101           20 
 1564000    0.6144687   -5.3241081    642.50469  0.034234052  0.033528997           10 
 1565000   0.63091758   -5.3157132    642.16499  0.034194089  0.033506888            8 
 1566000   0.62009517   -5.3271412    645.29069  0.034338585  0.033484905           11 
 1567000   0.63276205    -5.327608    641.92535  0.034137702  0.033463009           12 
 1568000   0.61892762   -5.3066658    642.97299  0.034171609  0.033441099           16 
 1569000   0.63545449   -5.3244935    644.88308  0.034251279  0.033419216           19 
 1570000   0.63280315   -5.3155719    643.46687  0.034154293  0.033397309           18 
 1571000   0.62236567   -5.3116953    643.28701  0.034123012  0.033375373           14 
 1572000   0.62992043   -5.3258862    644.14391   0.03414673  0.033353481            7 
 1573000   0.60882974    -5.315909     644.3605  0.034136496  0.033331742           12 
 1574000   0.63792155     -5.32371    643.89472  0.034090148  0.033309971           10 
 1575000   0.61288132   -5.3304148    643.60496  0.034053172  0.033288192            5 
 1576000   0.62349819   -5.3355072    644.03064  0.034054073  0.033266425           14 
 1577000   0.62511799   -5.3277522    643.50527  0.034004717  0.033244629           22 
 1578000   0.61088631   -5.3262918    642.76886  0.033944279  0.033222691           15 
 1579000   0.61419927   -5.3349113    644.58157  0.034018449  0.033200798           16 
 1580000   0.63780667   -5.3287203    642.74222  0.033899906  0.033178908           11 
 1581000   0.62101344   -5.3428262    644.25876    0.0339584  0.033156944           18 
 1582000   0.61819487   -5.3300509    642.83189  0.033861772  0.033135028           14 
 1583000   0.61754907   -5.3334161    644.27868  0.033916545  0.033113121           18 
 1584000   0.62829797   -5.3052138    644.91958   0.03392885   0.03309132           12 
 1585000     0.609303   -5.2948111    643.22905  0.033818562  0.033069735           18 
 1586000   0.61583818   -5.3309261    643.46304  0.033809533  0.033048067           24 
 1587000   0.60849432   -5.3288035     643.9938    0.0338161  0.033026382           10 
 1588000   0.61320637   -5.3233638    644.40938  0.033816613  0.033004544           17 
 1589000   0.62634857   -5.3486045     645.0906  0.033831057  0.032982785           14 
 1590000   0.61615408   -5.3710789    643.43024  0.033722759  0.032960851           14 
 1591000   0.61540392   -5.3203659     642.8617  0.033671784  0.032938995           25 
 1592000   0.61984364   -5.3457871    643.56934  0.033687675  0.032917134           11 
 1593000   0.62828872   -5.3229602    644.62524  0.033721764  0.032895343           12 
 1594000   0.61578172   -5.3506793     644.6842  0.033703691  0.032873534            9 
 1595000   0.62308892    -5.349018    642.01819   0.03354327  0.032851642           27 
 1596000   0.63517419   -5.3766072    641.85691  0.033513832  0.032829819            6 
 1597000   0.63124435   -5.3291844    644.29215   0.03361992   0.03280811           19 
 1598000   0.61457058   -5.3397716    643.57967  0.033561727  0.032786346           11 
 1599000    0.6144005   -5.3547062    644.19645  0.033572881  0.032764634           14 
 1600000   0.61579311   -5.3356718    646.45966  0.033669774  0.032742965           19 
 1601000   0.62046242   -5.3353174      644.371  0.033540027  0.032721348            7 
 1602000    0.6262424   -5.3676033    643.54054  0.033475892  0.032699733           10 
 1603000   0.61367206   -5.3560051    646.68384  0.033618415  0.032678031            7 
 1604000   0.62163386   -5.3382358    644.47337  0.033482615  0.032656399           13 
 1605000   0.61770413   -5.3499623    645.97967  0.033539962  0.032634772           27 
 1606000   0.61365936   -5.3386785    644.81063  0.033458418   0.03261324           15 
 1607000   0.61731192     -5.34956    644.44194  0.033418479  0.032591687           30 
 1608000   0.60694374   -5.3582542    646.52053  0.033505417  0.032570263            5 
 1609000   0.61905058   -5.3580333    643.48839  0.033327553  0.032548757           15 
 1610000   0.59988608   -5.3822589    644.68742  0.033368914  0.032527183           16 
 1611000   0.61816742   -5.3739391    644.37925   0.03333226  0.032505644           31 
 1612000   0.60940109   -5.3488688    645.18553  0.033353263  0.032484147           11 
 1613000   0.60799466   -5.3739018    645.53837  0.033350815  0.032462594            8 
 1614000   0.61345714   -5.3538962    644.90164  0.033297276  0.032441003           20 
 1615000   0.60703783   -5.3620007    643.58992  0.033208974  0.032419587           21 
 1616000   0.61504655   -5.3767355    644.06234  0.033212786  0.032398051            6 
 1617000   0.59810666   -5.3593484    645.35936  0.033259089  0.032376575           27 
 1618000   0.61633532   -5.3624956    645.64284  0.033253133  0.032355081           13 
 1619000   0.60386624   -5.3838939    643.36613  0.033115407  0.032333545           18 
 1620000   0.62039823   -5.3714148    643.95162  0.033125083  0.032311999           14 
 1621000   0.60936826   -5.3979405    645.35107  0.033176592  0.032290294           24 
 1622000   0.61186177   -5.3660058    644.98572  0.033137367  0.032268761           22 
 1623000   0.61008748   -5.4013309    643.82853  0.033057534   0.03224732           12 
 1624000   0.60872824    -5.378228    645.84599  0.033140702  0.032225985           14 
 1625000   0.60180365   -5.3789099    645.11279  0.033082707  0.032204609            7 
 1626000   0.61451656    -5.382356    645.42229  0.033078223  0.032183269            7 
 1627000   0.61016208   -5.3750112    643.95649  0.032982816  0.032161871            9 
 1628000   0.60636193   -5.3800204    643.81871  0.032955503  0.032140436           16 
 1629000   0.60177319   -5.3603672     645.8158  0.033037436  0.032118976           12 
 1630000   0.59740624   -5.3618638    644.75972  0.032963176  0.032097686           18 
 1631000   0.60155821   -5.3573574     644.8876  0.032949499  0.032076389           15 
 1632000   0.59654651   -5.3847042    645.37408  0.032954151  0.032054961           34 
 1633000   0.60810952   -5.3842753    644.49098  0.032888905  0.032033545           11 
 1634000   0.59372502    -5.366255    644.77665  0.032883346  0.032012223           24 
 1635000   0.60679698   -5.4059259    644.78757   0.03286379  0.031990931           10 
 1636000   0.59768645   -5.3782828    644.85663   0.03284722  0.031969547           14 
 1637000   0.58754992   -5.3572663    645.60132  0.032865064   0.03194823           11 
 1638000   0.59878148   -5.3934267    645.26175  0.032827724  0.031926942           16 
 1639000   0.60506897   -5.3893126    644.89665  0.032789132  0.031905584           14 
 1640000   0.61403191   -5.3623293    645.99578  0.032824989   0.03188419           25 
 1641000   0.60781484    -5.381622    645.37459  0.032773441  0.031862739           14 
 1642000   0.60368848   -5.3851129     644.5966  0.032713997  0.031841328           29 
 1643000   0.61296282   -5.3480306    646.05949  0.032768284  0.031819935           11 
 1644000   0.58820134   -5.3764788    644.25621  0.032656945  0.031798586            8 
 1645000   0.59742939   -5.3910837    644.00734  0.032624485  0.031777209            9 
 1646000   0.59772391   -5.4019786    642.32021  0.032519249   0.03175568           22 
 1647000   0.60699495   -5.4044318    643.51932  0.032560176  0.031734232           30 
 1648000   0.59471834   -5.3961747    643.74619  0.032551891  0.031712738           23 
 1649000   0.60102976   -5.3908339     643.2349  0.032506312  0.031691236           27 
 1650000   0.58988788   -5.4007455    646.14923    0.0326338  0.031669762           61 
 1651000   0.60458012   -5.3891482     644.1311  0.032512169  0.031648348           28 
 1652000   0.60309328   -5.3966626    644.40946   0.03250653  0.031627022           38 
 1653000   0.60226309   -5.3967435    644.64617  0.032498799  0.031605719           11 
 1654000   0.58324917   -5.4073641    642.61107  0.032376616  0.031584371            8 
 1655000   0.58962847   -5.3929364    642.82627  0.032367889  0.031563006           15 
 1656000   0.58825822   -5.4091266    643.88278  0.032401509   0.03154166           21 
 1657000   0.59412532   -5.3825536    643.58071  0.032366763  0.031520271           11 
 1658000   0.59234578   -5.4069167    644.62044  0.032399499  0.031499065            7 
 1659000   0.58774316   -5.4004966    642.56771  0.032276859  0.031477871           11 
 1660000   0.60001358   -5.3963615    644.36989  0.032347886  0.031456627           33 
 1661000    0.5807556   -5.4010436    644.63351  0.032341637  0.031435378           12 
 1662000   0.59932069    -5.413766     642.9772   0.03223913   0.03141405           16 
 1663000   0.58726132   -5.4180254    642.24467  0.032183036  0.031392757           14 
 1664000   0.58370632   -5.4188071    644.50651  0.032276968  0.031371516           14 
 1665000   0.58738083   -5.4217241    645.78577   0.03232161  0.031350339           11 
 1666000   0.59059764   -5.4175551    642.50256  0.032137983  0.031329086           24 
 1667000   0.58382178   -5.4097628    644.73199  0.032230154  0.031307745           51 
 1668000   0.59429382   -5.4197547    642.76378  0.032112499   0.03128639           31 
 1669000   0.57039022   -5.4231748    643.25766  0.032117918  0.031264948           25 
 1670000    0.5810506   -5.4211731    642.61069  0.032066402  0.031243604           15 
 1671000   0.58558753     -5.42889    643.71674  0.032102371  0.031222297           29 
 1672000   0.58601276   -5.4246498    643.89431  0.032092021  0.031200856           39 
 1673000   0.59406622   -5.4102529    642.94752  0.032025678    0.0311795           14 
 1674000   0.59886278   -5.4291005    644.45762  0.032081721  0.031158169            7 
 1675000   0.59549149   -5.4154766    643.36799  0.032008358  0.031137024           16 
 1676000   0.58604171   -5.4094386    642.15955  0.031929174  0.031115748           17 
 1677000   0.57090747   -5.4372639    643.43855  0.031973691  0.031094396           12 
 1678000   0.58877169   -5.4269013    643.01737  0.031933719  0.031073121           16 
 1679000   0.59203505   -5.4256919    644.58295  0.031992404  0.031051911            8 
 1680000   0.58998743   -5.4515048    643.64903  0.031927035  0.031030644           16 
 1681000   0.59251983   -5.4461953    644.07766  0.031929291   0.03100936           22 
 1682000   0.57248589   -5.4410701    642.93491  0.031853691  0.030988098           10 
 1683000   0.58197617   -5.4195472     643.8502  0.031880085  0.030966872           11 
 1684000   0.57734124   -5.4300107    645.20306  0.031928101  0.030945714           19 
 1685000   0.58443399   -5.4370125     643.5506  0.031827428  0.030924589           16 
 1686000    0.5697905   -5.4626287    642.87039   0.03177493  0.030903395           21 
 1687000   0.57213304    -5.433946    643.36723  0.031780638  0.030882189           15 
 1688000   0.58650548   -5.4470585    642.68065  0.031727915  0.030861081           13 
 1689000    0.5803432   -5.4331176    644.46657  0.031797245   0.03083992           22 
 1690000   0.58218213    -5.427845    643.09421   0.03171076  0.030818709            8 
 1691000   0.57955442   -5.4351353    643.60461   0.03171716  0.030797579            8 
 1692000   0.56784362   -5.4450375    641.75497  0.031607317   0.03077632           37 
 1693000   0.57403787   -5.4587164    643.41731  0.031670472  0.030755084           16 
 1694000   0.56163154   -5.4474704    643.08921  0.031635636  0.030733833           34 
 1695000    0.5639686   -5.4466575    643.81131  0.031652474  0.030712611           21 
 1696000   0.55206383   -5.4248998    643.86938  0.031636664   0.03069147           40 
 1697000   0.58798932   -5.4685623    643.66851  0.031608157  0.030670278           23 
 1698000    0.5721033   -5.4466082    642.35694  0.031525174  0.030649135           20 
 1699000   0.58537554   -5.4594734    642.55241  0.031516206  0.030628022           11 
 1700000   0.56627085   -5.4417752    644.12235  0.031574625  0.030606948           41 
 1701000   0.56974786   -5.4479724    644.19195  0.031559472  0.030585912           27 
 1702000   0.57677068   -5.4445012    644.52329  0.031557153  0.030564935           22 
 1703000   0.58083286   -5.4682247    641.61357  0.031396241  0.030543874           16 
 1704000   0.57383236   -5.4654864    642.82623   0.03143712  0.030522811           17 
 1705000   0.56716601   -5.4531757    642.92527  0.031423522  0.030501861           42 
 1706000   0.58790428   -5.4472567    645.13454   0.03151302  0.030480991           21 
 1707000   0.56506581   -5.4398925    644.59638  0.031468286  0.030460148           24 
 1708000    0.5723615   -5.4545296    644.69438  0.031454644  0.030439322           13 
 1709000   0.56566663   -5.4739913    643.84307  0.031394727   0.03041847           24 
 1710000    0.5720903   -5.4745682    643.25168  0.031347548  0.030397516           19 
 1711000   0.55945979   -5.4481218    641.60305  0.031248931  0.030376462           20 
 1712000   0.57772364   -5.4544127    644.04346  0.031349467  0.030355555           11 
 1713000   0.56864402   -5.4665006    643.90619  0.031324489  0.030334554           11 
 1714000   0.57430809   -5.4615683    642.40482  0.031233218  0.030313617           19 
 1715000   0.56986172    -5.459717    643.66881  0.031276424   0.03029271           11 
 1716000    0.5637695   -5.4687749    643.23493  0.031237127  0.030271767           16 
 1717000   0.57602721   -5.4505742    644.87963  0.031298759  0.030250856           21 
 1718000    0.5782781   -5.4773198    641.06232  0.031095378  0.030229947           39 
 1719000   0.57314648   -5.4582203    641.89123  0.031117473  0.030208959           35 
 1720000   0.57898614   -5.4669521    643.12797  0.031159301  0.030188041           58 
 1721000     0.559908   -5.4609887    642.32371  0.031102252  0.030167137           28 
 1722000   0.55774641   -5.4819551    641.90318   0.03106384  0.030146181           65 
 1723000   0.56214441   -5.4647365    642.56989  0.031078056  0.030125238           46 
 1724000   0.56261335   -5.4897402    643.97246  0.031127826  0.030104343           31 
 1725000    0.5671617     -5.45505     643.3104  0.031077797   0.03008345           26 
 1726000   0.55315653   -5.4798143    643.12951  0.031051058  0.030062596           32 
 1727000   0.55541574   -5.4783714    643.36007  0.031044203  0.030041769           32 
 1728000   0.56471712   -5.4544753     643.4123  0.031028757  0.030020933           28 
 1729000   0.56320774   -5.4671516    644.40057  0.031058443  0.030000148           33 
 1730000   0.55819079   -5.4722357    642.51262  0.030949548  0.029979344            9 
 1731000   0.55095895   -5.4725489    643.13785  0.030961768  0.029958613           27 
 1732000   0.56877105   -5.4733173    643.88107  0.030979651  0.029937858           19 
 1733000   0.55928667    -5.476648    642.22385  0.030882085  0.029917106           37 
 1734000   0.55815521   -5.4521608    642.98287  0.030900753  0.029896355           33 
 1735000   0.56600217   -5.4825245    642.70986   0.03086983  0.029875597           22 
 1736000   0.56419981   -5.5040485    642.45683  0.030839901  0.029854929           43 
 1737000   0.56457605   -5.4737084    642.02238  0.030801304  0.029834202           42 
 1738000   0.55352086   -5.4940261    642.21066  0.030792609  0.029813587           36 
 1739000   0.55715931   -5.4677703    644.12738  0.030866752  0.029792946           28 
 1740000   0.56366919   -5.4939853    643.84437  0.030835458  0.029772297           25 
 1741000    0.5618459   -5.4947039    643.32363  0.030792822  0.029751688           37 
 1742000   0.56585246   -5.4943028    643.81421  0.030798613  0.029731077           16 
 1743000   0.55977315   -5.4931559    643.46604  0.030764297  0.029710472           13 
 1744000   0.56092853   -5.5072933    644.83866  0.030812245  0.029689853           13 
 1745000   0.55144406   -5.4735603    642.99179  0.030706389  0.029669282           14 
 1746000   0.54293791   -5.4781929    643.90108  0.030732201  0.029648757           22 
 1747000   0.55111695   -5.4680192    643.70689  0.030705347  0.029628229           14 
 1748000   0.55860379   -5.4888171    643.52533  0.030679125  0.029607782           38 
 1749000   0.55136704   -5.4566762    642.73843  0.030624091  0.029587367           12 
 1750000   0.56240897   -5.4814109    643.02355  0.030620169  0.029566947           12 
 1751000    0.5484782   -5.4939739    644.70473  0.030682692   0.02954656           23 
 1752000   0.55323381   -5.4874929    643.29427  0.030598091  0.029526102           13 
 1753000   0.55937543   -5.5039104    643.38221  0.030584817  0.029505647           24 
 1754000   0.55612215   -5.4914114    642.83281  0.030541278  0.029485212           19 
 1755000   0.54916505   -5.4880276    644.61458   0.03060848  0.029464785           17 
 1756000   0.54612113   -5.5118982    643.10719  0.030519514  0.029444383           29 
 1757000   0.55837502   -5.5072328    643.77298  0.030533721  0.029423976           15 
 1758000   0.55329423   -5.4992796     644.5087  0.030551228   0.02940363           25 
 1759000   0.55198745   -5.4868705    644.43511  0.030530373  0.029383334           14 
 1760000   0.54625919   -5.5306756    644.57155  0.030519486   0.02936303           15 
 1761000   0.54842343   -5.4773479    645.51415  0.030546761  0.029342796            8 
 1762000   0.54702095   -5.4987504    643.16345  0.030418249  0.029322597            8 
 1763000   0.53399665   -5.4970935     643.5515  0.030419337  0.029302383           21 
 1764000    0.5580684   -5.4925422    643.84423  0.030415921  0.029282112           19 
 1765000   0.55928366   -5.4846712    644.03944  0.030407905  0.029261933           25 
 1766000   0.54153766   -5.5175046     642.8468  0.030334409  0.029241762           12 
 1767000   0.56061909   -5.5010778    644.12758  0.030377645  0.029221515            8 
 1768000   0.54642734   -5.5090841    643.57902  0.030334607   0.02920136            8 
 1769000   0.54627875   -5.5175961    645.07476   0.03038792  0.029181212           11 
 1770000   0.55132291   -5.5058411    644.04405  0.030322225  0.029161084           14 
 1771000   0.53484498   -5.4967634    645.38845  0.030368363  0.029141029           25 
 1772000   0.54106524   -5.5322134    644.53731  0.030311198  0.029120924           25 
 1773000   0.55152993   -5.5121875    643.11332  0.030227172  0.029100745           18 
 1774000   0.55145109    -5.542003    643.79245  0.030242036  0.029080572           58 
 1775000   0.54994241   -5.5249535    643.55558  0.030213877  0.029060393          102 
 1776000   0.53835444   -5.5306075    643.74745  0.030205868  0.029040248           54 
 1777000   0.54100309   -5.5373654    644.84511  0.030240345  0.029020116           27 
 1778000   0.54666978   -5.5294552    644.36327  0.030200753  0.029000005           44 
 1779000   0.54166729    -5.524956    645.01746  0.030214421  0.028979882           34 
 1780000   0.54296271   -5.5205046    643.33768  0.030118805  0.028959753           93 
 1781000   0.54378133   -5.5236894    643.95557  0.030130805  0.028939711           26 
 1782000    0.5426124   -5.5289153    644.18045  0.030124413  0.028919612           23 
 1783000   0.55304963   -5.5160758    644.29194  0.030112728  0.028899504           41 
 1784000   0.56735054   -5.5245801    643.46083  0.030057027  0.028879474           40 
 1785000   0.53618917   -5.5121972    644.92766  0.030108668  0.028859479           30 
 1786000   0.54014068   -5.5279673    644.85767  0.030088544  0.028839531           19 
 1787000   0.54606382   -5.5178269    643.57449  0.030011868  0.028819594           52 
 1788000   0.54494116   -5.5129182    643.71316  0.030001546  0.028799604           24 
 1789000   0.53966226   -5.4867268    644.43301  0.030018307  0.028779709           23 
 1790000   0.54332898   -5.5009065    644.55945  0.030007423    0.0287598           32 
 1791000   0.54819598   -5.4870348    643.84168  0.029957272  0.028739981           19 
 1792000   0.53555127   -5.5225071    643.91974  0.029944184  0.028720059           32 
 1793000   0.53754091   -5.5456388     643.7998  0.029921909  0.028700146           37 
 1794000   0.51900741    -5.506961    645.36607  0.029977985   0.02868033           59 
 1795000   0.53743773   -5.5424332    643.41129  0.029870533  0.028660418           36 
 1796000   0.54050167   -5.5467678    644.63001   0.02991045  0.028640508           26 
 1797000   0.53267681   -5.5325571    643.29411  0.029831854  0.028620607           31 
 1798000   0.53538887   -5.5393648    643.79325  0.029838397  0.028600708           42 
 1799000   0.54960485   -5.5430586    643.67854  0.029816497  0.028580875           23 
 1800000    0.5349902   -5.5405032    643.16122  0.029775982  0.028561039           25 
 1801000   0.54796846   -5.5680573    643.40693  0.029770819  0.028541139           24 
 1802000   0.53050076   -5.5446419    643.53371  0.029760161  0.028521252           15 
 1803000   0.53015734   -5.5343209    644.00224   0.02976531  0.028501395           18 
 1804000   0.52444652   -5.5347163    643.02904  0.029703854    0.0284815           22 
 1805000   0.53880469   -5.5477441    641.80858  0.029631052  0.028461623           16 
 1806000   0.52039106     -5.55031    643.90928  0.029711576  0.028441821           19 
 1807000   0.52463894   -5.5618718    643.46907  0.029674832  0.028422054           25 
 1808000   0.53435234   -5.5413875    644.04922  0.029685159  0.028402293           19 
 1809000     0.523576   -5.5240027    644.35909  0.029683024  0.028382597           30 
 1810000    0.5252301   -5.5406742    644.78228  0.029686109  0.028362935           13 
 1811000   0.53746662   -5.5498296    642.75796  0.029576567  0.028343254           34 
 1812000   0.53342825   -5.5514078    644.01668  0.029618133  0.028323568           36 
 1813000   0.53632348   -5.5382203    644.12061  0.029606574  0.028303884           47 
 1814000   0.52957938   -5.5207765    642.74728  0.029527163  0.028284196           38 
 1815000   0.52613937    -5.545618    644.17403  0.029576402  0.028264549           38 
 1816000   0.52956961   -5.5619805    643.83827  0.029544708  0.028244935           39 
 1817000   0.53235569   -5.5378111    642.58401  0.029470923  0.028225259           28 
 1818000    0.5251991   -5.5606601    642.53722  0.029452568  0.028205627           20 
 1819000   0.52319687   -5.5441627    643.55299  0.029482912  0.028185988           32 
 1820000   0.53085223   -5.5633915    644.96764  0.029531485  0.028166378           30 
 1821000   0.52437793   -5.5485573     643.9101  0.029466873  0.028146816           12 
 1822000   0.52825115   -5.5552433    644.69959  0.029486809    0.0281272            8 
 1823000   0.52123428   -5.5576587    643.83066  0.029430913  0.028107567           32 
 1824000   0.53354677   -5.5604274    642.79563   0.02936749   0.02808801           24 
 1825000    0.5179709   -5.5677764    642.55377  0.029340355  0.028068395           28 
 1826000   0.52309673   -5.5601391    643.59612  0.029371857  0.028048834           21 
 1827000   0.53285741   -5.5829819    642.40103  0.029301269  0.028029286           27 
 1828000    0.5247586   -5.5653765    642.21232  0.029276637  0.028009742           34 
 1829000   0.51461252    -5.550784    643.87277  0.029336285  0.027990232           24 
 1830000   0.53287591   -5.5565098     643.6876  0.029311821  0.027970796           27 
 1831000   0.52501094   -5.5641234    643.59209  0.029291466   0.02795136           12 
 1832000   0.51842531   -5.5655982    643.59488  0.029275604  0.027931896           23 
 1833000   0.52253797   -5.5663364    643.45714   0.02925337  0.027912428           24 
 1834000   0.52421995   -5.5843001    643.40735  0.029235158  0.027892935           26 
 1835000   0.52210427   -5.5727646    643.64851  0.029230178  0.027873518           22 
 1836000   0.52215252   -5.5646893    644.21045  0.029239763   0.02785416           27 
 1837000     0.519796   -5.5891159    642.58118  0.029149935  0.027834755           14 
 1838000   0.52127785   -5.5681456    643.61708  0.029181043  0.027815305           10 
 1839000   0.52597724   -5.5752972    644.20629  0.029191875  0.027795929           17 
 1840000   0.52327332   -5.5658557    644.20294  0.029175858   0.02777653           22 
 1841000   0.51802822   -5.5855627    643.49582  0.029128002  0.027757195           23 
 1842000   0.52909158   -5.5846486    641.76799  0.029034021  0.027737834           43 
 1843000   0.51822374   -5.5894691    642.10159  0.029033351   0.02771846           32 
 1844000   0.51997559   -5.5718274    642.08622  0.029016912  0.027699076           51 
 1845000   0.52111571   -5.5607493    643.28689  0.029055415  0.027679708           35 
 1846000   0.51321776   -5.5616824    643.84352  0.029064803  0.027660367           33 
 1847000     0.515264   -5.5716558    643.59922  0.029038045  0.027641051           58 
 1848000   0.52539844   -5.5717855    643.05625  0.028997847  0.027621759           91 
 1849000   0.51241397   -5.5973162    643.78803  0.029015145  0.027602505           84 
 1850000   0.51686519   -5.5714805    643.26929  0.028976094  0.027583262           58 
 1851000   0.52318481   -5.5547719    643.42475  0.028967439  0.027564037           56 
 1852000    0.5247002   -5.5759333    644.84812  0.029015844  0.027544896           79 
 1853000   0.52008461   -5.5881086    642.89843  0.028912504  0.027525721           54 
 1854000   0.51238549   -5.5686738    642.69316  0.028887682  0.027506515           18 
 1855000   0.51019209   -5.5739474    643.28193  0.028898559  0.027487334           46 
 1856000    0.5109191   -5.5782198    643.05186  0.028872659  0.027468116           64 
 1857000    0.4978825   -5.5861384    641.82488   0.02880205  0.027448917           31 
 1858000   0.50892091   -5.5794936    643.39961  0.028857177  0.027429773           12 
 1859000   0.51939239   -5.5897876    642.25588  0.028790384  0.027410626           31 
 1860000   0.51010456   -5.5876382    643.27054  0.028820365   0.02739143           21 
 1861000   0.51109748   -5.6011346    642.65297  0.028777224  0.027372274           20 
 1862000   0.51048849   -5.5950124    642.56873  0.028757999   0.02735311           22 
 1863000   0.50949101   -5.5967749     642.4247   0.02873612  0.027333912           33 
 1864000   0.50777488   -5.6013404    643.41823  0.028765121  0.027314799           22 
 1865000   0.51543774     -5.61893    641.64433  0.028670435   0.02729565           45 
 1866000   0.51145565   -5.5913685    643.78419  0.028750634  0.027276546           46 
 1867000   0.50591917   -5.5987976    642.10316  0.028660202  0.027257448           74 
 1868000   0.50702058   -5.6042326    643.00194  0.028684955  0.027238335           29 
 1869000   0.50596525    -5.618151    642.73161  0.028657554  0.027219248           83 
 1870000    0.5004267   -5.6069116    641.20802  0.028574332  0.027200118           66 
 1871000   0.50223555   -5.6206087    642.23704  0.028604892  0.027181039           65 
 1872000   0.50840305   -5.6301048     640.7142  0.028521822  0.027161955           36 
 1873000   0.50934333    -5.605222    641.23911  0.028529948  0.027142905           42 
 1874000   0.52053357   -5.5839944    643.71327  0.028624745  0.027123913           48 
 1875000   0.51134414   -5.6145964     641.8078  0.028524791  0.027104975           61 
 1876000   0.49678971   -5.6058685    642.03051  0.028519479  0.027086014           68 
 1877000   0.48785715   -5.5916677    643.77708  0.028581828  0.027067103           28 
 1878000   0.49535636   -5.5843443    643.32391    0.0285465  0.027048281           35 
 1879000   0.49738683   -5.6100231     642.1413  0.028478858  0.027029429           73 
 1880000   0.50399998   -5.6088783    643.09381  0.028505931  0.027010545          120 
 1881000    0.4964911   -5.6164225    644.31319  0.028544798  0.026991677           71 
 1882000   0.50032841   -5.6262356    642.19975   0.02843605  0.026972817           39 
 1883000   0.48537544    -5.620284    641.72261  0.028399832  0.026953961           95 
 1884000   0.49397491   -5.6046793    641.97528  0.028395934  0.026935091           83 
 1885000   0.49973966   -5.6130583    641.98877  0.028381466  0.026916188           55 
 1886000   0.49872462   -5.6189423    641.70999    0.0283541  0.026897362           64 
 1887000   0.49883827   -5.6232491     642.1375  0.028357954  0.026878489           39 
 1888000   0.48619513   -5.6078283    642.02643  0.028338031  0.026859613           61 
 1889000   0.50109623   -5.6297278    642.02058  0.028322771  0.026840745          107 
 1890000   0.49606114   -5.6124961    643.53208   0.02837443   0.02682194           87 
 1891000   0.50348213   -5.6207777     642.2356  0.028302292  0.026803172          137 
 1892000   0.49899652   -5.6154075    642.25091  0.028288007  0.026784371          110 
 1893000   0.49264246   -5.6271823     642.0272  0.028263215  0.026765596           58 
 1894000   0.49733056   -5.6210168    642.27667  0.028259269   0.02674684          112 
 1895000   0.49415554   -5.6269883    643.03289  0.028277612  0.026728136           51 
 1896000   0.48557987   -5.6305331    642.20961  0.028226513  0.026709414           65 
 1897000   0.50506406    -5.612896    642.54324  0.028226289   0.02669072          126 
 1898000   0.49645636   -5.6200161    641.95562  0.028185617  0.026671993           71 
 1899000   0.49762919   -5.6223609    642.44308  0.028192166  0.026653247          109 
 1900000   0.49548446   -5.6421777     642.0268   0.02815907  0.026634543          119 
 1901000   0.49087956   -5.6495778    642.34488  0.028158201  0.026615822           81 
 1902000   0.50895572   -5.6274441    641.37686  0.028100984  0.026597082           51 
 1903000   0.47619477   -5.6297574    642.58241  0.028139009  0.026578371           44 
 1904000   0.48668289   -5.6369225     641.4644  0.028075298  0.026559663          142 
 1905000   0.48617154    -5.628168    641.99272  0.028083671  0.026541002          140 
 1906000   0.49269913   -5.6372617    642.01829  0.028070055  0.026522332          104 
 1907000   0.50672693   -5.6428901    641.43494  0.028029843  0.026503644           79 
 1908000   0.48739934   -5.6401361    642.07845  0.028043259  0.026485017           61 
 1909000   0.49082917   -5.6307303    641.87297  0.028019599  0.026466427           54 
 1910000   0.49395554   -5.6185687    642.67469  0.028039908   0.02644785           45 
 1911000   0.47857166   -5.6290141    642.14562  0.028002164  0.026429297          105 
 1912000   0.49899805   -5.6338678    641.56997  0.027962429  0.026410693           33 
 1913000   0.49093215   -5.6454809    641.25856  0.027934246  0.026392121           97 
 1914000   0.48833008    -5.625736    642.22416  0.027961693  0.026373581           78 
 1915000   0.47959545   -5.6410249    641.81475  0.027929275  0.026355067           59 
 1916000   0.48353781   -5.6515181    641.78258  0.027913299  0.026336575           69 
 1917000    0.4960501   -5.6413419    642.40194  0.027925662  0.026318072           76 
 1918000   0.48378331    -5.622672     642.2918  0.027906317  0.026299623          228 
 1919000    0.4912295   -5.6303819    643.26566  0.027934066  0.026281201           97 
 1920000    0.4772007   -5.6371163     642.0266  0.027865738  0.026262766           87 
 1921000   0.49117342   -5.6241953    641.97994  0.027849208  0.026244348           68 
 1922000   0.49178379   -5.6386069    640.64723  0.027776935   0.02622597           30 
 1923000   0.47747081   -5.6485797    641.45722  0.027797591  0.026207571          120 
 1924000    0.4789029   -5.6450798    641.24744  0.027774058  0.026189179          113 
 1925000   0.48956388   -5.6361162    641.56358  0.027773315  0.026170831           90 
 1926000   0.48374494     -5.64083    642.33004  0.027792058  0.026152447           57 
 1927000   0.48977687   -5.6489944    641.35727  0.027735568  0.026134076           54 
 1928000   0.46974003   -5.6282373    641.55478  0.027729719  0.026115696          102 
 1929000   0.47510092   -5.6326154    641.46318  0.027711387  0.026097386          107 
 1930000   0.46941641   -5.6504576    640.45302  0.027653412  0.026079018           55 
 1931000   0.48796035   -5.6523244    640.20973  0.027628592  0.026060634           96 
 1932000   0.47962814   -5.6487614    640.47473  0.027625721  0.026042279          128 
 1933000   0.47699851   -5.6467958    640.44348  0.027610083  0.026023948           75 
 1934000   0.48236469   -5.6574077    638.97232  0.027532416  0.026005568           99 
 1935000   0.49012528    -5.665954    639.53042  0.027542223  0.025987179           82 
 1936000   0.48454543   -5.6551761    640.38263   0.02756468  0.025968863           64 
 1937000   0.48891106   -5.6615146    641.42832  0.027595436  0.025950554          115 
 1938000   0.48266853   -5.6473722    642.26003  0.027616961  0.025932281           84 
 1939000   0.46942169   -5.6560723     640.3986  0.027522718  0.025913962          174 
 1940000   0.47409409   -5.6716657     640.5485   0.02751497  0.025895683          176 
 1941000   0.47712548   -5.6618942    641.80541  0.027554758  0.025877438          198 
 1942000   0.47913276    -5.672404    641.53703  0.027529052  0.025859171          147 
 1943000    0.4819598   -5.6673721    641.06182  0.027494503  0.025840916           85 
 1944000   0.48794293   -5.6437577    641.22331  0.027487282  0.025822662           66 
 1945000   0.47500093   -5.6767192    640.09424  0.027424775  0.025804445           63 
 1946000   0.47538067   -5.6797778    639.39965  0.027380937  0.025786248           67 
 1947000   0.47207968   -5.6581625     642.1556  0.027484831  0.025768058           73 
 1948000   0.47870189   -5.6500973    640.25282  0.027389323  0.025749912           80 
 1949000   0.48167881   -5.6695976    640.26852  0.027375942  0.025731796           51 
 1950000   0.47610925   -5.6703143    641.37956  0.027409383  0.025713694          211 
 1951000   0.47339972   -5.6705569    640.97013  0.027377846  0.025695578          118 
 1952000   0.46803324    -5.668958    640.91016   0.02736126  0.025677491          135 
 1953000   0.47315936   -5.6626474    641.38825   0.02736765  0.025659473           82 
 1954000   0.46596367   -5.6710973    640.90936  0.027333221  0.025641451          171 
 1955000   0.47893352   -5.6823179    639.81017  0.027272386  0.025623443          121 
 1956000   0.45798386   -5.6796233    640.64365  0.027293952  0.025605423          176 
 1957000   0.47970762   -5.6831779    641.44168  0.027313988  0.025587383          137 
 1958000   0.47677296   -5.6798014    641.71883  0.027311833  0.025569367          119 
 1959000   0.47133142   -5.6851867    641.01291  0.027267862  0.025551359          186 
 1960000   0.46702067   -5.6970502    640.86603  0.027247705  0.025533355          220 
 1961000   0.46545899   -5.6822949    639.87284  0.027191605  0.025515371          145 
 1962000   0.46767659   -5.6916149    640.87521   0.02722032  0.025497429          156 
 1963000   0.47761282   -5.6807745    640.94488  0.027209411  0.025479478          200 
 1964000    0.4736403    -5.681901    639.56904  0.027137179  0.025461548          197 
 1965000   0.46530317    -5.683803    640.44177   0.02716038  0.025443605          204 
 1966000     0.458206   -5.6953653    640.32497  0.027141615  0.025425643          150 
 1967000   0.47923439   -5.6867417    640.43063  0.027132292  0.025407731          150 
 1968000   0.46639671   -5.6906238    641.14566  0.027148783   0.02538981          201 
 1969000   0.47256386   -5.6967098    640.83936  0.027122031  0.025371866          142 
 1970000   0.46188706   -5.6987154     640.2293  0.027082458   0.02535396          196 
 1971000   0.45953988   -5.7085128     641.9286  0.027140563  0.025336091          203 
 1972000   0.47102572   -5.6856914    639.81007  0.027037275   0.02531824          181 
 1973000   0.46253692   -5.6911582    641.10614  0.027078313  0.025300393          155 
 1974000    0.4634739   -5.6910861    640.15701  0.027024528  0.025282515          244 
 1975000   0.46534478   -5.7026643     638.6825  0.026948629  0.025264615          181 
 1976000   0.46955129   -5.7040136    639.73152  0.026979231  0.025246735          241 
 1977000   0.46335661   -5.7143929     639.3483  0.026949431  0.025228864          233 
 1978000   0.46973695   -5.7020754    640.79176   0.02699662  0.025211023          269 
 1979000   0.45906463    -5.714713    639.01505  0.026908163  0.025193156          216 
 1980000   0.46684372   -5.7010787    639.62401  0.026920202  0.025175327          248 
 1981000   0.47002955   -5.7157827    639.62948  0.026906843  0.025157503          301 
 1982000    0.4714296   -5.7176033    638.92801  0.026863774  0.025139719          218 
 1983000   0.47924222   -5.7059491    639.30366  0.026866013  0.025121915          226 
 1984000   0.46663424   -5.7149278    639.62676  0.026866043  0.025104122          231 
 1985000   0.46407424    -5.720146    638.85915  0.026820283  0.025086316          220 
 1986000   0.46083258   -5.7200653     638.0995  0.026774903  0.025068571          140 
 1987000   0.45684571   -5.7069961    639.57437  0.026823284  0.025050801          221 
 1988000   0.45173988   -5.7174992    639.18675  0.026793542  0.025033082          135 
 1989000   0.46263357   -5.7224873    638.48367  0.026750615  0.025015375          245 
 1990000   0.46052282   -5.6992223    638.30773  0.026729805  0.024997702          218 
 1991000   0.46602774   -5.7014948    640.43999  0.026805625  0.024980073          183 
 1992000   0.45566678   -5.7074912    639.54321  0.026754652  0.024962432          182 
 1993000   0.45626615   -5.7011887     638.9259  0.026715416   0.02494479          214 
 1994000   0.45895588    -5.717449    639.75995  0.026736875  0.024927141          169 
 1995000   0.46602413   -5.7154447    639.53356  0.026714017  0.024909501          119 
 1996000   0.45765211   -5.7230604    639.42429  0.026696071  0.024891879          215 
 1997000   0.45103878   -5.7210218    639.40693  0.026681978  0.024874298          166 
 1998000   0.46004962   -5.7257601    638.82222  0.026644237  0.024856698          199 
 1999000     0.448746   -5.7266219    637.51069  0.026576234  0.024839085          186 
 2000000   0.45366194   -5.7085648    639.85555  0.026660648  0.024821505          185 
 2001000   0.45292109   -5.7269058    640.30808   0.02666617  0.024803939          298 
 2002000   0.45696351   -5.7269013    639.66891  0.026626245  0.024786425          180 
 2003000   0.44892397   -5.7162387     639.4588   0.02660421  0.024768903          265 
 2004000   0.45333007   -5.7305379    639.41595  0.026589153  0.024751397          250 
 2005000   0.45192136   -5.7177526    639.04144  0.026560326   0.02473391          309 
 2006000   0.45621818   -5.7311249    639.84969  0.026580662  0.024716429          348 
 2007000   0.46069183   -5.7211678     639.9565  0.026571853  0.024698951          234 
 2008000   0.45063101   -5.7375899    640.24964  0.026570785  0.024681503          257 
 2009000    0.4527322   -5.7215244    640.04384  0.026549023  0.024664073          268 
 2010000   0.46134138   -5.7314561    638.54879   0.02647383  0.024646665          318 
 2011000   0.44800418   -5.7386252     638.7941  0.026470831  0.024629262          266 
 2012000   0.44928034   -5.7305011    638.89637  0.026461911  0.024611859          228 
Loop time of 5021.42 on 48 procs for 2000000 steps with 4000 atoms

Performance: 68825.172 tau/day, 398.294 timesteps/s
99.4% CPU use with 48 MPI tasks x no OpenMP threads

MPI task timing breakdown:
Section |  min time  |  avg time  |  max time  |%varavg| %total
---------------------------------------------------------------
Pair    | 340.56     | 367.77     | 391.06     |  67.7 |  7.32
Neigh   | 34.012     | 35.514     | 36.991     |  13.8 |  0.71
Comm    | 322.9      | 344.11     | 378.87     |  72.1 |  6.85
Output  | 4.36       | 4.3617     | 4.3978     |   0.3 |  0.09
Modify  | 4211.4     | 4223.5     | 4237.2     |   9.2 | 84.11
Other   |            | 46.14      |            |       |  0.92

Nlocal:        83.3333 ave          90 max          76 min
Histogram: 2 1 5 2 8 14 4 11 0 1
Nghost:        2327.79 ave        2344 max        2309 min
Histogram: 1 1 2 5 12 8 10 4 3 2
Neighs:        15901.3 ave       17449 max       13933 min
Histogram: 1 3 1 4 9 6 14 6 2 2
FullNghs:      31802.0 ave       34437 max       28753 min
Histogram: 2 1 4 3 10 10 7 8 2 1

Total # of neighbors = 1526495
Ave neighs/atom = 381.62375
Neighbor list builds = 107702
Dangerous builds = 0

#clear
#
#next RN
#
#jump SELF
Total wall time: 1:23:44
