
units lj                  # Use reduced LJ style units
atom_style atomic         # Uncharged point particles
atom_modify map hash      # Needed for indexing of clusters etc
                          # Used to be able to find where atoms are in relation to each other.

lattice fcc 1.0 spacing 1 1 1
Lattice spacing in x,y,z = 1.5874011 1.5874011 1.5874011
region box block 0 10 0 10 0 10 units lattice
create_box 2 box
Created orthogonal box = (0.0000000 0.0000000 0.0000000) to (15.874011 15.874011 15.874011)
  3 by 4 by 4 MPI processor grid
create_atoms 1 box
Created 4000 atoms
  using lattice units in orthogonal box = (0.0000000 0.0000000 0.0000000) to (15.874011 15.874011 15.874011)
  create_atoms CPU = 0.003 seconds
set type 1 type/fraction 2 0.04 78393
Setting atom values ...
  161 settings made for type/fraction
mass 1 1.0
mass 2 1.0
pair_style lj/cut  3.5
pair_modify tail  yes
pair_coeff 1  1  1.0  1.0   # Intearaction between 1 and 1 set with epsilon = 1 and sigma = 1
pair_coeff 1  2  1.5  0.8
pair_coeff 2  2  0.5  0.88

write_data data.0
System init for write_data ...
Neighbor list info ...
  update every 1 steps, delay 10 steps, check yes
  max neighbors/atom: 2000, page size: 100000
  master list distance cutoff = 3.8
  ghost atom cutoff = 3.8
  binsize = 1.9, bins = 9 9 9
  1 neighbor lists, perpetual/occasional/extra = 1 0 0
  (1) pair lj/cut, perpetual
      attributes: half, newton on
      pair build: half/bin/atomonly/newton
      stencil: half/bin/3d
      bin: standard
WARNING: Not all mixed pair coeffs generated from mixing. Use write_data with 'pair ij' option to store all pair coeffs. (../write_data.cpp:312)


#############################
#   M E L T   S Y S T E M   #
#############################

velocity all create 2.4 5833274 mom yes dist gaussian # Assign velocities
                                                    # Temperature 2.4, random number seed, zero linear momentum
                                                                                # Gaussian distribution

timestep 0.002   # simulation timestep
thermo 1000       # output thermodynamic data every 1000 steps bf 100

# Define a fix  in this case with index 1 applied to all
# particles in the simulation. This fix is for simulations
# in the anisotropic NPT ensemble. Note that we use the MTK
# correction.
fix 1 all npt temp 2.4 2.4 0.1 iso 5.68 5.68 0.5 mtk yes tchain 5 pchain 5 # Use NPT ensemble
                                                                         # Set temperature and pressure and damping
                                                                         # Numbers of thermostats in chain and in barostat
run 10000          # run for 10000 steps
Per MPI rank memory allocation (min/avg/max) = 3.642 | 3.644 | 3.648 Mbytes
Step Temp E_pair E_mol TotEng Press Volume 
       0          2.4   -8.1195307            0   -4.5204307   -2.5632236         4000 
    1000    2.4162384   -4.5268389            0  -0.90338747    5.4783512    5063.5939 
    2000    2.4021909   -4.4771823            0  -0.87479669    5.6331188    5078.1424 
    3000    2.3641401   -4.4499904            0  -0.90466674    5.8343034     5061.392 
    4000    2.3841554   -4.4680346            0   -0.8926956    5.6565788    5075.3517 
    5000    2.3980853   -4.4645942            0  -0.86836552    5.5708018    5088.9455 
    6000    2.4178153   -4.3962169            0  -0.77040069    5.5634051    5135.1773 
    7000    2.3852893   -4.4495606            0  -0.87252113    5.7428782     5071.115 
    8000    2.4083137   -4.4635858            0  -0.85201841    5.5490416    5097.4098 
    9000    2.4032595   -4.5004551            0  -0.89646716    5.4610061    5077.6017 
   10000    2.3867144   -4.4676585            0  -0.88848194    5.5948975    5094.0101 
Loop time of 2.16642 on 48 procs for 10000 steps with 4000 atoms

Performance: 797627.836 tau/day, 4615.902 timesteps/s
99.6% CPU use with 48 MPI tasks x no OpenMP threads

MPI task timing breakdown:
Section |  min time  |  avg time  |  max time  |%varavg| %total
---------------------------------------------------------------
Pair    | 0.8758     | 0.93576    | 1.1061     |   3.8 | 43.19
Neigh   | 0.16927    | 0.17584    | 0.20112    |   1.3 |  8.12
Comm    | 0.65225    | 0.77981    | 0.88711    |   6.0 | 36.00
Output  | 0.00024918 | 0.00025326 | 0.00031894 |   0.0 |  0.01
Modify  | 0.19121    | 0.26023    | 0.3417     |   9.4 | 12.01
Other   |            | 0.01452    |            |       |  0.67

Nlocal:        83.3333 ave          92 max          75 min
Histogram: 1 3 7 1 14 8 5 8 0 1
Nghost:        1396.42 ave        1423 max        1377 min
Histogram: 1 9 7 8 3 11 4 2 2 1
Neighs:        7478.65 ave        8538 max        6751 min
Histogram: 6 2 9 7 8 4 7 3 1 1

Total # of neighbors = 358975
Ave neighs/atom = 89.743750
Neighbor list builds = 904
Dangerous builds = 217

# Equilibrate just above the melting temperature to avoid step fn in T

fix 1 all npt temp 1.25 1.25 0.1 iso 5.68 5.68 0.5 mtk yes tchain 5 pchain 5
run 2000
Per MPI rank memory allocation (min/avg/max) = 3.643 | 3.645 | 3.649 Mbytes
Step Temp E_pair E_mol TotEng Press Volume 
   10000    2.3867144   -4.4676585            0  -0.88848194    5.5948975    5094.0101 
   11000    1.2241124   -5.9823926            0    -4.146683    5.6601206    4201.9681 
   12000    1.2476739   -5.9667316            0   -4.0956886    5.6880155    4210.4444 
Loop time of 0.469095 on 48 procs for 2000 steps with 4000 atoms

Performance: 736737.466 tau/day, 4263.527 timesteps/s
99.6% CPU use with 48 MPI tasks x no OpenMP threads

MPI task timing breakdown:
Section |  min time  |  avg time  |  max time  |%varavg| %total
---------------------------------------------------------------
Pair    | 0.20066    | 0.21629    | 0.24141    |   1.8 | 46.11
Neigh   | 0.030963   | 0.032848   | 0.036478   |   0.6 |  7.00
Comm    | 0.13932    | 0.16306    | 0.18436    |   2.4 | 34.76
Output  | 5.0787e-05 | 5.2576e-05 | 6.476e-05  |   0.0 |  0.01
Modify  | 0.046275   | 0.052358   | 0.059609   |   1.8 | 11.16
Other   |            | 0.004483   |            |       |  0.96

Nlocal:        83.3333 ave          89 max          77 min
Histogram: 3 1 5 4 6 12 6 2 4 5
Nghost:        1590.83 ave        1616 max        1575 min
Histogram: 5 5 9 8 6 4 8 2 0 1
Neighs:        9043.23 ave        9837 max        8307 min
Histogram: 2 5 2 7 13 4 6 6 0 3

Total # of neighbors = 434075
Ave neighs/atom = 108.51875
Neighbor list builds = 143
Dangerous builds = 11

#############################
# L I N E A R  Q U E N C H  #
#############################

# Define solid atoms. This closely follows ten Wolde  Ruiz-Montero and Frenkel  Faraday Discuss  1996  104  93-110
# Compute components of the per-atom q6 vector
compute q6 all orientorder/atom degrees 1 6 components 6 nnn NULL cutoff 1.3 # compute the Q6 parameter.
                                                                             # Use all neighbours within 1.3 unit cell.

# get number of connections
compute coord_number all coord/atom orientorder q6 0.5

# An atom is solid if it has 8 or more connections (of a possible 14)
variable is_solid atom c_coord_number>=8
group solid dynamic all var is_solid    # Must be dynamic to update
dynamic group solid defined

# do clustering
compute cluster solid cluster/atom 1.3 # Create a cluster where all atoms within are solid and max 1.3 units from another member

# define chunks one chunk per cluster
compute clus_chunks solid chunk/atom c_cluster nchunk every compress yes  # Says which atoms are in which chunk

# count the size of each chunk
compute size_chunks solid property/chunk clus_chunks count


# Find the maximum entry in the vector of chunk sizes
variable max_n equal max(c_size_chunks)


# Thermo style which includes this variable
# thermo_style custom step temp pe vol v_max_n

thermo ${N}  # Print the thermo information every 100 steps
thermo 1000  

# Reset the npt fix at a lower temperature (below freezing)
fix 1  all npt temp  ${temp} ${temp}  0.1  iso  5.68  5.68  0.5  mtk yes tchain  5  pchain  5
fix 1  all npt temp  0.45 ${temp}  0.1  iso  5.68  5.68  0.5  mtk yes tchain  5  pchain  5
fix 1  all npt temp  0.45 0.45  0.1  iso  5.68  5.68  0.5  mtk yes tchain  5  pchain  5

dump dmp2 all dcd ${N} traj.dcd
dump dmp2 all dcd 1000 traj.dcd


compute msd all msd com yes
variable twopoint equal c_msd[4]/6/(step*dt+1.0e-6)
fix 9 all vector 10 c_msd[4]
variable fit equal slope(f_9)/6/(10*dt)
thermo_style custom step temp pe c_msd[4] v_twopoint v_fit v_max_n

fix 1 all npt temp 1.25 ${temp} 0.1 iso 5.68 5.68 0.5 mtk yes tchain 5 pchain 5
fix 1 all npt temp 1.25 0.45 0.1 iso 5.68 5.68 0.5 mtk yes tchain 5 pchain 5
run 2000000 # 5000000  # Run for this many steps
Neighbor list info ...
  update every 1 steps, delay 10 steps, check yes
  max neighbors/atom: 2000, page size: 100000
  master list distance cutoff = 3.8
  ghost atom cutoff = 3.8
  binsize = 1.9, bins = 9 9 9
  4 neighbor lists, perpetual/occasional/extra = 1 3 0
  (1) pair lj/cut, perpetual
      attributes: half, newton on
      pair build: half/bin/atomonly/newton
      stencil: half/bin/3d
      bin: standard
  (2) compute orientorder/atom, occasional
      attributes: full, newton on
      pair build: full/bin/atomonly
      stencil: full/bin/3d
      bin: standard
  (3) compute coord/atom, occasional
      attributes: full, newton on
      pair build: full/bin/atomonly
      stencil: full/bin/3d
      bin: standard
  (4) compute cluster/atom, occasional
      attributes: full, newton on
      pair build: full/bin/atomonly
      stencil: full/bin/3d
      bin: standard
Per MPI rank memory allocation (min/avg/max) = 9.737 | 9.742 | 9.746 Mbytes
Step Temp PotEng c_msd[4] v_twopoint v_fit v_max_n 
   12000    1.2476739   -5.9667316 2.0898898e-30 1.4513123e-32 8.3333333e+20            8 
   13000    1.2650927   -5.9817881   0.57657748 0.0036960094  0.047171104            2 
   14000    1.2414383    -5.922704    1.1202277 0.0066680216  0.045487044            1 
   15000    1.2589065   -5.9590631    1.6970132 0.0094278507  0.046856607            4 
   16000    1.2589682   -5.9692336    2.3315046  0.012143253  0.048010975            2 
   17000    1.2320661   -5.9450814    2.9725753  0.014571447  0.049099238            2 
   18000    1.2560258   -5.9500349    3.4888394  0.016152034  0.049253798            3 
   19000    1.2652801    -5.959605    4.0041146  0.017561906  0.048443183            5 
   20000    1.2150147    -5.977454    4.4714767  0.018631153  0.047635846            4 
   21000    1.2210536   -5.9782877    4.9720548  0.019730376  0.046696288            3 
   22000    1.2360412   -5.9847237    5.5544514  0.021039588  0.046247161            2 
   23000    1.2558809   -5.9692209    6.1210519  0.022177724  0.046068774            1 
   24000     1.256167   -6.0276028    6.5949107  0.022898995  0.045865876            5 
   25000    1.2726854   -5.9901604    7.0810102  0.023603367  0.045538517            2 
   26000    1.2294033   -5.9808448    7.6258542   0.02444184  0.045303348            4 
   27000     1.237483   -5.9907101    8.1646908  0.025199663  0.045055835            4 
   28000    1.2388466    -5.971066    8.6813804  0.025837441  0.044933508            3 
   29000    1.2532849   -6.0130773    9.2236307  0.026504685  0.044823375            4 
   30000    1.2360946    -6.001524    9.6764898  0.026879138  0.044651088            4 
   31000    1.2366377   -5.9620226    10.307977  0.027709616  0.044561428            9 
   32000    1.2166179   -5.9684968    10.934286  0.028474702  0.044541769            3 
   33000    1.2497392   -6.0241645    11.544325  0.029152337  0.044648633            2 
   34000     1.271321   -5.9647545    12.062037  0.029563816  0.044775127            3 
   35000     1.236722   -5.9819837    12.549557  0.029879898  0.044813355            3 
   36000    1.2373513   -5.9310213    12.986034  0.030060264  0.044799672            4 
   37000    1.2595198   -6.0180765    13.499108  0.030403396  0.044738068            3 
   38000    1.2593806   -6.0175621    14.070542  0.030856451  0.044712656            4 
   39000     1.240903   -6.0383298    14.710672  0.031433059  0.044768078            4 
   40000    1.2221986   -6.0083792    15.209175  0.031685781  0.044835531            5 
   41000    1.2378913   -6.0137478     15.71223  0.031935426  0.044862544            3 
   42000    1.2302611   -6.0175864    16.195646  0.032134219  0.044874677            4 
   43000     1.255882   -6.0135402    16.821172   0.03259917  0.044878489            2 
   44000    1.2399307   -6.0080744    17.350079  0.032859998  0.044874972            4 
   45000    1.2241124   -6.0026957    17.698161  0.032774373  0.044833919            3 
   46000     1.224717      -6.0064    18.155728  0.032890811  0.044721653            4 
   47000    1.2414781   -5.9878323    18.812608  0.033355688  0.044674541            6 
   48000    1.2463361   -5.9908797    19.394672  0.033671305  0.044651898            3 
   49000    1.2328015   -5.9803761    19.942541  0.033915886  0.044641451            6 
   50000    1.2537756   -5.9906639    20.382154  0.033970256  0.044625011            3 
   51000     1.222622   -5.9918063     20.89286  0.034138661  0.044600841            2 
   52000    1.2284496   -5.9676605    21.546074  0.034528965  0.044582152            2 
   53000    1.2367894   -6.0146419    22.172416   0.03486229  0.044598255            3 
   54000    1.2074823   -5.9938136    22.627008  0.034918222  0.044608358            2 
   55000     1.227027   -5.9986731    23.099377  0.034999056   0.04458417            5 
   56000    1.2329675   -5.9985657    23.467442  0.034921788  0.044530731            2 
   57000    1.2096782   -6.0039675    24.018818   0.03511523  0.044463303            5 
   58000    1.2323859   -6.0264013    24.586094  0.035324848  0.044430278            3 
   59000    1.2475288   -6.0182026    25.272539  0.035695677  0.044425886            3 
   60000    1.2668059   -5.9905758    26.038678  0.036164831  0.044453725            5 
   61000    1.2394139   -6.0138274    26.482534  0.036178324  0.044497839            3 
   62000     1.211668   -6.0285186     27.12265  0.036455174   0.04454385            4 
   63000     1.226189   -6.0479478    27.540964  0.036429847  0.044579941            4 
   64000    1.2366901   -6.0393861    28.133531  0.036632201  0.044609483            2 
   65000    1.2656449   -6.0298311    28.603027  0.036670547  0.044637892            3 
   66000    1.2353751   -6.0204163    29.296273  0.036990244  0.044666218            3 
   67000     1.211592   -6.0192529    29.723091  0.036969018  0.044700253            4 
   68000    1.2286322    -5.968858    30.111694  0.036901586  0.044700251            3 
   69000    1.2219551   -6.0373881    30.491743  0.036825776  0.044674951            2 
   70000    1.2537407   -6.0179018     31.38973  0.037368726  0.044657725            2 
   71000    1.2158068   -6.0409332    31.857943  0.037391952  0.044665695            3 
   72000    1.2687757    -6.016696    32.480513  0.037593186  0.044673755            2 
   73000    1.2485049   -6.0485829    32.902892  0.037560379  0.044681822            4 
   74000     1.232569   -6.0583737    33.247687  0.037441089  0.044677252            2 
   75000    1.2338397   -5.9923258    33.738045  0.037486716  0.044663969            6 
   76000    1.2064631   -6.0075835    34.176283  0.037473995  0.044635046            3 
   77000    1.2263805   -6.0275787    34.556146  0.037398427  0.044594627            3 
   78000    1.2355684   -6.0086452    35.129028  0.037531013  0.044552779            1 
   79000    1.2332128   -6.0190283     35.65491  0.037610664  0.044517746            2 
   80000    1.1958086   -6.0327891    36.321455  0.037834849   0.04449736            8 
   81000    1.2480044   -5.9923892     36.91827  0.037981759  0.044485617            4 
   82000    1.2312305   -6.0318519    37.299168  0.037905658  0.044466346            1 
   83000     1.191535   -6.0368954    37.873948  0.038026052  0.044438256            5 
   84000    1.2291362   -6.0682016    38.256088  0.037952468  0.044409616            3 
   85000    1.2381413   -6.0347138    38.585879  0.037829293  0.044372082            2 
   86000    1.2362762    -6.004236    39.089877  0.037877787  0.044318834            2 
   87000    1.2267804    -6.036848    39.519142  0.037853585  0.044267995            2 
   88000     1.221918   -6.0186157    39.891256   0.03777581  0.044212261            2 
   89000    1.2254158     -6.05867    40.300594  0.037734639  0.044152601            2 
   90000    1.1995199   -5.9897807    41.127975  0.038081458  0.044096835            2 
   91000    1.2129059   -6.0656453    41.503423  0.038006798  0.044051413            4 
   92000    1.2142739   -6.0724743    42.005729  0.038048668  0.044005138            2 
   93000    1.2287241   -5.9854763    42.320344  0.037921455  0.043950895            2 
   94000    1.2148811   -6.0201251     42.94521  0.038071994  0.043908884            4 
   95000    1.2354449   -6.0544771    43.185881  0.037882352  0.043857291            3 
   96000    1.2125033   -6.0228334    43.947493  0.038148866  0.043813358            2 
   97000    1.2399664   -6.0246366    44.452188  0.038189165  0.043771426            6 
   98000    1.2097248   -6.0577969    44.891606  0.038173134   0.04372865            7 
   99000    1.2210201   -5.9960343    45.575021  0.038362812  0.043694357            2 
  100000    1.1992908   -6.0557586     45.90878  0.038257316  0.043657208            4 
  101000    1.2149428   -6.0327056     46.66702  0.038504141   0.04361764            2 
  102000    1.1851808   -6.0311738    46.793383  0.038229888    0.0435732            2 
  103000    1.1946832   -6.0350262    47.229454  0.038211532  0.043529967            3 
  104000    1.2141275   -6.0414205    47.804301  0.038304728  0.043481457            3 
  105000     1.206485   -6.0353056    48.346034  0.038369868  0.043433673            2 
  106000    1.2062619    -6.037081    48.821489  0.038381674  0.043393121            3 
  107000    1.2162492   -6.0520788     49.17624  0.038299253  0.043349914            3 
  108000    1.2226418   -6.0509117    49.814854  0.038437387  0.043309098            3 
  109000    1.2436587   -6.0303105    50.372874  0.038511371  0.043276329            2 
  110000    1.1936513   -6.0175832    50.925881  0.038580212  0.043252511            3 
  111000     1.214564   -6.0649195    51.378708  0.038572603  0.043225651            3 
  112000    1.1885826   -6.0601864    51.777272  0.038524756  0.043193056            1 
  113000    1.1989151    -6.102146    52.099211  0.038421247  0.043159733            1 
  114000    1.2569308   -6.0570698    52.707352  0.038528766  0.043129039            2 
  115000    1.2306548   -6.0972525    53.234771  0.038575921  0.043095945            4 
  116000    1.2157256   -6.0541741    53.890506  0.038714443  0.043067098            2 
  117000    1.2140415   -6.0446246    54.363744  0.038720616  0.043043952            5 
  118000    1.2008539   -6.0505953    54.953457  0.038808938  0.043025421            2 
  119000    1.1906243   -6.0559942    55.152045   0.03862188  0.043001975            2 
  120000    1.2164361   -6.0243364    55.660944  0.038653433  0.042972372            3 
  121000    1.2078476   -6.0472825    56.313052  0.038783094  0.042940379            4 
  122000     1.163231    -6.045952    56.917218  0.038877881  0.042910471            5 
  123000    1.2243489   -6.0043427    57.259433  0.038793654  0.042883448            3 
  124000    1.2315681   -6.0469378    57.693947  0.038772814   0.04285884            4 
  125000    1.1930901   -6.0839227    58.447689  0.038965126  0.042838818            4 
  126000    1.1943367   -6.0466694    58.973882   0.03900389  0.042826263            2 
  127000    1.1774635   -6.0793206    59.167029   0.03882351  0.042809238            2 
  128000    1.2171798   -6.0291844    60.000388  0.039062752  0.042789095            2 
  129000    1.2277483   -6.0614424    60.420202  0.039031138  0.042772315            2 
  130000    1.2191728   -6.0369865    61.006732  0.039106879  0.042760731            1 
  131000    1.2493057   -6.0806372     61.34357  0.039022627  0.042748127            4 
  132000     1.196654   -6.0484338    62.017011  0.039152153  0.042734413            3 
  133000    1.2075254   -6.0493052    62.430506  0.039116858  0.042724315            2 
  134000    1.2213309    -6.057387    63.131278  0.039260745  0.042715292            3 
  135000    1.2214432     -6.05217    63.417512  0.039146612   0.04270028            4 
  136000     1.214399   -6.0533484    63.643637  0.038997327  0.042683772            2 
  137000    1.1822682   -6.0877524    64.432674  0.039192624  0.042664596            3 
  138000    1.2093301   -6.0806501    64.903505  0.039192937  0.042647751            4 
  139000    1.1977701   -6.0506484    65.504554  0.039271315  0.042632115            8 
  140000    1.1831703   -6.0835911    65.806798  0.039170713  0.042615571            5 
  141000    1.1828802   -6.0645283    66.130815  0.039084406   0.04259748            4 
  142000     1.223311   -6.0706363    66.776163  0.039187889  0.042579553            3 
  143000    1.1886164   -6.0508942    67.360531  0.039254388  0.042559532            7 
  144000    1.1758612   -6.0634973     67.67301  0.039162621  0.042538563            5 
  145000    1.1703309   -6.0596001    67.968927  0.039062602  0.042515916            4 
  146000    1.1852863   -6.0344532    68.257035  0.038959495  0.042490536            4 
  147000    1.1724371   -6.1144992    68.622892  0.038901866  0.042463173            3 
  148000    1.1861194   -6.0651683    69.306496  0.039023928  0.042435654            3 
  149000    1.2000572    -6.045078    69.508546  0.038875026  0.042408403            5 
  150000    1.1890949   -6.0622078    70.071418  0.038928565  0.042380138            6 
  151000    1.2023815     -6.02962     70.80299  0.039074498  0.042354319            2 
  152000    1.1975129   -6.0516527    71.202989  0.039036726  0.042327817            3 
  153000     1.203488   -6.0354825    71.671394  0.039036707  0.042303469            5 
  154000    1.1976346   -6.0712654    72.153015  0.039043839  0.042280836            4 
  155000     1.171834   -6.0714674      72.7328  0.039103656  0.042259446            4 
  156000    1.2162951   -6.0899016    73.431911  0.039226448  0.042242425            3 
  157000    1.1956893   -6.1192595     73.70658  0.039122388  0.042226064            5 
  158000    1.1787919   -6.0486856    74.795825  0.039449275  0.042208294            2 
  159000    1.1910026   -6.0374728    75.511929  0.039576483  0.042196239            6 
  160000    1.1624442   -6.0813575    75.916534  0.039539861  0.042189189            5 
  161000    1.1923772   -6.1206586      76.3429  0.039514958  0.042185255            3 
  162000    1.1791422   -6.0647735    76.927891  0.039571961  0.042179382            2 
  163000    1.1890118   -6.0894909    77.307703  0.039523365  0.042175689            2 
  164000    1.1694489   -6.1138986    77.911625   0.03958924  0.042167933            6 
  165000    1.2029909   -6.0762131    78.232944  0.039511588  0.042164377            8 
  166000    1.1787464   -6.0664475     79.16176  0.039739839  0.042162163            3 
  167000     1.177031   -6.0770131    79.631946    0.0397365  0.042163002            2 
  168000    1.1940686   -6.0849361    80.106491  0.039735363  0.042162355           11 
  169000      1.14603   -6.0685979    80.716596  0.039801083  0.042161385            4 
  170000    1.1794909   -6.1026006    81.117503  0.039763482  0.042160291            4 
  171000    1.1965737   -6.1064502    81.568724   0.03975084  0.042161998            3 
  172000    1.1690207   -6.0887884    82.005954  0.039731567  0.042160177            3 
  173000    1.1776025   -6.1225432    82.879524    0.0399227  0.042161402            4 
  174000    1.2013986   -6.0846331    83.670215  0.040071942  0.042168739            4 
  175000    1.1861378   -6.1287944    84.309779  0.040147514  0.042178575            3 
  176000    1.1938254   -6.0784774    84.543994    0.0400303  0.042186399            4 
  177000    1.1884363   -6.0893531    85.209873  0.040117642  0.042192474            3 
  178000    1.1729089    -6.111379    85.594187  0.040072185  0.042198644            3 
  179000    1.1957074   -6.0924185    85.849774  0.039967306  0.042204374            3 
  180000     1.217449   -6.0519858     86.40463  0.040002143  0.042205504            3 
  181000    1.1762104   -6.0618836    86.956363  0.040035158  0.042207564            5 
  182000    1.1695509   -6.0924647    87.215926  0.039934032  0.042208051            2 
  183000    1.1835294   -6.0741565    87.920814  0.040036801  0.042209332            4 
  184000    1.1963321   -6.1042881    88.145558  0.039920995  0.042210471            9 
  185000    1.1903626   -6.0929057    88.839169  0.040017644  0.042210749            2 
  186000    1.1806733   -6.0843065    89.492255  0.040095096  0.042212987            6 
  187000    1.1947073   -6.0799256    89.794518  0.040015382  0.042212961            3 
  188000    1.1436255   -6.0865003    90.065778  0.039922774  0.042211586            3 
  189000    1.1839048     -6.08649    90.415869  0.039865903  0.042210442            2 
  190000    1.2060692   -6.0961658    90.891004  0.039864475  0.042207926            2 
  191000     1.183361    -6.077839    91.338271  0.039850904  0.042205152            5 
  192000    1.1455991   -6.1527426    91.930914   0.03990057  0.042200358            3 
  193000    1.1936945   -6.0734037    92.363875  0.039880775  0.042195838            4 
  194000    1.1710258   -6.1242949     92.96348  0.039932766  0.042192195            5 
  195000    1.1702797   -6.1287037     93.59938  0.039999735  0.042190124            3 
  196000    1.1585018    -6.088118    94.409221  0.040139975  0.042190977            4 
  197000    1.1824454   -6.1151842    95.148723  0.040249037  0.042193577            4 
  198000    1.1780184   -6.1054057    95.197296  0.040066202   0.04219511            2 
  199000    1.1760581   -6.1150339    95.607842  0.040036785  0.042195671            5 
  200000    1.1868684   -6.0636777    96.303836  0.040126598   0.04219511            4 
  201000    1.1700126   -6.1271891    96.305783  0.039927771  0.042193898            2 
  202000    1.1600759   -6.0954778    97.068177  0.040044627  0.042188883            2 
  203000    1.1822022   -6.1315264    97.246842  0.039920707  0.042181579            3 
  204000    1.1705626   -6.1342813    97.744552   0.03992833  0.042172774            5 
  205000    1.1877959   -6.1188971    98.076596  0.039868535  0.042163791            4 
  206000    1.1834431   -6.1245247    98.584365  0.039880407  0.042156917            3 
  207000    1.1608354   -6.1336608    99.018719  0.039862608  0.042150118            4 
  208000    1.2011562   -6.0968758    99.728969  0.039955516  0.042142021            4 
  209000    1.1793541   -6.1268201    99.841536  0.039809225  0.042131672            3 
  210000    1.1519246   -6.1028559    100.27369  0.039791145  0.042119865            1 
  211000    1.1539032   -6.1409334    100.53862  0.039707195  0.042106491            2 
  212000    1.1537466   -6.1030389    101.02764  0.039712123  0.042091945            3 
  213000    1.1325461   -6.1144784    101.27111  0.039620936  0.042076044            5 
  214000    1.1736337   -6.1116799    101.74334  0.039619682  0.042060611            4 
  215000    1.1578802   -6.1154378    102.33198  0.039663556  0.042044538            3 
  216000    1.1369326   -6.1151515    102.91211  0.039703745   0.04202846            3 
  217000    1.1398393   -6.1241795    103.05183  0.039574437  0.042011352            2 
  218000    1.1641059   -6.0899538    103.56313  0.039588353  0.041992032            1 
  219000    1.1682902   -6.1454619    103.48784  0.039378934  0.041972666            3 
  220000    1.1674276   -6.1233143     104.3017  0.039508218  0.041952658            3 
  221000    1.1606505   -6.1242667    104.68896  0.039475473  0.041931406            4 
  222000    1.1934965   -6.1158466    104.85567  0.039360237  0.041909329            3 
  223000     1.170573   -6.1493251    105.37982  0.039379602  0.041888389            4 
  224000    1.1388981   -6.1258014    106.15766  0.039493178  0.041868767            4 
  225000    1.1699296   -6.1554839    106.87986  0.039585131   0.04184947            2 
  226000    1.1590114   -6.0882921    107.44034  0.039616645  0.041830916            4 
  227000    1.1704191   -6.1119272    107.37336  0.039417531  0.041813689            3 
  228000    1.1640079   -6.1200923    108.03232  0.039485497  0.041794114            6 
  229000    1.1820853    -6.117223    108.62669  0.039529364  0.041776452            4 
  230000     1.142282   -6.1427019    108.81861  0.039427033  0.041758094            4 
  231000    1.1656125   -6.1289999    108.95261  0.039304692  0.041736662            3 
  232000    1.1719777   -6.1491347    109.35036  0.039278147   0.04171487            3 
  233000    1.1478725   -6.1309302    109.90117   0.03930657  0.041694089            4 
  234000    1.1897426   -6.1323672    110.51478  0.039357117   0.04167402            3 
  235000     1.147442   -6.1319224    111.03374  0.039373666  0.041654085            2 
  236000    1.1781246    -6.138783    111.03778  0.039208255  0.041631818            3 
  237000    1.1810648   -6.1300664    111.32587  0.039144118  0.041607045            3 
  238000    1.1657779   -6.1377841    111.60011  0.039075668  0.041582038            2 
  239000    1.1692866   -6.1197562    112.15037  0.039104034  0.041554121            7 
  240000    1.1769672   -6.1631672    112.59736  0.039096305  0.041526097            1 
  241000     1.151573   -6.1220051    112.62274  0.038942856  0.041497518            3 
  242000    1.1814473   -6.1347759    112.54768  0.038756088  0.041466726            2 
  243000    1.1398705    -6.161592    113.29797  0.038853901  0.041434046            2 
  244000    1.1441125   -6.1493853    114.01295  0.038938847  0.041402067            4 
  245000    1.1464746   -6.1631315    114.34012  0.038891196  0.041371954            3 
  246000    1.1752096   -6.1404927    114.55965  0.038807471  0.041342501            7 
  247000    1.1755269   -6.1171304    115.23581  0.038878478  0.041313078           18 
  248000    1.1767019   -6.1447339    115.98458  0.038973312  0.041286159            3 
  249000    1.1538853   -6.1062526    116.61257  0.039026963  0.041260784            2 
  250000    1.1786267   -6.1443631    116.43145  0.038810484  0.041234129            5 
  251000    1.1594922   -6.1394273    117.25883  0.038930554  0.041206202            4 
  252000    1.1670192   -6.1484938    117.69026  0.038918738  0.041178988            2 
  253000    1.1387739   -6.1473214    117.91529  0.038839028  0.041153276            4 
  254000    1.1604249   -6.1141847    118.90622  0.039011227  0.041128507            2 
  255000    1.1612704   -6.1601635    118.96055  0.038875996  0.041103243            5 
  256000    1.1618854   -6.1620052    119.28009  0.038828153  0.041076936            3 
  257000    1.1550897   -6.1530791    120.08131  0.038936872  0.041050858            3 
  258000    1.1664552   -6.1449692    120.57872  0.038946615  0.041028638            3 
  259000    1.1556527   -6.1399273    120.72158  0.038842206  0.041007452            2 
  260000    1.1452583   -6.1685199    121.29585  0.038876876  0.040986023            1 
  261000    1.1371635   -6.1559428    121.66427  0.038845552  0.040965339            2 
  262000    1.1600693   -6.1648962    122.49835   0.03896258  0.040942616            7 
  263000     1.149322   -6.1625654    123.05062  0.038989422  0.040921976            3 
  264000    1.1308981   -6.1819952    123.01722  0.038831194  0.040899486            2 
  265000    1.1712686   -6.1483679    123.79628  0.038929649  0.040878748            4 
  266000    1.1433783   -6.1727002    124.39046  0.038969441  0.040860532            4 
  267000    1.1443582   -6.1635752    124.40903  0.038829285  0.040841102            5 
  268000    1.1302338   -6.1154329    125.00287   0.03886905  0.040820572            2 
  269000    1.1539965   -6.1774507    125.30201  0.038817229  0.040799654            8 
  270000    1.1310519   -6.1473855    125.81752  0.038832568  0.040778539            3 
  271000    1.1079978   -6.1714258    126.27611  0.038830291  0.040757154            2 
  272000    1.1308708   -6.1736376    126.49123  0.038753442  0.040736197            2 
  273000     1.158526    -6.133137    127.09369  0.038795387  0.040716201            6 
  274000    1.1389272    -6.148805    127.60407  0.038809024  0.040695083            2 
  275000    1.1364497   -6.1819064    128.38577   0.03890478  0.040674502            2 
  276000    1.1439704   -6.1439264    128.40539  0.038769743  0.040654083            5 
  277000    1.1529666   -6.1541125    128.86988  0.038769517  0.040633364            4 
  278000    1.1376209    -6.150316    129.17758  0.038722296  0.040612778            3 
  279000    1.1472347   -6.1445183    129.13138  0.038569708  0.040589776            2 
  280000    1.1778242   -6.1837217    129.32266  0.038488887  0.040566032            5 
  281000    1.1576534    -6.166579    130.04505  0.038566148  0.040541602            2 
  282000    1.1412044   -6.1271373    130.55237  0.038579307  0.040517515            5 
  283000    1.1341613   -6.2033032    130.87876  0.038539094     0.040494            7 
  284000    1.1435206   -6.1799051    131.24759  0.038511617  0.040469206            3 
  285000    1.1331307    -6.171559    131.77551  0.038530851  0.040445366            3 
  286000    1.1441357   -6.1590347    132.08947  0.038487608  0.040422364            2 
  287000    1.1225817   -6.1383242    133.23006  0.038684686  0.040401032            3 
  288000    1.1484703    -6.174302    132.85657  0.038442295  0.040378995            4 
  289000    1.1369602   -6.1739138     133.7104  0.038555478  0.040356413            3 
  290000     1.129284   -6.1814327    134.19723  0.038562423   0.04033238            5 
  291000    1.1361287   -6.1425239     134.1677  0.038421449  0.040309019            2 
  292000    1.1207295   -6.1866919    134.28961  0.038324661   0.04028503            4 
  293000    1.1433639   -6.1714194    134.78231  0.038333989  0.040260837            6 
  294000    1.1559804   -6.1853445    134.92399  0.038243761  0.040235351            9 
  295000    1.1514586   -6.1644194    135.31669  0.038225052  0.040209787            3 
  296000    1.1385916    -6.183623    136.10182  0.038316955  0.040184525            3 
  297000    1.1498726   -6.1793532    136.41866  0.038276841  0.040159939            4 
  298000    1.1241894   -6.1709273    137.40934  0.038425431  0.040137398            3 
  299000    1.1386978   -6.1772763    137.80693   0.03840773  0.040116317            4 
  300000    1.1213464   -6.2017961    138.12726  0.038368684  0.040094583            6 
  301000    1.1334791   -6.1761505    138.21802  0.038266341  0.040071865            1 
  302000    1.1280369   -6.1622523    138.22932  0.038142748  0.040048138            3 
  303000    1.1411427    -6.189631    138.85554  0.038189093  0.040023589            5 
  304000    1.1132884   -6.2208852     139.2144  0.038161841  0.039999019            2 
  305000     1.152802   -6.2197555    139.28088  0.038054884  0.039973522            2 
  306000    1.1166075   -6.1470326    139.46631  0.037981022  0.039948382            5 
  307000    1.1356467   -6.1814349    140.48223  0.038133071  0.039921775            6 
  308000    1.1158314   -6.1987326    141.16073  0.038192839  0.039897499            6 
  309000    1.1481008   -6.1525106     141.2763  0.038100404  0.039874362            4 
  310000    1.1080943   -6.1842479    141.69016  0.038088753  0.039850452            3 
  311000    1.1516689   -6.1520253    142.69068  0.038234372   0.03982611            6 
  312000    1.1155566   -6.2267671     142.3232  0.038013675  0.039802274            5 
  313000    1.1426671   -6.1653294     142.2301  0.037867438  0.039776267            3 
  314000    1.1509147   -6.1723896    142.85581  0.037912901  0.039749049            6 
  315000    1.1312283    -6.209699    143.09419  0.037855607  0.039722027            2 
  316000    1.1364418   -6.1730808    143.77426  0.037915152  0.039696511            6 
  317000    1.1147583   -6.2127458    143.73856  0.037786163  0.039670098            4 
  318000    1.1158444   -6.1844382    144.45344  0.037854676  0.039642792            3 
  319000    1.1210074    -6.221544    144.20693  0.037671612  0.039614996            3 
  320000    1.1356238   -6.1773531    145.31899  0.037843486  0.039587789            3 
  321000     1.128772   -6.2226917    145.67565  0.037818185  0.039561516           10 
  322000     1.118937   -6.2334314    145.11289  0.037555096  0.039534846            3 
  323000    1.1098683    -6.210005    146.36914  0.037762936  0.039508408            3 
  324000    1.1286763   -6.2250787    146.94654  0.037794892  0.039483023            5 
  325000    1.1095976   -6.1690531     147.4117  0.037797871     0.039459            3 
  326000    1.1285623   -6.1749457    148.02781   0.03783942  0.039435263            5 
  327000     1.091298   -6.1949238    148.15114  0.037755133  0.039412265            2 
  328000    1.1403611   -6.1570921    148.44962  0.037715858  0.039388985            5 
  329000    1.1122002   -6.2104034    149.17886  0.037785932   0.03936609            3 
  330000    1.1166705   -6.2535501    149.16114  0.037666955  0.039341808            6 
  331000    1.1217993   -6.1961584    150.21929  0.037819559  0.039317679            7 
  332000    1.1003062    -6.191513     150.6326  0.037809388  0.039294989            7 
  333000    1.1302053   -6.2170745    151.52053  0.037918052  0.039273522            2 
  334000    1.1163525   -6.1701203     151.4404   0.03778453  0.039253236            6 
  335000    1.1198388   -6.2306121    151.98546  0.037807327  0.039232341           21 
  336000     1.106172   -6.2092295    152.72461  0.037878126  0.039211251            5 
  337000    1.1336006   -6.1989917    152.59053  0.037732574  0.039189783            3 
  338000    1.0950197   -6.1987295     153.2374  0.037780424  0.039169526            1 
  339000    1.1277591   -6.2738037    153.34522  0.037695481  0.039149244            5 
  340000    1.1210729   -6.1867498    154.54236   0.03787803   0.03913048            6 
  341000    1.1154798   -6.2129681    154.84731  0.037841474  0.039111341            3 
  342000    1.1247787   -6.1932409       155.03  0.037775341  0.039091525            4 
  343000     1.104054   -6.2033884    155.47607  0.037773583  0.039071656            3 
  344000    1.1311169   -6.2309749    155.79642  0.037741381  0.039051276            4 
  345000    1.1297046   -6.2049765    156.00909  0.037683356  0.039031004            3 
  346000    1.0960193   -6.2228639    156.80208  0.037765434  0.039010628            2 
  347000    1.1334691   -6.2029771    156.91808  0.037684458  0.038990732            2 
  348000    1.1277533   -6.2295599    157.25323  0.037656426  0.038970904            3 
  349000    1.1295998   -6.1983647    157.70682  0.037656835  0.038951402            9 
  350000    1.1185178     -6.25191    157.92413  0.037600984   0.03893317            4 
  351000    1.0985755   -6.2346749    159.31367  0.037823759  0.038915026            3 
  352000    1.1279473   -6.2044276    159.49242  0.037758623  0.038898347            5 
  353000    1.1087822   -6.1990097    159.67411  0.037694549  0.038881259            3 
  354000    1.1152711   -6.2008268    160.44239  0.037768925  0.038864559            4 
  355000    1.1190706   -6.2021984    160.88191  0.037765706  0.038847341            4 
  356000     1.126139   -6.1968811    161.26314  0.037748863  0.038830343            3 
  357000    1.1181536    -6.185683     161.7109  0.037747641  0.038813122            5 
  358000    1.1087209   -6.2155099    162.23993  0.037765348  0.038797092            3 
  359000    1.1009374   -6.2158281    162.58016  0.037739127  0.038781134            5 
  360000    1.1386127   -6.2370891    162.85091   0.03769697  0.038765511            8 
  361000    1.1060371    -6.207659    163.58932     0.037763  0.038749762            3 
  362000    1.1042421   -6.2732994    163.71472   0.03768755  0.038734442            3 
  363000    1.1172853   -6.2140907    163.57351   0.03755131  0.038718692            3 
  364000    1.1253091   -6.2407036     164.7873  0.037726029  0.038703503            3 
  365000    1.1056216   -6.2873984     164.6226  0.037585069  0.038688011           10 
  366000    1.1171463   -6.2211177    165.05557  0.037580958  0.038671454            6 
  367000    1.1236657   -6.2061526    165.70884  0.037626893  0.038655791            4 
  368000     1.117848   -6.2324591    165.90556  0.037569194  0.038639826            3 
  369000    1.0988791   -6.2033438    166.69433  0.037645512  0.038623204           11 
  370000    1.0995015   -6.2213573    166.48092  0.037495703  0.038605509            3 
  371000    1.0736361   -6.2445852     166.5534  0.037410916  0.038588289            3 
  372000    1.1333579   -6.2259772    166.89456  0.037386775  0.038570085            4 
  373000    1.1275659   -6.2397026    167.11565  0.037335937  0.038550708           11 
  374000    1.0719495   -6.2298146    167.51521  0.037325135  0.038530983            4 
  375000     1.102859   -6.2476813    167.39528   0.03719895   0.03851078            3 
  376000    1.0920295   -6.2123092    168.25511  0.037290583  0.038490791            5 
  377000    1.1047134   -6.2251806    168.48692  0.037242908  0.038471463            3 
  378000    1.0836958   -6.2363135    168.48291  0.037143498  0.038451327            6 
  379000     1.080904   -6.1999986    168.68403  0.037089716   0.03843006            4 
  380000    1.1108232   -6.1937709    169.32215  0.037132051  0.038409271            3 
  381000    1.1103254   -6.2566403    169.52295   0.03707851  0.038388845           10 
  382000    1.0933976   -6.2512811    170.25399  0.037140922  0.038368255            4 
  383000    1.0996039   -6.2437525    170.56444  0.037111498  0.038347378            6 
  384000    1.1026914   -6.2612324    171.47866  0.037213251  0.038327702           12 
  385000    1.0935874   -6.2341735    171.76495  0.037178561  0.038308268            2 
  386000    1.0856912   -6.2471755    171.91869  0.037115433  0.038289845            6 
  387000    1.0938706   -6.2512403    172.66353  0.037179915  0.038270851            6 
  388000    1.1048293   -6.2321181    173.18497  0.037196085  0.038252493            4 
  389000    1.0874507   -6.2354562    172.47299  0.036947941  0.038232222            5 
  390000    1.1160416   -6.2449049    172.83218  0.036929953  0.038211573            3 
  391000    1.0920539   -6.2473199    172.47564  0.036759515  0.038190132            4 
  392000    1.0819503   -6.2624448    173.35521  0.036852723  0.038167666            3 
  393000    1.0752389   -6.2669062    173.17199  0.036720099  0.038144475            5 
  394000    1.1005645   -6.2678722    173.79928  0.036759578  0.038121313            5 
  395000    1.0783734   -6.2470596    173.84602  0.036676375   0.03809816            4 
  396000     1.106553    -6.265674     173.9143  0.036598126  0.038075106            5 
  397000    1.0646269   -6.2535565    174.81511  0.036695026    0.0380515            2 
  398000    1.0967605   -6.2343554    174.92454  0.036625742  0.038027993            3 
  399000     1.105237   -6.2352955    175.59095  0.036673132  0.038004716            7 
  400000     1.080003   -6.2329438    176.27376    0.0367237  0.037982001            4 
  401000       1.0976   -6.2285136    176.48941  0.036676935  0.037959995            7 
  402000    1.0896745   -6.2310184    176.72862  0.036635286  0.037937462            9 
  403000    1.1002486   -6.2287212    177.20821   0.03664355  0.037915698            5 
  404000    1.0790216   -6.2632572    177.72739  0.036659939  0.037894138            5 
  405000    1.0891757    -6.259442    178.46809  0.036721829  0.037872441            4 
  406000     1.086914   -6.3018318    178.12853  0.036561685  0.037850408            2 
  407000    1.0952173   -6.2271218    178.80131  0.036609605  0.037827516            4 
  408000    1.1122769   -6.2564358    178.37839  0.036433495  0.037804285            5 
  409000    1.1035859   -6.2541021    178.59196   0.03638793  0.037780155            4 
  410000    1.0862106   -6.2783067    179.32409  0.036447985  0.037756537            5 
  411000     1.087384   -6.2875693    179.78356  0.036452466  0.037732498            6 
  412000    1.0739281   -6.2730503    179.53453  0.036313618  0.037708903            4 
  413000    1.0739596   -6.2448921    180.68717  0.036458267  0.037686722            9 
  414000    1.0965446   -6.2474765     181.7314  0.036580395  0.037664763            5 
  415000    1.1031466    -6.281069    180.96318  0.036337988  0.037642558            4 
  416000    1.1137605     -6.22617     181.2347  0.036305029  0.037620562            3 
  417000    1.1019803   -6.2681994    181.17421  0.036205877  0.037597443            5 
  418000    1.0785533   -6.3300306    181.35673  0.036155649  0.037574102            5 
  419000    1.0759686   -6.2438851    182.03013  0.036203287  0.037549881            9 
  420000    1.0957164   -6.2440545    182.76518  0.036262933  0.037526331            3 
  421000    1.0685541   -6.2450649    182.74516  0.036172835  0.037502205            4 
  422000    1.1100282   -6.2479457    183.04891  0.036147098  0.037478225            3 
  423000    1.0871241   -6.2712021    182.83795  0.036020084  0.037454239            2 
  424000    1.0690956   -6.2901046    184.02608  0.036168648  0.037430208            5 
  425000     1.092132   -6.2692881    184.74257  0.036224034  0.037407016            4 
  426000     1.075389   -6.2741118     184.0774  0.036008881  0.037383487            4 
  427000    1.0924493   -6.2992956    183.86015  0.035882153   0.03735908           18 
  428000    1.0712459     -6.27803    184.64197  0.035950538  0.037334288            2 
  429000    1.0870547   -6.3085696    184.82168  0.035901647  0.037309122            3 
  430000    1.0847433   -6.2841006    185.88801  0.036024809  0.037284581            3 
  431000     1.082823   -6.2371368    186.35855  0.036032202  0.037261263            4 
  432000    1.0830078   -6.2446102    185.96724  0.035873311  0.037237005            4 
  433000     1.089807   -6.2774407     186.1051  0.035816994  0.037211483            2 
  434000    1.1134135   -6.2913964    186.63175   0.03583559  0.037186675            5 
  435000    1.0901295   -6.3104207      187.336  0.035888123  0.037162594            5 
  436000    1.0989069   -6.2861914    187.97449  0.035927845  0.037139144            5 
  437000    1.0821695   -6.2633848    188.41918  0.035930431  0.037115636            4 
  438000    1.0776092    -6.292934    188.43345  0.035851114   0.03709232            4 
  439000    1.0771552   -6.2446853     189.0532  0.035887091  0.037069351            4 
  440000    1.0861754   -6.2403729    189.76592  0.035940516  0.037047888            7 
  441000    1.0824471   -6.2517925    190.00186  0.035903603  0.037025698            4 
  442000    1.0598176   -6.2819561    190.10571  0.035841951  0.037002763            5 
  443000    1.0514317   -6.3234628    190.10032  0.035760031  0.036979612            3 
  444000    1.0829452   -6.2773019    190.34818  0.035726009  0.036956627            2 
  445000    1.0873012   -6.2667889    191.32707  0.035829039  0.036933705            2 
  446000    1.0708561   -6.3330927    191.42948   0.03576784  0.036911518            7 
  447000     1.095026   -6.3240172    192.08207  0.035809483  0.036889289            9 
  448000    1.0573411   -6.2716866    192.46334  0.035800473  0.036867298            2 
  449000    1.0761147   -6.2947572    192.15764  0.035664001  0.036845411            6 
  450000    1.0618567   -6.2903869    193.31032  0.035798208  0.036822993            6 
  451000    1.0568316   -6.2752154     193.1973   0.03569795  0.036800629            7 
  452000    1.0543758   -6.2556536    194.51172  0.035861306  0.036779401            4 
  453000    1.0695485    -6.242845    194.05353  0.035697854  0.036758415            3 
  454000    1.0678041   -6.3041812    194.63689  0.035726302  0.036737243            5 
  455000    1.0650461   -6.2960363    195.01574  0.035717168  0.036716026           13 
  456000    1.0940707   -6.3016422    195.57568   0.03574117  0.036694854            4 
  457000     1.052719   -6.3292806    195.35148  0.035622078  0.036673345            4 
  458000    1.0689762    -6.310296    196.23165  0.035704448   0.03665251            6 
  459000    1.0755173   -6.3213999    196.38624  0.035654728  0.036632632            4 
  460000    1.0890056   -6.3256861     196.4961  0.035597119  0.036612306            8 
  461000     1.074868    -6.308241    197.55162  0.035710705  0.036592214            2 
  462000    1.0940945   -6.2884397    198.05267  0.035723786  0.036573098            6 
  463000    1.0950886   -6.2900687    197.88427   0.03561632  0.036553781            3 
  464000    1.0785811   -6.3058364    198.76554  0.035697835  0.036534775            5 
  465000    1.0741665   -6.2710287     198.9343  0.035651308  0.036515979            4 
  466000     1.040509   -6.3073104    199.43592  0.035664507   0.03649617            4 
  467000    1.0931121   -6.2993435    199.70948  0.035636952  0.036476637            3 
  468000     1.046967   -6.2897855     199.9832  0.035609544  0.036456558            4 
  469000     1.066777   -6.3206565    200.28007  0.035586366  0.036436977           10 
  470000    1.0602417   -6.3099199    200.39282  0.035530642  0.036417487            3 
  471000    1.0624417   -6.3155909    200.83868   0.03553409  0.036398107            5 
  472000    1.0647919   -6.3104007    201.40398  0.035558612  0.036379005            3 
  473000    1.0740821   -6.3256009    201.71337  0.035537944  0.036359955            6 
  474000    1.0867618   -6.2959545    202.77004  0.035648741   0.03634138            3 
  475000    1.0599781   -6.3230093    202.76592  0.035572968  0.036322884            5 
  476000    1.0822079   -6.3078898    202.91281  0.035523951  0.036304141            6 
  477000    1.0792928   -6.3005796    203.05614  0.035474517   0.03628509            5 
  478000    1.0513252   -6.2911313    204.24194  0.035607033  0.036266386            4 
  479000    1.0418158   -6.3038136    203.91794  0.035476329  0.036248327            5 
  480000    1.0577087   -6.2977764    203.93075  0.035404644  0.036229586            3 
  481000    1.0605757   -6.3130305    204.28906  0.035393116  0.036210498            4 
  482000     1.083899   -6.2660757    205.37254  0.035507009  0.036192384            4 
  483000    1.0590942    -6.318674    204.72184  0.035321228  0.036173956            6 
  484000    1.0739209   -6.3221352    206.00186  0.035468639  0.036155362            5 
  485000    1.0684356   -6.3178226    206.13784  0.035418872  0.036136098            2 
  486000    1.0514814   -6.2910283    205.91577  0.035307917  0.036117521            3 
  487000    1.0541743   -6.3122764    205.89641  0.035232103  0.036098015            7 
  488000    1.0548181   -6.2981576    206.05124  0.035186346  0.036078125            3 
  489000    1.0432807   -6.2934705    206.29278  0.035155552  0.036058238            4 
  490000    1.0578374   -6.2659719    206.76923  0.035164835  0.036037492            2 
  491000    1.0534604   -6.2653457    207.65449  0.035243463  0.036017074            5 
  492000    1.0439063   -6.3033675    207.77957  0.035193016  0.035997672            4 
  493000    1.0645727   -6.3175972    208.26408   0.03520353  0.035978591            7 
  494000    1.0564738   -6.3196516    207.44588  0.034994244  0.035958891            3 
  495000    1.0534299   -6.3095861    208.37522  0.035080004  0.035938497            6 
  496000    1.0519358   -6.3162376    208.56048  0.035040404  0.035917822            2 
  497000    1.0645124   -6.3284399    209.41355  0.035112937  0.035897581           10 
  498000     1.061831   -6.3141448    209.33565  0.035029393  0.035877513            3 
  499000     1.061009   -6.3300271     209.9743  0.035065849  0.035857733            2 
  500000    1.1020321   -6.3115117    210.73608   0.03512268   0.03583853            2 
  501000    1.0604008    -6.306519    210.74659  0.035054323   0.03581885            8 
  502000    1.0542018   -6.3073535    210.36111  0.034920503  0.035798479            6 
  503000    1.0571585   -6.3356326    211.15062  0.034981879  0.035778149            5 
  504000    1.0382531   -6.3078788    210.40544  0.034789259  0.035757464            4 
  505000    1.0364478   -6.3150682    211.37933  0.034881078  0.035736389            4 
  506000    1.0345576   -6.2818205    211.17877  0.034779113  0.035715127            3 
  507000    1.0267644   -6.3309618    211.39441  0.034745957  0.035693138            8 
  508000     1.042085   -6.3358879    211.53567  0.034700734  0.035670706            4 
  509000    1.0640559   -6.3431465    210.94915  0.034536534  0.035648034            3 
  510000    1.0345702   -6.3016565    211.96229  0.034634361  0.035624936           11 
  511000    1.0284775   -6.3076315    211.64608  0.034515016  0.035602058            6 
  512000      1.04571   -6.3381675    212.14838  0.034529359  0.035579442            5 
  513000    1.0513435   -6.3376824    212.84202  0.034574727  0.035557429            5 
  514000    1.0581835   -6.3203104    213.53214  0.034619348  0.035535293            4 
  515000    1.0480308    -6.386337    213.52144  0.034550395  0.035512949            5 
  516000    1.0587693   -6.3148813    214.12773  0.034581352  0.035490984            5 
  517000    1.0674474   -6.3429735    214.05621  0.034502935  0.035469432            9 
  518000    1.0577399   -6.3250876     214.6946  0.034539028  0.035447756            5 
  519000     1.043514   -6.3177494    214.54889  0.034449083  0.035426465           10 
  520000    1.0545438    -6.285611     215.8624  0.034593333  0.035404767            2 
  521000    1.0517867   -6.3227259     216.1881   0.03457903  0.035383491            3 
  522000    1.0278274   -6.3572737     216.0653  0.034493184  0.035362124            5 
  523000    1.0309286   -6.3336552    216.45434   0.03448922  0.035340882            4 
  524000    1.0688583   -6.3621998    216.79353  0.034477343  0.035319724            6 
  525000    1.0476328   -6.3164893    217.94899  0.034595078  0.035299329            6 
  526000    1.0370278   -6.3651455    217.51361  0.034460331  0.035279149            5 
  527000    1.0233956   -6.3114316    218.83497  0.034603885  0.035259016            2 
  528000    1.0366118   -6.3562228     218.8885  0.034546796  0.035239129            5 
  529000    1.0368086   -6.3341717    218.74114  0.034458277  0.035218938           11 
  530000    1.0757273   -6.3433958    219.82262  0.034563304   0.03519981            4 
  531000    1.0602446   -6.3542708    220.40078  0.034588949  0.035181347            7 
  532000    1.0301837   -6.3732269    220.09963  0.034476758  0.035162397            3 
  533000    1.0272209   -6.3554015    220.58583  0.034488091  0.035143704            5 
  534000    1.0410677   -6.3430748     221.4698  0.034561454  0.035125833            3 
  535000    1.0448674   -6.3252399    221.46518  0.034496135  0.035107562            4 
  536000    1.0498097   -6.3389917    222.12716  0.034534696  0.035089174            4 
  537000     1.048033   -6.3591493    222.15216  0.034474265   0.03507103            6 
  538000    1.0414065   -6.3601099    222.16435  0.034412073  0.035052549            3 
  539000    1.0345442   -6.3618754    222.44456  0.034391552  0.035033846            5 
  540000    1.0640908   -6.3555328    222.63669  0.034357514  0.035015236            3 
  541000    1.0476717   -6.3566821    224.04581  0.034511062  0.034996793            3 
  542000    1.0228052   -6.3483566    224.37628  0.034498197  0.034978933            4 
  543000    1.0277271   -6.3350413    224.37019  0.034433731  0.034960734            4 
  544000    1.0221077   -6.3768344    224.46872  0.034385527  0.034943076            4 
  545000    1.0667684   -6.3508012    224.41379  0.034314035  0.034925246           10 
  546000    1.0451879   -6.3561898    225.48933  0.034415343  0.034907687            4 
  547000    1.0274722   -6.3795246    225.78717  0.034397802  0.034890318            3 
  548000    1.0357236   -6.3741931    226.53305  0.034448457  0.034873471            7 
  549000    1.0410385    -6.366421    226.69239  0.034409896  0.034856682            7 
  550000    1.0487559    -6.340089    227.22607  0.034428192  0.034840572            3 
  551000    1.0296302   -6.3366116    227.70387  0.034437972  0.034824402            4 
  552000     1.044697   -6.3563905    227.80521  0.034390883  0.034808051            3 
  553000    1.0621995   -6.3401469    228.80441  0.034479265  0.034791665            5 
  554000    1.0491502   -6.3681936     228.0149   0.03429827  0.034775385            4 
  555000    1.0257525   -6.3819379    228.82105  0.034357515  0.034759138            8 
  556000    1.0204806   -6.3352991    229.48725  0.034395571  0.034742958            4 
  557000    1.0377478   -6.3884739    228.76958  0.034226448  0.034726445            4 
  558000    1.0357217   -6.3426814    230.02997  0.034353341  0.034709584            4 
  559000    1.0426464   -6.3368339    230.14419  0.034308913  0.034692958            8 
  560000    1.0251967   -6.3343863    229.82573  0.034200258  0.034676146            5 
  561000    1.0234192   -6.3499543     230.2704  0.034205347  0.034659594            4 
  562000    1.0533401   -6.3571921    230.61084  0.034194965  0.034642636            4 
  563000    1.0338752   -6.3824296    231.00158  0.034192063  0.034625774            3 
  564000     1.031129   -6.3570888    230.60558  0.034072929  0.034608581            4 
  565000    1.0454146   -6.3521922    231.03771  0.034076359  0.034591019            7 
  566000    1.0171462   -6.3605035    231.07257  0.034021285  0.034573969           12 
  567000    1.0279877   -6.3372245    231.96038  0.034091767  0.034556807            4 
  568000     1.027929   -6.3499481    232.39834  0.034096001   0.03453965            4 
  569000    1.0467221   -6.3666147    232.67359   0.03407639  0.034522468            5 
  570000    1.0158948   -6.3713808    232.54143  0.033997286  0.034504806            4 
  571000    1.0371919   -6.3745379    232.95567    0.0339982  0.034487523            3 
  572000    1.0097922   -6.3478095     233.0789  0.033956716  0.034469641            9 
  573000   0.99267239   -6.3798209    233.09456  0.033899732  0.034451864            3 
  574000    1.0220935   -6.3395721    234.17024  0.033996841  0.034434333            8 
  575000    1.0171502    -6.405393    233.70283  0.033869976  0.034416372            7 
  576000    1.0101946    -6.371641    234.17413  0.033879358  0.034398193            3 
  577000    1.0382507   -6.3998064    233.77503  0.033763003   0.03438025            4 
  578000    1.0182904   -6.3806051    234.69904  0.033837808  0.034362365            6 
  579000    1.0251556    -6.395905    234.30863  0.033723177  0.034343912            3 
  580000   0.99532762   -6.3927995    235.68727  0.033863114  0.034325411            5 
  581000    1.0220655   -6.3525264    235.87432  0.033831658  0.034307393            6 
  582000    1.0434372   -6.3381983    235.49695  0.033719495  0.034289319            2 
  583000    1.0083466   -6.3822927    236.34001  0.033782162  0.034271401            4 
  584000    1.0200831   -6.3811984    236.76905  0.033785538   0.03425366            3 
  585000    1.0366502   -6.3846111    236.99863  0.033760489  0.034236356            9 
  586000    1.0068199   -6.3770454     237.2011   0.03373167  0.034218862            9 
  587000    1.0517715   -6.4064168    236.63987   0.03359453  0.034200994            7 
  588000    1.0223205   -6.3651877    237.49221  0.033658194  0.034182826            5 
  589000    1.0251162    -6.391005    238.45937  0.033737885  0.034164896           10 
  590000    1.0194815   -6.3642134    239.04793  0.033763831  0.034147232            3 
  591000    1.0080031   -6.3878792    237.89885  0.033544677  0.034129217            6 
  592000    1.0242786    -6.408745    238.73913  0.033606297  0.034111711            5 
  593000    1.0372313   -6.3899031    238.83119  0.033562562  0.034093706            5 
  594000    1.0043453   -6.3805834    240.14668  0.033690612  0.034075525            3 
  595000    1.0090201   -6.4027286    239.66531   0.03356657  0.034057077            8 
  596000    1.0073028   -6.3771851    239.36676  0.033468507  0.034038717            6 
  597000   0.99169373   -6.4302974    239.82028  0.033475752  0.034020213            5 
  598000    1.0309068    -6.407553    240.10893  0.033459996  0.034001748            5 
  599000    1.0114287   -6.3879684    240.79821   0.03350003  0.033983502            3 
  600000   0.99207914   -6.4084386    240.53543  0.033407698  0.033965553           10 
  601000    1.0180271   -6.4001301    241.47145  0.033481898  0.033948286           10 
  602000     1.003479   -6.3963377    241.95176  0.033492769  0.033931146            6 
  603000    1.0079252   -6.4076192    242.09238  0.033456658  0.033913537            3 
  604000     1.008186   -6.4315405    241.77178  0.033357034   0.03389576            3 
  605000    1.0121613   -6.3900944    242.51759  0.033404626  0.033878114            4 
  606000    1.0403813   -6.4177398    243.13473  0.033434368  0.033860716            5 
  607000    1.0325367   -6.4079469    242.55171  0.033299247  0.033843435            6 
  608000    1.0010611   -6.4129921    243.86617   0.03342464  0.033826144            4 
  609000    1.0000623   -6.3780681    244.34005  0.033434599  0.033808685            5 
  610000   0.98769339   -6.3874951    244.38479    0.0333859   0.03379111            5 
  611000    1.0024455   -6.3762839    244.53014  0.033351082  0.033773544            7 
  612000    1.0041715   -6.3922385    245.23629   0.03339274  0.033756246            6 
  613000    1.0008962   -6.3966099    245.02693  0.033309806  0.033739133            6 
  614000   0.98864176   -6.3804149    245.44775  0.033312669  0.033721616            5 
  615000    1.0083984   -6.3932423    244.82063  0.033173527  0.033703789            6 
  616000    1.0008669   -6.4301194    244.38277  0.033060439  0.033685686           12 
  617000    1.0250536   -6.3547657    244.49133   0.03302152  0.033666828            4 
  618000     0.997865   -6.3942742    245.47152  0.033100259  0.033648286            7 
  619000   0.99286059   -6.3986619     245.0065  0.032984181  0.033629554            7 
  620000   0.99649619   -6.4164383    246.14027  0.033083369  0.033610506            3 
  621000    1.0028207   -6.4480693    246.07746  0.033021667  0.033591531            5 
  622000    1.0084879   -6.4341791    246.83402  0.033069939  0.033572932            7 
  623000    1.0033692   -6.4058108    247.25407  0.033073043  0.033554313           10 
  624000    1.0392049    -6.410865     246.5727  0.032929047  0.033535237            9 
  625000   0.99227268   -6.4010003    246.72438  0.032896584   0.03351652            6 
  626000   0.99545282   -6.4387282    247.12431  0.032897272  0.033497544            9 
  627000    1.0111007   -6.4073957    247.88578   0.03294601  0.033478662            4 
  628000   0.99906763   -6.3855267    248.57529  0.032985044  0.033460136            6 
  629000   0.99158515   -6.4036005    248.18253  0.032880568  0.033441412           15 
  630000    1.0023942   -6.3934933    248.11361   0.03281926  0.033422622            6 
  631000    1.0042378   -6.4635259    248.05566  0.032759597  0.033403802            4 
  632000   0.98561934   -6.4220682    248.44651  0.032759297  0.033384576            8 
  633000    1.0084382   -6.4329734    249.53672  0.032851068  0.033365266            4 
  634000   0.99459155   -6.4321555    248.71317  0.032691006  0.033346109            5 
  635000   0.99591627   -6.4119959    249.50882   0.03274394  0.033326527            4 
  636000   0.98180396   -6.4174163    249.46648  0.032686908  0.033306929            5 
  637000   0.98451882   -6.4007019    250.15904  0.032726195  0.033287449            3 
  638000    1.0193029   -6.4281897    250.25475  0.032687402  0.033267762            7 
  639000    1.0139536    -6.420486    250.49411  0.032667463  0.033247972            6 
  640000    1.0043112   -6.4550838    250.65509  0.032637381  0.033227874            6 
  641000   0.99667369   -6.4346226    250.48428  0.032564259  0.033207554            6 
  642000     1.002422   -6.4632725    249.41448  0.032374673  0.033187375            5 
  643000   0.99024398   -6.4066691    251.31961  0.032571229  0.033166859            3 
  644000    1.0244444   -6.4240484    250.19944  0.032375704  0.033146659            5 
  645000   0.99449075   -6.4212351    250.70991  0.032391461  0.033126469            8 
  646000    0.9883474   -6.4226797    251.07314  0.032388176  0.033106061            5 
  647000    0.9774258   -6.4429866    252.09622   0.03246989  0.033085703           12 
  648000   0.99032015   -6.4121168      252.504  0.032472222  0.033065761            3 
  649000    1.0059376   -6.3934104     252.6794   0.03244471  0.033045903            3 
  650000   0.99518805   -6.4271611    252.34546  0.032351982  0.033025806            9 
  651000    1.0036703   -6.4223282    253.07407  0.032395554  0.033005921            5 
  652000    1.0034478   -6.4412867    252.45818   0.03226715  0.032985753            3 
  653000   0.98293312   -6.4252085    253.22366  0.032315423  0.032965608            8 
  654000   0.98504621   -6.4663171     253.5212  0.032303924  0.032945318            4 
  655000   0.99725792   -6.4762844    252.81361  0.032164581  0.032925017           14 
  656000   0.98039765   -6.4566006    254.11693  0.032281115  0.032904608            5 
  657000   0.99323952   -6.4466693    253.92962  0.032208222   0.03288431            4 
  658000     1.002658   -6.4150086    253.89666  0.032155099  0.032864257            7 
  659000   0.99459018   -6.4214406    254.64077  0.032200401  0.032844333            4 
  660000    1.0022492   -6.4567811    254.75762  0.032166366  0.032824256            6 
  661000    0.9853236   -6.4353526    254.98448  0.032146303  0.032804115           18 
  662000    1.0014991   -6.4241729    255.44161  0.032155288  0.032784353            4 
  663000   0.98171796   -6.4337478    255.71935  0.032141698  0.032764493            4 
  664000    0.9887608   -6.4347213    255.62888  0.032081938  0.032744602            4 
  665000   0.98119848   -6.4204013    256.07628   0.03208976   0.03272465            4 
  666000   0.96241747   -6.4711258    254.97175  0.031903372  0.032704283            7 
  667000   0.99204255   -6.4470489    256.69639  0.032071014  0.032684033            2 
  668000   0.96560942   -6.4355089    257.53893   0.03212811  0.032664101            7 
  669000   0.98160046   -6.4736437    256.92284  0.032003344  0.032644058            6 
  670000    0.9849284   -6.4638206     256.6737   0.03192459  0.032623701            7 
  671000   0.96956214   -6.4349272    257.33317  0.031958914  0.032603224            9 
  672000   0.98988613   -6.4309607    258.46011  0.032051104  0.032582746           11 
  673000   0.98612087   -6.4357986    257.58489  0.031895108  0.032562329            6 
  674000   0.96007625   -6.4834192    257.91594  0.031888717  0.032541678            5 
  675000   0.95918669   -6.4083416    257.93056  0.031843279  0.032521102            4 
  676000   0.99765744   -6.4660033    257.95248  0.031798876  0.032500648            4 
  677000   0.98279237   -6.4339149     259.3124  0.031919301  0.032480367           10 
  678000   0.96429663     -6.43803    258.50071  0.031772457  0.032460067            5 
  679000   0.96324818   -6.4252077     259.6919  0.031871858  0.032439899            4 
  680000   0.98612223   -6.4291574    259.59436  0.031813034  0.032419754            4 
  681000     0.951343   -6.4259469    260.97109  0.031934789  0.032399759            8 
  682000   0.97954112   -6.4171536    259.89161  0.031756062  0.032379837            3 
  683000   0.96856014   -6.4688267    259.60925  0.031675116  0.032359828            9 
  684000   0.95144814   -6.4469409    259.57643  0.031624808  0.032339497            5 
  685000   0.97900489   -6.4849328    260.68096  0.031713013  0.032319112            4 
  686000   0.98363686   -6.4601415    260.14528  0.031601711  0.032298308            2 
  687000    1.0051879   -6.4712529    260.96272  0.031654867  0.032277568            7 
  688000   0.98935769   -6.4332624    260.08623  0.031502692  0.032256796            5 
  689000   0.98298236   -6.4289177    261.02672  0.031570721  0.032235632            6 
  690000   0.97650654   -6.4135228    260.92119  0.031512221  0.032214764            5 
  691000   0.95719252   -6.4421537    261.35925  0.031519446  0.032193968            4 
  692000   0.97415779    -6.446874    262.10112  0.031563236  0.032173361            4 
  693000   0.96482739   -6.4743813    261.88527  0.031491735  0.032152882            5 
  694000    1.0038632   -6.4115534    262.53794  0.031524729  0.032132464            6 
  695000    0.9996018   -6.4589034    262.04505   0.03142027  0.032111958           11 
  696000   0.95349504    -6.477925    262.17216  0.031390345  0.032091589            4 
  697000   0.97467098   -6.4475604    262.85508  0.031426958  0.032071169            9 
  698000    0.9917333   -6.4131537    263.92636  0.031509833  0.032050792           12 
  699000   0.95902128   -6.4484718    264.54432  0.031538426  0.032030771            3 
  700000   0.99405159   -6.4235511    264.07063   0.03143698  0.032010842           13 
  701000   0.95724947   -6.4240932    264.49816  0.031442958  0.031990817            3 
  702000   0.97447922   -6.4476004    265.05725  0.031464536  0.031970888            6 
  703000   0.97355769   -6.4625609    264.30473  0.031330575  0.031950784           12 
  704000   0.95855749   -6.4793734    264.57542  0.031318113  0.031930655           14 
  705000    0.9826629   -6.4665033    265.17694  0.031344792   0.03191039            5 
  706000   0.98452144   -6.4461546    265.22845  0.031306475  0.031890125            8 
  707000   0.96084807    -6.485149    265.82936  0.031333022  0.031869725            5 
  708000   0.95360882   -6.4417958    265.24708   0.03122023  0.031849551            7 
  709000   0.97419454   -6.4799942    265.54241  0.031210909  0.031829156            9 
  710000   0.98383504   -6.4857579    266.40185  0.031267823   0.03180917           18 
  711000   0.96688254   -6.5046415    266.59912  0.031246967  0.031789564            8 
  712000   0.98446932   -6.4845581    266.23145  0.031160048  0.031769777            5 
  713000   0.96586365   -6.4768095    267.06061  0.031213255  0.031750083            7 
  714000   0.95642657   -6.4952516    266.85902  0.031146011  0.031730467           12 
  715000   0.96881076   -6.5095601    267.49344  0.031176391  0.031710607            6 
  716000   0.99433379   -6.4706246    268.11868  0.031205619  0.031690994            7 
  717000   0.98076547   -6.4856098    267.91141  0.031138007  0.031671705            4 
  718000   0.96021365   -6.4997504    267.96666  0.031101051  0.031651958            5 
  719000   0.96927387   -6.4894245    268.56683  0.031127356  0.031632169            5 
  720000   0.98453415   -6.4941922    268.85617  0.031117612  0.031612398            6 
  721000   0.96425697   -6.5023346    269.05405  0.031097324  0.031592689            4 
  722000   0.95446338   -6.5124908    268.56138  0.030997389   0.03157274            5 
  723000    0.9612737   -6.4849896    268.58735  0.030957509  0.031553001            3 
  724000   0.96305626   -6.4736689    269.02615  0.030965257  0.031533133           13 
  725000   0.99321284   -6.4729049    269.68369  0.030998126  0.031512993            7 
  726000   0.96074012   -6.4854567    270.05145  0.030997641  0.031492936            6 
  727000   0.97474402   -6.4577282    269.77417   0.03092322  0.031472788            8 
  728000   0.95877645   -6.4823814    269.77414  0.030880739  0.031452743            5 
  729000   0.95727651   -6.5115125    270.44518  0.030915087  0.031432512            4 
  730000   0.96492074   -6.4622161    270.36089  0.030863115    0.0314122           12 
  731000   0.96865327     -6.48689    270.64952  0.030853799  0.031391922            4 
  732000   0.94998526   -6.5323113    269.79651  0.030714539  0.031371366            4 
  733000   0.96450456   -6.5069737    270.23455  0.030722437  0.031350868            7 
  734000   0.99790634    -6.505194    270.89074   0.03075508  0.031330407           15 
  735000    0.9771735   -6.4986517    271.11201  0.030738324    0.0313102            7 
  736000   0.95131375   -6.4789864      271.307  0.030718637  0.031290138            7 
  737000   0.96837843   -6.4980365    271.06671  0.030649786  0.031270043            5 
  738000   0.96826077     -6.50659    272.12976  0.030728293  0.031249853           10 
  739000   0.94905023   -6.5049012    271.93521  0.030664773  0.031229451            8 
  740000   0.95785027   -6.4845975    271.31814  0.030553844  0.031208887            4 
  741000   0.96980587   -6.5016081    272.36392   0.03063022  0.031188493            6 
  742000   0.94661722   -6.4755935    272.48918  0.030603008  0.031168003            4 
  743000   0.95283318    -6.466319    272.74535   0.03059055  0.031147759            8 
  744000   0.95914809   -6.5040924    273.04543  0.030583045  0.031127389            9 
  745000   0.95009917   -6.4928495     273.1851  0.030557618  0.031106989            7 
  746000   0.94296866   -6.5164926     272.9819  0.030493957  0.031086466            4 
  747000   0.95815078   -6.5351221    273.31166  0.030489922  0.031065927            7 
  748000   0.97811096   -6.4813276    273.21167   0.03043802  0.031045254            5 
  749000   0.95445245   -6.5016453    272.69429  0.030339819  0.031024699            3 
  750000   0.97167637    -6.485935    272.86246  0.030318051  0.031003724            6 
  751000   0.95329893   -6.4745796    273.61429  0.030361106  0.030982853            5 
  752000   0.92807997   -6.5014336    273.30161  0.030286083  0.030961956            9 
  753000   0.95127095   -6.5002193    274.04372   0.03032799  0.030941214            6 
  754000   0.96235949   -6.5355627    274.19149  0.030304099  0.030920587           23 
  755000   0.96606703   -6.4775424    274.35922  0.030282475  0.030899867            6 
  756000   0.95635141   -6.4920611    274.42368  0.030249524  0.030879187            9 
  757000   0.95557155   -6.5300635    274.15203   0.03017966  0.030858205            5 
  758000   0.95158457   -6.5195618    274.25668   0.03015135   0.03083711            9 
  759000   0.93657201   -6.5357063    274.97186  0.030190147  0.030815896            9 
  760000   0.94463432   -6.5292217     274.6284  0.030112764  0.030794767            6 
  761000   0.95560849   -6.5259563    275.05231  0.030119613    0.0307737            8 
  762000   0.95976096   -6.5149086    275.00675  0.030075104  0.030752703            9 
  763000   0.93647931    -6.513411    276.63673   0.03021371  0.030731676           10 
  764000   0.94344009   -6.5266402     275.3795  0.030037031  0.030710682            7 
  765000    0.9502183   -6.5226587     276.1795  0.030084912  0.030689466            5 
  766000   0.94705958   -6.5137319    276.51749  0.030082408  0.030668423            5 
  767000   0.94759378   -6.4602218    277.52106  0.030152223   0.03064783            9 
  768000   0.94693101   -6.5124375    277.39561   0.03009935  0.030627371            5 
  769000    0.9518708   -6.5252371    277.50341  0.030071891  0.030606529            6 
  770000   0.94902203   -6.5075218     277.1008  0.029989264  0.030585668            7 
  771000   0.92698764   -6.5175604    277.34679  0.029976955  0.030565136            6 
  772000   0.97169694   -6.5773691    276.84867  0.029884355  0.030544265            5 
  773000   0.94959327   -6.4971551    277.98638  0.029968346  0.030523447            5 
  774000   0.95262569   -6.5489539    277.97072  0.029927941  0.030502697            5 
  775000   0.93811799   -6.5493816    278.51898  0.029948278  0.030481904            5 
  776000   0.96098632   -6.5314737    278.94527  0.029955463  0.030461406            9 
  777000   0.94113619   -6.5254982    278.67895  0.029888348  0.030441296           13 
  778000   0.95663781   -6.5343221    279.15502  0.029900923  0.030421187            4 
  779000   0.94499552   -6.4997344     279.5601  0.029905873  0.030400879            4 
  780000   0.92763192   -6.5472025    279.83836  0.029897261  0.030380716           10 
  781000   0.93616082    -6.550472    279.62963  0.029836709  0.030360298           13 
  782000   0.92583752   -6.5278487    279.66081  0.029801876  0.030340021            4 
  783000   0.93160012   -6.5512661    279.75397  0.029773731   0.03031986            6 
  784000    0.9263148   -6.5570584    280.22818  0.029786159  0.030299647           12 
  785000   0.94672511   -6.5486938    280.90778  0.029820359  0.030279835            7 
  786000   0.93693662   -6.5464569     280.9864  0.029790755  0.030259897            5 
  787000   0.93309855   -6.5127847    280.92596  0.029746502  0.030240008            6 
  788000   0.94497371   -6.5439551    281.28252   0.02974646  0.030220249            7 
  789000   0.93824214   -6.5694159    280.44132  0.029619912  0.030200085            8 
  790000   0.92180059   -6.5342662    281.50499  0.029694619  0.030179644           11 
  791000   0.92861823   -6.5118091    281.91125  0.029699879  0.030159471            6 
  792000   0.94236145   -6.5494525    281.73273  0.029643595  0.030139119            4 
  793000   0.94453638   -6.5310534    282.25809  0.029661422   0.03011897            5 
  794000   0.94581014   -6.5205611    282.19519  0.029617463  0.030098957           14 
  795000   0.95447846   -6.5582079    282.65183  0.029628074  0.030078683           13 
  796000   0.91954624   -6.5549458    282.39161  0.029563611  0.030058238            7 
  797000   0.94832559    -6.546925    282.18194  0.029504594  0.030037762           11 
  798000   0.94837257   -6.5468036    281.78458  0.029426126  0.030017437            8 
  799000   0.93601987   -6.5405469     282.7315  0.029488058  0.029997082            6 
  800000   0.94255972   -6.5084847    282.97547  0.029476611  0.029976861           13 
  801000   0.94530137   -6.5534979     282.9469  0.029436839  0.029956796            5 
  802000   0.93034612   -6.5545973    283.30158  0.029436988  0.029936588            6 
  803000   0.92842651   -6.6068031    283.11739  0.029381215   0.02991617            6 
  804000   0.93284881   -6.5317584    284.02988  0.029439249  0.029895915            5 
  805000    0.9315212   -6.5298601     284.7516  0.029477391  0.029875777            6 
  806000   0.93160555   -6.5380146    284.70639  0.029436145  0.029855702            9 
  807000   0.92356581   -6.5277011    284.14862  0.029342071  0.029835375            7 
  808000   0.95350576   -6.5784422    284.13293  0.029304139  0.029815227            4 
  809000   0.94634516   -6.5359992    284.78734  0.029335325  0.029794946            8 
  810000   0.92754547   -6.5690187    284.95413  0.029316269  0.029774601            8 
  811000   0.94019161    -6.590648    284.17436  0.029199996  0.029754087           11 
  812000   0.92872441   -6.5678141    285.19135  0.029268406  0.029733827            9 
  813000   0.93334939   -6.5744163    285.21806  0.029235144  0.029713356            7 
  814000   0.94570071   -6.5677953    284.90806  0.029167492  0.029693056            6 
  815000   0.92817485   -6.5668815    285.77056  0.029219893  0.029672827            3 
  816000   0.92371535   -6.5474949    285.72802  0.029179741  0.029652438            4 
  817000    0.9484891   -6.5562465    285.64718  0.029135779  0.029632211            6 
  818000   0.91755107   -6.5690308    286.37142  0.029173942   0.02961185            6 
  819000   0.91740018   -6.5724472    285.23316  0.029022503  0.029591704           11 
  820000   0.94535478    -6.556188    286.20824  0.029086204  0.029571523           16 
  821000   0.92905312   -6.5770472    286.44616  0.029074924  0.029551343           16 
  822000   0.90241148   -6.5567413    286.57553  0.029052669  0.029531202            3 
  823000   0.93232258   -6.5398395    286.54226  0.029013999  0.029511032            5 
  824000   0.94069987   -6.5470696    286.73493  0.028998273   0.02949094            4 
  825000   0.92400863   -6.5396146    287.23339  0.029013474  0.029470688            5 
  826000   0.90560519   -6.5810217    287.88999  0.029044592  0.029450707           16 
  827000   0.92105931   -6.5671138    288.57679  0.029078677  0.029430798            7 
  828000    0.9433464   -6.5795423    288.49974  0.029035803  0.029410803           16 
  829000   0.92704832   -6.5847873    288.66811  0.029017703  0.029391201            6 
  830000   0.91525614   -6.5654191    289.25364   0.02904153  0.029371598            7 
  831000   0.93107612   -6.5856907    288.63988  0.028945034  0.029351951            9 
  832000   0.93694679   -6.5835607     288.3133  0.028877534  0.029332021            9 
  833000   0.91751545   -6.5327827    289.60416  0.028972004  0.029312293           19 
  834000    0.9090979   -6.5836372    288.33082  0.028810034  0.029292344           17 
  835000   0.91846935   -6.5664198     289.7753  0.028919691  0.029272313            5 
  836000   0.92365498   -6.5752637    289.17495  0.028825255  0.029252657            4 
  837000   0.92561988    -6.585605    289.42881   0.02881609  0.029232748           12 
  838000   0.92558662   -6.5341338    289.34914  0.028773781   0.02921297            6 
  839000   0.91159972   -6.5588499    289.51541     0.028756  0.029193016            8 
  840000    0.9033725   -6.5839001    289.42222  0.028712522   0.02917295            7 
  841000   0.90543921   -6.5661677    289.83979  0.028719757  0.029153013            3 
  842000   0.92218593   -6.5834768    289.90182  0.028691788  0.029132972            6 
  843000    0.9213277   -6.5670197    290.16052  0.028683325  0.029112848            9 
  844000    0.9238863   -6.5728126    290.55832  0.028688617  0.029092911            9 
  845000   0.90213748   -6.5883489     290.5664  0.028655464  0.029072926            4 
  846000   0.95365569    -6.588082    290.58082  0.028623012  0.029052829            6 
  847000   0.92260522   -6.5890884    291.58349  0.028687868  0.029032907            8 
  848000   0.92046319   -6.5571699    291.12073  0.028608562  0.029012945            7 
  849000   0.90346689   -6.5646789    291.24215  0.028586784  0.028993158            9 
  850000    0.8959283   -6.5773864    291.74847  0.028602791  0.028973404           13 
  851000   0.91770383   -6.5595889     292.1598   0.02860946  0.028953766           10 
  852000   0.92114009   -6.6119853    291.79073  0.028539782  0.028934055            4 
  853000   0.91667886   -6.5640802    292.64091  0.028589381  0.028914395            9 
  854000   0.90634943   -6.5989545    292.01193  0.028494529   0.02889481            9 
  855000   0.93253727   -6.5989508    292.00988  0.028461002  0.028875177            8 
  856000   0.91776318   -6.5842578    292.27047  0.028453122  0.028855419            9 
  857000   0.93972917   -6.6006963    292.52636  0.028444804  0.028835662           10 
  858000   0.89391293   -6.5996258    292.64387  0.028423064  0.028816057           10 
  859000   0.91260127   -6.6043288    292.96866  0.028421484  0.028796224            5 
  860000   0.91186667   -6.5604269    293.09634  0.028400808  0.028776608           12 
  861000   0.91817197   -6.6087071    292.83157  0.028342196  0.028756707            6 
  862000   0.89833621   -6.5741343    292.54537  0.028281649  0.028736682            7 
  863000   0.91807853   -6.5562144    293.11154  0.028303548  0.028716891            9 
  864000    0.9228545   -6.5831969    294.03551  0.028359907  0.028697156           14 
  865000   0.90389796   -6.6212305    293.14873  0.028241689  0.028677317            8 
  866000   0.90888662    -6.566584    294.18291  0.028308594   0.02865772            5 
  867000   0.90024684   -6.5877376    295.07297  0.028361493  0.028638071            6 
  868000   0.91702797   -6.5687388    295.44573  0.028364605   0.02861868            9 
  869000   0.91512881    -6.593415    294.55683  0.028246723  0.028599231           10 
  870000   0.91078363   -6.5939109     295.0339  0.028259952  0.028579928            5 
  871000   0.89053905   -6.6033643    295.32126     0.028255  0.028560411           10 
  872000   0.90381477   -6.6085185    295.24892  0.028215685  0.028541056            5 
  873000   0.88757826   -6.6041101    295.37658   0.02819555  0.028521858            6 
  874000   0.92433189   -6.6053197    295.34075  0.028159873  0.028502591            4 
  875000   0.90586421   -6.5844926    296.32185  0.028221129  0.028483307            9 
  876000   0.91117312   -6.6023491    296.71486    0.0282263  0.028464213            7 
  877000   0.91567624   -6.5835386    297.27505  0.028247344  0.028445137            7 
  878000   0.90577514   -6.6082334    295.97047  0.028091351   0.02842628            9 
  879000   0.89529858   -6.6287533    297.13401  0.028169702  0.028407551            8 
  880000   0.89572061   -6.6079257    298.18646  0.028237354  0.028389017           15 
  881000   0.92553992   -6.6155996    297.34358  0.028125575  0.028370505           15 
  882000   0.90428759   -6.6024167    297.45496   0.02810421  0.028351899           10 
  883000   0.91364745   -6.6221408    298.57598  0.028178179  0.028333273           14 
  884000   0.88913894   -6.6135773    298.30188  0.028120464  0.028314833            6 
  885000   0.89114034   -6.5891403    298.12987  0.028072492  0.028296497            7 
  886000   0.89117086   -6.5922688    299.13578   0.02813542  0.028278288            6 
  887000   0.90787832   -6.5789909    299.16624  0.028106561  0.028260105            9 
  888000    0.9005941   -6.5980523    299.83921  0.028138064  0.028242085            8 
  889000   0.88502768   -6.5855478    300.17171  0.028137581  0.028224032            6 
  890000   0.89943838   -6.5952191    300.49392  0.028136135  0.028205923            9 
  891000   0.89143448   -6.6334601    299.55152  0.028016416  0.028187778            5 
  892000   0.89675373   -6.6150554    299.39164  0.027970071  0.028169468            6 
  893000   0.90477192   -6.6167363    300.37365  0.028030389  0.028151354            4 
  894000   0.89214531   -6.6424107    300.09707  0.027973254  0.028133161            5 
  895000   0.91318225   -6.6491188     300.3571   0.02796621  0.028114997            8 
  896000   0.91977078   -6.6285475    302.08682  0.028095872  0.028097006           16 
  897000   0.89087553   -6.6197881    302.08455  0.028064339  0.028079189            7 
  898000   0.89487114   -6.6212194    301.97526  0.028022946  0.028061629            7 
  899000   0.89358814   -6.6115319    303.29411  0.028114026  0.028044172            5 
  900000    0.8757816   -6.5826659    302.19919  0.027981406  0.028026938            9 
  901000   0.89891063   -6.6002382    302.89679  0.028014871  0.028009594           10 
  902000   0.87465846   -6.5804877    303.98029  0.028083915  0.027992516            7 
  903000   0.87851118   -6.6355309    302.74952  0.027939232  0.027975421            6 
  904000   0.90571474   -6.6241444    303.24601  0.027954094  0.027958145           10 
  905000   0.88331526   -6.5973967    303.66083  0.027961402  0.027941067            5 
  906000   0.88846644   -6.6389076    304.01776   0.02796337  0.027924066            8 
  907000   0.89357101   -6.6396416    303.59964  0.027894124  0.027907189           13 
  908000   0.89913799    -6.635114    304.32427  0.027929907  0.027890233            6 
  909000     0.907103   -6.6454928    304.59187  0.027923714  0.027873253           10 
  910000   0.88875976   -6.6249953    305.03868  0.027933945  0.027856364            4 
  911000   0.88215427   -6.6020923     304.9113   0.02789163  0.027839556           10 
  912000   0.89919282   -6.6032198    305.02171  0.027871136  0.027822767           12 
  913000   0.85993965   -6.6229841     304.9792  0.027836729  0.027805992            7 
  914000   0.89774408   -6.6527637    306.10259  0.027908697  0.027789071            4 
  915000   0.89736096   -6.6311179     305.7093  0.027842377  0.027772244           12 
  916000   0.89184769   -6.6261565    304.74393  0.027724157  0.027755392            7 
  917000   0.87998636   -6.6213676    305.22817  0.027737929  0.027738342            6 
  918000   0.86207159     -6.63757    305.90574  0.027769221  0.027721268            9 
  919000   0.88422694   -6.6577437    305.58633  0.027710041  0.027704333            6 
  920000   0.87911497   -6.6626195    307.36061  0.027840635  0.027687572            7 
  921000   0.87814356   -6.6445711    306.75379  0.027755501   0.02767071           12 
  922000    0.8821792   -6.6560383    306.32875   0.02768698  0.027653785            7 
  923000   0.87698915   -6.6503256    306.96832  0.027714727  0.027636847           10 
  924000   0.88045067    -6.634106    306.96438  0.027684378   0.02762023            5 
  925000   0.89120625   -6.6092156    307.92068  0.027740601  0.027603601            4 
  926000   0.87868731   -6.6388361    307.61154  0.027682824   0.02758684            9 
  927000   0.87699615   -6.6517126    307.71068  0.027661873  0.027570059            6 
  928000   0.87939807   -6.6448838    306.97171  0.027565707  0.027553097            7 
  929000   0.87674925   -6.6352647    306.91297  0.027530766  0.027536165            8 
  930000   0.88341265   -6.6492578    308.69335  0.027660695  0.027519095            9 
  931000   0.90447732   -6.6324903    308.09286  0.027577234  0.027502124            6 
  932000   0.86681892   -6.6547629    307.35737  0.027481882   0.02748524           10 
  933000   0.89058194   -6.6357572     308.7826  0.027579725  0.027468202            6 
  934000   0.88578992   -6.6107923    308.20469  0.027498634  0.027451242            8 
  935000   0.90583192   -6.6638264    307.64965  0.027419755  0.027434154           11 
  936000   0.87603135    -6.657373    307.94237  0.027416521  0.027417007           12 
  937000   0.90350977   -6.6771782    307.72755  0.027368156  0.027399671            4 
  938000   0.87495705   -6.6635122    307.77272  0.027342992  0.027382335           11 
  939000   0.86501122   -6.6569103    308.33638  0.027363896   0.02736508           15 
  940000   0.86924264   -6.6284888     308.9165  0.027386215   0.02734769            4 
  941000   0.86930797   -6.6329517    308.81486   0.02734811   0.02733038            6 
  942000   0.89598928   -6.6561822    309.18323  0.027351666  0.027313065           19 
  943000   0.88688908   -6.6737577    309.13198  0.027318132  0.027295862           11 
  944000   0.88983781   -6.6471588     310.1103  0.027375556  0.027278617           12 
  945000   0.87139138   -6.6687139    309.28875   0.02727414  0.027261489           10 
  946000   0.85480621   -6.6460571    309.46246  0.027260611  0.027244214           14 
  947000    0.8849836   -6.6656609    309.34601  0.027221578  0.027226984            9 
  948000   0.89814479   -6.6407711    309.57786  0.027213244  0.027209803           11 
  949000   0.88567526   -6.6489048    310.53054  0.027268224  0.027192655           21 
  950000     0.891039   -6.6483181    310.87908  0.027270095  0.027175599           10 
  951000    0.8567254   -6.6473362    310.63256  0.027219818  0.027158554            8 
  952000   0.87325733    -6.675052    310.16096  0.027149944  0.027141517            8 
  953000   0.87267154   -6.6538513    310.86094  0.027182663  0.027124548           27 
  954000   0.87286363   -6.6548614    311.26789  0.027189718  0.027107572           14 
  955000   0.87640789   -6.6573948    311.14342  0.027150386   0.02709043           10 
  956000   0.88712784   -6.6417702    310.63474  0.027077645  0.027073226           10 
  957000   0.86845261   -6.6729688    310.58998  0.027045453  0.027055983           11 
  958000   0.87991718   -6.6614918    310.60865  0.027018846  0.027038805           10 
  959000   0.88375591   -6.6680155    311.47846  0.027066255  0.027021656           13 
  960000   0.85302565   -6.6771028    311.06883  0.027002503  0.027004516           10 
  961000   0.86113902   -6.6483507    312.21278  0.027073602  0.026987362            3 
  962000   0.86383678   -6.6738917    310.90315  0.026932012  0.026970162            9 
  963000   0.88122396   -6.6776251    312.48949   0.02704132  0.026953016           17 
  964000   0.87127461   -6.6935748    312.27785  0.026994973  0.026935992           12 
  965000   0.87050981   -6.6908591    311.91088  0.026935309  0.026918936            6 
  966000   0.87793768   -6.6796838    312.46893  0.026955567  0.026901945            6 
  967000   0.86349398   -6.6614241    312.99883  0.026973357  0.026884954            7 
  968000    0.8424877   -6.7034728    313.31408  0.026972631  0.026868025            7 
  969000   0.86517732   -6.6928446    313.41608  0.026953568  0.026850938            7 
  970000   0.85950478   -6.6835069    312.91728  0.026882928  0.026833834            4 
  971000   0.87106278   -6.6549874    313.91608  0.026940962  0.026816939            9 
  972000   0.87855525   -6.6356172    313.35264  0.026864938  0.026800163            7 
  973000   0.85987078   -6.6862467    313.17974   0.02682252  0.026783244            4 
  974000   0.86207284   -6.6749653    313.00299  0.026779859  0.026766052           21 
  975000   0.86811971   -6.6551227    312.83871  0.026738351  0.026748839            8 
  976000   0.86636516   -6.7000588    314.29968  0.026835696  0.026731757            9 
  977000   0.86294091   -6.6820063    314.06378  0.026788108  0.026714802            9 
  978000   0.87695464   -6.6834384    313.83913  0.026741575  0.026697742           27 
  979000   0.87185316   -6.6793437    314.29289  0.026752885  0.026680528           12 
  980000   0.84903317   -6.7371322    313.37146  0.026647233  0.026663469            7 
  981000   0.87775833   -6.7134474    314.10026   0.02668198  0.026646225            4 
  982000   0.87166674   -6.6885532    315.40663  0.026765668  0.026629386            5 
  983000   0.86539803   -6.7195488    314.09485  0.026627234  0.026612497           14 
  984000   0.86927967   -6.7072725    314.39554  0.026625639  0.026595379           13 
  985000   0.85532644   -6.7195487    314.96525  0.026646806   0.02657838            7 
  986000   0.85425231   -6.6771362     315.8955  0.026698402  0.026561367            9 
  987000   0.85044924   -6.7141454    314.48902  0.026552602  0.026544347            9 
  988000   0.86661992   -6.6827077    315.41586  0.026603902   0.02652738           11 
  989000   0.85295497   -6.7062603    316.36025  0.026656577  0.026510548            9 
  990000   0.84474887    -6.647524    316.16089   0.02661287  0.026493882            9 
  991000   0.84653945   -6.7003849    315.36129  0.026518776  0.026477163           11 
  992000   0.85519864   -6.7021407     316.1991  0.026562425  0.026460515           11 
  993000    0.8581375   -6.6481297    316.96386  0.026599854  0.026444005            6 
  994000   0.85887817   -6.6739998    315.95243  0.026488299  0.026427459            7 
  995000   0.85298157   -6.7061824    316.83104  0.026535263  0.026410821            7 
  996000   0.85122256   -6.7100966    316.26321  0.026461112  0.026394231            7 
  997000   0.85300028    -6.712155    317.34093  0.026524651  0.026377686           12 
  998000   0.85588912   -6.6908353    317.14129  0.026481404  0.026361171           27 
  999000   0.86444274   -6.6828223    317.20564  0.026460263   0.02634474           14 
 1000000   0.85400107    -6.646338    317.99432  0.026499526  0.026328315            9 
 1001000   0.86281891   -6.6951213    318.02076  0.026475255   0.02631173           11 
 1002000    0.8660758   -6.7073992     316.7893  0.026346416  0.026295265            8 
 1003000   0.85462054   -6.6961685    317.83407  0.026406951  0.026278763            8 
 1004000   0.85309473   -6.6866278    319.12814   0.02648806  0.026262258            9 
 1005000   0.84618028   -6.7047468     317.4387  0.026321617   0.02624572           12 
 1006000   0.85743813   -6.6751703    318.74368  0.026403552  0.026229174           21 
 1007000   0.86343631   -6.6812183    318.39469  0.026348451   0.02621263           11 
 1008000   0.84639817   -6.7118371    318.31267  0.026315531  0.026196085           10 
 1009000    0.8675375   -6.7401024    318.73912  0.026324671  0.026179548           12 
 1010000   0.84775533   -6.7152927    318.56986  0.026284642    0.0261629            6 
 1011000    0.8422423   -6.6687701    318.41705  0.026246048  0.026146156           21 
 1012000   0.87005014   -6.7090297    318.41118  0.026219629  0.026129367           22 
 1013000   0.87574596   -6.7222915    318.09004  0.026167328  0.026112637           12 
 1014000    0.8415802   -6.7103713    319.53311  0.026260118  0.026095973            6 
 1015000   0.85578511   -6.7227703    318.83846  0.026177213  0.026079263            5 
 1016000   0.82873408   -6.7377124    319.77938  0.026228623  0.026062388            7 
 1017000   0.84663194   -6.6934428    319.50993  0.026180755   0.02604568            7 
 1018000   0.85308378   -6.7279331     319.9243  0.026188957  0.026029098           11 
 1019000   0.86072802   -6.7078401      320.219  0.026187357  0.026012451            9 
 1020000   0.85144501   -6.6734945    320.13346  0.026154694  0.025995999            7 
 1021000   0.83427805   -6.7379159    320.54953  0.026163037  0.025979604           22 
 1022000    0.8503146   -6.7137455    321.02255  0.026176007  0.025963184           10 
 1023000    0.8493231   -6.7148799    320.26872  0.026089013  0.025946806           18 
 1024000   0.84791972   -6.7162879    320.48167  0.026080865  0.025930322           12 
 1025000   0.84041182   -6.7322638    320.74217    0.0260766  0.025913899           16 
 1026000   0.85445297   -6.7182927    321.25236  0.026092622   0.02589746           24 
 1027000   0.84766246   -6.7153057    320.97995  0.026045111  0.025881113            7 
 1028000   0.85033161    -6.731653    321.55353  0.026066272  0.025864625           12 
 1029000   0.85500716   -6.7298896     320.9618  0.025993019  0.025848254           12 
 1030000   0.83960075   -6.7407334    321.14179  0.025982346  0.025831789           10 
 1031000   0.84075987   -6.7095638    321.60801  0.025994828  0.025815196           13 
 1032000   0.82291456   -6.7352716    320.88966  0.025911632  0.025798704           13 
 1033000   0.84677831   -6.7481054    321.51207  0.025936759  0.025782225           20 
 1034000   0.84330594   -6.7261921    320.74525  0.025849875  0.025765578           13 
 1035000   0.85257278   -6.7456685     320.3757  0.025795145  0.025748806           16 
 1036000   0.83276621   -6.7147766    321.76184  0.025881744  0.025732223           12 
 1037000   0.83227809    -6.730162    321.19974  0.025811615  0.025715521           20 
 1038000   0.83495459   -6.7416415    321.44635  0.025806547  0.025698836           19 
 1039000   0.84022842   -6.7113218    321.83542  0.025812914  0.025682145            6 
 1040000   0.83609961   -6.7470436    321.55196  0.025765382  0.025665494            6 
 1041000   0.83471542   -6.7116419    321.99594  0.025776172  0.025648909           11 
 1042000   0.85357791   -6.7408904    322.16048  0.025764594   0.02563239           10 
 1043000   0.84285853   -6.7186603    322.65013  0.025779013   0.02561596           10 
 1044000   0.81579436   -6.7308981    322.43347  0.025737027  0.025599379           15 
 1045000   0.84183429   -6.7450732    323.33159  0.025784018  0.025582782            6 
 1046000   0.83787978   -6.7300444    322.73723  0.025712017  0.025566197           22 
 1047000   0.83165122   -6.7520622    322.13673  0.025639663  0.025549708            9 
 1048000   0.82686835   -6.7291901    322.40373  0.025636429   0.02553313           12 
 1049000   0.83885801   -6.7634116    323.36735  0.025688541  0.025516561           17 
 1050000    0.8184194   -6.7307694    323.54746   0.02567837  0.025500084           11 
 1051000   0.82937744   -6.7513807    323.18392  0.025625113  0.025483689            5 
 1052000   0.81214225   -6.7176081    323.05601  0.025590622  0.025467284           18 
 1053000   0.83110506   -6.7439696    323.83226  0.025627751  0.025450972            6 
 1054000   0.82562231   -6.7368949     323.4848  0.025575964  0.025434602            6 
 1055000   0.83532399   -6.6884398    323.12878  0.025523601  0.025418156            8 
 1056000   0.82999776   -6.7307856    323.61589   0.02553787  0.025401717           12 
 1057000   0.82009094   -6.7291886    323.64011  0.025515619  0.025385267           11 
 1058000   0.82185191   -6.7530049    324.57509  0.025565146  0.025368965            7 
 1059000   0.83342422   -6.7579435    323.60201  0.025464433  0.025352634            9 
 1060000   0.85016376   -6.7364766    323.95888  0.025468465  0.025336232            8 
 1061000   0.81872676   -6.7351065    324.87143  0.025516135  0.025319962            8 
 1062000   0.85627509   -6.7687202     325.0512  0.025506215  0.025303678           10 
 1063000   0.83906303   -6.7457712    325.15648  0.025490474  0.025287314           10 
 1064000   0.81736707   -6.7536548    325.24291  0.025473286  0.025271027           12 
 1065000   0.81494681   -6.7824002    325.38162  0.025460221  0.025254724            8 
 1066000   0.83445504   -6.7749591    325.85237  0.025473137  0.025238572           14 
 1067000   0.84793159   -6.7585693    325.35413  0.025410351  0.025222213            6 
 1068000   0.81710942    -6.772018    325.21317   0.02537556  0.025205924           11 
 1069000   0.81516945    -6.761773     325.9679  0.025410656  0.025189683            9 
 1070000   0.82752293    -6.768199    326.68238  0.025442553  0.025173637           11 
 1071000   0.82535197   -6.7640174    326.35035  0.025392962  0.025157498            8 
 1072000   0.81967283   -6.7502299    326.08491   0.02534864   0.02514134            8 
 1073000   0.84055049   -6.7577251    326.77051  0.025378263  0.025125297            9 
 1074000   0.82224304   -6.7356533    326.41378  0.025326954  0.025109232           19 
 1075000   0.82678926   -6.7883263    325.80239  0.025255999  0.025093185           15 
 1076000   0.80529003   -6.7348124    326.81894  0.025311257  0.025077045           13 
 1077000   0.82798726   -6.7849629    326.55027  0.025266966  0.025060944           12 
 1078000   0.82615127   -6.7638097    326.63058  0.025249736  0.025044831           10 
 1079000   0.85433425   -6.7658904     327.2113  0.025271185  0.025028743           24 
 1080000   0.83113852   -6.7708509    325.94624  0.025150172  0.025012607           12 
 1081000   0.82156077   -6.7683669    326.90605  0.025200898  0.024996517            9 
 1082000   0.84576875   -6.7830333    327.75839  0.025243252  0.024980482           14 
 1083000    0.8295251   -6.7672864    326.98376  0.025160339   0.02496433           25 
 1084000   0.81663984   -6.7931027    327.34164   0.02516464  0.024948213           13 
 1085000   0.81631384   -6.7718337    327.67996  0.025167431   0.02493211           22 
 1086000   0.81671142    -6.777044    327.50153  0.025130566  0.024915933           25 
 1087000   0.81631116   -6.7813183    327.46648  0.025104759  0.024899799           31 
 1088000   0.79208209   -6.7911697    327.14738  0.025057244  0.024883548           13 
 1089000   0.79916582   -6.7787436    327.15195  0.025034584  0.024867349           20 
 1090000   0.81266263   -6.7694859    327.48694  0.025037228  0.024851049            8 
 1091000   0.82303951   -6.7731222    327.84864  0.025041907  0.024834714           16 
 1092000   0.82489016   -6.8038285    327.48564  0.024991273  0.024818413           11 
 1093000   0.80841101   -6.7472558    327.45493  0.024966067  0.024802098            7 
 1094000   0.81402677   -6.7660141    328.47251  0.025020758  0.024785937           20 
 1095000   0.82760748   -6.7628656    328.04263  0.024965192  0.024769897            8 
 1096000   0.81086998    -6.793032    328.35866  0.024966443  0.024753789            9 
 1097000   0.82400196   -6.7896744    328.47804  0.024952753  0.024737864           18 
 1098000    0.8247922   -6.7806562    328.88319  0.024960777  0.024721877           30 
 1099000   0.81900493   -6.7905859    328.45327  0.024905465  0.024705925           27 
 1100000   0.82935402   -6.7769458    329.39735  0.024954345  0.024689983           17 
 1101000   0.80591673   -6.7983416    329.12633  0.024911166  0.024673953           45 
 1102000   0.81873908   -6.7838272    328.97267  0.024876941   0.02465787           27 
 1103000   0.80775714   -6.7752264    329.51792  0.024895582  0.024641932           23 
 1104000   0.82497248   -6.8205728    329.00528  0.024834336  0.024625888           40 
 1105000    0.8059617   -6.7715771    329.50237  0.024849349  0.024609772           14 
 1106000   0.80470799   -6.7837353    329.03814  0.024791903  0.024593739           12 
 1107000   0.82313151   -6.7869042    329.61557  0.024812976   0.02457772           14 
 1108000   0.79664672   -6.7958479    329.20132  0.024759425  0.024561575           28 
 1109000   0.82202867   -6.8051374    329.30036  0.024744541  0.024545496           15 
 1110000   0.81601509   -6.7987002    330.68111  0.024825909  0.024529579           26 
 1111000   0.81322137   -6.7906026    330.16766  0.024765051   0.02451366           12 
 1112000   0.80370877   -6.7913105    329.61247  0.024701174  0.024497777           10 
 1113000   0.82476212   -6.7873879    329.75541  0.024689683  0.024481796           10 
 1114000   0.80680074   -6.8002747    330.16021  0.024697801  0.024465885           31 
 1115000   0.81173357   -6.7697065     330.1228  0.024672855  0.024449975            7 
 1116000   0.79419707   -6.8012792    329.84153  0.024629744  0.024433995            8 
 1117000   0.81164735     -6.80475    330.73033  0.024674003  0.024418065            8 
 1118000   0.81932494    -6.796573    330.42735   0.02462935  0.024402135           17 
 1119000   0.79597237    -6.794933    330.51421  0.024613807   0.02438616           27 
 1120000   0.80853681    -6.817715    330.67505  0.024603799  0.024370214           17 
 1121000   0.81571989   -6.8245585    330.45796  0.024565712  0.024354205           21 
 1122000   0.78940434   -6.7923414    330.82852   0.02457134  0.024338237           33 
 1123000   0.80074835   -6.8025315     330.8947  0.024554371  0.024322195           17 
 1124000   0.81080334   -6.8030954    331.40846  0.024570616  0.024306212           35 
 1125000   0.79808854   -6.7884097    330.77573  0.024501906   0.02429032           11 
 1126000   0.80923628   -6.7802937    331.05572  0.024500867  0.024274436           16 
 1127000   0.79120276   -6.8095511    331.00162  0.024475127  0.024258335            9 
 1128000   0.81152494   -6.7967915     331.4314   0.02448518  0.024242263           19 
 1129000   0.78581979   -6.8126684    331.49969  0.024468533  0.024226162           19 
 1130000   0.78882896   -6.8200698    331.76605  0.024466523  0.024210172            8 
 1131000   0.80834948    -6.802082    331.01307   0.02438941  0.024194135            7 
 1132000    0.7924912   -6.8087131    331.18135  0.024380252  0.024178039           19 
 1133000   0.78800547   -6.8441479    331.40815  0.024375416  0.024161961           19 
 1134000   0.79984147   -6.8081205    332.09413   0.02440433  0.024145948           10 
 1135000   0.80395202   -6.8218523    332.07404  0.024381354  0.024130092            8 
 1136000   0.80186032   -6.7896131    332.17292  0.024367145   0.02411422           21 
 1137000     0.795439   -6.8181746    332.59995  0.024377012  0.024098353           13 
 1138000   0.78647227   -6.7818043    333.30133  0.024406952  0.024082584            8 
 1139000   0.80208317   -6.7935825    332.72676  0.024343485  0.024066862            6 
 1140000   0.81395493   -6.7967966    332.00789  0.024269583  0.024051187           12 
 1141000   0.80675113    -6.828668    332.79624  0.024305889  0.024035487           12 
 1142000   0.80020488   -6.8035323    332.81733  0.024286145  0.024019671            8 
 1143000   0.79377704   -6.8226052    332.74018  0.024259273  0.024003902           16 
 1144000    0.8035066   -6.8063072    333.81269  0.024316193  0.023988155           18 
 1145000   0.79279626   -6.8075958    332.42734  0.024194129  0.023972285           11 
 1146000   0.79755109   -6.8132995    333.01207  0.024215537   0.02395648            8 
 1147000    0.7867269   -6.8228288    332.52039  0.024158703  0.023940711           12 
 1148000   0.79583221   -6.7966059    333.65138  0.024219757  0.023924927           16 
 1149000   0.80056928   -6.8403895    333.49638  0.024187437   0.02390908           12 
 1150000   0.80103164   -6.8261119    332.20455  0.024072793  0.023893202           33 
 1151000   0.79724993   -6.8208883    333.43095  0.024140671  0.023877358           28 
 1152000   0.79747308   -6.7991403    333.32708  0.024112202  0.023861513           21 
 1153000   0.80174518   -6.8109312    333.92011   0.02413415  0.023845798           52 
 1154000    0.7865983   -6.8205556    334.50207  0.024155262  0.023829983           32 
 1155000   0.78958963   -6.8378014    334.20504  0.024112918  0.023814246           18 
 1156000   0.79309134   -6.8157271    334.56138  0.024117747  0.023798455           24 
 1157000   0.79356062   -6.8119321     333.6739  0.024032981  0.023782732           16 
 1158000   0.79364041   -6.8065524    334.35122  0.024060968  0.023766991           11 
 1159000   0.78604654   -6.8211916    335.16954  0.024099046  0.023751248           16 
 1160000   0.80061261    -6.787515    334.25897  0.024012857  0.023735476            5 
 1161000   0.78544668   -6.8443351    335.02446  0.024047119  0.023719695           22 
 1162000   0.79386345   -6.8103255    333.67348  0.023929538  0.023703859           15 
 1163000   0.79161866   -6.8212116    334.08867  0.023938712  0.023688103           26 
 1164000   0.78429707   -6.8570666    334.35711  0.023937365  0.023672274           11 
 1165000   0.80920306   -6.8554538    333.64315  0.023865747  0.023656374           39 
 1166000   0.79551511   -6.8627657    333.71587  0.023850476   0.02364044           15 
 1167000   0.78931798    -6.867163    332.88845  0.023770955  0.023624575           26 
 1168000   0.80304291   -6.8368681     334.4736  0.023863698  0.023608726           11 
 1169000   0.79368975   -6.8637161    334.73668  0.023862039  0.023592942           20 
 1170000   0.76694331   -6.8683131    334.78273  0.023844924  0.023577166           12 
 1171000   0.77915385    -6.839783    334.30446  0.023790525  0.023561351           28 
 1172000   0.78742068   -6.8154568    334.73139  0.023800583  0.023545582           17 
 1173000   0.77419848   -6.8509485    335.14612  0.023809756   0.02352973           15 
 1174000   0.78812152   -6.8517918    334.28865  0.023728609   0.02351389           17 
 1175000   0.80920265   -6.8306145    333.90152  0.023680959  0.023497985           11 
 1176000   0.77000344   -6.8341662    335.93059  0.023804606  0.023482199           25 
 1177000   0.78397927   -6.8212976    335.48863  0.023753089  0.023466365           11 
 1178000   0.78449473   -6.8252649    334.60265   0.02367025  0.023450558            9 
 1179000   0.77096118   -6.8241665    335.56278  0.023718037  0.023434784           13 
 1180000   0.78676804   -6.8502564    334.55159  0.023626525  0.023418905            9 
 1181000   0.79230212   -6.8615707    334.58249    0.0236087  0.023403043           11 
 1182000   0.77434955   -6.8465022    334.50417  0.023583204  0.023387136            8 
 1183000   0.79701106    -6.833949    335.51406  0.023634408  0.023371261           13 
 1184000   0.78061173   -6.8352044    335.76119  0.023631841  0.023355371           20 
 1185000   0.78277042   -6.8472352     335.5246  0.023595261   0.02333949           10 
 1186000   0.78910767    -6.832237    335.50547  0.023574022  0.023323685            7 
 1187000   0.77781659   -6.8414469       336.02  0.023590284  0.023307827           12 
 1188000   0.77489946    -6.844598    335.85007  0.023558507  0.023292056           11 
 1189000   0.77119245   -6.8305877    336.65672  0.023595229  0.023276325            9 
 1190000   0.75249802   -6.8639588    335.27185  0.023478421  0.023260479           15 
 1191000   0.77353095   -6.8499146    336.53716   0.02354724  0.023244648            9 
 1192000   0.77171521   -6.8478088    336.33892  0.023513627   0.02322885           28 
 1193000   0.78319244    -6.858997    336.19033  0.023483538  0.023213015           12 
 1194000   0.76570998   -6.8604807    336.45843  0.023482582   0.02319723            9 
 1195000   0.78983437   -6.8461207    335.71128  0.023410829  0.023181428           12 
 1196000   0.78428637    -6.849719    335.65676  0.023387456  0.023165594           15 
 1197000   0.78373443   -6.8636088    336.27695  0.023411094  0.023149768           24 
 1198000   0.79212172   -6.8395742    335.98805  0.023371456  0.023133938           12 
 1199000   0.77710217     -6.88707    336.13681  0.023362303  0.023118069           16 
 1200000   0.76509621   -6.8818287    335.80672  0.023319911  0.023102227           24 
 1201000   0.77611312   -6.8476979    337.02132  0.023384771   0.02308645           18 
 1202000    0.7746875   -6.8629583    336.63777  0.023338725  0.023070717           11 
 1203000   0.77671222   -6.8785729     336.4471  0.023306116  0.023054902           40 
 1204000   0.78191322    -6.879537     336.7407   0.02330708   0.02303907           21 
 1205000    0.7836383   -6.8665826    336.89331  0.023298293   0.02302339           14 
 1206000   0.77675867   -6.8562834    337.21261  0.023301037  0.023007758           41 
 1207000    0.7914026   -6.8600643    336.88638  0.023259209  0.022992073           30 
 1208000   0.77028558   -6.8558581    337.34879  0.023271854  0.022976418           22 
 1209000   0.77598088   -6.8619517    338.22321  0.023312876  0.022960757           65 
 1210000    0.7633483   -6.8900568    337.47889  0.023242348  0.022945086           22 
 1211000   0.78066207   -6.8880318    337.79606   0.02324498  0.022929344           20 
 1212000   0.75932531   -6.8324518    337.43405  0.023200911  0.022913666           17 
 1213000   0.78228162    -6.864553     337.2155   0.02316677  0.022897991           26 
 1214000   0.77101784      -6.8466    337.53469  0.023169597   0.02288233           16 
 1215000   0.77514358   -6.8634234    338.44435  0.023212919   0.02286675           26 
 1216000    0.7578974   -6.8744581    337.84319  0.023152631  0.022851229           13 
 1217000   0.76199108   -6.8195448    337.76563  0.023128296  0.022835661           19 
 1218000   0.78564916   -6.8625898    338.33097  0.023147986  0.022820082           32 
 1219000   0.76389968   -6.8684667    337.89039  0.023098878  0.022804543           11 
 1220000   0.76144855   -6.8659027     337.6686  0.023064795   0.02278893           10 
 1221000   0.77613016   -6.8725862    337.83127  0.023057007  0.022773342            8 
 1222000   0.78129653   -6.8742999    337.23459  0.022997449  0.022757712           20 
 1223000   0.75798113   -6.8657123    337.92571  0.023025736  0.022742118            9 
 1224000   0.75762657   -6.8798111    338.65946   0.02305688  0.022726552           15 
 1225000   0.75184094   -6.8603625    339.52284  0.023096792  0.022710963           18 
 1226000   0.77429255   -6.8684856    338.07823   0.02297976  0.022695408           22 
 1227000    0.7571373   -6.8948106    337.49389  0.022921346  0.022679817           17 
 1228000   0.76913008   -6.8754336    338.82144  0.022992769  0.022664176           14 
 1229000   0.76261245    -6.862849    338.37465  0.022943766  0.022648615           21 
 1230000   0.75610745   -6.8855417    338.68691  0.022946267  0.022633077           36 
 1231000   0.75518863   -6.8921999    339.51839  0.022983915  0.022617573           38 
 1232000   0.73829872    -6.886987    338.72229   0.02291141  0.022601998           33 
 1233000   0.75503077   -6.8980089    338.77066  0.022896098  0.022586383           19 
 1234000   0.76552152   -6.9204367    338.16476  0.022836626  0.022570737           18 
 1235000   0.75754654   -6.8700065    338.51706  0.022841907   0.02255516           18 
 1236000   0.76964744   -6.8751525     338.7948  0.022842152  0.022539637           26 
 1237000   0.77435338   -6.8636329    338.74225  0.022820146  0.022524086           43 
 1238000   0.77429781   -6.8783728    338.74034  0.022801585  0.022508583           28 
 1239000   0.76124535     -6.90636    340.00575  0.022868291   0.02249306           32 
 1240000   0.75794848   -6.9021686    339.23097   0.02279778  0.022477547           22 
 1241000   0.75905626   -6.8939338     339.1646  0.022774953  0.022461948           16 
 1242000   0.77732168   -6.8881614     339.2958  0.022765419  0.022446419           12 
 1243000   0.74948754   -6.8774211     340.1432  0.022803916  0.022430966           15 
 1244000   0.75195847   -6.8936509    340.00191   0.02277612  0.022415427           18 
 1245000   0.74692566   -6.8698442    339.95663  0.022754794  0.022399942           17 
 1246000   0.74839521   -6.8904063    339.38574  0.022698351  0.022384429           35 
 1247000   0.75676161    -6.894941    339.29807   0.02267429  0.022368913           39 
 1248000   0.74695396   -6.9223392      339.728  0.022684829  0.022353428           19 
 1249000   0.74014145    -6.911238    340.57717  0.022723323  0.022337907           31 
 1250000   0.74282711   -6.9165057    339.43907  0.022629271  0.022322368           17 
 1251000   0.75122159   -6.8878136    339.39511  0.022608254  0.022306867           44 
 1252000   0.76043159   -6.8791263    339.39204  0.022589992  0.022291412           39 
 1253000   0.75972652   -6.9112381    339.97174  0.022610518  0.022275984           28 
 1254000   0.75343432   -6.9073093    340.28517  0.022613315  0.022260459           28 
 1255000   0.75138564    -6.920114    338.69999  0.022490039  0.022244915           23 
 1256000   0.75271313   -6.8827071     339.8776  0.022550265  0.022229428           25 
 1257000   0.74711818   -6.8571365    340.14491  0.022550047  0.022214005           15 
 1258000   0.73370935   -6.8971984    339.81839  0.022510492  0.022198542           21 
 1259000   0.75673546   -6.9300504    339.78881  0.022490655  0.022183118           18 
 1260000   0.73665961   -6.8896889    339.67526  0.022465295   0.02216766           13 
 1261000   0.76380727   -6.9157163    340.87532  0.022526786   0.02215219            8 
 1262000    0.7472165   -6.9017919    340.54579  0.022487176  0.022136803           18 
 1263000   0.76132513   -6.8943111    339.86188  0.022424247  0.022121406           23 
 1264000   0.76318301   -6.9282416    340.58987  0.022454501   0.02210601           39 
 1265000   0.74273994   -6.9236095     340.4761  0.022429256  0.022090606           27 
 1266000   0.75181432   -6.9214479    340.57886  0.022418303   0.02207519           52 
 1267000   0.75141695   -6.9237956    341.23975  0.022444077  0.022059769           24 
 1268000   0.75067737   -6.9002944    340.62994    0.0223863  0.022044392           49 
 1269000   0.74214868   -6.9040852    341.02435  0.022394559   0.02202904           66 
 1270000   0.75935894   -6.8823952    341.32289  0.022396515  0.022013667           22 
 1271000   0.74179113   -6.9236683    340.58251  0.022330351  0.021998327           20 
 1272000   0.74913177   -6.9060766     340.1479  0.022284323  0.021983054           42 
 1273000   0.73014071   -6.9174523    340.95294  0.022319517  0.021967727           30 
 1274000   0.74390948   -6.9147246    340.61125  0.022279647   0.02195244           57 
 1275000   0.73376323   -6.9233569    340.43496  0.022250651  0.021937168           32 
 1276000   0.75991645   -6.9325675    340.40006  0.022230934  0.021921934           25 
 1277000   0.75861362   -6.9051736    341.48716  0.022284466   0.02190665           35 
 1278000   0.73660663   -6.9123598    341.63169  0.022276453  0.021891454           24 
 1279000   0.72730325   -6.9139933    342.29098  0.022301993  0.021876255           32 
 1280000   0.73314638    -6.934691    341.55825  0.022236865  0.021861051           42 
 1281000    0.7308983   -6.9217065    341.51189   0.02221649  0.021845824           47 
 1282000   0.74333245   -6.9462684    341.86523  0.022222129  0.021830647           38 
 1283000   0.73900765   -6.9222007    341.57206  0.022185767  0.021815499           30 
 1284000   0.74555308   -6.9328807    341.75367  0.022180274  0.021800349           50 
 1285000   0.74042869   -6.9163187    341.94172  0.022175209   0.02178527           47 
 1286000   0.72625136   -6.9143705    342.02375  0.022163281  0.021770132           12 
 1287000   0.72957201   -6.9211006    341.58479  0.022117637  0.021755005           24 
 1288000   0.72712786    -6.929375    341.80367  0.022114626  0.021739863           23 
 1289000   0.74448144   -6.9213541    341.13898  0.022054498  0.021724646           26 
 1290000   0.74482568   -6.9201724    341.97417  0.022091354  0.021709499           22 
 1291000   0.73681323   -6.9144254    342.35798  0.022099018   0.02169429           16 
 1292000   0.73026088    -6.935631    342.01184  0.022059587  0.021679061           17 
 1293000   0.72380071   -6.9268915    341.97513   0.02204016  0.021663845           28 
 1294000   0.73728492   -6.9301043    342.33871  0.022046542  0.021648699           29 
 1295000   0.72539785    -6.920947    341.82732   0.02199661  0.021633537           13 
 1296000   0.73195077   -6.9444069    342.55128  0.022026188  0.021618331           34 
 1297000   0.73441334   -6.9401405    342.29604  0.021992806  0.021603141           50 
 1298000   0.74847125   -6.9372109     341.7047  0.021937898  0.021587975           19 
 1299000   0.73001574   -6.9497978    342.40307  0.021965812  0.021572818           27 
 1300000   0.75742197   -6.9285792    342.41165  0.021949465  0.021557616           18 
 1301000   0.73798982   -6.9387937    342.09423  0.021912262  0.021542437           24 
 1302000   0.74306207   -6.9266522    342.22245  0.021903639  0.021527261           18 
 1303000   0.73959749   -6.9657161    341.99116  0.021872036  0.021512134           20 
 1304000   0.75080962   -6.9304826    342.62373  0.021895688  0.021496967           25 
 1305000   0.75298628   -6.9603873    341.91868  0.021833887  0.021481794           45 
 1306000    0.7350323   -6.9425813    342.31411  0.021842401  0.021466656           12 
 1307000   0.73639269   -6.9529105    342.38465  0.021830187  0.021451582           14 
 1308000   0.73449025   -6.9542213     342.6084  0.021827753  0.021436452           11 
 1309000   0.72541355   -6.9525682    342.32561  0.021793074  0.021421298           34 
 1310000   0.74603144   -6.9507432     343.0361  0.021821635  0.021406174           20 
 1311000     0.709482   -6.9641225    342.97197  0.021800914  0.021391107           41 
 1312000    0.7255585   -6.9426637    343.03903  0.021788556  0.021376095           29 
 1313000   0.74319749   -6.9519459    343.38154    0.0217937  0.021361122           53 
 1314000   0.74757774   -6.9600935    344.05805  0.021820018  0.021346203           41 
 1315000   0.73674621   -6.9535892    343.55953  0.021771833  0.021331256           44 
 1316000   0.72160973   -6.9526331    342.99291  0.021719409  0.021316333           22 
 1317000   0.71918594   -6.9799247    343.61812  0.021742478  0.021301391           47 
 1318000   0.72887033   -6.9681911    343.53794  0.021720912  0.021286479           48 
 1319000   0.72340543   -6.9650395    343.77377  0.021719343  0.021271635           52 
 1320000   0.71817908   -6.9301542    344.41082  0.021743107  0.021256884           54 
 1321000   0.72697297   -6.9348188    343.47614  0.021667685  0.021242046           37 
 1322000   0.72265739   -6.9822734    343.95663  0.021681583  0.021227257           39 
 1323000   0.72180024   -6.9745224    344.30408   0.02168708  0.021212468           30 
 1324000   0.73675544   -6.9487308    344.08096  0.021656657  0.021197686           13 
 1325000   0.73750743   -6.9545767    343.33359  0.021593308  0.021182915           25 
 1326000   0.72754867   -6.9635566    343.35225  0.021578196  0.021168112           11 
 1327000   0.70335542   -6.9829593    343.60518  0.021577818   0.02115329           21 
 1328000   0.71855099   -6.9318684    344.53575  0.021619964  0.021138541           20 
 1329000    0.7187884    -6.956469    344.53769  0.021603818  0.021123798           30 
 1330000    0.7221381   -6.9694365    344.15563  0.021563636  0.021109064           30 
 1331000   0.71119919   -6.9701786    343.65223  0.021515917  0.021094325           74 
 1332000   0.71606193   -6.9818245    344.32843  0.021542069  0.021079584           68 
 1333000   0.71309599   -6.9919538    343.96447  0.021503155  0.021064762           45 
 1334000   0.72958684   -6.9888448    344.38543  0.021513332  0.021050019           26 
 1335000   0.70410146   -6.9904207    344.73499  0.021519038  0.021035293           26 
 1336000   0.71910993   -6.9352354    345.67901  0.021561814  0.021020671           23 
 1337000    0.7174884   -6.9458733    345.09522    0.0215093  0.021006119           26 
 1338000   0.70729493   -6.9617974    345.42083  0.021513504   0.02099151           38 
 1339000    0.7159036   -6.9761009    345.82363  0.021522506  0.020976928           27 
 1340000   0.71106322   -6.9713452    345.71885  0.021499929  0.020962378           58 
 1341000   0.70006746   -6.9646306    345.55829  0.021473918  0.020947874           41 
 1342000    0.7097545   -6.9897628     345.4849  0.021453359  0.020933365           26 
 1343000   0.70521985   -6.9727476    345.62466  0.021446057  0.020918829           41 
 1344000   0.71945698   -6.9859407    344.26729  0.021345938  0.020904207           52 
 1345000   0.71648717   -6.9670217    345.82235  0.021426416  0.020889596           31 
 1346000   0.71786106   -6.9924958    345.39808   0.02138423  0.020874958           20 
 1347000   0.72713094   -6.9765127    345.48266  0.021373587  0.020860312           17 
 1348000   0.73665768   -7.0022866    344.48635  0.021296139  0.020845645           38 
 1349000   0.70962801   -6.9780287     344.4868   0.02128038  0.020830928           46 
 1350000   0.73548225   -6.9761402     344.6893  0.021277117  0.020816249           41 
 1351000   0.70178621   -6.9945197    345.58016  0.021316319  0.020801606           42 
 1352000   0.70284606   -6.9980764    344.81127   0.02125316  0.020786894           31 
 1353000   0.72353845   -6.9677719    344.45336  0.021215408  0.020772188           42 
 1354000   0.72489267   -7.0050523    345.01234  0.021234142  0.020757463           49 
 1355000    0.7236339   -7.0039734     345.4121  0.021243057  0.020742788           17 
 1356000   0.71261118   -7.0005559     345.0566  0.021205543  0.020728125           31 
 1357000   0.71769368   -6.9739493    344.30386  0.021143691  0.020713498           41 
 1358000   0.72148696   -7.0093176    344.86187  0.021162363  0.020698855           47 
 1359000   0.71299752   -6.9675678    345.31299  0.021174454  0.020684187           34 
 1360000   0.70085566   -7.0042498    345.43127  0.021166132  0.020669583           22 
 1361000   0.70875717   -6.9801037    345.16188  0.021134086  0.020654963           31 
 1362000   0.70915807   -7.0099416    345.20011  0.021120907  0.020640338           19 
 1363000   0.70114977   -6.9971709    345.70902  0.021136526  0.020625737           37 
 1364000   0.72303734   -6.9784776    345.38188  0.021101043  0.020611164           47 
 1365000   0.71868388   -6.9672803     346.1213  0.021130726  0.020596699           72 
 1366000   0.70725351   -6.9666296    346.39473  0.021131938  0.020582266           38 
 1367000   0.69812044   -7.0002964    345.72212  0.021075477  0.020567851           38 
 1368000   0.69494816   -6.9927219    345.50154  0.021046634  0.020553441           30 
 1369000    0.7157842   -7.0025927    345.79389  0.021049056  0.020539071           20 
 1370000   0.70668119   -6.9831936    345.92755  0.021041822  0.020524705           31 
 1371000     0.708228   -7.0095015    345.52251  0.021001855  0.020510276           60 
 1372000   0.69242443   -6.9750263    346.60493  0.021052292  0.020495883          120 
 1373000    0.7200618   -6.9882904    346.60279  0.021036829  0.020481541          142 
 1374000   0.69639745   -6.9985862    346.83011  0.021035305   0.02046719           72 
 1375000   0.69817404   -7.0104504    346.06111    0.0209734  0.020452778          198 
 1376000    0.7176732   -6.9998367    346.38801  0.020977956  0.020438399          152 
 1377000   0.69990542   -7.0363344    346.15699  0.020948741  0.020423984          219 
 1378000   0.71122838   -7.0190056     346.2253  0.020937669  0.020409602          269 
 1379000   0.69687358   -7.0128452    345.89294  0.020902401  0.020395182          178 
 1380000   0.71038761   -7.0389391    346.14285  0.020902346  0.020380802          172 
 1381000   0.70316252   -7.0207546    346.12168  0.020885933  0.020366423          165 
 1382000   0.68940689   -7.0119695    345.99784  0.020863353  0.020352035          174 
 1383000   0.70829965   -7.0376251    346.57349  0.020882953  0.020337675          116 
 1384000   0.69421948   -7.0374272    345.83398  0.020823337   0.02032333          130 
 1385000   0.68602402   -7.0249414    345.68626  0.020799414  0.020308944          195 
 1386000   0.70656643   -7.0233434    346.18096  0.020814151  0.020294563          119 
 1387000    0.6938121   -7.0437026    346.87743   0.02084099  0.020280154           77 
 1388000   0.69483687   -7.0378209    346.31736  0.020792349  0.020265763          116 
 1389000   0.68321754   -7.0261569    346.34052  0.020778769  0.020251368          100 
 1390000    0.7127853   -7.0375133     346.0819  0.020748316  0.020237003          140 
 1391000   0.69714358    -7.015165    346.53132  0.020760324  0.020222638          120 
 1392000   0.69239509   -7.0248988    345.59078  0.020689103  0.020208258          158 
 1393000   0.68853239   -7.0504078    346.38538  0.020721786  0.020193907          179 
 1394000    0.6917202    -7.021031    346.57936  0.020718517  0.020179571          119 
 1395000   0.70590439   -7.0198104    347.11083  0.020735414  0.020165248          171 
 1396000   0.68294731   -7.0223144    346.70426  0.020696291  0.020150851          131 
 1397000   0.69178619   -7.0584416    347.35244  0.020720141  0.020136505          143 
 1398000   0.70326874   -7.0294275    346.63177  0.020662361  0.020122154          176 
 1399000   0.70625362   -7.0340056    346.57214   0.02064404  0.020107833          194 
 1400000   0.70298067   -7.0537905    346.49041  0.020624429  0.020093494          174 
 1401000   0.69392384   -7.0307658    347.25364  0.020655106  0.020079184          168 
 1402000   0.70196084   -7.0170984      346.988  0.020624584  0.020064826          222 
 1403000   0.68439754   -7.0511969    347.12498   0.02061802  0.020050411          192 
 1404000   0.68757464   -7.0279579    345.90993  0.020531216  0.020036005          167 
 1405000   0.68331827     -7.02479    346.72757  0.020565099  0.020021626          213 
 1406000   0.69822036   -7.0565977    346.94945  0.020563623  0.020007252          269 
 1407000   0.68996592   -7.0485787    346.17568  0.020503179  0.019992846          330 
 1408000   0.69577207   -7.0506222    346.16639  0.020488068  0.019978411          424 
 1409000   0.68930757    -7.053433    345.95229  0.020460864  0.019963969          430 
 1410000   0.68524088   -7.0588217    345.85958  0.020440873  0.019949547          508 
 1411000   0.68430138   -7.0631185    345.95499  0.020432022  0.019935154          400 
 1412000    0.6832413    -7.046326    346.54596  0.020452429  0.019920745          454 
 1413000   0.70312737   -7.1044423    345.95487  0.020403094  0.019906298          565 
 1414000   0.67812307   -7.0732256    346.40873  0.020415413  0.019891873          572 
 1415000   0.69572596    -7.070783    345.79977  0.020365122  0.019877503          468 
 1416000   0.68195963   -7.0559194    346.90963  0.020416057  0.019863162          536 
 1417000   0.69074855   -7.0719048    346.89965  0.020401061  0.019848865          481 
 1418000   0.68539128   -7.0666365    346.92458   0.02038814  0.019834555          468 
 1419000   0.67382591   -7.0641898    347.17259  0.020388336  0.019820213          519 
 1420000   0.69636644   -7.0946129    346.31809  0.020323832  0.019805816          593 
 1421000   0.67875214   -7.0784285     346.2385  0.020304862  0.019791419          569 
 1422000   0.67807555   -7.0880321    346.26243  0.020291985  0.019776983          472 
 1423000   0.69335052   -7.0468957    345.40199  0.020227336  0.019762544          532 
 1424000    0.7019871   -7.0640148    346.45807  0.020274934  0.019748107          470 
 1425000    0.6849008   -7.0641942    345.60216  0.020210652  0.019733733          588 
 1426000    0.6863112   -7.0705937     346.4373  0.020245284  0.019719268          536 
 1427000   0.69057104   -7.0879261    345.58967  0.020181597  0.019704789          556 
 1428000   0.67250499   -7.0656427    345.59408  0.020167722  0.019690325          543 
 1429000   0.68688689   -7.0828294    345.99474  0.020176973  0.019675893          612 
 1430000   0.68450076   -7.1029293    346.22871  0.020176498   0.01966143          597 
 1431000   0.68233196   -7.1229254    345.66838  0.020129768  0.019646992          607 
 1432000     0.691554   -7.0928994    346.38154  0.020157212  0.019632579          651 
 1433000    0.6675155   -7.0904804    345.87586  0.020113739  0.019618168          688 
 1434000   0.69342734   -7.1176611    346.12762  0.020114343  0.019603752          735 
 1435000   0.67551586   -7.1174554    345.83624  0.020083405  0.019589293          746 
 1436000    0.6815119   -7.1182788     345.6406  0.020058066   0.01957488          759 
 1437000   0.68449846   -7.1177808    345.36036  0.020027857   0.01956042          746 
 1438000   0.69894648   -7.0959705    345.75504  0.020036801  0.019545949          734 
 1439000   0.68382379   -7.1177188    345.76626  0.020023527  0.019531511          711 
 1440000   0.68460041   -7.1114977    346.18285   0.02003373  0.019517091          754 
 1441000   0.68215544    -7.141612    346.07925  0.020013836  0.019502649          805 
 1442000   0.65564896   -7.1169147    346.04849  0.019998179  0.019488187          867 
 1443000   0.67027432    -7.094202    346.64032  0.020018499  0.019473732          816 
 1444000   0.66955976   -7.1227915     345.8931  0.019961513  0.019459316          751 
 1445000    0.6755102   -7.1163241    346.10102  0.019959689  0.019444866          737 
 1446000   0.68719243   -7.1312159    346.50808  0.019969345  0.019430398          769 
 1447000   0.66285649   -7.1218576     345.3361   0.01988805  0.019415891          866 
 1448000   0.68315172   -7.1381697    345.36262  0.019875841    0.0194014          924 
 1449000   0.68574232   -7.1483497    345.18172  0.019851721  0.019386934          856 
 1450000   0.66907304   -7.1362167    345.26261  0.019842679  0.019372469          885 
 1451000   0.67721812   -7.1178841    344.92454  0.019809588  0.019357985          880 
 1452000   0.67547559   -7.1442244    345.72855  0.019842089  0.019343546          767 
 1453000   0.67017776    -7.119009    345.83066  0.019834289  0.019329045          983 
 1454000   0.66655521    -7.122565    345.31004  0.019790809  0.019314585          906 
 1455000   0.66735407   -7.1271737    345.47308  0.019786545  0.019300048          850 
 1456000   0.66325998    -7.134896    344.94636  0.019742809  0.019285525          862 
 1457000   0.66977299   -7.1272006    345.49458  0.019760614  0.019270999          821 
 1458000   0.67921205   -7.1299913    344.92606  0.019714567  0.019256507          921 
 1459000   0.68524544   -7.1380097    345.71385   0.01974605  0.019242022          800 
 1460000   0.66873367   -7.1386538    345.40502  0.019714898   0.01922756          917 
 1461000    0.6619338    -7.133449    345.76866  0.019722146  0.019213077          901 
 1462000   0.67458785   -7.1405682    345.19509  0.019675962  0.019198587         1007 
 1463000   0.67420701   -7.1479713    344.91615  0.019646625  0.019184072         1025 
 1464000   0.69391732   -7.1382586    345.85161  0.019686453  0.019169564         1045 
 1465000   0.65536803   -7.1642271    345.11748  0.019631256  0.019155073         1115 
 1466000   0.67180127   -7.1547309    345.77416  0.019655194  0.019140569         1043 
 1467000   0.66170167   -7.1639827    345.02325   0.01959914  0.019126054         1059 
 1468000   0.66882684   -7.1520917    344.75664  0.019570654  0.019111535         1117 
 1469000   0.65404746   -7.1568343    343.79655  0.019502868  0.019097028         1086 
 1470000   0.68283934   -7.1607045    345.60122  0.019591906  0.019082513         1115 
 1471000    0.6633225   -7.1504311    344.78723  0.019532474  0.019068019         1108 
 1472000   0.66916312   -7.1531758      345.128  0.019538496   0.01905348         1256 
 1473000   0.66124749   -7.1849339    344.21054  0.019473328  0.019038937         1201 
 1474000   0.65221118   -7.1918413    344.79504  0.019493161  0.019024335         1242 
 1475000   0.66196495    -7.165798    344.80774  0.019480663  0.019009734         1218 
 1476000   0.65826253   -7.1911607    345.23371  0.019491515  0.018995136         1329 
 1477000   0.67085003    -7.191004    345.11345  0.019471533   0.01898058         1345 
 1478000   0.66983121   -7.1934292    343.73266  0.019380507   0.01896601         1520 
 1479000   0.66323746   -7.2029431    344.04374   0.01938493  0.018951434         1537 
 1480000    0.6603108   -7.2018992    344.23584  0.019382649  0.018936825         1530 
 1481000   0.67471886   -7.1934542    345.22082  0.019424984  0.018922258         1533 
 1482000   0.66928078   -7.1913668    343.50951   0.01931565  0.018907678         1442 
 1483000   0.65222272   -7.2207124    343.92068  0.019325729  0.018893074         1497 
 1484000    0.6700605   -7.1802758    344.80454  0.019362339  0.018878437         1455 
 1485000   0.64621557   -7.2230422    344.57252  0.019336281  0.018863819         1531 
 1486000   0.65850146   -7.1799094    343.94483  0.019288068   0.01884923         1550 
 1487000   0.64302595   -7.2076687     344.4666  0.019304337  0.018834627         1574 
 1488000   0.65322247   -7.2052638    344.66662  0.019302566  0.018820013         1595 
 1489000    0.6481222   -7.2306967    344.47779  0.019279035  0.018805446         1558 
 1490000   0.66054006   -7.2257947    344.34474  0.019258654   0.01879089         1570 
 1491000   0.64867279    -7.221207     343.6469  0.019206735  0.018776316         1677 
 1492000   0.66149862   -7.2400128    344.17334  0.019223265  0.018761742         1698 
 1493000   0.64687455   -7.2263244      343.641  0.019180676  0.018747128         1759 
 1494000   0.65122307   -7.2398998    344.47863   0.01921456  0.018732547         1734 
 1495000   0.65752856   -7.2400821    344.36444  0.019195342  0.018717943         1723 
 1496000   0.65775817   -7.2430063    344.14182   0.01917011  0.018703358         1736 
 1497000   0.65328234   -7.2305532    344.39559  0.019171431  0.018688766         1755 
 1498000   0.65013984   -7.2047617    344.11026   0.01914276  0.018674179         1799 
 1499000   0.66105137   -7.2191782    344.11623  0.019130322  0.018659615         1778 
 1500000   0.66203062   -7.2223512    343.74274  0.019096819  0.018645049         1839 
 1501000   0.64523402   -7.2693285    344.11097   0.01910454  0.018630488         1862 
 1502000   0.66054593   -7.2243296    343.48548  0.019057117   0.01861595         1835 
 1503000   0.64637462   -7.2422599    344.76816  0.019115556  0.018601409         1847 
 1504000   0.63502264   -7.2645288    343.76152   0.01904707  0.018586807         1954 
 1505000   0.66148655   -7.2691167    344.54928  0.019078033  0.018572189         1927 
 1506000   0.64996262   -7.2603525    343.60452  0.019013088  0.018557585         1951 
 1507000   0.65565227   -7.2561758    343.57482  0.018998829  0.018542977         1934 
 1508000   0.64516577   -7.2615304     342.9303  0.018950614  0.018528354         1931 
 1509000   0.66013683   -7.2775035    343.09278  0.018947028  0.018513763         1914 
 1510000   0.64755372   -7.2729304    344.01657  0.018985462  0.018499164         1958 
 1511000   0.65124225   -7.2727314    342.89217  0.018910885   0.01848459         2014 
 1512000   0.65387482    -7.247943    343.39356  0.018926012  0.018470022         1995 
 1513000   0.63156072   -7.2663442    343.08728  0.018896633  0.018455457         1960 
 1514000   0.65266858   -7.2589993    343.18913  0.018889759  0.018440899         1986 
 1515000    0.6594568   -7.2766231    343.59839  0.018899802  0.018426353         1951 
 1516000   0.65190509   -7.2694904    342.97822  0.018853244  0.018411771         1982 
 1517000   0.65211327    -7.278215    342.67544  0.018824184  0.018397226         1974 
 1518000   0.64480732   -7.2801002    343.18487  0.018839749  0.018382646         2063 
 1519000   0.64834125   -7.2601658    342.86393  0.018809739  0.018368097         2092 
 1520000   0.64105506   -7.3002011    342.82298  0.018795119  0.018353548         2107 
 1521000   0.63105378   -7.2853399    342.57842  0.018769363  0.018339011         2080 
 1522000   0.64269307   -7.2556715     343.0929    0.0187852  0.018324472         2074 
 1523000   0.64693069   -7.2731536    343.92733  0.018818523  0.018309945         2089 
 1524000   0.64503611   -7.3058697    343.03063  0.018757143  0.018295396         2128 
 1525000   0.64751606   -7.3068194    343.69092  0.018780925  0.018280843         2128 
 1526000   0.64918016   -7.2898685    342.87771  0.018724209  0.018266321         2088 
 1527000   0.64903906   -7.2927311    343.27117  0.018733419  0.018251788         2099 
 1528000    0.6460881   -7.2651648    342.56283  0.018682528  0.018237233         2131 
 1529000   0.65183218   -7.2754733    342.99389  0.018693803  0.018222719         2114 
 1530000    0.6550131   -7.2962194    341.88839  0.018621372  0.018208191         2192 
 1531000   0.63406498   -7.3084468    343.30518  0.018686326  0.018193684         2192 
 1532000   0.64394345   -7.3142645    342.82245   0.01864787  0.018179194         2171 
 1533000   0.63888996   -7.3062416    343.30992  0.018662205  0.018164688         2157 
 1534000   0.65362201   -7.2943605    342.71513  0.018617728  0.018150193         2222 
 1535000   0.63854787   -7.3250937    342.74635  0.018607294   0.01813571         2246 
 1536000   0.64927876   -7.3118448    342.91078    0.0186041  0.018121249         2223 
 1537000    0.6457186   -7.3200626    342.98052  0.018595777   0.01810677         2312 
 1538000   0.63572248   -7.2926105    342.71119  0.018569094  0.018092297         2229 
 1539000   0.64644854   -7.3141703    342.13705   0.01852594  0.018077836         2287 
 1540000   0.62626474   -7.3200617    342.34463  0.018525142  0.018063349         2224 
 1541000   0.63587993    -7.312472    342.95374   0.01854606  0.018048899         2230 
 1542000   0.64538807   -7.3234338    342.65179  0.018517714  0.018034452         2232 
 1543000   0.64279205   -7.3132199    343.20466  0.018535572  0.018020007         2268 
 1544000    0.6314457    -7.331884    342.41466   0.01848093  0.018005557         2304 
 1545000   0.63224235   -7.3407617      342.899  0.018495092  0.017991128         2295 
 1546000   0.62609009   -7.3258515    342.64322  0.018469341  0.017976701         2364 
 1547000    0.6357689   -7.3313477    341.91997  0.018418442  0.017962306         2344 
 1548000    0.6372822   -7.3326223    342.88668  0.018458585  0.017947952         2336 
 1549000   0.63183523   -7.3381158    343.02541  0.018454132  0.017933597         2339 
 1550000   0.63578754   -7.3195061    342.80251  0.018430242  0.017919239         2393 
 1551000   0.62886074   -7.3579075    342.68786  0.018412199  0.017904887         2410 
 1552000   0.63589867   -7.3482244    342.53687  0.018392229  0.017890555         2385 
 1553000   0.63280416   -7.3398139    342.97124  0.018403694  0.017876217         2392 
 1554000   0.64039494   -7.3539458    342.28802  0.018355213  0.017861859         2397 
 1555000   0.63145083   -7.3370805    342.00046  0.018327999   0.01784749         2405 
 1556000   0.63353806   -7.3161694    342.61883  0.018349337  0.017833167         2394 
 1557000   0.62921724   -7.3513131    342.38112   0.01832483  0.017818838         2412 
 1558000   0.62348895   -7.3651008    342.48768  0.018318768  0.017804499         2430 
 1559000    0.6201144    -7.353243    342.53663  0.018309634  0.017790165         2452 
 1560000   0.62724149   -7.3457977    342.20347    0.0182801  0.017775842         2435 
 1561000   0.63539512   -7.3351272    342.41281  0.018279565  0.017761514         2422 
 1562000   0.66260791   -7.3657586     342.1934  0.018256157   0.01774719         2435 
 1563000   0.61670589   -7.3467575    342.38119  0.018254489  0.017732872         2464 
 1564000   0.63752974   -7.3630522     342.0276  0.018223977  0.017718555         2475 
 1565000   0.63585219   -7.3737198    342.18251  0.018220581   0.01770426         2455 
 1566000   0.61848202   -7.3672267    342.24558  0.018212302  0.017689961         2467 
 1567000   0.62256891   -7.3733489    341.99172  0.018187179  0.017675689         2506 
 1568000   0.63436133   -7.3650049    342.22776  0.018188125  0.017661422         2486 
 1569000   0.63174883   -7.3808692    342.22225   0.01817624  0.017647172         2503 
 1570000   0.61442041    -7.350067    341.82948  0.018143815  0.017632914         2535 
 1571000   0.62770196   -7.3599876    342.88955  0.018188497  0.017618662         2481 
 1572000   0.62087483   -7.3631828     342.0471  0.018132268  0.017604436         2514 
 1573000   0.62004777   -7.3707223    342.16085  0.018126767  0.017590185         2477 
 1574000   0.63848361   -7.3731511    342.21382  0.018118055  0.017575943         2506 
 1575000   0.62171904   -7.3545372    342.32531   0.01811245  0.017561701         2508 
 1576000   0.61688558   -7.3601311    341.84935  0.018075791  0.017547473         2543 
 1577000   0.61632225   -7.3681729      341.982  0.018071338   0.01753327         2523 
 1578000   0.60859693   -7.3785512    341.64053  0.018041853  0.017519094         2613 
 1579000    0.6301202   -7.3864116    342.04999  0.018052037  0.017504912         2631 
 1580000   0.61598022   -7.3750112    342.20572  0.018048825  0.017490727         2559 
 1581000   0.64171792   -7.3733064    341.32197  0.017990827  0.017476546         2640 
 1582000   0.62326118    -7.379374    341.67067  0.017997823    0.0174624         2593 
 1583000   0.63185587   -7.3727467    341.35588  0.017969882  0.017448252         2573 
 1584000   0.61706974   -7.3828699    341.78746  0.017981243  0.017434098         2616 
 1585000   0.61313496   -7.3866286    341.98835   0.01798046  0.017419968         2594 
 1586000   0.62544601   -7.3807167    341.85978  0.017962367   0.01740587         2617 
 1587000   0.62174558   -7.3800816    341.31804  0.017922602  0.017391754         2694 
 1588000   0.60962294   -7.3884428    342.10237  0.017952475  0.017377642         2606 
 1589000   0.60923256   -7.3818504    341.96809  0.017934135  0.017363538         2669 
 1590000   0.62810277   -7.3721645    341.28281   0.01788694  0.017349452         2671 
 1591000   0.62455788   -7.3810874    341.48403  0.017886237  0.017335362         2609 
 1592000   0.61913125   -7.3833588    341.93744  0.017898735  0.017321274         2673 
 1593000    0.6158775   -7.3923617    341.77576  0.017879042  0.017307194         2683 
 1594000   0.61320926   -7.3876725    342.04582  0.017881944  0.017293127         2746 
 1595000   0.61159985   -7.3943131    342.30438  0.017884241  0.017279055         2700 
 1596000   0.62621158   -7.3840519    341.77737  0.017845519  0.017265018         2679 
 1597000   0.62951763   -7.3875924    341.57312  0.017823686  0.017250975         2734 
 1598000   0.61866674   -7.4002725    342.06923  0.017838404  0.017236955         2724 
 1599000   0.60633495   -7.3779036    341.16145  0.017779938  0.017222947         2713 
 1600000   0.62555658   -7.3981714    341.64911  0.017794225  0.017208951         2755 
 1601000   0.60938136   -7.3925672     342.3033  0.017817161  0.017194953         2679 
 1602000    0.6208442   -7.3948479    341.37747  0.017757879  0.017180962         2735 
 1603000   0.61077486    -7.387342    342.13913  0.017786397  0.017166989         2727 
 1604000   0.61727563   -7.3927624    341.61035  0.017747836  0.017153025         2666 
 1605000   0.60386184   -7.3921619    341.32903  0.017722172  0.017139034         2715 
 1606000   0.61310294   -7.3950244     340.9217  0.017690001  0.017125074         2706 
 1607000   0.61685868   -7.3988077    341.69166  0.017718921  0.017111129         2771 
 1608000   0.61649459   -7.3964022    341.16318  0.017680513  0.017097192         2737 
 1609000   0.61000115   -7.3927385    340.89216  0.017655488   0.01708325         2773 
 1610000   0.59397813   -7.4112562    341.47608  0.017674745  0.017069319         2782 
 1611000   0.61195243   -7.3977277    341.90147  0.017685778  0.017055418         2821 
 1612000   0.61000145   -7.4101794    341.65611  0.017662123  0.017041508         2750 
 1613000   0.61429725   -7.3984504    341.64588  0.017650645  0.017027621         2795 
 1614000   0.60122984   -7.3811087     341.2071  0.017617054  0.017013742         2757 
 1615000   0.61170066    -7.420215    340.79612  0.017584939  0.016999842         2840 
 1616000   0.60684455   -7.4156654    341.42615  0.017606546  0.016985992         2795 
 1617000   0.61242567    -7.407277    341.13776  0.017580796  0.016972141         2800 
 1618000   0.59871698    -7.421781    341.49058  0.017588102  0.016958289         2798 
 1619000   0.61334221   -7.4129537    341.46658  0.017576002   0.01694443         2811 
 1620000   0.60606855   -7.4092625    341.04693  0.017543566  0.016930573         2831 
 1621000   0.61482018   -7.4256206     341.7096   0.01756681  0.016916739         2825 
 1622000   0.60351529   -7.4138345    340.83254   0.01751092  0.016902914         2870 
 1623000    0.6002146   -7.4220102     340.9329  0.017505284  0.016889117         2801 
 1624000   0.59731907   -7.4300415    341.23884  0.017510203  0.016875319         2856 
 1625000   0.60959373   -7.4203197    341.60967  0.017518445  0.016861526         2841 
 1626000   0.61884864   -7.4069661    341.05402  0.017479193  0.016847759         2896 
 1627000   0.59970898   -7.4184991     341.3114  0.017481633  0.016833991         2836 
 1628000   0.60563205   -7.4179165    340.75183  0.017442252  0.016820243         2721 
 1629000   0.59103605   -7.3950716    341.48086  0.017468839  0.016806498         2789 
 1630000    0.6007866   -7.4168715     340.9627  0.017431631  0.016792785         2799 
 1631000   0.59937369    -7.406375    341.32131  0.017439266  0.016779083         2710 
 1632000   0.61139691   -7.4210084     341.3536  0.017430229  0.016765369         2786 
 1633000   0.60784729   -7.4130798    340.74476  0.017388485  0.016751658         2742 
 1634000   0.61436297   -7.4111829    340.62653  0.017371814   0.01673795         2807 
 1635000   0.60865534   -7.4219622    340.91768  0.017376029  0.016724256         2770 
 1636000   0.59707392    -7.406108    341.07261  0.017373299  0.016710594         2745 
 1637000   0.60365685   -7.4111955    340.60239  0.017338749  0.016696923         2806 
 1638000   0.59597063   -7.4320552    341.07181  0.017352046  0.016683272         2806 
 1639000   0.59262077   -7.4291778    340.95109  0.017335321  0.016669633         2834 
 1640000   0.60974133   -7.4447699     341.2639  0.017340645  0.016656008         2873 
 1641000   0.59442167   -7.4125081    341.17953  0.017325794  0.016642375         2845 
 1642000   0.59116055   -7.4167422    341.03249   0.01730778  0.016628756         2787 
 1643000   0.58588038   -7.4360563    340.97265   0.01729421  0.016615136         2786 
 1644000   0.59535117   -7.4078051    341.31542  0.017301066  0.016601548         2844 
 1645000   0.59524252   -7.4255815    341.15175  0.017282257  0.016587945         2794 
 1646000   0.58743545   -7.4110211    340.92773  0.017260416  0.016574354         2861 
 1647000   0.58769865   -7.4311816    340.84457  0.017245728  0.016560789         2811 
 1648000    0.5849934   -7.4328239    341.39806  0.017263251  0.016547236         2817 
 1649000   0.58474025   -7.4115623    341.96741  0.017281555  0.016533707         2816 
 1650000   0.58161122   -7.4427645    341.22161  0.017233415  0.016520181         2788 
 1651000   0.60105517   -7.4230788    341.23591  0.017223698  0.016506646         2768 
 1652000   0.58516607   -7.4255496    341.49876  0.017226532  0.016493128         2878 
 1653000   0.59214216   -7.4228555    340.82005  0.017181894  0.016479624         2808 
 1654000   0.60098501   -7.4350784    340.88357  0.017174707  0.016466134         2876 
 1655000   0.58923481   -7.4335871    340.45899   0.01714295  0.016452676         2804 
 1656000   0.59895706   -7.4343497    340.65091  0.017142256  0.016439194         2868 
 1657000    0.5855753    -7.443529    340.99204  0.017149066   0.01642573         2800 
 1658000   0.58081225   -7.4220551     340.1523  0.017096517  0.016412277         2814 
 1659000   0.58551155    -7.420747    341.01225  0.017129408  0.016398833         2846 
 1660000   0.59370472   -7.4359161    340.87827  0.017112363    0.0163854         2830 
 1661000   0.59030819   -7.4550776    340.55882  0.017086034   0.01637198         2812 
 1662000   0.58764081   -7.4500228    340.35881  0.017065725  0.016358548         2872 
 1663000   0.59882987   -7.4415547    340.05541  0.017040259  0.016345133         2840 
 1664000   0.58735444   -7.4392308    340.50748  0.017052658  0.016331707         2830 
 1665000   0.58478611   -7.4344572    339.99875  0.017016955  0.016318293         2854 
 1666000   0.57761694   -7.4466424    340.12431  0.017013021  0.016304908         2858 
 1667000   0.58907701   -7.4333165    341.17254  0.017055216  0.016291517         2780 
 1668000   0.59495447   -7.4551153    340.64287  0.017018529  0.016278153         2870 
 1669000   0.57164862    -7.429575    341.17457   0.01703488   0.01626479         2813 
 1670000   0.58324561   -7.4555545    340.57268  0.016994645  0.016251441         2833 
 1671000   0.58872133   -7.4388322    340.18602  0.016965192  0.016238099         2893 
 1672000   0.58793865   -7.4625846    340.78666  0.016984981  0.016224768         2840 
 1673000   0.58799791   -7.4597641    340.89532  0.016980241  0.016211453         2851 
 1674000   0.58977229   -7.4650862    340.91704  0.016971179  0.016198148         2821 
 1675000   0.58741656   -7.4559122    340.60035  0.016945291  0.016184839         2886 
 1676000   0.58636069   -7.4323933    340.20983  0.016915763   0.01617155         2797 
 1677000   0.58572345   -7.4593816    340.22403  0.016906382  0.016158277         2856 
 1678000   0.59875028   -7.4580303    340.29465  0.016899814  0.016145018         2814 
 1679000   0.58127236    -7.460664    340.18989  0.016884549  0.016131761         2866 
 1680000   0.57198076    -7.458032    340.41979  0.016885902  0.016118526         2861 
 1681000   0.58502102   -7.4580705     340.2631  0.016868089  0.016105305         2859 
 1682000   0.59157566   -7.4467072    340.36092  0.016862907  0.016092107         2885 
 1683000   0.59604935    -7.462519    340.88532  0.016878853  0.016078901         2884 
 1684000   0.57148925   -7.4781509    340.59451  0.016854439  0.016065707         2820 
 1685000   0.58202388   -7.4601091    340.44378  0.016836982  0.016052497         2821 
 1686000     0.573984   -7.4398126    340.14186  0.016812073  0.016039331         2867 
 1687000   0.58303386    -7.450248    340.37873  0.016813808  0.016026172         2872 
 1688000   0.58376224    -7.457426    340.52784  0.016811208  0.016013025         2848 
 1689000   0.57063988   -7.4425518    339.74809  0.016762783  0.015999884         2874 
 1690000   0.57725156   -7.4622184    340.30957  0.016780551  0.015986764         2895 
 1691000   0.59035553   -7.4646475    340.02347  0.016756528  0.015973633         2863 
 1692000   0.56908153   -7.4761235    340.13672  0.016752203  0.015960522         2910 
 1693000   0.57720862   -7.4565104    339.99143  0.016735156  0.015947405         2910 
 1694000   0.58508574   -7.4564041    340.36923  0.016743862  0.015934313         2839 
 1695000   0.55808673   -7.4784918    340.44694  0.016737805  0.015921248         2866 
 1696000   0.57109495   -7.4521004    340.49285  0.016730191  0.015908184         2845 
 1697000   0.58110615   -7.4468422    340.26099  0.016708947  0.015895142         2897 
 1698000   0.57539807   -7.4869635    340.51954  0.016711795   0.01588211         2890 
 1699000   0.59344279   -7.4541305    340.33912   0.01669311  0.015869072         2839 
 1700000   0.56340485   -7.4582604    339.57189  0.016645681  0.015856043         2903 
 1701000    0.5747316   -7.5031009     340.8443  0.016698231   0.01584303         2881 
 1702000   0.57689524   -7.4969222    340.43482  0.016668372  0.015830026         2834 
 1703000   0.57424363   -7.4777515    339.98618   0.01663663  0.015817018         2897 
 1704000   0.56381786   -7.4658788    339.93219  0.016624227   0.01580401         2915 
 1705000   0.58042657   -7.4798731    340.35092  0.016634942  0.015791029         2904 
 1706000   0.56017918   -7.4659984    339.68489  0.016592658  0.015778069         2884 
 1707000   0.58432842   -7.4976244    340.22331  0.016609222  0.015765113         2930 
 1708000   0.57377626   -7.4614335    340.24916  0.016600759   0.01575217         2862 
 1709000   0.55586467   -7.4735774    340.37722   0.01659729  0.015739239         2856 
 1710000   0.56667011    -7.483437    339.98718  0.016568576  0.015726299         2847 
 1711000   0.56256106   -7.4834752    340.04048  0.016561489  0.015713397         2876 
 1712000   0.57528018   -7.4796782    340.11001  0.016555199  0.015700496         2904 
 1713000   0.55894052   -7.4709962      339.601  0.016520773  0.015687601         2909 
 1714000   0.57387085   -7.4735936    340.09021  0.016534919  0.015674722         2922 
 1715000   0.56552683   -7.4742519    339.82125  0.016512208  0.015661829         2847 
 1716000    0.5650875   -7.4806881    339.27406  0.016476013  0.015648942         2948 
 1717000   0.56076246   -7.5054414    339.85039  0.016494389  0.015636089         2924 
 1718000   0.57206668   -7.4614514    339.66872  0.016475976  0.015623249         2864 
 1719000   0.56133317   -7.4741738    339.71231  0.016468504  0.015610424         2871 
 1720000   0.55587007   -7.4779639    339.82479  0.016464379  0.015597611         2876 
 1721000   0.55087445   -7.4896008    339.66004  0.016446835  0.015584802         2886 
 1722000   0.56790251   -7.4854267    339.79035   0.01644359  0.015571997         2945 
 1723000   0.56445312   -7.4827948    339.62164  0.016425887  0.015559208         2822 
 1724000   0.58052598   -7.4755618    340.19628  0.016444136  0.015546422         2832 
 1725000   0.56267386    -7.499452    340.01395  0.016425794  0.015533651         2903 
 1726000   0.55877272   -7.4951438    339.96363  0.016413849  0.015520882         2901 
 1727000   0.55504098   -7.4923662    339.61203  0.016387378  0.015508124         2874 
 1728000   0.55746739   -7.4746487    339.97928  0.016395606  0.015495392         2857 
 1729000   0.57105302   -7.4869984       339.52  0.016363987  0.015482665         2895 
 1730000   0.56933193   -7.4886873     338.9603  0.016327567  0.015469939         2946 
 1731000   0.55528985   -7.4807815    339.81189  0.016359132   0.01545722         2855 
 1732000   0.56239887   -7.4884083    340.18265  0.016367526  0.015444535         2865 
 1733000   0.55460514    -7.498281    339.96132  0.016347438  0.015431855         2813 
 1734000   0.54125872   -7.5007617    339.61592  0.016321411  0.015419189         2876 
 1735000   0.56212203   -7.4899163    339.65495  0.016313879  0.015406528         2905 
 1736000   0.56983264   -7.5043665    339.94187  0.016318254  0.015393878         2898 
 1737000   0.55412051   -7.4917898    339.26768  0.016276515  0.015381244         2893 
 1738000   0.56132767    -7.506668     339.6844  0.016287131  0.015368632         2868 
 1739000    0.5626605   -7.5044017    339.50177  0.016269013  0.015356043         2874 
 1740000   0.55912082   -7.4944135    339.58631  0.016263712  0.015343449         2905 
 1741000   0.54830333   -7.5003395    339.61046  0.016255526  0.015330874         2891 
 1742000   0.53484407   -7.4938973    339.78198    0.0162544  0.015318299         2804 
 1743000   0.54512482   -7.4933112     339.8504  0.016248346  0.015305736         2907 
 1744000   0.55238974   -7.4959659    340.21859  0.016256622  0.015293181         2842 
 1745000   0.55985009   -7.5099382    339.55403  0.016215569  0.015280642         2869 
 1746000   0.56406529   -7.5219948    339.78301  0.016217211  0.015268114         2872 
 1747000   0.55199217   -7.5293908    339.83252   0.01621029  0.015255591         2860 
 1748000   0.54699379   -7.4989509    339.28978  0.016175142  0.015243054         2830 
 1749000   0.55931507     -7.48166    339.04902  0.016154423  0.015230546         2895 
 1750000   0.54306022   -7.4991165    339.68443  0.016175449  0.015218057         2844 
 1751000   0.55428257   -7.5157098    339.09124   0.01613798  0.015205572         2891 
 1752000   0.53786959   -7.5022526    339.11697  0.016129993  0.015193083         2948 
 1753000   0.54460334   -7.5136419     339.5705  0.016142351  0.015180617         2927 
 1754000   0.55141302   -7.4990515    339.06779  0.016109264  0.015168169         2901 
 1755000   0.55280754   -7.4946285    339.16331   0.01610462  0.015155729         2920 
 1756000   0.55312695   -7.5084483    339.25408  0.016099757  0.015143305         2933 
 1757000    0.5571444   -7.5225817    339.78805   0.01611592  0.015130891         2915 
 1758000   0.55463583   -7.5154729     339.3615  0.016086533  0.015118488         2924 
 1759000   0.54122212   -7.5103647    339.96035  0.016105758  0.015106085         2921 
 1760000   0.54454358   -7.4931344    339.49056  0.016074364  0.015093698         2895 
 1761000   0.55790336   -7.5200779     338.6619  0.016026022   0.01508131         2909 
 1762000   0.56164904   -7.4968551    339.83186   0.01607226  0.015068954         2895 
 1763000   0.54452102   -7.5115779    339.65296  0.016054687  0.015056601         2964 
 1764000   0.56169722    -7.508605    339.73011   0.01604923  0.015044271         2923 
 1765000   0.55378784   -7.4972683     339.8407  0.016045359  0.015031938         2885 
 1766000   0.53936154   -7.5198368    339.30367  0.016010932   0.01501962         2923 
 1767000   0.55019746   -7.5267517    339.54756  0.016013373  0.015007298         2954 
 1768000   0.55494248   -7.4988979     338.9157  0.015974533  0.014995001         2909 
 1769000   0.53828491   -7.5231605    339.32977  0.015985009  0.014982688         2932 
 1770000   0.54562203   -7.5146537    338.90763  0.015956103  0.014970401         2920 
 1771000   0.54833868    -7.508125    339.18379  0.015960088   0.01495813         2955 
 1772000   0.53662423   -7.5125121     339.4224  0.015962302  0.014945868         2896 
 1773000   0.54315209   -7.5284955    338.91089  0.015929258  0.014933618         2894 
 1774000   0.54768595    -7.532936    339.10364  0.015929333  0.014921381         2943 
 1775000   0.54345328   -7.5137827    338.96717  0.015913952  0.014909155         2937 
 1776000   0.54133136   -7.5100073    338.90763  0.015902197  0.014896941         2956 
 1777000   0.53701881   -7.5284355    338.90822  0.015893276  0.014884748         2910 
 1778000   0.54550877   -7.5048459    338.77259   0.01587798   0.01487255         2951 
 1779000   0.54139282   -7.5217661    339.42694  0.015899707  0.014860375         2939 
 1780000   0.55464094   -7.5265082    338.65746   0.01585475  0.014848191         3040 
 1781000   0.55012968   -7.5070646    339.42149  0.015881597  0.014836034         2971 
 1782000    0.5465301   -7.5308939    339.23748  0.015864079  0.014823889         2966 
 1783000   0.55335115   -7.5149037    339.14383  0.015850805  0.014811752         2938 
 1784000   0.53910934   -7.5129441    338.79482  0.015825618  0.014799614         2897 
 1785000   0.53855161   -7.5196836    339.27016  0.015838943  0.014787498         2976 
 1786000   0.55095088    -7.512168    338.17384  0.015778921  0.014775394         2972 
 1787000   0.54421359   -7.5207661    339.34152  0.015824544    0.0147633         2967 
 1788000   0.53964497   -7.5302585    339.83727  0.015838799  0.014751216         2923 
 1789000   0.53070393   -7.5302755    339.17348  0.015799025  0.014739128         2875 
 1790000   0.55023342   -7.5432867    339.60896  0.015810473  0.014727057         2949 
 1791000   0.54022513   -7.5388001    338.83326  0.015765553  0.014714999         2965 
 1792000   0.54929078   -7.5187472    338.95627  0.015762475  0.014702955         2924 
 1793000   0.53920194   -7.5625536    339.12767   0.01576165  0.014690919         2955 
 1794000   0.52933439   -7.5380234    339.21928   0.01575712  0.014678899         2914 
 1795000   0.54402822   -7.5273681    339.02542  0.015739342  0.014666898         2917 
 1796000   0.53432357   -7.5386404    338.97276  0.015728135  0.014654908         2931 
 1797000   0.53046582   -7.5342283    339.06037  0.015723445  0.014642933         2969 
 1798000   0.52706899   -7.5214278    338.91982  0.015708186  0.014630967         2943 
 1799000   0.53399669   -7.5404315    338.64312  0.015686637  0.014619021         3005 
 1800000   0.53179343   -7.5457815    339.30652  0.015708635  0.014607085         2940 
 1801000   0.52423318   -7.5372524     338.9979  0.015685633  0.014595154         2934 
 1802000   0.52737487   -7.5309992    338.81573  0.015668504  0.014583236         2952 
 1803000   0.53149983   -7.5456814    338.78203  0.015658256  0.014571317         2914 
 1804000   0.54119657   -7.5430175    339.54886  0.015684999  0.014559428         2949 
 1805000   0.52926844   -7.5321435    338.47054  0.015626525   0.01454756         2956 
 1806000    0.5256664   -7.5194523    338.75002  0.015630769  0.014535688         2962 
 1807000   0.53512224    -7.540809    339.12747  0.015639525  0.014523821         2994 
 1808000   0.53554591   -7.5656336    338.91462  0.015621065  0.014511975         2982 
 1809000   0.52141996   -7.5474595    339.59231  0.015643648  0.014500136         2906 
 1810000   0.52031783   -7.5550017    338.68316  0.015593147  0.014488311         2933 
 1811000   0.52482399   -7.5416432    338.28887  0.015566394  0.014476485         2923 
 1812000   0.53721371   -7.5460262    338.86932  0.015584498   0.01446467         3006 
 1813000   0.54649938    -7.545594    338.72667  0.015569345  0.014452874         2930 
 1814000   0.53463161   -7.5597596    339.35068  0.015589429  0.014441087         2995 
 1815000   0.52282471   -7.5479823    338.97229  0.015563466  0.014429306         3000 
 1816000    0.5333218   -7.5332298    338.62093  0.015538773   0.01441755         2917 
 1817000   0.52085692   -7.5468838    339.44087  0.015567825  0.014405796         2938 
 1818000   0.52342662    -7.537752    338.67094  0.015523971  0.014394068         2977 
 1819000   0.52658294     -7.54274    338.50303  0.015507744  0.014382345         2937 
 1820000   0.53304323   -7.5432787    338.70266  0.015508364  0.014370617         2923 
 1821000   0.53639776   -7.5347563    339.04154  0.015515355  0.014358907         2970 
 1822000   0.52958943   -7.5363588    338.97724  0.015503899  0.014347223         2928 
 1823000   0.52842261   -7.5570374    338.59288  0.015477824  0.014335546         2968 
 1824000   0.53070157   -7.5511115    339.31396  0.015502283  0.014323881         2976 
 1825000    0.5283361   -7.5347243    339.21697   0.01548936  0.014312235         2923 
 1826000   0.53214093    -7.553328    338.93324  0.015467928  0.014300598         2918 
 1827000   0.52784986   -7.5449805    338.70543  0.015449071  0.014288971         2902 
 1828000   0.51476565   -7.5519518    338.92337  0.015450555  0.014277346         2962 
 1829000   0.51915067   -7.5583494    338.65008  0.015429656   0.01426573         2959 
 1830000   0.52095025   -7.5400133    338.99662  0.015437004  0.014254124         2887 
 1831000   0.52786956   -7.5544663    337.88669  0.015378058  0.014242526         2974 
 1832000   0.52903725   -7.5486669     338.9738  0.015419114  0.014230943         2936 
 1833000   0.51704679   -7.5510871     338.6685  0.015396822  0.014219373         2977 
 1834000   0.51391214   -7.5464376    338.00889  0.015358456  0.014207804         2974 
 1835000   0.53109357   -7.5803165      338.942  0.015392461  0.014196258         3003 
 1836000   0.51492528   -7.5468317    338.39464  0.015359234  0.014184724         2969 
 1837000   0.51093974   -7.5419412    338.49238  0.015355307  0.014173203         3006 
 1838000    0.5143428   -7.5813425      339.085  0.015373821  0.014161688         2980 
 1839000   0.50977931   -7.5500565    338.63697  0.015345159  0.014150179         2999 
 1840000   0.51942775   -7.5420431    338.01557  0.015308676  0.014138691         2963 
 1841000   0.50914488   -7.5665765    338.55766  0.015324898  0.014127198         2972 
 1842000   0.52291574   -7.5617363    338.17668  0.015299343  0.014115715         3020 
 1843000   0.51735431   -7.5533206    338.73858  0.015316449  0.014104246         3043 
 1844000   0.52008369   -7.5647422    338.80647  0.015311211  0.014092788         3030 
 1845000   0.51224977   -7.5483872     338.5427  0.015290998  0.014081333         2983 
 1846000   0.52714799    -7.561707    338.50379  0.015280959  0.014069901         2978 
 1847000   0.52535112   -7.5506535    338.65278  0.015279407  0.014058482         3046 
 1848000   0.50977251    -7.562599     338.6687  0.015271857  0.014047078         2965 
 1849000   0.52016241    -7.571108    338.74437  0.015267008  0.014035676         3023 
 1850000   0.50498396   -7.5584155    338.76643  0.015259749  0.014024288         2977 
 1851000   0.51024043   -7.5544834    338.47269  0.015238281  0.014012905         3008 
 1852000   0.50693299   -7.5690237    338.19503  0.015217559  0.014001535         2981 
 1853000   0.51944568   -7.5718402    338.22059  0.015210496  0.013990174         3004 
 1854000   0.51858061   -7.5781335     337.9856   0.01519173  0.013978816         2975 
 1855000   0.51186325    -7.566801    338.40994  0.015202603  0.013967467         2981 
 1856000    0.5221188   -7.5748552    338.50862  0.015198842   0.01395614         3024 
 1857000   0.51582519   -7.5826825    338.48624  0.015189654  0.013944825         2994 
 1858000   0.50715001   -7.5730861    338.07806  0.015163171   0.01393354         3003 
 1859000   0.51656624   -7.5705707    337.88931  0.015146553  0.013922249         2983 
 1860000   0.51085356   -7.5827299    338.28846  0.015156293  0.013910957         3049 
 1861000   0.49592397    -7.578498    338.28749  0.015148106  0.013899677         3027 
 1862000   0.52677433   -7.5667417    337.95046  0.015124886  0.013888406         2983 
 1863000   0.50926589   -7.5692803    338.35591  0.015134904  0.013877147         2996 
 1864000   0.50000272   -7.5947889    338.54147   0.01513508  0.013865905         3048 
 1865000    0.5061031   -7.5707639    338.51965   0.01512599  0.013854673         3060 
 1866000   0.51368313   -7.5868309     338.4213  0.015113491  0.013843453         3019 
 1867000   0.51792439   -7.5808419    338.03426  0.015088121  0.013832233         3047 
 1868000    0.5056297   -7.5798245    338.31829  0.015092714  0.013821026         3005 
 1869000   0.49634985   -7.5888464    338.20275  0.015079488  0.013809834         3040 
 1870000   0.49401168   -7.5514617    338.10385  0.015067017  0.013798653         3011 
 1871000   0.50716065   -7.5900411    338.07431  0.015057648  0.013787482         3050 
 1872000   0.50946414   -7.5810949    338.44829  0.015066252   0.01377632         3037 
 1873000   0.50389818   -7.5816208    338.36605  0.015054549  0.013765173         3009 
 1874000   0.50747813   -7.5821231    338.19265  0.015038805  0.013754022         3011 
 1875000   0.50145749   -7.5926561    338.20923  0.015031521  0.013742892         3032 
 1876000   0.50565556   -7.5864194    338.67514  0.015044205  0.013731776         3029 
 1877000    0.5117764   -7.5849097    337.76414  0.014995744  0.013720662         3043 
 1878000    0.4995478   -7.5801219    338.53128    0.0150218  0.013709563         3023 
 1879000   0.49966076   -7.5856252    338.72617  0.015022449  0.013698477         2996 
 1880000   0.50318123   -7.5881761    338.37001  0.014998671  0.013687395         3051 
 1881000    0.5065681   -7.5820893    337.65474  0.014959009  0.013676329         3008 
 1882000   0.50396664   -7.5877542    338.37865  0.014983114  0.013665271         2976 
 1883000    0.5000213   -7.6023572    338.42535  0.014977224   0.01365423         2989 
 1884000   0.49587817   -7.5787336    337.89347  0.014945748  0.013643196         2981 
 1885000   0.48057031   -7.5989485    337.64938  0.014927028  0.013632167         3001 
 1886000   0.49218874   -7.5826532    338.46394  0.014955105  0.013621157         3034 
 1887000   0.49054279     -7.59437    337.70606  0.014913711  0.013610144         2984 
 1888000   0.49442107   -7.5954289    337.99854  0.014918721  0.013599148         3005 
 1889000   0.48598157   -7.5992206    338.10451  0.014915498  0.013588175         2969 
 1890000   0.49686982   -7.5894303    337.82025  0.014895073  0.013577209         2987 
 1891000   0.50085325   -7.5906643    338.56358  0.014919953  0.013566256         3015 
 1892000   0.49462029   -7.5813566    337.86621  0.014881352  0.013555303         2967 
 1893000   0.51008059   -7.6006621    338.19208  0.014887836  0.013544359         2963 
 1894000   0.49459686   -7.6016963    338.17988  0.014879439  0.013533433         3009 
 1895000   0.49224211   -7.5828184    337.74308  0.014852378  0.013522521         3010 
 1896000   0.48934726   -7.6060438    338.08047  0.014859374  0.013511614         3042 
 1897000   0.49844042   -7.5901256    337.79532  0.014839014  0.013500715         3026 
 1898000   0.49302161   -7.6133687    338.10392  0.014844745  0.013489832         3033 
 1899000   0.49555762   -7.6035009    338.15263  0.014839066  0.013478957         3043 
 1900000   0.49179555   -7.6084318    338.08792  0.014828418  0.013468091         3031 
 1901000    0.4849516   -7.5955915    337.66176  0.014801936  0.013457233         3004 
 1902000   0.50400636   -7.5794129    338.23537  0.014819285  0.013446382         2965 
 1903000   0.48857679   -7.6116713    337.67818  0.014787099  0.013435542         3013 
 1904000    0.4934031   -7.6030943    338.10763  0.014798128  0.013424722         3070 
 1905000   0.48569653   -7.5964413    337.51643  0.014764498  0.013413907         3039 
 1906000   0.48486593   -7.5930755    338.39176  0.014795023  0.013403105         3027 
 1907000   0.49013534   -7.6155197    337.60127  0.014752721  0.013392307         3046 
 1908000   0.49102261   -7.5835744    337.78177  0.014752873  0.013381521         3043 
 1909000   0.49214039   -7.5876767    337.80106  0.014745987  0.013370745         3078 
 1910000    0.5019533     -7.59777    337.48376  0.014724422  0.013359974         3050 
 1911000   0.49264696   -7.6166012    338.06725  0.014742161  0.013349213         3110 
 1912000   0.50314777    -7.599784    337.67442   0.01471733  0.013338471         3048 
 1913000   0.48727949   -7.5762821    337.61417  0.014707012  0.013327736         3050 
 1914000   0.48004521   -7.5937734    337.72788  0.014704279  0.013317013         3085 
 1915000   0.48376673   -7.6129258    337.25681  0.014676101  0.013306298         3088 
 1916000   0.49472407   -7.6213336    337.54946   0.01468117  0.013295596         3069 
 1917000    0.4893015   -7.6222793    337.90706  0.014689057  0.013284901         3061 
 1918000   0.48014737   -7.6102764    338.39104  0.014702426  0.013274232         3055 
 1919000   0.49279235   -7.5993075    337.82722  0.014670281  0.013263566         3076 
 1920000   0.47743335   -7.6074485    337.60286  0.014652902  0.013252903         3070 
 1921000   0.49037789   -7.6015638    337.38513  0.014635829  0.013242257         3064 
 1922000   0.48976029   -7.6074143    337.94987    0.0146527   0.01323162         3083 
 1923000   0.48105369   -7.6041337    337.75619  0.014636687  0.013220996         3085 
 1924000     0.483581   -7.6195809    337.65535  0.014624712  0.013210368         3085 
 1925000   0.48367709   -7.6211574    337.89835  0.014627634  0.013199755         3031 
 1926000   0.47652607   -7.6058878    337.84139  0.014617575  0.013189155         3076 
 1927000   0.47967363   -7.6174179    337.78148  0.014607398   0.01317856         3032 
 1928000   0.47842814    -7.605104    337.24955   0.01457683   0.01316797         3093 
 1929000   0.48898106   -7.6084521    337.63701  0.014586012  0.013157396         3040 
 1930000   0.49063758   -7.6131718       337.68  0.014580311  0.013146831         3016 
 1931000   0.47641426   -7.6324219    337.79084  0.014577544  0.013136276         3029 
 1932000   0.47780045   -7.6057334    336.92186  0.014532516  0.013125732         3003 
 1933000   0.47367813   -7.6294264    337.31442  0.014541922    0.0131152         3054 
 1934000   0.49457815    -7.613539    336.99274  0.014520542   0.01310466         3079 
 1935000   0.47396922   -7.6283468    337.73843  0.014545152  0.013094149         3068 
 1936000    0.4677215   -7.6152023    337.40916  0.014523466  0.013083648         3054 
 1937000   0.47810418   -7.6246385    337.56124  0.014522511  0.013073158         3066 
 1938000   0.48256573   -7.6264418    336.92963  0.014487858  0.013062674         3064 
 1939000   0.48461172   -7.6016286    337.29285  0.014495997  0.013052207         3061 
 1940000   0.46964281   -7.6259755     337.2775  0.014487865  0.013041742         3080 
 1941000   0.48109274   -7.6156953    337.57607   0.01449322  0.013031282         3043 
 1942000   0.48099657   -7.6271286    337.70997  0.014491502  0.013020841         3093 
 1943000   0.47369204   -7.6297927     337.8787   0.01449128  0.013010395         3040 
 1944000   0.48417986   -7.6200152    337.53348  0.014469028   0.01299998         3024 
 1945000   0.48942991   -7.6119284    336.99232  0.014438403  0.012989571         3029 
 1946000   0.48548558   -7.6246359    337.85922  0.014468106  0.012979178         3046 
 1947000    0.4772109   -7.6088986    336.74915  0.014413163  0.012968784         3033 
 1948000   0.48190836   -7.6253887    337.41453  0.014434229  0.012958403         3076 
 1949000   0.48170153   -7.6162969    337.79271  0.014442993  0.012948036         3077 
 1950000   0.48378513   -7.6158575    338.02356  0.014445451  0.012937682         3024 
 1951000   0.46638432   -7.6375426    337.84758  0.014430531  0.012927343         3040 
 1952000   0.47732438   -7.6196529    336.88769  0.014382159  0.012917012         3067 
 1953000   0.48060085   -7.6332711     337.4179  0.014397418   0.01290668         3067 
 1954000   0.47262619   -7.6171695    336.70947  0.014359837  0.012896372         3041 
 1955000    0.4695977   -7.6225631    337.18734  0.014372862  0.012886069         3078 
 1956000   0.47767337   -7.6187074    337.46514  0.014377349  0.012875776         3107 
 1957000   0.47603504   -7.6235712    337.33956  0.014364655  0.012865496         3049 
 1958000   0.46760773   -7.6266199    337.60456  0.014368597  0.012855221         3055 
 1959000   0.47610211   -7.6419468    337.04769  0.014337574  0.012844955         3060 
 1960000   0.48119902   -7.6258105     336.9467  0.014325965  0.012834698         3071 
 1961000   0.47273628   -7.6249673    337.17974  0.014328563  0.012824452         3056 
 1962000   0.46997365   -7.6243134     337.8119   0.01434811  0.012814216         3037 
 1963000   0.47125791   -7.6274395    337.44839  0.014325369  0.012803988         3030 
 1964000   0.47401802   -7.6364933    337.99146  0.014341118  0.012793776         3031 
 1965000   0.46285501    -7.636431    337.32403  0.014305514  0.012783567         3026 
 1966000   0.47694349   -7.6223961    337.23476  0.014294454  0.012773374         3064 
 1967000   0.45840463   -7.6317921    336.90745   0.01427332   0.01276319         3032 
 1968000   0.46179157    -7.632142    337.46891  0.014289842  0.012753017         3028 
 1969000   0.47136435   -7.6245325    337.24197   0.01427298  0.012742846         3075 
 1970000   0.46219515   -7.6307467    337.35622  0.014270568  0.012732687         3043 
 1971000   0.45348292   -7.6375159    337.56121  0.014271994  0.012722537         3063 
 1972000    0.4725757   -7.6332404    336.79402  0.014232337  0.012712402         3085 
 1973000   0.46973134    -7.631261    336.91355  0.014230172  0.012702273         3064 
 1974000   0.46160733   -7.6340942     337.3574  0.014241701  0.012692149         3022 
 1975000     0.464828   -7.6309786    337.59168  0.014244375  0.012682038         3069 
 1976000   0.46415657   -7.6404177     337.2301  0.014221917  0.012671934         3023 
 1977000   0.46689189   -7.6422441    337.79307  0.014238453  0.012661846         3018 
 1978000   0.46663245   -7.6518962    336.85906  0.014191905  0.012651765         3065 
 1979000   0.45684679   -7.6345677    336.64378  0.014175669  0.012641692         3044 
 1980000   0.45056818   -7.6484405    337.28089  0.014195324  0.012631633         3035 
 1981000   0.45253576   -7.6451054    337.00831  0.014176691  0.012621587         3043 
 1982000   0.45772596   -7.6522319    337.14922  0.014175463  0.012611547         3022 
 1983000   0.45500503   -7.6598058    337.12375  0.014167244  0.012601511         3038 
 1984000   0.46114303   -7.6334126    337.27093  0.014166286  0.012591501         3028 
 1985000    0.4623807   -7.6438325    337.40299  0.014164693  0.012581493         3027 
 1986000   0.46168793   -7.6580171     336.7374  0.014129632   0.01257149         3060 
 1987000   0.46481144   -7.6386913    337.26733  0.014144746  0.012561498         3041 
 1988000   0.46523474    -7.658985    337.19036  0.014134405  0.012551513         3030 
 1989000   0.46082812   -7.6307018    336.83615  0.014112458  0.012541543         3064 
 1990000   0.46277465   -7.6508571    336.88263  0.014107313  0.012531587         3049 
 1991000   0.45369891   -7.6411614    336.66808  0.014091247  0.012521637         3083 
 1992000   0.46235514    -7.645169     336.9058  0.014094118   0.01251169         3051 
 1993000   0.46354093   -7.6570168    337.03979  0.014092649  0.012501763         3017 
 1994000   0.45991822   -7.6335324    336.68033  0.014070559  0.012491836         3051 
 1995000   0.45505083   -7.6521814    336.80078  0.014068537  0.012481926         3034 
 1996000   0.45520587     -7.64268    336.89447    0.0140654  0.012472025         3017 
 1997000   0.46016981   -7.6577676    336.54347   0.01404371  0.012462131         3046 
 1998000   0.44763469   -7.6593516    336.73744  0.014044771  0.012452241         3047 
 1999000   0.46859272   -7.6522785    336.93801  0.014046107   0.01244236         3002 
 2000000   0.46736391   -7.6453297     337.1907  0.014049613    0.0124325         3077 
 2001000   0.45572344   -7.6570142    337.09594  0.014038645   0.01242265         3040 
 2002000   0.46282968   -7.6414244    337.11823   0.01403256  0.012412805         3038 
 2003000   0.44270118   -7.6661374    337.22513  0.014030002  0.012402965         3052 
 2004000   0.44843644   -7.6555626    336.84867  0.014007346  0.012393134         3052 
 2005000   0.44292265   -7.6655602    337.14996  0.014012883  0.012383318         3067 
 2006000   0.44518641   -7.6680886    336.68577  0.013986614  0.012373511         3108 
 2007000    0.4480106   -7.6527545    336.43574  0.013969263  0.012363705         3058 
 2008000   0.45920909    -7.675656    336.97672  0.013984757  0.012353917         3030 
 2009000   0.45156233   -7.6586634    336.45405  0.013956116  0.012344139         3059 
 2010000    0.4464671   -7.6580389    336.95522  0.013969951  0.012334363         3045 
 2011000    0.4399464   -7.6493607    336.81141  0.013957045  0.012324603         3070 
 2012000   0.45056368   -7.6515347    336.71538  0.013946131  0.012314858         3073 
Loop time of 4274.72 on 48 procs for 2000000 steps with 4000 atoms

Performance: 80847.474 tau/day, 467.867 timesteps/s
99.4% CPU use with 48 MPI tasks x no OpenMP threads

MPI task timing breakdown:
Section |  min time  |  avg time  |  max time  |%varavg| %total
---------------------------------------------------------------
Pair    | 258.87     | 272.82     | 287        |  34.2 |  6.38
Neigh   | 26.413     | 27.064     | 28.35      |   6.4 |  0.63
Comm    | 222.3      | 240.61     | 251.72     |  41.5 |  5.63
Output  | 5.5903     | 5.592      | 5.6254     |   0.2 |  0.13
Modify  | 3658.9     | 3678.9     | 3695.6     |  13.3 | 86.06
Other   |            | 49.74      |            |       |  1.16

Nlocal:        83.3333 ave          89 max          79 min
Histogram: 2 6 5 5 8 7 3 7 3 2
Nghost:        1769.33 ave        1788 max        1756 min
Histogram: 5 4 6 9 10 4 4 3 1 2
Neighs:        10715.0 ave       11537 max       10041 min
Histogram: 3 5 6 6 7 8 7 4 0 2
FullNghs:      21429.7 ave       22846 max       20019 min
Histogram: 2 5 3 7 9 4 6 6 3 3

Total # of neighbors = 1028624
Ave neighs/atom = 257.15600
Neighbor list builds = 107971
Dangerous builds = 0

#clear
#
#next RN
#
#jump SELF
Total wall time: 1:11:17
