
units lj                  # Use reduced LJ style units
atom_style atomic         # Uncharged point particles
atom_modify map hash      # Needed for indexing of clusters etc
                          # Used to be able to find where atoms are in relation to each other.

lattice fcc 1.0 spacing 1 1 1
Lattice spacing in x,y,z = 1.5874011 1.5874011 1.5874011
region box block 0 10 0 10 0 10 units lattice
create_box 2 box
Created orthogonal box = (0.0000000 0.0000000 0.0000000) to (15.874011 15.874011 15.874011)
  3 by 4 by 4 MPI processor grid
create_atoms 1 box
Created 4000 atoms
  using lattice units in orthogonal box = (0.0000000 0.0000000 0.0000000) to (15.874011 15.874011 15.874011)
  create_atoms CPU = 0.002 seconds
set type 1 type/fraction 2 0.92 78393
Setting atom values ...
  3673 settings made for type/fraction
mass 1 1.0
mass 2 1.0
pair_style lj/cut  3.5
pair_modify tail  yes
pair_coeff 1  1  1.0  1.0   # Intearaction between 1 and 1 set with epsilon = 1 and sigma = 1
pair_coeff 1  2  1.5  0.8
pair_coeff 2  2  0.5  0.88

write_data data.0
System init for write_data ...
Neighbor list info ...
  update every 1 steps, delay 10 steps, check yes
  max neighbors/atom: 2000, page size: 100000
  master list distance cutoff = 3.8
  ghost atom cutoff = 3.8
  binsize = 1.9, bins = 9 9 9
  1 neighbor lists, perpetual/occasional/extra = 1 0 0
  (1) pair lj/cut, perpetual
      attributes: half, newton on
      pair build: half/bin/atomonly/newton
      stencil: half/bin/3d
      bin: standard
WARNING: Not all mixed pair coeffs generated from mixing. Use write_data with 'pair ij' option to store all pair coeffs. (../write_data.cpp:312)


#############################
#   M E L T   S Y S T E M   #
#############################

velocity all create 2.4 3143649 mom yes dist gaussian # Assign velocities
                                                    # Temperature 2.4, random number seed, zero linear momentum
                                                                                # Gaussian distribution

timestep 0.002   # simulation timestep
thermo 1000       # output thermodynamic data every 1000 steps bf 100

# Define a fix  in this case with index 1 applied to all
# particles in the simulation. This fix is for simulations
# in the anisotropic NPT ensemble. Note that we use the MTK
# correction.
fix 1 all npt temp 2.4 2.4 0.1 iso 5.68 5.68 0.5 mtk yes tchain 5 pchain 5 # Use NPT ensemble
                                                                         # Set temperature and pressure and damping
                                                                         # Numbers of thermostats in chain and in barostat
run 10000          # run for 10000 steps
Per MPI rank memory allocation (min/avg/max) = 3.642 | 3.644 | 3.648 Mbytes
Step Temp E_pair E_mol TotEng Press Volume 
       0          2.4   -3.0929104            0   0.50618957   -2.4174795         4000 
    1000    2.3859001   -2.0773318            0    1.5006237    5.5380764    4072.1823 
    2000     2.338511   -2.0645425            0     1.442347    5.6533823    4063.9119 
    3000    2.4083693   -2.0410812            0    1.5705696    5.5986498    4085.3458 
    4000    2.4269277   -2.0553702            0    1.5841112    5.8543926    4045.0961 
    5000    2.3987706   -2.0537657            0    1.5434907    5.5485469    4090.7951 
    6000    2.3979231   -2.0876259            0    1.5083596    5.2995951    4094.0791 
    7000    2.3485288   -2.0679482            0    1.4539643    5.6959918    4046.4729 
    8000    2.3448873   -2.0653542            0    1.4510975    5.4657368    4083.6415 
    9000    2.4143952   -2.0577165            0    1.5629708    5.6270696    4086.5516 
   10000    2.4306916    -2.105395            0    1.5397309    5.4472209    4059.7879 
Loop time of 2.46345 on 48 procs for 10000 steps with 4000 atoms

Performance: 701455.356 tau/day, 4059.348 timesteps/s
99.6% CPU use with 48 MPI tasks x no OpenMP threads

MPI task timing breakdown:
Section |  min time  |  avg time  |  max time  |%varavg| %total
---------------------------------------------------------------
Pair    | 1.0794     | 1.1463     | 1.242      |   2.9 | 46.53
Neigh   | 0.20838    | 0.21671    | 0.23108    |   0.9 |  8.80
Comm    | 0.7461     | 0.84018    | 0.90268    |   4.0 | 34.11
Output  | 0.00024834 | 0.00025314 | 0.00032315 |   0.0 |  0.01
Modify  | 0.20489    | 0.24516    | 0.28034    |   4.2 |  9.95
Other   |            | 0.01488    |            |       |  0.60

Nlocal:        83.3333 ave          93 max          72 min
Histogram: 2 4 2 2 8 10 7 7 3 3
Nghost:        1622.92 ave        1653 max        1598 min
Histogram: 3 2 6 8 12 4 5 5 1 2
Neighs:        9412.62 ave       10858 max        7758 min
Histogram: 1 4 2 5 9 7 6 9 3 2

Total # of neighbors = 451806
Ave neighs/atom = 112.95150
Neighbor list builds = 914
Dangerous builds = 240

# Equilibrate just above the melting temperature to avoid step fn in T

fix 1 all npt temp 1.25 1.25 0.1 iso 5.68 5.68 0.5 mtk yes tchain 5 pchain 5
run 2000
Per MPI rank memory allocation (min/avg/max) = 3.643 | 3.645 | 3.649 Mbytes
Step Temp E_pair E_mol TotEng Press Volume 
   10000    2.4306916    -2.105395            0    1.5397309    5.4472209    4059.7879 
   11000    1.2682521   -3.1191677            0   -1.2172652    5.6666702    3143.9589 
   12000    1.2737707   -3.1115977            0   -1.2014193    5.7889768    3147.4791 
Loop time of 0.605775 on 48 procs for 2000 steps with 4000 atoms

Performance: 570508.670 tau/day, 3301.555 timesteps/s
99.6% CPU use with 48 MPI tasks x no OpenMP threads

MPI task timing breakdown:
Section |  min time  |  avg time  |  max time  |%varavg| %total
---------------------------------------------------------------
Pair    | 0.27187    | 0.29243    | 0.31378    |   1.8 | 48.27
Neigh   | 0.039294   | 0.041713   | 0.044015   |   0.5 |  6.89
Comm    | 0.19778    | 0.22141    | 0.24915    |   2.6 | 36.55
Output  | 5.129e-05  | 5.2607e-05 | 6.8459e-05 |   0.0 |  0.01
Modify  | 0.040327   | 0.044993   | 0.048509   |   1.3 |  7.43
Other   |            | 0.005177   |            |       |  0.85

Nlocal:        83.3333 ave          90 max          77 min
Histogram: 5 0 2 11 8 5 9 2 3 3
Nghost:        1924.15 ave        1953 max        1890 min
Histogram: 1 3 3 4 8 9 10 6 2 2
Neighs:        12127.0 ave       13681 max       10702 min
Histogram: 3 4 4 6 5 12 8 2 3 1

Total # of neighbors = 582098
Ave neighs/atom = 145.52450
Neighbor list builds = 143
Dangerous builds = 8

#############################
# L I N E A R  Q U E N C H  #
#############################

# Define solid atoms. This closely follows ten Wolde  Ruiz-Montero and Frenkel  Faraday Discuss  1996  104  93-110
# Compute components of the per-atom q6 vector
compute q6 all orientorder/atom degrees 1 6 components 6 nnn NULL cutoff 1.3 # compute the Q6 parameter.
                                                                             # Use all neighbours within 1.3 unit cell.

# get number of connections
compute coord_number all coord/atom orientorder q6 0.5

# An atom is solid if it has 8 or more connections (of a possible 14)
variable is_solid atom c_coord_number>=8
group solid dynamic all var is_solid    # Must be dynamic to update
dynamic group solid defined

# do clustering
compute cluster solid cluster/atom 1.3 # Create a cluster where all atoms within are solid and max 1.3 units from another member

# define chunks one chunk per cluster
compute clus_chunks solid chunk/atom c_cluster nchunk every compress yes  # Says which atoms are in which chunk

# count the size of each chunk
compute size_chunks solid property/chunk clus_chunks count


# Find the maximum entry in the vector of chunk sizes
variable max_n equal max(c_size_chunks)


# Thermo style which includes this variable
# thermo_style custom step temp pe vol v_max_n

thermo ${N}  # Print the thermo information every 100 steps
thermo 1000  

# Reset the npt fix at a lower temperature (below freezing)
fix 1  all npt temp  ${temp} ${temp}  0.1  iso  5.68  5.68  0.5  mtk yes tchain  5  pchain  5
fix 1  all npt temp  0.45 ${temp}  0.1  iso  5.68  5.68  0.5  mtk yes tchain  5  pchain  5
fix 1  all npt temp  0.45 0.45  0.1  iso  5.68  5.68  0.5  mtk yes tchain  5  pchain  5

dump dmp2 all dcd ${N} traj.dcd
dump dmp2 all dcd 1000 traj.dcd


compute msd all msd com yes
variable twopoint equal c_msd[4]/6/(step*dt+1.0e-6)
fix 9 all vector 10 c_msd[4]
variable fit equal slope(f_9)/6/(10*dt)
thermo_style custom step temp pe c_msd[4] v_twopoint v_fit v_max_n

fix 1 all npt temp 1.25 ${temp} 0.1 iso 5.68 5.68 0.5 mtk yes tchain 5 pchain 5
fix 1 all npt temp 1.25 0.45 0.1 iso 5.68 5.68 0.5 mtk yes tchain 5 pchain 5
run 2000000 # 5000000  # Run for this many steps
Neighbor list info ...
  update every 1 steps, delay 10 steps, check yes
  max neighbors/atom: 2000, page size: 100000
  master list distance cutoff = 3.8
  ghost atom cutoff = 3.8
  binsize = 1.9, bins = 8 8 8
  4 neighbor lists, perpetual/occasional/extra = 1 3 0
  (1) pair lj/cut, perpetual
      attributes: half, newton on
      pair build: half/bin/atomonly/newton
      stencil: half/bin/3d
      bin: standard
  (2) compute orientorder/atom, occasional
      attributes: full, newton on
      pair build: full/bin/atomonly
      stencil: full/bin/3d
      bin: standard
  (3) compute coord/atom, occasional
      attributes: full, newton on
      pair build: full/bin/atomonly
      stencil: full/bin/3d
      bin: standard
  (4) compute cluster/atom, occasional
      attributes: full, newton on
      pair build: full/bin/atomonly
      stencil: full/bin/3d
      bin: standard
Per MPI rank memory allocation (min/avg/max) = 9.821 | 9.825 | 9.832 Mbytes
Step Temp PotEng c_msd[4] v_twopoint v_fit v_max_n 
   12000    1.2737707   -3.1115977 1.6946704e-30 1.1768544e-32 8.3333333e+20            2 
   13000    1.2371071   -3.0929833    1.0187066 0.0065301703  0.086095216            1 
   14000    1.2615295   -3.1038104      2.18383  0.012998987  0.092180452            1 
   15000    1.2406496   -3.0762186    3.3522847  0.018623803  0.095185571            2 
   16000    1.2476575   -3.1047763    4.5167709  0.023524848   0.09516515            2 
   17000    1.2186887    -3.109824    5.7523076  0.028197586  0.096669638            1 
   18000     1.265898   -3.1004509    6.9347637  0.032105386  0.097705649            2 
   19000    1.2493283   -3.1141975    8.0059791  0.035113942  0.098041529            1 
   20000    1.2557583   -3.1083519    9.2368259  0.038486774  0.097619772            1 
   21000    1.2603998   -3.1268208    10.287593   0.04082378   0.09725133            4 
   22000    1.2566889   -3.1108806    11.456143   0.04339448  0.096749619            1 
   23000    1.2654555   -3.1059504    12.657616  0.045860928  0.096468415            3 
   24000    1.2213178   -3.1186626    14.050374  0.048786019  0.096773457            2 
   25000    1.2549263   -3.0943522     15.26177  0.050872565  0.097385033            1 
   26000    1.2390947   -3.1101893     16.45756  0.052748587  0.097958332            3 
   27000    1.2277021   -3.0932986    17.902372  0.055254235  0.098562482            2 
   28000    1.2467414   -3.1130621    18.992772  0.056526105  0.099126121            2 
   29000     1.269173   -3.1213461    20.090494  0.057731305   0.09938311            2 
   30000    1.2411119   -3.0921066    21.577849  0.059938468   0.09983837            1 
   31000    1.2135801   -3.1104594    22.807073  0.061309335   0.10023289            2 
   32000    1.2334248   -3.1348755    23.752282  0.061854901   0.10040141            3 
   33000    1.2317876   -3.1552977    24.786711  0.062592702   0.10033484            1 
   34000    1.2209447   -3.1165627    26.091459  0.063949654   0.10024592            1 
   35000    1.2711647   -3.1340704    27.316868   0.06504016   0.10032011            1 
   36000    1.2490006   -3.1533404    28.606167  0.066217977    0.1004002            1 
   37000    1.2211486   -3.1391934    30.007297  0.067584001   0.10047029            2 
   38000    1.2351324   -3.0919187    31.362867  0.068778217   0.10065007            1 
   39000    1.2216327   -3.1442738    32.465688  0.069371127   0.10082133            2 
   40000    1.2417198     -3.11537    33.779383  0.070373714   0.10096535            1 
   41000    1.2471517   -3.1316197    34.808599  0.070749184   0.10108724            2 
   42000     1.224743   -3.1094377    36.039598  0.071507138   0.10113501            2 
   43000    1.2623066   -3.1162684    36.938183  0.071585625   0.10105841            2 
   44000    1.2568686   -3.1221938    38.086808  0.072134105   0.10092873            4 
   45000    1.2300338   -3.1258835    39.117462  0.072439744   0.10074938            1 
   46000    1.2494404   -3.1279835    40.104731  0.072653497   0.10052001            1 
   47000    1.2670734   -3.1616042    41.323217  0.073268115   0.10030253            1 
   48000    1.2430906   -3.1168084    42.527606  0.073832648    0.1001131            2 
   49000    1.2280011   -3.0877454    43.772448  0.074442939   0.09993948            1 
   50000    1.2105691   -3.1487216    44.880932  0.074801552  0.099797775            2 
   51000    1.2410868   -3.1023624    46.042347  0.075232593   0.09964624            2 
   52000    1.2414904   -3.1461013    47.034646  0.075376035  0.099531867            1 
   53000    1.2578473   -3.1110246    48.094896  0.075620905   0.09936732            3 
   54000     1.248784   -3.1465655    48.952044  0.075543277  0.099173037            2 
   55000    1.2271652   -3.1507563    50.052989  0.075837861  0.098954438            1 
   56000    1.2107361   -3.1089355    51.571145  0.076742774  0.098741555            4 
   57000    1.2184545   -3.1224951    53.066126  0.077582055  0.098648314            2 
   58000    1.2468698   -3.1405603    54.116774  0.077753985  0.098597265            5 
   59000    1.2369224   -3.1278076    55.645627  0.078595518  0.098593665            2 
   60000    1.2381278   -3.1575004    57.001027  0.079168092   0.09863575            1 
   61000    1.2150652   -3.1292267    58.138531  0.079424222  0.098687466            2 
   62000    1.2113573   -3.1213364    59.645453  0.080168618  0.098726683            1 
   63000    1.2246679   -3.1081822    60.618455   0.08018314  0.098744611            2 
   64000    1.2210279   -3.1471266    61.868855  0.080558405  0.098774998            3 
   65000    1.2405463   -3.1233511     63.09932  0.080896564  0.098815079            1 
   66000    1.2284999   -3.1295262    64.393636  0.081305096  0.098869237            1 
   67000    1.2385488   -3.1346905    65.316678  0.081239649  0.098917434            5 
   68000    1.2331793     -3.15887    66.657377  0.081687962  0.098959731            3 
   69000    1.2322261   -3.1410487    67.759659  0.081835336  0.099031879            1 
   70000     1.229999   -3.1467905    68.741378  0.081834973   0.09905743            1 
   71000    1.2183887   -3.1231102    70.225775  0.082424618  0.099069962            1 
   72000    1.2496601   -3.1231811    71.473102  0.082723497  0.099099034            2 
   73000    1.1926311   -3.1486276    72.529708   0.08279647  0.099112385            2 
   74000    1.2588259   -3.1484707    74.169096  0.083523756  0.099115549            2 
   75000    1.2248468    -3.154332    74.744438  0.083049375  0.099121868            2 
   76000    1.2239217   -3.1316037     76.28597  0.083646896  0.099119386            2 
   77000    1.2217304   -3.0998519      77.6812  0.084070562  0.099133185            2 
   78000    1.2148786   -3.1192498    78.510245  0.083878466  0.099188277            3 
   79000    1.2160729   -3.1359083    79.694785  0.084066229  0.099226268            3 
   80000    1.2257825    -3.106405    80.975047  0.084349006  0.099250743            1 
   81000    1.2315956   -3.1692897    81.573483  0.083923336  0.099233578            3 
   82000    1.2434765   -3.1553385    82.694814  0.084039445  0.099171013            2 
   83000    1.2508316   -3.1281014    83.126607  0.083460448  0.099079151            1 
   84000    1.2114492   -3.1392679    84.865429  0.084191893  0.098986505            2 
   85000    1.2020382    -3.119429    85.491673  0.083815366  0.098867726            3 
   86000    1.2271892   -3.1398439    86.514105  0.083831497   0.09874822            3 
   87000    1.2081931   -3.1472502    87.241069  0.083564242  0.098633187            1 
   88000    1.2180208   -3.1854265    88.293947  0.083611692  0.098511999            2 
   89000    1.2285778   -3.1613389    89.193582   0.08351459  0.098370641            1 
   90000     1.211603    -3.134215    90.225072  0.083541733  0.098212436            2 
   91000    1.2294673   -3.1644548    91.187489  0.083505026  0.098070089            2 
   92000    1.2495376    -3.177238    92.068843  0.083395691  0.097918408            4 
   93000    1.1890718   -3.1797618    93.010905  0.083343104  0.097761377            2 
   94000    1.2428291   -3.1125716    94.838993  0.084077121  0.097607122            2 
   95000    1.1979069   -3.1748759    95.416877  0.083699014  0.097473728            3 
   96000    1.2141856   -3.1483105    96.750145    0.0839845  0.097343647            1 
   97000    1.1790381   -3.1552518    97.900912  0.084107312  0.097222222            7 
   98000    1.2070376   -3.1200565    98.818257   0.08402913  0.097086887            3 
   99000    1.2281556   -3.1314805    99.533808  0.083782666  0.096939939            3 
  100000    1.1992403   -3.1478684    100.76541  0.083971175  0.096786922            5 
  101000    1.1976081   -3.1537789    101.37208  0.083640328  0.096622978       -1e+20 
  102000    1.2172222   -3.1427366    102.46896  0.083716472  0.096457515            2 
  103000    1.1937387   -3.1550016    103.67704  0.083881103  0.096300073            2 
  104000    1.2301173   -3.1922399    104.15665  0.083458857  0.096140405            2 
  105000    1.2158227   -3.1576896     105.0029  0.083335638  0.095979876            1 
  106000    1.1950721   -3.1561106    106.72781  0.083905509  0.095832287            1 
  107000    1.2065158   -3.1807874    107.12302  0.083429142  0.095693353            1 
  108000    1.1958375   -3.1758237    108.91003  0.084035516  0.095567159            1 
  109000    1.2016821   -3.1482515     109.6652  0.083841893  0.095434678            6 
  110000    1.2646963    -3.194177    110.47553  0.083693583  0.095293054            3 
  111000    1.1970821   -3.1878481    111.31526  0.083570015  0.095141702            2 
  112000    1.1922277   -3.1539512    111.76332  0.083157234  0.094980424            1 
  113000    1.2044073   -3.1612646    113.18213  0.083467645  0.094824048            4 
  114000    1.2268575    -3.149652    114.43604  0.083652073  0.094671583            2 
  115000    1.1894067   -3.1855178    115.10233  0.083407485  0.094534799            1 
  116000    1.2139645    -3.174296    116.40388  0.083623478  0.094405848            1 
  117000    1.1867119     -3.18096    117.73033  0.083853514  0.094279955            2 
  118000    1.2041785   -3.1277723    119.26545  0.084227013  0.094167473            2 
  119000    1.2118913   -3.1557031    120.51612  0.084395044  0.094072343            2 
  120000    1.2071621   -3.1871908    121.20471  0.084169939  0.093966577            3 
  121000    1.2113113   -3.1773681    122.28207  0.084216301  0.093851352            2 
  122000    1.1957852   -3.1744609     122.4439  0.083636544  0.093729236            4 
  123000    1.1782906   -3.1757508    122.91262  0.083274135  0.093607212            2 
  124000     1.195685   -3.1543526     123.7457   0.08316243  0.093480318            3 
  125000    1.2021273   -3.1821957    125.31636  0.083544237  0.093351691            1 
  126000    1.1663444   -3.1700828    125.53619  0.083026583  0.093211131            1 
  127000    1.2253281   -3.2038525    126.67653  0.083121085  0.093068636            1 
  128000    1.1990746   -3.1641643    127.65238  0.083107016  0.092937418            2 
  129000    1.1978915   -3.1710305    128.61398  0.083083966   0.09280016            1 
  130000    1.1918739   -3.1781562    129.47621  0.082997567  0.092650436            2 
  131000    1.2243764    -3.153254    130.61573  0.083088883  0.092509714            2 
  132000    1.1935796   -3.1529668    131.99697   0.08333142  0.092377574            1 
  133000    1.1838044   -3.1839106    132.73428  0.083166841  0.092250494            2 
  134000     1.198163   -3.1470817    133.98209  0.083322193  0.092126245            1 
  135000    1.2110154    -3.153876    135.22015  0.083469228  0.092020048            1 
  136000    1.1955723   -3.1732772    136.06852  0.083375321  0.091913923            1 
  137000    1.2130288   -3.1751038    137.36234  0.083553733  0.091818518            1 
  138000    1.1922656   -3.1688934    138.43232  0.083594397  0.091732232            2 
  139000    1.1846896   -3.1927499    140.07456  0.083977554  0.091647712            2 
  140000    1.1856168   -3.1852713    140.61074  0.083696871  0.091557731            1 
  141000     1.215005   -3.1464311    141.84298  0.083831546  0.091477051            1 
  142000    1.2021266   -3.1491799    143.04749  0.083948058  0.091394436            2 
  143000    1.1967926   -3.1600814    143.48043  0.083613305  0.091311229            3 
  144000    1.1974034    -3.197448     143.9306  0.083293173  0.091215739            1 
  145000    1.1980954   -3.1781001    144.89325   0.08327198  0.091118835            1 
  146000    1.2015689   -3.1583645    146.22497   0.08346174  0.091016971            2 
  147000    1.1754368   -3.1860385    147.04042  0.083356244  0.090917549            2 
  148000    1.1832744   -3.1668156    148.39962  0.083558342  0.090827806            2 
  149000    1.2003071   -3.1915845     149.4006   0.08355738  0.090738981            1 
  150000    1.2002551   -3.2099758     149.9452  0.083302891  0.090668016            3 
  151000    1.1898054   -3.1572273    152.03263  0.083903215  0.090590765            3 
  152000    1.1896099   -3.1859029    152.27632  0.083484825  0.090514709            2 
  153000    1.1745748   -3.1942441    152.97552  0.083320002    0.0904286            2 
  154000    1.2378066   -3.1725549    153.58563  0.083109106  0.090343413            3 
  155000    1.2045007   -3.1907603     155.1147     0.083395  0.090256414            1 
  156000    1.1767311   -3.1927897     155.5094   0.08307126  0.090167677            2 
  157000    1.2110061   -3.1853585     156.8274  0.083241718   0.09008515            1 
  158000    1.1891615   -3.1816454    158.66089  0.083681902  0.090009268            1 
  159000    1.2061409   -3.2068003    158.75657   0.08320575  0.089940985            2 
  160000    1.1843991   -3.1666615    160.57212  0.083631312  0.089871676            1 
  161000     1.197324    -3.182515    160.65217  0.083153297  0.089800549            1 
  162000     1.184896   -3.1883758    162.81172  0.083750885  0.089722446            3 
  163000    1.1776475   -3.2010458    163.68703  0.083684576  0.089645997            2 
  164000    1.2020955   -3.1878878    164.64464  0.083660892  0.089572148            1 
  165000    1.2243736   -3.1750495    164.45888  0.083060039  0.089498315            2 
  166000    1.1899525   -3.1812856    166.00077  0.083333719  0.089428081            2 
  167000    1.1706622   -3.2207889     166.3218  0.082994911  0.089354894            1 
  168000    1.1869466   -3.1873156    167.83553   0.08325175   0.08928373            2 
  169000    1.1788291   -3.1828037    169.46557  0.083562904  0.089219827            1 
  170000    1.2052122   -3.1705084    171.07015  0.083857917  0.089165608            1 
  171000    1.1830777   -3.1589335    171.59483  0.083623209  0.089110492            1 
  172000    1.1732243   -3.1574918    171.61362  0.083146132  0.089040141            1 
  173000    1.1939598   -3.1856276     173.6903  0.083665846  0.088977498            1 
  174000    1.1712191   -3.1940354    175.13203  0.083875491  0.088926436            5 
  175000    1.1946918   -3.1914112    175.99353  0.083806442  0.088877435            1 
  176000    1.1549057   -3.2054034    176.68528  0.083657805  0.088832041            3 
  177000    1.1857769   -3.1853915    178.18978  0.083893492  0.088793018            2 
  178000    1.1761893   -3.1977889    179.38898  0.083983603  0.088752105            1 
  179000     1.179736   -3.1582852    181.04917  0.084287325  0.088712873            1 
  180000    1.1755801   -3.1805917    182.10316  0.084307018  0.088681626            2 
  181000    1.1813182    -3.203163    182.26241  0.083914555  0.088658835            1 
  182000     1.204898   -3.1945084    184.22897  0.084353922   0.08863578            2 
  183000    1.1798525   -3.1917128    184.47027  0.084002854  0.088607559            1 
  184000    1.1677142   -3.2072141    185.57026  0.084044501  0.088586146            1 
  185000    1.1603252   -3.2001834    187.40478  0.084416567  0.088568795            3 
  186000    1.1759192   -3.2264687    189.53762  0.084918287  0.088557424            1 
  187000    1.1981255   -3.1925124    190.08061  0.084706152  0.088540097            3 
  188000    1.1602544   -3.1837355     190.7903  0.084570169  0.088530153            1 
  189000    1.2003439   -3.1749412    191.59756  0.084478642  0.088513651            1 
  190000    1.1817695   -3.2233912    192.51271  0.084435398  0.088499306            2 
  191000    1.1643721   -3.2310583    194.13606  0.084701595  0.088484335            8 
  192000    1.1888977   -3.1699665    194.98018  0.084626814  0.088475924            2 
  193000    1.1755781   -3.2121634    195.86358  0.084569766  0.088464002            2 
  194000    1.1747758   -3.2075135    196.94967  0.084600374  0.088442086            1 
  195000    1.1617071   -3.1743779    197.09733  0.084229629  0.088418865            2 
  196000    1.1682238   -3.2206647    198.50249  0.084397317  0.088399411            2 
  197000    1.1782802   -3.2004236     199.5437  0.084409347  0.088385182            2 
  198000    1.1567739   -3.2226036    200.15309  0.084239515  0.088361949            3 
  199000    1.1771461   -3.1878227    202.15173  0.084653154  0.088345308            1 
  200000    1.1767586    -3.211842    202.97634  0.084573476   0.08832475            1 
  201000    1.1672498   -3.2047473    203.57039  0.084399003  0.088304966            2 
  202000    1.1911714   -3.2176381    204.25184  0.084262308   0.08828625            2 
  203000    1.1453428   -3.1995361    205.02653  0.084165243  0.088264416            2 
  204000    1.1798225   -3.2172491    207.32758  0.084692639  0.088248492            3 
  205000    1.1601059   -3.1986732    207.63081  0.084402768  0.088233311            2 
  206000    1.2053502   -3.1883708    209.22784  0.084639094   0.08821646            1 
  207000    1.1594693   -3.1982604     209.4322   0.08431248  0.088195884            2 
  208000    1.1898364   -3.2261921    210.08436  0.084168415  0.088169612            2 
  209000    1.1754494   -3.2203451    211.05693  0.084153482  0.088141175            1 
  210000    1.1931379   -3.2361966    211.73373   0.08402132  0.088105789            2 
  211000    1.1803932   -3.1956235    213.11452  0.084168453  0.088076797            3 
  212000    1.1611718   -3.2072421    213.78638  0.084035528   0.08804702            1 
  213000    1.1598819   -3.1712802     215.2938  0.084230751  0.088012969            1 
  214000    1.1750782   -3.2065698     215.2111  0.083804945  0.087978552            2 
  215000    1.1566569    -3.222531    215.59961   0.08356574  0.087944996            1 
  216000    1.1680708   -3.1528867    217.59299  0.083947912  0.087911713            1 
  217000    1.1438826   -3.2358861    218.40957  0.083874644  0.087883944            1 
  218000    1.1711006   -3.1995249    220.16352  0.084160367  0.087848706            2 
  219000    1.1897565   -3.2163252    220.07231  0.083741365  0.087809108            2 
  220000    1.1655458   -3.2307327     220.5251  0.083532234  0.087775074            2 
  221000    1.1518033   -3.2404664    221.82044  0.083642701  0.087742574            2 
  222000    1.1832832   -3.2523933    221.95876  0.083317851  0.087705369            2 
  223000    1.1714919   -3.2223351     223.0519  0.083352727   0.08766923            1 
  224000     1.159792   -3.2181516    225.21531  0.083785459  0.087638121            1 
  225000    1.1857768   -3.2418264    225.36923  0.083470084    0.0876059            1 
  226000    1.1755415   -3.2311372    226.21277  0.083411786  0.087571416            1 
  227000    1.1810509   -3.2456626    226.34531  0.083092993  0.087538771            2 
  228000    1.1440716   -3.2452596    228.26524  0.083430278  0.087500832            1 
  229000     1.153446   -3.2438149    229.56336  0.083538341  0.087455049            1 
  230000     1.173915   -3.2114295    230.75315  0.083606214  0.087412606            2 
  231000    1.1765615   -3.2374376    230.59503  0.083187241  0.087374463            5 
  232000    1.1642594   -3.1699459    231.95121  0.083315809  0.087325289            2 
  233000    1.1598934   -3.2084802     232.3492  0.083100572  0.087281915            3 
  234000    1.1630531   -3.2397325    233.50537  0.083157184  0.087236829            3 
  235000    1.1620589   -3.2222242     235.0977   0.08336798  0.087191081            4 
  236000    1.1227618       -3.215     235.4287  0.083131604  0.087150121            1 
  237000    1.1688246   -3.2062219    236.65474  0.083211933  0.087104147            3 
  238000    1.1461042   -3.2274489    238.03778   0.08334656  0.087062504            2 
  239000    1.1562748   -3.1940932    238.68681   0.08322413  0.087016643            1 
  240000    1.1462023   -3.2075614    238.62115  0.082854567  0.086969444            2 
  241000    1.1593305   -3.2251869    240.12232  0.083029849  0.086919095            1 
  242000     1.145869   -3.2153494     240.6662  0.082874035  0.086871454            1 
  243000    1.1490574     -3.21447    240.37364  0.082432661  0.086823833            2 
  244000    1.1814915   -3.2202822    242.32439   0.08276106  0.086777774            2 
  245000    1.1854804   -3.2607725    242.84195  0.082599303  0.086734815            1 
  246000    1.1482653   -3.2296347    244.99113  0.082991577  0.086690699            2 
  247000    1.1828127   -3.2353882    245.97245  0.082986655  0.086650005            2 
  248000    1.1707862   -3.2365553    246.31778  0.082768071  0.086605904            1 
  249000    1.1504984   -3.2286437    247.05883  0.082683678  0.086564043            8 
  250000    1.1727681   -3.2189906    249.50302  0.083167673  0.086524812            2 
  251000    1.1840915   -3.2476863    250.17548  0.083059588  0.086486596            1 
  252000    1.1462195   -3.2275128    251.50454  0.083169491   0.08644708            2 
  253000    1.1487515   -3.2292146     251.9566  0.082989657  0.086410288            1 
  254000    1.1455892   -3.2509673    252.26859  0.082765286  0.086370284            2 
  255000    1.1611896   -3.2224636    252.82699    0.0826232   0.08632989            3 
  256000     1.116376    -3.215872    253.81514  0.082622116   0.08628806            2 
  257000    1.1685671   -3.2385786    255.41297  0.082818731  0.086244739            1 
  258000    1.1232973    -3.242522     255.0356   0.08237584  0.086197611            2 
  259000    1.1237064   -3.2330676    257.22677  0.082762795  0.086155864            2 
  260000    1.1831512   -3.2174668    258.22773  0.082765297   0.08611416            1 
  261000    1.1346144   -3.2180256     259.1747  0.082750543   0.08607039            1 
  262000    1.1548363   -3.2457045    259.40626  0.082508351  0.086026045            1 
  263000    1.1647433   -3.2134136    260.25032   0.08246208  0.085978451            1 
  264000    1.1527355    -3.239818    259.52573     0.081921  0.085930041            2 
  265000    1.1775548   -3.2447696    260.35291  0.081871984    0.0858806            1 
  266000     1.148782   -3.2233862    263.04223  0.082406714  0.085828914            1 
  267000    1.1367919   -3.2505216    263.28038  0.082172403  0.085780325            2 
  268000    1.1366517   -3.2200567    264.76707  0.082328068  0.085728996            1 
  269000    1.1531532   -3.2432283    265.35172  0.082203136  0.085683149            3 
  270000    1.1557192    -3.231431    266.98751  0.082403553  0.085636245            2 
  271000    1.1457156   -3.2480921    267.49843   0.08225659  0.085593952            3 
  272000    1.1804882   -3.2601315    269.14217  0.082457774  0.085553074            1 
  273000    1.1276322   -3.2408056    269.34539  0.082217762  0.085511423            2 
  274000    1.1413342   -3.2425379    269.75673    0.0820428  0.085471152            1 
  275000    1.1476455   -3.2561913     269.4241  0.081643666   0.08542826            3 
  276000    1.1629572   -3.2509039    272.21373  0.082190135  0.085387335            2 
  277000    1.1437482   -3.2459422     273.2227  0.082196961  0.085346132            1 
  278000    1.1462305    -3.249312    274.78237  0.082368817  0.085304856            2 
  279000    1.1480602   -3.2144197    276.64862   0.08263101  0.085269336            1 
  280000    1.1474752   -3.2559889    276.61404  0.082325606  0.085234398            3 
  281000    1.1560687   -3.2339258     276.7229  0.082064918  0.085196948            2 
  282000     1.151282   -3.2144147    278.59095  0.082325932  0.085160323            2 
  283000    1.1495017   -3.2554284    279.16072  0.082202804   0.08512333            3 
  284000    1.1359041   -3.2475339    278.99764  0.081865504  0.085085304            4 
  285000    1.1447465   -3.2217612    281.28735  0.082247762  0.085046326            1 
  286000    1.1273125    -3.253689    282.16992  0.082217341  0.085010797            3 
  287000     1.143044   -3.2622106    282.34054  0.081980413  0.084973765            3 
  288000    1.1210222   -3.2438001    284.10935  0.082207567  0.084935649            2 
  289000     1.107366   -3.2585826    285.23225  0.082246901  0.084899633            2 
  290000    1.1226757   -3.2279201    286.84117  0.082425623  0.084865018            2 
  291000    1.1283025   -3.2629985    287.99725   0.08247344  0.084831658            3 
  292000    1.1257433   -3.2270767    288.36807  0.082296823   0.08479753            3 
  293000    1.1577791   -3.2772714     288.9133  0.082171017  0.084765046            2 
  294000    1.1464183   -3.2452557     289.5386  0.082068763  0.084733498            2 
  295000    1.1372721   -3.2496726    291.36782  0.082307294  0.084699141            1 
  296000    1.1210395   -3.2435919    291.72153   0.08212881  0.084662618            3 
  297000    1.1217592   -3.2621869    291.36893  0.081753346   0.08462659            1 
  298000    1.1534393    -3.262097    292.75742  0.081867288  0.084589052            1 
  299000    1.1320978   -3.2315269     293.0643  0.081679014  0.084550975            2 
  300000    1.1214863   -3.2684449    295.26256  0.082017378  0.084515712            3 
  301000    1.1105208   -3.2640489    295.42121  0.081788817  0.084480409            1 
  302000    1.1353037   -3.2495211    296.05796  0.081693697  0.084444873            3 
  303000    1.1390793   -3.2597334    296.67106  0.081592699  0.084408065            5 
  304000    1.1666529   -3.2891057      297.922  0.081667216  0.084369874            4 
  305000     1.123499   -3.2571005    298.47374  0.081550202  0.084330877            1 
  306000    1.1433266   -3.2711531    298.97343   0.08141978  0.084290618            2 
  307000    1.1152094    -3.273299    300.54235  0.081580443  0.084250204            2 
  308000    1.1436218   -3.2335374    302.28099  0.081785982  0.084212352            1 
  309000    1.1156404   -3.2395169    301.06546  0.081193489  0.084173456            3 
  310000    1.1390544    -3.256227    302.57557  0.081337519  0.084132246            1 
  311000    1.1239925   -3.2727499    303.75402  0.081391753  0.084092821            2 
  312000    1.1311956   -3.2729865    304.83293  0.081419053  0.084055224            1 
  313000     1.116291   -3.2722716    304.67676  0.081117348   0.08401763            5 
  314000    1.1479717   -3.2429225    305.63704  0.081113863   0.08398078            4 
  315000    1.1249662   -3.2367835    307.52198  0.081355022   0.08394387            2 
  316000    1.1111396   -3.2332182    310.13017  0.081785383  0.083906349            3 
  317000    1.1561419    -3.266172    309.94108  0.081477676  0.083871473            2 
  318000    1.1281121   -3.2621135     309.7024  0.081158911  0.083833749            4 
  319000    1.1141905    -3.278318    309.98358  0.080977946  0.083791987            4 
  320000    1.1266535    -3.269406    312.26449  0.081318877  0.083751183            3 
  321000    1.1348893   -3.2762671    311.60765  0.080895029  0.083713219            2 
  322000    1.1125627   -3.2533563    312.84632  0.080964368  0.083676549            3 
  323000     1.113205   -3.2641795    314.82677  0.081224657   0.08363821            1 
  324000     1.149845   -3.2452958    316.23942  0.081337299   0.08360351            2 
  325000    1.1175686   -3.2650692    316.34884  0.081115087  0.083568033            1 
  326000    1.1288881   -3.2533085    315.98155   0.08077238  0.083530891            2 
  327000    1.1191668   -3.2586389    318.36853  0.081133671  0.083494393            2 
  328000    1.1387567   -3.2676002     318.1273  0.080825026  0.083456412            1 
  329000    1.1230916    -3.281865    319.40955  0.080904142  0.083418833            1 
  330000    1.1154914   -3.2887197    319.40908  0.080658859  0.083381127            2 
  331000    1.1300446   -3.2701481    322.46152  0.081183666  0.083344761            1 
  332000     1.115243   -3.2761153    321.50031  0.080697868  0.083308927            2 
  333000    1.1169677   -3.2523088    323.90586  0.081057522  0.083272358            1 
  334000    1.1166655   -3.2841431    323.10478  0.080614965  0.083234614            2 
  335000     1.151308   -3.2563036    325.40901  0.080947515  0.083194108            1 
  336000    1.1216942   -3.2736095    326.26601  0.080919149  0.083155311            2 
  337000    1.0967044   -3.3056765    324.73768  0.080301108  0.083113039            1 
  338000    1.1328056    -3.259158    325.08914  0.080150181  0.083072538            2 
  339000    1.1146908   -3.2193812    326.64945  0.080297307   0.08302954            1 
  340000     1.130932   -3.2584602    327.76109  0.080333601  0.082985056            2 
  341000    1.1345705   -3.2601468    329.05041  0.080413101  0.082938172            4 
  342000    1.1258583   -3.2741381    329.58678  0.080308669  0.082894227            4 
  343000    1.1115889    -3.261504    329.01217  0.079934929  0.082848168            1 
  344000    1.1103901   -3.2803485    330.85136    0.0801481  0.082803645            2 
  345000    1.0946199   -3.2786013    331.30615  0.080025639  0.082757913            2 
  346000    1.0991659    -3.272628    331.95585  0.079950831  0.082712692            2 
  347000    1.1125994    -3.289314    332.88561   0.07994371  0.082664877            2 
  348000    1.1075702   -3.2917728    333.42995  0.079844336  0.082617233            1 
  349000    1.0944789   -3.2976728     334.2951  0.079822134  0.082568645            1 
  350000    1.1227468   -3.2487531    334.83836  0.079723419  0.082520209            3 
  351000    1.1252364   -3.2711415    334.31697    0.0793725  0.082472467            4 
  352000    1.1092286   -3.2617105    336.77071  0.079727914  0.082422916            2 
  353000    1.0986779   -3.3228577    336.23823  0.079376352  0.082375439            3 
  354000    1.1159606   -3.2836416    337.20835  0.079380497  0.082324728            1 
  355000    1.1027316   -3.2744529    337.97286  0.079336353  0.082276053            2 
  356000    1.0958396   -3.3051204    337.34858  0.078967364  0.082224887            1 
  357000    1.0984421   -3.2717641    339.99235  0.079363294  0.082171801            1 
  358000    1.1086586   -3.2946738    339.14895  0.078945286  0.082117106            2 
  359000    1.1105755   -3.3117093    339.74472  0.078863677  0.082063586            2 
  360000    1.1123654   -3.3090821    341.00904  0.078937278  0.082010125            3 
  361000    1.1275304   -3.2997192    342.11395  0.078973673  0.081954725            2 
  362000    1.0993508   -3.3001185     342.7573  0.078903614  0.081901247            1 
  363000    1.1070706   -3.2768339    344.44563  0.079073835  0.081849177            2 
  364000     1.108803    -3.275252    345.01358  0.078986626  0.081798594            2 
  365000     1.104887    -3.279462     345.9851  0.078992033  0.081748937            5 
  366000    1.1015378    -3.281073    348.58994  0.079369295   0.08170094            3 
  367000     1.141315   -3.2963998    347.78531  0.078970325  0.081652062            4 
  368000    1.1007264   -3.2834656    348.06115  0.078818195  0.081602581            3 
  369000    1.0829047   -3.2950907    348.53033  0.078710552  0.081553363            1 
  370000    1.1009796   -3.2883536    349.75309  0.078773219  0.081504556            3 
  371000    1.1067704   -3.2641592    351.66309  0.078989913  0.081454733            2 
  372000    1.1134472   -3.3092188    350.50795  0.078518805  0.081406444            3 
  373000     1.105255   -3.2827206    352.60032  0.078775764  0.081359399            2 
  374000    1.0981838   -3.2877465    352.93301  0.078639262  0.081312173            2 
  375000     1.135083   -3.2887885    352.86118  0.078413595  0.081264173            3 
  376000     1.093249   -3.2825248    353.54559  0.078356735  0.081212243            2 
  377000    1.0946402   -3.2945482    355.75324  0.078636878  0.081163976            4 
  378000    1.1059619   -3.3085223    354.29583  0.078107546  0.081112371            3 
  379000    1.1277284   -3.3033304    356.55333  0.078397829  0.081061858            3 
  380000    1.1011663   -3.2773764    357.47502  0.078393645  0.081012771            2 
  381000    1.1010834   -3.3118346    357.66194  0.078228771  0.080966331            3 
  382000    1.0928055   -3.2916144    360.13926  0.078564411  0.080919402            3 
  383000    1.1001574    -3.265692    362.35192  0.078840713  0.080874938            1 
  384000    1.1042648   -3.2763541    363.85465  0.078961512  0.080829888            2 
  385000    1.1070658   -3.3196975    362.02109  0.078359543  0.080786275            4 
  386000     1.098478   -3.3016539    365.38088  0.078881883  0.080742618            1 
  387000    1.1040411   -3.3161736    363.47959  0.078268645  0.080700354            2 
  388000    1.0847499   -3.2617377    364.89509  0.078370939  0.080656133            3 
  389000    1.0882231   -3.2722141    368.25033  0.078888246   0.08061459            2 
  390000    1.0786699     -3.30032    365.96096  0.078196787  0.080573896            2 
  391000     1.079913   -3.3021111    367.35674  0.078294276  0.080529614            3 
  392000    1.0832763   -3.3276202    367.79404  0.078187509  0.080484644            2 
  393000    1.0934546   -3.2862671    369.21479  0.078289819  0.080440657            2 
  394000    1.0724037   -3.3330256    370.41548  0.078345067  0.080399861            2 
  395000    1.0869943   -3.3055406     370.1591  0.078092636  0.080357906            1 
  396000    1.0781436   -3.3059439    372.01638  0.078286275   0.08031693            2 
  397000    1.1036917   -3.3279166    371.11199  0.077899243  0.080277635            1 
  398000    1.0898188   -3.3002389    373.00776  0.078100453  0.080237621            1 
  399000    1.0925955   -3.2952838    373.41698   0.07799018  0.080197063            1 
  400000    1.0899237   -3.3297308    375.26916  0.078181075   0.08015734            6 
  401000    1.1192161   -3.3004528     375.7804  0.078092351  0.080115465            1 
  402000    1.0860551   -3.3310518    375.70612  0.077882695  0.080073727            2 
  403000     1.090231   -3.2961006    377.71091  0.078103994  0.080032953            2 
  404000    1.1040568   -3.3054401    378.03442  0.077977396  0.079992411            2 
  405000    1.0878228   -3.3191452    379.45294  0.078076737  0.079950677            1 
  406000    1.1184034   -3.3126052    378.40031  0.077668372  0.079907537            3 
  407000    1.0869565   -3.3064248    379.95975  0.077796836   0.07986542            2 
  408000    1.0761161   -3.3296975    381.28048  0.077875916   0.07982359            2 
  409000    1.0902813   -3.3107901    382.74392  0.077983685  0.079780545            2 
  410000    1.0970273   -3.3151734    382.67233   0.07777893  0.079738447            3 
  411000    1.0875551   -3.3322764    380.97162  0.077244855  0.079692559            2 
  412000    1.0740757   -3.2928689     383.2854  0.077525364  0.079647194            1 
  413000    1.0782887   -3.3263412     383.2502  0.077330549  0.079600707            1 
  414000    1.1005675    -3.326281    383.98243   0.07729115  0.079554542            3 
  415000    1.0847841   -3.3359884    384.11233  0.077130989  0.079507729            2 
  416000    1.0956522   -3.3148718    384.69963  0.077063227  0.079462572            2 
  417000    1.0957528   -3.2914494    386.65804  0.077269792  0.079416817            3 
  418000     1.099576   -3.3038846    387.41236  0.077235319  0.079371113            3 
  419000    1.0832195   -3.3019831    388.94382  0.077355572  0.079328657            4 
  420000    1.0773141   -3.3487947    388.27561  0.077038812  0.079285057            5 
  421000     1.091599   -3.3345301    390.46885  0.077289955  0.079240098            2 
  422000     1.106527   -3.3008019    390.51249   0.07711542   0.07919531            1 
  423000    1.1022371    -3.297994    391.75536  0.077177967  0.079151429            3 
  424000    1.1034298   -3.3300358    393.08648  0.077257563   0.07910597            3 
  425000    1.0786007   -3.3262475     393.2064  0.077099293  0.079061117            1 
  426000    1.0745562    -3.314263    393.28127  0.076932956  0.079016707            5 
  427000    1.0965795   -3.3404506    393.93338  0.076880051  0.078971274            1 
  428000     1.072233   -3.3347729    393.39954  0.076596484   0.07892453            1 
  429000    1.0841544   -3.3253522    394.93431  0.076716067  0.078878788            3 
  430000    1.0790962   -3.3466142    395.42422  0.076632601  0.078832061            2 
  431000    1.0844411   -3.3258876    396.29628   0.07662341  0.078787377            3 
  432000    1.0855365   -3.3322397    398.15069   0.07680376  0.078741621            2 
  433000    1.1301651    -3.321021    398.23054  0.076641752  0.078697273            1 
  434000    1.0639265   -3.3258403    400.76743  0.076952272  0.078654599            1 
  435000    1.0668489   -3.3192341    398.73753    0.0763865   0.07861212            3 
  436000    1.0669032   -3.3437284    400.97433  0.076638824   0.07857181            3 
  437000    1.0792801   -3.3577314     402.7833   0.07680841  0.078530818            2 
  438000    1.0860157   -3.3070581    404.82383  0.077021276  0.078490994            3 
  439000    1.0567599   -3.3314327    407.34593  0.077324588  0.078453341            2 
  440000    1.0697018   -3.3688595    406.18508  0.076928992  0.078415381            2 
  441000    1.0682894    -3.276372    409.85512  0.077448057  0.078378988            5 
  442000    1.1106877    -3.313041    407.50701   0.07683013   0.07834176            2 
  443000    1.0828107   -3.3076408    408.62375   0.07686677  0.078303915            3 
  444000     1.100606   -3.3362266    409.41529   0.07684221  0.078267751            2 
  445000    1.0860116   -3.3444682    408.17222  0.076436746  0.078229239            2 
  446000    1.0648154   -3.3648504    408.50414  0.076327381  0.078190795            3 
  447000    1.0792987   -3.3067058    412.98855  0.076992646  0.078153917            5 
  448000    1.0706135   -3.3342176    412.70733  0.076768476   0.07811826            1 
  449000    1.0781241   -3.2820277    414.27548  0.076888546  0.078080802            3 
  450000     1.102742   -3.3309742    413.42915  0.076560953  0.078042581            2 
  451000    1.0836635    -3.309044    416.06013  0.076877334  0.078006884            2 
  452000    1.1041009    -3.305877    416.13029  0.076720186   0.07796916            2 
  453000    1.0705046   -3.3662737    415.01439  0.076345547  0.077931115            2 
  454000      1.11483   -3.3475386    417.15901  0.076571036  0.077892634            3 
  455000    1.0624384   -3.3360385    418.59894  0.076666473  0.077856851            4 
  456000    1.0648945   -3.3438751    418.98001  0.076567984  0.077821757            1 
  457000    1.0578924   -3.3334161    421.48664  0.076857519  0.077789528            1 
  458000    1.0699369   -3.3541361    422.95243   0.07695641   0.07775959            5 
  459000    1.0826127   -3.3490971    424.63093  0.077093487  0.077731446            5 
  460000    1.1040463   -3.3692372    424.18901  0.076845835  0.077702953            5 
  461000    1.0908505   -3.3016336      426.224  0.077046999   0.07767475            4 
  462000    1.0734382   -3.3518901    425.01796  0.076662691  0.077646645            3 
  463000    1.0611287   -3.3346386    427.62792  0.076966867  0.077619962            2 
  464000    1.0725214   -3.3214858    428.03811   0.07687466   0.07759265            3 
  465000    1.0435289   -3.3083997    428.82205   0.07684983  0.077564185            2 
  466000    1.0699199   -3.3278053    430.98392  0.077071517  0.077535264            1 
  467000    1.0736371   -3.3459583    430.79714  0.076873151  0.077508255            1 
  468000    1.0496616   -3.3501631    430.10669   0.07658595  0.077480593            1 
  469000    1.0802094   -3.3252347    432.25869  0.076805027  0.077452666            2 
  470000    1.0767137   -3.3406914    433.11369  0.076793207  0.077424453            4 
  471000     1.078459   -3.3119972    435.24584  0.077007402  0.077398265            1 
  472000    1.0635907   -3.3242365    433.80635  0.076590105  0.077371565            1 
  473000    1.0753632   -3.3474247    433.98512  0.076459676  0.077344051            1 
  474000    1.0490385   -3.3452252    434.73772  0.076430682  0.077315901            2 
  475000    1.0628682   -3.3221051    437.32129  0.076723034  0.077289068            3 
  476000    1.0749184   -3.3660936    438.71276  0.076805455  0.077262569            4 
  477000    1.0741047   -3.3510316     441.1905  0.077077306  0.077238355            2 
  478000    1.0765709   -3.3500501    439.23118  0.076574474  0.077213355            6 
  479000    1.0508328   -3.3550374     440.1131  0.076568041  0.077187026            2 
  480000    1.0355542    -3.368094     440.6156  0.076495763  0.077160136            5 
  481000    1.0691726   -3.3481999    443.87913  0.076902136   0.07713275            1 
  482000     1.056266   -3.3639079    442.72418  0.076542908  0.077105552            2 
  483000    1.0530417   -3.3521118    443.89562  0.076586546  0.077079425            1 
  484000    1.0679907   -3.3387437    444.61312  0.076551846  0.077053706            4 
  485000    1.0670421   -3.3347597    446.92013    0.0767904  0.077027381            2 
  486000     1.054087   -3.3356951    446.43131  0.076548579  0.076999482            2 
  487000    1.0641168   -3.3204513    447.67576   0.07660434  0.076972176            3 
  488000     1.062942   -3.3510517    446.41489  0.076232051  0.076944768            2 
  489000    1.0478129   -3.3651405    447.16505  0.076203996  0.076918417            2 
  490000    1.0795469   -3.3713836    449.07642  0.076373541  0.076891882            4 
  491000    1.0536815   -3.3673674    448.65836  0.076147041  0.076865578            2 
  492000    1.0499767   -3.3569925    451.10429  0.076406553  0.076839593            2 
  493000    1.0421058   -3.3677395    451.02806  0.076238684  0.076813025            2 
  494000    1.0518712    -3.369925    452.71983  0.076369742  0.076786843            5 
  495000    1.0433532   -3.3413829    453.47399  0.076342423  0.076760202            3 
  496000    1.0685197    -3.352237    454.23244  0.076315933  0.076732608            2 
  497000    1.0539755     -3.35906    454.20331  0.076157497  0.076707422            2 
  498000    1.0466628   -3.3618532    456.26473  0.076349519    0.0766814            2 
  499000    1.0314859   -3.3543833    454.51161  0.075903743  0.076655133            3 
  500000    1.0607259   -3.3379347    454.50212  0.075750353  0.076628008            1 
  501000    1.0668966   -3.3678677    457.17139  0.076043146  0.076599378            2 
  502000    1.0563066   -3.3650274     458.5527  0.076120967  0.076572408            2 
  503000     1.045714   -3.3604724    458.04023  0.075884729  0.076545245            5 
  504000    1.0530195   -3.3544508    458.37591  0.075789667  0.076518208            3 
  505000    1.0435736   -3.3678251    458.50408   0.07566074  0.076491399            2 
  506000    1.0400771   -3.3682911    460.75662  0.075882185  0.076464415            2 
  507000    1.0418546   -3.3591702    461.78153  0.075900974  0.076434848            2 
  508000    1.0865538   -3.3473816     462.8391  0.075925049    0.0764054            1 
  509000    1.0576639   -3.3379223    462.27175  0.075682998   0.07637648            2 
  510000    1.0674698   -3.3623449    464.25259  0.075858266  0.076346055            2 
  511000    1.0609964   -3.3521162    462.04214  0.075349338  0.076315979            1 
  512000    1.0446968   -3.3608395    463.61225  0.075457723  0.076286102            1 
  513000    1.0571555    -3.358535    463.65757  0.075317994  0.076255223            1 
  514000    1.0590044   -3.3863452    462.74752  0.075023917  0.076223353            2 
  515000     1.023532   -3.3497967    464.38594  0.075143356  0.076190436            3 
  516000    1.0196755   -3.3393146    464.75248  0.075056925  0.076156198            1 
  517000    1.0169077   -3.3871596    465.44471  0.075023325  0.076121357            2 
  518000    1.0429936   -3.3616563    466.73421  0.075085941  0.076084942            2 
  519000    1.0758359   -3.3739463    465.91736  0.074810109  0.076048375            3 
  520000    1.0585298   -3.4003532    466.80572  0.074808609  0.076011027            3 
  521000    1.0526306   -3.3774025     468.4849  0.074933606  0.075974537            1 
  522000    1.0571853   -3.3451492    468.78524  0.074838001  0.075937534            2 
  523000     1.042899   -3.3692573    468.81193   0.07469916  0.075900838            2 
  524000    1.0291935   -3.3696142    470.28942  0.074791574  0.075865747            3 
  525000    1.0380224   -3.3463342    471.22878  0.074798219  0.075830517            2 
  526000    1.0518741   -3.3819437    471.04701   0.07462722  0.075793915            1 
  527000    1.0329381   -3.3739099    472.63888   0.07473733  0.075759172            6 
  528000    1.0288674   -3.3892049    471.72904  0.074452184  0.075724549            2 
  529000    1.0556732   -3.3447706    474.83528  0.074800768  0.075691326            1 
  530000    1.0255439   -3.3712871    476.27825  0.074886517  0.075659027            2 
  531000    1.0255569    -3.354475     476.7495  0.074819445  0.075626818            2 
  532000    1.0514045   -3.3921634    476.65319   0.07466372  0.075594399            4 
  533000    1.0342105   -3.3566885    477.94873  0.074726193  0.075560863            2 
  534000    1.0392206   -3.3603549    478.01406  0.074596452  0.075527695            2 
  535000    1.0488265   -3.3930404    476.44408  0.074212474  0.075494622            2 
  536000    1.0298761   -3.4215703      479.008  0.074472636  0.075460016            6 
  537000     1.023771   -3.3989318    477.02636  0.074026436  0.075426004            2 
  538000    1.0248351   -3.3492615    479.89829  0.074333687  0.075391484            1 
  539000    1.0353613   -3.3843959    481.90401  0.074505876  0.075357266            2 
  540000     1.016575    -3.354879    480.51465  0.074153495  0.075323738            2 
  541000    1.0518734   -3.3956646    481.70474  0.074199744  0.075289452            2 
  542000    1.0552015   -3.3840362    482.24292  0.074145591  0.075254662            5 
  543000    1.0461335   -3.3707152    482.63698  0.074069519  0.075219896            2 
  544000    1.0336902   -3.3924036    482.73728  0.073948725  0.075183968            2 
  545000    1.0610495    -3.402093    481.52862  0.073628229  0.075147008            3 
  546000    1.0245627   -3.4116067    483.65695  0.073818216  0.075110012            2 
  547000    1.0215298   -3.4016664    484.81067  0.073859029  0.075073272            1 
  548000    1.0673301   -3.4022388    486.74408   0.07401826  0.075038921            3 
  549000    1.0285019   -3.3874841    484.91498  0.073605796  0.075003583            6 
  550000    1.0319276   -3.4151272    488.03464  0.073944642  0.074969092            4 
  551000    1.0304356    -3.399045    488.61502  0.073898218  0.074934501            2 
  552000    1.0347174   -3.4120528     489.5919  0.073911821  0.074899524            2 
  553000     1.028758   -3.4070575    488.92282  0.073677339   0.07486496            1 
  554000    1.0394431    -3.381447    491.05955  0.073865757   0.07483033            2 
  555000    1.0133949   -3.3880208    493.13594  0.074044436  0.074795798            2 
  556000    1.0460389   -3.3963171    492.17723  0.073767571  0.074761774            4 
  557000    1.0137212   -3.3911576    492.21633  0.073640983  0.074726321            1 
  558000    1.0282411   -3.3811679    491.82837   0.07345107  0.074690136            2 
  559000    1.0300526   -3.3930975     490.9425  0.073187611  0.074653024            3 
  560000    1.0202188   -3.4147541    493.67966  0.073464235  0.074616556            4 
  561000    1.0684429   -3.3601634    495.85485  0.073656394  0.074580241            2 
  562000    1.0252109   -3.3628556    495.51165  0.073474444  0.074544082            2 
  563000    1.0248352    -3.376088    495.56385  0.073351665   0.07450779            3 
  564000    1.0222601   -3.4091561    495.96406  0.073280741  0.074471679            3 
  565000    1.0264649   -3.3718355    499.18526  0.073626144  0.074436375            4 
  566000     1.046529   -3.3969663    495.99169  0.073025867  0.074400419            3 
  567000    1.0079342   -3.3903578    498.83834  0.073315453  0.074364752            2 
  568000    1.0188776   -3.3993575    498.09976  0.073078016  0.074328007            2 
  569000     1.034831   -3.4239393     497.6609  0.072885311  0.074291282            3 
  570000    1.0148162    -3.399364    499.39102  0.073010383  0.074254416            2 
  571000    1.0148643   -3.4213502    499.69798  0.072927317  0.074217708            2 
  572000    1.0577598   -3.3911872     501.0064  0.072990443  0.074181259            1 
  573000     1.005326    -3.387072    504.26231  0.073336578   0.07414489            2 
  574000    1.0194839   -3.3774903    505.95338  0.073454324  0.074110187            3 
  575000    1.0473498   -3.3893154    503.78329  0.073012072  0.074074938            1 
  576000    1.0038804   -3.4110268    502.83454  0.072748053  0.074038837            3 
  577000    1.0167646   -3.3706107    505.00226  0.072935046  0.074002523            3 
  578000    1.0398314   -3.3683873    504.85379  0.072787455  0.073967398            2 
  579000    1.0228042   -3.4040474    504.95026  0.072675628  0.073931634            4 
  580000     1.034797   -3.3869348    508.93949   0.07312349  0.073897309            3 
  581000    1.0102915    -3.400843    509.49406  0.073077174   0.07386236            2 
  582000    1.0290409   -3.3944447    510.44942  0.073088405  0.073827186            2 
  583000    1.0296025   -3.4202109    507.53041    0.0725458  0.073792615            1 
  584000    1.0123634   -3.4151247    509.65879  0.072725285  0.073757454            2 
  585000    1.0212701   -3.4389722    510.02123  0.072652597  0.073722843            2 
  586000   0.98539781   -3.4274647    510.61785  0.072613459  0.073688323            3 
  587000    1.0181365   -3.4219984    512.64756  0.072777904  0.073653749            3 
  588000    1.0022518   -3.4240474    513.45871  0.072769092  0.073619081            3 
  589000    1.0334675    -3.409802    516.26994  0.073043286  0.073584589            2 
  590000    1.0173975   -3.4257546     515.2543  0.072776031   0.07355148            2 
  591000    1.0340203   -3.4342931    514.85701  0.072596872  0.073518696            3 
  592000     1.021305   -3.4375233    517.03454  0.072780763  0.073485879            2 
  593000    1.0155053   -3.3937612    516.61546  0.072599137  0.073453251            3 
  594000    1.0007444    -3.399094    516.15937  0.072412931  0.073420758            4 
  595000    1.0132306   -3.4184859    517.97389  0.072545363  0.073388435            5 
  596000    1.0244119   -3.4193255    518.57932  0.072508294  0.073355559            6 
  597000    1.0257928   -3.4355526    521.84019  0.072842014  0.073323848            1 
  598000   0.99140018   -3.4101182      521.264  0.072639911  0.073291639            2 
  599000    1.0027191   -3.4349983     523.1912  0.072786755  0.073261613            3 
  600000    1.0187158   -3.4163548    525.21902  0.072947086  0.073231453            6 
  601000    0.9946845   -3.4239428    521.50717  0.072311033  0.073199472            2 
  602000   0.99719115    -3.402107    524.84506   0.07265297  0.073166604            3 
  603000   0.99499748   -3.4295724    523.75894  0.072382385  0.073133919            5 
  604000    1.0199895   -3.4362511    524.92762  0.072423789   0.07310115            2 
  605000    1.0073969   -3.4318483    524.22761   0.07220766  0.073069207            2 
  606000    1.0173074   -3.4179821      526.133  0.072350523  0.073035813            2 
  607000    1.0067128   -3.4107411    526.41809  0.072270468  0.073003847            1 
  608000   0.99629231   -3.4049685    528.73928  0.072469748   0.07297036            3 
  609000    1.0136344   -3.4536798    526.76252  0.072080257  0.072937131            1 
  610000    1.0166598   -3.4290141    526.21003  0.071886616    0.0729034            2 
  611000   0.98299022   -3.4203008    528.21821  0.072042855  0.072869919            3 
  612000    1.0003882   -3.4108577     527.5729  0.071837268   0.07283559            3 
  613000    1.0213484   -3.4134489    530.72069     0.072148  0.072801096            3 
  614000   0.97639031   -3.4501826    530.62466  0.072017463  0.072768406            4 
  615000    1.0187501   -3.4140859    531.93013  0.072077253  0.072736988            2 
  616000   0.98005747   -3.4019551    534.55811  0.072315761  0.072705036            1 
  617000    1.0218748   -3.4438128    533.90061  0.072109753  0.072674182            2 
  618000    1.0112606   -3.4068465    536.64286  0.072362845  0.072643749            2 
  619000    1.0159649   -3.4309794    534.68886  0.071982884  0.072612861            2 
  620000    1.0325841   -3.4081343    534.23827  0.071806219  0.072580855            3 
  621000    1.0097789   -3.4512278    533.11992  0.071540515  0.072549186            3 
  622000     1.002087   -3.4578662    535.90554  0.071798706   0.07251647            3 
  623000    1.0014184    -3.424034     536.2634  0.071731327  0.072483647            2 
  624000   0.99650297   -3.4492288    534.08133  0.071324964  0.072451248            4 
  625000    1.0012659   -3.4319636    538.77682   0.07183691  0.072418327            2 
  626000   0.99318413   -3.4142338    538.28203  0.071656287  0.072385767            2 
  627000   0.99699976   -3.4257959    538.55238  0.071577934  0.072353798            3 
  628000    1.0026525   -3.4289108    541.26155  0.071823453  0.072321311            2 
  629000    1.0320293   -3.4260843    542.54947  0.071879898  0.072289599            2 
  630000    1.0002211   -3.4166923    543.44127  0.071883765  0.072258606            2 
  631000    1.0171539   -3.4212308    543.21086  0.071739416  0.072228256            2 
  632000   0.99815681   -3.4296927    543.63408  0.071681709  0.072197146            3 
  633000   0.98430786   -3.4604275    544.14974  0.071636354  0.072165718            3 
  634000    1.0042648   -3.4430756    546.60803  0.071846481  0.072134668            2 
  635000     1.012718   -3.4607361    542.90139  0.071246902  0.072102971            2 
  636000   0.98925044   -3.4264401    547.32859  0.071714961  0.072071768            2 
  637000    1.0082428    -3.423924    548.12201  0.071706175  0.072041015            2 
  638000    1.0067788   -3.4243195    549.63237  0.071791062   0.07201132            3 
  639000   0.99517222   -3.4370344    547.83377  0.071444154  0.071981342            3 
  640000    1.0053397    -3.453359    550.07307  0.071624097  0.071950625            3 
  641000    1.0084282   -3.4368579    549.12449   0.07138904  0.071920958            2 
  642000    1.0020285   -3.4537037    549.31279  0.071302284  0.071890192            2 
  643000    1.0182825   -3.4548132    549.77876  0.071251784  0.071860974            4 
  644000    1.0031993   -3.4338241     553.6164  0.071637733  0.071830756            4 
  645000   0.98931506   -3.4440421    553.99433  0.071575494  0.071801242            2 
  646000    0.9820791   -3.4541172    552.87319  0.071320071  0.071771494            1 
  647000   0.98409313     -3.41162    553.18931  0.071250555  0.071742526            5 
  648000   0.97886617   -3.4444125    554.56865  0.071317985  0.071712739            4 
  649000    1.0084573   -3.4496594    557.66487  0.071605659  0.071682691            1 
  650000   0.98439768   -3.4592161    555.70883  0.071244722   0.07165296            3 
  651000   0.98271049   -3.4386727     557.7606  0.071397926  0.071623544            3 
  652000    1.0061521   -3.4576391    558.13286  0.071335999  0.071593196            3 
  653000    1.0016962   -3.4603621    556.89188  0.071068387  0.071562978            2 
  654000    0.9942403   -3.4536925    557.74914  0.071068953  0.071532621            3 
  655000   0.97945501   -3.4486759    557.28181  0.070900993  0.071501403            3 
  656000    0.9706536   -3.4455802    560.53091  0.071205655  0.071470471            3 
  657000   0.97685534   -3.4416571    559.38453  0.070951869  0.071439558            2 
  658000    1.0074743   -3.4494513    559.95122  0.070915808  0.071409181            3 
  659000   0.99170685   -3.4431746    560.67456  0.070899666  0.071378132            2 
  660000   0.96216103   -3.4633493     563.0302  0.071089672  0.071347285            2 
  661000   0.99736571   -3.4670354    563.18569  0.071001726  0.071316605            3 
  662000    1.0048695   -3.4598251    562.62478  0.070823865  0.071286288            1 
  663000   0.98630215    -3.437853    564.50736  0.070953665  0.071255786            2 
  664000   0.97376769   -3.4421466    564.97662    0.0709057  0.071225987            2 
  665000     1.003211   -3.4544199    565.44958  0.070858343  0.071196541            4 
  666000    1.0055014   -3.4289521    567.28581  0.070981708  0.071166806            5 
  667000   0.99571223   -3.4616491    564.85574  0.070571682  0.071136426            4 
  668000   0.99971102   -3.4507154     566.5738  0.070680364  0.071106326            3 
  669000   0.99369879   -3.4532558    567.66047  0.070710074  0.071076404            3 
  670000   0.99916498   -3.4432229    569.66473  0.070853822  0.071045512            3 
  671000   0.98462402   -3.4372722    568.55913   0.07061092  0.071016137            4 
  672000   0.96472408   -3.4285976    571.34147  0.070850877  0.070987132            4 
  673000   0.98712865   -3.4536601    570.72723  0.070669543  0.070958044            3 
  674000   0.99381297   -3.4476952    570.46293  0.070532014   0.07092807            5 
  675000   0.96384186   -3.4717814     571.7483   0.07058621  0.070898682            2 
  676000   0.96062802   -3.4562466    572.35094  0.070556083  0.070868697            3 
  677000   0.98424772    -3.434331    574.85302  0.070759849  0.070839708            3 
  678000   0.99116084    -3.456516    577.32567  0.070959399  0.070811657            3 
  679000   0.99128245   -3.4688448    574.20145   0.07047146  0.070783738            3 
  680000   0.96819885   -3.4414889     580.7615  0.071171752  0.070756587            3 
  681000   0.97834476   -3.4732928    577.15102   0.07062543  0.070729855            1 
  682000   0.95120337   -3.4723646    577.54564  0.070570093  0.070702253            3 
  683000   0.99841802   -3.4816712    578.20298  0.070546972  0.070675581            1 
  684000     1.000322   -3.4824906    578.23612  0.070447871   0.07064834            2 
  685000   0.98308981   -3.4796751    581.68146  0.070764168  0.070621204            3 
  686000   0.98620513   -3.4773134    581.69776  0.070662993  0.070594492            2 
  687000   0.99236778   -3.4988292    579.39213  0.070280462  0.070568062            2 
  688000   0.96516304   -3.4714167    583.21944  0.070641889  0.070541621            2 
  689000   0.98238563   -3.4753347     583.5736  0.070582196   0.07051471            1 
  690000   0.97215348   -3.4315092    583.20362  0.070435219  0.070487949            5 
  691000    1.0008719   -3.4506601    585.25576  0.070580772  0.070461132            4 
  692000   0.98776294   -3.5105981     583.1964   0.07023078  0.070434344            4 
  693000   0.97845834   -3.5231772    583.30301  0.070142257  0.070407169            2 
  694000   0.96264274   -3.4728156    585.31003  0.070282184  0.070380302            3 
  695000   0.97947633   -3.4697057    585.66768  0.070223942  0.070353339            3 
  696000   0.95354329   -3.4946631    584.99314  0.070042282  0.070326323            2 
  697000   0.97849258   -3.4872017    587.67675  0.070262644  0.070299895            2 
  698000   0.98414877   -3.4841033    589.47525  0.070376701  0.070272766            2 
  699000   0.98938268    -3.463654    589.25508  0.070249771  0.070246088            3 
  700000   0.97485195   -3.4680916    590.77182  0.070329978  0.070219459            5 
  701000   0.95532376   -3.4619274    591.26616  0.070288417  0.070192393            4 
  702000   0.96426272   -3.4947163    592.05629  0.070282086  0.070165333            4 
  703000   0.96678734   -3.4538705    588.90897  0.069809029  0.070138818            2 
  704000   0.95683278   -3.4701596     591.3178  0.069995004  0.070111617            2 
  705000    0.9738062   -3.4561933    591.73559  0.069945106   0.07008464            4 
  706000   0.96246191   -3.4808649      594.033  0.070117209  0.070057333            3 
  707000    0.9726794   -3.4780907     595.4197  0.070181482  0.070030184            6 
  708000   0.95479577   -3.4485756    593.79442  0.069891056  0.070003018            3 
  709000   0.96671089   -3.4841854    595.72878  0.070019838  0.069975802            3 
  710000   0.99025188   -3.4937646    593.84688  0.069700338  0.069947405            3 
  711000   0.96256416   -3.4623795    596.75844  0.069943559  0.069919297            4 
  712000   0.98324446    -3.471402    597.11216  0.069886723  0.069890362            1 
  713000   0.97154062   -3.4959871    596.90518  0.069764514  0.069862019            2 
  714000   0.95930109   -3.4767253     593.9995  0.069327673  0.069833067            2 
  715000   0.98036188   -3.4756467    595.82237  0.069443167  0.069803893            2 
  716000   0.96772129   -3.4800752    595.60178  0.069320505  0.069774154            3 
  717000   0.96847666   -3.4629059    596.76348  0.069358843  0.069744778            2 
  718000    0.9611432   -3.4801431    598.22466  0.069431831   0.06971502            4 
  719000   0.97011986   -3.4818799    599.69552  0.069505739   0.06968454            2 
  720000   0.95481969   -3.4842851     597.1805  0.069118113  0.069653809            3 
  721000   0.95178105   -3.4617065    598.20079  0.069140174  0.069622671            2 
  722000   0.95564683   -3.4796416    597.52618  0.068966548  0.069592092            4 
  723000   0.93848329   -3.4684484    600.58712  0.069223965  0.069561133            4 
  724000   0.97837404   -3.5047587    599.52074  0.069005609   0.06953133            7 
  725000   0.97691486   -3.4870556    602.11227  0.069208307  0.069501735            3 
  726000   0.95871932    -3.510033    602.34294  0.069139455  0.069472178            3 
  727000   0.96866902    -3.493351    600.88007   0.06887667  0.069443319            2 
  728000   0.96189327   -3.4942541    605.40949  0.069300537  0.069413968            3 
  729000   0.95126405   -3.4967177    605.67025  0.069235283  0.069384306            2 
  730000   0.96045141   -3.4937614    605.32132  0.069100607  0.069354537            3 
  731000   0.95840424   -3.4810452    605.41611  0.069016885   0.06932532            3 
  732000   0.97137312   -3.4826197     604.1916  0.068783197  0.069296811            2 
  733000   0.97341019   -3.4956513    608.36113  0.069163384  0.069267332            2 
  734000   0.92922872     -3.50226    608.63591  0.069100353  0.069237672            2 
  735000   0.95282975   -3.4916358    606.44172  0.068757565  0.069207494            4 
  736000   0.94859155   -3.4862314    608.32468  0.068877342  0.069177444            1 
  737000   0.94120011   -3.5036445    607.38302  0.068677411  0.069147311            2 
  738000   0.94403059   -3.4746397    611.08137  0.069001962  0.069118138            7 
  739000   0.96625917    -3.497847    610.05297  0.068792621  0.069089074            4 
  740000   0.96100175   -3.5096157    611.03844  0.068810635   0.06905967            1 
  741000   0.92400834   -3.4935703    612.61553  0.068895134  0.069030423            5 
  742000   0.97017999   -3.5136108    611.10486  0.068632621  0.069001373            3 
  743000   0.95781259   -3.5042188    612.91958  0.068743785  0.068972874            1 
  744000   0.96649066   -3.5157123    611.89152  0.068536237  0.068943196            3 
  745000   0.95928949   -3.4646234    615.06522  0.068799242  0.068914257            2 
  746000    0.9582542   -3.4862842    613.19375  0.068497961  0.068884244            2 
  747000   0.94681947   -3.4929843    613.14399  0.068400713  0.068854411            3 
  748000   0.94890366   -3.4824978    613.96993  0.068401284  0.068823582            9 
  749000   0.96098753    -3.488982    615.23028  0.068450187   0.06879308            3 
  750000   0.95770003   -3.5261287    614.41112  0.068267902  0.068762915            4 
  751000   0.94930707   -3.4959096    615.89378   0.06834152  0.068732064            3 
  752000   0.94364714   -3.5245502    614.11859  0.068053922  0.068701333            2 
  753000   0.97886651   -3.5001965    616.67911  0.068246913  0.068670145            4 
  754000    0.9502629   -3.5116459    618.64785  0.068373989    0.0686396            3 
  755000   0.95412411   -3.5196568    617.65385  0.068173714  0.068608495            5 
  756000   0.96771461   -3.4856869    618.17113  0.068140556  0.068576846            3 
  757000   0.93746573   -3.5185256    617.57122  0.067984503  0.068546008            2 
  758000   0.95854575   -3.5209957    619.09299  0.068062114  0.068514713            3 
  759000   0.96145967   -3.5067595    621.29363  0.068214056  0.068483783            3 
  760000    0.9482463   -3.4968712    620.58033  0.068046089  0.068452588            2 
  761000   0.93204551   -3.5083165    621.11063  0.068014743  0.068421639            4 
  762000   0.93948429    -3.519329    624.14212  0.068257012  0.068390793            2 
  763000   0.93586649   -3.5164754    622.92179  0.068034271  0.068359867            3 
  764000   0.94531958   -3.5262392    622.95077  0.067948382   0.06832945           10 
  765000   0.93686762   -3.5022918     623.2463  0.067891754  0.068299596            9 
  766000   0.94209726   -3.5043088    624.15412  0.067901884  0.068269437            5 
  767000   0.95042315   -3.5097163    625.20881  0.067927946  0.068239607            4 
  768000   0.93689427   -3.4937344    626.43722  0.067972788  0.068210682            3 
  769000   0.94985976   -3.5358362    623.78303  0.067596774  0.068181373            3 
  770000   0.96166388   -3.4760569    629.97198  0.068178785  0.068152928            4 
  771000   0.92962995   -3.5210768    631.82476  0.068290614  0.068125217            5 
  772000   0.95381722   -3.5474554    629.09719  0.067907727  0.068097343            3 
  773000   0.95003795   -3.5359168    628.60481  0.067766797  0.068068407            5 
  774000   0.93907443   -3.5504593    626.64059  0.067467763  0.068039641            3 
  775000   0.92771427   -3.5088743    630.65356  0.067812211  0.068010673            3 
  776000   0.94750803    -3.523672    630.07653  0.067662858  0.067981161            2 
  777000   0.94433171   -3.5467139     632.5158  0.067837387    0.0679514            3 
  778000   0.94448612   -3.5184771    631.13005  0.067601762  0.067921489            2 
  779000   0.94863241   -3.5361404    632.83089  0.067696928  0.067892345            4 
  780000   0.92352518    -3.517868    633.51312  0.067683026  0.067863575            3 
  781000   0.94240034   -3.5309865    636.78771  0.067945765  0.067835227            2 
  782000    0.9520984   -3.5131332    635.71351  0.067744406  0.067806499            3 
  783000   0.94188377   -3.5256213    635.76788  0.067663674  0.067777823            3 
  784000    0.9551923   -3.5359258    636.87689  0.067695247  0.067749285            5 
  785000   0.95907272   -3.5480401    635.45829  0.067458417  0.067720695            4 
  786000   0.94061078   -3.5136995    636.38784  0.067471145  0.067692314            6 
  787000   0.95390154   -3.5180402    638.81772  0.067642706  0.067664363            6 
  788000   0.93781291   -3.5378235    637.22387  0.067388311  0.067636744            3 
  789000   0.94196629   -3.5059029    640.87476  0.067688504  0.067609259            7 
  790000   0.93875247   -3.5184532    640.58945  0.067572726  0.067581723            2 
  791000    0.9292041   -3.5853984    638.23726  0.067239492  0.067553962            6 
  792000   0.92581128   -3.5327208    642.79956  0.067634634  0.067526556            4 
  793000    0.9426277   -3.5442211    642.85523  0.067555194  0.067499801            4 
  794000   0.95350449   -3.5384535     642.1518  0.067396285  0.067472689            8 
  795000   0.93509246   -3.5382934    639.75496  0.067060268  0.067444993            3 
  796000    0.9125694   -3.5388417    643.48462   0.06736648  0.067417086            6 
  797000   0.91647018    -3.517575    643.25635  0.067258088  0.067389563            5 
  798000   0.93808935   -3.5193933    643.61893  0.067211667  0.067362301            4 
  799000   0.91976201    -3.535362    646.18116  0.067394781  0.067335218            2 
  800000    0.9324224   -3.5588567    644.33567  0.067118298  0.067308319            4 
  801000   0.94589541   -3.5420451    647.30663  0.067343594  0.067280262            4 
  802000   0.92213629   -3.5445434     646.3284   0.06715798  0.067252261            2 
  803000   0.94362055    -3.515772    647.00333  0.067144389  0.067223568            4 
  804000   0.95633653   -3.5324072    646.94667  0.067055003  0.067194472            3 
  805000    0.9278314   -3.5201509    647.45599  0.067024429  0.067165555            5 
  806000   0.97588431    -3.569545    647.16332  0.066911013  0.067136663            3 
  807000   0.95037406   -3.5391702    647.09006  0.066820535  0.067107567            3 
  808000   0.91871308   -3.5391914     647.6319  0.066793719  0.067079044            5 
  809000   0.93489588    -3.530478    649.59172  0.066913032   0.06705017            2 
  810000    0.9256211   -3.5487213    648.92125  0.066761446  0.067020803            4 
  811000   0.90388391   -3.5457036    649.72587  0.066761803  0.066992367            3 
  812000   0.93635087   -3.5085958    651.97952   0.06691087  0.066963423            2 
  813000   0.94173387   -3.5437894    653.31845  0.066965811  0.066934873            2 
  814000   0.93241261   -3.5571655    649.78409  0.066521713  0.066905866            4 
  815000   0.92951461   -3.5286635    649.90247  0.066452195  0.066877032            5 
  816000   0.90557095   -3.5294966    654.78897  0.066869789  0.066847809            3 
  817000    0.9246908   -3.5555093    651.87782  0.066491006   0.06681956            3 
  818000   0.93133063   -3.5519789    654.23451  0.066649808  0.066790103            1 
  819000   0.92147814    -3.562785    654.10342   0.06655509  0.066760319            6 
  820000   0.94088213   -3.5535982    654.78166  0.066542852  0.066730419            2 
  821000   0.92013745   -3.5736984    653.80097  0.066362259  0.066700403            5 
  822000   0.89725599   -3.5588697    656.42098  0.066547139   0.06667041            4 
  823000   0.93425548   -3.5431557    657.06473  0.066531463  0.066640889            6 
  824000   0.93859106   -3.5509705    656.93134  0.066437231  0.066611597            2 
  825000   0.90946798   -3.5679746    656.81348  0.066344796  0.066583089            2 
  826000   0.92262825   -3.5333451    656.70167  0.066253195  0.066553913            5 
  827000   0.95472415    -3.552635    659.54835   0.06645993  0.066525331            2 
  828000   0.92865664   -3.5613411    660.03881  0.066429027  0.066496449            3 
  829000   0.93675444   -3.5506298    660.68515  0.066413867  0.066467778            2 
  830000   0.92563975   -3.5322744    659.43183  0.066208015  0.066439297            3 
  831000   0.92497625   -3.5476272    660.31884  0.066217292  0.066410317            3 
  832000   0.92345148   -3.5812488    661.26014  0.066231985   0.06638129            3 
  833000   0.93548631   -3.5460756    662.34607  0.066261111  0.066353201            4 
  834000   0.90972538   -3.5147624     665.4118  0.066487989  0.066325316            2 
  835000   0.91578156   -3.5744949     664.6911  0.066336437  0.066297915            8 
  836000   0.90596478   -3.5627003    664.23769  0.066211891  0.066269946            2 
  837000     0.929281   -3.5599371    665.94391  0.066302659  0.066242488            2 
  838000   0.91655701   -3.5433925    668.10913  0.066438856  0.066214886            5 
  839000    0.9182567   -3.5715415    668.38745  0.066387312  0.066188099            4 
  840000   0.91884131   -3.5486263     669.8456  0.066452937   0.06616101            4 
  841000   0.90937572   -3.5445141    669.79582  0.066368987  0.066134652            2 
  842000   0.92431143   -3.5771765    668.30944  0.066143056  0.066108354            2 
  843000   0.93438073   -3.5780257    670.21248  0.066252716  0.066081306            2 
  844000    0.9298749   -3.5900292    669.04235  0.066058684  0.066054487            3 
  845000   0.88892151   -3.5328624     672.4406  0.066315641  0.066028027            4 
  846000   0.92898881   -3.5803623    670.11059  0.066007741  0.066001409            3 
  847000   0.92772662   -3.5663732    674.77322   0.06638855  0.065975158            4 
  848000   0.92188576    -3.575519    672.49446  0.066086327  0.065948217            5 
  849000   0.90841652   -3.5626659    670.96706  0.065858565  0.065921302            2 
  850000   0.92913533   -3.5418029    671.48071  0.065831442  0.065893688            2 
  851000   0.91580825   -3.5439804    671.73378  0.065778866  0.065865926            6 
  852000   0.92433236   -3.5574996    670.05337  0.065537301  0.065838148            2 
  853000   0.91590987    -3.576922    671.11232  0.065563923  0.065810535            3 
  854000   0.92211099   -3.5935025    672.16953  0.065590313   0.06578218            6 
  855000   0.90826617   -3.5706221    674.13587  0.065705251  0.065754076            1 
  856000   0.89497983   -3.5654973    675.33446  0.065745177  0.065726167            3 
  857000   0.91109492   -3.5335175    677.36962  0.065866357  0.065698251            2 
  858000    0.9254764   -3.5523089    673.19275  0.065383912  0.065669945            3 
  859000   0.89598429   -3.5668023    673.99663   0.06538578  0.065641452            3 
  860000   0.92050846   -3.5903569    674.86854  0.065394238  0.065612662            1 
  861000   0.90963662   -3.5912515    675.23423   0.06535368  0.065583539            4 
  862000   0.90196269   -3.6105052    678.64588  0.065607684  0.065554743            6 
  863000   0.90752997   -3.5548316    679.48214  0.065612412  0.065526192            4 
  864000   0.90975632   -3.5820553    677.80103  0.065374328  0.065498002            2 
  865000   0.93556184   -3.5731242    677.94616  0.065312732  0.065469296            1 
  866000   0.91485017    -3.597248    677.65907  0.065209687  0.065440901            4 
  867000   0.91613366   -3.5875905    677.97096  0.065164452  0.065412095            2 
  868000   0.93374564    -3.554733    678.28563  0.065119588  0.065383374            4 
  869000   0.89961471   -3.5698645    682.06769  0.065407335  0.065354743            4 
  870000   0.90804734   -3.5432923    682.92422  0.065414197  0.065325964            5 
  871000   0.90912632   -3.5522568    683.32557  0.065377494  0.065297474            5 
  872000   0.91573932   -3.5770994    681.08356   0.06508826  0.065268858            2 
  873000   0.88506673   -3.5853029    683.03921  0.065200383  0.065240001            2 
  874000   0.90076895   -3.5816353    682.68091   0.06509162  0.065210856            3 
  875000   0.90434091   -3.5770386    682.23704  0.064974957   0.06518223            2 
  876000   0.89333036   -3.5729699    680.57431  0.064742609  0.065153526            3 
  877000   0.89904321    -3.574293    683.20944  0.064919179  0.065124637            2 
  878000   0.91231045   -3.5776983    686.74405  0.065180719   0.06509566            2 
  879000   0.90525637   -3.5749631    683.53762  0.064802581  0.065066558            5 
  880000   0.91033205   -3.5803815     683.3035  0.064706771  0.065037138            3 
  881000   0.91765099   -3.5901178    685.89386  0.064878345  0.065007781            3 
  882000   0.88491028   -3.5438574    685.07643  0.064727553  0.064978686            3 
  883000   0.89197353   -3.5709694    684.88387  0.064636077  0.064948853            8 
  884000   0.89386067   -3.5919704    684.57473  0.064533817  0.064919174            2 
  885000   0.88087931   -3.5904971    684.47959  0.064451939  0.064889409            2 
  886000    0.9044743   -3.6173038    684.27902  0.064360329  0.064859483            2 
  887000   0.91223981   -3.5799188    685.70736  0.064421962  0.064828863            4 
  888000   0.90662442   -3.5739077    686.87304  0.064458806  0.064798627            3 
  889000   0.87517533   -3.5953408    686.65782  0.064366124  0.064768456            3 
  890000   0.90997879   -3.5777955    689.38267  0.064548939  0.064737965            4 
  891000   0.88575549   -3.5891086    689.35268  0.064473688   0.06470798            5 
  892000   0.88191615   -3.6047252    687.64577  0.064241944  0.064678009            5 
  893000   0.89974084   -3.5743785    690.46144  0.064432758  0.064648058            7 
  894000   0.91322639   -3.6240586    689.81531  0.064300457  0.064618107            3 
  895000   0.89686268   -3.5641516     692.4962  0.064478231  0.064588336            2 
  896000   0.89842514    -3.593864     690.9332    0.0642609  0.064558333            2 
  897000   0.90938378   -3.5721422    690.56921  0.064155445  0.064528854            3 
  898000   0.88830276   -3.5790396    692.22254   0.06423743  0.064499127            5 
  899000   0.88865762   -3.6202241    693.59569   0.06429326  0.064469427            3 
  900000   0.88059562   -3.5814795    692.63453  0.064132826  0.064439072            3 
  901000   0.88227264   -3.6109564    692.80801  0.064077692  0.064409143            4 
  902000   0.90435546   -3.5996408    691.49841  0.063885662  0.064378423            5 
  903000    0.8923363   -3.6078642    694.30022  0.064073479  0.064347753            2 
  904000   0.88967726   -3.5944536     692.5483  0.063841104  0.064317389            6 
  905000   0.90685619    -3.589829    695.68508    0.0640594  0.064287169            3 
  906000   0.89773827   -3.6026994     694.7391  0.063901683  0.064257197            3 
  907000   0.87047308   -3.6087967    693.16276  0.063686398  0.064226983            2 
  908000    0.8870547   -3.5544273    696.67488  0.063938591  0.064197126            4 
  909000   0.88559655   -3.5964366    694.57191  0.063675459  0.064167142            3 
  910000   0.89714578   -3.5960595    695.34324  0.063676121  0.064137123            5 
  911000   0.91835774   -3.5862819    697.39525  0.063793931  0.064107021            3 
  912000   0.91026569   -3.5995529    697.77133  0.063758345  0.064077464            5 
  913000   0.89015788   -3.5975206    697.11803  0.063628882  0.064047189            2 
  914000   0.89416624    -3.605523    698.72125  0.063705439  0.064017921            2 
  915000   0.88792032   -3.6096732    695.78325  0.063368237  0.063987507            4 
  916000   0.87555556   -3.5729798    701.20308  0.063792129  0.063957002            4 
  917000   0.90208642    -3.601411    702.15159  0.063808759  0.063927373            3 
  918000   0.87842645    -3.616351    701.68607  0.063696993  0.063897499            5 
  919000   0.89028384   -3.6048017    702.34736  0.063687646  0.063867455            5 
  920000   0.89511471   -3.6259335    701.26827  0.063520677   0.06383781            4 
  921000   0.88883198    -3.628996    703.34054  0.063639209  0.063807573            9 
  922000   0.89068381   -3.6061425    704.37506   0.06366369  0.063777905            2 
  923000   0.87060027    -3.613426    701.72933  0.063355844  0.063748015            3 
  924000   0.88465833   -3.5685221    707.04388  0.063766583  0.063718386            7 
  925000   0.88834778   -3.6086019    704.28863  0.063449426  0.063689166            4 
  926000     0.877208   -3.5860551     705.6022  0.063499118  0.063660839            4 
  927000   0.89070813   -3.5860714    706.43452  0.063505441  0.063631352            5 
  928000   0.88605514   -3.6205255    707.80349   0.06355994  0.063602109            3 
  929000    0.9035258   -3.6047607    706.09412  0.063338188  0.063572791            3 
  930000    0.8703799   -3.5830288    710.60682  0.063674446   0.06354328            3 
  931000   0.89401086   -3.6140488    706.13043  0.063205374  0.063513698            3 
  932000   0.87055619    -3.589672    707.06579   0.06322119  0.063483662            4 
  933000   0.87714035   -3.6312092    705.70819  0.063032171  0.063453373            3 
  934000   0.87448281   -3.6193119    706.97288  0.063077523  0.063423283            3 
  935000   0.89871627   -3.6243807    708.02062  0.063103442  0.063393598            2 
  936000   0.87096121   -3.5947789     709.3303  0.063152626  0.063363648            2 
  937000   0.88756031   -3.6327565    710.56563  0.063195094  0.063333942            3 
  938000   0.87839156   -3.6036192    709.61159  0.063042963  0.063304295            3 
  939000   0.88572062   -3.6029861    709.84456    0.0629965  0.063274402            2 
  940000   0.86192616   -3.6115881     711.9196   0.06311344  0.063244372            3 
  941000   0.86897242    -3.618441    711.95142  0.063049187  0.063214666            5 
  942000   0.87298209   -3.5998233    712.91503  0.063067501  0.063185153            9 
  943000   0.88391435    -3.622065    715.86202  0.063261048  0.063156151            2 
  944000   0.87928018    -3.599131    712.89709    0.0629323  0.063126705            2 
  945000   0.87367559   -3.6202808    713.58329  0.062926216  0.063097464            4 
  946000   0.86326293   -3.6311214    714.40915  0.062932448  0.063068394            2 
  947000    0.8944031   -3.6010971    718.78235  0.063250823  0.063040325            2 
  948000   0.89054677   -3.6252897    715.86547  0.062927696  0.063012171            4 
  949000   0.88254652   -3.5987056    716.11219  0.062883052  0.062983736            3 
  950000   0.85836476   -3.6184312    720.23786   0.06317876  0.062955105            2 
  951000   0.86641625   -3.6128858    719.59983  0.063056417  0.062926824            2 
  952000   0.85137528   -3.6401322    718.87755  0.062926956  0.062898986            4 
  953000   0.88208275   -3.6357301    720.71186  0.063021324  0.062871088            3 
  954000   0.86175521   -3.6566805    718.39945  0.062753271  0.062843474            3 
  955000   0.88348123   -3.6319426    723.05385  0.063093704  0.062815595           10 
  956000   0.87504937   -3.5936203    724.26749  0.063133498  0.062788406            3 
  957000   0.86948455   -3.6327508    719.89625   0.06268689  0.062760943            4 
  958000    0.8622323   -3.6371451    722.15479  0.062817918  0.062733152            8 
  959000    0.8807641   -3.6354758    720.38676   0.06259878  0.062705486            4 
  960000   0.87148948    -3.638565    726.24184  0.063041826  0.062677662            3 
  961000   0.86660973   -3.5996935    723.77589  0.062762391  0.062650803           10 
  962000   0.88404309    -3.667144    725.03907  0.062806572  0.062623806            4 
  963000   0.88496622     -3.62049    724.17488   0.06266657  0.062596615            7 
  964000   0.87350777   -3.6408191    724.15129  0.062599524  0.062569294            3 
  965000   0.87482805   -3.6530207    728.19953  0.062884243  0.062542075            6 
  966000   0.87154254   -3.6596879    728.28067  0.062826144  0.062515165            7 
  967000   0.88444691   -3.6253064    729.91244  0.062901796  0.062488655            5 
  968000   0.87160483   -3.6492783    729.94943  0.062839999  0.062462684            6 
  969000   0.84545778   -3.6556823    729.14691  0.062706133  0.062436264            3 
  970000   0.88149688   -3.6655959    727.49863  0.062499882  0.062409634            4 
  971000    0.8719042   -3.6451875    729.67546  0.062622336   0.06238303            3 
  972000   0.84627957   -3.6352349    734.82942  0.062999779  0.062356658            6 
  973000   0.85591707   -3.6372175    730.67723  0.062579413  0.062330301            1 
  974000   0.86189157   -3.6533626    731.38988  0.062576137  0.062303914            4 
  975000   0.88067633   -3.6461157    731.90718   0.06255617  0.062277419            3 
  976000   0.87693526   -3.6460956    733.87186  0.062659824  0.062250491            2 
  977000   0.85283878   -3.6367656    736.74598  0.062840838  0.062224289            5 
  978000   0.85791517   -3.6296046    736.37551  0.062745016  0.062197983            3 
  979000   0.86671225   -3.6586862    732.88307  0.062383645  0.062171268            3 
  980000     0.856425    -3.669523    730.80323  0.062143132  0.062144593            3 
  981000   0.86481567   -3.6616054    735.79755   0.06250404    0.0621178            4 
  982000   0.87228482   -3.6485137    734.89639  0.062363916  0.062091096            4 
  983000    0.8791423   -3.6395071    733.93183  0.062218704  0.062064251            3 
  984000   0.87662643   -3.6322066    735.79326  0.062313115  0.062037705            3 
  985000   0.85033942   -3.6514243    737.19817  0.062368712  0.062010847            3 
  986000   0.87581763   -3.6524646    737.66644  0.062345034  0.061983901            3 
  987000    0.8792591   -3.6408913     737.6557  0.062280961  0.061956534            4 
  988000   0.85224671    -3.658458    736.66358  0.062134243  0.061929204            5 
  989000   0.84451551   -3.6472393    732.99269  0.061762108  0.061901536           11 
  990000   0.86975991   -3.6601739    737.78105  0.062102782   0.06187401            3 
  991000   0.85836406   -3.6642589    736.33899  0.061918852  0.061845989            2 
  992000   0.88595517    -3.670804    737.19759  0.061928561  0.061818667            2 
  993000   0.85914585   -3.6556942    735.95759  0.061762134  0.061791085            4 
  994000   0.86059892   -3.6314727    739.98917  0.062037992  0.061763438           15 
  995000   0.86103838   -3.6733812    741.11329   0.06206979  0.061735681            2 
  996000   0.85655162   -3.6619195    737.87875  0.061736843  0.061707876            2 
  997000   0.85703036   -3.6496119    737.94826   0.06168073   0.06167981            5 
  998000   0.84762283   -3.6599535    739.57461  0.061754727  0.061651378            4 
  999000   0.85273231   -3.6747548    740.18358  0.061743709  0.061622939            2 
 1000000   0.82024669   -3.6539658    740.50306  0.061708588  0.061594303            3 
 1001000   0.86751929   -3.6431588    740.00867  0.061605783  0.061565765            3 
 1002000    0.8380391   -3.6707794    738.94518  0.061455853  0.061536954            5 
 1003000   0.87141511   -3.6478764    740.91327  0.061558099  0.061508751            3 
 1004000   0.86732071   -3.6779653    741.04185  0.061507458  0.061480667            4 
 1005000   0.86008108   -3.6550171    740.34712   0.06138865  0.061452414            4 
 1006000   0.86376707   -3.6417793    741.41286  0.061415909  0.061423793            4 
 1007000   0.86661634     -3.64586    742.74495  0.061465157   0.06139526            6 
 1008000   0.83766523   -3.6673351    740.42213  0.061212147  0.061366879            4 
 1009000   0.82956526   -3.6598249    743.49652  0.061405394  0.061338204            4 
 1010000   0.84927001   -3.6633585    743.12327  0.061313801  0.061310316            6 
 1011000   0.83247276   -3.6833481    743.42523  0.061278044  0.061281547            2 
 1012000   0.85814252   -3.6618477    744.24694  0.061285157    0.0612528            4 
 1013000    0.8329197   -3.6498295    745.19799  0.061302895  0.061224051            5 
 1014000   0.83647954   -3.6571561    744.81699  0.061211127  0.061195725            5 
 1015000   0.85229436   -3.6653366    744.89774   0.06115745  0.061167133            4 
 1016000   0.86580381   -3.6982014    744.71256  0.061082067  0.061138684            3 
 1017000   0.84804619   -3.6538529    745.60248  0.061094926  0.061110368            5 
 1018000   0.83951011   -3.6573034    747.94628  0.061226775  0.061082568            5 
 1019000   0.85133234   -3.6828609    748.99627  0.061252558  0.061054368            3 
 1020000   0.84494095   -3.6863236    748.70531  0.061168734  0.061026272            7 
 1021000   0.84302069   -3.6627248    746.43702  0.060923687  0.060998609            1 
 1022000   0.84471908   -3.6776489    750.22464  0.061172916  0.060970409            3 
 1023000   0.84866761   -3.6601884    747.69917  0.060907394  0.060942709            4 
 1024000   0.85503782   -3.6665159    749.51659  0.060995816  0.060915042            5 
 1025000   0.85510413   -3.7045057    748.68239  0.060868487   0.06088689            4 
 1026000   0.85319358   -3.6819219    750.81682  0.060982522  0.060859292            4 
 1027000   0.86249103   -3.7112058    750.55555  0.060901944  0.060831675           15 
 1028000   0.85692661   -3.6849043    753.35782  0.061069862  0.060804028            4 
 1029000   0.84738802   -3.6893887    751.12749   0.06082989  0.060776429            3 
 1030000   0.83028689   -3.6689135    752.57438  0.060887895  0.060749134            2 
 1031000    0.8271282   -3.6672476    754.91302  0.061017865  0.060721896            3 
 1032000   0.85464057   -3.6511472    750.46483   0.06059955  0.060694581            2 
 1033000   0.84016325   -3.6817572     753.7588  0.060806615   0.06066718            8 
 1034000   0.81911098   -3.6847586    753.83776  0.060754172  0.060639962            4 
 1035000   0.82704986   -3.6772738    757.75154  0.061010591  0.060612464            3 
 1036000   0.83870703   -3.6753249    756.53049  0.060853482   0.06058538            3 
 1037000   0.83420124   -3.6612417    758.79182  0.060976521  0.060558233            4 
 1038000   0.82898145   -3.6894991    758.60684  0.060902925  0.060531395            5 
 1039000   0.82904173   -3.6935572    758.04056   0.06079889  0.060504297            4 
 1040000   0.83611818   -3.6964147    758.47461  0.060775209  0.060477394            3 
 1041000   0.83694108   -3.6962715    756.88686  0.060589726  0.060450267            8 
 1042000   0.84759819    -3.701479    756.00225  0.060460832  0.060423042            3 
 1043000   0.83394842   -3.6809301    758.10704  0.060571032  0.060395951            4 
 1044000   0.85360247   -3.6816007    759.96253  0.060661121   0.06036905            2 
 1045000   0.84627308    -3.662572    760.37697  0.060636122  0.060342271            3 
 1046000   0.83806925   -3.6494752    762.10409   0.06071575  0.060315709            5 
 1047000   0.83448593   -3.6772679    763.55371  0.060773138  0.060289751            3 
 1048000   0.83724977   -3.6719775    762.85041  0.060659225  0.060263607            5 
 1049000   0.82912946   -3.6836269    764.39559  0.060724149  0.060237613            6 
 1050000   0.81669285    -3.676565    764.84793  0.060702217  0.060211793            4 
 1051000   0.83462872   -3.7266643    763.37013  0.060527286  0.060185974            4 
 1052000   0.82911159   -3.6877448    766.02381  0.060679959  0.060160255            4 
 1053000   0.82748101   -3.6628661    765.29157  0.060564385  0.060134804            3 
 1054000   0.84747461   -3.7209862    765.96254  0.060559973  0.060108993            4 
 1055000   0.82771888   -3.6924937    764.41945  0.060380683  0.060082785            3 
 1056000   0.83270583   -3.7039849    765.73176  0.060427065  0.060057005            6 
 1057000   0.82202798   -3.6602836    768.00733  0.060549301  0.060030781            1 
 1058000   0.84240518   -3.6855991    766.20815  0.060350359  0.060004382            6 
 1059000   0.82241543   -3.6823129    765.80186  0.060261399  0.059977869           10 
 1060000    0.8320932   -3.6858891    767.34292  0.060325701  0.059951735            9 
 1061000   0.83737918   -3.6783591    769.76534  0.060459106  0.059925497            3 
 1062000   0.82055449   -3.6847766    766.15745  0.060119072  0.059898992            1 
 1063000   0.82301729   -3.7131034    767.16903  0.060141818  0.059872579            6 
 1064000   0.81855246   -3.6804757    769.48179  0.060266431   0.05984592            3 
 1065000   0.83061542   -3.6844633    769.22515  0.060189762  0.059819175            6 
 1066000   0.83419983   -3.6745978    772.44463  0.060384977  0.059793054            4 
 1067000   0.85526632   -3.6679686    768.09469  0.059988652  0.059767275            6 
 1068000   0.82558236   -3.7139194    771.18184  0.060173365  0.059741416            4 
 1069000   0.83975144   -3.6937003    766.02474  0.059715056  0.059714839            3 
 1070000   0.82332218   -3.6702702    774.43211  0.060314027  0.059688528            3 
 1071000   0.81233835   -3.7101653    770.31643  0.059937475  0.059662219            2 
 1072000    0.8174795   -3.7053756    770.79719  0.059918935  0.059635729            4 
 1073000   0.81698852   -3.7115692    769.26249  0.059743903  0.059609164            4 
 1074000   0.81764964   -3.6881223    769.21649  0.059684706  0.059582396            4 
 1075000   0.82228845   -3.6985228     772.8307  0.059909356  0.059555477            5 
 1076000   0.80847673   -3.6983721     773.8673   0.05993396  0.059529134            3 
 1077000   0.81318467   -3.6855787    772.44007  0.059767879  0.059502495            2 
 1078000   0.81799979   -3.6882591    773.83336  0.059820143    0.0594756            7 
 1079000   0.81327582   -3.7237075     775.4633  0.059890585   0.05944918            4 
 1080000   0.81983573   -3.7429082    775.14087  0.059810252  0.059422423            3 
 1081000   0.82267197   -3.7216499    774.26848  0.059687672  0.059395784            4 
 1082000   0.82587948    -3.733412    773.82805  0.059598587  0.059369192            4 
 1083000   0.82875131   -3.6923245    775.83271  0.059697808   0.05934261            3 
 1084000   0.81613342    -3.690959    776.45599  0.059690651  0.059316038            5 
 1085000   0.83228465   -3.7039257    775.09187  0.059530865  0.059289327           10 
 1086000   0.81405056   -3.7139931    775.36544  0.059497041  0.059262642            3 
 1087000   0.81618466   -3.6984982    778.02075  0.059645871  0.059235948            4 
 1088000   0.80658509   -3.7402157    777.35331  0.059539929  0.059208883            4 
 1089000   0.81756515   -3.7051067    778.06782  0.059539931  0.059181938            4 
 1090000   0.81874875    -3.710635    777.69976  0.059457168  0.059155279            4 
 1091000   0.82319907   -3.7123794    776.91995  0.059343106  0.059128473            8 
 1092000   0.80134802   -3.7014763    778.21752  0.059387784  0.059101769            3 
 1093000   0.80684958   -3.7104989    778.07141  0.059322309  0.059075113            3 
 1094000   0.82389628   -3.7156991    779.28893  0.059360826   0.05904823            4 
 1095000   0.81588008   -3.7026051    777.90149  0.059201026  0.059021395            6 
 1096000   0.80566716   -3.7141597    779.76522  0.059288718  0.058994687            2 
 1097000   0.81539419   -3.7145715    780.40788  0.059283491  0.058968062            6 
 1098000   0.80917597   -3.7289634    782.46584  0.059385689  0.058941517            4 
 1099000   0.80594685   -3.6929769    782.44908  0.059330382  0.058914994            4 
 1100000   0.82103183   -3.7354792    782.06847  0.059247611  0.058888451            3 
 1101000   0.81868933   -3.6925727    782.86257  0.059253903   0.05886209            1 
 1102000   0.81298463   -3.7087715    782.12689  0.059144502  0.058835944            2 
 1103000   0.81755885   -3.7093653    782.82928  0.059143947  0.058809498            6 
 1104000   0.81378146   -3.7183388    783.49652   0.05914074  0.058783034            6 
 1105000   0.81206475   -3.7038836    784.10761  0.059133304  0.058756692            6 
 1106000   0.81236566   -3.7030515    783.00817  0.058996999  0.058730338            3 
 1107000   0.80580789   -3.7207902    783.48323  0.058979466  0.058704104            6 
 1108000   0.80608659   -3.7226479    784.62371  0.059012012  0.058677549            5 
 1109000    0.8141502   -3.7276836    788.96582  0.059285078  0.058651123            9 
 1110000   0.81597559   -3.7471704    785.16045   0.05894598  0.058624841            5 
 1111000   0.81203224    -3.719919    787.26725  0.059050949  0.058598364            4 
 1112000   0.81595865   -3.7292896    785.64823  0.058876516  0.058572108            2 
 1113000   0.80889371   -3.7421812    787.98149  0.058998314   0.05854577            3 
 1114000   0.82902818   -3.7337531    787.05046  0.058875708  0.058519472            4 
 1115000   0.80800699   -3.7293851     783.7346  0.058575082  0.058493251            6 
 1116000   0.79969207   -3.7139844    786.24867  0.058710325  0.058466629            7 
 1117000   0.79545322   -3.7361865    787.64494  0.058761933  0.058439867            3 
 1118000   0.80092551    -3.729087    789.26096  0.058829827  0.058413529            4 
 1119000    0.8105225     -3.74677    787.96954   0.05868108  0.058386827            4 
 1120000   0.80671761   -3.7188164    789.14868   0.05871642  0.058360025            3 
 1121000   0.80473415   -3.7306014    788.91648   0.05864678  0.058333674            3 
 1122000   0.81195001   -3.7257017    789.75393  0.058656709  0.058307507            7 
 1123000   0.79441245   -3.7462842    790.03117   0.05862505  0.058281012            4 
 1124000   0.82000356   -3.7651649    788.03255  0.058424714  0.058254582            7 
 1125000   0.80411701   -3.7351235    789.23466  0.058461827  0.058227731           11 
 1126000    0.8305636   -3.7395977    793.03867  0.058691435  0.058201322            5 
 1127000   0.79013642   -3.7382222    790.53193  0.058454003  0.058174849            3 
 1128000   0.79269785   -3.7513553    789.15158  0.058300205  0.058148069            6 
 1129000   0.81878276   -3.7437163     788.6209  0.058209396  0.058121184            3 
 1130000   0.81444907   -3.7283209    791.96158  0.058404246  0.058094263            3 
 1131000   0.80051799   -3.7174202     791.4875  0.058317676  0.058067441            3 
 1132000   0.80278626   -3.7614214    792.82751  0.058364805  0.058040496            7 
 1133000   0.78631568   -3.7268869    793.32577  0.058349939  0.058013575            8 
 1134000   0.80856863   -3.7558899    793.58696  0.058317678  0.057986899            6 
 1135000   0.80644774   -3.7472703    792.25326  0.058168374  0.057960305            4 
 1136000   0.82212784   -3.7891595     793.0597  0.058176328  0.057933373           10 
 1137000   0.81056524   -3.7223126    795.94481  0.058336617  0.057906398            9 
 1138000   0.79074739   -3.7728389    793.67345  0.058119029  0.057879463            8 
 1139000    0.8029076   -3.7352709    796.18004  0.058251393  0.057852589            5 
 1140000    0.7795975   -3.7504451    792.34996  0.057920319  0.057825313            7 
 1141000   0.79810733   -3.7434723    793.87527  0.057980958  0.057798026            4 
 1142000   0.78584697   -3.7184447    794.62496  0.057984892  0.057771035            2 
 1143000   0.80384047   -3.7541129    794.95064  0.057957906  0.057743928            3 
 1144000   0.77132455   -3.7363346    793.37436  0.057792421  0.057716568            3 
 1145000   0.80474347    -3.725606    795.51919  0.057898049  0.057689649            4 
 1146000   0.80038906   -3.7237481    797.20399   0.05797004  0.057662806            2 
 1147000   0.81160778    -3.770228    796.63326  0.057878034  0.057635806            7 
 1148000   0.78933269   -3.7348362    798.52383  0.057964854  0.057608643            6 
 1149000    0.7936232   -3.7677138    798.12872   0.05788575  0.057581523            9 
 1150000   0.78028426   -3.7652214    796.20407  0.057695947  0.057554342            5 
 1151000   0.78536337   -3.7448617    799.96746  0.057918293  0.057527226            6 
 1152000   0.78500679   -3.7680396    798.52632  0.057763767  0.057500676            5 
 1153000   0.80708493   -3.7644662    799.28932  0.057768815  0.057474142            5 
 1154000   0.78280604   -3.7559155    799.82166  0.057757197  0.057447764            4 
 1155000   0.80700941   -3.7636108    801.46861  0.057826018  0.057421154            3 
 1156000   0.80292488   -3.7286553    801.27569  0.057762089  0.057394757           10 
 1157000   0.77754659    -3.775603      799.617  0.057592697  0.057367843            5 
 1158000   0.77717298   -3.7943318    800.02981  0.057572669   0.05734107            3 
 1159000   0.78942419   -3.7627251    800.44751  0.057553028  0.057313926            7 
 1160000    0.7903113   -3.7608607    798.99674  0.057399191  0.057286886            2 
 1161000   0.79087592    -3.755936    800.12797  0.057430948  0.057259923            4 
 1162000   0.78057629   -3.7643207    799.74688  0.057354194  0.057232835            5 
 1163000   0.78160789   -3.7538379    800.89054  0.057386826   0.05720625            5 
 1164000   0.77617466   -3.7734163    800.94971   0.05734176  0.057179439            6 
 1165000   0.79372014   -3.7570193    801.47102   0.05732983  0.057152698            5 
 1166000   0.77199183   -3.7485078    803.97625  0.057459709  0.057125747            4 
 1167000   0.79324797   -3.7485256    801.56464  0.057238264  0.057098802            4 
 1168000   0.80270721    -3.756499    804.86873  0.057424995  0.057071448           10 
 1169000   0.78591947   -3.7877281    801.94274   0.05716729  0.057043847            3 
 1170000   0.78913513   -3.7937669     802.0356  0.057125042  0.057016356            6 
 1171000   0.78004695   -3.7703618    803.38746  0.057172463   0.05698891            3 
 1172000   0.78727597   -3.7743401    802.86494  0.057086529  0.056961282            3 
 1173000   0.78943322   -3.7755376    802.31833  0.056999029  0.056933437            4 
 1174000   0.77535773   -3.7888043    803.95741  0.057066824  0.056905802            4 
 1175000   0.80483715   -3.7923903    803.02248  0.056951949  0.056878022            5 
 1176000   0.77778315   -3.7631583    801.52218  0.056797206  0.056850223            3 
 1177000   0.76392367   -3.7622107    804.69066  0.056973284  0.056822337            5 
 1178000   0.77920888   -3.7411729    804.68441  0.056924477  0.056794611            2 
 1179000   0.78243217    -3.786807    806.49873  0.057004434  0.056766724            3 
 1180000   0.78372504   -3.7737062    802.62079  0.056682259  0.056738793            6 
 1181000   0.78978776   -3.7682955    802.19195  0.056604004   0.05671063            7 
 1182000   0.77114706   -3.7854829    803.37557  0.056639563  0.056682601            5 
 1183000   0.78766575   -3.7884472    803.93843  0.056631335    0.0566546            6 
 1184000   0.77812349   -3.7719753    805.68768  0.056706621  0.056626559           11 
 1185000   0.78808073   -3.7534424    804.58924  0.056581522   0.05659846            4 
 1186000   0.77704604   -3.7720452    804.58963  0.056533841  0.056570246            2 
 1187000   0.79763143   -3.7862885    803.82093  0.056432247  0.056541848            5 
 1188000    0.7759463   -3.7819421    806.74444  0.056589818  0.056513719           10 
 1189000   0.78095301   -3.7991227    807.11222     0.056568  0.056485277            3 
 1190000   0.77606672   -3.7402302    808.75072  0.056635205  0.056456995            4 
 1191000   0.78136283   -3.7693719    807.12261  0.056473734  0.056428762            4 
 1192000   0.77803019   -3.7937048    808.85266  0.056547306  0.056400421            3 
 1193000   0.76926055   -3.7728151    804.13035  0.056170044  0.056371989           11 
 1194000   0.78225678   -3.7793344    806.25767  0.056271473   0.05634318            5 
 1195000   0.79223348   -3.7797762      807.851  0.056335495  0.056314491           10 
 1196000   0.77210409   -3.8032896    805.45382  0.056121365  0.056285556            3 
 1197000   0.76143815   -3.7803896    808.26606  0.056270263  0.056257077            3 
 1198000   0.76953506   -3.7928199    806.62411  0.056109079  0.056228438            5 
 1199000   0.75422879   -3.7796436    805.73744  0.056000656  0.056200066            4 
 1200000   0.75199973   -3.7958677     805.9239  0.055966938  0.056171348            7 
 1201000   0.79073622   -3.7905657    811.42766  0.056302224  0.056142757            3 
 1202000   0.78432365   -3.7820534    808.20296  0.056031819  0.056114493            4 
 1203000    0.7706334   -3.7797769    809.94072   0.05610562  0.056085988            4 
 1204000   0.76523838   -3.8109333    810.08883  0.056069271  0.056057623            4 
 1205000   0.77470342   -3.8003998    809.13442  0.055956737  0.056029198            3 
 1206000   0.78608056    -3.799184    808.43222  0.055861817  0.056001132            3 
 1207000   0.76575085   -3.7839325    809.41791   0.05588359  0.055972918            2 
 1208000   0.76495418   -3.7912665     811.9089  0.056009168   0.05594487            7 
 1209000   0.78728032   -3.7899902    813.37183  0.056063677  0.055916706            4 
 1210000   0.76874903   -3.7990653    810.92282  0.055848679  0.055888339            4 
 1211000   0.77113496   -3.8125002    811.54006  0.055845036  0.055859757            6 
 1212000    0.7703553   -3.7828156    813.86837  0.055959046  0.055831479            2 
 1213000   0.77276307   -3.7806298    812.59249  0.055825261  0.055803222            4 
 1214000   0.76630273   -3.7833306    813.43343  0.055837001  0.055774669            3 
 1215000   0.78074579   -3.7988208    811.86128  0.055683215  0.055746166            3 
 1216000    0.7679845   -3.8063552    807.75144  0.055355773  0.055717483            7 
 1217000   0.76219834   -3.7758504    813.72763  0.055719504  0.055688828            5 
 1218000   0.75442404   -3.7887507    814.38496   0.05571873  0.055660701            4 
 1219000   0.76047374   -3.8137625    812.29509  0.055530154  0.055632298            5 
 1220000    0.7679898   -3.8035101    812.13312  0.055473574    0.0556037            6 
 1221000   0.76860254   -3.8108188    812.29614  0.055439267  0.055574929            9 
 1222000   0.76347701   -3.7965303    815.60492  0.055619539   0.05554636            2 
 1223000   0.76579331   -3.8104279    811.47049  0.055292348  0.055517822            3 
 1224000   0.75259016   -3.8060854    816.62479  0.055598093  0.055488987            6 
 1225000   0.75144981   -3.8252037    813.92686  0.055369174  0.055460206           11 
 1226000   0.75926561   -3.8101047    812.78466  0.055246374  0.055431481            8 
 1227000    0.7527824   -3.8083311    815.39483  0.055378622  0.055402786            6 
 1228000   0.77080153   -3.8077674    814.71935  0.055287686   0.05537428            4 
 1229000   0.74874892   -3.8118196    817.10097  0.055404188  0.055345819            4 
 1230000    0.7609136   -3.8025766    813.82056  0.055136894  0.055316974            7 
 1231000   0.73988814   -3.8156388    813.83662  0.055093191  0.055288367            4 
 1232000   0.76619708    -3.834602    815.46922  0.055158903  0.055259437            6 
 1233000   0.77146832   -3.8113688    815.50539  0.055116612  0.055230472            9 
 1234000   0.75783812   -3.8028589    816.03823   0.05510793  0.055201466            5 
 1235000   0.77650397   -3.8095051    814.47323  0.054957708  0.055172749            6 
 1236000    0.7799511   -3.8212501    816.17306  0.055027849   0.05514369            4 
 1237000   0.75937123   -3.8044528     813.9226  0.054831757  0.055114684            6 
 1238000   0.78021159   -3.7903845    816.82078  0.054982551  0.055085551            8 
 1239000   0.76261065   -3.8298542    815.58299  0.054854923  0.055056689           13 
 1240000   0.77173485   -3.8040301    816.29313  0.054858409  0.055027665           12 
 1241000   0.76111855   -3.7849222    819.58436  0.055035211  0.054999086            4 
 1242000   0.76487285   -3.8153144    819.22741  0.054966949   0.05497057            6 
 1243000   0.75200824   -3.8104785    819.70385   0.05495467  0.054942152           13 
 1244000   0.75711368   -3.7881902    821.22414  0.055012335   0.05491335            4 
 1245000   0.75211256   -3.8150598    819.48078  0.054851458   0.05488451           13 
 1246000   0.75877072   -3.8276482    818.18299  0.054720639  0.054855653            9 
 1247000   0.76227613    -3.817244     819.3912  0.054757498  0.054826917            5 
 1248000   0.76463299   -3.8170465    821.48095  0.054853162  0.054798218            3 
 1249000   0.75763788   -3.8229037    818.88366  0.054635952  0.054769748            5 
 1250000   0.76504878   -3.8243899    820.00275   0.05466685   0.05474136            5 
 1251000   0.75279151   -3.8418386    821.77545  0.054741237  0.054712487           11 
 1252000   0.74395418    -3.813997    819.21407  0.054527028  0.054683765            4 
 1253000   0.76913352    -3.836931    822.23259  0.054684263   0.05465511            6 
 1254000   0.74788654   -3.8161858     820.1022  0.054499083   0.05462647            5 
 1255000   0.73902401   -3.8042492    824.48202  0.054746482  0.054597793            4 
 1256000   0.75085603   -3.8195315    823.86302  0.054661824   0.05456931            2 
 1257000   0.75040259   -3.7959827    824.15738  0.054637853     0.054541           14 
 1258000   0.73981383   -3.8176386    823.71267  0.054564963  0.054512414            4 
 1259000   0.74907858   -3.8111266    823.31192  0.054495096  0.054484029            5 
 1260000   0.74511621   -3.8243048    821.38808  0.054324608  0.054455701            4 
 1261000    0.7458153   -3.8140861    822.37345  0.054346646  0.054427199            5 
 1262000   0.75348749   -3.8198781    823.65466  0.054388184  0.054399004            5 
 1263000   0.74063318   -3.8143387    822.87879  0.054293929  0.054370841            6 
 1264000   0.73937022   -3.8176951    824.18586  0.054337148  0.054342557            3 
 1265000   0.75699071    -3.839711    824.82456  0.054336269  0.054314308            7 
 1266000   0.75260663   -3.8053267    827.26974  0.054454301  0.054286126            5 
 1267000    0.7407995   -3.8241205    824.32083  0.054217366  0.054258041           12 
 1268000   0.75594592   -3.8392607    827.69321  0.054396241  0.054229955           11 
 1269000   0.76141768    -3.828794     827.4835  0.054339605  0.054201769            3 
 1270000    0.7471122    -3.823797    827.26894  0.054282739  0.054173612           14 
 1271000   0.74450335   -3.8342334    826.98448  0.054221379  0.054145202            2 
 1272000    0.7496108   -3.8372437    826.93948  0.054175804  0.054117259           21 
 1273000   0.74032968   -3.8311345    827.44991  0.054166661    0.0540894            5 
 1274000   0.75338678   -3.8358167    828.38945    0.0541856  0.054061415            6 
 1275000   0.76051486   -3.8540716    827.81614   0.05410563  0.054033501            3 
 1276000   0.75413536   -3.8193408    829.20285  0.054153791  0.054005464            3 
 1277000   0.75565481   -3.8337542    830.29939  0.054182941  0.053977561            4 
 1278000   0.73393202    -3.853479    829.96957  0.054119038  0.053949752           10 
 1279000   0.74278347    -3.843957    826.75916   0.05386755  0.053921972            3 
 1280000   0.74371828   -3.8323244    831.29744  0.054120927  0.053894484            5 
 1281000   0.74125694   -3.8133296    832.83747  0.054178862  0.053867073            7 
 1282000   0.74064106   -3.8582612    831.51599  0.054050701  0.053839737            2 
 1283000   0.73550822   -3.8251379    833.81791  0.054158087  0.053812633            4 
 1284000   0.74169361   -3.8453071    832.31336  0.054018261  0.053785387            5 
 1285000   0.72914542   -3.8215289    832.82499  0.054009403  0.053758442            4 
 1286000   0.72995928   -3.8299909    833.79976   0.05403057  0.053731172            4 
 1287000   0.74553235   -3.8549883    830.60606  0.053781796  0.053703813            5 
 1288000   0.75426339    -3.834702    831.94034  0.053826368  0.053676609            5 
 1289000   0.74537611   -3.8538437    835.05049  0.053985679  0.053649802           12 
 1290000   0.74183287   -3.7981177    836.03088  0.054007163  0.053623089            6 
 1291000   0.74058235   -3.8697672     834.1869  0.053846302  0.053596033            6 
 1292000   0.72261534   -3.8463964     831.5416  0.053634004  0.053569144            4 
 1293000   0.75258604   -3.8439927    834.52512   0.05378481  0.053541839            6 
 1294000   0.72720532   -3.8592615    834.63601  0.053750387  0.053514429            3 
 1295000   0.73044585   -3.8628483    834.79749  0.053719272  0.053487341            7 
 1296000   0.73607221   -3.8492956    834.59487  0.053664794  0.053460254            3 
 1297000   0.74263721   -3.8343794    835.65218  0.053691351  0.053433161            6 
 1298000   0.73502883   -3.8518943    835.81815  0.053660641  0.053405979            7 
 1299000   0.73093602   -3.8389224    837.12908  0.053703431  0.053378864            4 
 1300000    0.7449067   -3.8295075    836.77711  0.053639559  0.053351991            9 
 1301000   0.71952104   -3.8398276    834.07382  0.053425174  0.053324798            3 
 1302000   0.74207183   -3.8489992    834.54714  0.053414435  0.053297782            7 
 1303000   0.73240661   -3.8315064    837.21799  0.053544256  0.053270687            7 
 1304000   0.73860148   -3.8649135    836.43885  0.053453403  0.053243671            5 
 1305000   0.72028434   -3.8784533    835.53836   0.05335494  0.053216167            4 
 1306000   0.72930029   -3.8659664    836.87423  0.053399326  0.053188714            6 
 1307000   0.72929377   -3.8617707    838.66572  0.053472693  0.053161218            5 
 1308000   0.73759788   -3.8446162    835.18215  0.053209872     0.053134            6 
 1309000   0.73051337   -3.8672192    839.42983  0.053439638  0.053106747           13 
 1310000   0.72963775   -3.8536369    836.57307  0.053217116  0.053079335            9 
 1311000   0.72123894   -3.8684585    836.54872  0.053174976  0.053051898            4 
 1312000   0.71389111   -3.8561543    837.64379  0.053204001   0.05302433            4 
 1313000   0.71816007   -3.8624293    835.63113  0.053035741   0.05299659            6 
 1314000   0.73680012   -3.8864486    837.81755   0.05313404    0.0529688            7 
 1315000   0.72076809   -3.8665448    839.14223  0.053177581  0.052940979            5 
 1316000   0.73721196   -3.8482535    838.96239  0.053125784  0.052913493            5 
 1317000   0.72911565   -3.8743504    838.78871  0.053074456  0.052885959            5 
 1318000   0.73736957   -3.8735635    834.49987  0.052763017  0.052858346            4 
 1319000   0.73091395   -3.8620702    838.73113  0.052990342  0.052830543           11 
 1320000   0.71229713   -3.8798249    839.28559  0.052985201  0.052802866            6 
 1321000   0.72418828   -3.8765263    838.30359  0.052883144  0.052775115            6 
 1322000   0.71967462   -3.8479257    838.85364  0.052877814  0.052747299            5 
 1323000   0.72513773   -3.8656216    839.34059  0.052868518  0.052719739            6 
 1324000   0.72190754   -3.8857382    837.46079  0.052710271  0.052691854           13 
 1325000   0.72523486   -3.8562382    842.96242  0.053016504  0.052664163            3 
 1326000    0.7245039   -3.8801428    840.69974  0.052834322   0.05263653            6 
 1327000   0.73140697   -3.8791901    838.46481  0.052654158  0.052608792           11 
 1328000   0.71594211   -3.8766589    839.08779  0.052653601  0.052581116            5 
 1329000   0.72655667   -3.8922443    838.20715  0.052558763   0.05255301            8 
 1330000   0.71739576   -3.8704051    840.52683  0.052664588  0.052525152            6 
 1331000   0.73293985   -3.8824091    839.53365  0.052562838  0.052497339            9 
 1332000   0.73552455   -3.8790047    841.44777  0.052643129  0.052469669            4 
 1333000   0.72433675   -3.8526651    840.88626  0.052568534  0.052441714            8 
 1334000   0.71618945   -3.8613113     842.0308  0.052600624   0.05241406            3 
 1335000   0.72886494   -3.8867753    839.71523  0.052416681   0.05238644            5 
 1336000   0.74162391   -3.8906637    841.89143  0.052513188  0.052358879            4 
 1337000   0.71494467   -3.8858463    843.84913  0.052595932  0.052331162            4 
 1338000   0.71393549   -3.8974946    841.57502  0.052414986  0.052303562            4 
 1339000   0.70866422   -3.8529106    841.66595    0.0523815  0.052275822           11 
 1340000   0.71979697   -3.8764776    845.06606  0.052553859  0.052248206            2 
 1341000   0.72264184   -3.8852516    845.87607  0.052565005  0.052220789           14 
 1342000   0.72411315   -3.8823615    843.31302   0.05236668  0.052193342            9 
 1343000   0.72349689   -3.8729848     843.7273  0.052353394  0.052166094            5 
 1344000   0.74031748     -3.89169    845.28238  0.052410862  0.052138803            5 
 1345000   0.71100771   -3.8594825    846.29936  0.052434905   0.05211172            5 
 1346000   0.71791142   -3.8917999    844.95938  0.052312988  0.052084517            2 
 1347000   0.72397449   -3.8859867    845.20823  0.052289546  0.052057165            8 
 1348000   0.70340575   -3.8954883    843.79908  0.052163643  0.052029888            5 
 1349000   0.70871692   -3.8824435    844.17933  0.052148464  0.052002252            4 
 1350000   0.72448992    -3.877152    844.01089  0.052099438  0.051974432            7 
 1351000   0.71731564   -3.8882032    846.09302  0.052189306  0.051946817            5 
 1352000   0.71249139   -3.8714412    847.43141  0.052233198  0.051919334           11 
 1353000   0.71654362   -3.8864001    843.24543  0.051936772    0.0518918            7 
 1354000   0.70540725   -3.8839254    847.32953  0.052149774  0.051864065            4 
 1355000   0.70184161   -3.8536667    844.80423   0.05195598   0.05183644            7 
 1356000   0.69434026   -3.8975044     845.0167  0.051930721  0.051809056            4 
 1357000   0.72853984   -3.8878371    847.08316  0.052019354  0.051781603            3 
 1358000   0.70719536   -3.9141275    845.50224  0.051884035  0.051754068            8 
 1359000   0.71015288   -3.8945775    846.40612  0.051901283  0.051726603            6 
 1360000    0.7213421   -3.8974996    847.33917  0.051920292  0.051699088            9 
 1361000    0.7042456   -3.8913937    847.33496  0.051881886  0.051671682            5 
 1362000   0.71644077   -3.9071415    844.32828  0.051659831  0.051644007            6 
 1363000   0.71433585   -3.8917305    845.97263  0.051722465  0.051615922            7 
 1364000   0.70476594   -3.8774181    848.65221  0.051848253  0.051588314            4 
 1365000   0.69527854   -3.9081212     847.8719  0.051762631   0.05156064            4 
 1366000   0.71050488   -3.9145622    847.37652  0.051694517  0.051532648            5 
 1367000   0.70271589   -3.8977823     844.3523  0.051472342  0.051504619            3 
 1368000   0.72531928   -3.9101487    844.68983  0.051455277  0.051476639            7 
 1369000    0.7179938   -3.8890171     848.3653  0.051641423  0.051448799            5 
 1370000   0.70995483   -3.9050773    847.06857  0.051524852  0.051420926            6 
 1371000   0.70594703   -3.8955336    847.73459  0.051527753  0.051393077            7 
 1372000    0.7008708   -3.8926694    847.82723  0.051495823  0.051365349            9 
 1373000   0.69594264   -3.9252243     850.5094   0.05162111  0.051337497            8 
 1374000   0.71424792   -3.8840214     849.3614  0.051513913  0.051309579            4 
 1375000   0.70970615   -3.9222064    846.09376   0.05127841  0.051281774            5 
 1376000   0.71764901   -3.8702556    850.16461  0.051487682   0.05125389            6 
 1377000   0.67791203   -3.8984695    848.98264  0.051378761  0.051226114            6 
 1378000    0.6973842   -3.9084171    850.31359  0.051421963  0.051198356            8 
 1379000   0.70078985   -3.8921502    851.36455  0.051448184  0.051170669            8 
 1380000   0.69720199   -3.8919926    850.27799  0.051345289  0.051142896            4 
 1381000   0.70104318   -3.9202677    849.76158  0.051276948  0.051115153           10 
 1382000   0.70763591   -3.9164367     849.0416   0.05119643  0.051087625            3 
 1383000   0.69182099   -3.9085279    849.43926  0.051183373  0.051059865            6 
 1384000   0.68604997    -3.910808    849.81273  0.051168878  0.051032151            5 
 1385000   0.70565349   -3.8996164    849.96833  0.051141295  0.051004295            7 
 1386000   0.69480488   -3.9021404    853.71801  0.051329847  0.050976716            4 
 1387000   0.69661262   -3.8988147    850.47209  0.051097818   0.05094888            3 
 1388000   0.70172348   -3.9395985    851.10305  0.051098886  0.050921191            7 
 1389000   0.71216238   -3.9415486     849.7462  0.050980694  0.050893577            7 
 1390000   0.67716396   -3.8958725    852.32915   0.05109887  0.050865857            7 
 1391000   0.68479314   -3.9045082    848.91291  0.050857471  0.050838233            3 
 1392000   0.69957303   -3.9117132     852.8366  0.051055831  0.050810618           13 
 1393000   0.70289524   -3.9011522     853.8334  0.051078811  0.050783021            6 
 1394000   0.70310058    -3.920978    851.46293  0.050900462  0.050755499            5 
 1395000   0.69604854   -3.9352738    852.90054  0.050949853  0.050727769            6 
 1396000   0.69076777   -3.9099041    853.23579  0.050933369  0.050700316            4 
 1397000   0.69907788   -3.9090275    853.76179  0.050928286  0.050672751            6 
 1398000    0.6923099   -3.9166494    853.30031  0.050864348  0.050645048           11 
 1399000   0.69555185    -3.918356    854.39355  0.050893111  0.050617386            7 
 1400000    0.6956666   -3.9070084    852.66807  0.050754052  0.050589928            5 
 1401000   0.69746306   -3.9353728    851.97195  0.050676419  0.050562086            6 
 1402000   0.68555849   -3.9018748    851.06782  0.050586532  0.050534311            7 
 1403000   0.68850507   -3.9110961    855.20835  0.050796409  0.050506522           11 
 1404000   0.70652864   -3.9243211    853.29519  0.050646676  0.050478851            7 
 1405000   0.68993619   -3.9270934    855.22368  0.050725011  0.050451123            6 
 1406000   0.68603541   -3.9236397    854.00211  0.050616531  0.050423766            5 
 1407000   0.68901055   -3.9138508    853.61428  0.050557586  0.050396033            5 
 1408000   0.69008303   -3.9224224     853.7746  0.050531167  0.050368516            5 
 1409000   0.68836949   -3.9271695    853.86277  0.050500519   0.05034077            4 
 1410000   0.69419257   -3.9153739    857.15115  0.050659052  0.050313145           13 
 1411000   0.68183213   -3.9314239    855.93688  0.050551434   0.05028576            5 
 1412000   0.70001254   -3.9291866    854.71421  0.050443473  0.050258169            5 
 1413000   0.67533611   -3.9353379    854.35383   0.05038652  0.050230623            4 
 1414000    0.6804437   -3.9111736    856.59117  0.050482742  0.050202854            7 
 1415000   0.68534692   -3.9269226    856.44461  0.050438434  0.050175207            8 
 1416000   0.70370617   -3.9374674    857.94599  0.050491172  0.050147689            6 
 1417000   0.70509446   -3.9394909    853.12538   0.05017204  0.050119941            6 
 1418000   0.68448581   -3.9343011    855.68899  0.050287317   0.05009227            9 
 1419000   0.67581652   -3.9222489    854.66085  0.050191499  0.050064536            6 
 1420000   0.68444224   -3.9122234    856.61276  0.050270702  0.050036913            6 
 1421000   0.68066466   -3.9151396    855.11107  0.050147259  0.050009381            9 
 1422000   0.67807713   -3.9228153    854.39651  0.050070119  0.049981767           10 
 1423000   0.69217819   -3.9422383    854.77391  0.050057034  0.049953858            6 
 1424000   0.67559812   -3.9656642    851.24835  0.049815563  0.049925923            4 
 1425000   0.68018522    -3.949427     854.8611  0.049991877  0.049897854           10 
 1426000   0.67452941   -3.9294111    856.26482  0.050038851  0.049869818            6 
 1427000   0.68780534    -3.960114    852.03144  0.049756566  0.049841898            6 
 1428000   0.67599324   -3.9624814    854.11546  0.049843339  0.049813645            4 
 1429000   0.67916987   -3.9530436    855.59701  0.049894857  0.049785398            5 
 1430000   0.68921764   -3.9349021    854.76908  0.049811718  0.049757212           10 
 1431000   0.68713262   -3.9425821    852.55622  0.049648045  0.049728675           11 
 1432000   0.67577505   -3.9577953    852.21123  0.049593298  0.049700164            8 
 1433000   0.68599409   -3.9303582    853.33107  0.049623812  0.049671858            7 
 1434000   0.68337536   -3.9530728     852.1289  0.049519346  0.049643306            4 
 1435000   0.69376876   -3.9608672    852.38398   0.04949965   0.04961472            8 
 1436000     0.679437   -3.9480219    855.48171  0.049644946  0.049586408            6 
 1437000   0.67735313   -3.9552994     856.4052  0.049663953  0.049557999            8 
 1438000   0.67933936   -3.9456989    855.72499  0.049589997  0.049529819            4 
 1439000   0.66652652   -3.9397433    854.10567   0.04946176  0.049501519            7 
 1440000   0.68804187   -3.9276665     855.3843  0.049501406  0.049473316            9 
 1441000    0.6779909   -3.9796095    853.59268  0.049363444  0.049444999            9 
 1442000   0.67736366   -3.9611434    856.28088  0.049484563  0.049416509            5 
 1443000   0.67253185   -3.9477468    854.94576  0.049373167  0.049388657            7 
 1444000    0.6753867    -3.941246    857.42684  0.049482159  0.049360652            7 
 1445000   0.65806696   -3.9769061    856.76183  0.049409563  0.049332326            8 
 1446000   0.67769071   -3.9436892     857.5733  0.049422159  0.049304019            8 
 1447000   0.67531469    -3.949849    858.11186   0.04941902  0.049275838            4 
 1448000   0.68377842   -3.9558418    856.30793  0.049281073  0.049247636            7 
 1449000   0.67835431    -3.942739     860.0677  0.049463291  0.049219419            6 
 1450000   0.68062516   -3.9940874    857.11553  0.049259513  0.049191211           12 
 1451000    0.6701226   -3.9880992    855.91556  0.049156648  0.049162947            5 
 1452000   0.67631873   -3.9499743    855.92958  0.049123599  0.049134901           11 
 1453000   0.68703834    -3.943936    855.81219  0.049083057   0.04910682            8 
 1454000   0.67197576   -3.9682049    855.32971  0.049021648  0.049078762            8 
 1455000   0.66583709   -3.9617296    857.54718  0.049114959  0.049050449           11 
 1456000   0.67799306   -3.9551625    859.23954  0.049178087  0.049022335            8 
 1457000   0.67893413    -3.956702    855.46843  0.048928645  0.048994054           15 
 1458000   0.67985126   -3.9707292    857.43957  0.049007749  0.048965698           13 
 1459000   0.66894563   -3.9712617    857.77218  0.048993156  0.048937115            6 
 1460000   0.67454888   -3.9581525    858.38471  0.048994561  0.048908723            5 
 1461000   0.67075666   -3.9574943    858.09662  0.048944594  0.048880202            7 
 1462000   0.66006743   -3.9758779    858.25848  0.048920342  0.048851669            7 
 1463000   0.67275263   -3.9776073     857.9745  0.048870728  0.048823548            6 
 1464000   0.67701126   -3.9701722    857.02035  0.048783035  0.048795361            5 
 1465000   0.68037132   -3.9807794    854.50816  0.048606835  0.048766868           26 
 1466000   0.67522192   -3.9709503    857.07318  0.048719485  0.048738266            5 
 1467000    0.6664271   -4.0004554    857.49431  0.048710197  0.048709806            6 
 1468000   0.65010598   -3.9777379    857.64325   0.04868547   0.04868126            8 
 1469000   0.65569372   -3.9840142    856.54932  0.048590273  0.048652781           11 
 1470000   0.67335692   -3.9845491    859.70332  0.048736016  0.048624334           10 
 1471000   0.66332483   -3.9641693    859.12853  0.048670322  0.048595983            9 
 1472000   0.68065778   -3.9631514    858.18569  0.048583882  0.048567657           18 
 1473000     0.663618   -3.9796871    858.26016  0.048555112  0.048539172            8 
 1474000   0.66051746   -3.9972239    854.84912  0.048329326  0.048510712            9 
 1475000   0.67695253   -3.9595684    860.74249  0.048629519  0.048482358           11 
 1476000   0.64765719   -3.9696226    855.74915  0.048314654  0.048454139           13 
 1477000   0.65238612   -3.9669253    859.70465  0.048505115  0.048425809            5 
 1478000   0.66792535   -4.0025671     856.9468  0.048316802  0.048397634           15 
 1479000   0.67293312   -3.9946118    860.27396    0.0484716  0.048369356           13 
 1480000   0.67311967    -3.966831    860.08563  0.048428245  0.048341145            5 
 1481000   0.66217718   -3.9818058    861.81332  0.048492759  0.048313009            5 
 1482000   0.67181454   -3.9779978    860.09307  0.048363308   0.04828494           11 
 1483000   0.65148822   -3.9735874    859.89685   0.04831967  0.048256891            4 
 1484000   0.66292929   -3.9663233    857.80641  0.048169722  0.048228833            8 
 1485000   0.66193332   -3.9866076    860.25164  0.048274503  0.048200619            7 
 1486000   0.66113163   -4.0014493    859.10093  0.048177486   0.04817262           14 
 1487000   0.65183976   -3.9652164    863.06381  0.048367172   0.04814441            5 
 1488000   0.66657371   -3.9759274     860.5984  0.048196595   0.04811625            4 
 1489000   0.66397037    -3.998341    860.49149  0.048158243   0.04808809            8 
 1490000   0.65394682   -3.9832991    860.02603   0.04809989  0.048059978            8 
 1491000   0.64765717   -3.9779596    860.89767  0.048116346  0.048031776            9 
 1492000   0.64929554   -3.9832706    857.32501  0.047884552  0.048003542            3 
 1493000     0.653604   -3.9780592    860.09267  0.048006959  0.047975211            6 
 1494000   0.65736846   -3.9938583    858.11032  0.047864252  0.047946771            9 
 1495000   0.65167021   -3.9916646    861.51664  0.048022109  0.047918488            7 
 1496000   0.64473695    -3.996442    860.52623  0.047934839   0.04789022           10 
 1497000   0.64786264   -3.9863344     859.1451  0.047825935  0.047862083           10 
 1498000   0.66474221   -3.9934006    862.72278  0.047993034  0.047834121            7 
 1499000   0.65461929   -3.9809184    862.38243  0.047942096  0.047806121            5 
 1500000   0.66192625   -3.9686729    864.22964  0.048012758  0.047778277           14 
 1501000   0.66374901   -3.9843149    863.61343   0.04794656  0.047750289            9 
 1502000   0.65881961   -4.0104954    861.46713  0.047795558  0.047722347            5 
 1503000   0.64312966   -4.0065306    865.04496  0.047962129   0.04769438            9 
 1504000   0.65343943   -3.9757458    864.67459  0.047909718  0.047666603            6 
 1505000   0.65786808   -4.0255379    863.25388  0.047799218  0.047638747            5 
 1506000   0.65204372   -3.9948477     861.0403  0.047644992  0.047610561           17 
 1507000   0.63814942   -4.0010299    861.32665  0.047629211  0.047582653            6 
 1508000   0.64924612   -3.9928256    862.71089  0.047674121   0.04755493            4 
 1509000   0.65029077   -4.0242711    866.61703  0.047858241  0.047527151            5 
 1510000    0.6627189   -4.0024153    863.09405  0.047632122  0.047499215            7 
 1511000   0.63564996   -4.0176301     862.3206  0.047557942  0.047471452            5 
 1512000   0.64476202   -3.9789631    865.73804  0.047714839   0.04744352            9 
 1513000   0.65614816   -3.9870955    862.58342  0.047509552  0.047415719           17 
 1514000   0.64060368   -3.9909796    864.33934   0.04757482  0.047387984            6 
 1515000   0.65087091   -4.0000714    864.52686  0.047553733  0.047360426            3 
 1516000   0.63580294   -4.0127971     864.0006  0.047493436  0.047332665            9 
 1517000   0.64438211   -4.0305093    862.12575  0.047359138  0.047304916           11 
 1518000    0.6521186   -4.0162111    863.56324  0.047406853  0.047277228            9 
 1519000     0.648761   -4.0166169    864.82117  0.047444655  0.047249502            8 
 1520000   0.64396091   -4.0166026    863.60094  0.047346543  0.047221722           12 
 1521000   0.64524104   -3.9952081    865.02347  0.047393352  0.047194039            8 
 1522000   0.64541945   -4.0236795     865.4174  0.047383782   0.04716662            7 
 1523000   0.64627556    -4.009566    865.16547  0.047338885  0.047138901           13 
 1524000   0.63034161   -4.0065148    865.09967  0.047304225  0.047111278            8 
 1525000   0.65277984    -4.016325    865.63425  0.047302418  0.047083802           15 
 1526000    0.6460586   -4.0316235    866.07074  0.047295256  0.047056099            8 
 1527000   0.63613733   -4.0101722    863.46506  0.047122084  0.047028444            7 
 1528000    0.6474912    -4.005218    865.49877  0.047202158  0.047000767            9 
 1529000   0.64914264   -4.0120888    863.30545  0.047051747  0.046972968           21 
 1530000   0.63715941    -4.013939    865.72864  0.047152976    0.0469454            9 
 1531000   0.64458169   -4.0117647    868.16091  0.047254567  0.046917741            7 
 1532000   0.64366757    -3.994412    867.67233  0.047197146  0.046890324           12 
 1533000   0.63620165   -4.0277273    865.14422  0.047028932  0.046862632            6 
 1534000   0.63196175   -4.0369373    866.90508  0.047093931  0.046834888            7 
 1535000   0.65171411   -4.0257159    866.25386  0.047027897  0.046807322            7 
 1536000   0.63006097   -4.0213419    867.94864  0.047089228  0.046779793            8 
 1537000   0.63936267   -4.0254037    867.08203  0.047011604  0.046752273           18 
 1538000   0.64661427   -3.9830646     866.2903  0.046938139   0.04672489            9 
 1539000    0.6377256    -4.029504    867.62042  0.046979663  0.046697498            8 
 1540000   0.63497738   -4.0214243    868.53103  0.046998432  0.046670093            9 
 1541000   0.63758002   -4.0372409    868.37264  0.046959368   0.04664263            4 
 1542000   0.64031182   -4.0121494    867.93531   0.04690528  0.046615108            4 
 1543000   0.63730754   -4.0255037    867.78436  0.046866729   0.04658764            6 
 1544000    0.6440242   -4.0516559    868.81585  0.046892047  0.046560003           33 
 1545000   0.63840303   -4.0282249    869.32217  0.046889006  0.046532585            5 
 1546000   0.64646214   -4.0548492    866.17015  0.046688775  0.046505105           13 
 1547000   0.64599976    -4.019259    866.95022  0.046700615   0.04647756            4 
 1548000   0.63363241   -4.0090685    867.71506   0.04671162   0.04645014            6 
 1549000   0.63257384    -4.006151    868.50814  0.046724131  0.046422812            7 
 1550000   0.64288174   -4.0508584    867.37902  0.046633281   0.04639527           13 
 1551000   0.63762528   -4.0196549    867.96139  0.046634504  0.046367947           13 
 1552000   0.63006224   -4.0536097    868.57234  0.046637261  0.046340534           11 
 1553000   0.64376564   -4.0220359    869.56539  0.046660517  0.046313114            8 
 1554000    0.6316567   -4.0245672    870.77645  0.046695434  0.046285966           13 
 1555000   0.63342461   -4.0405957    868.38328  0.046537153  0.046259002            5 
 1556000   0.63475255   -4.0385599    869.23315  0.046552761  0.046231726           12 
 1557000     0.632132   -4.0296582    868.70382  0.046494531  0.046204735            7 
 1558000   0.63356998   -4.0476052    871.75902  0.046628103  0.046177681            7 
 1559000   0.63930114   -4.0396247    872.09566  0.046616189  0.046150618           12 
 1560000   0.64342097   -4.0376152    870.50885  0.046501541  0.046123358            7 
 1561000   0.63593241   -4.0434725    867.60526  0.046316745  0.046096297           18 
 1562000   0.62780148   -4.0387617     869.8885  0.046408904  0.046069236            9 
 1563000   0.63802566   -4.0453385    869.87152  0.046378307  0.046042135            9 
 1564000   0.61421798   -4.0368367    870.49586  0.046381919  0.046015097           15 
 1565000   0.63342729   -4.0348437      871.996  0.046432162   0.04598816           10 
 1566000   0.62325344   -4.0343125    871.08941  0.046354269  0.045961278            9 
 1567000   0.63115844   -4.0154064    870.94622  0.046317072  0.045934404            5 
 1568000   0.62051588   -4.0454921    871.79331  0.046332552   0.04590771           22 
 1569000   0.63921668   -4.0428241    870.47446  0.046232975  0.045880859           13 
 1570000   0.62773145   -4.0564431    870.13521  0.046185521  0.045853896            9 
 1571000   0.64924785   -4.0471101    870.38957  0.046169615  0.045827157           10 
 1572000   0.61986656   -4.0495946    873.24572  0.046291652  0.045800468            4 
 1573000   0.62747576   -4.0471807    870.39782  0.046111349  0.045773807            8 
 1574000   0.63145848   -4.0470951     872.2315  0.046179135  0.045747082           12 
 1575000   0.61657758   -4.0631226    871.35075  0.046103214   0.04572031            8 
 1576000   0.62336334   -4.0630677    873.72032  0.046199255  0.045693534            9 
 1577000    0.6138577    -4.057823    873.60531  0.046163883  0.045666735            6 
 1578000   0.62143483   -4.0495177    872.19051  0.046059913  0.045639971            7 
 1579000   0.62277405   -4.0605344    870.50997   0.04594205  0.045613054           11 
 1580000   0.62938672   -4.0376741    873.08458  0.046048765  0.045586234            5 
 1581000   0.61511446   -4.0722075    869.42389  0.045826686  0.045559433            5 
 1582000   0.61919944    -4.057783    869.01489  0.045776174  0.045532409           11 
 1583000   0.61278386   -4.0491487    872.41922   0.04592647  0.045505419            5 
 1584000   0.62829905   -4.0427012    870.12084  0.045776559  0.045478574            9 
 1585000   0.60646497   -4.0541449    871.98698  0.045845793  0.045451726            9 
 1586000   0.61121986   -4.0509756    871.47037  0.045789742  0.045424858            5 
 1587000   0.62074262   -4.0514414    875.16477  0.045954882  0.045398014            7 
 1588000   0.60972559   -4.0532424    872.48367  0.045785247  0.045371392            8 
 1589000   0.63003555   -4.0632727    873.68918  0.045819655  0.045344682           12 
 1590000   0.62069734   -4.0541452    871.88123  0.045696081  0.045317846            7 
 1591000   0.62946464   -4.0569001    872.49686  0.045699605  0.045291132           12 
 1592000   0.61267898   -4.0542761    871.50026  0.045618732  0.045264283            7 
 1593000   0.62598461   -4.0607043    872.40532  0.045637441  0.045237328            6 
 1594000    0.6063172   -4.0585291    872.45678  0.045611501  0.045210487            9 
 1595000   0.61640413   -4.0708295     872.7055  0.045595899  0.045183529            5 
 1596000   0.60378686   -4.0636357    873.24496  0.045595497   0.04515666            6 
 1597000   0.60817595   -4.0594452    872.34146  0.045519801  0.045129726           14 
 1598000   0.62163661   -4.0531847     874.5201  0.045604928  0.045102963           13 
 1599000   0.61164913   -4.0627516    873.25029   0.04551023  0.045076347            9 
 1600000   0.61863692   -4.0712317    871.80409  0.045406463  0.045049731            5 
 1601000   0.61782865    -4.078329    874.37724  0.045512036  0.045022978            7 
 1602000   0.60939751   -4.0767272     874.7223  0.045501576  0.044996289            9 
 1603000   0.62815101   -4.0752923    873.56663  0.045413112  0.044969759            5 
 1604000   0.63043577   -4.0472579    874.76712   0.04544717  0.044943163            7 
 1605000    0.6160349   -4.0809013    871.98795  0.045274556  0.044916634            8 
 1606000    0.6240416   -4.0671789    873.28266  0.045313546  0.044889972            5 
 1607000   0.61556484   -4.0826406    873.77394  0.045310824  0.044863213            7 
 1608000    0.6080066   -4.0770538    871.31941  0.045155442  0.044836489           12 
 1609000     0.608439   -4.0728257    871.67363  0.045145723  0.044809803           12 
 1610000   0.61353376   -4.0792293    873.59736  0.045217255  0.044783021            8 
 1611000   0.62194794   -4.0796504    872.67441  0.045141445   0.04475634            8 
 1612000   0.58683632   -4.0879159    874.40288  0.045202796  0.044729509           10 
 1613000   0.60886086   -4.0904495    872.68507  0.045086023  0.044702673           14 
 1614000   0.61148103   -4.0689412    872.63369  0.045055436  0.044676054            8 
 1615000   0.60540212   -4.0932409    874.12173   0.04510432  0.044649361            7 
 1616000   0.60642341   -4.0883438    873.40464   0.04503943  0.044622601           15 
 1617000   0.60554724   -4.0858528    872.66233  0.044973321  0.044595773           10 
 1618000    0.6170279   -4.0741198    874.54438  0.045042459  0.044569224           14 
 1619000   0.61175351   -4.1035963    873.37762  0.044954582  0.044542452           10 
 1620000   0.61505592   -4.0744959    875.21066  0.045021124  0.044515667            8 
 1621000   0.60365828   -4.0971895    874.02325  0.044932308  0.044489143           14 
 1622000   0.60518372   -4.0944236      873.146  0.044859535  0.044462537           13 
 1623000   0.61518295   -4.0688842    874.38474  0.044895499  0.044436087            6 
 1624000   0.61291733   -4.0904699    875.18335  0.044908834  0.044409633            9 
 1625000   0.60720937   -4.0865367    875.83708  0.044914722  0.044383149            6 
 1626000   0.61837571   -4.0860854    875.71477  0.044880831  0.044356678            4 
 1627000    0.6053876   -4.0651994    877.66988  0.044953384  0.044330366            6 
 1628000   0.60555871   -4.0765432    873.86043  0.044730776  0.044303967            9 
 1629000    0.6056502   -4.0807357    874.13172  0.044717194  0.044277384            5 
 1630000     0.599862   -4.0742248    874.06556  0.044686378  0.044250749            6 
 1631000   0.61125488   -4.1031782    873.09434  0.044609357  0.044224172            8 
 1632000   0.59616076   -4.1027404    871.98112   0.04452518  0.044197415            9 
 1633000   0.59158595   -4.0853082    874.47383  0.044625119  0.044170692            6 
 1634000   0.60355712   -4.0835334    874.70757  0.044609729  0.044143984           10 
 1635000    0.6066801   -4.1033403    874.59111  0.044576509  0.044117239            5 
 1636000   0.59923985   -4.0868753    872.71111    0.0444535  0.044090433           10 
 1637000   0.61080501   -4.0794086    875.76135  0.044581621  0.044063634           28 
 1638000   0.59864952   -4.0978691    873.99536  0.044464558  0.044036916            7 
 1639000   0.60017682   -4.1142329    873.97269  0.044436276  0.044010163           25 
 1640000   0.61072471   -4.1006771    873.93929  0.044407484  0.043983579            8 
 1641000   0.59390013   -4.1111212    876.27998  0.044499288  0.043957098            6 
 1642000   0.59368395   -4.1227086     874.9931  0.044406877   0.04393056           15 
 1643000   0.60086643   -4.0753011    876.78197  0.044470581  0.043904239           14 
 1644000   0.60118894   -4.1034298    875.57376  0.044382287  0.043877735            6 
 1645000    0.5800232   -4.1002516    874.37624  0.044294642  0.043851208           13 
 1646000      0.59069    -4.102617    875.53422  0.044326358  0.043824458            6 
 1647000   0.59275405   -4.0936628    873.71599  0.044207447  0.043797749            7 
 1648000   0.59776236    -4.094592    875.86195  0.044289136  0.043771146           11 
 1649000   0.59463268   -4.1094144    873.83373   0.04415978  0.043744447            7 
 1650000    0.6097144   -4.0984637    874.13032  0.044147996  0.043717733            7 
 1651000   0.60193811   -4.1050386    875.23848   0.04417719  0.043691108           15 
 1652000   0.58934483   -4.1149679    873.49447  0.044062473  0.043664479           10 
 1653000   0.57968579   -4.0964786    875.67422  0.044145706   0.04363789           10 
 1654000    0.5909774     -4.10893    875.64042  0.044117313  0.043611413           14 
 1655000   0.58385787   -4.1142319    873.28123  0.043971865   0.04358487            7 
 1656000   0.59124038   -4.1157977    876.26834  0.044095629  0.043558282           10 
 1657000   0.59114624   -4.1303513    873.93737  0.043951789  0.043531657            7 
 1658000   0.58873339   -4.1300845    873.97908  0.043927376  0.043505081            7 
 1659000    0.5859671   -4.1299673    874.03781  0.043903848  0.043478399            6 
 1660000   0.58299223   -4.1171623    877.72665  0.044062583  0.043451839            5 
 1661000    0.6122255   -4.1042013    876.44935  0.043971972  0.043425325            8 
 1662000   0.60187639   -4.1117362     876.5866  0.043952397  0.043398824           16 
 1663000   0.58012482   -4.1178325    875.10396  0.043851672  0.043372197           12 
 1664000   0.58040941   -4.1210226    873.92043  0.043766047  0.043345657           12 
 1665000   0.58832737   -4.0965291    874.74929  0.043781246  0.043319188            8 
 1666000   0.58774934   -4.1010406    876.53164   0.04384412  0.043292836           29 
 1667000   0.59918612   -4.1297341     873.1374   0.04364814  0.043266432           13 
 1668000   0.59371037   -4.1263151    873.17324  0.043623763  0.043239914            7 
 1669000   0.57810914   -4.1186588    876.66622   0.04377203   0.04321347           12 
 1670000   0.57615282   -4.1308985    876.94395  0.043759678  0.043186949            5 
 1671000    0.5839585    -4.131775    877.95147  0.043783736  0.043160514           11 
 1672000   0.58281884   -4.1189887    876.05161  0.043662859  0.043134042            9 
 1673000   0.58228383   -4.1327105    873.82069  0.043525637  0.043107432            8 
 1674000   0.58304922   -4.1033406    874.54251  0.043535569  0.043081051            8 
 1675000   0.59006178   -4.1300359    875.47625  0.043556032  0.043054665            5 
 1676000   0.58717153   -4.1138448    874.30103  0.043471611  0.043028264           12 
 1677000   0.59607193   -4.1256626    876.13338  0.043536741  0.043001824           12 
 1678000   0.57949746    -4.142702    874.61467  0.043435373  0.042975365           10 
 1679000    0.5806109   -4.1367505    875.78884   0.04346778  0.042948946           13 
 1680000   0.57457798    -4.141747    876.65519  0.043484881  0.042922643           11 
 1681000   0.58825116   -4.1460379    874.93505  0.043373739  0.042896252            8 
 1682000   0.56527282   -4.1335174     876.1489  0.043408091  0.042869711            6 
 1683000   0.58215036   -4.1278042     877.7306  0.043460616  0.042843525            9 
 1684000   0.58567093   -4.1086955    876.34133  0.043366059  0.042817283           11 
 1685000   0.57777476    -4.125667    875.80638  0.043313866  0.042791021            8 
 1686000   0.58662592   -4.1316356    873.52712   0.04317552  0.042764676            8 
 1687000   0.58609746   -4.1529809    874.40655  0.043193368  0.042738328           12 
 1688000   0.56690803   -4.1380922    876.31808  0.043262149  0.042711892           13 
 1689000    0.5709734   -4.1474923    875.38373  0.043190435  0.042685426           17 
 1690000   0.57372124   -4.1480518    874.48748  0.043120684  0.042659026           12 
 1691000   0.56918608   -4.1786475     875.8344  0.043161561   0.04263255            6 
 1692000   0.57696597   -4.1497171    874.94793  0.043092392  0.042606118           23 
 1693000   0.58821541    -4.125256    873.43203  0.042992323  0.042579705           10 
 1694000    0.5622617   -4.1140034    878.96467  0.043239112  0.042553576            9 
 1695000   0.57081242   -4.1451006    875.43392  0.043040016  0.042527461           12 
 1696000   0.58006381   -4.1476515    874.87179  0.042987018  0.042501182           19 
 1697000   0.58421347   -4.1619631    873.58511  0.042898503  0.042474937           15 
 1698000   0.57296857   -4.1511881    876.86406  0.043034161   0.04244867            7 
 1699000   0.57375664   -4.1371917    878.41462  0.043084884  0.042422562            5 
 1700000   0.56466388   -4.1318586    877.54634  0.043016977  0.042396534           11 
 1701000   0.56064392   -4.1490763    879.12076   0.04306882   0.04237043            7 
 1702000   0.56930093   -4.1265657    878.61372   0.04301869  0.042344518            5 
 1703000   0.57012782   -4.1405185    878.22013   0.04297417  0.042318633            8 
 1704000   0.57714527   -4.1443418     879.4601   0.04300959   0.04229267           17 
 1705000   0.56603284   -4.1517579    878.01332  0.042913652  0.042266754           14 
 1706000   0.57453646    -4.138669    875.47427  0.042764472   0.04224091            6 
 1707000   0.57401767   -4.1491114    876.96932  0.042812406  0.042214902           18 
 1708000   0.57160306   -4.1307669     879.6517  0.042918213  0.042189076            9 
 1709000   0.56547346   -4.1529943    877.85179  0.042805334  0.042163174           12 
 1710000   0.56968498   -4.1410554    877.46241  0.042761326  0.042137213            7 
 1711000   0.56856572   -4.1419377    877.81425   0.04275347  0.042111336            4 
 1712000   0.56467096   -4.1601887    878.45032  0.042759459  0.042085427           13 
 1713000   0.57836876   -4.1606052    878.72143  0.042747686  0.042059527            9 
 1714000    0.5674699   -4.1645713    877.24857  0.042651136   0.04203353            9 
 1715000   0.56629788    -4.143268    877.44279  0.042635704  0.042007667           12 
 1716000      0.55668   -4.1650451    878.12334  0.042643907   0.04198176           17 
 1717000   0.56947289   -4.1603357    876.63352  0.042546764  0.041955782            6 
 1718000   0.58230483   -4.1506517    879.00808  0.042637179  0.041929955           17 
 1719000   0.57411571   -4.1410288    878.96232  0.042610157  0.041904133            8 
 1720000   0.55512409   -4.1702921    878.73084  0.042574169  0.041878232            9 
 1721000    0.5654101   -4.1705363    876.75256  0.042453639   0.04185229           32 
 1722000   0.55892414   -4.1667089    878.88766   0.04253231  0.041826365           47 
 1723000   0.56926862   -4.1797401    876.94661  0.042413746  0.041800389           15 
 1724000   0.55154197   -4.1610433     879.5117  0.042513133  0.041774574           10 
 1725000   0.56152683    -4.155178    881.23088   0.04257154  0.041748763           19 
 1726000   0.55670866   -4.1517932    878.76271  0.042427709  0.041723017           10 
 1727000   0.55120316   -4.1781199    879.65146  0.042446027  0.041697259           18 
 1728000   0.56489875    -4.158332    880.66328  0.042470258   0.04167159            9 
 1729000   0.55665914   -4.1506219    877.62993  0.042299495  0.041645956           11 
 1730000   0.55958857   -4.1676667    879.38383  0.042359529  0.041620086            9 
 1731000   0.56357526   -4.1643965    878.02093  0.042269446   0.04159439           12 
 1732000   0.55647689   -4.1686612    877.64059  0.042226741  0.041568634           13 
 1733000    0.5568426   -4.1717993    879.23059  0.042278832  0.041543079           16 
 1734000   0.55641896   -4.1603907    880.84141  0.042331863  0.041517483            9 
 1735000   0.56060968   -4.1779499     881.1669  0.042323098  0.041491851            7 
 1736000   0.55725837    -4.179314     880.5878   0.04227092  0.041466205           10 
 1737000   0.56327995   -4.1729779     879.5482  0.042196709  0.041440728            7 
 1738000   0.54430046   -4.1588287    881.01695  0.042242854  0.041415317           10 
 1739000   0.54834437    -4.181345    878.30035  0.042088382  0.041389923           10 
 1740000   0.57424725   -4.1903035    879.22576  0.042108514   0.04136439            7 
 1741000   0.56041707    -4.175927    879.08361  0.042077523  0.041338897            8 
 1742000    0.5579816   -4.1555672    880.13853  0.042103833  0.041313363            9 
 1743000   0.55052113   -4.1957238    878.64711  0.042008372  0.041287788            8 
 1744000   0.55209883   -4.1700823    879.13551  0.042007622  0.041262284           11 
 1745000   0.55822843   -4.1937125    878.70529  0.041963003  0.041236817           19 
 1746000   0.55751047   -4.1861714    879.47034  0.041975484  0.041211349           22 
 1747000   0.55430084   -4.1746655    878.19555  0.041890648  0.041185907           14 
 1748000   0.56454722   -4.1810592    878.20094  0.041866941  0.041160582           21 
 1749000   0.54670466    -4.175298     879.5014  0.041904965  0.041135056           10 
 1750000   0.54680758   -4.1881095    878.77847  0.041846594  0.041109635            9 
 1751000   0.55637945   -4.1841942    879.09271  0.041837651  0.041084217           15 
 1752000   0.54609251   -4.1631595    881.29245  0.041918401  0.041058789            7 
 1753000   0.55410933    -4.182675    879.13074  0.041791725  0.041033451           35 
 1754000   0.55587318   -4.2024672    881.85217  0.041897196  0.041008031           11 
 1755000    0.5518865   -4.1756307    879.56715  0.041764822  0.040982657           24 
 1756000   0.55968727   -4.1678324     877.3498  0.041635811  0.040957332           11 
 1757000   0.54846289   -4.1997133    878.67623  0.041675025  0.040932071           22 
 1758000   0.55503362   -4.1851381    879.38669  0.041684997  0.040906706            7 
 1759000   0.56034487   -4.1971465    878.69722  0.041628635   0.04088128           17 
 1760000   0.54406041   -4.1962452    879.46142  0.041641166  0.040855922           14 
 1761000   0.54164801   -4.1906126    878.96146  0.041593861  0.040830573           12 
 1762000   0.53886012     -4.19303    879.50854  0.041596128  0.040805165            7 
 1763000   0.54935091   -4.1794798    878.77676  0.041537945  0.040779825           14 
 1764000   0.54374034   -4.1892454    881.21454  0.041629561  0.040754552           11 
 1765000   0.53876101   -4.1787345    878.69761  0.041487139  0.040729335           14 
 1766000    0.5457384   -4.2024995    878.72835  0.041465098  0.040703908            8 
 1767000   0.55581555   -4.1806412    879.72488  0.041488628  0.040678575           13 
 1768000   0.53991761   -4.1962429    878.08237  0.041387744  0.040653195           19 
 1769000   0.55734721   -4.2046824    877.69153  0.041345936  0.040627682           17 
 1770000   0.54642346   -4.2090397    878.54403  0.041362713   0.04060218           13 
 1771000   0.55207294   -4.2048062    878.72749  0.041347991  0.040576777           20 
 1772000   0.55182813   -4.2299954    877.90966  0.041286195  0.040551315           13 
 1773000   0.56004905   -4.2119065    876.99633  0.041219982  0.040525847           14 
 1774000   0.55571231   -4.2176561    877.16073  0.041204469   0.04050046           31 
 1775000   0.54221119   -4.2092991    877.98341  0.041219878  0.040474997           11 
 1776000   0.53746326   -4.2071153    880.90075  0.041333556  0.040449718           17 
 1777000   0.53687254    -4.197948    878.34619  0.041190499  0.040424329           17 
 1778000    0.5366636   -4.2016071    879.77751  0.041234417  0.040399026           26 
 1779000   0.54715435   -4.2133264    879.23066  0.041185622  0.040373694            9 
 1780000   0.53963657   -4.2151509    876.50601  0.041034926  0.040348451           27 
 1781000   0.54733274   -4.2062259    878.77689   0.04111814  0.040323179           12 
 1782000   0.54314702   -4.1961115    879.88624  0.041146944  0.040297884           13 
 1783000   0.55414587    -4.211456    876.84904  0.040981914    0.0402726           10 
 1784000   0.56223169   -4.2072545    881.29654  0.041166692   0.04024746           14 
 1785000   0.56075793   -4.2144266    880.35472   0.04109966  0.040222393           13 
 1786000   0.53383364   -4.2061716     878.6682  0.040997956  0.040197285           34 
 1787000   0.54431406   -4.2212585    879.37157  0.041007814  0.040172191           29 
 1788000    0.5402557   -4.1958173    877.94049  0.040918181  0.040146998           19 
 1789000   0.53544572   -4.2016573    880.06223  0.040994141   0.04012172           10 
 1790000   0.54485928   -4.2271333    879.66404  0.040952702  0.040096553           34 
 1791000   0.52549697   -4.2246475    879.63154  0.040928324  0.040071367           15 
 1792000   0.54422116   -4.2317036    878.18284  0.040838116   0.04004612            8 
 1793000   0.54210315   -4.2249326    878.95092  0.040851038  0.040020957           12 
 1794000   0.53855708   -4.2300188    877.50823  0.040761252  0.039995833           14 
 1795000   0.54300419   -4.2010808    877.88717  0.040756136  0.039970712           14 
 1796000   0.53868026   -4.2058777    879.70435  0.040817759  0.039945654           11 
 1797000   0.54232947    -4.219251    878.77002  0.040751717   0.03992057           16 
 1798000   0.53752652   -4.2204662    879.56007  0.040765669  0.039895493            4 
 1799000   0.53498271   -4.2317793    879.77243  0.040752845  0.039870443           10 
 1800000   0.53514634   -4.2263828    881.94325  0.040830706  0.039845417           21 
 1801000   0.53300587   -4.2319399    880.90673  0.040760075  0.039820468           17 
 1802000   0.53961281   -4.2044276     881.8794  0.040782436  0.039795607           11 
 1803000   0.54371952   -4.2173797    879.53624  0.040651518  0.039770802            6 
 1804000   0.54006326   -4.2290411    880.15954  0.040657776  0.039745944           11 
 1805000   0.53906138   -4.2189642    880.98979  0.040673582  0.039721118           13 
 1806000   0.54580087   -4.2011671    882.32434   0.04071264  0.039696433           13 
 1807000   0.53205272   -4.2122779    881.62595  0.040657902  0.039671746            6 
 1808000   0.51130478   -4.2057171    883.27273  0.040711317   0.03964706           10 
 1809000   0.53702164   -4.2150174    883.47404  0.040698086  0.039622385           17 
 1810000   0.52494903   -4.2016645    880.99004  0.040561236  0.039597734           17 
 1811000   0.52887316   -4.2330802    880.45679  0.040514301  0.039573062           14 
 1812000    0.5243146   -4.2282861    880.73864  0.040504905   0.03954836           11 
 1813000   0.52681295   -4.2346909    882.25036  0.040552048  0.039523648           17 
 1814000   0.53166374   -4.2214766    881.16054  0.040479628  0.039498922           15 
 1815000   0.52535853   -4.2433455    880.03997  0.040405876  0.039474208           10 
 1816000   0.52349322   -4.2180876     884.0677  0.040568452  0.039449627           13 
 1817000   0.53100659   -4.2307096    882.90156  0.040492642  0.039425037           44 
 1818000   0.53066719   -4.2235349    881.43441  0.040403117  0.039400462           28 
 1819000    0.5266692   -4.2337524    882.15602  0.040413964  0.039376013            8 
 1820000   0.52580819   -4.2559786    882.69566  0.040416468  0.039351494           40 
 1821000   0.52231355   -4.2338383    882.72037  0.040395404  0.039327021           10 
 1822000   0.51152418   -4.2481854    881.74761  0.040328742  0.039302553           11 
 1823000   0.52005842   -4.2492711    881.86165  0.040311833  0.039278093           14 
 1824000   0.53082436   -4.2466346    881.48777   0.04027265  0.039253731            7 
 1825000   0.52472908   -4.2438133    882.61665   0.04030213  0.039229382           20 
 1826000   0.52880354   -4.2492199     882.5895   0.04027882  0.039205001           12 
 1827000   0.51891387   -4.2246877    884.76389  0.040355952  0.039180653           18 
 1828000   0.53630676   -4.2480245     882.3185  0.040222397  0.039156324           13 
 1829000   0.52104039   -4.2458504    881.20959  0.040149881  0.039131958           21 
 1830000    0.5143203   -4.2392945    881.67088  0.040148947  0.039107659           23 
 1831000     0.518641   -4.2413457    880.71368  0.040083455  0.039083389           15 
 1832000   0.52127334   -4.2326324    882.87259  0.040159779  0.039059106           13 
 1833000   0.52266728   -4.2467248    880.68297  0.040038324  0.039034818           13 
 1834000   0.50895764   -4.2480106    880.97374  0.040029705  0.039010522           14 
 1835000   0.51880825   -4.2479566    883.12369  0.040105526  0.038986262           16 
 1836000   0.53525542   -4.2493172    882.63795  0.040061635  0.038962015           29 
 1837000    0.5204614   -4.2712777    881.38733  0.039983094  0.038937634           20 
 1838000   0.51915616    -4.251711     881.3854  0.039961253  0.038913362           17 
 1839000   0.51028692   -4.2514139    882.58587  0.039993922  0.038889023           15 
 1840000   0.51511073   -4.2712681    882.66884  0.039975944  0.038864655           27 
 1841000   0.51891646   -4.2594203    881.25311  0.039890146   0.03884042           11 
 1842000   0.51408569   -4.2848811    880.02741  0.039813039  0.038815998           34 
 1843000   0.51960304   -4.2605939    881.66691  0.039865568   0.03879161           12 
 1844000   0.52307605   -4.2595446    881.11476  0.039818997  0.038767257           12 
 1845000   0.52305093   -4.2823406    881.70721  0.039824174   0.03874301            9 
 1846000   0.52262968   -4.2680151    880.39318  0.039743282  0.038718702           15 
 1847000   0.51725223   -4.2594679    882.09842  0.039798702  0.038694488           12 
 1848000   0.51251648   -4.2645812    884.12002  0.039868327  0.038670327           14 
 1849000   0.50692149   -4.2592879    882.10453  0.039755928  0.038646136           11 
 1850000   0.51628277   -4.2733203    881.81199  0.039721261  0.038621978           19 
 1851000   0.49992353   -4.2645324    881.99782  0.039708168  0.038597765           31 
 1852000   0.50638868   -4.2866079    882.05067  0.039689105  0.038573615           17 
 1853000   0.51848967   -4.2538848    880.36544  0.039591898  0.038549298           19 
 1854000   0.51896208    -4.270238    880.85527   0.03959256  0.038525079           15 
 1855000   0.52547284   -4.2658401    881.55069  0.039602457  0.038500877           51 
 1856000   0.51283906   -4.2641353     882.3439  0.039616734  0.038476738           13 
 1857000   0.50707981   -4.2674666    881.82401   0.03957207  0.038452665           15 
 1858000    0.5088961   -4.2740836    882.96443  0.039601921  0.038428684           17 
 1859000   0.51913452   -4.2626673    882.98752  0.039581653  0.038404871           25 
 1860000   0.51897195   -4.2528222    883.62701  0.039589024   0.03838091           51 
 1861000   0.52565844   -4.2659213    883.62635  0.039567721  0.038357063           20 
 1862000    0.5088289   -4.2724193    883.32718  0.039533082   0.03833316           10 
 1863000   0.51323363   -4.2668587    882.77401  0.039487118  0.038309362            8 
 1864000   0.51746615   -4.2485521    883.70359  0.039507492  0.038285579            6 
 1865000   0.50059269   -4.2593544    883.46222  0.039475524  0.038261796           13 
 1866000    0.5101166   -4.2787202    883.76981  0.039468105  0.038237993           11 
 1867000    0.5027716   -4.2663538    883.05104  0.039414883  0.038214233           37 
 1868000   0.49968653   -4.3059436    882.23694  0.039357465  0.038190354           11 
 1869000   0.50967294     -4.27436    884.43051  0.039434212   0.03816643           16 
 1870000   0.50854622   -4.2865464    880.59515  0.039242208  0.038142546           18 
 1871000   0.50388355     -4.28083    881.14758  0.039245839  0.038118662           24 
 1872000   0.50355927   -4.2798245    885.06308  0.039399176  0.038094799           28 
 1873000   0.50137113   -4.2772603    883.05256  0.039288688  0.038070912           13 
 1874000    0.5058916    -4.276066    883.85552  0.039303429  0.038047001           25 
 1875000   0.49849061   -4.2867225    883.91807  0.039285247  0.038023058           23 
 1876000   0.50562622   -4.2682324    882.20351  0.039188144  0.037999216           11 
 1877000   0.50238787   -4.2818586    882.80764  0.039194088  0.037975419           32 
 1878000   0.49730968   -4.2837043    883.00624  0.039182031  0.037951584           14 
 1879000   0.50232692   -4.2754465    881.61421  0.039099442  0.037927841           21 
 1880000   0.49667162   -4.2815147    884.21928  0.039194117  0.037904113           11 
 1881000   0.50207329   -4.3020189     882.7538  0.039108356  0.037880377           29 
 1882000   0.50589546    -4.281735    883.54752  0.039122721  0.037856641           11 
 1883000   0.51135489   -4.2906052    882.77903  0.039067934  0.037832995           15 
 1884000   0.50623559   -4.2866166    883.55937  0.039081713  0.037809292           19 
 1885000   0.49054625   -4.2864599    883.24769  0.039047201  0.037785581           32 
 1886000   0.50221711   -4.2963108    884.61238  0.039086796  0.037761859           18 
 1887000    0.5052186   -4.3026249    880.97021  0.038905238  0.037738151           16 
 1888000    0.5038479   -4.2855951    883.87207  0.039012715   0.03771442           16 
 1889000   0.50020613   -4.2876934    881.04357  0.038867283  0.037690675           52 
 1890000   0.50593427   -4.3281845      879.695  0.038787257   0.03766678           66 
 1891000   0.50371571   -4.3081747    882.12269   0.03887373  0.037642922           45 
 1892000   0.50080614   -4.3135067    879.77592   0.03874982  0.037618992           31 
 1893000   0.49352471   -4.3135175    880.21353  0.038748615  0.037595122           46 
 1894000   0.50415837   -4.3094691    883.10593  0.038855418  0.037571311           19 
 1895000    0.4925984   -4.2858137    881.86897  0.038780518  0.037547615           19 
 1896000   0.49254955    -4.294585    881.97426  0.038764692  0.037523914           27 
 1897000   0.49922455   -4.3025524    883.80532  0.038824693  0.037500364           11 
 1898000   0.50645032   -4.2970046    882.21875  0.038734578  0.037476779           13 
 1899000   0.49511953   -4.3052288    881.29976  0.038673853   0.03745309           22 
 1900000   0.48992854   -4.3085249    882.42735  0.038702954  0.037429544           14 
 1901000   0.49353236   -4.2946652    881.84259  0.038656961  0.037405907           37 
 1902000   0.49278211   -4.3080665    882.23378  0.038653776  0.037382366           21 
 1903000    0.4962347   -4.2943965    883.29251  0.038679826  0.037358781           30 
 1904000   0.49355056   -4.3056731    883.79971   0.03868171  0.037335197           45 
 1905000   0.48584175   -4.2943735    883.81868  0.038662234   0.03731169           48 
 1906000   0.50163292   -4.2990244    881.86294  0.038556442  0.037288242           39 
 1907000   0.48810159   -4.2925313    882.73875  0.038574495  0.037264763           15 
 1908000   0.49888182   -4.3182907    881.25077  0.038489289  0.037241222           15 
 1909000   0.49009335   -4.2948095    881.92737  0.038498663  0.037217639           32 
 1910000   0.48336155   -4.3125565    880.41103  0.038412349  0.037194128           16 
 1911000    0.4816211   -4.3028125    881.51564  0.038440417  0.037170697           10 
 1912000   0.48787604   -4.3206205    881.74264  0.038430206  0.037147207           23 
 1913000   0.48360933   -4.3223171    880.23598  0.038344484  0.037123771           34 
 1914000   0.48373898    -4.325999    880.66127  0.038342967  0.037100288           11 
 1915000   0.48040065   -4.3147957     881.5059    0.0383597  0.037076829           36 
 1916000   0.46856464   -4.3181495    882.71624  0.038392321  0.037053277           11 
 1917000   0.49026958   -4.3377363    880.38056   0.03827076  0.037029784           12 
 1918000   0.47966125    -4.310154     882.4224   0.03833952  0.037006363           15 
 1919000    0.4845845   -4.3105717    881.97681  0.038300192     0.036983           40 
 1920000   0.48093232   -4.3248146    882.42671   0.03829977  0.036959631           20 
 1921000   0.47946251    -4.324524    882.16818  0.038268618  0.036936179           23 
 1922000   0.49515587   -4.3235403    882.57177  0.038266206  0.036912827           18 
 1923000   0.48457232   -4.3114241     882.2315  0.038231561   0.03688945           64 
 1924000   0.48222783   -4.3262938    881.06686  0.038161247  0.036866138           92 
 1925000    0.4855407   -4.3200643    881.64948  0.038166644  0.036842785           38 
 1926000   0.48796653   -4.3295242    882.36631  0.038177843  0.036819458           40 
 1927000   0.47985156   -4.3319048    882.57089  0.038166878  0.036796114           19 
 1928000   0.48715744   -4.3183058    881.57132  0.038103878  0.036772745           30 
 1929000   0.47290664   -4.3271012    881.99057  0.038102236  0.036749369           20 
 1930000   0.48767667   -4.3348925    881.76077  0.038072572  0.036726049           50 
 1931000   0.47130532   -4.3438166     881.7532  0.038052529  0.036702608           91 
 1932000   0.49177069   -4.3366043    880.61176  0.037983599  0.036679186           62 
 1933000   0.47423866   -4.3357734    880.11936  0.037942721  0.036655736           40 
 1934000   0.48277644   -4.3183485    880.62502   0.03794489  0.036632323           36 
 1935000   0.47313123   -4.3239433      880.018  0.037899139  0.036608928           31 
 1936000   0.48591799   -4.3347267    881.25114  0.037932642  0.036585518           18 
 1937000   0.47097619   -4.3275199    879.33895  0.037830793  0.036562139           24 
 1938000   0.47675116   -4.3299433    879.85231  0.037833347  0.036538806           30 
 1939000   0.47282077   -4.3437135    880.24486  0.037830706  0.036515377           17 
 1940000    0.4738459   -4.3461566    880.11812  0.037805761  0.036491971            8 
 1941000   0.47361304   -4.3273084    881.12318  0.037829434  0.036468642           26 
 1942000   0.47717192   -4.3527062    880.31683  0.037775353  0.036445291           19 
 1943000   0.47232589   -4.3436056    878.88787  0.037694625  0.036421922           15 
 1944000   0.46992182   -4.3473774    878.62299   0.03766388  0.036398596           20 
 1945000   0.46951006   -4.3494399    880.27125  0.037715135  0.036375294           20 
 1946000   0.48231541   -4.3694777    881.24791  0.037737577  0.036352036            9 
 1947000   0.48038804    -4.348939    881.44697  0.037726715  0.036328727           18 
 1948000   0.48303507    -4.348862    879.31972  0.037616347  0.036305529           20 
 1949000   0.47997765   -4.3439471    881.08598  0.037672566  0.036282354           23 
 1950000   0.48259265   -4.3381649    882.25863   0.03770336  0.036259285           45 
 1951000   0.47475831   -4.3509757    880.77576  0.037620697  0.036236181            9 
 1952000   0.46852335   -4.3530214    882.60826  0.037679656  0.036213086           22 
 1953000   0.47618163   -4.3358212    880.17914  0.037556713  0.036189939           12 
 1954000   0.46845772   -4.3319254    881.03435  0.037573966  0.036166882            9 
 1955000   0.48156934   -4.3447134    880.37987  0.037526849  0.036143685           17 
 1956000   0.46822575   -4.3470785    879.84631  0.037484932  0.036120546           44 
 1957000   0.46721125   -4.3637751    880.44334    0.0374912  0.036097447           16 
 1958000    0.4699742   -4.3598104    879.53465  0.037433378  0.036074343           30 
 1959000   0.46287086   -4.3350253    879.24149  0.037401799  0.036051315           38 
 1960000   0.47864028   -4.3529594    881.83854  0.037493135  0.036028376           19 
 1961000   0.46324289   -4.3437558    880.00001  0.037395887  0.036005381           11 
 1962000   0.47060584    -4.360062    881.87202  0.037456338   0.03598238           31 
 1963000   0.45949746   -4.3596071    881.88639  0.037437867  0.035959409           20 
 1964000   0.45914739   -4.3425457    881.95667  0.037421787  0.035936497           26 
 1965000   0.46841366   -4.3389009    881.13781  0.037368016  0.035913596           25 
 1966000   0.47931264   -4.3497932    879.92435  0.037297573  0.035890642           40 
 1967000    0.4738267   -4.3597639    880.70331  0.037311613  0.035867738           28 
 1968000   0.46814935    -4.363169    880.14799  0.037269139  0.035844886           17 
 1969000   0.46749608    -4.364613    880.41833  0.037261653  0.035822009           28 
 1970000   0.46185794   -4.3623494    881.67295   0.03729581  0.035799134           30 
 1971000   0.47157064   -4.3559999    882.22322  0.037300153  0.035776267           48 
 1972000   0.45495618   -4.3676412    881.12314  0.037234751  0.035753425           30 
 1973000   0.46136575   -4.3524166    881.00502  0.037210889  0.035730618           22 
 1974000   0.45738636   -4.3649563    882.30732  0.037247016  0.035707846           27 
 1975000   0.46401748   -4.3571284    880.89944  0.037168753  0.035685069           32 
 1976000   0.44819359   -4.3521025    881.15203  0.037160595  0.035662267           43 
 1977000   0.46511982   -4.3628118    881.08729   0.03713907  0.035639457           40 
 1978000   0.47323877   -4.3745785    879.66439  0.037060347  0.035616648           27 
 1979000   0.47406785   -4.3735147    880.59827  0.037080945  0.035593836           22 
 1980000   0.45449545   -4.3691211    880.30438  0.037049848  0.035571121           17 
 1981000    0.4594178   -4.3445429    880.14149  0.037024293  0.035548399           44 
 1982000    0.4577732   -4.3695799    878.51125  0.036937069  0.035525765           19 
 1983000    0.4652606   -4.3542075     880.7312  0.037011733  0.035503085           36 
 1984000   0.45787552   -4.3562804    880.92682  0.037001295  0.035480435           22 
 1985000   0.45862163   -4.3496874    878.89788  0.036897476  0.035457814           29 
 1986000   0.46190904   -4.3732808    881.09123  0.036970931  0.035435154           36 
 1987000   0.47345995    -4.363229    879.65627  0.036892144  0.035412487           19 
 1988000   0.46156498   -4.3562562    880.46936  0.036907669  0.035389814           29 
 1989000   0.43727404    -4.373564    880.50951  0.036890796  0.035367192           24 
 1990000   0.45347389   -4.3603531    880.33301  0.036864866  0.035344549           20 
 1991000   0.46160566    -4.350204    880.47416  0.036852258  0.035321926           35 
 1992000   0.45178832   -4.3789772    880.76137  0.036845773  0.035299279           33 
 1993000   0.45725437   -4.3757951    879.43637  0.036771884  0.035276645           37 
 1994000   0.45820498   -4.3810624    879.62208  0.036761204  0.035253996           22 
 1995000   0.45512547   -4.3747385    880.30367  0.036771248  0.035231361           23 
 1996000   0.45846499    -4.361333    880.56497  0.036763735   0.03520882           29 
 1997000   0.44683558   -4.3652945    879.96192   0.03672016  0.035186311           22 
 1998000   0.44943018   -4.3833093    879.48088  0.036681719  0.035163745           30 
 1999000   0.45497808   -4.3836811      879.829   0.03667788  0.035141196           29 
 2000000   0.45379472   -4.3751637    878.74414  0.036614339  0.035118607           14 
 2001000   0.45288517   -4.3970626    880.03651  0.036649863  0.035096068           56 
 2002000   0.46033356   -4.3891508    879.12852  0.036593761  0.035073478           50 
 2003000   0.45327059   -4.3997902    879.60024  0.036595117  0.035050862           49 
 2004000   0.45512508   -4.3838802    877.81947  0.036502806  0.035028279           45 
 2005000   0.45980621   -4.3910302     878.1807  0.036499613  0.035005681           82 
 2006000   0.45505873   -4.3729404    879.40677  0.036532352  0.034983128           19 
 2007000   0.45583153   -4.3868895    879.45375    0.0365161  0.034960649           19 
 2008000   0.45484774   -4.3823065    878.23384  0.036447287  0.034938202           11 
 2009000   0.45655111   -4.3781265    878.72755  0.036449624  0.034915713           31 
 2010000   0.45384412   -4.3833701    879.58034  0.036466846  0.034893256           26 
 2011000   0.45688507   -4.3888158    880.84695    0.0365012    0.0348708           16 
 2012000   0.44788425   -4.3898194    879.38553  0.036422528  0.034848367           14 
Loop time of 4888.39 on 48 procs for 2000000 steps with 4000 atoms

Performance: 70698.137 tau/day, 409.133 timesteps/s
99.4% CPU use with 48 MPI tasks x no OpenMP threads

MPI task timing breakdown:
Section |  min time  |  avg time  |  max time  |%varavg| %total
---------------------------------------------------------------
Pair    | 331.08     | 346.88     | 365.38     |  43.0 |  7.10
Neigh   | 33.211     | 34.432     | 36.006     |  13.0 |  0.70
Comm    | 316.83     | 334.31     | 351.43     |  49.2 |  6.84
Output  | 4.2011     | 4.2028     | 4.2334     |   0.2 |  0.09
Modify  | 4115.4     | 4123.6     | 4136.8     |   6.9 | 84.35
Other   |            | 45         |            |       |  0.92

Nlocal:        83.3333 ave          94 max          77 min
Histogram: 2 8 13 6 6 7 3 1 1 1
Nghost:        2232.88 ave        2254 max        2210 min
Histogram: 3 2 2 7 5 8 11 6 3 1
Neighs:        14967.4 ave       17424 max       13411 min
Histogram: 2 3 12 12 8 3 5 2 0 1
FullNghs:      29934.4 ave       34025 max       27675 min
Histogram: 3 11 8 8 5 6 4 1 1 1

Total # of neighbors = 1436853
Ave neighs/atom = 359.21325
Neighbor list builds = 108261
Dangerous builds = 0

#clear
#
#next RN
#
#jump SELF
Total wall time: 1:21:31
