
units lj                  # Use reduced LJ style units
atom_style atomic         # Uncharged point particles
atom_modify map hash      # Needed for indexing of clusters etc
                          # Used to be able to find where atoms are in relation to each other.

lattice fcc 1.0 spacing 1 1 1
Lattice spacing in x,y,z = 1.5874011 1.5874011 1.5874011
region box block 0 10 0 10 0 10 units lattice
create_box 2 box
Created orthogonal box = (0.0000000 0.0000000 0.0000000) to (15.874011 15.874011 15.874011)
  3 by 4 by 4 MPI processor grid
create_atoms 1 box
Created 4000 atoms
  using lattice units in orthogonal box = (0.0000000 0.0000000 0.0000000) to (15.874011 15.874011 15.874011)
  create_atoms CPU = 0.002 seconds
set type 1 type/fraction 2 0.89 78393
Setting atom values ...
  3550 settings made for type/fraction
mass 1 1.0
mass 2 1.0
pair_style lj/cut  3.5
pair_modify tail  yes
pair_coeff 1  1  1.0  1.0   # Intearaction between 1 and 1 set with epsilon = 1 and sigma = 1
pair_coeff 1  2  1.5  0.8
pair_coeff 2  2  0.5  0.88

write_data data.0
System init for write_data ...
Neighbor list info ...
  update every 1 steps, delay 10 steps, check yes
  max neighbors/atom: 2000, page size: 100000
  master list distance cutoff = 3.8
  ghost atom cutoff = 3.8
  binsize = 1.9, bins = 9 9 9
  1 neighbor lists, perpetual/occasional/extra = 1 0 0
  (1) pair lj/cut, perpetual
      attributes: half, newton on
      pair build: half/bin/atomonly/newton
      stencil: half/bin/3d
      bin: standard
WARNING: Not all mixed pair coeffs generated from mixing. Use write_data with 'pair ij' option to store all pair coeffs. (../write_data.cpp:312)


#############################
#   M E L T   S Y S T E M   #
#############################

velocity all create 2.4 3143649 mom yes dist gaussian # Assign velocities
                                                    # Temperature 2.4, random number seed, zero linear momentum
                                                                                # Gaussian distribution

timestep 0.002   # simulation timestep
thermo 1000       # output thermodynamic data every 1000 steps bf 100

# Define a fix  in this case with index 1 applied to all
# particles in the simulation. This fix is for simulations
# in the anisotropic NPT ensemble. Note that we use the MTK
# correction.
fix 1 all npt temp 2.4 2.4 0.1 iso 5.68 5.68 0.5 mtk yes tchain 5 pchain 5 # Use NPT ensemble
                                                                         # Set temperature and pressure and damping
                                                                         # Numbers of thermostats in chain and in barostat
run 10000          # run for 10000 steps
Per MPI rank memory allocation (min/avg/max) = 3.642 | 3.644 | 3.648 Mbytes
Step Temp E_pair E_mol TotEng Press Volume 
       0          2.4   -3.2438273            0   0.35527274   -2.6679874         4000 
    1000    2.3719169   -2.3520977            0    1.2048883    5.4351751    3975.9875 
    2000    2.4744233   -2.2965666            0    1.4141404    5.7269992    4007.0569 
    3000    2.3664615   -2.2828592            0    1.2659457    5.8001602    3979.9553 
    4000    2.3862112   -2.3483632            0    1.2300588    5.7261667    3946.7722 
    5000    2.4171547   -2.3086809            0    1.3161446    5.5944265    4005.1208 
    6000     2.428611   -2.3672062            0    1.2747996    5.6973859    3937.6434 
    7000    2.3780963   -2.3514758            0    1.2147769    5.6762538    3955.7591 
    8000    2.4180359    -2.318811            0    1.3073361    5.8319119    3948.2189 
    9000     2.442584   -2.3125649            0    1.3503951    5.7386331    3983.3216 
   10000    2.4314653   -2.3369949            0    1.3092913    5.7142266    3977.4858 
Loop time of 2.4681 on 48 procs for 10000 steps with 4000 atoms

Performance: 700134.588 tau/day, 4051.705 timesteps/s
99.6% CPU use with 48 MPI tasks x no OpenMP threads

MPI task timing breakdown:
Section |  min time  |  avg time  |  max time  |%varavg| %total
---------------------------------------------------------------
Pair    | 1.0728     | 1.15       | 1.2532     |   3.3 | 46.59
Neigh   | 0.20553    | 0.21347    | 0.22496    |   0.8 |  8.65
Comm    | 0.73819    | 0.84777    | 0.92191    |   4.2 | 34.35
Output  | 0.00024436 | 0.00024914 | 0.00031923 |   0.0 |  0.01
Modify  | 0.21726    | 0.24148    | 0.27956    |   3.0 |  9.78
Other   |            | 0.01512    |            |       |  0.61

Nlocal:        83.3333 ave          93 max          71 min
Histogram: 1 3 4 2 6 12 7 3 6 4
Nghost:        1650.40 ave        1678 max        1617 min
Histogram: 2 2 3 2 11 9 5 9 3 2
Neighs:        9594.31 ave       10893 max        7803 min
Histogram: 2 3 2 3 2 11 14 4 4 3

Total # of neighbors = 460527
Ave neighs/atom = 115.13175
Neighbor list builds = 902
Dangerous builds = 183

# Equilibrate just above the melting temperature to avoid step fn in T

fix 1 all npt temp 1.25 1.25 0.1 iso 5.68 5.68 0.5 mtk yes tchain 5 pchain 5
run 2000
Per MPI rank memory allocation (min/avg/max) = 3.643 | 3.645 | 3.649 Mbytes
Step Temp E_pair E_mol TotEng Press Volume 
   10000    2.4314653   -2.3369949            0    1.3092913    5.7142266    3977.4858 
   11000    1.2409833   -3.4404813            0   -1.5794717    6.0425365    3060.4244 
   12000    1.2310983   -3.4625605            0   -1.6163746    5.6198051    3081.9253 
Loop time of 0.602385 on 48 procs for 2000 steps with 4000 atoms

Performance: 573719.545 tau/day, 3320.136 timesteps/s
99.6% CPU use with 48 MPI tasks x no OpenMP threads

MPI task timing breakdown:
Section |  min time  |  avg time  |  max time  |%varavg| %total
---------------------------------------------------------------
Pair    | 0.26663    | 0.29094    | 0.32611    |   2.0 | 48.30
Neigh   | 0.038824   | 0.041329   | 0.043936   |   0.5 |  6.86
Comm    | 0.18363    | 0.22067    | 0.24909    |   2.5 | 36.63
Output  | 5.2207e-05 | 5.5955e-05 | 0.00016322 |   0.0 |  0.01
Modify  | 0.041136   | 0.044624   | 0.049539   |   1.0 |  7.41
Other   |            | 0.004763   |            |       |  0.79

Nlocal:        83.3333 ave          91 max          72 min
Histogram: 3 0 3 1 5 11 8 9 6 2
Nghost:        1954.02 ave        1997 max        1926 min
Histogram: 4 4 11 6 10 6 3 1 2 1
Neighs:        12400.3 ave       14655 max       10567 min
Histogram: 5 2 1 10 13 6 6 4 0 1

Total # of neighbors = 595216
Ave neighs/atom = 148.80400
Neighbor list builds = 143
Dangerous builds = 13

#############################
# L I N E A R  Q U E N C H  #
#############################

# Define solid atoms. This closely follows ten Wolde  Ruiz-Montero and Frenkel  Faraday Discuss  1996  104  93-110
# Compute components of the per-atom q6 vector
compute q6 all orientorder/atom degrees 1 6 components 6 nnn NULL cutoff 1.3 # compute the Q6 parameter.
                                                                             # Use all neighbours within 1.3 unit cell.

# get number of connections
compute coord_number all coord/atom orientorder q6 0.5

# An atom is solid if it has 8 or more connections (of a possible 14)
variable is_solid atom c_coord_number>=8
group solid dynamic all var is_solid    # Must be dynamic to update
dynamic group solid defined

# do clustering
compute cluster solid cluster/atom 1.3 # Create a cluster where all atoms within are solid and max 1.3 units from another member

# define chunks one chunk per cluster
compute clus_chunks solid chunk/atom c_cluster nchunk every compress yes  # Says which atoms are in which chunk

# count the size of each chunk
compute size_chunks solid property/chunk clus_chunks count


# Find the maximum entry in the vector of chunk sizes
variable max_n equal max(c_size_chunks)


# Thermo style which includes this variable
# thermo_style custom step temp pe vol v_max_n

thermo ${N}  # Print the thermo information every 100 steps
thermo 1000  

# Reset the npt fix at a lower temperature (below freezing)
fix 1  all npt temp  ${temp} ${temp}  0.1  iso  5.68  5.68  0.5  mtk yes tchain  5  pchain  5
fix 1  all npt temp  0.45 ${temp}  0.1  iso  5.68  5.68  0.5  mtk yes tchain  5  pchain  5
fix 1  all npt temp  0.45 0.45  0.1  iso  5.68  5.68  0.5  mtk yes tchain  5  pchain  5

dump dmp2 all dcd ${N} traj.dcd
dump dmp2 all dcd 1000 traj.dcd


compute msd all msd com yes
variable twopoint equal c_msd[4]/6/(step*dt+1.0e-6)
fix 9 all vector 10 c_msd[4]
variable fit equal slope(f_9)/6/(10*dt)
thermo_style custom step temp pe c_msd[4] v_twopoint v_fit v_max_n

fix 1 all npt temp 1.25 ${temp} 0.1 iso 5.68 5.68 0.5 mtk yes tchain 5 pchain 5
fix 1 all npt temp 1.25 0.45 0.1 iso 5.68 5.68 0.5 mtk yes tchain 5 pchain 5
run 5000000 # 5000000  # Run for this many steps
Neighbor list info ...
  update every 1 steps, delay 10 steps, check yes
  max neighbors/atom: 2000, page size: 100000
  master list distance cutoff = 3.8
  ghost atom cutoff = 3.8
  binsize = 1.9, bins = 8 8 8
  4 neighbor lists, perpetual/occasional/extra = 1 3 0
  (1) pair lj/cut, perpetual
      attributes: half, newton on
      pair build: half/bin/atomonly/newton
      stencil: half/bin/3d
      bin: standard
  (2) compute orientorder/atom, occasional
      attributes: full, newton on
      pair build: full/bin/atomonly
      stencil: full/bin/3d
      bin: standard
  (3) compute coord/atom, occasional
      attributes: full, newton on
      pair build: full/bin/atomonly
      stencil: full/bin/3d
      bin: standard
  (4) compute cluster/atom, occasional
      attributes: full, newton on
      pair build: full/bin/atomonly
      stencil: full/bin/3d
      bin: standard
Per MPI rank memory allocation (min/avg/max) = 9.822 | 9.831 | 9.838 Mbytes
Step Temp PotEng c_msd[4] v_twopoint v_fit v_max_n 
   12000    1.2310983   -3.4625605 1.0450435e-30 7.2572461e-33 8.3333333e+20            1 
   13000    1.2552941   -3.4695048   0.99545658 0.0063811317  0.084179026            2 
   14000    1.2384663   -3.4210331    2.0258536  0.012058652   0.08498931            1 
   15000    1.2869913   -3.4282963    3.0994756  0.017219308  0.086406393            2 
   16000    1.2442359   -3.4461211    4.1019454  0.021364298  0.086570332            2 
   17000    1.2717668   -3.4480798    5.0958944  0.024979874  0.085895462            2 
   18000     1.274305   -3.4345281     6.183889  0.028629115  0.085875616            2 
   19000     1.252365   -3.4555828    7.1638753  0.031420505  0.085797752            3 
   20000    1.2657716   -3.4303251    8.2163684  0.034234867  0.085954433            2 
   21000    1.2442268   -3.4424725    9.2787966   0.03682062  0.086104751            2 
   22000    1.2314942   -3.4891365    10.317838  0.039082719  0.086012291            1 
   23000    1.2425537   -3.4574216    11.310958  0.040981732  0.086193044            2 
   24000    1.2529265   -3.4600683    12.286853  0.042662682  0.085984713            1 
   25000    1.2311501   -3.4353975    13.485402   0.04495134  0.086055183            3 
   26000    1.2430242   -3.4385159     14.61182  0.046832755  0.086328725            2 
   27000    1.2455566   -3.4675611    15.861894  0.048956462  0.086860447            2 
   28000    1.2352488   -3.4640117    16.959521  0.050474764  0.087440751            1 
   29000    1.2442224   -3.4580918    18.149406  0.052153463  0.088073529            1 
   30000    1.2489234   -3.4480061    19.300723  0.053613118  0.088719996            2 
   31000     1.243397   -3.4802792    20.508883  0.055131406   0.08931906            2 
   32000     1.240516   -3.4828046    21.535283  0.056081465  0.089780637            1 
   33000    1.2395151   -3.4499331    22.816166  0.057616579  0.090252528            1 
   34000     1.242108   -3.4364644    23.975094  0.058762485  0.090688628            2 
   35000    1.2395211   -3.4453971    25.245374  0.060108033   0.09112166            1 
   36000    1.2265076    -3.459497    26.307343  0.060896626  0.091510774            2 
   37000    1.2416924   -3.4452211    27.493308  0.061921865  0.091840839            1 
   38000    1.2405527   -3.4982913     28.26154  0.061977061  0.092026226            1 
   39000    1.2442777   -3.4888082    29.383655  0.062785587  0.092048142            2 
   40000    1.2500095   -3.4386117    30.572869  0.063693476  0.092092038            2 
   41000    1.2532255   -3.4373107     31.30602   0.06363012  0.091989094            1 
   42000    1.2435517   -3.4517785    32.288924  0.064065325  0.091838613            2 
   43000    1.2577485   -3.4795185    33.197522  0.064336282  0.091624285            2 
   44000    1.2695731   -3.4789532    34.223109  0.064816494  0.091404692            1 
   45000    1.2281517   -3.4519503    35.247242   0.06527267  0.091248162            3 
   46000     1.225405   -3.4626304    36.159594  0.065506511  0.091019239            2 
   47000    1.2591929   -3.4609811    36.996558  0.065596733  0.090715695            3 
   48000     1.233993   -3.4759928     38.42638  0.066712464  0.090474092            2 
   49000    1.2216106   -3.4826917    39.382039  0.066976257  0.090329862            2 
   50000    1.2516657   -3.4373603    40.864979  0.068108298  0.090225598            2 
   51000    1.2382114   -3.4646437    41.893512  0.068453451  0.090192406            3 
   52000    1.2631561   -3.4448124    42.987383  0.068890036  0.090187631            3 
   53000    1.2465357   -3.4473591    43.914768  0.069048376  0.090148646            2 
   54000    1.2608402   -3.4294162     45.09389  0.069589336  0.090101077            1 
   55000    1.2282354   -3.4684378    46.202683  0.070004064  0.090092794            2 
   56000    1.2459941   -3.4739334    47.468206   0.07063721  0.090137994            2 
   57000    1.2678546   -3.4681006    48.401457  0.070762364  0.090151794            1 
   58000    1.2522711   -3.4678691     49.67607  0.071373662  0.090170457            2 
   59000    1.2462389   -3.4968988    50.789174  0.071736121  0.090203356            1 
   60000    1.2393842   -3.4919262    51.320572  0.071278572    0.0902039            2 
   61000    1.2334344   -3.4771162    52.646006  0.071920773  0.090188161            1 
   62000    1.2399119   -3.4636785    53.949649  0.072512968  0.090201385            1 
   63000    1.2575478   -3.4963117    54.569865  0.072182361  0.090201455            1 
   64000    1.2410829      -3.5066    55.981894  0.072893091  0.090170227            1 
   65000    1.2558398   -3.4388188    57.199436   0.07333261  0.090149867            4 
   66000    1.2338136   -3.4764942     57.96646  0.073189974  0.090091836            1 
   67000    1.2465433   -3.4594289    58.787923  0.073119306  0.090042228            1 
   68000    1.2249631    -3.475169    60.032086  0.073568732  0.089965445            2 
   69000    1.2309203   -3.4706995     60.88469  0.073532234  0.089881883            2 
   70000    1.2513501   -3.4890349    61.630094  0.073369159  0.089767967            1 
   71000     1.239486   -3.4802513    63.145422  0.074114345  0.089697301            1 
   72000    1.2256751   -3.4631872    63.667023  0.073688683  0.089607261            3 
   73000    1.2177387   -3.4934064    64.597942  0.073741943  0.089502957            1 
   74000    1.2289331   -3.4772446    65.568405  0.073838294   0.08940748            2 
   75000    1.2229639   -3.4519347    66.844962   0.07427218  0.089319006            2 
   76000     1.220327   -3.4718544     67.91653  0.074469879   0.08925231            2 
   77000    1.2394034   -3.4815243    69.127444   0.07481325    0.0891928            2 
   78000    1.2383219   -3.4528271    70.993031  0.075847254  0.089178901            1 
   79000    1.2125597   -3.4868066    71.719002  0.075652955  0.089166358            1 
   80000    1.2323943   -3.4735832     72.41244  0.075429625  0.089165655            2 
   81000    1.2661553   -3.4838033    73.807917   0.07593407  0.089155645            1 
   82000    1.2272227   -3.4710657    74.766839   0.07598256    0.0891392            2 
   83000    1.2378577   -3.4613518    75.673065  0.075976972  0.089109664            1 
   84000    1.2347689   -3.4619441    76.341109  0.075735226  0.089079775            1 
   85000    1.2154735   -3.4388827    77.760705  0.076235985  0.089037402            3 
   86000    1.2513974   -3.4489107    78.963635   0.07651515  0.089000865            2 
   87000    1.2301602     -3.49558    79.519892  0.076168479  0.088970868            1 
   88000    1.2425298   -3.4714581    80.398876  0.076135299   0.08890789            2 
   89000    1.2230961   -3.4768831    81.460218  0.076273612  0.088864773            1 
   90000    1.2311593   -3.4540854    82.417878  0.076312849  0.088805745            3 
   91000    1.2233566   -3.4672554    83.264148  0.076249219  0.088738463            1 
   92000    1.2614151   -3.5029279    84.478772  0.076520626  0.088674315            1 
   93000    1.2217134   -3.4567816    85.404795  0.076527593   0.08860834            1 
   94000    1.2445756   -3.4682251    86.873798  0.077015778  0.088552651            4 
   95000    1.2471139   -3.4460835    87.867795  0.077077013  0.088511795            2 
   96000    1.2336764   -3.4742409    88.468241  0.076795348  0.088458463            1 
   97000     1.257219   -3.4914935    89.460341  0.076855963  0.088405579            2 
   98000    1.2643062   -3.5031204     90.38641  0.076859192  0.088354661            2 
   99000    1.2397167   -3.4471194    92.178228  0.077591101  0.088305102            4 
  100000    1.2563901   -3.4976162    93.156209  0.077630174   0.08826202            2 
  101000    1.2478702   -3.4641527    93.865563  0.077446834  0.088213389            3 
  102000    1.2363252   -3.4822466    94.439149  0.077156167  0.088160451            1 
  103000    1.2014299   -3.4758223     95.95785  0.077635801  0.088130225            1 
  104000    1.2479437   -3.4804473    96.723712  0.077502974  0.088104359            1 
  105000    1.2468318   -3.4510111    97.849242  0.077658128  0.088071041            3 
  106000    1.2315581   -3.4462961    98.915679  0.077763898  0.088038853            2 
  107000    1.2193945   -3.4671087    100.07807  0.077942421   0.08799895            1 
  108000    1.2612296   -3.4436859    101.61715  0.078408296  0.087967807            2 
  109000    1.2273635    -3.477209    102.04293  0.078014469  0.087923027            1 
  110000    1.2567648   -3.4627521    103.12231  0.078122959  0.087875692            1 
  111000    1.2475041   -3.5377637    102.88174  0.077238544   0.08779786            3 
  112000     1.224883    -3.460953    104.22083  0.077545258   0.08771607            2 
  113000     1.235532   -3.4925329    105.03839  0.077461938  0.087633838            3 
  114000    1.2518615   -3.4700844      105.803  0.077341377  0.087561115            2 
  115000    1.2410235   -3.4905598     107.4194  0.077840147  0.087491336            1 
  116000    1.2581427   -3.4664502    108.19422  0.077725735  0.087439293            1 
  117000    1.2275217   -3.4627548    109.70931  0.078140531  0.087387293            2 
  118000    1.2191989   -3.5274726     110.2486  0.077859183  0.087341849            2 
  119000    1.2417505   -3.4855139    111.88818  0.078353066  0.087299835            2 
  120000    1.2437406   -3.5291563    113.52854  0.078839262  0.087279167            2 
  121000    1.2384876   -3.4890723    114.06719  0.078558672  0.087266863            1 
  122000    1.2325824   -3.4797385      115.628  0.078980873  0.087249562            1 
  123000    1.2580008   -3.4854525    116.21167  0.078734192  0.087240156            1 
  124000    1.2217941   -3.5111878    116.61339  0.078369216  0.087210312            2 
  125000    1.2505499   -3.4939719    117.70984  0.078473229  0.087187363            3 
  126000    1.2123176   -3.4697485    118.68585  0.078495932  0.087166857            2 
  127000    1.2240475   -3.4808484     120.0388  0.078765617  0.087119508            2 
  128000    1.2198893   -3.4562291    120.91665  0.078721775  0.087073686            3 
  129000    1.2133189   -3.5161437    122.26879  0.078985004  0.087042092            1 
  130000    1.2363321   -3.4826339    123.41809  0.079114159  0.087022143            2 
  131000    1.2242036   -3.4580166    123.70538  0.078692992  0.086986148            2 
  132000    1.2446989   -3.4923333    124.67354  0.078708041  0.086953636            3 
  133000    1.2339699   -3.4679809    126.58557  0.079314267  0.086928855            1 
  134000    1.2475156   -3.4829333    127.79139  0.079472254  0.086911921            2 
  135000     1.207114   -3.4652323    128.65396  0.079416027  0.086894096            2 
  136000    1.2271882   -3.4959127    129.00435  0.079046782  0.086876372            2 
  137000    1.2188974   -3.4795863    130.81367  0.079570358  0.086853149            2 
  138000    1.2072247    -3.501534    132.01023   0.07971632  0.086844156            4 
  139000    1.2307436   -3.5017973      132.472  0.079419664  0.086826868            1 
  140000    1.2149799   -3.4715492    134.47615  0.080045329  0.086809082            2 
  141000    1.2401166   -3.4867983    134.68218  0.079599395  0.086797942            1 
  142000    1.2174711   -3.5164208    135.28331  0.079391613  0.086772287            1 
  143000    1.2095432   -3.4583608    137.21995  0.079965006  0.086756403            3 
  144000    1.2381762   -3.4787796    138.52605   0.08016554  0.086747262            2 
  145000    1.2143036   -3.5265724    138.49561  0.079595179  0.086735397            4 
  146000    1.2437272    -3.461955    140.01944  0.079919772  0.086720386            3 
  147000    1.2229758   -3.4644375    140.71942  0.079772913  0.086700073            2 
  148000    1.1987917   -3.4667266      142.619  0.080303491  0.086677224            1 
  149000     1.216965   -3.5158496    142.13253  0.079492465  0.086667566            3 
  150000    1.2093208   -3.4869537      143.728  0.079848888  0.086655208            1 
  151000    1.2152909    -3.473413    145.38782  0.080236101  0.086646966            1 
  152000    1.2317919   -3.4638465    146.20596  0.080156778  0.086641558            2 
  153000     1.232403   -3.5002593    147.90588  0.080558756  0.086639872            1 
  154000    1.1907109   -3.5126771    149.07704  0.080669396  0.086640316            1 
  155000    1.2405851   -3.4704064     149.7794  0.080526557  0.086648742            3 
  156000    1.2319891    -3.497337    150.72188  0.080513822  0.086650986            1 
  157000    1.2364163   -3.4824428    150.77801   0.08003079  0.086652303            2 
  158000    1.2102886   -3.4543384    153.33393  0.080872327  0.086648927            2 
  159000    1.2349147   -3.4852214     154.5629  0.081007811    0.0866601            2 
  160000    1.2417224   -3.5002064    155.13341  0.080798653  0.086668619            1 
  161000    1.2174279   -3.5058186    156.65759  0.081085711  0.086678744            3 
  162000    1.2195498    -3.496143    159.25019   0.08191882  0.086694311            3 
  163000    1.2289911   -3.4721219    158.21726  0.080888171  0.086709209            2 
  164000    1.2067184   -3.5035752    158.47724  0.080527052     0.086712            1 
  165000    1.1993396   -3.4725874    159.61005  0.080611136  0.086713795            4 
  166000    1.2447788   -3.4769772    161.34333  0.080995645  0.086711232            1 
  167000    1.2334711   -3.4686096    162.24904  0.080962593  0.086715768            2 
  168000    1.2179047   -3.4754785     163.4588  0.081080752  0.086714524            4 
  169000    1.2100471   -3.4835707    164.47347  0.081101317   0.08672117            3 
  170000    1.2233253   -3.5318742    165.22846  0.080994345   0.08672785            3 
  171000    1.2379185   -3.4997838    166.96875  0.081368787    0.0867283            2 
  172000    1.2144871   -3.4707667     168.2103  0.081497238  0.086732284            1 
  173000     1.246848   -3.4580425    168.56698  0.081197968  0.086735474            1 
  174000    1.2359731   -3.5059685    169.04228  0.080958945  0.086737644            4 
  175000       1.2208   -3.4743625    170.85308   0.08135861   0.08673881            1 
  176000     1.244106   -3.4737896    172.84519   0.08183958  0.086737188            1 
  177000    1.2297944    -3.470303    173.09497  0.081494805  0.086737488            1 
  178000    1.2089431   -3.5039978    173.15505  0.081065098  0.086738008            3 
  179000    1.2137654   -3.4764233    175.51636  0.081711527  0.086735701            3 
  180000    1.2203337   -3.4967019    175.17793  0.081100891  0.086735033            3 
  181000    1.2070664   -3.5103221    176.41702  0.081223304  0.086732842            1 
  182000    1.2288602    -3.506734    177.36555  0.081211334  0.086731153            1 
  183000    1.2119274   -3.4770594     178.5624  0.081312567   0.08673107            1 
  184000    1.2163295   -3.5124926    179.05593  0.081094171  0.086723329            2 
  185000    1.2100845   -3.5154678     179.8631  0.081019413  0.086715359            2 
  186000    1.2249846   -3.5069067    181.51729   0.08132495  0.086709813            2 
  187000    1.2290547   -3.4995674    182.40499  0.081285645   0.08670742            1 
  188000    1.2192866   -3.4749077    183.23517  0.081221262   0.08669966            2 
  189000      1.22868   -3.5238432    184.23609  0.081232843  0.086692697            1 
  190000    1.2280629   -3.4861688     185.9855  0.081572585  0.086692781            1 
  191000    1.2028028    -3.478829    187.13181   0.08164564  0.086692762            1 
  192000    1.2367191   -3.4689839    188.10155  0.081641296  0.086691857            3 
  193000     1.228065   -3.4843472    188.94153  0.081580972  0.086689968            1 
  194000    1.2365444   -3.4860844    189.23826  0.081287912  0.086685445            3 
  195000    1.2287505   -3.4726957    190.43255   0.08138143  0.086679807            2 
  196000    1.2386135   -3.4884755     192.4988  0.081844729  0.086677266            1 
  197000    1.2256357   -3.4856404     192.6728  0.081502876  0.086671592            1 
  198000    1.2097158   -3.4939679    193.81127  0.081570399  0.086668408            4 
  199000     1.219631   -3.5363701    195.17999  0.081733663  0.086663181            2 
  200000    1.2231502   -3.5028699    196.89915  0.082041313   0.08666267            2 
  201000      1.20877   -3.5005491    198.34782  0.082233758  0.086664153            2 
  202000    1.2343559    -3.521006    198.34155  0.081824071  0.086663376            2 
  203000    1.2339233   -3.4944048    199.93702  0.082075952  0.086655163            3 
  204000    1.2136539   -3.5163719    200.44089  0.081879449  0.086656085            2 
  205000    1.2227028   -3.5065752    201.13006  0.081760185  0.086654399            4 
  206000    1.2202823   -3.4972993    203.24911  0.082220515  0.086658918            2 
  207000    1.2102211   -3.5144933    204.45745  0.082309764  0.086663035            2 
  208000    1.2343039   -3.5084347    205.81037  0.082456077  0.086669441            4 
  209000    1.2497825   -3.4869996    207.02019  0.082543936  0.086683335       -1e+20 
  210000    1.2255409   -3.5059627     208.6023  0.082778689  0.086695432            2 
  211000    1.2170337    -3.474308    210.60971  0.083179192  0.086717882            2 
  212000     1.228689   -3.5025093    210.81887  0.082869052  0.086743263            2 
  213000    1.2599983   -3.5215774    211.70627  0.082827178  0.086760807            1 
  214000    1.1966554   -3.5086728    211.79524   0.08247478  0.086771728            2 
  215000    1.2221901   -3.4761916    214.20519  0.083025266  0.086781418            3 
  216000    1.1987467   -3.5010114    213.87178   0.08251226  0.086789866            2 
  217000    1.1850648   -3.5112443    214.74488  0.082467313   0.08679841            4 
  218000    1.1960966   -3.4703732    216.01187  0.082573345  0.086807465            2 
  219000    1.2286006   -3.4881119     217.0218  0.082580592  0.086814588            4 
  220000     1.168734   -3.5363041    217.56443   0.08241077  0.086819605            1 
  221000    1.2200415   -3.5657192    217.66442  0.082075571   0.08682428            2 
  222000    1.1961286   -3.5301883    219.93429  0.082557915   0.08682766            1 
  223000      1.21392   -3.4849808    221.58882  0.082805986  0.086833865            1 
  224000     1.220411   -3.4970582    221.28523  0.082323376  0.086836985            2 
  225000    1.1542544   -3.4642581    223.27129  0.082693069   0.08683681            2 
  226000    1.2269628   -3.5279606    222.78581  0.082148158  0.086835907            1 
  227000    1.1983835   -3.5199569     225.3258  0.082718721  0.086836183            1 
  228000    1.2106919   -3.5011774    226.68455  0.082852542  0.086844856            2 
  229000    1.2260504   -3.5516114    227.13852   0.08265594  0.086854801            2 
  230000    1.2132888   -3.5247194    228.54044  0.082804507   0.08685464            2 
  231000    1.2037368   -3.4909541     228.8853  0.082570455  0.086856451            4 
  232000    1.2103442   -3.5099871    229.92003  0.082586217  0.086858069            2 
  233000    1.2221382   -3.5214035    231.32595  0.082734602  0.086856092            3 
  234000     1.216564   -3.5184197    231.78487  0.082544468  0.086855784            5 
  235000    1.2286027   -3.5431577    232.99937  0.082623889  0.086854308            1 
  236000    1.2278835   -3.4892456    234.45775  0.082788752  0.086854675            4 
  237000    1.2187978   -3.4970721    235.43176  0.082781914  0.086851692            3 
  238000    1.2231887   -3.5043184    236.33004  0.082748612  0.086850666            1 
  239000    1.2578298   -3.5107107    235.66998  0.082172239  0.086846226            2 
  240000    1.2350896   -3.5056281    238.25926  0.082728911  0.086841961            1 
  241000    1.1981536   -3.4993061    239.48272  0.082808687  0.086836885            1 
  242000    1.2179703   -3.5160853    239.80597  0.082577814  0.086834762            1 
  243000    1.2019666    -3.514315    240.08619  0.082334086  0.086827153            2 
  244000    1.2018058   -3.5239214     241.9505  0.082633369  0.086821397            1 
  245000    1.2355598   -3.5125969    241.24994  0.082057802  0.086806448            2 
  246000    1.1900705   -3.5395281    242.72349  0.082223406  0.086794753            4 
  247000    1.2055187   -3.5321229     243.4687  0.082141935  0.086782768            3 
  248000    1.2236161   -3.5135907    245.56685  0.082515744   0.08676718            1 
  249000    1.2445473   -3.4928358    246.59704  0.082529129  0.086753578            3 
  250000    1.2504046   -3.4923537    247.90189  0.082633962  0.086744676            3 
  251000     1.197469   -3.4979746    249.07964  0.082695762  0.086735086            1 
  252000    1.2093421    -3.482413    249.11138    0.0823781  0.086721536            2 
  253000    1.2181332   -3.5206876    250.12845  0.082387501  0.086708274            1 
  254000    1.2070948   -3.5002446     250.1766  0.082078938  0.086690763            2 
  255000    1.1746419   -3.5307726    250.81522  0.081965759  0.086672742            2 
  256000    1.2195367   -3.5433212     252.5003  0.082194107  0.086654028            2 
  257000    1.2283437   -3.5172962     254.5032  0.082523737  0.086639642            2 
  258000    1.2196777   -3.4888302    255.16662  0.082418157  0.086627041            2 
  259000    1.2180095   -3.5241569    255.10665  0.082080648  0.086611456            3 
  260000    1.2034172   -3.5166418    257.69607  0.082594895  0.086592504            2 
  261000    1.1704647   -3.5247023    256.15444   0.08178622  0.086573164            2 
  262000    1.2028428   -3.4925942    257.74052  0.081978537  0.086553791            1 
  263000    1.2202736    -3.515481    259.91582  0.082356091  0.086534913            1 
  264000    1.2283923   -3.4982477    260.71421  0.082296152  0.086516464            2 
  265000    1.2081238    -3.523658    261.56377  0.082252756  0.086497479            2 
  266000    1.2103879   -3.5216186    262.32956  0.082183446  0.086482429            1 
  267000    1.2377912   -3.5156559    264.19416  0.082457604  0.086467672            2 
  268000    1.2364173   -3.4862685    265.33849  0.082505748  0.086459866            1 
  269000    1.2168595   -3.5188797    266.63828  0.082601698  0.086450974            1 
  270000    1.2180264   -3.4925126    267.45068  0.082546508  0.086437924            1 
  271000    1.2004788   -3.5170466    268.56812  0.082585522  0.086425824            2 
  272000    1.2011001   -3.5358472    268.79824  0.082352401  0.086411269            3 
  273000    1.2308403   -3.5264357    270.38308  0.082534519  0.086395286            1 
  274000    1.2075614   -3.5420516    270.48313  0.082263727  0.086380402            2 
  275000    1.2183088   -3.5208679    269.95964   0.08180595  0.086361897            2 
  276000    1.1893338   -3.5165682    273.48762  0.082574764  0.086346183            2 
  277000     1.203692   -3.5431963    273.30411  0.082221453  0.086328303            2 
  278000    1.2140708   -3.4781799    274.69223  0.082341796  0.086312365            5 
  279000    1.2050303   -3.5020861    275.64325   0.08233072  0.086296388            2 
  280000    1.2102826   -3.5505231    276.46858  0.082282316  0.086280917            2 
  281000    1.2064142   -3.5429886     276.7296  0.082066903  0.086265521            1 
  282000    1.2093073    -3.545283    278.98582  0.082442618  0.086250053            3 
  283000    1.1961297   -3.5336075    278.91609  0.082130769  0.086234693            2 
  284000    1.2250343    -3.529306    281.06343  0.082471664  0.086220953            1 
  285000    1.2020584   -3.5021559    281.06812   0.08218366  0.086205406            2 
  286000    1.1980069   -3.5282188    281.23915   0.08194614  0.086186704            2 
  287000    1.2022844   -3.5301906    282.44556  0.082010904  0.086168545            3 
  288000    1.2285161   -3.5245793    285.52411   0.08261693  0.086151849            1 
  289000    1.2057035   -3.5204083     285.0545  0.082195647  0.086135059            1 
  290000    1.2107331   -3.5424909    286.62281  0.082362875  0.086115156            1 
  291000    1.1949246    -3.519583    288.09543  0.082501555  0.086096354            3 
  292000    1.2256058   -3.5346697     287.3397  0.082003339  0.086079794            2 
  293000    1.2122329   -3.5082104    289.47079  0.082329576  0.086060374            2 
  294000    1.2145828   -3.5116505    291.14085  0.082522916  0.086041077            2 
  295000    1.1931643    -3.492138    290.79931  0.082146697  0.086019144            1 
  296000    1.2141196   -3.5233889    290.90017  0.081897572  0.085997569            2 
  297000    1.2115756   -3.5181997     292.0166  0.081935074  0.085974565            3 
  298000    1.1990378   -3.5362311    292.92236  0.081913411  0.085952843            1 
  299000    1.2327915   -3.5273953    293.69278  0.081854175  0.085930702            2 
  300000    1.1933585    -3.519384    294.25814  0.081738373  0.085907954            1 
  301000    1.2247321   -3.5467423     295.9426  0.081933167  0.085885866            2 
  302000    1.1853873   -3.4649473     298.5546  0.082382615  0.085862568            2 
  303000    1.2159332   -3.5298391    298.18995  0.082010437  0.085845828            1 
  304000    1.2413037   -3.5392118    300.33139  0.082327684   0.08582575            1 
  305000    1.1952052    -3.499825    300.46842  0.082095196  0.085807541            6 
  306000    1.2052558   -3.4862027    302.56148  0.082396916  0.085789202            2 
  307000    1.2086112    -3.501633    302.09533   0.08200199  0.085769548            3 
  308000    1.2053216   -3.5476627    302.42461   0.08182484  0.085748364            4 
  309000    1.2144701   -3.5206792    304.55886  0.082135614  0.085730286            2 
  310000     1.197539   -3.5212541    305.07635  0.082009771  0.085714337            2 
  311000    1.2256923   -3.5060678    306.95731  0.082250082  0.085697283            2 
  312000    1.1992672   -3.5685126    306.52616  0.081871303  0.085679892            1 
  313000    1.2009103   -3.5230789    309.52881   0.08240916  0.085661157            3 
  314000    1.1926748   -3.5195048    307.17407   0.08152178  0.085642778            2 
  315000    1.1930335   -3.5163041    309.07972  0.081767122   0.08562123            1 
  316000    1.2173292   -3.5245211    309.80321  0.081699159  0.085595064            2 
  317000    1.1861649   -3.5059726    310.27683  0.081565937  0.085572061            2 
  318000    1.1955044   -3.5213491    310.15279  0.081276936  0.085543738            3 
  319000     1.242835   -3.5147345    312.39938  0.081609032  0.085517665            4 
  320000    1.2177441    -3.528347    312.27273  0.081321023  0.085489163            2 
  321000    1.2127687   -3.5258314    313.41334  0.081363796  0.085458267            1 
  322000    1.2170178    -3.564305    313.31351  0.081085276  0.085428799            3 
  323000     1.187786   -3.5038124    316.51672  0.081660661  0.085399406            5 
  324000    1.2001238   -3.5284823    316.41382  0.081382154  0.085373779            6 
  325000    1.2013191    -3.536341    317.01044  0.081284727  0.085348536            2 
  326000    1.1960712   -3.5284999    320.64173  0.081963633   0.08532782            2 
  327000    1.2030109   -3.5315845    319.59809  0.081447017  0.085306632            2 
  328000    1.2204961   -3.4927034    322.90958  0.082040035  0.085286168            1 
  329000    1.1944934   -3.5266319    322.02137  0.081565697  0.085268149            2 
  330000    1.1992477    -3.530761    325.67985  0.082242386  0.085248067            2 
  331000    1.2114189    -3.545644    324.54499  0.081708205  0.085227356            2 
  332000    1.1819636   -3.5168662    324.05281  0.081338557  0.085204309            3 
  333000    1.1883094   -3.5473234    325.86329  0.081547369  0.085179973            4 
  334000    1.1909801   -3.5261739    327.19615  0.081635766  0.085156196            2 
  335000    1.1844233   -3.5146847    326.30486  0.081170363  0.085132536            5 
  336000    1.1784377   -3.5243428    328.45875  0.081462983    0.0851063            2 
  337000    1.1754993   -3.5322048    329.19138  0.081402418  0.085078721            1 
  338000     1.210205   -3.5136086    332.12771  0.081885529   0.08505695            1 
  339000    1.1935836   -3.5242355    331.25983  0.081430635  0.085036996            2 
  340000    1.2008898   -3.5248022      333.466  0.081731862   0.08501584            1 
  341000    1.1754055   -3.5601008    332.48147   0.08125158  0.084992425            9 
  342000    1.1975221   -3.5076171    335.30324  0.081701568  0.084968498            2 
  343000    1.2010728   -3.5325752    334.95282  0.081378237  0.084945231            2 
  344000    1.1623271   -3.5302051    337.14985  0.081673897  0.084923478            3 
  345000    1.2209715   -3.5360874    337.84284  0.081604551  0.084901566            2 
  346000     1.192668   -3.5165918    337.94133  0.081392421  0.084878336            2 
  347000    1.2014563   -3.5182794    338.98762  0.081409131  0.084854962            2 
  348000    1.1960854   -3.5088534     340.4882  0.081534529  0.084831956            1 
  349000    1.1884725    -3.545294    341.33243  0.081502491  0.084810902            2 
  350000    1.2155645   -3.5185678    341.55233  0.081321984  0.084787884            1 
  351000    1.2058576   -3.5547885    342.90762  0.081412065  0.084761297            2 
  352000    1.2140336   -3.5339922    342.25641  0.081026611  0.084732004            2 
  353000    1.1782305   -3.5683342     343.2052  0.081021057  0.084704786            1 
  354000    1.1670536   -3.5259126    343.97604  0.080973645  0.084678584            3 
  355000    1.1743994    -3.542471    346.26685  0.081283298  0.084651829            2 
  356000    1.2030203   -3.5348735    345.63488  0.080907042  0.084624559            1 
  357000    1.2145182   -3.5125477    348.42649  0.081332047  0.084597905            3 
  358000    1.2032381   -3.5211556    347.14996  0.080807718  0.084570133            2 
  359000    1.2044271   -3.5295012    347.89924  0.080756555  0.084543407            2 
  360000    1.2152111   -3.5450151    349.25071  0.080845071  0.084515421            3 
  361000    1.1738352   -3.5553684    349.80486  0.080749044  0.084486079            2 
  362000    1.1782805   -3.5400551    351.33743  0.080878783  0.084454477            2 
  363000    1.1805575   -3.5489626    352.41712  0.080903837  0.084425674            1 
  364000    1.1978147   -3.5274381    352.81199  0.080771975  0.084397077            1 
  365000    1.1964678   -3.5167883    353.87115  0.080792499  0.084369428            2 
  366000    1.1836531   -3.5519244    355.57352  0.080959363  0.084338547            4 
  367000      1.21228   -3.5087217     355.0228  0.080613715  0.084307897            1 
  368000    1.1981531   -3.5397917    354.46242  0.080267757  0.084279502            1 
  369000    1.2141625    -3.525676    358.79045  0.081027654  0.084252019            2 
  370000    1.1971194   -3.5247149    360.73743  0.081247168   0.08422544            6 
  371000    1.2104687   -3.5372765    359.47594  0.080744821  0.084200589            1 
  372000    1.1949668   -3.5336588    361.08704  0.080888674  0.084174916            1 
  373000    1.1921724   -3.5324493    361.63314   0.08079382  0.084150311            2 
  374000    1.1939567   -3.5135389    363.05644   0.08089493  0.084124673            1 
  375000    1.1640951   -3.5393182    363.46027  0.080768948  0.084099505            2 
  376000    1.1982987   -3.5415361    365.61388  0.081031445  0.084075073            1 
  377000    1.2092207   -3.5492679    364.28296  0.080522315  0.084047083            2 
  378000    1.1857363   -3.5227488    366.93285  0.080893485  0.084019772            2 
  379000    1.1957191   -3.4835822    367.09749  0.080716246  0.083990155            1 
  380000    1.2023697   -3.5149737     366.5521  0.080384232  0.083962573            2 
  381000    1.1853671   -3.5395794    369.05557  0.080720816  0.083936067            5 
  382000    1.1756885   -3.5487123    369.05872  0.080510192  0.083911804            1 
  383000    1.2073142   -3.5036498    370.40769  0.080593493  0.083883734            3 
  384000    1.1910248   -3.5254826    370.71933  0.080451244  0.083858547            2 
  385000    1.2057805   -3.5365809    373.39667  0.080821789  0.083831057            3 
  386000    1.1748351   -3.5572942    374.02131  0.080747259  0.083804279            2 
  387000    1.1836333   -3.4997519    374.80182  0.080706679  0.083776714            2 
  388000    1.1968981    -3.571002    375.94551   0.08074431  0.083751319            2 
  389000    1.2011392   -3.5477869    376.35827  0.080625166  0.083725169            2 
  390000    1.1963507    -3.532827    377.28596  0.080616659  0.083699979            3 
  391000    1.2143265   -3.5393106    377.75787  0.080511055  0.083675365            1 
  392000    1.1889346   -3.5139887    380.09541  0.080802595  0.083652317            3 
  393000    1.1741189   -3.5257956    381.13856  0.080818185   0.08363014            2 
  394000    1.1978186   -3.5568011    381.58585  0.080707667  0.083607643            2 
  395000    1.1875872   -3.5473602    382.56318  0.080709532  0.083585255            3 
  396000    1.1753093   -3.5391519     384.7211  0.080959827  0.083563371            2 
  397000    1.1859488   -3.5338691    384.32904  0.080673603  0.083543407            2 
  398000    1.1746344   -3.5802227    384.20508   0.08044495  0.083524117            1 
  399000    1.1881996   -3.5418778    387.03288  0.080833935   0.08350485            2 
  400000    1.1637484   -3.5069107    389.10073  0.081062651  0.083487894            2 
  401000     1.191806   -3.5615743    388.05409  0.080642994  0.083470722            2 
  402000     1.194069    -3.586373    388.98627  0.080635628   0.08345214            2 
  403000    1.1911619    -3.508844     391.0695  0.080866316  0.083433704            2 
  404000     1.194247   -3.5552851     392.5926  0.080980322  0.083416328            3 
  405000    1.1711141   -3.5642211    392.17413  0.080694266  0.083398921            3 
  406000    1.1796091   -3.5540216    395.32501  0.081142242  0.083381855            3 
  407000    1.1719556    -3.561798    392.39585   0.08034313  0.083364022            4 
  408000    1.1626493   -3.5598832    395.90539  0.080863029  0.083348578            5 
  409000    1.1315319    -3.553499    397.68437  0.081027786  0.083333013            2 
  410000     1.196417   -3.5318608    399.14124  0.081126268  0.083314671            1 
  411000    1.1761358   -3.5394493    399.06735    0.0809139   0.08329719            3 
  412000    1.1581711   -3.5474919    400.37016  0.080981019  0.083279624            3 
  413000    1.1721899   -3.5524618     402.2972  0.081173769  0.083264014            1 
  414000    1.1638557   -3.5254264    401.65956  0.080849347  0.083250203            3 
  415000    1.1708521   -3.5337315    402.66007  0.080855436  0.083234041            2 
  416000     1.174815   -3.5368647     404.7867  0.081087079  0.083215862            2 
  417000    1.1847609   -3.5419859    403.62291  0.080660054  0.083199262            3 
  418000    1.1607978   -3.5272548    403.93809  0.080529922  0.083180555            3 
  419000    1.1743096   -3.5770744    403.31869  0.080214537  0.083160375            3 
  420000    1.2015182   -3.5438392    406.45105   0.08064505  0.083139806            3 
  421000    1.2014884   -3.5412849    406.37627  0.080438692  0.083119797            1 
  422000    1.1739511    -3.569872    407.80018  0.080529261  0.083099872            1 
  423000    1.1699108   -3.5765974    409.55257  0.080684116  0.083080422            2 
  424000     1.165721   -3.5582823    410.74793  0.080728761  0.083062923            1 
  425000    1.1830959   -3.5618458    411.73029  0.080731429  0.083044863            2 
  426000     1.194738   -3.5268673    414.18151  0.081021422  0.083030058            4 
  427000    1.1932895   -3.5517615    413.68344  0.080734473  0.083012127            2 
  428000    1.1827356   -3.5861343    413.96049  0.080599783  0.082994598            2 
  429000    1.1509681    -3.567098    416.47552  0.080900451  0.082979416            1 
  430000    1.2016787   -3.5511341    415.66671  0.080555564  0.082964739            3 
  431000    1.2148481   -3.5072096    417.78821  0.080778849  0.082950841            1 
  432000    1.1783373   -3.5356885     419.7649  0.080973168  0.082937948            2 
  433000    1.1632091    -3.572151    418.98192  0.080635474  0.082923453            1 
  434000    1.1670714   -3.5794254     420.7978  0.080798349  0.082908671            1 
  435000    1.1571535   -3.5436977    421.61175  0.080768534   0.08289172            1 
  436000    1.2155908   -3.5270987    423.52944  0.080949817  0.082873149            3 
  437000    1.1800961   -3.5546105     421.7542  0.080426049   0.08285604            2 
  438000    1.1877031   -3.5712044    422.36767  0.080359145  0.082837291            2 
  439000    1.2036974   -3.5293729    424.22157  0.080528012   0.08281903            2 
  440000    1.1592097   -3.5438193    426.22147  0.080723763  0.082802601            1 
  441000    1.1977774   -3.5498628    425.44225  0.080393471  0.082786078            3 
  442000    1.1737676   -3.5438801    426.96819  0.080499282   0.08276655            1 
  443000    1.1994512   -3.5375421    427.95477  0.080503154  0.082748649            2 
  444000    1.2034907   -3.5676961    426.89876  0.080123641  0.082728348            1 
  445000    1.1776079   -3.5442655    429.29569  0.080392451  0.082711744            1 
  446000    1.1730137   -3.5285969    429.89887  0.080324901  0.082695023            3 
  447000    1.1923749    -3.574874    430.93049  0.080337527   0.08267769            1 
  448000    1.2117128   -3.4949736    434.15044  0.080757151  0.082663126            1 
  449000    1.1810086   -3.5449333    432.56706  0.080283419  0.082649406            3 
  450000    1.1790059   -3.5664308    435.75652  0.080695653  0.082635263            1 
  451000    1.1462514   -3.5545694    436.96367  0.080739776  0.082620773            3 
  452000      1.17417   -3.5273507    436.60837  0.080495644  0.082606526            1 
  453000    1.1695912   -3.5546353    438.55073  0.080675263  0.082591336            3 
  454000     1.177234   -3.5347614    439.28923  0.080633119  0.082576846            1 
  455000    1.1751851   -3.5371311    440.50819  0.080679156    0.0825621            2 
  456000    1.1817953   -3.5269722    442.31151  0.080831781  0.082549158            2 
  457000    1.1839481   -3.5592988    442.53534  0.080695722  0.082534112            3 
  458000    1.1679026   -3.5865386    441.44636   0.08032139  0.082519064            1 
  459000    1.1753555   -3.5505734    445.75031  0.080927797  0.082506295            4 
  460000    1.1772493   -3.5541344    443.81305  0.080400915  0.082493508            2 
  461000    1.2117296   -3.5663736    445.29032   0.08049355   0.08248249            2 
  462000     1.172005   -3.5817886    445.16266  0.080296294  0.082470092            3 
  463000    1.1680455   -3.5507429    449.39758  0.080885093  0.082459272            2 
  464000    1.1853869   -3.5469484    449.77358  0.080778302   0.08245162            3 
  465000    1.1887869   -3.5650145    451.11913  0.080845723  0.082443788            3 
  466000    1.1691987   -3.5997993    450.36658  0.080537658   0.08243482            3 
  467000    1.1864704   -3.5466792    454.23681  0.081055818  0.082426193            2 
  468000    1.2009103    -3.542373     455.0032  0.081019089  0.082417739            1 
  469000    1.1823295   -3.5580193    454.15276   0.08069523  0.082408952            3 
  470000    1.1689535   -3.5973875    455.53119  0.080767941  0.082399662            1 
  471000    1.1455728   -3.5619428    455.85826  0.080654327  0.082389549            1 
  472000    1.2056127   -3.5876255    455.79721   0.08047267  0.082380403            2 
  473000    1.1851436   -3.5290747    458.17299  0.080721105  0.082371778            2 
  474000    1.1775273   -3.5241916    460.31005   0.08092652  0.082362917            1 
  475000    1.1841562   -3.5470105    461.37509  0.080942998  0.082353653            2 
  476000    1.1788514   -3.5711887    457.56298  0.080105563  0.082342814            3 
  477000    1.1619524   -3.5737485    460.01478  0.080365965  0.082330032            1 
  478000    1.1977336   -3.5558425    461.24411  0.080412153  0.082316632            2 
  479000    1.1814055   -3.5697558    463.56397  0.080647872  0.082303195            1 
  480000    1.1822698   -3.5579414    462.16349  0.080236717  0.082290481            2 
  481000    1.1723062    -3.592669    461.74551   0.07999749  0.082276624            3 
  482000    1.1461886   -3.5869911     464.5784    0.0803213  0.082261411            3 
  483000    1.1927565   -3.5298691     466.7094   0.08052267  0.082247472            4 
  484000    1.1639336   -3.6080657    465.70341  0.080183093  0.082234264            2 
  485000    1.1679749   -3.5912885    467.13727  0.080264136  0.082220077            2 
  486000    1.1691132   -3.5720724    470.64243  0.080700005  0.082206513            1 
  487000    1.1762887   -3.5874675    470.21384  0.080460958  0.082194334            2 
  488000    1.1484176   -3.5299571    469.82873  0.080230316  0.082181136            3 
  489000    1.1754213   -3.5328884    473.42132   0.08067848   0.08217018            1 
  490000    1.1982402   -3.5425503    475.07598  0.080795234  0.082159342            2 
  491000    1.1804245   -3.5614348    473.97708  0.080444176  0.082147817            3 
  492000    1.1610972   -3.5616019    476.38114  0.080687863  0.082137439            1 
  493000    1.1854771   -3.5628429     475.5495  0.080383621  0.082125858            3 
  494000    1.1929599   -3.5590642    478.39601  0.080701081  0.082115617            2 
  495000    1.1426462   -3.5718126    477.91293  0.080456723   0.08210335            2 
  496000    1.1638702   -3.5603112    478.50827  0.080394535   0.08209222            3 
  497000    1.1721916   -3.5422708    480.13887  0.080506182  0.082080706            2 
  498000    1.1613215   -3.5471728    482.15508  0.080681907  0.082069303            2 
  499000    1.1884449   -3.5585148    481.82614  0.080465288  0.082057783            6 
  500000    1.1867962   -3.5936628    483.03361  0.080505602  0.082047528            2 
  501000    1.1541475   -3.5528958    484.61676  0.080608244  0.082036882            2 
  502000      1.17173   -3.5972287    485.14235  0.080534919  0.082025609            4 
  503000    1.1482274   -3.5894167    485.35743  0.080410442  0.082013915            3 
  504000    1.1856378   -3.5765685     486.7734   0.08048502  0.082003933            2 
  505000     1.169495   -3.5428695    487.13927  0.080386018  0.081994384            1 
  506000     1.162273   -3.5721936    487.62207  0.080306665  0.081983821            1 
  507000    1.1921656   -3.5507686    490.02192  0.080542721  0.081973054            2 
  508000    1.1832558   -3.5498114    490.12554  0.080401172   0.08196149            2 
  509000    1.1564992   -3.5708132    489.81986  0.080193166  0.081948975            2 
  510000    1.1893867   -3.5822483     488.7924  0.079868039  0.081935685            2 
  511000    1.1694297   -3.5677582    493.88194  0.080541738  0.081923327            2 
  512000    1.1832726   -3.5730451    493.20257  0.080273855  0.081911133            3 
  513000    1.1587262   -3.5794989     495.0357  0.080415156  0.081900831            3 
  514000    1.1667631   -3.5992643    495.40295  0.080318248  0.081889345            4 
  515000     1.133791   -3.5748983     496.3241  0.080311343  0.081878257            2 
  516000    1.1620827   -3.5998055    497.95365   0.08041887  0.081866371            4 
  517000    1.1723174   -3.5673793    499.46796  0.080507408  0.081855884            2 
  518000    1.1755828   -3.5856922      498.386  0.080177928  0.081846213            2 
  519000    1.1771542   -3.5727312    502.18619   0.08063362  0.081836492            1 
  520000    1.1830766   -3.5739756    503.60685  0.080706226  0.081826277            2 
  521000    1.1713077   -3.5548145    502.73617  0.080412055  0.081815129            3 
  522000     1.159855   -3.5680284    504.65707  0.080564666  0.081806181            1 
  523000    1.1617184   -3.5608404    505.53694  0.080550819   0.08179807            2 
  524000    1.1843755   -3.5894296    506.49429  0.080549347  0.081788094            3 
  525000     1.156156   -3.5690121     507.2381  0.080513983  0.081778195            1 
  526000    1.1997459   -3.6015594    506.35505  0.080221015  0.081768056            1 
  527000    1.1513257   -3.5761359    507.21481  0.080204745  0.081757041            2 
  528000    1.1546227   -3.5887562    509.05224  0.080342841  0.081746822            2 
  529000    1.1797527   -3.5954889    511.01435  0.080500055  0.081738225            2 
  530000    1.1583581   -3.5571596    512.27183  0.080545885  0.081727606            2 
  531000    1.1660113   -3.5746937    512.41827   0.08041718  0.081717705            5 
  532000    1.1532503   -3.5582768    511.98366  0.080197941  0.081705969            2 
  533000    1.1486161   -3.5827621    513.90865  0.080348444  0.081693275            1 
  534000    1.1904543   -3.5823337    515.65738  0.080470877  0.081682539            3 
  535000    1.1526838   -3.5787022    515.83024  0.080347389  0.081671498            2 
  536000    1.1644473   -3.5793253    514.47691  0.079987082  0.081659537            2 
  537000    1.1765646   -3.5808631    515.87678  0.080055367  0.081648636            3 
  538000    1.2014081   -3.5537272    516.34619  0.079979273  0.081636671            1 
  539000     1.173888   -3.5902929    517.90527  0.080071933  0.081624237            2 
  540000    1.1704382   -3.5811796    518.59832  0.080030605  0.081612226            2 
  541000    1.1782657   -3.5545145    520.84354  0.080228518  0.081601634            1 
  542000    1.1506237   -3.5907188    520.32412  0.080000633  0.081591261            2 
  543000    1.1630164   -3.5691144     523.8168  0.080389318  0.081579818            2 
  544000     1.136464   -3.5896373    523.39154    0.0801764  0.081568306            3 
  545000    1.1630296    -3.583938    523.29262  0.080014161  0.081556786            1 
  546000    1.1560066   -3.5726487     525.1644  0.080153297  0.081546019            3 
  547000    1.1449035   -3.5709575    527.01914  0.080289327  0.081536636            2 
  548000    1.1411052   -3.5854587    527.34568  0.080192469  0.081527357            1 
  549000    1.1668852   -3.5818404    528.43291  0.080211431  0.081518139            2 
  550000    1.1624264   -3.6148575    527.06794  0.079858779  0.081509331            1 
  551000    1.1531265   -3.5976814    530.38219  0.080215092  0.081500287            1 
  552000    1.1749154   -3.5746702    532.07612  0.080325501  0.081492089            1 
  553000    1.1767134   -3.6032039    532.57892  0.080256015  0.081483751            1 
  554000    1.1510526   -3.5797507    533.52249  0.080253083  0.081475292            2 
  555000    1.1675987   -3.5603856    531.83101  0.079854507  0.081466016            3 
  556000    1.1630135   -3.5716202    538.15716  0.080659046  0.081456347            1 
  557000    1.1427159   -3.5725575    538.97673  0.080636853  0.081448597            1 
  558000    1.1452658   -3.5399989    539.83079  0.080619891  0.081441782            6 
  559000    1.1713841     -3.58511    538.67149  0.080302846  0.081434936            5 
  560000    1.1401475   -3.6020798    540.27343  0.080397831  0.081429138            3 
  561000    1.1621235   -3.5747139    541.66111  0.080460652  0.081423324            1 
  562000    1.1678333   -3.5893158      542.948  0.080508304    0.0814184            4 
  563000    1.1471217   -3.5417115    544.08728  0.080533937  0.081412393            2 
  564000    1.1257046   -3.5713804    541.57492  0.080019935  0.081406298            1 
  565000    1.1626659   -3.5868797    546.18433  0.080558161  0.081399384            1 
  566000     1.142207   -3.5941565    542.76215  0.079911978  0.081391427            3 
  567000    1.1555905   -3.5792154      544.993  0.080098912  0.081383397            1 
  568000    1.1454844     -3.59394    547.47624  0.080322218   0.08137601            1 
  569000    1.1817572   -3.5285785    548.11541  0.080274665  0.081368758            2 
  570000    1.1747939   -3.5654296    549.90029  0.080394779  0.081361701            3 
  571000    1.1377354   -3.5990508    547.95286   0.07996977  0.081354969            3 
  572000    1.1667607   -3.5832557    551.82784  0.080394499  0.081347224            2 
  573000    1.1498688   -3.5843495    550.91138   0.08012091  0.081340362            3 
  574000    1.1508328   -3.5559998    555.22018  0.080606879  0.081333724            8 
  575000    1.1635557   -3.5751892    553.65137  0.080239328   0.08132729            1 
  576000    1.1517283   -3.5572593     556.7582  0.080549508  0.081321154            2 
  577000    1.1593065     -3.60035    557.77192  0.080556314   0.08131573            5 
  578000    1.1884258   -3.5582773    559.74558  0.080701497  0.081310991            2 
  579000    1.1603061   -3.5848481    558.96311  0.080449498  0.081305419            2 
  580000    1.1677964   -3.5565011    561.02455  0.080606975  0.081300148            1 
  581000    1.1568768   -3.5846416    559.13827  0.080197686  0.081292813            2 
  582000     1.176454   -3.5657101    561.19921  0.080354985  0.081286614            2 
  583000    1.1463789   -3.5698607    563.09757  0.080488503  0.081278647            2 
  584000    1.1347499   -3.5756302    563.26578  0.080374683  0.081271601            1 
  585000    1.1605108   -3.5954852    563.91783  0.080330175  0.081265205            3 
  586000    1.1702483   -3.5708705    565.97729  0.080485962  0.081259344            3 
  587000    1.1567976   -3.5703491    565.45986  0.080275391  0.081251771            1 
  588000    1.1519814   -3.5547425    564.53049  0.080007156  0.081242863            3 
  589000    1.1501724     -3.60804    565.48328  0.080006123  0.081233639            1 
  590000    1.1501237   -3.5905805    566.62015  0.080031094  0.081224778            3 
  591000    1.1627201   -3.5773167    567.95073  0.080083295  0.081215726            4 
  592000     1.156738   -3.5919638    568.15721  0.079977084  0.081206603            5 
  593000    1.1710266   -3.6057336     569.8235  0.080076377  0.081196596            3 
  594000    1.1355319   -3.6051655    569.88723   0.07995051  0.081185741            1 
  595000    1.1328282   -3.5808314    571.64576  0.080062432  0.081177132            2 
  596000    1.1566823   -3.5777394    571.80782  0.079950757   0.08116604            2 
  597000    1.1660178   -3.5892008    572.04106  0.079849394  0.081157073            2 
  598000     1.138927   -3.5584683    575.25736  0.080164069  0.081148093            2 
  599000    1.1693638   -3.5787889    572.11745  0.079593413  0.081137857            4 
  600000    1.1686132   -3.5945217    577.10337  0.080153246  0.081127262            2 
  601000     1.153878   -3.5856155    576.72882  0.079967944  0.081118671            2 
  602000    1.1409915   -3.5729104    579.36704   0.08020031  0.081109778            2 
  603000     1.130356   -3.5881964    578.07387  0.079888594  0.081100727            2 
  604000    1.1630253   -3.5852523     579.9291  0.080012293  0.081091936            1 
  605000    1.1639638   -3.5960682    577.94246    0.0796064  0.081081256            3 
  606000    1.1814563    -3.560204    582.29634  0.080073754  0.081070068            3 
  607000    1.1825234   -3.6063199    584.14761  0.080195993  0.081060611            6 
  608000    1.1397929   -3.5784679    580.23844  0.079528295  0.081050237            2 
  609000    1.1553429   -3.5905169    582.21867  0.079668675  0.081038731            3 
  610000    1.1638948    -3.572209    581.87348  0.079490913  0.081029466            2 
  611000    1.1366192    -3.556921    585.38891  0.079840277  0.081018389            2 
  612000    1.1366766   -3.5710739    587.31633  0.079972267  0.081007209            3 
  613000    1.1663245   -3.5761126    586.97277  0.079795101  0.080996644            2 
  614000    1.1589448   -3.5877993    587.47057  0.079732704  0.080986419            3 
  615000    1.1678057   -3.6071638    587.32874   0.07958384  0.080976843            2 
  616000    1.1485444   -3.5701564    590.96606  0.079946707  0.080966215            2 
  617000    1.1296042   -3.5882865    588.38976  0.079469173   0.08095469            2 
  618000     1.165044   -3.6266154    589.55734  0.079498023  0.080942489            2 
  619000    1.1533164   -3.5802464    592.52886  0.079769637  0.080930318            3 
  620000    1.1496921   -3.5836675    591.75095  0.079536418  0.080919962            3 
  621000    1.1271233   -3.5902521    594.08656  0.079721761  0.080908784            3 
  622000    1.1450055   -3.5820403    594.78285  0.079686877  0.080897504            1 
  623000     1.149156    -3.579517    595.75794  0.079689398   0.08088713            4 
  624000    1.1484474   -3.5959886    595.95105  0.079587479  0.080876094            3 
  625000    1.1475671   -3.5864753    597.49377  0.079665837  0.080863648            1 
  626000    1.1426886    -3.589047    598.44278  0.079664906  0.080851524            2 
  627000    1.1786712   -3.5875559    599.54747  0.079684672    0.0808388            4 
  628000    1.1502811     -3.61829    597.75591  0.079320051  0.080828807            1 
  629000    1.1420327   -3.5764677    601.68629  0.079714664  0.080817643            2 
  630000    1.1428551    -3.595701     600.8286  0.079474683  0.080805636            1 
  631000    1.1369432   -3.5926167    601.44391  0.079429994  0.080793361            2 
  632000    1.1501303   -3.5847488    602.28326  0.079414987  0.080779298            1 
  633000    1.1319953   -3.6012366    602.39827  0.079304669  0.080765905            3 
  634000    1.1395424   -3.6049104    603.02465  0.079261915  0.080751889            2 
  635000    1.1379507   -3.6079755    601.88197  0.078987135  0.080739029            2 
  636000     1.160601   -3.6232153    605.95253  0.079396295   0.08072668            2 
  637000    1.1489781   -3.6170209    605.69988  0.079238603  0.080714519            2 
  638000    1.1446404   -3.5779135    611.47859  0.079869199  0.080703317            2 
  639000    1.1548746    -3.583787    609.58948  0.079497846   0.08069189            1 
  640000    1.1709375   -3.6164858    609.09197   0.07930885  0.080680481            2 
  641000    1.1610628   -3.6189332    610.26609  0.079337765  0.080668531            4 
  642000    1.1618992    -3.574772    612.92066  0.079558756  0.080657324            2 
  643000     1.151078   -3.5895022    613.77455  0.079545691  0.080646885            1 
  644000    1.1502438    -3.605013    611.54918   0.07913421  0.080636093            4 
  645000    1.1421011   -3.6115248     616.6288  0.079667804  0.080625144            1 
  646000    1.1387448   -3.6259834    613.48131  0.079138456  0.080614599            4 
  647000    1.1743874   -3.5872689    614.65727  0.079167603  0.080603796            2 
  648000    1.1727065   -3.5699728    620.00052  0.079732577   0.08059367            3 
  649000    1.1462182   -3.5733299     621.2711  0.079772868  0.080584297            2 
  650000    1.1318582   -3.5978528    623.14873  0.079890862  0.080574461            1 
  651000    1.1621811   -3.6331687    620.25375  0.079397561  0.080563893            4 
  652000     1.137521   -3.5898054    621.49794  0.079434809  0.080553427            1 
  653000    1.1589386   -3.6026369    621.60624  0.079326984  0.080542803            2 
  654000    1.1502572   -3.6143505    620.32656   0.07904263    0.0805313            3 
  655000    1.1322177   -3.6107196    622.44565  0.079191558   0.08052076            3 
  656000    1.1620994    -3.573759    623.49655  0.079204338   0.08050914            4 
  657000    1.1281878   -3.5959732    625.94167   0.07939392  0.080496539            2 
  658000     1.128541   -3.6194815    625.18552  0.079177498  0.080485208            2 
  659000    1.1413045   -3.5835808    627.84045  0.079393076  0.080472784            2 
  660000    1.1542388   -3.5857181    627.66068  0.079250086  0.080460715            3 
  661000    1.1670101   -3.5926036    623.26109  0.078575528  0.080448501            7 
  662000    1.1486122   -3.6027833    625.48583  0.078736886  0.080436774            2 
  663000    1.1222784   -3.5888241    629.91919  0.079175364  0.080424868            3 
  664000    1.1420174   -3.6109519    629.69264  0.079027691  0.080413295            2 
  665000    1.1717585   -3.6109161    629.98594  0.078945606  0.080401108            2 
  666000    1.1573168   -3.6152333    632.00652  0.079079894  0.080389896            2 
  667000    1.1639172   -3.5982699    633.74754  0.079178853  0.080379292            4 
  668000    1.1522235   -3.6191027     633.1398  0.078984505  0.080369134            3 
  669000    1.1394541   -3.5840605    638.34584  0.079514927   0.08035967            1 
  670000     1.147324   -3.6040363    635.78421  0.079077638   0.08034955            1 
  671000    1.1308602   -3.6221944    637.94877  0.079228611  0.080339268            1 
  672000    1.1547666   -3.5802085    639.03992  0.079246022  0.080329547            2 
  673000     1.117273   -3.6136631    641.18937  0.079394424  0.080319876            1 
  674000    1.1573451   -3.6039193    641.72868  0.079343309  0.080310807            3 
  675000    1.1702731   -3.6318766    643.87431  0.079490656  0.080301428            2 
  676000    1.1579922   -3.6073226    644.38071  0.079435492  0.080291952            3 
  677000    1.1312935   -3.6074851    643.86052  0.079254126  0.080281856            2 
  678000    1.1596243    -3.643839    644.65463  0.079234837  0.080272434            2 
  679000    1.1301764   -3.5900191    643.84243  0.079018463  0.080263145            2 
  680000     1.143916   -3.6442583    643.27263   0.07883243  0.080253211            1 
  681000    1.1571668     -3.58235     648.2753  0.079328842  0.080242903            5 
  682000    1.1543708   -3.6253705    648.47067  0.079236397  0.080232406            1 
  683000    1.1558093   -3.6204636    646.18757  0.078841822  0.080222505            2 
  684000    1.1253648   -3.5904424    648.06603  0.078955413  0.080211574            3 
  685000     1.141016   -3.6244003    647.60334  0.078783861   0.08020115            1 
  686000    1.1279226   -3.5959705    650.52012  0.079023338  0.080189305            2 
  687000    1.1465345    -3.610999    649.33986  0.078765146  0.080177951            1 
  688000    1.1448743   -3.5711104    653.03339  0.079098037  0.080166792            3 
  689000    1.1563929   -3.5634858     652.9667   0.07897517  0.080155937            3 
  690000    1.1513309   -3.6007518    654.30023  0.079021766   0.08014467            2 
  691000    1.1449722   -3.6232185    653.55553  0.078817598  0.080134129            3 
  692000    1.1481946   -3.5879987    653.54154  0.078702016  0.080122395            5 
  693000    1.1400346   -3.6432325    655.28671  0.078798305   0.08010986            2 
  694000    1.1609628   -3.5994816    656.67354   0.07885129  0.080097682            2 
  695000    1.1410815   -3.5756445    657.21103  0.078802281  0.080084707            1 
  696000    1.1379185    -3.616911    654.96223  0.078419808  0.080072673            5 
  697000     1.140266   -3.6341834    658.75054  0.078760227  0.080058776            1 
  698000    1.1538989    -3.621598    659.52556  0.078739919  0.080044615            1 
  699000    1.1266288   -3.6031415     660.9796   0.07880062  0.080030915            1 
  700000     1.123291   -3.6337174    661.47303  0.078746789  0.080017215            3 
  701000    1.1272829   -3.6284701    663.12638  0.078831001  0.080002675            2 
  702000    1.1163427   -3.5938383    660.89632  0.078453979  0.079989832            2 
  703000    1.1251392   -3.6079955    662.99456  0.078591105  0.079976092            2 
  704000     1.146648   -3.5745472    666.26344  0.078866411   0.07996298            1 
  705000    1.1289145   -3.6116719    662.80285   0.07834549  0.079949486            2 
  706000    1.1589909   -3.6098191    666.61361  0.078684326  0.079936539            3 
  707000    1.1481661   -3.6239881    667.23944  0.078646798   0.07992377            2 
  708000     1.131081   -3.6030502    667.46263  0.078561986  0.079910206            1 
  709000    1.1651047   -3.6184004    669.30458  0.078667675  0.079897829            1 
  710000    1.1236971   -3.6190608    669.83444  0.078619066  0.079884906            3 
  711000    1.1483996   -3.6568439    670.97782  0.078642502  0.079871366            3 
  712000    1.1398048   -3.6020491     670.1806   0.07843874  0.079858909            2 
  713000     1.126299   -3.6153038    672.85054  0.078640783  0.079847758            1 
  714000    1.1258263   -3.6377574    674.49305  0.078722345  0.079835736            1 
  715000    1.1519959   -3.6153731    673.43081   0.07848844  0.079822393            3 
  716000    1.1175331   -3.6389872    672.60524  0.078282733  0.079808736            4 
  717000    1.1359898    -3.618125    675.68475  0.078531468  0.079794987            3 
  718000    1.1403095   -3.6006884    674.52009  0.078286918  0.079781069            2 
  719000    1.1543544   -3.6480664    675.06652  0.078241367  0.079767336            2 
  720000    1.1541209   -3.6443044    675.61636  0.078196338  0.079754346            1 
  721000    1.1213974   -3.6239769    679.89894  0.078582864  0.079741178            3 
  722000    1.1641874   -3.6023056    680.24421  0.078513875  0.079728378            1 
  723000    1.1240134   -3.6002045    680.84023  0.078473978  0.079716477            3 
  724000    1.1334588   -3.6108722    682.73378  0.078583538  0.079704211            3 
  725000    1.1502077   -3.6543574    680.25936  0.078190731  0.079691306            6 
  726000    1.1319067   -3.5945427    684.13215  0.078527566   0.07967874            2 
  727000    1.1261042   -3.5869229    684.92918   0.07851091  0.079665314            3 
  728000    1.1277951   -3.6375352    682.65555  0.078142806  0.079651626            3 
  729000    1.1341037   -3.6045377    685.18611  0.078324886   0.07963912            1 
  730000    1.1546259   -3.6328773    687.16471   0.07844346  0.079627048            2 
  731000     1.123888   -3.6348066    687.34095  0.078356242  0.079614848            3 
  732000    1.1498704   -3.5740707    692.31982  0.078816009  0.079603228            7 
  733000    1.1107198   -3.6537168      687.256  0.078132787    0.0795908            3 
  734000    1.1471229      -3.6077    689.75589   0.07831016  0.079578754            1 
  735000    1.1220512   -3.6173527    690.01635  0.078233146  0.079566959            2 
  736000    1.1419026   -3.6112493    691.35568  0.078278497  0.079555282            2 
  737000    1.1321484   -3.6232401    693.77625  0.078445981  0.079543513            1 
  738000    1.1316506   -3.5890621    695.13306  0.078492893  0.079531715            2 
  739000    1.1300312   -3.5975694    691.44297  0.077970565  0.079520157            1 
  740000    1.1188591   -3.6437542    691.52241  0.077874145  0.079507794            4 
  741000    1.1274678   -3.6140927    694.78674   0.07813616  0.079495576            2 
  742000     1.153244   -3.6079249    699.14033  0.078519803  0.079483346            2 
  743000    1.1390638   -3.6044266    696.63827  0.078133498  0.079470762            2 
  744000    1.1485827   -3.6316409    697.97049  0.078177698  0.079458493            2 
  745000    1.1208003   -3.6345905    699.39625  0.078232243  0.079445068            3 
  746000    1.1186972    -3.629955    698.01314  0.077972871  0.079432645            1 
  747000    1.1187412   -3.6322881    700.06485  0.078097373  0.079419779            3 
  748000    1.1285276   -3.6348509    699.81849  0.077965518  0.079406052            2 
  749000    1.1201953    -3.634433    701.15082   0.07800966  0.079392807            5 
  750000    1.1125196   -3.5961257    704.79178  0.078310198  0.079379995            2 
  751000    1.1218805   -3.6391626    702.46926  0.077948209  0.079366052            2 
  752000    1.1361266   -3.6366847    703.39244  0.077946858  0.079352337            2 
  753000    1.1270755   -3.5922514    707.11167  0.078254943  0.079338604            2 
  754000    1.1267707   -3.6313575    705.15477  0.077934878  0.079324258            3 
  755000    1.1338076   -3.6328313    706.72374  0.078004827  0.079310603            1 
  756000    1.1380681   -3.6402936    706.80568  0.077910679  0.079297578            4 
  757000    1.1478234   -3.6198939    707.87261  0.077925211  0.079283969            2 
  758000    1.1112603   -3.6038244    711.59746  0.078231911   0.07927027            2 
  759000    1.1126999   -3.6025093    710.84097  0.078045781  0.079256508            3 
  760000    1.1039693   -3.6311238    709.87899  0.077837608   0.07924389            3 
  761000    1.1267905   -3.6140575    712.61185  0.078034587  0.079231338            1 
  762000    1.1396732   -3.6401745    715.66114  0.078265654   0.07921794            3 
  763000    1.1064228   -3.6203598     714.3373  0.078018491   0.07920598            3 
  764000    1.1340031   -3.6453082    715.29633  0.078020978  0.079194496            2 
  765000    1.1062085   -3.5837434    718.05195  0.078219166  0.079182983            2 
  766000    1.1307299   -3.6584693    715.66312  0.077857172  0.079170874            2 
  767000    1.1159519   -3.6168565    719.51974  0.078174678  0.079159207            2 
  768000    1.1362331    -3.659901    718.61634  0.077974863   0.07914826            4 
  769000    1.1419441   -3.6332774    717.01164  0.077699571  0.079136357            2 
  770000    1.1063792   -3.6227845    718.44305  0.077753577  0.079123555            1 
  771000    1.1150062   -3.6306896    719.65199  0.077783397  0.079110468            3 
  772000    1.0973024   -3.6191435     720.5787  0.077782675  0.079097736            2 
  773000    1.1525859   -3.6095563    723.10118  0.077953987  0.079083813            2 
  774000     1.123825   -3.6449461    723.22564  0.077866671   0.07907002            2 
  775000    1.1238783   -3.6325305    722.46877  0.077684814  0.079055986            2 
  776000    1.1248088   -3.6241535    723.63944  0.077710421  0.079041601            1 
  777000    1.1237827    -3.633681    724.61236  0.077714753  0.079028271            5 
  778000    1.1374975   -3.6304552    725.03072  0.077659674  0.079013714            7 
  779000    1.1157298    -3.628394    726.32783  0.077698741  0.078999516            2 
  780000    1.1073093   -3.5979391    728.04984  0.077783103  0.078986534            1 
  781000    1.1424759   -3.6378797    726.35158  0.077502303  0.078972019            6 
  782000    1.1171257   -3.6371178    727.25974  0.077499972  0.078958173            2 
  783000    1.1091896   -3.6340803    730.78714  0.077776409  0.078944002            1 
  784000    1.1335071    -3.624205    730.51252  0.077648014  0.078928769            3 
  785000    1.1516085   -3.6366992    729.79434   0.07747286  0.078913983            2 
  786000    1.1196192   -3.6348849     732.2976  0.077639694   0.07889908            4 
  787000    1.1235573   -3.6209097    733.91976  0.077712808  0.078884097            2 
  788000    1.1358364   -3.6525851    732.26813  0.077439524  0.078869093            4 
  789000    1.1072401   -3.6589984    730.60181   0.07716538  0.078855149            2 
  790000    1.1234168   -3.6384285    734.90653  0.077521785  0.078841149            6 
  791000    1.1299804   -3.6127683    735.16884  0.077451415   0.07882793            2 
  792000    1.1421269   -3.6767133    736.58453  0.077502581  0.078814416            3 
  793000    1.1165893   -3.6075238    741.69302  0.077941679  0.078801316            4 
  794000     1.118806   -3.6442978    737.77505  0.077432309  0.078786747            6 
  795000    1.1345762   -3.6187186    737.40058  0.077295658  0.078772029            3 
  796000     1.127612   -3.6213593    741.13131  0.077589123  0.078756899            1 
  797000    1.1287277    -3.673553    735.93562  0.076948517  0.078741226            3 
  798000    1.1172394   -3.5996471    741.47946  0.077431021  0.078725226            1 
  799000    1.1178443   -3.6294498      739.774  0.077156237  0.078710999            2 
  800000     1.097376   -3.6126312     743.3825  0.077435677  0.078696632            1 
  801000    1.1176669   -3.6389986    740.17816  0.077005634  0.078680856            2 
  802000    1.1373883   -3.6082323    743.17473  0.077220982  0.078666044            2 
  803000    1.1292851   -3.6409482    742.37918  0.077042256  0.078651602            4 
  804000    1.1329297   -3.6311281    744.10688  0.077125506   0.07863634            1 
  805000    1.1118353   -3.6554749    748.32974  0.077466847  0.078620877            3 
  806000    1.1128471   -3.6164519    749.49966  0.077491694   0.07860611            1 
  807000    1.0900785   -3.6408926    747.63974  0.077203608   0.07859126            2 
  808000      1.14925    -3.653186    748.59577  0.077206659  0.078577875            3 
  809000    1.1095424   -3.6128588    749.28829   0.07718256  0.078563223            3 
  810000     1.118818   -3.6081905    748.03583  0.076958418  0.078547635            2 
  811000    1.1208279   -3.6400217     748.1582  0.076876099  0.078532221            1 
  812000    1.1254478   -3.6415736    749.11681  0.076879804  0.078515651            4 
  813000    1.0860065   -3.6658438    749.44823  0.076819212   0.07849994            3 
  814000    1.1296375   -3.6362995    750.50443  0.076832968  0.078484124            3 
  815000    1.1347716   -3.6540298    751.12285  0.076801927  0.078467697            2 
  816000    1.1248441   -3.6324522      751.395    0.0767356  0.078452301            1 
  817000    1.1304979   -3.6492425    752.63896   0.07676856  0.078436206            2 
  818000    1.1116762   -3.6379286    755.39936  0.076955925  0.078420315            1 
  819000    1.1218365   -3.6341389    755.86713  0.076909557  0.078405379            2 
  820000    1.1046922   -3.6474195    755.88178  0.076817254  0.078389575            1 
  821000     1.133964   -3.6181593    757.53578  0.076891574    0.0783738            2 
  822000    1.1176685   -3.6551861    756.81168  0.076724623  0.078358376            3 
  823000    1.1268089     -3.62712    761.54353  0.077110524  0.078341973            3 
  824000    1.1406368   -3.6582808    759.80816   0.07684144  0.078325302            2 
  825000    1.1191534   -3.6246312    760.64213  0.076832538  0.078309225            3 
  826000    1.1391388   -3.6268889    761.27625  0.076803496  0.078293582            4 
  827000    1.1289142   -3.6241263     761.7688  0.076760257  0.078277814            1 
  828000    1.0811703   -3.6162902    763.62308  0.076854175  0.078262323            1 
  829000    1.1204724   -3.6406159    767.86128  0.077187503   0.07824641            2 
  830000    1.0921761   -3.6494024    765.10103  0.076817373  0.078231104            3 
  831000     1.123639   -3.6664832    766.10297  0.076825408  0.078215293            1 
  832000    1.1261082   -3.6375235    766.33393  0.076756203  0.078199451            2 
  833000    1.1252392    -3.621827    766.02344  0.076632997  0.078183201            2 
  834000    1.1498231   -3.6588784    767.40072  0.076678729  0.078167707            2 
  835000    1.1232422   -3.6370229    769.92294  0.076838617  0.078152449            2 
  836000    1.1112837   -3.6348841     771.0606  0.076860108  0.078137597            2 
  837000    1.1175985   -3.6123854    774.12617  0.077073493  0.078122266            1 
  838000    1.1215241    -3.651972    770.64374  0.076635217    0.0781058            3 
  839000    1.0950303   -3.6491547    769.06654  0.076387221  0.078089965            3 
  840000     1.113417   -3.6520022      773.248  0.076711111  0.078073217            2 
  841000    1.1264557    -3.695965    770.43282  0.076340946  0.078056853            3 
  842000    1.1020496   -3.6393362    774.04159  0.076607442   0.07804092            2 
  843000    1.1182342   -3.6505111    772.78262  0.076392113  0.078025215            4 
  844000     1.116491   -3.6748015    773.94783   0.07641665  0.078010513            1 
  845000     1.122314   -3.6497307    776.81574  0.076609047  0.077995038            3 
  846000    1.1246345   -3.6499944    776.37016  0.076474602  0.077979857            4 
  847000    1.1176267   -3.6330741    780.31744  0.076772672  0.077963635            3 
  848000     1.105853   -3.6587773    776.15401  0.076272996  0.077948535            3 
  849000    1.1136941   -3.6353161    781.92124  0.076749238  0.077934097            2 
  850000    1.1136553   -3.6357653     783.0707  0.076771637  0.077918992            2 
  851000    1.1123263   -3.6459736    784.28464  0.076800298  0.077904004            2 
  852000    1.1313126   -3.6260396    782.52193  0.076537748  0.077889012            1 
  853000    1.1312686   -3.6433917    785.18826  0.076708505  0.077874043            3 
  854000    1.1162784    -3.649488    788.80168  0.076971281   0.07785911            1 
  855000    1.0965637   -3.6310192    782.79678  0.076295983  0.077843988            3 
  856000    1.1117802    -3.677047    780.03138  0.075937635  0.077828274            2 
  857000    1.1094734   -3.6590964    784.53088  0.076286549  0.077811889            2 
  858000    1.1287717   -3.6355771    783.66251  0.076113297  0.077796148            2 
  859000    1.1192327    -3.620297    787.02675  0.076351062  0.077781097            2 
  860000    1.0924327   -3.6546326    787.33782  0.076292425  0.077765707            3 
  861000    1.1017437   -3.6231356    789.69829  0.076432278  0.077750811            2 
  862000    1.0964863   -3.6943002     788.0511  0.076184367  0.077734767            3 
  863000    1.1025269   -3.6636228    789.82351  0.076267237  0.077718126            3 
  864000    1.1235358   -3.6440041    789.30296  0.076128757  0.077702147            1 
  865000    1.1352646   -3.6962101    788.01524   0.07591669  0.077686198            2 
  866000    1.1186839   -3.6361926    792.76381  0.076285971  0.077669938            2 
  867000    1.1274474   -3.6314945    796.47097  0.076554303  0.077654592            2 
  868000     1.114518   -3.6580484    793.83573  0.076213108  0.077638905            2 
  869000    1.0976492   -3.6104982    796.46623  0.076377659  0.077622551            2 
  870000    1.1164045   -3.6254922    793.30696  0.075987257  0.077606815            2 
  871000     1.102685   -3.6387043    795.20835  0.076081932  0.077590577            6 
  872000    1.0980424   -3.6324704    797.68426  0.076231294  0.077574759            2 
  873000    1.1132928   -3.6310287    799.50299  0.076317582  0.077559546            5 
  874000    1.1129492   -3.6193418    800.13298   0.07629033  0.077544065            2 
  875000    1.1221467   -3.6447509    799.89994  0.076180947  0.077528177            1 
  876000    1.1022211    -3.639125    800.78467  0.076178146  0.077511982            3 
  877000       1.0998   -3.6186199    798.77027  0.075899874  0.077495689            2 
  878000    1.1257352   -3.6268111    800.23264  0.075952225  0.077479046            2 
  879000    1.1173961   -3.6267531    802.51178  0.076081891   0.07746187            1 
  880000    1.0911295   -3.6527804    799.52426  0.075712524  0.077445182            4 
  881000    1.1152644   -3.6846696    801.19001  0.075784148   0.07742881            1 
  882000    1.1124593   -3.6652708      800.943  0.075674886  0.077412257            2 
  883000    1.1264351   -3.6515221    804.32857  0.075908699  0.077394938            2 
  884000      1.13005   -3.6232699    805.51741  0.075934899  0.077379052            3 
  885000     1.126198   -3.6602438    809.54774    0.0762286  0.077363262            4 
  886000    1.1049946   -3.6151428    806.93532  0.075896851  0.077347118            4 
  887000    1.1151192   -3.6919855    808.99293  0.076004597  0.077331336            2 
  888000    1.1058468   -3.6423586    807.18902  0.075749721  0.077315436            3 
  889000    1.1176906   -3.6464636    811.46783  0.076065601  0.077300269            2 
  890000    1.1105577   -3.6443996    810.86923  0.075924085  0.077284448            2 
  891000    1.1229882    -3.646124    814.43499  0.076172371  0.077269095            3 
  892000    1.0970864   -3.6452714    813.96911  0.076043452   0.07725439            1 
  893000    1.1049585   -3.6227481      816.664   0.07620978  0.077240084            2 
  894000    1.1040209   -3.6389365    814.83707  0.075954238   0.07722502            1 
  895000    1.0841264   -3.6345109    815.46013  0.075927386  0.077209741            2 
  896000    1.1128347    -3.680475    818.33565  0.076110086  0.077194107            2 
  897000    1.1178305   -3.6410366    815.07808  0.075722601  0.077178974            2 
  898000    1.0790639   -3.6495976    817.44775  0.075858181  0.077163735            2 
  899000    1.1238066   -3.6546361    816.66178  0.075700944  0.077147651            4 
  900000    1.1169632   -3.6604274    816.47423  0.075599466  0.077132182            3 
  901000    1.1237607   -3.6663922     821.0072  0.075934813  0.077115981            3 
  902000    1.0976499   -3.6825187    819.28905  0.075691893  0.077099903            2 
  903000    1.1065857   -3.6338203    824.97631  0.076132919  0.077084289            2 
  904000    1.1006733   -3.6508584    819.68264  0.075560716  0.077068667            2 
  905000    1.1498824   -3.6662669    821.55605  0.075649728  0.077052721            3 
  906000     1.120388   -3.6777928    819.91866  0.075415623  0.077036999            2 
  907000    1.0836107   -3.6614259    821.48031  0.075475956  0.077019992            2 
  908000    1.0951498   -3.6561024    823.00738  0.075532983   0.07700317            3 
  909000    1.1138462    -3.688752    820.44271   0.07521477  0.076987193            3 
  910000    1.1249863   -3.6508313     826.9686  0.075729725   0.07697031            1 
  911000    1.1119528   -3.6508803    820.48895  0.075053874  0.076953909            3 
  912000    1.0970211   -3.6647764     824.7777   0.07536346  0.076937055            1 
  913000    1.0927301   -3.6345404    828.20667  0.075593891  0.076920768            6 
  914000    1.0873795   -3.6312367    824.52103  0.075175148  0.076903713            2 
  915000    1.1200198   -3.6577803    826.24093  0.075249629  0.076886278            1 
  916000    1.1434535    -3.634715    830.79339  0.075581641  0.076869107            2 
  917000    1.0769166   -3.6501969    831.30326  0.075545552  0.076852149            2 
  918000    1.1084611   -3.6478473    831.91496  0.075518787  0.076835336            2 
  919000    1.1050801   -3.6656264    833.95241  0.075621364  0.076819435            2 
  920000    1.1086543   -3.6623738     836.6184  0.075780652  0.076803729            1 
  921000    1.0987807   -3.6631755    834.81477  0.075535177  0.076788851            3 
  922000    1.1021069    -3.629436    837.64117   0.07570871  0.076773982            3 
  923000    1.1010967   -3.6697521    836.18463  0.075495182  0.076758893            2 
  924000    1.1114117   -3.6616098    836.28667  0.075422679  0.076743251            4 
  925000    1.1007615    -3.709825    837.12516  0.075416681  0.076727678            3 
  926000    1.1299877   -3.6327264    841.88683  0.075763754   0.07671255            2 
  927000    1.0787533   -3.6470681    840.14599  0.075525529  0.076697579            1 
  928000     1.118017   -3.6456584    842.84868  0.075686842  0.076682555            5 
  929000    1.1072542   -3.6498775    843.86393  0.075696441   0.07666773            3 
  930000     1.116435   -3.6803203     837.2774  0.075024857  0.076652052            1 
  931000    1.1161344   -3.6445834     838.8124  0.075081668  0.076636749            2 
  932000    1.1190829    -3.668034    840.35024  0.075138612  0.076620949            2 
  933000    1.0981634   -3.7162901    841.81168   0.07518861  0.076605214            2 
  934000    1.1041618    -3.668644    846.65891  0.075540588  0.076589557            2 
  935000    1.0978645   -3.6744409    846.14926  0.075414373  0.076574099            2 
  936000    1.0871021   -3.6891751    845.40663  0.075267685  0.076559008            4 
  937000    1.1016898   -3.6696805    847.71458  0.075392617  0.076544313            1 
  938000    1.0939577   -3.6607391    848.19169  0.075354628  0.076530169            2 
  939000    1.0979568   -3.6421834    849.43877  0.075385053     0.076515            3 
  940000    1.0988049   -3.6907329     849.5869  0.075317987  0.076501236            1 
  941000    1.0967262   -3.6409913    854.39524  0.075663765  0.076486964            2 
  942000    1.1095418   -3.6478973    853.06127  0.075465434  0.076472291            1 
  943000    1.0997999   -3.6702947    855.17716  0.075572389   0.07645702            3 
  944000    1.0775299   -3.6554116    854.89307  0.075467256  0.076441389            3 
  945000     1.087129   -3.6557939    850.43951  0.074994665  0.076426047            3 
  946000    1.0886056   -3.6646015    853.74084  0.075206205   0.07641057            2 
  947000     1.092602   -3.6584726    854.60255  0.075202618    0.0763946            3 
  948000    1.0863876   -3.6720299    855.18974  0.075174906  0.076378862            4 
  949000    1.1031774   -3.6504865    856.32605  0.075195473  0.076364014            3 
  950000     1.120901   -3.6582621    856.89216  0.075165979    0.0763487            3 
  951000    1.1155283   -3.6596393    859.01735  0.075273164  0.076332994            4 
  952000    1.0969899   -3.6721057    855.55083  0.074890654  0.076317972            3 
  953000     1.113472   -3.6677243    856.21572   0.07487021  0.076301475            3 
  954000    1.0862788     -3.63776    859.00861  0.075035692  0.076286047            1 
  955000    1.0910135   -3.6848701    859.84088  0.075029746  0.076270724            2 
  956000    1.1004191   -3.6495065    860.52522  0.075010915  0.076254574            2 
  957000    1.1077096    -3.651377    861.68143  0.075033214  0.076238521            2 
  958000    1.0856633   -3.6748544    861.95981  0.074979107  0.076222278            3 
  959000     1.087417   -3.6654937    857.73005  0.074533372  0.076206422            7 
  960000    1.1050978   -3.6406903    865.90333   0.07516522  0.076190914            2 
  961000    1.0835261   -3.6706589    864.30485  0.074948391  0.076175449            2 
  962000    1.1164271   -3.6799115     868.4227  0.075227191  0.076160391            2 
  963000    1.0932184   -3.6839076     861.6345  0.074561657  0.076144413            3 
  964000    1.1303971    -3.643194    869.16272   0.07513509  0.076129242            2 
  965000    1.0824595   -3.7015962      869.023  0.075045164  0.076113163            4 
  966000    1.1110845   -3.6518689    869.53356  0.075011521  0.076097437            3 
  967000    1.0779859   -3.6942207    870.51837  0.075018819  0.076081505            4 
  968000    1.0816111   -3.6732769    869.60577  0.074862756  0.076065385            5 
  969000    1.1036001   -3.6842712    866.87818  0.074550927   0.07604988            3 
  970000    1.1072336   -3.6961961    866.10858  0.074407954  0.076034036            4 
  971000     1.112464   -3.6848193    876.41524  0.075215864  0.076018526            2 
  972000    1.1201698   -3.6614888    870.19085   0.07460484  0.076003169            1 
  973000    1.0836674   -3.6668752    869.01425  0.074427394    0.0759867            3 
  974000    1.0817677   -3.6686224    873.07227  0.074698175  0.075970394            1 
  975000    1.1120559    -3.692372    873.17799  0.074630598  0.075953704            1 
  976000    1.1146871   -3.7155361    870.51308  0.074326595  0.075936739            2 
  977000    1.0722368   -3.6673306    872.62863  0.074430965   0.07591932            2 
  978000    1.1055524   -3.6671581    874.99996  0.074556915  0.075902862            4 
  979000    1.0904463   -3.7088069    872.60867  0.074277211  0.075885268            1 
  980000    1.0752407   -3.6741536    877.10863  0.074584067   0.07586807            3 
  981000    1.0804811   -3.6840274    875.71427  0.074389592   0.07585053            2 
  982000    1.0903496   -3.6696397    875.16697  0.074267394  0.075833811            1 
  983000    1.0858365   -3.6880127    879.25264  0.074538202   0.07581672            2 
  984000    1.0984293   -3.6726364    880.27768  0.074549261    0.0757998            2 
  985000    1.0996205   -3.6752245    879.15711  0.074378774  0.075782569            4 
  986000    1.1127689   -3.6945616    883.74025   0.07469069  0.075765148            3 
  987000     1.079604   -3.6588199     881.8738   0.07445743  0.075748032            1 
  988000    1.0852422   -3.6749904       879.81  0.074207996  0.075730122            3 
  989000    1.0734397   -3.6718647    880.26437  0.074171248   0.07571279            2 
  990000    1.0940135   -3.6601307    880.12957   0.07408498  0.075695251            1 
  991000    1.1031088   -3.6623722    882.28562  0.074191525  0.075678027            2 
  992000    1.0711396   -3.6460615    883.74484  0.074239318  0.075660702            3 
  993000    1.1201455   -3.6905643    884.27325    0.0742089  0.075643299            4 
  994000    1.1015361   -3.6483076    889.06634  0.074536078  0.075626797            2 
  995000     1.104101   -3.6759037    888.22512  0.074390713  0.075610227            4 
  996000    1.1045965   -3.6882294    889.51692  0.074424106   0.07559323            4 
  997000    1.1086933   -3.6714178    889.06378  0.074311583  0.075576366            5 
  998000    1.0675895   -3.6651861    890.60714  0.074365994  0.075560563            2 
  999000    1.0929557   -3.6616313    890.43789  0.074277435  0.075544316            3 
 1000000    1.0866052   -3.6965221    889.01048  0.074084207  0.075527908            1 
 1001000    1.1019781   -3.6737335    890.39241  0.074125242  0.075511745            1 
 1002000    1.0866384   -3.6780855    891.71494  0.074161256  0.075495516            2 
 1003000    1.0926641   -3.6846712    892.36632  0.074141435  0.075478625            2 
 1004000    1.1028996    -3.699848    886.54973  0.073584805  0.075461039            3 
 1005000    1.1061371   -3.7052841    892.33736  0.073991489   0.07544307            4 
 1006000    1.0995333   -3.7213648    894.39376  0.074088284  0.075425897            1 
 1007000    1.0705096    -3.657866    896.33126  0.074175046  0.075408989            2 
 1008000    1.0991104   -3.7151333    891.78465  0.073725582  0.075391787            3 
 1009000    1.0778138   -3.6917544    897.52161   0.07412633  0.075374644            2 
 1010000     1.084117   -3.6924047    892.70822  0.073655794  0.075357131            4 
 1011000    1.1107952   -3.6714989    895.93686  0.073849065  0.075339684            6 
 1012000    1.0857748   -3.6965061    896.11246  0.073790552  0.075321995            1 
 1013000    1.1002353   -3.6812482    900.71775  0.074096557  0.075304714            5 
 1014000    1.0949794   -3.7086673    892.84441   0.07337643  0.075286788            3 
 1015000    1.0937313    -3.684826    897.05245  0.073649626  0.075268727            2 
 1016000    1.0939257   -3.6919386    897.44242  0.073609122  0.075250524            3 
 1017000     1.070994   -3.6633663    901.36851  0.073858448  0.075232514            1 
 1018000    1.1186252   -3.6918495    899.86461  0.073662787  0.075214684            8 
 1019000    1.0954053   -3.6771083    899.51808  0.073562159  0.075196486            2 
 1020000    1.0915662   -3.6770922    901.58184  0.073658647   0.07517846            2 
 1021000    1.1126145   -3.6839845    901.16468  0.073552455  0.075160239            3 
 1022000    1.0831056   -3.6761864    904.98384  0.073791898  0.075142971            2 
 1023000    1.0880811   -3.6747967    907.56447  0.073929983  0.075125647            3 
 1024000    1.0872053   -3.6980143    907.42845  0.073846716  0.075108215            3 
 1025000    1.0980215   -3.6899117    909.58277  0.073949819  0.075090723            3 
 1026000    1.0868027   -3.6861671    909.00458  0.073830781  0.075073856            2 
 1027000     1.074328   -3.6687234    908.83344  0.073745005  0.075057131            2 
 1028000    1.0815424    -3.691018    908.66281  0.073659436  0.075040761            3 
 1029000    1.0902274   -3.6693034    914.47498   0.07405855  0.075024696            4 
 1030000    1.0702868   -3.6788101    913.08661  0.073874321  0.075008872            2 
 1031000    1.0724306   -3.6914747    912.45136  0.073751322  0.074993181            2 
 1032000    1.0889792   -3.7053187    918.32974  0.074154533  0.074977419            2 
 1033000    1.0587556   -3.6997295    917.45118  0.074011873  0.074961594            3 
 1034000     1.081407   -3.6917939    912.72175  0.073559135  0.074946206            7 
 1035000    1.0838156    -3.702332    915.55762  0.073716395   0.07493068            4 
 1036000    1.0842158   -3.6668694    918.76531  0.073903259  0.074914598            2 
 1037000    1.0843444   -3.7103471    916.07765  0.073616012  0.074898451            2 
 1038000    1.0945416   -3.6888392    919.05425   0.07378406  0.074881914            3 
 1039000    1.0572094   -3.6765881    918.81725  0.073694037  0.074865899            3 
 1040000    1.1118426   -3.7049888    918.85664  0.073626333  0.074849832            3 
 1041000    1.0848949   -3.7068541    918.79597   0.07355075  0.074833741            2 
 1042000    1.0633199   -3.6798262    923.39831  0.073848233  0.074817895            3 
 1043000    1.0940724     -3.66011    925.78825   0.07396838  0.074802411            2 
 1044000    1.0860914   -3.6845253    923.50084  0.073714946  0.074786908            2 
 1045000    1.0751154   -3.6832843    923.79872   0.07366816    0.0747712            3 
 1046000    1.0750358   -3.6897856    926.47112  0.073810637  0.074755962            2 
 1047000    1.0768177   -3.6618283    931.21303  0.074117561  0.074741283            2 
 1048000    1.0594766   -3.6977759    928.57567  0.073837124  0.074726418            2 
 1049000    1.0917101   -3.7395511    927.79697  0.073704875  0.074711519            4 
 1050000    1.0770034   -3.6499203    927.76715  0.073632314  0.074696802            1 
 1051000    1.1037687    -3.668685    929.22698  0.073678003  0.074682109            2 
 1052000     1.087976   -3.6883458    928.15672  0.073523187  0.074666795            4 
 1053000    1.0635846   -3.6818671    928.04129   0.07344423  0.074650895            5 
 1054000    1.0909807   -3.6974536    931.69167  0.073663162  0.074635329            3 
 1055000    1.0675594   -3.6927497    933.67911  0.073750325  0.074619906            2 
 1056000    1.0910311   -3.7157115    930.57665  0.073435658  0.074605236            2 
 1057000    1.0641401   -3.6770861    936.74624  0.073852589  0.074590072            4 
 1058000    1.0777905   -3.6808084    933.45272  0.073523371  0.074574787            3 
 1059000      1.05475   -3.6887491    936.08282  0.073660908  0.074560423            3 
 1060000    1.0947388   -3.6832657    936.49586  0.073623888  0.074545857            2 
 1061000    1.0532629   -3.7070683     936.1671  0.073528676  0.074530842            3 
 1062000    1.0920323   -3.6843495    937.94768  0.073599159  0.074515914            2 
 1063000    1.1119719   -3.6928899    940.77807  0.073751809  0.074502025            3 
 1064000    1.0878852   -3.6955352    942.77442  0.073838849  0.074487681            1 
 1065000    1.0559799   -3.6851015     943.1714  0.073800579  0.074473406            2 
 1066000    1.0921699   -3.6723646    940.74656  0.073541789  0.074459469            2 
 1067000    1.0819939    -3.672607    947.07286  0.073966952  0.074445346            2 
 1068000    1.0573039   -3.7141668    945.58258  0.073781413  0.074431952       -1e+20 
 1069000    1.0900694   -3.6889393    947.26887  0.073843847  0.074418393            1 
 1070000     1.076809   -3.6849566    947.11947  0.073763199  0.074404422            2 
 1071000    1.0781787   -3.7232261    946.62854  0.073656127  0.074390695            2 
 1072000    1.0868768   -3.6806991    948.59538  0.073740312  0.074376805            3 
 1073000     1.087888   -3.6996223    945.97456  0.073468046  0.074364051            2 
 1074000    1.0890125   -3.7102107    954.10993  0.074030876  0.074350412            4 
 1075000      1.08114   -3.6848723    951.15377   0.07373285   0.07433778            2 
 1076000    1.0877017   -3.6811311    950.92204  0.073646378  0.074324397            2 
 1077000    1.0555095   -3.6898215    952.56028  0.073704757  0.074311547            3 
 1078000    1.0976791    -3.710213    952.96276  0.073667499  0.074298274            2 
 1079000    1.0877449   -3.7144995    948.32437  0.073240993  0.074285016            2 
 1080000    1.0553312    -3.698319    955.16004   0.07370062  0.074271278            3 
 1081000    1.0791752   -3.7170183    954.70073  0.073597034  0.074258168            1 
 1082000    1.0770004   -3.6949492    956.07749   0.07363505  0.074244924            3 
 1083000    1.1056607   -3.6799232    957.76292  0.073696746  0.074231042            4 
 1084000    1.0680792   -3.6948331    958.18029  0.073660846  0.074217584            3 
 1085000     1.085302   -3.6933487    957.03787  0.073505213  0.074204001            2 
 1086000    1.0670538   -3.6856735    960.26668  0.073685288  0.074190683            4 
 1087000    1.0670112   -3.6926713    959.36175  0.073548125  0.074177106            1 
 1088000    1.0811146   -3.6911521    960.94319  0.073601653  0.074163949            3 
 1089000    1.0740214   -3.7110859    959.83722  0.073449435  0.074150835            3 
 1090000    1.0959908   -3.7267791    958.80426  0.073303078  0.074136898            4 
 1091000    1.0703475   -3.7108472    960.67671  0.073378911  0.074123197            1 
 1092000    1.0821096   -3.7233468    961.14838  0.073347709  0.074110042            2 
 1093000    1.0912586   -3.6889489    960.72658  0.073248443  0.074096607            3 
 1094000     1.105325   -3.6820034    964.41185  0.073462207  0.074083285            1 
 1095000    1.0832318    -3.713112    959.26584  0.073003488  0.074069599            3 
 1096000    1.0620733   -3.6864327      962.805  0.073205976  0.074055663            2 
 1097000    1.0630243   -3.7185227     964.0832  0.073236341  0.074042389            3 
 1098000    1.0635853   -3.7031237     964.8985   0.07323152   0.07402848            3 
 1099000    1.0791037   -3.6812645    963.57343  0.073064409  0.074014991            2 
 1100000    1.0760344    -3.714896    967.53793  0.073298328  0.074001373            4 
 1101000    1.0515033   -3.7114166    966.86754  0.073181013  0.073987704            4 
 1102000    1.0651857   -3.7239872    967.22138  0.073141363  0.073974285            4 
 1103000    1.0849049   -3.6897269     971.0836  0.073366848  0.073960417            2 
 1104000    1.0828152   -3.6907097    968.97262  0.073141049  0.073946534            1 
 1105000    1.0632524   -3.6790145    972.09709   0.07331049  0.073932722            1 
 1106000    1.0764546   -3.6669276    970.44192  0.073119494  0.073919189            3 
 1107000    1.0748156   -3.7201054    975.79388  0.073456329  0.073905842            3 
 1108000    1.0626681   -3.6913633    974.10137  0.073262738  0.073892592            4 
 1109000    1.0914167   -3.7091111    978.15537  0.073501305  0.073879432            2 
 1110000    1.0741555   -3.6869012    978.57339  0.073466471   0.07386684            2 
 1111000    1.0662843    -3.694097    977.12232  0.073291503  0.073854083            2 
 1112000    1.0877227   -3.7116992    978.95126  0.073362654  0.073841199            2 
 1113000    1.0628625   -3.7180154    981.44789  0.073483669  0.073828978            2 
 1114000    1.1062662   -3.6931188    981.62087  0.073430646  0.073816735            4 
 1115000    1.0562466   -3.7097072    982.50352  0.073430757  0.073804349            3 
 1116000    1.0719134   -3.7111568    980.50854   0.07321599  0.073792673            2 
 1117000    1.0754454   -3.7646976    982.41403  0.073292601  0.073780682            2 
 1118000    1.0726095   -3.7026119    982.25423  0.073215133  0.073768467            2 
 1119000    1.0726578   -3.7074291    984.31883  0.073303457  0.073756247            2 
 1120000    1.0760072   -3.7241874    985.42412  0.073320247   0.07374426            3 
 1121000    1.0786663   -3.7001888    984.74682  0.073204491  0.073732588            1 
 1122000    1.0780189   -3.7174593    985.83667  0.073220192  0.073720703            2 
 1123000    1.0483804   -3.7352287    984.74195  0.073073757  0.073708057            3 
 1124000     1.068677   -3.7227682    985.34214  0.073053243  0.073695661            2 
 1125000      1.06183   -3.7223666    987.99211  0.073184601  0.073682929            1 
 1126000    1.0746676   -3.7200807    986.58675  0.073015597  0.073670272            2 
 1127000    1.0588518   -3.6982722    990.89339  0.073269254  0.073657892            1 
 1128000    1.0660984   -3.7206011    991.08451  0.073218418  0.073645085            2 
 1129000    1.0800109   -3.7513829    987.81812  0.072912469  0.073632062            3 
 1130000    1.1107701   -3.7226219    988.01441   0.07286242  0.073619067            2 
 1131000    1.0864573    -3.727646    990.77825  0.073001639  0.073606715            2 
 1132000    1.0648757   -3.7086178    990.74772  0.072934903  0.073593795            3 
 1133000     1.072605   -3.6943965    991.60189  0.072933355  0.073580816            2 
 1134000    1.0840305   -3.7170257    992.32075  0.072921866  0.073568054            2 
 1135000    1.0721626   -3.6937215    995.85132  0.073116837  0.073555638            3 
 1136000    1.0504154   -3.7207134    990.26888  0.072642964    0.0735436            2 
 1137000     1.106244   -3.6967095    1002.6393  0.073485728  0.073530931            2 
 1138000    1.0421473   -3.6936901     999.5837    0.0731974  0.073519012            4 
 1139000    1.0647751   -3.7286813    998.94649  0.073086515   0.07350675            2 
 1140000    1.0560126   -3.6963965    1000.8257   0.07315977  0.073494135            5 
 1141000    1.0787966   -3.7281303    999.93386  0.073030518   0.07348155            3 
 1142000     1.056187   -3.6610212    1002.5388  0.073156656  0.073469352            2 
 1143000    1.0558822   -3.7249661     1003.727  0.073179279   0.07345721            3 
 1144000    1.0677937   -3.7253918    1001.5465  0.072956473  0.073445218            3 
 1145000     1.053264    -3.688843    1003.0521  0.073002334  0.073432866            3 
 1146000    1.0697114   -3.7156153    1002.5911  0.072905109  0.073419958            2 
 1147000    1.0715555   -3.7146508    1004.9256   0.07301116  0.073406717            3 
 1148000    1.0691264   -3.7502268    1001.0011   0.07266268  0.073394098            2 
 1149000    1.0619302    -3.722023     1000.289  0.072547797  0.073381277            3 
 1150000    1.0450781   -3.7403128    1003.0967  0.072688166  0.073368075            3 
 1151000    1.0748244   -3.7318994    1007.8316  0.072967826  0.073354678            3 
 1152000    1.0462876    -3.732825    1010.1948  0.073075436  0.073342173            2 
 1153000    1.0720221   -3.6840953    1011.0731  0.073075536  0.073329753            2 
 1154000     1.083603   -3.7216376    1011.7774  0.073063069  0.073317186            2 
 1155000    1.0943194   -3.7214492     1014.304  0.073182104  0.073305225            4 
 1156000    1.0444894   -3.7005778    1010.8976  0.072873242  0.073292637            2 
 1157000    1.0767523   -3.7166452    1012.3412  0.072914231  0.073280549            3 
 1158000    1.0665518   -3.7166079    1015.0748  0.073047982  0.073268239            2 
 1159000    1.0726099   -3.7051805     1014.937  0.072975051  0.073256098            3 
 1160000     1.080403   -3.7286078    1016.3069   0.07301055  0.073244232            3 
 1161000    1.0871466      -3.7273    1016.0615  0.072930053   0.07323198            2 
 1162000    1.0742427   -3.7538611    1015.1341  0.072800782  0.073219782            2 
 1163000    1.0735274   -3.6991252     1017.678  0.072920463  0.073208641            3 
 1164000    1.0588393   -3.6989425    1018.5046  0.072916994  0.073197472            2 
 1165000    1.0662111   -3.6985288    1019.7962  0.072946794   0.07318603            2 
 1166000    1.0645487   -3.7275771    1018.1259   0.07276486  0.073175199            2 
 1167000    1.0713567   -3.7328182    1018.0593  0.072697751  0.073163765            2 
 1168000    1.0639954   -3.6990859    1023.0532   0.07299181  0.073152655            4 
 1169000    1.0827922   -3.7143761    1020.9621  0.072780303  0.073141095            2 
 1170000    1.0523188   -3.7297851    1024.9047  0.072998913  0.073129994            2 
 1171000    1.0746918   -3.7024343    1026.2829  0.073034651  0.073118649            5 
 1172000    1.0856218   -3.7085208    1025.6174  0.072925011  0.073107877            2 
 1173000    1.0516312   -3.6793602    1024.8745  0.072810066  0.073096959            2 
 1174000    1.0652767   -3.7343785    1025.3198   0.07277966  0.073086035            2 
 1175000    1.0762092   -3.7303367    1029.0893  0.072985059  0.073075433            3 
 1176000    1.0722497   -3.7088863    1030.6213  0.073031558  0.073064407            2 
 1177000     1.071387   -3.7299095    1032.1381  0.073076894  0.073053053            2 
 1178000    1.0576426   -3.7280804    1031.1407  0.072944303  0.073042904            2 
 1179000    1.0632695   -3.7581524    1030.8968  0.072865197  0.073032516            3 
 1180000    1.0584187   -3.7028258    1031.5139  0.072847026  0.073021528            2 
 1181000    1.0440305   -3.7080649    1033.1594  0.072901452   0.07301101            4 
 1182000    1.0678743    -3.710185    1032.5544  0.072797124  0.073000546            2 
 1183000    1.0558017   -3.7303103    1034.2617  0.072855854  0.072989567            3 
 1184000    1.0534017   -3.7662285    1031.1203  0.072573222  0.072978167            4 
 1185000    1.0744708   -3.7184071    1037.2755  0.072944831  0.072966764            2 
 1186000      1.07341   -3.7347558    1035.9298  0.072788774  0.072956128            3 
 1187000    1.0706921   -3.7317446    1038.9268  0.072937852  0.072945062            5 
 1188000    1.0553452   -3.7005078    1042.7939  0.073147719  0.072933965            2 
 1189000    1.0695519   -3.7390032    1038.8841  0.072812173  0.072923076            4 
 1190000    1.0624458   -3.7176968    1040.3047  0.072850468  0.072911967            3 
 1191000     1.067653   -3.7326967    1040.4329   0.07279827  0.072901151            2 
 1192000    1.0516115   -3.7539327    1041.2229  0.072792432   0.07288985            1 
 1193000    1.0591954   -3.7382644    1036.9055  0.072429831  0.072878357            1 
 1194000    1.0469188   -3.7479233    1038.8172  0.072502598  0.072866813            2 
 1195000    1.0503605   -3.7179141     1041.299  0.072614993  0.072855094            3 
 1196000     1.084831   -3.7219312    1038.5718  0.072364259  0.072843763            2 
 1197000    1.0864762   -3.7425493    1044.0788  0.072687187  0.072832583            2 
 1198000    1.0472228   -3.7509556    1045.3221  0.072713001  0.072820899            7 
 1199000    1.0367728   -3.7349214    1043.2885  0.072511014  0.072808912            1 
 1200000    1.0676326   -3.7372086    1042.3845  0.072387814  0.072797145            2 
 1201000    1.0717819    -3.745718    1044.2344  0.072455895  0.072785185            2 
 1202000    1.0547013   -3.7018051    1041.6973  0.072219727  0.072773405            1 
 1203000    1.0534406    -3.720837    1045.3268  0.072411112  0.072762295            3 
 1204000    1.0271146   -3.7423709     1047.989  0.072535227  0.072751087            3 
 1205000    1.0616684   -3.7253637    1045.8706  0.072328533  0.072739085            4 
 1206000    1.0377648   -3.7313811    1049.9804  0.072552545  0.072727738            2 
 1207000    1.0641398   -3.7040676    1054.2122  0.072784607  0.072716041            2 
 1208000    1.0558736    -3.717406    1050.9741  0.072500974  0.072704883            3 
 1209000    1.0643826   -3.7407485    1054.6779  0.072696299  0.072693565            4 
 1210000    1.0566255   -3.7578944    1054.0296  0.072591568  0.072682205            7 
 1211000    1.0776359   -3.6943414    1058.3001  0.072825499  0.072671428            4 
 1212000    1.0433645   -3.7571918    1053.1874  0.072413876  0.072661247            2 
 1213000    1.0482431   -3.7052628    1058.4889  0.072718393  0.072651125            1 
 1214000    1.0435756   -3.7142593    1059.9463  0.072758534  0.072640398            3 
 1215000    1.0582295   -3.7545414    1057.5563  0.072534723  0.072629299            3 
 1216000    1.0632517    -3.701889     1059.137  0.072583399  0.072618781            4 
 1217000    1.0506102   -3.7425309     1059.631  0.072557588  0.072608157            3 
 1218000    1.0445892   -3.7357398     1055.249  0.072198204  0.072596748            2 
 1219000    1.0692194   -3.7439944    1055.9676  0.072188107  0.072585578            2 
 1220000    1.0330404   -3.7117546    1060.2926  0.072424356  0.072574484            3 
 1221000    1.0603866   -3.7273237    1063.9062  0.072611668  0.072563637            3 
 1222000    1.0409043   -3.7424147    1059.4637  0.072249297  0.072552669            4 
 1223000    1.0609941   -3.7330219    1060.0913  0.072232986  0.072541163            6 
 1224000    1.0584729   -3.7510527    1061.8053  0.072290663  0.072530304            2 
 1225000    1.0834065   -3.7227879    1061.7697  0.072229229  0.072518852            2 
 1226000    1.0479075   -3.7338924    1062.9644  0.072251521  0.072507131            2 
 1227000    1.0496533   -3.6994168    1070.3683  0.072695481  0.072495556            4 
 1228000    1.0588431    -3.745146    1062.7493  0.072119251  0.072484255            4 
 1229000    1.0360468   -3.7169518    1068.2273  0.072432011   0.07247251            1 
 1230000    1.0699916   -3.7145233    1066.5733  0.072261062  0.072460937            2 
 1231000    1.0414811   -3.7352584    1065.2708   0.07211419  0.072449511            1 
 1232000    1.0520935   -3.7524263    1064.7002  0.072017057  0.072437829            8 
 1233000    1.0643272   -3.7233054    1070.2611  0.072334492  0.072426347            2 
 1234000    1.0423904   -3.7444123    1069.5078  0.072224998  0.072415317            1 
 1235000     1.059559   -3.7375582     1073.983  0.072468488  0.072404407            3 
 1236000    1.0698064   -3.7350571      1070.92  0.072203345  0.072393268            3 
 1237000    1.0559811   -3.7313106    1068.6915  0.071994845  0.072382238            2 
 1238000    1.0638449   -3.7299769    1072.1964  0.072172618   0.07237071            2 
 1239000    1.0674058   -3.7183235    1071.9341  0.072096725  0.072359669            2 
 1240000    1.0619991   -3.7479205    1072.5828  0.072082175  0.072348197            9 
 1241000    1.0775469   -3.7027298    1076.7456  0.072303624  0.072336582            1 
 1242000     1.057951   -3.7506226    1073.2257  0.072009239  0.072325198            2 
 1243000    1.0565374   -3.7425458    1074.6001  0.072043448   0.07231327            2 
 1244000    1.0559543    -3.756967    1071.7996  0.071797938  0.072300654            6 
 1245000    1.0554648   -3.6943059    1077.4475  0.072118306  0.072288709            3 
 1246000    1.0661518   -3.7449838    1076.3416  0.071986464  0.072277254            4 
 1247000    1.0541344   -3.7529128    1076.3397  0.071928607  0.072264931            3 
 1248000     1.055577   -3.7607504    1077.9851  0.071980846  0.072252748            1 
 1249000    1.0723292   -3.7476166    1083.5957  0.072297553  0.072240422            1 
 1250000    1.0651249   -3.7356333    1074.8802  0.071658681  0.072228082            3 
 1251000    1.0503778   -3.7810688    1074.9213  0.071604134  0.072215428            2 
 1252000    1.0630966   -3.7630633    1080.6484  0.071928141  0.072203127            2 
 1253000    1.0499088   -3.7389874    1081.8408  0.071950039  0.072190707            3 
 1254000    1.0671948   -3.7430998    1081.9863  0.071902329  0.072178395            3 
 1255000    1.0313377   -3.7676058    1076.8768  0.071505766  0.072165724            2 
 1256000    1.0497451   -3.7803886    1076.7531  0.071440628  0.072152366            2 
 1257000     1.044367   -3.7368684    1081.4453  0.071694859  0.072140055            3 
 1258000     1.050516   -3.7327474     1082.796  0.071727347  0.072127645            4 
 1259000    1.0464953   -3.7067349    1082.7947  0.071670289  0.072114965            2 
 1260000    1.0319012   -3.7453824    1079.2427  0.071378484  0.072102043            2 
 1261000    1.0559386   -3.7495186    1079.5208  0.071340259   0.07208922            4 
 1262000     1.019346   -3.7511076    1081.9505  0.071444169  0.072076436            9 
 1263000    1.0571229   -3.7363536    1088.1441   0.07179626  0.072063504            4 
 1264000    1.0742777   -3.7032312    1087.0835  0.071669534  0.072050774            3 
 1265000    1.0448433      -3.7496    1084.4688   0.07144063  0.072038306            2 
 1266000    1.0428777   -3.7478145      1089.65  0.071725248   0.07202541            3 
 1267000    1.0489004   -3.7865357    1084.8152  0.071350645   0.07201287            2 
 1268000    1.0544594   -3.7257661    1088.5636  0.071540722  0.071999728            3 
 1269000    1.0568703   -3.7382754    1091.7034  0.071690532  0.071987249            2 
 1270000    1.0641302   -3.7374022    1083.9591  0.071125924  0.071974088            4 
 1271000    1.0608598    -3.721475    1090.6934    0.0715115  0.071961418            3 
 1272000    1.0558447    -3.762003    1088.1657  0.071289681  0.071948385            2 
 1273000    1.0360558   -3.7493828    1089.6349  0.071329857  0.071935368            4 
 1274000    1.0654028   -3.7370086    1093.5112  0.071527423  0.071922526            3 
 1275000    1.0376899   -3.7556641    1096.8864  0.071691923  0.071909727            2 
 1276000     1.048769   -3.7544545    1092.7287  0.071364202  0.071897054            3 
 1277000    1.0249102   -3.7472551    1095.9616   0.07151929  0.071883959            2 
 1278000    1.0683067    -3.765756    1098.8258  0.071650089  0.071871315            2 
 1279000    1.0659511   -3.7304318    1096.9146  0.071469544  0.071858886            5 
 1280000    1.0191961   -3.7365879    1100.1315  0.071623144  0.071845969            3 
 1281000    1.0533372   -3.7340918    1097.8569  0.071419262  0.071832818            1 
 1282000     1.060567   -3.7438776    1098.1276  0.071381152  0.071819746            4 
 1283000    1.0399098   -3.7724366    1093.6165  0.071032509  0.071807061            5 
 1284000    1.0622323   -3.7406673    1094.9985  0.071066878  0.071793588            3 
 1285000    1.0489724   -3.7304586    1096.0978  0.071082866  0.071780282            3 
 1286000    1.0516965   -3.7784838    1096.2597   0.07103808  0.071766804            1 
 1287000    1.0512884   -3.7613274    1097.5214  0.071064581  0.071753185            5 
 1288000    1.0364832   -3.7416324    1097.8238  0.071028974  0.071739386            3 
 1289000    1.0520252   -3.7521665     1098.117  0.070992823  0.071725965            2 
 1290000    1.0398667   -3.7460345    1103.8379  0.071307357  0.071712572            3 
 1291000    1.0510263   -3.7246655     1104.905  0.071321002  0.071699279            4 
 1292000    1.0392729    -3.719367    1101.2888  0.071032559  0.071685889            6 
 1293000    1.0571329   -3.7615821    1097.6657  0.070744115  0.071672093            3 
 1294000    1.0365282   -3.7409726    1104.4699  0.071127634   0.07165838            3 
 1295000    1.0451602   -3.7526702    1101.2643  0.070866427  0.071644304            3 
 1296000    1.0556481   -3.7199265    1106.2306  0.071131081  0.071630657            2 
 1297000    1.0506607   -3.7485616    1105.0549  0.071000702  0.071617494            2 
 1298000    1.0406614    -3.735068    1105.8487  0.070996966  0.071603819            2 
 1299000    1.0370533   -3.7360423    1106.1912  0.070964278  0.071590576            2 
 1300000    1.0517954   -3.7198106    1106.8126  0.070949524  0.071576912            1 
 1301000    1.0327944   -3.7301021    1109.2168   0.07104899   0.07156338            2 
 1302000    1.0456976   -3.7294397    1105.2091  0.070737911  0.071549419            4 
 1303000    1.0550849   -3.7696493    1105.2213  0.070684403  0.071535535            4 
 1304000    1.0495477   -3.7405778    1113.2782  0.071145077  0.071521806            4 
 1305000    1.0508903   -3.7638365    1109.3057  0.070836893  0.071507417            2 
 1306000    1.0295972   -3.7784103     1110.527  0.070860577  0.071493125            1 
 1307000    1.0353918   -3.7407144     1109.713  0.070754464  0.071479114            3 
 1308000    1.0208937   -3.7392402    1112.6142  0.070885209  0.071465012            3 
 1309000     1.062355   -3.7478261    1105.6347  0.070386724  0.071450607            2 
 1310000    1.0585091   -3.7638396    1105.5142  0.070325333  0.071436515            2 
 1311000    1.0535486   -3.7154569    1112.2659  0.070700856  0.071422201            3 
 1312000    1.0233055   -3.7634274    1106.4524  0.070277716  0.071407435            3 
 1313000    1.0053082    -3.777386     1118.922   0.07101561  0.071392921            3 
 1314000    1.0298603   -3.7430719    1116.9696  0.070837745  0.071378328            1 
 1315000    1.0369163   -3.7480636    1112.4516  0.070497567  0.071363531            3 
 1316000     1.039648   -3.7417831    1117.1318   0.07074036  0.071348645            4 
 1317000    1.0303124   -3.7810101    1111.5782  0.070335243  0.071333557            2 
 1318000    1.0619876   -3.7518452    1115.3781  0.070522137  0.071318547            2 
 1319000    1.0545555   -3.7266622    1117.7754  0.070620127  0.071303517            3 
 1320000    1.0454347   -3.7338894    1116.6305  0.070494352   0.07128874            2 
 1321000    1.0270067    -3.756586    1116.5175  0.070433858  0.071273263            1 
 1322000    1.0372487   -3.7625951    1116.8239  0.070399892  0.071257707            2 
 1323000    1.0319615   -3.7637284    1111.5894  0.070016968  0.071242006            2 
 1324000    1.0307411   -3.7584351    1114.2796  0.070133412  0.071226806            4 
 1325000    1.0307745   -3.7606844    1117.0565  0.070255127  0.071211563            2 
 1326000    1.0209509   -3.7627877    1118.5649  0.070296938  0.071196062            2 
 1327000    1.0522123   -3.7409801    1120.4486  0.070362259   0.07118074            2 
 1328000    1.0317854   -3.7493412    1121.5071  0.070375696   0.07116505            1 
 1329000    1.0412948    -3.768883    1114.4706  0.069881525  0.071149845            3 
 1330000     1.031962   -3.7677424    1118.4592  0.070078899  0.071134359            2 
 1331000    1.0215992   -3.7864477    1117.6977  0.069978569  0.071118582            3 
 1332000    1.0238815   -3.7512956     1119.089  0.070013073  0.071102942            4 
 1333000    1.0498123   -3.7643547    1117.5289  0.069863024  0.071087182            2 
 1334000    1.0240498   -3.7319464    1120.0941  0.069970896  0.071071392            4 
 1335000    1.0520704   -3.7874013    1120.2078  0.069925579  0.071055186            3 
 1336000    1.0267176   -3.7359888    1126.4812  0.070264547   0.07103975            3 
 1337000    1.0374771   -3.7753179    1118.7392  0.069729445  0.071023871            2 
 1338000    1.0347297   -3.8065913    1121.4809  0.069848087  0.071007889            6 
 1339000    1.0289359   -3.7593363    1126.0639   0.07008115   0.07099238            2 
 1340000    1.0243414   -3.7811874    1122.2452  0.069791368  0.070977599            5 
 1341000    1.0206566   -3.7601987    1128.4119  0.070122537  0.070962576            2 
 1342000     1.029701   -3.7684141    1125.3192  0.069878239  0.070947762            2 
 1343000    1.0537284   -3.7493897    1132.0317   0.07024272  0.070932616            2 
 1344000    1.0209362   -3.7568682    1128.7409  0.069986416  0.070917782            2 
 1345000    1.0198418   -3.7641973    1129.6789  0.069992497  0.070902633            1 
 1346000    1.0361141   -3.7756343     1135.063  0.070273834  0.070887786            4 
 1347000    1.0228856   -3.7540611    1135.7161  0.070262072  0.070873106            5 
 1348000    1.0013032   -3.7889845    1133.3664  0.070064691   0.07085863            2 
 1349000    1.0482305    -3.756691     1135.667  0.070154867  0.070844014            2 
 1350000    1.0260818   -3.7652178    1136.0092  0.070124025  0.070829367            3 
 1351000    1.0513752   -3.7603681    1140.9469  0.070376692  0.070815559            3 
 1352000    1.0106929   -3.7362161    1135.1805  0.069969211  0.070801796            3 
 1353000    1.0399224   -3.7692259    1136.2909   0.06998589  0.070787861            4 
 1354000    1.0384956   -3.7625719    1137.2035  0.069990367  0.070773447            3 
 1355000    1.0278146   -3.7894461    1133.9108  0.069736211   0.07075912            3 
 1356000    1.0096668   -3.7793595    1140.2389  0.070073678  0.070744807            2 
 1357000    1.0275279   -3.7555688    1143.0294  0.070193405  0.070730472            2 
 1358000    1.0419036      -3.7295    1146.5724  0.070359134  0.070716411            2 
 1359000    1.0300929   -3.7411152    1146.2078  0.070285002  0.070702495            3 
 1360000    1.0253626    -3.759336    1141.5806  0.069949789  0.070688475            1 
 1361000     1.058441    -3.761694     1142.508   0.06995518  0.070674467            5 
 1362000    1.0217937   -3.7590023     1144.097  0.070001043  0.070660889            2 
 1363000    1.0374252   -3.7717484    1140.3005  0.069717565  0.070647255            4 
 1364000    1.0512577    -3.775969    1142.9407  0.069827757  0.070633983            5 
 1365000    1.0160265   -3.7796581    1150.9461  0.070265332  0.070620796            2 
 1366000      1.02266   -3.7786817    1144.0082   0.06979064  0.070607161            9 
 1367000    1.0430881   -3.7696231    1155.3598  0.070431591  0.070593798            2 
 1368000    1.0512073   -3.7751501    1145.8247  0.069799261  0.070580577            5 
 1369000     1.022567    -3.784272    1150.8134  0.070051948  0.070566946            2 
 1370000    1.0187918   -3.7580929    1153.6073  0.070170762  0.070553476            3 
 1371000     1.033068   -3.7721677    1155.0685  0.070208394  0.070539941            5 
 1372000    1.0108242   -3.8013631    1150.9869  0.069909311  0.070526195            4 
 1373000    1.0298153   -3.7549203    1149.4846  0.069767215  0.070512308            2 
 1374000    1.0523634   -3.7624628    1148.8623  0.069678695  0.070498275            3 
 1375000    1.0340701   -3.7500498    1154.7734  0.069986265  0.070484851            4 
 1376000    1.0322547   -3.7927341     1151.916  0.069762355  0.070471494            2 
 1377000    1.0342245   -3.7890778    1150.8144  0.069645028  0.070457391            1 
 1378000    1.0416798   -3.8115057    1149.8441  0.069535804  0.070443397            2 
 1379000    1.0299945   -3.7516585    1156.0527  0.069860571   0.07042919            1 
 1380000    1.0354175   -3.7489457    1156.1003  0.069812821  0.070415294            2 
 1381000     1.039998   -3.7845689    1152.4152    0.0695399  0.070401148            2 
 1382000    1.0310663   -3.7829095    1153.0973  0.069530711  0.070387131            4 
 1383000    1.0400398   -3.7424594    1160.8542   0.06994783  0.070373186            3 
 1384000    1.0386063   -3.7548382    1158.8154  0.069774528  0.070359238            5 
 1385000    1.0244762    -3.766838     1160.763  0.069841337  0.070345022            6 
 1386000    1.0623772   -3.7660169    1157.8015  0.069612884  0.070331022            3 
 1387000    1.0315729   -3.7655465    1158.9388  0.069631024  0.070317123            5 
 1388000    1.0272068   -3.7519349    1160.0926  0.069650132  0.070302759            3 
 1389000    1.0126889   -3.7639873    1159.2917  0.069551936  0.070288449            1 
 1390000    1.0099451   -3.7668687    1160.4792  0.069573094  0.070274153            2 
 1391000    1.0418023   -3.7872655    1157.8335  0.069364574  0.070259248            1 
 1392000    1.0384868   -3.7817265     1160.704  0.069486592  0.070244824            3 
 1393000     1.026322   -3.7808464    1158.3721  0.069297208  0.070229696            3 
 1394000    1.0289395   -3.7746816    1158.8533  0.069276261  0.070214387            2 
 1395000    1.0116475   -3.7578008    1163.9333  0.069530065    0.0701995            2 
 1396000    1.0484201   -3.7581055     1161.736  0.069349093  0.070185188            4 
 1397000    1.0314495   -3.7466414    1163.4795  0.069403451  0.070170609            2 
 1398000    1.0552213   -3.7578989    1166.6031  0.069540006  0.070155798            4 
 1399000    1.0092673   -3.7898272    1161.5193  0.069187474  0.070141111            3 
 1400000    1.0467872   -3.7792805    1163.1474  0.069234966  0.070126001            1 
 1401000    1.0519448   -3.7898179    1168.7797  0.069520564  0.070110918            3 
 1402000    1.0318835   -3.7773226    1163.2369   0.06914152  0.070096081            3 
 1403000    1.0214971   -3.7604144    1165.9184  0.069251507  0.070081255            5 
 1404000    1.0479549   -3.7823012    1162.8575  0.069020508  0.070066098            2 
 1405000    1.0332948   -3.7806004    1164.0233   0.06904053  0.070050935            3 
 1406000    1.0319259   -3.7883702    1166.6141  0.069144978  0.070036078            3 
 1407000    1.0611009   -3.7791461     1169.496  0.069266525  0.070020976            4 
 1408000    1.0232664   -3.7960354    1169.2136  0.069200614  0.070006157            2 
 1409000    1.0194619   -3.7886888    1167.3872  0.069043481  0.069991257            2 
 1410000    1.0176519   -3.7868904    1174.8819  0.069437465  0.069976617            3 
 1411000    1.0340629   -3.7732753    1168.8268  0.069030641  0.069961842            2 
 1412000    1.0408981   -3.8066403    1174.2304  0.069300663   0.06994721            2 
 1413000    1.0309738    -3.767666    1168.3842  0.068906829  0.069932152            4 
 1414000   0.99251324   -3.7821115    1170.8688  0.069004526  0.069916975            5 
 1415000    1.0429572   -3.7578077    1173.1965  0.069092842   0.06990181            3 
 1416000    1.0272327   -3.7541628    1171.3291  0.068934151  0.069886661            2 
 1417000    1.0374208   -3.7591394     1176.884  0.069212187  0.069871742            2 
 1418000    1.0061963    -3.786532    1174.7473  0.069037803  0.069856627            4 
 1419000     1.040282   -3.7405454    1180.9522  0.069353545  0.069842128            2 
 1420000    1.0360138   -3.7903865    1175.4626  0.068982548  0.069827247            2 
 1421000    1.0134121   -3.7748182     1176.281  0.068981998  0.069812681            3 
 1422000    1.0135192   -3.7636249    1176.0762  0.068921484  0.069797967            1 
 1423000    1.0124682    -3.781174    1178.5999  0.069020843  0.069782811            2 
 1424000    1.0145935   -3.7962824    1175.6057  0.068797149  0.069767911            2 
 1425000   0.99779606   -3.7627437    1181.0421  0.069066791  0.069753166            6 
 1426000    1.0169433   -3.7990194    1182.3285   0.06909353  0.069738366            3 
 1427000    1.0246721   -3.7852793    1179.6624  0.068889417  0.069723967            8 
 1428000    1.0203117   -3.7796214    1181.5409  0.068950798  0.069709303            4 
 1429000   0.99977565   -3.7942326    1179.8237  0.068802406  0.069694779            3 
 1430000    1.0236175   -3.7837684    1182.4357  0.068906509  0.069680007            6 
 1431000    1.0125599   -3.7814144    1185.1832  0.069018358  0.069665278            2 
 1432000    1.0326881   -3.7766377     1177.927  0.068547891  0.069650843            2 
 1433000    1.0061248   -3.7683039     1185.196  0.068922775  0.069636485            4 
 1434000    1.0311149   -3.7470924    1186.6038  0.068956522  0.069621805            3 
 1435000    1.0158477   -3.7829938    1186.8789  0.068924445  0.069607103            3 
 1436000    1.0254348   -3.8105332    1175.7467  0.068230424  0.069592424            4 
 1437000    1.0362919   -3.7547401    1188.7217  0.068935379  0.069577655            2 
 1438000     1.006776   -3.7571461    1190.5206  0.068991691  0.069563079            3 
 1439000   0.99526798   -3.8009198    1183.1643  0.068517739   0.06954812            3 
 1440000    1.0501306    -3.799677    1185.1703  0.068586241  0.069532967            2 
 1441000     1.016942   -3.7987263     1190.009  0.068818469  0.069518447            3 
 1442000    1.0486792   -3.8090059    1186.7514  0.068582491  0.069503478            3 
 1443000     1.020465   -3.7621459     1190.521  0.068752656  0.069488584            4 
 1444000    1.0391772   -3.8101051    1186.1087  0.068450408  0.069473733            3 
 1445000    1.0197894   -3.7563664    1190.4597  0.068653963  0.069459386            3 
 1446000    1.0039262   -3.7892364    1189.6768  0.068561366  0.069444862            3 
 1447000    1.0243338   -3.7355879    1195.2981  0.068837716  0.069430505            2 
 1448000    1.0063404   -3.7942524    1191.7797  0.068587691  0.069416146            3 
 1449000    1.0264019   -3.7995036    1196.0621   0.06878664  0.069401572            4 
 1450000    1.0427855   -3.8119755    1190.7291  0.068432706  0.069386428            1 
 1451000    1.0275267   -3.7899322    1195.6556   0.06866848  0.069372104            5 
 1452000    1.0177271   -3.7702644    1196.1968  0.068652251   0.06935722            5 
 1453000    1.0316312   -3.8053354    1193.6336  0.068457993   0.06934296            2 
 1454000    1.0171761   -3.7757174    1198.5329  0.068691709  0.069328561            3 
 1455000    1.0412362   -3.7913221    1198.1465  0.068622368  0.069314695            2 
 1456000    1.0267966   -3.7645004    1204.2722  0.068925836  0.069300853            6 
 1457000     1.010135   -3.8077002    1196.9067  0.068457256  0.069286919            2 
 1458000     1.038506   -3.7831049    1205.9942  0.068929712  0.069273131            2 
 1459000    1.0240612   -3.7739552    1203.0759  0.068715781  0.069259214            2 
 1460000     1.023374   -3.8235088    1199.9559  0.068490635  0.069245288            3 
 1461000    1.0202238   -3.7754311    1206.8777  0.068838566  0.069231524            2 
 1462000    1.0423092    -3.805044    1205.8918  0.068735283  0.069217906            1 
 1463000      1.03455   -3.7688972    1209.4312  0.068889908   0.06920453            8 
 1464000    1.0185011   -3.7622611    1212.1061  0.068995109  0.069191328            1 
 1465000    1.0252696   -3.8044872    1207.1057  0.068663578  0.069177705            2 
 1466000    1.0279907   -3.7285645    1215.1155  0.069072047  0.069164486            2 
 1467000    1.0250567   -3.7738123     1207.216   0.06857623   0.06915117            5 
 1468000    1.0344831   -3.7936712    1209.0795  0.068635302  0.069137345            4 
 1469000    1.0311437   -3.8220517    1205.1745  0.068367061  0.069123538            2 
 1470000    1.0359904   -3.8042743    1209.2513  0.068551662  0.069109817            2 
 1471000    1.0197038   -3.8074499     1206.889  0.068371232  0.069095928            2 
 1472000    1.0207431   -3.7652214     1205.831  0.068264888  0.069082285            3 
 1473000    1.0162362   -3.8015312     1211.143  0.068519063  0.069068666            5 
 1474000    1.0124978   -3.7977581    1209.7552   0.06839412  0.069055061            4 
 1475000    1.0134667   -3.8041616    1212.0422   0.06847696  0.069041305            2 
 1476000    1.0170238   -3.8146442    1213.1964  0.068495731   0.06902768            3 
 1477000     1.036386   -3.8127089    1212.5507  0.068412924  0.069014151            3 
 1478000    1.0267659   -3.8061781    1215.2186  0.068517063  0.069000371            4 
 1479000   0.99452464   -3.7860958    1217.4122  0.068594329  0.068986939            2 
 1480000    1.0111744   -3.7932437     1220.135  0.068701294  0.068973487            1 
 1481000     1.016496   -3.8065602    1214.1503  0.068318158  0.068960011            7 
 1482000    1.0062971    -3.780236    1223.1158  0.068776191  0.068946455            2 
 1483000    1.0046891    -3.787046    1219.1067  0.068504536  0.068933309            1 
 1484000    1.0157148   -3.8032857    1218.2659  0.068411157  0.068920192            3 
 1485000    1.0092515   -3.8148339    1217.1576  0.068302898  0.068907027            2 
 1486000   0.98866187   -3.7483685    1223.2451  0.068598314  0.068893869            3 
 1487000    1.0224779   -3.7840217    1228.8498  0.068866275  0.068880987            2 
 1488000    1.0106293   -3.7651251    1226.6723  0.068698047  0.068868268            1 
 1489000     1.015737   -3.7957372    1224.5359  0.068532342  0.068855295            3 
 1490000     1.024921   -3.8143251    1219.7413  0.068218191  0.068841654            4 
 1491000    1.0284639    -3.783177    1229.3493  0.068709441  0.068828529            2 
 1492000   0.99707658   -3.7806439    1223.0972  0.068314188  0.068815272            4 
 1493000     1.028721    -3.794984    1221.5779   0.06818363  0.068801785            1 
 1494000    1.0194436   -3.7911557    1225.0155  0.068329735  0.068788652            3 
 1495000    0.9873412   -3.8136391    1218.2961  0.067909481  0.068775048            4 
 1496000    1.0310162   -3.8116958    1220.4798   0.06798573  0.068761745            1 
 1497000    1.0380404   -3.8003431    1221.2144  0.067981205  0.068748037            2 
 1498000    1.0280038   -3.8021762     1227.735  0.068298564  0.068734819            6 
 1499000    1.0113201   -3.8063655    1226.2065  0.068168028  0.068721343            6 
 1500000    1.0348511   -3.8026797    1230.8607  0.068381151  0.068707514            1 
 1501000    1.0191572    -3.806118    1226.7378  0.068106695  0.068693821            3 
 1502000    1.0454268   -3.8112612    1226.9278  0.068071895  0.068680517            5 
 1503000     1.033538    -3.817278    1228.1991  0.068097089  0.068667045            8 
 1504000    1.0168949    -3.786651    1231.2337  0.068219952  0.068654215            4 
 1505000    1.0208822   -3.8048362     1230.105  0.068112129  0.068640955            2 
 1506000    1.0084471   -3.8078481    1229.6382   0.06804107  0.068627717            3 
 1507000    1.0303122   -3.7975057    1232.9881  0.068181162  0.068614754            7 
 1508000    1.0233327   -3.7872891    1238.5391  0.068442699  0.068601692            3 
 1509000   0.99767958   -3.8020727    1236.0954  0.068262393   0.06858886            3 
 1510000    1.0160017   -3.7958289    1236.0395  0.068214098  0.068575536            5 
 1511000    1.0189573   -3.7720245     1234.816   0.06810148  0.068562149            2 
 1512000    1.0146581   -3.7968063    1235.8393  0.068112837  0.068548778            3 
 1513000   0.98547919   -3.7971964    1237.7671  0.068173998  0.068535481            3 
 1514000    1.0084368   -3.7997231    1238.4976  0.068169177  0.068522143            3 
 1515000   0.99855676   -3.7955864    1239.8602  0.068199131  0.068509531            3 
 1516000    1.0162597   -3.8177039    1242.8401  0.068317945  0.068496495            4 
 1517000    1.0015308   -3.7763447    1239.5728  0.068093432  0.068483492            2 
 1518000     1.026306   -3.8337582    1239.2194  0.068029171  0.068470119            2 
 1519000    1.0028224   -3.7962768    1238.6316  0.067952141   0.06845697            3 
 1520000    1.0195422   -3.7880502     1241.455  0.068062228  0.068444024            2 
 1521000   0.99762796   -3.7667784     1243.462  0.068127438  0.068431099            4 
 1522000    1.0249803   -3.8004023    1238.9047  0.067833153  0.068417924            4 
 1523000   0.99326696   -3.7928799    1242.7616  0.067999649  0.068404522            2 
 1524000    1.0188242   -3.8237252    1239.9331  0.067800367  0.068391158            4 
 1525000   0.99822182   -3.8188425    1241.2859  0.067829828  0.068378118            1 
 1526000    1.0168827   -3.8068207    1243.6575  0.067914891  0.068364753            2 
 1527000    1.0061002   -3.8079626    1246.7676  0.068040143  0.068351591            5 
 1528000    1.0028628   -3.8272125    1240.1956  0.067637192  0.068338657            6 
 1529000    1.0216432   -3.8100857    1247.4325  0.067987383  0.068325606            3 
 1530000    1.0101013   -3.7831214    1248.9964  0.068028127   0.06831297            1 
 1531000    1.0113984   -3.8009559    1251.0111  0.068093352  0.068300391            4 
 1532000   0.98722469   -3.8050956    1251.2985  0.068064541  0.068288015            3 
 1533000   0.98651354   -3.8337278    1248.3436  0.067859513  0.068275204            1 
 1534000    1.0228229   -3.7915433    1255.9999    0.0682312  0.068262591            3 
 1535000    1.0038012   -3.7785689    1255.5296  0.068161214  0.068250076            3 
 1536000   0.99838599   -3.8034845    1255.8258   0.06813291  0.068237578            5 
 1537000    1.0198514   -3.8225077    1254.3384  0.068007938  0.068225081            3 
 1538000    1.0155588   -3.8219622     1254.125  0.067952156  0.068212685            9 
 1539000    1.0110357     -3.80304    1252.2746  0.067807808  0.068199934            2 
 1540000     1.002412   -3.7684327    1257.6306  0.068053603  0.068187087            2 
 1541000    0.9962877   -3.7971124    1252.2003  0.067715784  0.068174169            1 
 1542000    1.0313641   -3.8319192      1252.22  0.067672937  0.068161335            6 
 1543000    1.0200928   -3.7827156    1253.5919   0.06770317  0.068148683            5 
 1544000   0.99744304   -3.7940168     1262.398  0.068134608  0.068136168            3 
 1545000     1.000122   -3.8158446    1255.0781  0.067695688  0.068123721            3 
 1546000   0.99449054   -3.7772774    1260.7899  0.067959781  0.068111572            2 
 1547000    1.0024968   -3.8179814    1260.4495  0.067897519  0.068099454            1 
 1548000   0.99649558   -3.8096086    1263.6627   0.06802663   0.06808743            3 
 1549000    1.0055581   -3.8080621    1265.0907   0.06805954   0.06807527            3 
 1550000   0.99984697   -3.7920563    1263.5776   0.06793428  0.068063199            4 
 1551000    1.0215015   -3.8168085    1266.4631  0.068045516  0.068051207            4 
 1552000   0.97686348   -3.7801819    1268.1243  0.068090866  0.068039416            2 
 1553000   0.99383207   -3.7970291    1268.1655  0.068049232  0.068027638            3 
 1554000   0.99948103   -3.8348136    1265.5413  0.067864722  0.068015577            2 
 1555000    1.0188289   -3.8232882    1268.9962  0.068006227  0.068003951            4 
 1556000    1.0153115   -3.8132827    1269.9585  0.068014056  0.067991951            6 
 1557000   0.99031527   -3.8105791    1270.0944  0.067977651  0.067980315            2 
 1558000    1.0033631   -3.8080675    1272.5924   0.06806763  0.067968661            4 
 1559000   0.99005153   -3.8110666    1270.0601   0.06788861  0.067957143            4 
 1560000     1.002547   -3.8060324    1277.5984  0.068247777  0.067945137            3 
 1561000   0.98614623   -3.7663805    1274.8567  0.068057692  0.067933399            2 
 1562000   0.99633647   -3.8204717    1270.1229  0.067761571  0.067921585            3 
 1563000    1.0141252   -3.8456207    1269.2379  0.067671033  0.067909469            3 
 1564000    1.0331945   -3.7987881    1271.3812  0.067741967  0.067897184            5 
 1565000   0.99806707   -3.8252995    1272.5791  0.067762463  0.067885038            5 
 1566000   0.98726779   -3.8007684    1274.3959  0.067815874   0.06787269            4 
 1567000     1.017764    -3.807765    1274.2004  0.067762202   0.06786054            2 
 1568000   0.97621089   -3.8061833    1274.2574  0.067722012   0.06784843            2 
 1569000     1.018605   -3.7947857    1276.1871  0.067781344  0.067836375            4 
 1570000   0.99646878   -3.8265944    1275.0705  0.067678903  0.067824082            1 
 1571000   0.98535158   -3.8090462    1275.3953  0.067653052  0.067812174            4 
 1572000    1.0165121    -3.805973    1275.6628  0.067624195  0.067800007            3 
 1573000   0.98408239   -3.8287701    1276.5415  0.067627756   0.06778766            5 
 1574000    1.0040159   -3.8195748    1274.7769  0.067491364  0.067775188            1 
 1575000   0.98931443   -3.8249073    1281.7948  0.067819831  0.067762737            2 
 1576000     1.013927   -3.7965605    1281.9195  0.067783393  0.067750812            3 
 1577000   0.98842804   -3.8088339    1282.8741   0.06779085  0.067738624            4 
 1578000   0.99399243   -3.8131222    1281.8265  0.067692568  0.067726642            6 
 1579000    1.0037267    -3.805155    1283.7307  0.067750196  0.067714656            2 
 1580000   0.99394678   -3.8307472    1281.7123  0.067600861  0.067702802            2 
 1581000   0.98234548   -3.8148893    1284.5213  0.067706161  0.067691026            2 
 1582000    1.0046094   -3.8365285    1277.7876   0.06730866  0.067679033            4 
 1583000   0.99323104   -3.8188408    1282.7351  0.067526592  0.067666595            5 
 1584000   0.99848358   -3.8256891    1283.9131  0.067545934  0.067654287            3 
 1585000   0.99727826   -3.8026344    1281.8467  0.067394677  0.067642222            3 
 1586000    1.0070473   -3.8365196    1288.0577  0.067678527  0.067629745            4 
 1587000   0.98457701   -3.8029594    1282.4577  0.067341825  0.067617281            2 
 1588000   0.99027202   -3.8253381    1288.2538   0.06760358  0.067604623            5 
 1589000    0.9889814   -3.8023831    1288.6043  0.067579416  0.067592463            3 
 1590000    1.0034907   -3.8227888    1287.6235  0.067485507  0.067580493            2 
 1591000   0.97938352   -3.8061499    1283.5794  0.067231271  0.067568112            3 
 1592000    0.9923721   -3.8458394    1283.4718  0.067183408  0.067555799            4 
 1593000   0.98347107   -3.8189599    1288.1868  0.067387886  0.067543347            4 
 1594000   0.99047995   -3.8319044    1286.6508  0.067265307  0.067531121            3 
 1595000   0.99788585   -3.8201843    1294.0307  0.067608711  0.067518616           10 
 1596000   0.98761403   -3.8228994    1290.5383  0.067383997  0.067506737            4 
 1597000   0.98514936    -3.838366    1290.1309  0.067320541  0.067494683            3 
 1598000   0.97775278   -3.8313885    1291.4066   0.06734494  0.067482628            2 
 1599000   0.98983572   -3.8087214    1291.4589  0.067305552  0.067470282            2 
 1600000   0.98032203   -3.8218005    1293.4025  0.067364715  0.067457753            3 
 1601000    1.0048727   -3.8385832    1288.7924  0.067082677  0.067445121            1 
 1602000   0.99186193   -3.8444314     1289.862  0.067096444  0.067432606            6 
 1603000    1.0113532    -3.833049    1296.4647  0.067397832  0.067420266            3 
 1604000    1.0148205   -3.8130302    1292.9644  0.067173961  0.067408063            1 
 1605000     1.018419   -3.7982283    1297.2126  0.067352678  0.067395873            4 
 1606000    0.9851374    -3.816304     1292.827   0.06708318  0.067383737            3 
 1607000   0.99133975   -3.8342155    1296.5217  0.067233026  0.067371084            4 
 1608000   0.99415457   -3.8030728    1297.9229  0.067263832   0.06735834            2 
 1609000   0.99140148    -3.853682    1290.6338  0.066844509  0.067345923            2 
 1610000   0.99027399   -3.8284352    1295.1295  0.067035686   0.06733315            4 
 1611000   0.99468309   -3.8403994    1296.7305  0.067076893  0.067320649            2 
 1612000    1.0013293   -3.8354532    1298.5766  0.067130716  0.067307787            4 
 1613000    1.0004479   -3.7979464    1295.8487  0.066948164  0.067295292            2 
 1614000   0.98511497   -3.8263098    1298.2217  0.067029208  0.067282917            2 
 1615000   0.98512929   -3.8520348    1295.4742  0.066845935  0.067271079            4 
 1616000   0.99882284   -3.8204532    1300.4045  0.067058812  0.067258675            2 
 1617000   0.98272932   -3.8390672    1300.9658  0.067046271  0.067246294            5 
 1618000   0.99919572   -3.8580236    1303.1176  0.067115659   0.06723424            4 
 1619000   0.98788678   -3.8363023    1306.4996  0.067248279  0.067221727            4 
 1620000    1.0051829   -3.8174865    1309.5717    0.0673648  0.067209525            4 
 1621000   0.98269074   -3.8455769    1301.7547  0.066921382   0.06719714            2 
 1622000   0.99810024   -3.8440421    1304.1494  0.067003153  0.067184768            3 
 1623000    1.0027226   -3.8252784    1305.8127  0.067047275  0.067172196            2 
 1624000   0.99208052   -3.8301719    1307.3865  0.067086748  0.067159638            3 
 1625000   0.98013211   -3.8120494    1304.1067  0.066877264  0.067147094            4 
 1626000    1.0103923   -3.8343587    1304.9301  0.066878335  0.067134486            3 
 1627000    1.0028711   -3.7916055    1306.9794  0.066942193  0.067121648            3 
 1628000   0.98784561   -3.8103035      1309.84  0.067047503  0.067108737            4 
 1629000   0.99182669   -3.8426035    1305.3892  0.066778658  0.067095791            4 
 1630000   0.98303035   -3.8578305    1305.5314  0.066744959  0.067083042            2 
 1631000   0.98312743   -3.8238629    1308.2312  0.066841976  0.067070234            9 
 1632000    1.0087465    -3.832179    1314.9516   0.06714418  0.067057865            5 
 1633000   0.99647566   -3.8410894    1310.5707  0.066879502  0.067045462            1 
 1634000   0.98625068   -3.8428353    1311.2933  0.066875422  0.067032765            2 
 1635000   0.99307574   -3.8398852    1308.4859  0.066691434  0.067020055            2 
 1636000   0.99259941   -3.8405537    1312.0421   0.06683181  0.067007363            3 
 1637000   0.99494016    -3.835544    1309.5363  0.066663423  0.066994747            3 
 1638000   0.97440735   -3.8499782    1312.6489   0.06678108  0.066982256            3 
 1639000   0.98785962   -3.8161107    1316.5832  0.066940371  0.066969707            2 
 1640000    1.0082313   -3.8428578      1314.59  0.066798273  0.066957351            1 
 1641000   0.96383996   -3.8330507    1313.8924  0.066722143  0.066944954            4 
 1642000   0.98741288   -3.8259634    1311.2036  0.066545046  0.066932329            2 
 1643000    1.0158012   -3.8697263    1314.1417  0.066653568  0.066919989            2 
 1644000   0.97883153   -3.7948191    1320.0825  0.066914155  0.066907222            7 
 1645000   0.98838278   -3.8233245    1319.6201  0.066850054  0.066894602            3 
 1646000   0.98089056   -3.8462779    1317.3813  0.066696097  0.066881896            2 
 1647000   0.99956373   -3.8393425    1319.7396  0.066774924  0.066868993            3 
 1648000   0.99254245   -3.8484003    1314.2517    0.0664569  0.066856388            3 
 1649000   0.97116506   -3.8374624    1313.1184   0.06635933  0.066843625            3 
 1650000   0.97586362   -3.8385294    1317.9246  0.066561847  0.066830472            3 
 1651000   0.98738096   -3.8244124    1316.4842  0.066448827  0.066817429            1 
 1652000    1.0170924   -3.8566148    1318.1256  0.066491405  0.066803882            6 
 1653000   0.99436177   -3.8535895    1319.0913  0.066499862  0.066790836            2 
 1654000   0.98145521   -3.8688979    1314.9866   0.06625285  0.066777981            1 
 1655000   0.97617605   -3.8662065     1314.622  0.066194463  0.066764667            2 
 1656000   0.96690039   -3.8330532    1318.7074  0.066360072  0.066751596            4 
 1657000   0.98456864   -3.8044857     1326.142  0.066693924  0.066738814            6 
 1658000    1.0009425   -3.8422041      1320.78  0.066384199  0.066725775            5 
 1659000    1.0090228   -3.8724548    1321.0264  0.066356558  0.066712631            1 
 1660000   0.98449986   -3.8396142    1321.4173  0.066336211  0.066699418            3 
 1661000   0.98392449   -3.8262462     1324.679  0.066459916    0.0666866            5 
 1662000   0.97592097   -3.8358434    1320.6771   0.06621927  0.066673507            2 
 1663000   0.95676681   -3.8149185    1324.7091  0.066381495  0.066660669            4 
 1664000   0.99531221   -3.8550536    1322.0522  0.066208544  0.066647431            4 
 1665000    1.0120019   -3.8053598    1324.8034  0.066306476  0.066634154            5 
 1666000    1.0042967   -3.8509924    1324.2466  0.066238828  0.066621067            2 
 1667000    0.9991443   -3.8315693    1327.0806  0.066340763  0.066607805            4 
 1668000   0.98783821   -3.8576207    1325.1823  0.066206148  0.066594485            3 
 1669000    1.0030724   -3.8763093    1322.9705  0.066056046  0.066581066            5 
 1670000    0.9831925   -3.8418758    1326.5045   0.06619284  0.066567558            4 
 1671000   0.99423347   -3.8374507    1331.0139   0.06637811  0.066554284            3 
 1672000    1.0056708   -3.8362394    1327.0283  0.066139767  0.066541106            2 
 1673000   0.99287828   -3.8754837    1326.2386  0.066060898  0.066528308            3 
 1674000    1.0085971   -3.8472057    1331.3419  0.066275483  0.066515309            5 
 1675000   0.99693187   -3.8371074    1331.2087  0.066229288  0.066502467            2 
 1676000   0.98431954   -3.8330987    1327.3814  0.065999474  0.066489519            2 
 1677000   0.95884148   -3.8374207    1333.2676  0.066252613  0.066476291            2 
 1678000   0.99368927     -3.82009    1333.6385  0.066231548  0.066463267            6 
 1679000   0.96937378   -3.8490145    1337.4784  0.066382688   0.06645005            2 
 1680000   0.99517667   -3.8568361     1332.743  0.066108285  0.066436823            3 
 1681000   0.97770675   -3.8378833    1329.4101  0.065903733  0.066423317            4 
 1682000   0.98235985   -3.8430156    1331.1547  0.065950985  0.066409801            2 
 1683000   0.99976418   -3.8557938    1329.9951  0.065854383  0.066396436            3 
 1684000   0.96784379   -3.8517695    1338.3671  0.066229567  0.066382932            3 
 1685000   0.96418897   -3.8302709    1329.4481  0.065749166  0.066369559            3 
 1686000   0.99092085   -3.8569705    1337.6069   0.06611343  0.066356204            3 
 1687000    0.9936987   -3.8376419    1333.7717  0.065884788  0.066343111            3 
 1688000   0.98745619   -3.8811766    1332.6292  0.065789355   0.06632988            1 
 1689000   0.98845565   -3.8165629    1340.3099  0.066129362  0.066316687            1 
 1690000   0.98665211    -3.852757    1338.0991  0.065981216  0.066303659            3 
 1691000   0.98387322   -3.8739287    1332.6996   0.06567611  0.066290782            4 
 1692000   0.98853274    -3.827342    1336.8344  0.065840936  0.066277708            9 
 1693000   0.97509987   -3.8392396    1338.7198  0.065894851  0.066264549            3 
 1694000   0.96846066   -3.8213688    1337.5813  0.065799945  0.066251724            3 
 1695000   0.97609377   -3.8590154     1342.307  0.065993461  0.066239071            4 
 1696000   0.97531957   -3.8720632    1340.1485  0.065848492  0.066226057            7 
 1697000   0.96593341   -3.8473883    1338.2534   0.06571663  0.066212924            3 
 1698000   0.98409395   -3.8296759    1339.3053   0.06572955  0.066199694            2 
 1699000    1.0019622   -3.8510749     1339.664  0.065708458  0.066186607            2 
 1700000   0.98581473   -3.8609416    1342.5157  0.065809595   0.06617323            3 
 1701000   0.95464045   -3.8413544    1343.9183  0.065839619  0.066160211            4 
 1702000   0.99029991   -3.8638712    1340.0013   0.06560915  0.066147108            2 
 1703000   0.98164009   -3.8670001    1342.7082  0.065703081  0.066133871            6 
 1704000    0.9738254   -3.8284857    1346.7447  0.065861927  0.066120646            4 
 1705000   0.96925268   -3.8317497      1345.92  0.065782992  0.066107814            2 
 1706000   0.99014289   -3.8626547    1346.3246  0.065764197  0.066094844            2 
 1707000   0.96593017   -3.8540668    1345.9933  0.065709497  0.066081775            4 
 1708000   0.97915043    -3.833585    1350.2536  0.065878885  0.066068917            2 
 1709000   0.97592467   -3.8488658    1347.3268  0.065697619   0.06605584            7 
 1710000   0.98528077   -3.8388949    1346.0578  0.065597357  0.066042972            5 
 1711000   0.97301175   -3.8394209    1352.3542  0.065865683  0.066030262            6 
 1712000   0.98526462   -3.8462462    1351.4212  0.065781797  0.066017303            3 
 1713000   0.97326181   -3.8251013    1348.5846  0.065605399  0.066004571            3 
 1714000   0.98445858   -3.8210704    1353.6208  0.065811981  0.065991921            2 
 1715000   0.97301328   -3.8543632    1353.0642   0.06574656  0.065979114            4 
 1716000   0.95549131   -3.8803014    1350.6188   0.06558949  0.065966598            7 
 1717000    0.9764084   -3.9024014    1350.8125  0.065560694  0.065954007            3 
 1718000   0.98720657   -3.8248947    1357.3659   0.06584041   0.06594113            4 
 1719000   0.99066315   -3.8526898    1352.0418  0.065544006  0.065928399            3 
 1720000   0.97488972   -3.8341792    1356.8385  0.065738298  0.065915553            3 
 1721000   0.96964492   -3.8583802    1356.5503  0.065686145   0.06590283            3 
 1722000   0.97226037   -3.8454537     1356.536   0.06564731  0.065890332            2 
 1723000   0.97791471   -3.8681507    1356.9199  0.065627777  0.065877828            3 
 1724000   0.97266122   -3.8831324    1358.6125  0.065671526  0.065865279            2 
 1725000   0.97953784   -3.8535446    1364.7444  0.065929682  0.065852621            2 
 1726000   0.99235205   -3.8513687    1357.0263  0.065518843    0.0658401            3 
 1727000   0.96251126   -3.8433273    1367.0937  0.065966689   0.06582804            2 
 1728000   0.98043687   -3.8332582     1365.583  0.065855661  0.065815986            3 
 1729000   0.97694947    -3.857791    1362.9392  0.065690147  0.065803822            6 
 1730000   0.99252932   -3.8493356    1360.6179  0.065540359  0.065791373            2 
 1731000   0.96885472   -3.8453649    1367.9517  0.065855562  0.065778834            4 
 1732000   0.98238086   -3.8699696    1362.2562  0.065543504  0.065766531            3 
 1733000   0.97769762   -3.8478434    1367.2544   0.06574603  0.065754508            8 
 1734000   0.97390956   -3.8802164    1362.5485  0.065481956  0.065742317            4 
 1735000   0.97070229    -3.858409    1365.5668  0.065589184  0.065730074            4 
 1736000     0.968249   -3.8696483    1368.5956  0.065696792  0.065717917            2 
 1737000   0.97563536   -3.8558082    1367.2203  0.065592992   0.06570577            2 
 1738000   0.95405726   -3.8565977    1368.2897  0.065606525  0.065693843            6 
 1739000   0.97807551   -3.8801095    1364.7996  0.065401553  0.065681798            2 
 1740000   0.97923318   -3.8694347    1373.6667  0.065788635  0.065669756            3 
 1741000   0.98321337   -3.8666158    1370.9916  0.065622802   0.06565773            4 
 1742000   0.97409015   -3.8400157    1373.1943  0.065690502  0.065645493            3 
 1743000   0.98765493    -3.847217    1372.9146  0.065639444  0.065633473            3 
 1744000   0.97748393   -3.8799258    1372.3057  0.065572712  0.065621258            4 
 1745000   0.99114771   -3.8578172    1368.1989  0.065339011  0.065609108            3 
 1746000   0.96249758   -3.8427587    1373.8663  0.065572082  0.065597571            1 
 1747000   0.99432044   -3.8560572    1374.2839  0.065554472  0.065585963            4 
 1748000   0.96094484   -3.8582387    1378.0676  0.065697348  0.065574452            3 
 1749000    0.9928651   -3.8688777    1374.4657   0.06548817  0.065562645            1 
 1750000   0.97748761   -3.8566718    1380.5136  0.065738741  0.065550963            3 
 1751000   0.97146887   -3.8713571    1373.6582  0.065374937  0.065539395            4 
 1752000   0.97968738   -3.8623691    1377.0661  0.065499718  0.065527608            4 
 1753000   0.97540851   -3.8656556    1377.2745  0.065472262  0.065515872            3 
 1754000   0.97716942   -3.8515764      1387.26  0.065909349  0.065504085            5 
 1755000   0.96216528   -3.8582619    1380.8357  0.065566748  0.065492424            7 
 1756000   0.96079951   -3.8392496    1385.1474  0.065734026  0.065480789            1 
 1757000    0.9811949   -3.8628789    1383.5533  0.065621004    0.0654691            3 
 1758000   0.95299371   -3.8740036    1382.5828  0.065537677  0.065457277            8 
 1759000   0.96713389   -3.8784002    1384.4223  0.065587563  0.065445806            2 
 1760000   0.96494051   -3.8439153    1389.1599  0.065774615  0.065434436            3 
 1761000   0.96745112    -3.877473    1387.8418  0.065674893  0.065422525            4 
 1762000   0.98421101   -3.8720785    1380.0082  0.065267128  0.065411145            3 
 1763000   0.96780552   -3.8808051    1383.5249  0.065396334  0.065399253            5 
 1764000   0.94460802   -3.8863833    1381.6767  0.065271954  0.065387622            3 
 1765000   0.97448939   -3.8575744     1387.639  0.065516477  0.065375972            8 
 1766000   0.96984392   -3.8685574    1391.6872  0.065670404  0.065364328            3 
 1767000   0.99095438   -3.8735539    1390.0722  0.065557075   0.06535271            4 
 1768000   0.96215077   -3.8299845    1389.6607  0.065500598  0.065341071            5 
 1769000   0.96052121   -3.8461538    1386.8071  0.065329144   0.06532962            3 
 1770000   0.97427787   -3.8597167    1384.4397  0.065180775  0.065318079            2 
 1771000   0.96182079   -3.8858476    1386.0188  0.065218275  0.065306247            3 
 1772000   0.97729891   -3.8693291    1389.2566  0.065333738  0.065294328            9 
 1773000   0.96478548   -3.8677422    1393.2351  0.065483885  0.065282366            3 
 1774000   0.97542179   -3.8662715    1390.1427  0.065301706  0.065271196            3 
 1775000    0.9750562   -3.8859516    1389.3385  0.065227158  0.065259488            2 
 1776000   0.96992354   -3.8295079    1393.6704  0.065393693  0.065247638            3 
 1777000   0.95193718   -3.8458597    1395.4473  0.065440224  0.065236015            3 
 1778000   0.96222395   -3.8684049    1393.6991  0.065321478   0.06522441            7 
 1779000   0.98231462   -3.8799178    1389.0299  0.065066043  0.065212654            1 
 1780000   0.99429198   -3.8895648    1392.8872  0.065210076  0.065200765            2 
 1781000   0.96836306   -3.8621669    1393.9093  0.065221286  0.065188682            2 
 1782000   0.95873447   -3.8699017     1392.112  0.065100636   0.06517702            3 
 1783000   0.95139282   -3.8634601    1398.2166  0.065349438  0.065165374            3 
 1784000   0.98609123   -3.8766322     1395.212   0.06517246  0.065153464            2 
 1785000   0.97240353   -3.8650577    1401.5765  0.065433075  0.065141827            4 
 1786000   0.96806967   -3.8745671    1394.0622   0.06504583  0.065130151            3 
 1787000   0.95177467   -3.8643902    1397.5809  0.065173517  0.065118663            2 
 1788000   0.94877767   -3.8183663    1402.6855  0.065374979   0.06510685            3 
 1789000   0.95782331   -3.8798782    1403.7836  0.065389586   0.06509539            3 
 1790000   0.97447297   -3.8727151    1403.6513  0.065346893  0.065083926            2 
 1791000   0.98201527   -3.8837544    1398.1426  0.065054094  0.065072091            4 
 1792000   0.95206135   -3.8643694    1402.9916  0.065243283  0.065060355            2 
 1793000   0.96239074   -3.8860104    1398.6761  0.065006325  0.065048751            4 
 1794000    0.9598118   -3.8839068    1401.7037  0.065110726  0.065037005            3 
 1795000   0.97961817   -3.8727241    1398.3674  0.064919562  0.065025461            2 
 1796000   0.95127524   -3.8729254    1401.9746   0.06505079  0.065014077            6 
 1797000   0.96871574   -3.8862583    1399.9269   0.06491963  0.065002525            2 
 1798000   0.95699009   -3.8766624    1403.3462  0.065042002  0.064991069            5 
 1799000    0.9519861   -3.8840823    1402.0307  0.064944909  0.064979448            4 
 1800000   0.95290278   -3.8744342    1403.7263  0.064987328   0.06496784            3 
 1801000   0.96097289   -3.8706302    1402.3506  0.064887588   0.06495631            5 
 1802000   0.96540289   -3.8812741    1405.2634  0.064986285   0.06494476            7 
 1803000   0.97274493   -3.8561759    1404.6968  0.064924051  0.064933209            4 
 1804000   0.97842918    -3.852403    1410.0504  0.065135366  0.064921614            3 
 1805000   0.98583998   -3.8834019    1406.2195  0.064922413  0.064910245            4 
 1806000   0.94266529   -3.8918356    1410.1118  0.065066067  0.064898737            2 
 1807000   0.96550243    -3.861551    1407.9934  0.064932365  0.064887423            2 
 1808000   0.98732811   -3.8508672    1413.4289   0.06514698  0.064876208            2 
 1809000   0.97368469   -3.8712366    1411.9118   0.06504108  0.064865078            7 
 1810000   0.96258623   -3.8792197    1413.9087  0.065097087  0.064853667            2 
 1811000   0.94641341   -3.9003715    1409.4013  0.064853732  0.064842508            6 
 1812000   0.96800333   -3.8877351    1416.0564  0.065124007  0.064831314            3 
 1813000   0.96502661   -3.8774539    1409.8661  0.064803551  0.064819982            3 
 1814000   0.96179038   -3.8842933     1409.841  0.064766675  0.064808702            1 
 1815000   0.95771615   -3.8466763    1413.1397  0.064882447  0.064797273            4 
 1816000   0.96882056   -3.8558921    1412.9357  0.064837359  0.064785763            3 
 1817000   0.95466065   -3.8699323    1418.5814  0.065060605  0.064774241            3 
 1818000   0.94690706   -3.9014894    1420.8705  0.065129742  0.064763055            3 
 1819000   0.96435148   -3.8684629    1419.2721  0.065020712  0.064751522            3 
 1820000   0.96618092   -3.8728637    1417.3605  0.064897459  0.064740117            3 
 1821000   0.96486267   -3.8785392    1422.6693  0.065104763  0.064728746            3 
 1822000   0.96885288   -3.8870437    1418.2834   0.06486843  0.064717282            5 
 1823000   0.98016468    -3.902906    1414.0702  0.064640252  0.064705651            4 
 1824000   0.93269538   -3.8948903    1418.0352  0.064785967  0.064694078            4 
 1825000   0.92495505   -3.8803245    1417.7892  0.064739233  0.064682222            2 
 1826000   0.95340555   -3.8849115    1417.6832  0.064698943  0.064670337            3 
 1827000   0.96187792   -3.8739394    1414.8096  0.064532456  0.064658461            2 
 1828000   0.97034872   -3.8935714     1419.006  0.064688458  0.064646678            2 
 1829000   0.95223521   -3.8837515    1416.6396  0.064545272  0.064634787            4 
 1830000   0.96036417   -3.8577189    1421.4431  0.064728738  0.064622867            3 
 1831000   0.93410621   -3.8817717    1419.0185   0.06458304  0.064610922            5 
 1832000   0.96061611   -3.8672827    1423.6724  0.064759481   0.06459915            4 
 1833000   0.96131785   -3.8843416    1417.1997  0.064429884  0.064587447            3 
 1834000   0.96797691   -3.8725325    1427.3422  0.064855606  0.064575721            2 
 1835000   0.94657201   -3.8759837    1416.8166   0.06434226  0.064564043            6 
 1836000   0.95702134   -3.8643898    1427.4934  0.064791823  0.064552372            3 
 1837000    0.9546485    -3.903393    1424.2074  0.064607483  0.064540765            6 
 1838000    0.9553761   -3.8729367     1429.264  0.064801596  0.064529294            2 
 1839000   0.95683864   -3.8604202    1423.2818  0.064495278  0.064517262            5 
 1840000   0.97460962   -3.8932102    1421.7731    0.0643919  0.064505591            4 
 1841000    0.9884607   -3.8833555    1425.1391  0.064509286  0.064493699            5 
 1842000   0.96095997   -3.8511261    1428.4579  0.064624406  0.064481864            7 
 1843000   0.96502778   -3.8911356    1422.6992  0.064328956  0.064470154            4 
 1844000   0.96554616   -3.8785603    1431.7597  0.064703528  0.064458614            2 
 1845000   0.97793479    -3.881579    1427.0188  0.064454326  0.064447085            2 
 1846000   0.94004992   -3.8773481    1428.5376  0.064487975  0.064435369            2 
 1847000   0.94734683   -3.9149063    1424.9203  0.064289855   0.06442339            3 
 1848000   0.93111687     -3.86857    1430.2048   0.06449336  0.064411217            2 
 1849000   0.94357677     -3.87047    1427.8796  0.064353684  0.064399034            2 
 1850000   0.94898304   -3.8814185    1427.1731  0.064287074  0.064387062            3 
 1851000   0.95633735   -3.8889457    1428.1297  0.064295411  0.064375215            2 
 1852000   0.95093197   -3.9059142    1430.7738  0.064379672  0.064362972            5 
 1853000    0.9711534   -3.8934472    1427.7025  0.064206802  0.064350756            4 
 1854000   0.95521824   -3.8861773    1437.7734  0.064624839  0.064338471            2 
 1855000   0.97040482   -3.8860068     1437.717  0.064587466  0.064326737            5 
 1856000   0.96730738   -3.8962337     1433.717   0.06437307   0.06431506            4 
 1857000    0.9563999   -3.8637709    1430.9316  0.064213409  0.064303114            3 
 1858000   0.94968088   -3.8850264    1433.9567  0.064314528  0.064291438            4 
 1859000   0.94398778   -3.9202572    1433.2936  0.064250206  0.064279375            1 
 1860000   0.97939224   -3.9122375    1426.5953  0.063915558   0.06426739            4 
 1861000    0.9555812    -3.876867    1440.2482  0.064492575  0.064255727            5 
 1862000   0.95166148   -3.9028636    1434.7561   0.06421214  0.064243614            2 
 1863000   0.94074354   -3.8697965    1441.3087  0.064470777  0.064231661            3 
 1864000   0.96167238   -3.8969285     1432.871   0.06405897  0.064219953            3 
 1865000   0.95883141   -3.8547986    1439.2145  0.064308064  0.064208089           10 
 1866000   0.96018789   -3.8764142    1439.8366  0.064301386  0.064196104            6 
 1867000   0.93458996   -3.8856892    1438.2206  0.064194813  0.064184275            2 
 1868000   0.96115089   -3.9137391     1440.488  0.064261598  0.064172349            6 
 1869000   0.94437318   -3.9093626    1439.7792  0.064195612  0.064160515            4 
 1870000   0.96332521   -3.8650486    1442.9959  0.064304628   0.06414892            4 
 1871000    0.9543917   -3.8778902    1440.6172  0.064164317  0.064137176            3 
 1872000   0.96659479    -3.915311    1443.9346  0.064277714   0.06412529            5 
 1873000    0.9357547   -3.8935146    1442.6633  0.064186835   0.06411374            5 
 1874000   0.94672624   -3.8772071    1448.6779  0.064420042  0.064101928            3 
 1875000   0.96259259   -3.8805024    1448.6902   0.06438623  0.064090418            5 
 1876000   0.95715772    -3.863181    1446.2183  0.064242107  0.064079011            2 
 1877000   0.95615172   -3.8846428    1448.1289  0.064292705  0.064067666            3 
 1878000   0.95983127   -3.8965093    1445.7183  0.064151505  0.064056028            2 
 1879000   0.95883854   -3.9159153    1446.6871   0.06416033  0.064044446            3 
 1880000   0.96460351   -3.8956636    1449.5113  0.064251385   0.06403304            3 
 1881000   0.97847091   -3.8509823    1451.3614  0.064299195   0.06402167            3 
 1882000    0.9451622   -3.8726717    1448.0454  0.064118198  0.064010054            4 
 1883000   0.92455536   -3.9009347    1448.1679  0.064089568  0.063998464            3 
 1884000   0.94426122   -3.8632099    1450.6763  0.064166505  0.063986798            3 
 1885000   0.92898845   -3.8944896    1446.2039  0.063934745  0.063975286            4 
 1886000   0.94244262   -3.9138993    1444.7073  0.063834716  0.063963641            3 
 1887000   0.93519381   -3.8811007    1449.0158  0.063991159  0.063952098            3 
 1888000   0.95229033   -3.9085441    1443.8898  0.063731013  0.063940322            3 
 1889000   0.97173014   -3.9126603    1449.8342  0.063959509   0.06392872            6 
 1890000   0.94841271   -3.8839498    1452.6359    0.0640492  0.063916992            3 
 1891000    0.9687273   -3.8837184    1460.1828  0.064347912  0.063905591            3 
 1892000    0.9470686   -3.8744161    1452.2775  0.063965709    0.0638946            8 
 1893000   0.95351249     -3.86174    1464.3798  0.064464686  0.063883479            5 
 1894000   0.96589843   -3.8821681    1460.5412  0.064261758  0.063872424            3 
 1895000   0.94128541   -3.9099853    1454.7804  0.063974513  0.063861089            6 
 1896000   0.94526052   -3.8884944     1450.284  0.063743144  0.063849583            2 
 1897000   0.95340939   -3.8918104    1459.1972  0.064101087  0.063837942            2 
 1898000   0.97290589   -3.8972726    1459.7535  0.064091742  0.063826591            3 
 1899000   0.95000536   -3.8872966    1460.3018   0.06408205  0.063815167            7 
 1900000   0.94515383   -3.8980508    1456.5255  0.063882696  0.063803632            4 
 1901000   0.93309431   -3.9257771     1457.174  0.063877521   0.06379199            5 
 1902000   0.93757031    -3.893751    1458.9596   0.06392217  0.063780231            3 
 1903000   0.96163282   -3.8966013    1457.8128  0.063838361  0.063768594            2 
 1904000   0.96312591   -3.8952922    1458.8832  0.063851679  0.063757064            3 
 1905000    0.9495639   -3.9010126    1457.2131  0.063745106  0.063745551            3 
 1906000   0.94279615    -3.873903    1459.2163  0.063799243  0.063734213            3 
 1907000   0.95284356   -3.8887721    1465.7277  0.064050327  0.063722949            2 
 1908000    0.9444842   -3.8962533    1464.2511  0.063952265  0.063711754            4 
 1909000    0.9354649   -3.8826237    1462.5311  0.063843682  0.063700429            2 
 1910000   0.94482187   -3.9134333    1462.1614  0.063794129  0.063688906            6 
 1911000   0.94864892   -3.8848004     1461.782  0.063744201  0.063677165            5 
 1912000   0.94789017   -3.9207494    1461.7731  0.063710474  0.063665549            1 
 1913000   0.94917166   -3.9410636    1462.1065  0.063691693  0.063654121            2 
 1914000   0.96272359   -3.8989161     1463.274  0.063709249  0.063642521            2 
 1915000   0.94270008   -3.8996056    1463.0384  0.063665727  0.063631215            4 
 1916000   0.94086632    -3.928617    1462.7009   0.06361782  0.063619629            5 
 1917000   0.95796369   -3.8917809    1465.5217  0.063707255  0.063607998            6 
 1918000    0.9398674    -3.887642    1470.0129  0.063869172  0.063596684            2 
 1919000   0.93678906   -3.9075488    1471.6393  0.063906518  0.063585451            8 
 1920000   0.93261936   -3.8933467    1463.1805  0.063506099  0.063574022            3 
 1921000   0.91992785   -3.9036238    1468.5458  0.063705786  0.063562535            4 
 1922000   0.94333462   -3.8905532    1472.7115  0.063853254  0.063551239            4 
 1923000   0.95336394    -3.900176     1475.336  0.063933785  0.063539903            3 
 1924000   0.94934531   -3.9217381     1467.769  0.063572809  0.063528646            8 
 1925000   0.92109236   -3.8859516    1470.3638  0.063652112  0.063517324            3 
 1926000    0.9551088   -3.9361033    1469.3201  0.063573903  0.063506151            2 
 1927000   0.94200858   -3.9009004     1469.966  0.063568848  0.063494685            3 
 1928000   0.95189847   -3.9214272    1470.1717  0.063544768   0.06348353            8 
 1929000    0.9477945   -3.9101762    1470.9114   0.06354378  0.063472179            2 
 1930000   0.95702492   -3.8968713    1478.6731   0.06384599  0.063461027            2 
 1931000   0.94684387   -3.8950943    1478.1753  0.063791442  0.063449748            3 
 1932000   0.94422298   -3.9073308    1473.6708  0.063564132  0.063438204            4 
 1933000   0.95477686   -3.9352154    1468.2791  0.063298805  0.063426742            3 
 1934000   0.94789325   -3.9146449    1472.7796  0.063459996   0.06341527            4 
 1935000   0.91128303   -3.9241073    1474.0207  0.063480651   0.06340376            3 
 1936000   0.95135068   -3.9037803    1473.4606  0.063423752  0.063392223            5 
 1937000   0.96265707   -3.9194153    1468.1569  0.063162835   0.06338083            3 
 1938000   0.94968434   -3.9112892    1475.2593  0.063435644  0.063369117            3 
 1939000   0.96473117   -3.9394109    1477.0563  0.063480157  0.063357327            3 
 1940000   0.94276159   -3.9288674    1477.9623  0.063486352  0.063345957            8 
 1941000   0.93824194   -3.8889484    1483.0558  0.063672325  0.063334671            3 
 1942000   0.93568777   -3.8854508    1478.1103  0.063427321  0.063323055            3 
 1943000   0.95118826   -3.9058115    1479.7071  0.063463163  0.063311415            3 
 1944000   0.93361843   -3.9335013    1480.2612   0.06345427    0.0633001            4 
 1945000   0.93492052   -3.8828001    1480.5273  0.063433045  0.063288713            2 
 1946000   0.93938674   -3.9041219    1478.5783  0.063316988  0.063277288            3 
 1947000   0.94798746   -3.9125062    1481.9937  0.063430651  0.063265911            5 
 1948000   0.93994416   -3.9070615    1477.5116  0.063206348  0.063254412            2 
 1949000   0.94531254   -3.9461096    1479.3799  0.063253801  0.063242709            3 
 1950000   0.92529461   -3.9007504    1485.5531  0.063485175  0.063231015            4 
 1951000   0.91438146   -3.9368605    1481.3813  0.063274446  0.063219428            8 
 1952000   0.94773711   -3.8979594    1482.4529  0.063287776  0.063208024            3 
 1953000   0.95975232   -3.8683131    1486.1158  0.063411665  0.063196317            7 
 1954000   0.93093486   -3.9048459    1482.2239  0.063213235  0.063184687            3 
 1955000   0.95032811    -3.901626    1483.8855  0.063251726  0.063173359            3 
 1956000   0.93617382   -3.9281159    1483.7203  0.063212349   0.06316194            3 
 1957000   0.94834132   -3.8884961    1491.4949  0.063511108  0.063150464            2 
 1958000    0.9335336   -3.9077805    1487.5257  0.063309744  0.063138997            4 
 1959000   0.92811344   -3.8870925    1489.8069  0.063374463  0.063127547            4 
 1960000     0.928995   -3.8997048    1491.9039  0.063431287  0.063116143            3 
 1961000   0.93997961   -3.9154716    1490.4373   0.06333662  0.063104666            2 
 1962000   0.92982833   -3.8700083      1491.78  0.063361364  0.063093113            4 
 1963000   0.95881366   -3.9247962    1491.6832  0.063324979  0.063081939            3 
 1964000   0.92902133    -3.943075    1485.3724  0.063024967  0.063070528            1 
 1965000   0.91314712   -3.9339174    1484.9673  0.062975711  0.063058941            4 
 1966000   0.94869986   -3.9109777    1492.4204  0.063259596  0.063047511            4 
 1967000    0.9248327   -3.9181406    1488.4513  0.063059281  0.063035808            3 
 1968000   0.94503006   -3.9185773     1490.641  0.063119961   0.06302436            5 
 1969000   0.92925775   -3.9020797    1497.5015  0.063378261  0.063012922            2 
 1970000   0.93775008   -3.9196418    1497.3806  0.063340972  0.063001627            3 
 1971000   0.92315355   -3.9212047    1494.2341  0.063175803  0.062990165            2 
 1972000   0.93504386   -3.9426477    1495.6465  0.063203453  0.062978848            3 
 1973000   0.93459903   -3.9392114    1492.2203  0.063026708  0.062967612            3 
 1974000   0.93055641   -3.9192858    1500.1734   0.06333052  0.062956349            2 
 1975000   0.94173518   -3.9184109    1498.2399  0.063216875  0.062945114            4 
 1976000   0.93324203   -3.9124828    1500.1532  0.063265571  0.062934103            2 
 1977000   0.95751061    -3.913738     1499.317  0.063198321  0.062923088            3 
 1978000   0.94822935     -3.96789    1492.2698  0.062869471  0.062911802            5 
 1979000   0.94037772   -3.9253956    1500.4558  0.063182407  0.062900573            3 
 1980000   0.93764626   -3.8782028    1503.1161  0.063262464  0.062890033            4 
 1981000   0.94467628   -3.9062363    1505.9306  0.063348925  0.062879009            2 
 1982000   0.93122246   -3.9029159     1503.184  0.063201478  0.062868105            5 
 1983000   0.92810959   -3.9033287    1502.1192  0.063124861  0.062856789            2 
 1984000   0.92761374   -3.8818975    1506.8207  0.063290521  0.062845667            2 
 1985000   0.92460418   -3.9044217    1504.7552  0.063171923  0.062834677            4 
 1986000   0.93051223   -3.8935878    1504.5995   0.06313358  0.062823697            5 
 1987000   0.93246746   -3.9258299    1503.9056  0.063072707  0.062812856            6 
 1988000   0.92466022    -3.922849    1508.0502  0.063214715  0.062802009            3 
 1989000   0.93926786   -3.9270991    1509.9992   0.06326459  0.062791039            7 
 1990000   0.94694288   -3.9333478    1508.2132  0.063158007  0.062780127            4 
 1991000   0.93142396   -3.9198356    1508.3728  0.063132963  0.062769299            2 
 1992000   0.92177943   -3.9281039    1508.3543  0.063100497  0.062758451            4 
 1993000   0.95170382   -3.9185681    1506.1233  0.062975552  0.062747486            9 
 1994000   0.93665318   -3.8977574    1508.0139  0.063022983  0.062736661            2 
 1995000   0.94977475   -3.9067692    1512.2805  0.063169613  0.062725742            2 
 1996000   0.93985522   -3.8832481    1509.7929  0.063034107  0.062714719            2 
 1997000   0.93051127   -3.9013669    1508.7169  0.062957641  0.062703693            2 
 1998000   0.94473819   -3.9373722    1511.0536  0.063023589  0.062692729            6 
 1999000   0.94517579   -3.9159094    1503.3661   0.06267159  0.062681712            3 
 2000000   0.93385063   -3.9255421    1509.2512  0.062885465  0.062670357            3 
 2001000   0.94151356   -3.9411059    1507.2413  0.062770335  0.062659343            4 
 2002000   0.92622294   -3.9225026     1517.597  0.063170039  0.062648436            8 
 2003000   0.92072944   -3.9023042    1507.9623  0.062737657  0.062637275            2 
 2004000   0.94711547   -3.9389853    1511.8948  0.062869876  0.062626214            4 
 2005000   0.93073624   -3.9130536    1515.0797  0.062970894   0.06261518            3 
 2006000   0.93875204   -3.9126228    1519.4711   0.06312193  0.062604272            3 
 2007000   0.91473713   -3.9323501    1516.3901  0.062962551  0.062593291            3 
 2008000   0.92457436   -3.9120583    1518.9718  0.063038339  0.062582185           14 
 2009000   0.92637277   -3.9469093    1515.4553  0.062861097  0.062571079            2 
 2010000   0.89320685   -3.9334686    1512.1471  0.062692667  0.062559872            1 
 2011000   0.92791596   -3.9486314    1514.4024  0.062754948  0.062548889            2 
 2012000    0.9156503   -3.9197744    1515.6699  0.062776255  0.062537947            2 
 2013000   0.92285876   -3.9430685    1515.5484  0.062740041  0.062526638            5 
 2014000   0.92378258   -3.8950505    1522.0395  0.062977471  0.062515478            4 
 2015000   0.93622838   -3.9203068    1518.4833  0.062799144   0.06250442            3 
 2016000   0.93976218   -3.9317804    1520.9278  0.062869038  0.062493211            2 
 2017000   0.92485856   -3.9247909    1515.0508   0.06259506  0.062482304            5 
 2018000   0.93060667   -3.9166176    1515.0385  0.062563532  0.062471192            6 
 2019000   0.93858532   -3.9402374    1527.6307  0.063052283  0.062460234            4 
 2020000   0.92940522   -3.9245669    1527.4543  0.063013792  0.062449548            3 
 2021000   0.91687727    -3.925496    1526.0882  0.062926282  0.062438934            2 
 2022000   0.92486527   -3.8962029    1520.9037   0.06268149  0.062428077            3 
 2023000   0.93343011   -3.9222609    1523.7332  0.062767061  0.062417082            4 
 2024000   0.93237172   -3.9566083    1523.4437  0.062724132  0.062405887            4 
 2025000   0.92076401   -3.9299793    1522.8974  0.062670675  0.062394685            4 
 2026000   0.91727731   -3.9458857    1518.6604  0.062465464   0.06238343            3 
 2027000   0.93398205   -3.9400697     1524.253  0.062664569  0.062372363            3 
 2028000   0.91943366   -3.9217735    1527.7068  0.062775591  0.062361578            3 
 2029000   0.91693734   -3.9286336    1525.7506  0.062664308  0.062350619            4 
 2030000   0.93081659   -3.9477112    1525.1946  0.062610617  0.062339764            3 
 2031000   0.92657302   -3.9466763    1532.1775  0.062866302  0.062329132            6 
 2032000   0.94356329   -3.9345826    1525.7707  0.062572617  0.062318559            6 
 2033000   0.94340957   -3.9279904    1527.2923  0.062604209  0.062307932            3 
 2034000   0.92940794   -3.9400434    1535.8577  0.062924357  0.062297203            3 
 2035000   0.94264486   -3.9630357    1531.0877  0.062698105   0.06228651            3 
 2036000   0.92045415   -3.9066055    1526.1206  0.062464007   0.06227596            3 
 2037000   0.91907023   -3.9247272    1537.9527  0.062917393  0.062265289            4 
 2038000   0.90726082   -3.9468307    1533.0318  0.062685302  0.062254346            3 
 2039000   0.91593804   -3.9285804    1531.0805  0.062574812  0.062243626            3 
 2040000   0.90933971   -3.9347701    1532.2206  0.062590712  0.062232851            3 
 2041000   0.93706244   -3.9133372    1539.3554  0.062851357  0.062222277            1 
 2042000   0.92743876   -3.9606596    1536.3995  0.062699948   0.06221192            2 
 2043000   0.90640962    -3.938908     1531.753  0.062479729  0.062201269            4 
 2044000   0.95072591   -3.9236925    1535.5853  0.062605401  0.062190663            4 
 2045000   0.92481363   -3.9615972     1538.783  0.062705092  0.062179998            3 
 2046000   0.93607689   -3.9347617    1536.0408  0.062562755  0.062169456            7 
 2047000   0.92523463   -3.9267097    1538.4016  0.062628302  0.062158804            3 
 2048000   0.90714674   -3.9245154    1538.2914  0.062593237  0.062148147            2 
 2049000   0.93045655   -3.9309416    1540.3973  0.062648337  0.062137715            3 
 2050000    0.9156694   -3.9482348    1530.9519  0.062233816  0.062126856            4 
 2051000   0.94186319   -3.9453269    1544.3557  0.062748079  0.062116309            4 
 2052000   0.93660659   -3.9435307    1541.0869  0.062584749   0.06210588            3 
 2053000   0.92362074    -3.934006    1546.4481  0.062771881   0.06209538            4 
 2054000   0.92953499   -3.9418204    1545.9095  0.062719471  0.062085077            3 
 2055000   0.92193253   -3.9510005    1543.1851   0.06257847  0.062074655            3 
 2056000   0.91966853   -3.9498683    1540.9522  0.062457532  0.062064124            3 
 2057000   0.90116616   -3.9271866     1544.072  0.062553559  0.062053387            3 
 2058000    0.9083814   -3.9356353    1542.1784  0.062446485   0.06204286            3 
 2059000   0.92620046    -3.954163     1544.031  0.062491136  0.062032409            3 
 2060000   0.94604436   -3.9034779    1553.0732  0.062826587  0.062021935           10 
 2061000   0.91741606   -3.9318809    1542.7624  0.062379199  0.062011691            4 
 2062000   0.91108267   -3.9377145    1546.8209  0.062512969   0.06200141            4 
 2063000   0.91551348   -3.9594345    1547.6012  0.062514188  0.061991191            4 
 2064000   0.91597323   -3.9594073    1549.6826  0.062567935  0.061980969            3 
 2065000   0.91070102    -3.913151    1549.3043  0.062522368   0.06197067            4 
 2066000   0.94630875   -3.9420544    1544.2795  0.062289428  0.061960162            2 
 2067000   0.94377172   -3.9357933    1549.5456  0.062471603  0.061949655            4 
 2068000   0.92410654   -3.9472624    1552.5547  0.062562649  0.061939232            3 
 2069000   0.93012443   -3.9271774    1557.3624   0.06272605  0.061929116            3 
 2070000   0.92119003   -3.9768554    1551.5834  0.062463102  0.061918812            3 
 2071000   0.88901153   -3.9756613    1554.4728  0.062549203  0.061908685            3 
 2072000   0.93599919   -3.9278444    1549.9039  0.062335262  0.061898594            3 
 2073000   0.92428665   -3.9627815    1553.1861  0.062437132  0.061888445            4 
 2074000   0.92749014   -3.9453062    1554.2263  0.062448824  0.061878346            6 
 2075000   0.92064446    -3.933329    1554.4529  0.062427826  0.061868213            3 
 2076000   0.92245161   -3.9179159    1557.3143  0.062512615  0.061857994            3 
 2077000   0.93790468   -3.9371653    1556.3469  0.062443705  0.061847981            5 
 2078000   0.90622767   -3.9195288    1560.7044  0.062588402   0.06183799            4 
 2079000   0.94080833   -3.9576537    1554.0312  0.062290815  0.061827993            3 
 2080000   0.91339232   -3.9167333    1567.1224  0.062785352  0.061817949            4 
 2081000    0.9382376   -3.9784121    1556.3086  0.062322143  0.061807954            4 
 2082000   0.92260907   -3.9371416    1557.0169  0.062320561  0.061797718            3 
 2083000     0.923795   -3.9349055    1555.8314  0.062243215  0.061787604            2 
 2084000   0.89971445   -3.9616364    1550.1425  0.061985866  0.061777432            3 
 2085000   0.91146273   -3.9186945    1559.3116  0.062322604   0.06176695            4 
 2086000   0.92637445   -3.9528218    1557.7063  0.062228601  0.061756599            8 
 2087000   0.92064164    -3.942545    1559.6954  0.062278207  0.061746311            4 
 2088000   0.92359544   -3.9434724    1560.4712  0.062279341  0.061736028            9 
 2089000   0.91947572   -3.9421286    1558.0979  0.062154855  0.061725921            3 
 2090000   0.91220068   -3.9366077    1565.5045  0.062420433  0.061715587            3 
 2091000   0.90080632     -3.92476    1556.2852  0.062023164   0.06170553            7 
 2092000   0.93299961   -3.9315751    1560.8548  0.062175541  0.061695316            4 
 2093000   0.91467357   -3.9446359    1567.4255   0.06240745  0.061685201            3 
 2094000   0.92831795   -3.9589994    1564.8741  0.062276108  0.061675227            5 
 2095000   0.91089481   -3.9387408    1563.9659  0.062210259  0.061664927            2 
 2096000   0.91070181   -3.9213194    1568.2218  0.062349785  0.061654892            2 
 2097000    0.9203152   -3.9663578    1566.6119  0.062256077  0.061644811            3 
 2098000   0.92190076   -3.9318652    1572.0803  0.062443611  0.061634782            5 
 2099000   0.90653644    -3.969643    1566.0596  0.062174828  0.061624687            3 
 2100000   0.90606926    -3.964055    1567.0424  0.062184223  0.061614497            3 
 2101000   0.90159824   -3.9463004    1567.6345  0.062178111  0.061604319            4 
 2102000   0.92685566   -3.9639176    1565.4109  0.062060376  0.061594086            4 
 2103000   0.93115101   -3.9578118    1565.6193  0.062039122  0.061583809            5 
 2104000   0.92009777    -3.956213    1568.5747   0.06212669   0.06157373            5 
 2105000    0.9228529   -3.9331919    1572.2835  0.062244003  0.061563886            4 
 2106000   0.92219857   -3.9522794    1572.5177  0.062223715  0.061553947            4 
 2107000   0.92261384   -3.9581769     1569.035  0.062056438  0.061543901            3 
 2108000   0.90534785   -3.9500038    1573.8062  0.062215613  0.061533772            1 
 2109000   0.89516879   -3.9545426    1568.7825  0.061987614  0.061523682            3 
 2110000   0.91965679   -3.9365906    1572.7227  0.062113849  0.061513692            3 
 2111000   0.90905306    -3.936508      1572.28  0.062066949   0.06150374            3 
 2112000   0.91553118   -3.9523887    1574.3832  0.062120549   0.06149375            4 
 2113000   0.92091874   -3.9797509    1574.9684   0.06211423  0.061483522            5 
 2114000   0.90875207   -3.9615047     1573.818  0.062039498  0.061473275            4 
 2115000   0.91592725   -3.9804091    1574.1085  0.062021613  0.061463042            4 
 2116000   0.93156391   -3.9404269    1575.9647  0.062065403  0.061452839            2 
 2117000   0.90005708   -3.9660799    1571.3812   0.06185566  0.061442489            4 
 2118000   0.91639558   -3.9517696    1575.6581   0.06199473  0.061432146            4 
 2119000   0.91676896   -3.9722707    1575.8182   0.06197177  0.061421704            3 
 2120000   0.92426724   -3.9804753    1568.2603  0.061645453  0.061411227            4 
 2121000   0.92181532   -3.9405352    1573.7226  0.061830999  0.061400651            4 
 2122000   0.93349699   -3.9476561    1575.0338  0.061853352  0.061390277            4 
 2123000   0.91074101   -3.9619495    1581.7615  0.062088298  0.061380026            3 
 2124000   0.91917222   -3.9520124     1576.392  0.061848399  0.061369469            2 
 2125000   0.92249772   -3.9719479    1575.9074  0.061800291  0.061358879            6 
 2126000   0.92420555   -3.9708889    1574.9522  0.061733782  0.061348448            4 
 2127000   0.89268175    -3.957219      1577.45  0.061802615  0.061338035            3 
 2128000   0.91819019   -3.9590559     1576.532  0.061737625  0.061327547            4 
 2129000   0.89990078    -3.956934    1581.7195  0.061911677  0.061317098            4 
 2130000   0.91248682   -3.9463409    1575.1779  0.061626677  0.061306757            3 
 2131000    0.9030474   -3.9703127    1579.9686  0.061785101  0.061296443            4 
 2132000   0.90330174   -3.9775279    1578.4516  0.061696828  0.061285857            3 
 2133000   0.91037456   -3.9674188    1578.8243  0.061682463  0.061275329            5 
 2134000   0.90848471   -3.9564052    1576.7184   0.06157132  0.061264556            2 
 2135000   0.91889828   -3.9277938    1580.6314  0.061695215  0.061254204            4 
 2136000   0.91683918   -3.9216661    1574.8218  0.061439679  0.061243659            2 
 2137000   0.90364685   -3.9586147    1581.5758  0.061674302  0.061232942            2 
 2138000   0.92007835   -3.9730758    1577.9519  0.061504205  0.061222221            3 
 2139000   0.89620442    -3.974581    1575.3473  0.061373978  0.061211519            2 
 2140000   0.90605472   -3.9433736    1581.0548  0.061567556   0.06120067            4 
 2141000   0.91163595   -3.9604614    1577.2975  0.061392555  0.061190045            2 
 2142000   0.92527364    -3.954559    1579.1279  0.061435104  0.061179088            3 
 2143000   0.90674882   -3.9511135    1583.8862  0.061591467   0.06116835            7 
 2144000   0.90798042   -3.9530354    1580.5723  0.061433936  0.061157435            2 
 2145000   0.91533615   -3.9701438    1582.3764  0.061475385  0.061146693            3 
 2146000   0.91358321   -3.9713859    1581.3495  0.061406861  0.061135734            1 
 2147000   0.90152824   -3.9540739    1580.9604  0.061363158   0.06112482            3 
 2148000    0.9192599   -3.9686936    1586.1517  0.061535991  0.061113794            3 
 2149000   0.89399072   -3.9812206    1580.0035  0.061268944  0.061102828            3 
 2150000   0.90152895   -3.9578027    1582.2633  0.061328035  0.061091813            3 
 2151000   0.88515396   -3.9606927    1586.8153  0.061475877  0.061080713            3 
 2152000   0.91891053    -3.960808    1585.8638  0.061410461  0.061069661            4 
 2153000   0.91806291   -3.9862104    1582.3693  0.061246683  0.061058683            2 
 2154000   0.89233037    -3.972885    1588.2116  0.061444274  0.061047806            5 
 2155000   0.90623717   -3.9559343    1580.3747  0.061112711  0.061036706            4 
 2156000   0.88412904   -3.9929314    1580.3138  0.061082012  0.061025425            3 
 2157000   0.90460367   -3.9677899     1580.222  0.061050145  0.061014097            4 
 2158000   0.90877432   -3.9732284    1585.7123  0.061233869  0.061003018            6 
 2159000   0.90573172   -3.9977816    1585.9857   0.06121606  0.060991927            2 
 2160000   0.92893307    -3.948094    1585.8263  0.061181569  0.060980992            3 
 2161000   0.88599169   -3.9602165    1587.2777  0.061209229  0.060970021            2 
 2162000    0.9061934   -3.9786059    1588.2308  0.061217654  0.060959058            4 
 2163000   0.92168055   -3.9844048    1590.2792   0.06126827   0.06094785            3 
 2164000   0.89292872   -3.9591983     1595.712  0.061449169   0.06093698            2 
 2165000   0.89301492   -3.9846127    1587.3531  0.061099041  0.060926001            4 
 2166000   0.88758878   -3.9574809    1597.3426  0.061455163  0.060915175            4 
 2167000   0.88684521   -3.9547823    1593.4762  0.061278118  0.060904342            8 
 2168000   0.89141851   -3.9632057    1595.3919   0.06132349  0.060893548            4 
 2169000   0.90395661   -3.9510585    1595.2987  0.061291637  0.060883008            3 
 2170000   0.91433393   -3.9684702    1595.2189  0.061260328  0.060872296            3 
 2171000   0.93148898   -3.9532177    1597.4488  0.061317703   0.06086141            4 
 2172000   0.90057239   -3.9847169    1594.5859  0.061179629  0.060850746            3 
 2173000   0.88861148   -3.9395363    1596.6419  0.061230321  0.060839965            3 
 2174000   0.91621082   -3.9801801    1588.1029  0.060874844  0.060829042            6 
 2175000   0.91898097   -3.9651186    1592.7214  0.061023809  0.060817922            7 
 2176000   0.88209833   -3.9206316    1596.3397  0.061134333  0.060807092            6 
 2177000   0.85483933   -4.0070478    1590.9847  0.060901267   0.06079619            4 
 2178000   0.91481576   -3.9672221    1600.4514  0.061235512  0.060785252            3 
 2179000   0.91146532   -3.9707388     1596.991  0.061075073  0.060774376            6 
 2180000   0.89533204   -3.9789437    1595.2784  0.060981589  0.060763425            3 
 2181000   0.90358004   -3.9717475    1595.7797  0.060972785  0.060752448            4 
 2182000   0.92125732   -3.9509757    1603.6851  0.061246758  0.060741621            2 
 2183000   0.91164953   -3.9722687    1603.4495  0.061209709  0.060730794            3 
 2184000   0.91852915   -3.9821849    1595.7479  0.060887815    0.0607198            4 
 2185000   0.90905554   -3.9724688    1603.8626  0.061169437  0.060709045            5 
 2186000   0.89597525   -3.9713392    1603.2633  0.061118608  0.060698267            2 
 2187000   0.90327786   -3.9637359    1603.1034  0.061084569  0.060687637            4 
 2188000   0.89401339   -3.9665353    1605.4226  0.061144982  0.060676979            4 
 2189000   0.88227823   -3.9586957    1600.7957  0.060940905  0.060666343            2 
 2190000   0.89942844   -3.9967444    1603.0679  0.060999538  0.060655627            3 
 2191000    0.9106581    -4.007449    1599.6645  0.060842253  0.060645068            3 
 2192000   0.89539673   -3.9718346    1615.8654  0.061430406   0.06063432            2 
 2193000   0.89233057   -3.9731709    1604.8768  0.060984832  0.060623535            4 
 2194000   0.88871993   -3.9867304    1603.2234  0.060894235  0.060612883            5 
 2195000   0.89342514   -3.9914071    1603.7538  0.060886629  0.060602169            2 
 2196000   0.90151056   -3.9775547    1610.1701  0.061102387  0.060591644            4 
 2197000    0.9072672   -3.9350747    1603.5054  0.060821781  0.060581059            3 
 2198000   0.89371312    -3.989026    1608.9987  0.061002378  0.060570466            5 
 2199000   0.89373069   -3.9633671    1609.7208     0.061002  0.060559706            4 
 2200000   0.90375641   -3.9499557    1611.1143  0.061027056  0.060549084            4 
 2201000   0.89317758   -3.9770171    1608.2012  0.060889037  0.060538251            2 
 2202000    0.8856687   -3.9760161    1611.2357  0.060976224  0.060527501            6 
 2203000   0.91018623   -3.9631425      1613.81  0.061045922  0.060516883            4 
 2204000   0.88903344    -4.002943    1603.6997  0.060635953  0.060506112            3 
 2205000   0.90044335   -3.9804336    1613.3142  0.060971813  0.060495367            4 
 2206000    0.9088602   -3.9792379    1611.5435  0.060877284  0.060485049            7 
 2207000   0.88572375   -3.9626963    1612.4969  0.060885699  0.060474645            4 
 2208000   0.90098344    -3.973502    1616.5176  0.061009874  0.060464146            6 
 2209000   0.89981152   -3.9728989    1614.1629  0.060893423  0.060453638            2 
 2210000   0.89179594   -3.9759896    1612.5909  0.060806596  0.060443312            6 
 2211000   0.87824769   -3.9877187    1614.8369  0.060863744  0.060432772            2 
 2212000   0.90488959   -3.9736912    1614.0079     0.060805  0.060422208            4 
 2213000   0.91265589   -3.9867356    1615.6165  0.060838096  0.060411791            4 
 2214000   0.88166276   -3.9889478    1617.6801  0.060888289  0.060401411            2 
 2215000   0.90289038    -3.973084    1619.1796  0.060917214  0.060390919            5 
 2216000   0.89143515   -4.0031076    1621.0913  0.060961616  0.060380467            5 
 2217000   0.88387617   -3.9895784    1615.7286  0.060732546  0.060370105            4 
 2218000    0.8968014   -3.9826229     1615.634  0.060701608  0.060359262            2 
 2219000   0.88110082   -3.9666353    1615.2545  0.060659999  0.060348536            4 
 2220000    0.8687324   -3.9754089    1612.3882  0.060525084  0.060337997            2 
 2221000   0.89310152   -3.9875536    1611.7187   0.06047271  0.060327297            3 
 2222000   0.92531956   -3.9621581    1617.8144  0.060674108  0.060316589            3 
 2223000   0.88902053   -3.9633134    1616.7346  0.060606336  0.060305967            3 
 2224000   0.90823872   -3.9731009    1620.0604  0.060703703  0.060295295            5 
 2225000   0.90738143   -3.9560105    1618.5985  0.060621666  0.060284628            2 
 2226000   0.90048208   -3.9658821    1624.1499  0.060802256  0.060273929            3 
 2227000   0.87574529     -3.99961    1624.1701  0.060775713  0.060263082            5 
 2228000   0.89370527   -3.9722489    1624.0823  0.060745147  0.060252385            4 
 2229000   0.91064034   -3.9888121    1619.8563  0.060559903  0.060241695            3 
 2230000    0.8886324   -3.9764827    1625.0133  0.060725458  0.060231001            4 
 2231000   0.88153145    -3.998412     1619.596   0.06049589  0.060220195            4 
 2232000   0.88781832   -4.0178882    1614.0658  0.060262312  0.060209353            3 
 2233000   0.89865798   -3.9646547    1624.1564  0.060611896   0.06019852            3 
 2234000   0.89937508   -3.9928109    1625.6777  0.060641513   0.06018781            2 
 2235000   0.89938944   -3.9838864    1621.8978  0.060473444  0.060177161            7 
 2236000   0.87980318   -3.9879718    1621.7289  0.060440105  0.060166547            5 
 2237000   0.88376549   -3.9963047    1623.2949  0.060471423  0.060155662            5 
 2238000   0.90210114   -4.0119977    1622.1169  0.060400541  0.060144816            4 
 2239000   0.89620135   -3.9930346    1626.3683  0.060531796  0.060134011            3 
 2240000   0.89779575   -3.9717756    1628.5777  0.060586969  0.060123544            5 
 2241000   0.89469769   -4.0159574    1624.2909  0.060400525  0.060112968            7 
 2242000   0.88627501   -4.0114187    1625.7578  0.060428109   0.06010234            1 
 2243000   0.89223192   -3.9926718    1627.0879  0.060450583  0.060091735            3 
 2244000   0.88868231   -3.9931739    1631.2719  0.060579021  0.060080895            8 
 2245000   0.90018102   -3.9690776    1631.0821  0.060544991  0.060070258            4 
 2246000   0.88433503   -3.9924449    1627.7191   0.06039326  0.060059763            2 
 2247000   0.89283556   -3.9705644    1633.7215  0.060588988  0.060049095            3 
 2248000   0.89306073   -3.9904206     1627.209  0.060320617  0.060038409            4 
 2249000   0.88035759    -3.965637    1632.1726  0.060477715  0.060027932            3 
 2250000   0.88237655   -4.0045119    1635.2061  0.060563189  0.060017465            5 
 2251000   0.89442251   -3.9911446    1630.7289  0.060370535  0.060007037            5 
 2252000   0.88918736   -4.0155839    1629.9125  0.060313517   0.05999653            2 
 2253000   0.92657276   -4.0102017    1639.6054  0.060645267  0.059985892            3 
 2254000    0.8842492   -3.9842859    1637.8298  0.060552716  0.059975269            1 
 2255000   0.87998344   -3.9934165    1637.4797  0.060512922  0.059964858            5 
 2256000   0.89544584   -4.0120651    1628.7895  0.060165097  0.059954327            6 
 2257000   0.90448091   -3.9927648    1635.2732  0.060377833  0.059943531            4 
 2258000   0.88220101   -4.0052037    1632.3008  0.060241394  0.059932978            5 
 2259000   0.89044112   -3.9894796    1637.3232  0.060399999  0.059922546            1 
 2260000   0.90959902    -4.007703    1632.8569  0.060208586  0.059912059            2 
 2261000    0.8873528   -4.0090621    1637.4248  0.060350319  0.059901572            3 
 2262000   0.88498908    -3.989466    1640.0068   0.06041876  0.059891126            3 
 2263000   0.89228349   -3.9733653    1639.5531  0.060375353  0.059880646            5 
 2264000   0.88005063   -3.9681766    1644.7153  0.060538695  0.059870048            4 
 2265000   0.87993505   -3.9981678    1638.5808  0.060286271  0.059859584            4 
 2266000    0.8750371   -3.9980772    1638.3682  0.060251848   0.05984905            3 
 2267000   0.86609371   -3.9875424    1644.6806  0.060457308  0.059838622            3 
 2268000   0.90209399   -3.9785202    1634.2566   0.06004764   0.05982794            4 
 2269000   0.88258437   -3.9909938    1641.2075  0.060276462   0.05981748           10 
 2270000   0.89555631   -4.0003945    1645.3089  0.060400472  0.059807042            3 
 2271000   0.88004629   -3.9962978     1641.392  0.060230147   0.05979646            2 
 2272000   0.89515874   -4.0012282    1642.2436  0.060234875  0.059786013            5 
 2273000    0.8703785   -3.9932233    1640.7804  0.060154728  0.059775541            4 
 2274000   0.88621032   -4.0028962    1646.3068  0.060330797  0.059765226            3 
 2275000   0.88142054   -3.9852173    1649.3418  0.060415449  0.059755035            4 
 2276000     0.867838   -3.9879009    1646.2158  0.060274452  0.059744812            2 
 2277000   0.89803871   -4.0159006    1646.3947  0.060254525  0.059734307            4 
 2278000   0.88785848   -3.9845037    1646.8076   0.06024318  0.059724058            7 
 2279000   0.89442804   -4.0169791    1644.8543  0.060145322  0.059713692            3 
 2280000   0.87144874   -3.9975526    1641.3845  0.059992124  0.059703411            4 
 2281000   0.87431842   -3.9942929    1645.9497  0.060132607  0.059693051            2 
 2282000    0.8975826   -3.9889892    1645.1742  0.060077937   0.05968268            4 
 2283000   0.89922672   -3.9959066    1654.8786  0.060405848   0.05967245            6 
 2284000   0.88722233   -3.9896203    1643.0475  0.059947734  0.059662251            4 
 2285000   0.86750774   -4.0198127    1650.2229  0.060183183  0.059651997            2 
 2286000   0.87411432   -4.0160898    1647.2657  0.060049055  0.059641745            5 
 2287000   0.87880997   -3.9797942    1657.5542   0.06039769  0.059631579            2 
 2288000   0.87642098   -3.9776768    1656.2283  0.060323001  0.059621398            3 
 2289000   0.87914299   -3.9939934    1656.4266  0.060303867  0.059611388            5 
 2290000   0.89765645   -4.0064891     1644.641  0.059848655  0.059601359            2 
 2291000   0.87509682   -4.0094081    1649.9883  0.060017035  0.059591237            3 
 2292000   0.89056413   -3.9989516    1657.1509  0.060251269  0.059581009            4 
 2293000   0.88455899   -3.9861597    1658.8697  0.060287459  0.059570899            4 
 2294000   0.88470554   -4.0006775    1653.4208  0.060063239  0.059560671            4 
 2295000   0.89331017   -3.9761859    1663.1729  0.060391174  0.059550485            7 
 2296000   0.90124414    -4.021938    1652.2411  0.059968099  0.059540321            4 
 2297000   0.88295895    -4.001143     1653.342  0.059981934  0.059530096            8 
 2298000   0.88991578   -3.9629786    1653.4952  0.059961386  0.059519765            3 
 2299000   0.88467138   -3.9849782    1658.4018  0.060113157  0.059509459            3 
 2300000   0.88151157   -4.0174686    1648.1824  0.059716753   0.05949918            2 
 2301000   0.90685542   -4.0373308     1653.185  0.059871976  0.059488856            7 
 2302000   0.91108606   -4.0029139    1655.3254  0.059923452  0.059478629            3 
 2303000   0.88740557   -3.9950761    1659.5681  0.060050952  0.059468348            2 
 2304000   0.88249532   -4.0193407    1654.8332  0.059853633  0.059457969            2 
 2305000   0.88466326   -4.0244364    1659.9637  0.060013149  0.059447485            4 
 2306000   0.90596118   -4.0003017    1659.3348  0.059964397  0.059437245            4 
 2307000   0.89370443   -4.0137148    1656.9537  0.059852394  0.059426973            3 
 2308000   0.87276749   -4.0233767     1660.562  0.059956743  0.059416534            6 
 2309000   0.88330356   -4.0275111    1658.5552  0.059858351   0.05940597            8 
 2310000   0.87072109   -4.0035245    1657.2531  0.059785467  0.059395555            6 
 2311000   0.87784207   -4.0099454    1660.6376  0.059881637  0.059385206            4 
 2312000   0.89039742   -4.0194516    1656.1558  0.059694197  0.059374732            6 
 2313000   0.87031605   -3.9891485    1663.9994   0.05995098  0.059364314            8 
 2314000   0.88670009   -3.9914518    1659.3083  0.059756131  0.059353935            3 
 2315000   0.86100596   -4.0113095     1661.334  0.059803239  0.059343589            3 
 2316000   0.88217407   -4.0083205    1656.4873  0.059603026  0.059333254            6 
 2317000   0.88944703   -4.0119332    1651.7071  0.059405378  0.059322776            3 
 2318000   0.89264687   -4.0072989    1664.8355  0.059851722  0.059312257            4 
 2319000   0.87966489   -4.0101354    1662.8623  0.059755005  0.059301758            3 
 2320000   0.88469698   -3.9987754    1660.5132  0.059644872  0.059291216            3 
 2321000    0.8873155   -3.9965094     1662.509  0.059690832  0.059280853            3 
 2322000    0.8806529    -4.001083    1659.5211  0.059557893  0.059270439            8 
 2323000   0.87864659   -3.9980723    1664.9152  0.059725757  0.059259841            2 
 2324000   0.86967113   -4.0205104    1664.7163  0.059692925  0.059249125            2 
 2325000   0.87867058   -4.0078435    1657.8542  0.059421298  0.059238414            5 
 2326000   0.88266569   -4.0377984    1659.7408   0.05946334  0.059227675            3 
 2327000   0.86353514   -4.0134274    1666.0358  0.059663222  0.059216735            4 
 2328000   0.89912145   -4.0243411     1659.776  0.059413516  0.059205698            3 
 2329000   0.86980855   -4.0027532    1669.7444  0.059744683  0.059194754            3 
 2330000   0.90011477   -4.0126577    1659.6204  0.059356951  0.059183938            3 
 2331000   0.85588771   -4.0249748    1657.9314  0.059271108  0.059173121            6 
 2332000   0.89783792   -4.0353617      1658.53   0.05926708  0.059162137            3 
 2333000   0.87314365   -3.9768669    1660.0517   0.05929603  0.059151018            6 
 2334000   0.85524106   -4.0063667    1661.5544  0.059324279  0.059139884            5 
 2335000   0.85463522    -4.008738    1656.5032  0.059118601  0.059128775            4 
 2336000   0.87942403    -4.016322    1663.3076  0.059336031  0.059117684            3 
 2337000   0.87225458   -4.0327892    1668.1969  0.059484986  0.059106566            3 
 2338000   0.89975138   -4.0316758    1666.3876  0.059395053  0.059095628            5 
 2339000   0.88369195   -4.0045816    1669.8156  0.059491793  0.059084535            3 
 2340000    0.8735012   -4.0160109    1668.2092   0.05940916  0.059073593            3 
 2341000   0.88797824   -3.9930598    1671.1849  0.059489708  0.059062462            2 
 2342000   0.88128919   -4.0156085    1664.1594  0.059214327  0.059051683            4 
 2343000   0.90010239   -4.0557397    1666.3449  0.059266785  0.059040772            3 
 2344000    0.8764302   -4.0629024    1665.0232   0.05919451  0.059029844            4 
 2345000   0.88643385   -3.9812814    1673.8931  0.059484474  0.059018993            5 
 2346000   0.86968865   -4.0291481    1667.9799  0.059249074  0.059008196            3 
 2347000   0.86087154   -4.0201982    1668.7029  0.059249501  0.058997323            2 
 2348000   0.86471317   -4.0507472    1668.4377  0.059214854  0.058986426            3 
 2349000   0.89424778   -4.0232208    1669.3936  0.059223555  0.058975753            2 
 2350000   0.87746943    -3.989815    1672.3099  0.059301771  0.058964996            4 
 2351000   0.86271884   -4.0176004    1670.2896  0.059204935  0.058954224            4 
 2352000   0.87939792   -4.0157314    1673.3196  0.059287118  0.058943438            2 
 2353000   0.89608765   -4.0164141    1677.0229  0.059393076   0.05893273            2 
 2354000   0.89093516   -4.0185185    1676.9998  0.059367028  0.058922014            9 
 2355000   0.88975116   -4.0177559     1673.453  0.059216314   0.05891122            3 
 2356000   0.88810355   -4.0472591    1668.3672   0.05901129  0.058900299            5 
 2357000   0.88514006   -4.0489277    1669.2574  0.059017728  0.058889355            6 
 2358000   0.86837948   -4.0300816    1678.5244  0.059320202  0.058878606            6 
 2359000   0.86252431   -4.0267097    1676.5731  0.059226124  0.058867798           10 
 2360000   0.87353051   -4.0009843     1676.136  0.059185594  0.058857006            4 
 2361000    0.8775381   -3.9977332    1675.0909  0.059123638  0.058846388            5 
 2362000   0.87787172   -4.0402555    1674.7444  0.059086381  0.058835591            5 
 2363000   0.89803152    -4.015541    1680.7866  0.059274459  0.058824828            2 
 2364000   0.86865648   -4.0298126    1679.0902  0.059189587  0.058814057            3 
 2365000   0.87292165    -4.020203    1678.4044  0.059140395  0.058803139            7 
 2366000   0.87146885   -4.0205247     1679.935  0.059169307  0.058792396            6 
 2367000   0.87969636   -3.9794336    1687.1588  0.059398634  0.058781702            4 
 2368000   0.88236164   -4.0100858    1680.4328  0.059136854  0.058771027            3 
 2369000   0.86347821   -3.9939926    1683.0949  0.059205533  0.058760525            2 
 2370000   0.87899111   -4.0137208    1679.5288  0.059055162  0.058750039            3 
 2371000   0.86433749   -4.0038382    1684.3806  0.059200781  0.058739524            7 
 2372000   0.88151972   -4.0401983    1682.2969  0.059102617   0.05872872            4 
 2373000   0.87482588   -4.0352638    1680.3528  0.059009438  0.058718075            7 
 2374000   0.86481516    -4.036055    1683.5899  0.059098213  0.058707458            3 
 2375000   0.89489305   -4.0281773    1685.3522  0.059135165  0.058696979            2 
 2376000   0.86398071   -4.0246675    1683.5982  0.059048757  0.058686367            3 
 2377000    0.8762005   -4.0511172    1680.3583  0.058910331  0.058675883            3 
 2378000   0.86792051   -4.0127293    1682.9647  0.058976896   0.05866519            2 
 2379000   0.87330357   -4.0380711    1680.0145  0.058848765  0.058654731            4 
 2380000    0.8626626   -4.0318981    1679.4569  0.058804513   0.05864417            6 
 2381000   0.87173843   -4.0370078    1687.5266   0.05906225  0.058633423            5 
 2382000   0.88047663   -4.0461351    1685.0622  0.058951237  0.058622729            4 
 2383000   0.87643554   -4.0166295    1676.6322  0.058631704  0.058612173            3 
 2384000   0.86575575   -4.0390197    1689.4347  0.059054626  0.058601575            4 
 2385000   0.87964357   -4.0261893    1688.3121  0.058990641  0.058590987            2 
 2386000   0.85912736   -4.0240744    1689.7908   0.05901756  0.058580356            5 
 2387000   0.88058746   -4.0286177    1692.3431  0.059081941  0.058569824            2 
 2388000   0.87605522    -4.022876    1688.2107  0.058912991    0.0585593            5 
 2389000   0.88004221    -4.037802     1691.664  0.059008792   0.05854875            4 
 2390000    0.8569038   -4.0494068    1690.7247  0.058951351   0.05853834            4 
 2391000   0.86596667   -4.0242992    1685.0651  0.058729441  0.058527703            5 
 2392000   0.87158264   -4.0128184    1691.5182  0.058929702  0.058516984            2 
 2393000   0.87100128   -4.0266435    1685.6165  0.058699558  0.058506243            3 
 2394000   0.87684216   -4.0551624    1686.7268  0.058713688  0.058495525            7 
 2395000   0.87120857    -4.020059    1689.0103  0.058768625  0.058484762            3 
 2396000    0.8744801   -4.0245059    1687.7054  0.058698712  0.058474107            6 
 2397000   0.87142373   -4.0439274    1691.5149  0.058806664  0.058463291            5 
 2398000   0.87751339   -4.0318412    1683.8868  0.058517055  0.058452355            6 
 2399000   0.85730325   -4.0331638    1693.8399  0.058838401   0.05844161            5 
 2400000   0.86137905    -4.040606    1691.3307   0.05872676  0.058430661            3 
 2401000   0.87614467   -4.0530996    1692.9246  0.058757621  0.058419705            5 
 2402000   0.86867361   -3.9761541    1696.2402  0.058848188  0.058408841            2 
 2403000   0.84474905   -4.0413049    1688.2416  0.058546317  0.058397898            2 
 2404000   0.86873505   -4.0295356    1693.1785  0.058693099  0.058386859            3 
 2405000    0.8572593   -4.0532562    1690.2196  0.058566167  0.058376163            4 
 2406000   0.85365064   -4.0266386    1692.4206  0.058618061  0.058365238            3 
 2407000   0.88049276   -4.0712265    1692.8108  0.058607214   0.05835436            6 
 2408000   0.85367768   -4.0395784    1690.4248  0.058500305   0.05834352            4 
 2409000   0.86598869    -4.031254    1693.0594  0.058567158  0.058332765            6 
 2410000   0.88284142   -4.0354168    1694.8191  0.058603702  0.058321982            4 
 2411000   0.86190357   -4.0365056    1695.5949  0.058606212  0.058311226            4 
 2412000   0.84354637   -4.0507774    1691.2223  0.058430842  0.058300505            6 
 2413000   0.85081628   -4.0455286    1694.4823  0.058519213  0.058289588            4 
 2414000    0.8511724   -4.0249843    1694.4264   0.05849304  0.058278888            9 
 2415000   0.87397521   -4.0156608     1701.166   0.05870138  0.058268138            1 
 2416000   0.86829219   -4.0146968    1699.9703  0.058635842  0.058257641            5 
 2417000   0.85571646   -4.0191319    1697.7555  0.058535218   0.05824685            3 
 2418000   0.86937827   -4.0419577    1700.2101  0.058595604  0.058236127            4 
 2419000   0.87143829   -4.0373175    1702.8128  0.058661045  0.058225335            7 
 2420000   0.85922199    -4.043131    1696.6346  0.058424056  0.058214618            5 
 2421000   0.85265744   -4.0683394    1694.9452  0.058341774  0.058203889            3 
 2422000   0.87168838   -4.0269095    1696.8633  0.058383682  0.058193273            4 
 2423000   0.85705723   -4.0550233    1706.9196  0.058705449  0.058182772            7 
 2424000   0.86705003   -4.0504613    1707.8673  0.058713808  0.058172243            2 
 2425000   0.84782763   -4.0340281    1705.6317  0.058612773  0.058161816            1 
 2426000   0.88894402   -4.0240486    1707.7937  0.058662877   0.05815128           11 
 2427000     0.860429   -4.0404269    1700.7826  0.058397976  0.058140689            8 
 2428000   0.86995674   -4.0252611    1703.5776   0.05846985  0.058130076            4 
 2429000   0.87920921    -4.042323    1708.5841  0.058617542  0.058119549            6 
 2430000   0.83680789   -4.0402505    1703.6156   0.05842303  0.058108972            9 
 2431000   0.85094032   -4.0513567    1710.2021  0.058624782  0.058098471            4 
 2432000   0.87114617   -4.0413448    1704.2266  0.058395921  0.058088017            8 
 2433000   0.84440893   -4.0486366     1712.493  0.058655054  0.058077465            4 
 2434000    0.8737815   -4.0497953    1704.4254  0.058354746  0.058066845            4 
 2435000     0.867105   -4.0434914    1709.1104  0.058491116   0.05805636            4 
 2436000   0.87299187   -4.0537976    1703.9161  0.058289411  0.058045884            3 
 2437000   0.88478388   -4.0560932     1705.174  0.058308508  0.058035475            5 
 2438000   0.87162315   -4.0163862    1713.7998  0.058579431   0.05802511            5 
 2439000   0.86399153   -4.0427917    1711.6851  0.058483158  0.058014755            7 
 2440000   0.86341255   -4.0403553    1710.8774  0.058431605  0.058004452            4 
 2441000   0.85934147   -4.0345003    1714.5148  0.058531845  0.057994006            4 
 2442000   0.85633063   -4.0377791    1713.7281  0.058481029  0.057983457            7 
 2443000   0.83870441   -4.0636881    1708.0742   0.05826423  0.057972779            5 
 2444000   0.86114318   -4.0737656     1709.204  0.058278913  0.057962186            3 
 2445000   0.87052503   -4.0341483    1712.6978  0.058374156  0.057951656           13 
 2446000   0.83879304   -4.0394064    1716.7722  0.058489105  0.057941136            4 
 2447000   0.88352163   -4.0357474    1718.2058  0.058514023  0.057930596            2 
 2448000   0.84444471   -4.0082307    1713.9768  0.058346162  0.057920283            5 
 2449000   0.88029319   -4.0684629    1714.8193  0.058351005  0.057909708            2 
 2450000   0.86673976   -4.0601333    1713.0582  0.058267286  0.057899079            3 
 2451000   0.85338503   -4.0547749    1711.9189  0.058204776  0.057888333            4 
 2452000   0.87953553   -4.0249096    1719.4521  0.058437062  0.057877759            6 
 2453000   0.86229058   -4.0248002    1715.2676  0.058271084  0.057867172            3 
 2454000   0.84713417   -4.0393114    1713.1869  0.058176681  0.057856566            3 
 2455000   0.86525591   -4.0327071    1714.0606  0.058182641  0.057845811            3 
 2456000   0.87458484   -4.0559923    1716.3123  0.058235352  0.057835297            5 
 2457000   0.87943694   -4.0203949    1715.3619  0.058179415  0.057824728            5 
 2458000   0.86919079   -4.0396469    1715.1603   0.05814891  0.057814173            9 
 2459000    0.8676035   -4.0491987    1712.9528  0.058050455   0.05780365            4 
 2460000   0.85093356   -4.0479688    1711.6532  0.057982831  0.057793141            5 
 2461000   0.86500587   -4.0454048    1716.3061  0.058116826  0.057782491            3 
 2462000   0.84771669   -4.0239908     1720.741  0.058243331  0.057772019            2 
 2463000   0.86645105   -4.0563491    1724.6486  0.058351893  0.057761562            2 
 2464000   0.84884072   -3.9909031     1723.981  0.058305633  0.057751081            3 
 2465000    0.8545904    -4.002288    1719.8872  0.058143583  0.057740574            3 
 2466000   0.84217267   -4.0560342    1715.1915  0.057961322   0.05772993            7 
 2467000    0.8562405   -4.0465823    1716.3799  0.057977972  0.057719098            4 
 2468000    0.8502296   -4.0634102    1716.8757  0.057971222  0.057708377            9 
 2469000   0.89063025   -4.0611493    1719.3344  0.058030727  0.057697684            4 
 2470000    0.8595038   -4.0323528    1717.1732  0.057934318  0.057687055            4 
 2471000   0.85893524    -4.046751     1717.792  0.057931743   0.05767632            6 
 2472000   0.84699879   -4.0404653    1722.8959  0.058080363  0.057665622            8 
 2473000   0.85042603   -4.0505814    1715.1444  0.057795672   0.05765485            5 
 2474000   0.85930978   -4.0415878    1725.0704  0.058106657  0.057644096            5 
 2475000    0.8461587   -4.0485529    1717.8373  0.057839639  0.057633369            2 
 2476000   0.87632277   -4.0556717    1719.4889  0.057871867  0.057622581            4 
 2477000   0.85632187   -4.0411357    1722.3157  0.057943603  0.057611989            4 
 2478000   0.87657471   -4.0629367     1723.117   0.05794717   0.05760131            3 
 2479000    0.8501692   -4.0643048     1724.255  0.057962048  0.057590535            5 
 2480000   0.83621024   -4.0506868    1724.0851  0.057932965  0.057579863            3 
 2481000   0.84261796   -4.0931061    1721.0911   0.05780905  0.057569223            3 
 2482000   0.84193958    -4.037973    1727.8855  0.058013884  0.057558596            3 
 2483000   0.84719577   -4.0757242    1721.1443  0.057764275  0.057547854            2 
 2484000   0.83909081   -4.0508918    1718.5645  0.057654472  0.057537102            3 
 2485000   0.86981492   -4.0583142    1724.1835  0.057819701  0.057526324            5 
 2486000   0.85922433   -4.0519879    1725.2773  0.057833108  0.057515589            5 
 2487000   0.86315867   -4.0319652    1725.2729  0.057809709  0.057504706            2 
 2488000   0.85325872   -4.0463615    1728.9182  0.057908569   0.05749399            4 
 2489000   0.86819041   -4.0587586    1728.6371  0.057875889  0.057483371            2 
 2490000   0.85523486   -4.0510468    1727.0134  0.057798305  0.057472567           10 
 2491000   0.86694183   -4.0510409    1725.3046  0.057717939  0.057461885            5 
 2492000   0.84147335   -4.0464711    1727.6286  0.057772492  0.057451116            6 
 2493000   0.87653662   -4.0274483    1723.1511  0.057599648  0.057440417            2 
 2494000   0.86575004   -4.0793541    1727.0491  0.057706799  0.057429659            4 
 2495000   0.83544787   -4.0673115    1722.1078  0.057518629  0.057418888            2 
 2496000   0.86631657   -4.0601768     1730.228  0.057766695  0.057408036            4 
 2497000   0.84912886   -4.0662904    1727.7433  0.057660635  0.057397161            4 
 2498000   0.85139654   -4.0638059    1726.9377  0.057610679  0.057386303            6 
 2499000   0.86261617   -4.0619874     1730.242  0.057697811  0.057375266            6 
 2500000   0.85677599   -4.0772887    1731.6022  0.057720072  0.057364516            4 
 2501000    0.8517617   -4.0634651    1733.8105  0.057770573  0.057353831            3 
 2502000   0.86065172   -4.0450919    1735.3121  0.057797499  0.057343241            3 
 2503000   0.84172183   -4.0453875    1731.9684  0.057663083   0.05733247            5 
 2504000   0.85584092    -4.038691    1727.3139  0.057485155  0.057321776            7 
 2505000   0.86716261   -4.0783522    1727.1724  0.057457498  0.057311102            4 
 2506000   0.86607838   -4.0456045    1735.5968  0.057714711  0.057300349            5 
 2507000   0.84421107   -4.0608563    1729.1848  0.057478552  0.057289832            4 
 2508000   0.87857288   -4.0450627    1733.0324  0.057583481  0.057279052            2 
 2509000   0.83392505   -4.0580998    1727.6986  0.057383373  0.057268427            3 
 2510000   0.85038254   -4.0781174    1735.1705  0.057608581  0.057257477            2 
 2511000    0.8461491   -4.0736866    1736.7757   0.05763891  0.057246808            3 
 2512000   0.84268982   -4.0659037     1742.606  0.057809383  0.057236115            7 
 2513000    0.8281278   -4.0562826    1733.0965  0.057471034  0.057225359            3 
 2514000   0.84082583   -4.0626685    1729.5045  0.057329107  0.057214528            3 
 2515000   0.85281351   -4.0466676      1735.66  0.057510271  0.057203856            4 
 2516000    0.8578274   -4.1063999    1733.6397    0.0574205  0.057193193            5 
 2517000   0.82962284    -4.066784    1731.1599  0.057315584  0.057182566            3 
 2518000   0.86521264   -4.0496398    1742.2416   0.05765957  0.057171957            6 
 2519000   0.83363183   -4.0435036    1739.9133  0.057559657  0.057161374            5 
 2520000   0.84529512   -4.0518568    1740.6711  0.057561873  0.057150759            4 
 2521000   0.86620383   -4.0306506    1743.4587  0.057631187  0.057140175            4 
 2522000   0.86189732   -4.0815208     1742.531  0.057577684  0.057129642            5 
 2523000   0.87317219   -4.0710066    1737.8709   0.05740094  0.057119015            4 
 2524000    0.8593808   -4.0536457    1740.7397  0.057472916  0.057108343            4 
 2525000   0.84626681   -4.0773671      1743.63  0.057545545  0.057097722            2 
 2526000   0.84294016   -4.0797405    1743.6513  0.057523467  0.057087153            7 
 2527000   0.85806468   -4.0238327     1743.648  0.057500593   0.05707666            2 
 2528000     0.836555   -4.0605556     1741.735  0.057414789  0.057065928            3 
 2529000   0.84686319   -4.0799311    1741.6296  0.057388614  0.057055353            4 
 2530000   0.86158887   -4.0355078    1754.1612  0.057778694  0.057044729            4 
 2531000   0.84865316   -4.0646387     1744.487  0.057437345  0.057034215            2 
 2532000   0.84075634   -4.0871331    1745.1051  0.057435001  0.057023712            6 
 2533000   0.84889216   -4.0556267    1744.9336  0.057406684  0.057013135            5 
 2534000   0.86069414   -4.0594956    1745.1988  0.057392751  0.057002479            6 
 2535000   0.84781926   -4.0692982    1746.9189  0.057426657  0.056991815            3 
 2536000   0.82090615    -4.034749    1752.4245  0.057584928  0.056981205            5 
 2537000   0.85280455   -4.0783897    1742.6244  0.057240324  0.056970489            5 
 2538000   0.83323434   -4.0681802    1743.6528  0.057251538  0.056959775            4 
 2539000    0.8434025   -4.0551665    1748.3783  0.057384084  0.056949062            3 
 2540000   0.85955385   -4.0528753    1739.4975  0.057070129  0.056938358            2 
 2541000   0.83980907   -4.0457973    1747.3624  0.057305602  0.056927712            5 
 2542000   0.84836548   -4.0653091    1744.4859   0.05718876  0.056917008            3 
 2543000    0.8451806   -4.0581834    1745.9371  0.057213827  0.056906306            3 
 2544000   0.83300711   -4.0541223    1741.2213   0.05703686  0.056895426            8 
 2545000   0.84933226   -4.0480715    1754.0711  0.057435202  0.056884839            3 
 2546000   0.85237225   -4.0739024    1749.2395    0.0572545   0.05687436            2 
 2547000   0.85179814   -4.0908968    1747.1869  0.057164863  0.056863668            4 
 2548000   0.82973672   -4.0596596     1744.811  0.057064725  0.056853073            4 
 2549000    0.8197852   -4.0518191    1751.7854  0.057270349  0.056842534            4 
 2550000   0.83698479   -4.0794334    1749.7757  0.057182214  0.056831779            3 
 2551000   0.84589293   -4.0721539    1754.6895  0.057320316  0.056821162            2 
 2552000   0.86430711   -4.0753977    1749.8462  0.057139701  0.056810668            3 
 2553000   0.85327079   -4.0914377    1752.8395  0.057215023  0.056799962            6 
 2554000   0.83773148   -4.0835647    1749.8723  0.057095809   0.05678943            8 
 2555000   0.82939493   -4.0364463    1755.1665  0.057246135  0.056778898            5 
 2556000   0.82324559    -4.065491    1753.2845  0.057162379  0.056768552            3 
 2557000   0.83854824   -4.0789592    1754.2422  0.057171234  0.056758056            3 
 2558000   0.84332364   -4.0955796    1745.8557  0.056875675  0.056747601            6 
 2559000   0.83820858   -4.0897768    1755.8404  0.057178599  0.056737154            5 
 2560000   0.84733749   -4.0886667    1757.9936  0.057226355  0.056726663            6 
 2561000   0.85174479     -4.04476    1754.4652  0.057089198  0.056716176           13 
 2562000   0.83953696   -4.0886839    1754.9872  0.057083893  0.056705832            4 
 2563000    0.8478024   -4.0695808    1762.0882  0.057292504  0.056695463            7 
 2564000   0.85332383   -4.0751445    1755.6365  0.057060468  0.056685131            5 
 2565000   0.82826025   -4.0850399    1757.6644  0.057104108  0.056674684            6 
 2566000   0.84766333    -4.072171    1762.1559  0.057227719  0.056664475            4 
 2567000   0.84743887   -4.0980313    1752.9641  0.056907028  0.056653984            5 
 2568000    0.8400911   -4.0834478    1758.7653   0.05707312   0.05664357            3 
 2569000     0.837221   -4.0609905    1758.3463  0.057037314  0.056633239            8 
 2570000   0.84757055    -4.040897    1764.3325  0.057209224  0.056622958            9 
 2571000   0.85778157   -4.0712836    1768.2575  0.057314194  0.056612766            5 
 2572000   0.83240671   -4.0335113    1773.6962  0.057468123  0.056602617            3 
 2573000   0.81941308   -4.0834174    1765.7387  0.057188066  0.056592481            5 
 2574000   0.83976662    -4.098321     1761.045  0.057013889  0.056582243            3 
 2575000   0.84674835   -4.0823564    1761.2468  0.056998279   0.05657206            8 
 2576000     0.858449   -4.0797236    1762.0208  0.057001191  0.056562047            5 
 2577000   0.85965793   -4.0953884    1762.9271  0.057008377  0.056551835            4 
 2578000   0.83014482   -4.0735863    1762.6222   0.05697641  0.056541562            7 
 2579000    0.8233402   -4.0667005    1769.4442   0.05717475  0.056531413            3 
 2580000   0.83989829   -4.0652895    1768.3762  0.057118093  0.056521223            1 
 2581000     0.828855   -4.0907017    1767.9961   0.05708369    0.0565112            3 
 2582000   0.82839088    -4.083261    1763.3674  0.056912193  0.056500907            3 
 2583000   0.84476144   -4.0609169    1766.2674   0.05698372   0.05649066            5 
 2584000   0.83379571   -4.0587593    1766.2604  0.056961442  0.056480479            3 
 2585000   0.85886654   -4.0576518    1771.7744  0.057117164  0.056470537            5 
 2586000   0.82960116   -4.0857357    1767.1796  0.056947011  0.056460265            6 
 2587000   0.83423781   -4.0686726    1763.3683  0.056802227  0.056450116            4 
 2588000   0.81851765   -4.0924828    1771.2864  0.057035241  0.056439969            4 
 2589000   0.83677503   -4.1047297    1767.7018   0.05689783  0.056429764            5 
 2590000   0.84027953    -4.131215    1772.0224  0.057014877  0.056419635            4 
 2591000   0.82475934   -4.0639921      1771.72  0.056983148  0.056409598            3 
 2592000   0.83291014   -4.0968384    1765.8143  0.056771292  0.056399424            4 
 2593000   0.84216321   -4.0647201    1768.2846   0.05682879  0.056389281            5 
 2594000   0.82633276   -4.0794094     1776.575  0.057073215  0.056379119            6 
 2595000   0.82882358   -4.0650646    1776.0125  0.057033156  0.056368929            4 
 2596000   0.82866067    -4.111649     1773.814  0.056940612   0.05635886            3 
 2597000   0.83187245   -4.0816339      1777.28  0.057029908  0.056348793            1 
 2598000    0.8569296   -4.0854737    1771.1598  0.056811643  0.056338632            3 
 2599000   0.84646185   -4.1198413    1779.1565  0.057046186  0.056328624            6 
 2600000    0.8360414   -4.0868474    1776.6091  0.056942598  0.056318466            6 
 2601000   0.84108338    -4.084385    1774.0932  0.056840099  0.056308379            4 
 2602000   0.85109629    -4.089118    1782.4578  0.057086144  0.056298291            8 
 2603000    0.8623647   -4.1097432    1775.9355  0.056855409  0.056288437            5 
 2604000   0.83716881   -4.0840831    1777.3508  0.056878867  0.056278289            3 
 2605000   0.82986427   -4.0884072    1784.8206  0.057095988  0.056268268            6 
 2606000   0.83521832   -4.0720869    1781.7709  0.056976557  0.056258191            3 
 2607000   0.83251978   -4.0753359    1784.7535  0.057050041  0.056248392            2 
 2608000   0.85750277   -4.0801952    1782.6032  0.056959458  0.056238563            2 
 2609000   0.83863126   -4.0928417    1780.7247  0.056877624  0.056228723            4 
 2610000   0.82204351   -4.0609101    1786.3006  0.057033864  0.056218872            4 
 2611000   0.83838931    -4.057761    1781.4214  0.056856293   0.05620918            3 
 2612000   0.82488886    -4.091177    1778.5885  0.056744144  0.056199493            4 
 2613000   0.84264642   -4.0898184    1780.5588  0.056785266  0.056189551            2 
 2614000   0.83796777   -4.0614711    1789.1398  0.057037103  0.056179686            5 
 2615000   0.83530215   -4.1080627    1783.5186  0.056836157  0.056169759            8 
 2616000   0.82811721   -4.1170432    1780.3856  0.056714627  0.056159884            5 
 2617000   0.83637504   -4.0962339    1784.5789  0.056826484  0.056149864            4 
 2618000   0.82151804   -4.0805869    1782.9686   0.05675352  0.056139991            3 
 2619000   0.82682038    -4.098345    1787.6528  0.056880898  0.056130103            3 
 2620000   0.81205422   -4.0840397    1781.6614  0.056668619  0.056120392            4 
 2621000    0.8235201    -4.082217    1793.7856  0.057032483  0.056110659            6 
 2622000   0.83527868   -4.0747771    1784.8975  0.056728245  0.056100915            2 
 2623000   0.82483271    -4.089777    1787.8443  0.056800239  0.056091323            2 
 2624000    0.8256766   -4.0928236    1792.7443  0.056934205   0.05608149            4 
 2625000   0.82718983    -4.085382    1791.1194  0.056860933   0.05607162            3 
 2626000   0.83328293   -4.1225328      1783.89  0.056609863   0.05606169            3 
 2627000   0.82840931   -4.1228096    1787.4639  0.056701684   0.05605169            8 
 2628000   0.83397377   -4.0868147    1790.5496  0.056777954  0.056041887            7 
 2629000   0.82065834   -4.0983769    1784.5604  0.056566513  0.056032174            5 
 2630000   0.84860339    -4.089576    1788.7323  0.056677197  0.056022262            3 
 2631000   0.84516943   -4.0857477     1795.198  0.056860446  0.056012477            5 
 2632000   0.82331964   -4.0913699    1791.1616  0.056711045  0.056002656            5 
 2633000   0.81748355   -4.1135862    1785.8861  0.056522537  0.055992803            4 
 2634000   0.83800155   -4.0768616    1793.4888   0.05674161   0.05598309            3 
 2635000   0.84372529    -4.078896    1797.6849  0.056852779  0.055973431            8 
 2636000   0.84344046    -4.098634    1791.1514  0.056624666  0.055963752            4 
 2637000   0.84463941   -4.0610767    1802.1837   0.05695183  0.055954057            4 
 2638000   0.85472129   -4.0779991    1795.1195  0.056707085  0.055944576            6 
 2639000   0.82513799   -4.1188548      1788.77  0.056485096  0.055934885            3 
 2640000   0.81090596   -4.0816685    1797.3724  0.056735239  0.055925262            4 
 2641000   0.83017334   -4.0915751    1794.8445  0.056633992  0.055915683            3 
 2642000   0.83912409   -4.0945189    1794.7942  0.056610971  0.055905899            5 
 2643000   0.84018708   -4.0848678     1797.686  0.056680729   0.05589613            7 
 2644000   0.82386119    -4.090993    1794.3904  0.056555421  0.055886485            4 
 2645000   0.83751457   -4.0697743    1798.9259  0.056676933  0.055876891            5 
 2646000   0.82856086   -4.0925767    1792.9525  0.056467388  0.055867063            4 
 2647000   0.82212803   -4.1092975    1792.3748  0.056427867   0.05585722            6 
 2648000   0.83393166   -4.0950939    1799.7336  0.056638143  0.055847489            3 
 2649000   0.84070435   -4.1238259     1796.517  0.056515572  0.055837819            9 
 2650000   0.81452485   -4.1024232    1799.0361  0.056573464  0.055828149            4 
 2651000   0.83028501   -4.0806178     1794.383  0.056405853   0.05581838            6 
 2652000    0.8355992   -4.1044838    1801.3026  0.056602017  0.055808522            5 
 2653000   0.82626453   -4.1261689    1791.4838  0.056272263  0.055798656            6 
 2654000   0.79906511   -4.0823019     1799.362  0.056498429  0.055788784            6 
 2655000    0.8385341   -4.1061342     1795.438  0.056353985  0.055778905            6 
 2656000   0.83155288   -4.0916878     1797.681  0.056403145  0.055768962            4 
 2657000   0.82894544   -4.1178035    1796.7867  0.056353867  0.055759037            5 
 2658000    0.8403034   -4.0940663    1796.4415  0.056321844    0.0557491            3 
 2659000   0.81398536   -4.0953727    1798.9967  0.056380743  0.055738916            3 
 2660000   0.83190812   -4.0975601     1791.762  0.056132895  0.055728849            3 
 2661000    0.8229714   -4.1081929    1796.7291  0.056267353   0.05571886            4 
 2662000   0.80760001   -4.1084743    1798.2356  0.056293376  0.055708904            3 
 2663000   0.82955608   -4.1183844    1795.8596  0.056197886  0.055698856            3 
 2664000   0.82167233   -4.0851678     1798.334   0.05625419  0.055688873            6 
 2665000   0.83707324   -4.0983275    1805.7195  0.056464024  0.055678883            2 
 2666000   0.83141374   -4.0795811    1797.7379  0.056193358  0.055668815            2 
 2667000   0.82654014   -4.1444699     1796.871    0.0561452  0.055658708            4 
 2668000   0.80354881   -4.1170016    1797.3005  0.056137571   0.05564868            3 
 2669000   0.82211127   -4.0811159     1803.018  0.056295054  0.055638612            6 
 2670000   0.82311976   -4.1055811    1806.1267  0.056370995  0.055628617            8 
 2671000   0.83375147   -4.0849174     1796.917  0.056062556  0.055618772            2 
 2672000    0.8225276   -4.0976477    1806.0384  0.056326048   0.05560879            5 
 2673000   0.80641694   -4.1024632    1802.2038  0.056185427   0.05559878            4 
 2674000   0.83294916   -4.0892348    1805.4129  0.056264426  0.055588783            3 
 2675000   0.83253798     -4.13059    1806.2055  0.056268083  0.055578771            4 
 2676000   0.82080086   -4.1220024    1803.6121  0.056166297  0.055568716            5 
 2677000   0.80790065   -4.1073447    1811.0624  0.056377238  0.055558697            6 
 2678000   0.83424273   -4.0902769     1806.762  0.056222368  0.055548798            4 
 2679000   0.82521384   -4.0938394    1807.0819  0.056211332  0.055538891            4 
 2680000   0.84169979   -4.0957993     1805.834  0.056151555   0.05552892            5 
 2681000   0.82556404   -4.1248877    1803.9454  0.056071906  0.055518913            3 
 2682000   0.83714025   -4.0831802    1808.9158  0.056205437  0.055509052            4 
 2683000   0.85264516   -4.1122475     1807.871  0.056152039  0.055499198            4 
 2684000   0.82446333   -4.1113551     1812.559   0.05627667   0.05548927            3 
 2685000   0.83912183   -4.1027369    1807.0398  0.056084412  0.055479415            3 
 2686000   0.83814275   -4.0988814    1809.4112  0.056137107  0.055469413            5 
 2687000   0.82525911   -4.1368897    1800.2316  0.055831521  0.055459445            7 
 2688000   0.84364517   -4.1273096    1804.7199  0.055949898  0.055449532            3 
 2689000     0.817575   -4.1106974    1810.2913  0.056101752  0.055439623            3 
 2690000   0.80831416   -4.1220821    1798.7976  0.055724832  0.055429585            4 
 2691000   0.82409897   -4.0743481    1808.3371  0.055999538  0.055419497            3 
 2692000   0.81659805   -4.1343287     1805.923  0.055904006  0.055409517            4 
 2693000   0.82823344   -4.1056698    1808.2111  0.055954052  0.055399493            6 
 2694000   0.81484875   -4.0964359    1810.4336  0.056002028  0.055389404            5 
 2695000    0.8185914   -4.1165887    1810.7372  0.055990636  0.055379306            2 
 2696000   0.80478267   -4.0834002    1815.1568   0.05610648  0.055369354            2 
 2697000   0.82320202   -4.1031534    1811.9624  0.055986972  0.055359196            7 
 2698000   0.83261589   -4.1273095    1806.9067  0.055810066   0.05534912            3 
 2699000    0.8325865   -4.1074163    1814.6678  0.056029017  0.055339149            3 
 2700000   0.82837197   -4.1190195    1813.2498    0.0559645   0.05532937            3 
 2701000    0.8323418   -4.0879757    1817.9347  0.056088321   0.05531949            4 
 2702000   0.81715405   -4.0974494    1817.2946  0.056047822  0.055309593            4 
 2703000   0.82457919   -4.1139649    1812.6214  0.055883013  0.055299659            4 
 2704000    0.8104599   -4.1350574    1813.7338  0.055896628   0.05528975            9 
 2705000   0.81438762   -4.1292838     1819.218  0.056044916  0.055279774            4 
 2706000   0.81322322   -4.1070614    1814.9771  0.055893603  0.055269798            5 
 2707000   0.83626106   -4.1176876     1811.141  0.055754864  0.055259715            3 
 2708000   0.83507265   -4.1322991    1815.2901  0.055861954  0.055249731            7 
 2709000    0.8059743   -4.1195664    1815.9026  0.055860176  0.055239739            5 
 2710000   0.83332168   -4.1128216    1816.7971   0.05586707  0.055229787            5 
 2711000   0.80659776   -4.0959168    1816.4255  0.055835039  0.055219828            3 
 2712000   0.83044672   -4.1261899    1818.7486  0.055885833   0.05520983            4 
 2713000   0.82978809   -4.1202578    1817.6563  0.055831685  0.055199885            4 
 2714000   0.83055971   -4.1175141    1815.3787   0.05574118  0.055189949            4 
 2715000    0.8309105   -4.1270499    1816.2017  0.055745908  0.055179952            2 
 2716000   0.82676769   -4.1182825    1820.0256   0.05584271  0.055169922            4 
 2717000   0.81822757   -4.1118093    1819.6759  0.055811431  0.055159834            4 
 2718000   0.81983049    -4.109671    1815.9181  0.055675683  0.055149899            3 
 2719000   0.82934187   -4.1130754    1816.6908  0.055678888      0.05514            3 
 2720000   0.81865849   -4.1116187    1815.0817  0.055609119  0.055130133            6 
 2721000   0.81459094     -4.15774    1816.8124  0.055641688  0.055120069            4 
 2722000   0.82130076   -4.1404086    1824.0541  0.055842948  0.055109995            4 
 2723000   0.83003759   -4.1518084    1822.4079  0.055772063  0.055099984            3 
 2724000   0.80073974   -4.1208848    1818.4369  0.055630107  0.055089988            3 
 2725000     0.824716   -4.1051317    1822.5374  0.055735089  0.055079926            5 
 2726000   0.79725126   -4.1245299    1817.0639  0.055547318  0.055069894            6 
 2727000   0.81067242   -4.1085484    1822.9677  0.055707362  0.055060082            4 
 2728000    0.8245766   -4.1190271    1820.5051  0.055611716  0.055050269            3 
 2729000   0.81612541   -4.1208856    1824.7343  0.055720479  0.055040376            4 
 2730000   0.81424845   -4.1262398      1825.83  0.055733516  0.055030479            4 
 2731000   0.82091982   -4.1147414    1827.8324  0.055774209  0.055020674            3 
 2732000   0.81202569   -4.1137744    1823.6436  0.055626026  0.055010867            3 
 2733000   0.83164469   -4.1217981    1825.6311  0.055666273  0.055001127            2 
 2734000   0.80830864   -4.1160999    1819.5159  0.055459519  0.054991377            3 
 2735000    0.8362785   -4.1338617    1822.4658  0.055529123  0.054981573            3 
 2736000   0.82740494   -4.1051778    1825.7048  0.055607479  0.054971786            3 
 2737000   0.81624345   -4.1132705     1831.244  0.055755816  0.054961884           13 
 2738000   0.81368892   -4.1023411    1826.3026  0.055585056  0.054952148            4 
 2739000   0.79401075   -4.1327801    1826.1146  0.055559041  0.054942383            2 
 2740000   0.80905256     -4.13656    1826.1755  0.055540618  0.054932351            3 
 2741000   0.81580087   -4.1202963    1828.5676   0.05559308  0.054922509            3 
 2742000   0.82310943   -4.1114877    1827.2512    0.0555328  0.054912731            6 
 2743000    0.8016506    -4.140398    1824.1051  0.055416974   0.05490273            2 
 2744000    0.8038781   -4.1306435    1825.7938  0.055448063  0.054892744            3 
 2745000   0.81391019   -4.1437691    1824.5248  0.055389339  0.054882787            3 
 2746000   0.81671794   -4.0741486     1832.915  0.055623786  0.054872939            5 
 2747000    0.8195381   -4.1169687    1828.1221   0.05545814  0.054863072            9 
 2748000   0.81908314   -4.1497769    1826.0293  0.055374492   0.05485311            4 
 2749000   0.81961983   -4.1446197    1827.0456  0.055385157  0.054843208            6 
 2750000   0.80659124   -4.1195793    1830.3087    0.0554639   0.05483334            4 
 2751000   0.80702981   -4.1435997     1829.983  0.055433873  0.054823484            7 
 2752000   0.79824905   -4.1316775    1834.6436  0.055554856  0.054813576            9 
 2753000   0.80628762   -4.1155761    1827.7885  0.055327174  0.054803624            5 
 2754000   0.81508563   -4.1247347    1830.4159  0.055386588  0.054793767            6 
 2755000   0.81516689   -4.1525556    1831.5495  0.055400772  0.054783992            3 
 2756000   0.78887211   -4.1126622    1836.0011  0.055515272  0.054774172            4 
 2757000   0.81264883   -4.1259276    1837.4087  0.055537683  0.054764466            5 
 2758000   0.82295808   -4.1339151    1836.6696  0.055495213  0.054754742            3 
 2759000   0.80072272   -4.1259865    1840.2564  0.055583437  0.054745093            3 
 2760000   0.81466684   -4.1501013    1835.4709  0.055418809   0.05473528            7 
 2761000   0.80184249   -4.1126392    1841.5194  0.055581294  0.054725566            4 
 2762000   0.82680307   -4.1259493    1837.2772  0.055433176  0.054715854            4 
 2763000   0.79367731   -4.1206361    1839.5203  0.055480768  0.054706048            2 
 2764000   0.81279908   -4.1276461     1839.065  0.055446966   0.05469645            8 
 2765000   0.79198547   -4.1321801    1839.4693  0.055439098  0.054686666            6 
 2766000   0.81491364   -4.1174679    1837.2663  0.055352685  0.054676813            2 
 2767000   0.81816458   -4.1253373    1833.6434  0.055223569  0.054667024            4 
 2768000   0.83574202   -4.1475832    1833.1709  0.055189393  0.054657283            7 
 2769000   0.79513731   -4.1355336    1837.3061  0.055293913  0.054647466            5 
 2770000   0.79737327   -4.1662632    1834.2997  0.055183505  0.054637714            4 
 2771000   0.80793229   -4.1256048    1837.4626  0.055258709   0.05462794            6 
 2772000   0.80446836   -4.1191496    1845.3136  0.055474795   0.05461821            6 
 2773000   0.80978955   -4.1219266    1844.5857  0.055432916  0.054608602            4 
 2774000   0.81328389   -4.1318066    1844.7116  0.055416714  0.054598698            2 
 2775000   0.79848403   -4.1321888    1841.7577   0.05530804  0.054588881           10 
 2776000   0.80138961   -4.0944836    1845.9162  0.055412952  0.054579075            6 
 2777000   0.79857226   -4.1268107    1842.1288  0.055279343  0.054569366            4 
 2778000   0.81321312   -4.1496904     1838.804  0.055159706  0.054559484           11 
 2779000   0.82012803    -4.116294    1840.4867  0.055190318   0.05454968            5 
 2780000   0.81286132   -4.1563961    1836.5698  0.055053053  0.054539842            2 
 2781000   0.81136584   -4.1223123     1842.614  0.055214371  0.054529969            6 
 2782000   0.79877822   -4.1174319    1836.6503  0.055015886  0.054520055            5 
 2783000    0.8192212    -4.123982    1840.3392  0.055106577  0.054510168            3 
 2784000   0.81208289   -4.1398606    1840.5879  0.055094226  0.054500184            6 
 2785000   0.81398538   -4.1370308    1843.9963  0.055176431  0.054490294            7 
 2786000   0.82061743    -4.128584    1842.0537  0.055098518  0.054480487           11 
 2787000   0.80664867   -4.1535265    1846.7299  0.055218571  0.054470573           10 
 2788000   0.82119445   -4.1261015    1841.5168  0.055042947  0.054460755            5 
 2789000   0.80106647   -4.1456903      1843.36  0.055078284  0.054450964           16 
 2790000   0.82234471   -4.1364716    1849.3735  0.055238156  0.054441191            7 
 2791000   0.79665234   -4.1464897    1847.5282  0.055163268   0.05443139            2 
 2792000    0.7963503     -4.13441     1845.014  0.055068468  0.054421587            7 
 2793000   0.80347705    -4.129562    1841.3021  0.054938003  0.054411796            6 
 2794000    0.8039117   -4.1532134    1840.7174  0.054900901    0.0544019            5 
 2795000   0.78406532   -4.1232801    1848.6429  0.055117559  0.054391957           10 
 2796000   0.80832735    -4.151424    1846.0252  0.055019826  0.054382023            4 
 2797000    0.7919124   -4.1169124    1843.8402  0.054935055  0.054372055            4 
 2798000   0.79887477   -4.1392727    1844.7052  0.054941184  0.054362266            3 
 2799000   0.80358119   -4.1346106    1840.2649  0.054789355  0.054352425            4 
 2800000   0.80568645   -4.1432393    1842.4078  0.054833567  0.054342474            9 
 2801000   0.79314785   -4.1515094    1844.4044   0.05487339  0.054332503            7 
 2802000   0.81092865   -4.1380201    1851.1022  0.055053003  0.054322463            4 
 2803000   0.80688829   -4.1421822    1847.0828  0.054913865  0.054312639            4 
 2804000   0.82928922   -4.1454579    1848.0121  0.054921901  0.054302674            3 
 2805000   0.79579949   -4.1600116    1847.2895  0.054880853  0.054292752            6 
 2806000   0.80604983   -4.1476204    1848.5531  0.054898821  0.054282693            5 
 2807000   0.79441289   -4.1256742    1851.4529  0.054965351  0.054272867            7 
 2808000   0.79616188   -4.1510922    1848.0207   0.05484392   0.05426291            4 
 2809000   0.82141487   -4.1356571    1852.4423  0.054955567  0.054252991           11 
 2810000   0.81438051   -4.1329094    1851.7806  0.054916387  0.054243198            4 
 2811000    0.7974661   -4.1378915    1853.2822  0.054941367  0.054233414            7 
 2812000   0.79861774   -4.1582065    1848.3841  0.054776676  0.054223589            5 
 2813000   0.82589594   -4.1431645    1857.4741  0.055026488   0.05421383            4 
 2814000   0.80750372   -4.1262008    1845.1072  0.054640703  0.054204046            8 
 2815000   0.81093439   -4.1451044    1852.6492   0.05484456  0.054194195            5 
 2816000   0.81613149   -4.1525599    1850.4433  0.054759805  0.054184367            5 
 2817000   0.79603814   -4.1133974    1857.1899  0.054939944  0.054174606            3 
 2818000   0.81156129   -4.1382903    1856.6616  0.054904827    0.0541648            3 
 2819000   0.78028732   -4.1469056    1849.9057  0.054685635  0.054155035            3 
 2820000   0.80398749   -4.1601978    1858.8132  0.054929467  0.054145443            3 
 2821000   0.78989425   -4.1243465    1857.7603  0.054878894  0.054135668            3 
 2822000   0.78622028   -4.1356747    1855.2818  0.054786258  0.054125898            4 
 2823000   0.79356153   -4.1508884    1851.3618  0.054651134  0.054116211            4 
 2824000   0.81212487   -4.1605783    1856.5219  0.054784051  0.054106493            7 
 2825000    0.7903987   -4.1455228    1857.9921  0.054808027  0.054096659            3 
 2826000   0.80615653    -4.114566    1863.8045   0.05496003  0.054086982            3 
 2827000   0.80002655   -4.1541081    1855.4053  0.054692999  0.054077263            6 
 2828000   0.80238769   -4.1465539    1861.5308   0.05485416  0.054067575            3 
 2829000   0.81320451   -4.1445646    1854.6022  0.054630676  0.054057808            9 
 2830000   0.81460566   -4.1408401    1858.3548  0.054721872  0.054048039            3 
 2831000   0.78353888   -4.1768538     1863.146  0.054843577  0.054038333            5 
 2832000   0.80060474    -4.152847    1860.7591  0.054753975  0.054028543            3 
 2833000    0.8102622   -4.1446411     1863.813  0.054824479  0.054018819            3 
 2834000   0.78004646   -4.1581538    1855.2207  0.054552478  0.054009005           11 
 2835000   0.80609379    -4.151321    1860.1322  0.054677607  0.053999295            3 
 2836000   0.80604865   -4.1522261    1856.6906  0.054557198  0.053989636            7 
 2837000   0.80857576   -4.1535406    1860.6631  0.054654656  0.053979988            6 
 2838000   0.79443905   -4.1686182    1859.9444  0.054614295   0.05397032            3 
 2839000   0.79852125   -4.1491763    1858.8966    0.0545643  0.053960605            7 
 2840000   0.79337348   -4.1645671    1856.5266  0.054475547  0.053950894            3 
 2841000   0.80780406   -4.1587085    1864.3616  0.054686189  0.053941341            5 
 2842000   0.78693932   -4.1381785    1861.9831  0.054597206  0.053931686            4 
 2843000   0.79979076   -4.1754491      1857.69  0.054452162  0.053922078            5 
 2844000   0.78539995   -4.1484015    1862.1938  0.054564984  0.053912468            4 
 2845000   0.79750362   -4.1384701    1873.0213  0.054862956  0.053902904            3 
 2846000   0.79341207   -4.1494879    1864.6893   0.05459971  0.053893198            9 
 2847000   0.79820411   -4.1592641    1865.3362  0.054599468  0.053883455            8 
 2848000   0.79521681   -4.1573771    1865.5391  0.054586233  0.053873797            5 
 2849000   0.79539706   -4.1703541    1864.0355  0.054523092  0.053864088            6 
 2850000   0.79327578   -4.1531729    1865.5284  0.054547615  0.053854126            5 
 2851000   0.80028948   -4.1647099    1866.9049  0.054568715  0.053844352            8 
 2852000   0.81079363   -4.1591943    1871.4089  0.054681186  0.053834636            3 
 2853000   0.79058725   -4.1320618    1867.8308  0.054557508  0.053824973            7 
 2854000   0.80210989   -4.1775821    1866.9494  0.054512654  0.053815182            6 
 2855000   0.79107589   -4.1621751    1876.8555  0.054782706  0.053805517           13 
 2856000    0.7860364   -4.1444072    1868.5078  0.054519953   0.05379589           14 
 2857000   0.78973799   -4.1664548    1865.3436  0.054408576  0.053786183            2 
 2858000   0.78036256    -4.147512    1871.5427   0.05457029  0.053776491            9 
 2859000   0.80892345   -4.1452093    1876.6353  0.054699643  0.053766922            6 
 2860000   0.81118695   -4.1268482    1875.1383  0.054636896  0.053757349           10 
 2861000   0.80353362   -4.1347415    1872.5212  0.054541571  0.053747751            3 
 2862000   0.81183182    -4.206873     1865.202  0.054309398  0.053737907            5 
 2863000   0.79714794   -4.1567706    1865.1962   0.05429026  0.053728044            6 
 2864000   0.78859177   -4.1528668    1864.2581   0.05424401  0.053718226            7 
 2865000    0.7845795   -4.1341963    1874.7891  0.054531388   0.05370849            5 
 2866000   0.78673008    -4.169605    1870.8317  0.054397292  0.053698767            7 
 2867000   0.79146337   -4.1323462    1875.2741  0.054507445  0.053689041            6 
 2868000   0.78826557   -4.1904928    1871.9523  0.054391918  0.053679255            6 
 2869000   0.80506789   -4.1490493     1870.966  0.054344312  0.053669526            4 
 2870000   0.79577358   -4.1743742    1865.2051  0.054158105  0.053659766           16 
 2871000   0.79038552    -4.164748    1872.4665  0.054350008  0.053649839            7 
 2872000   0.80403523   -4.1344862    1879.6267  0.054538843  0.053639963            8 
 2873000   0.79881943   -4.1574297    1872.7438  0.054320218  0.053630239            7 
 2874000   0.78301308   -4.1811994    1873.6156  0.054326594   0.05362032            2 
 2875000   0.78634084   -4.1559571    1868.4376  0.054157612  0.053610458            3 
 2876000   0.77790296   -4.1570728    1866.5039  0.054082751  0.053600598            8 
 2877000   0.78835523   -4.1911339    1866.7834  0.054072049  0.053590619            5 
 2878000     0.789163   -4.1790917    1868.4423  0.054101293  0.053580643            9 
 2879000   0.78970298   -4.1633582    1877.6248  0.054348293   0.05357066            3 
 2880000   0.79509512   -4.1711152    1866.0526  0.053994578  0.053560809            2 
 2881000   0.77573541   -4.1673322    1866.4837  0.053988306  0.053550907            3 
 2882000   0.78899712   -4.1596291    1874.1687  0.054191785  0.053540951            3 
 2883000   0.77302463   -4.1467531    1872.8089  0.054133682  0.053531064            6 
 2884000    0.7912264   -4.1688874    1873.0918  0.054123086  0.053521162            6 
 2885000   0.79667813   -4.1643136    1870.9024  0.054041087  0.053511091            3 
 2886000   0.79885399   -4.1680716     1872.865  0.054079032  0.053501097            3 
 2887000   0.75641942   -4.1665211    1873.3584  0.054074541  0.053491114           11 
 2888000   0.78408847   -4.1457968    1878.9654  0.054217606  0.053481128            4 
 2889000   0.79920759   -4.1747813    1873.1848  0.054032099  0.053471122            6 
 2890000   0.79013312   -4.1719329     1872.891   0.05400493  0.053461112            6 
 2891000    0.8132148   -4.1544077    1867.6469  0.053835088     0.053451            3 
 2892000   0.79216143   -4.1749612    1870.8587  0.053909022  0.053440968            5 
 2893000   0.79281207    -4.183787    1870.0621  0.053867442  0.053430853            6 
 2894000   0.79177668   -4.1872699    1877.0577  0.054050267  0.053420703            5 
 2895000     0.783645   -4.1688112    1873.7398   0.05393609  0.053410684            5 
 2896000   0.78288516   -4.1482626    1876.3903  0.053993736  0.053400561            8 
 2897000     0.776972   -4.1895497    1874.9051  0.053932375  0.053390481            6 
 2898000   0.78319122   -4.1587729    1873.5332  0.053874317  0.053380354            6 
 2899000   0.79280314    -4.167609    1870.5535  0.053770078  0.053370195            7 
 2900000    0.7685498   -4.1812021    1873.5399  0.053837353  0.053360002            7 
 2901000   0.77637884   -4.1686656    1867.9788   0.05365905  0.053349667            4 
 2902000   0.79552594   -4.1449792    1879.3451   0.05396695  0.053339476           11 
 2903000   0.80357779    -4.160478    1873.6978   0.05378625  0.053329302            4 
 2904000   0.77145391   -4.1533562    1875.8482  0.053829437  0.053319038            5 
 2905000   0.78680716   -4.1537472    1872.8241  0.053724156   0.05330896            5 
 2906000   0.78148481   -4.1657378    1875.7225  0.053788785  0.053298951            3 
 2907000   0.79772371   -4.1641194    1876.0677  0.053780176  0.053288943            8 
 2908000   0.77568671   -4.1822483    1877.4333  0.053800818  0.053278866            3 
 2909000    0.7791369   -4.1542648    1879.6555   0.05384598  0.053268771            6 
 2910000   0.79379604   -4.1871807      1878.06  0.053781788  0.053258734            3 
 2911000   0.76694188    -4.171549    1875.9184  0.053702005  0.053248666            5 
 2912000   0.81058696   -4.1870414    1873.0405  0.053601204  0.053238507            5 
 2913000   0.78270863   -4.1750236    1877.4683  0.053709472  0.053228411            3 
 2914000   0.78576164   -4.1595239    1880.2079  0.053769387  0.053218354            9 
 2915000   0.78418231   -4.1688844    1882.8591  0.053826734  0.053208369            4 
 2916000   0.77050186   -4.1648955    1876.2097  0.053618246  0.053198421            4 
 2917000   0.77822195   -4.1694314    1879.7586   0.05370125  0.053188376           13 
 2918000   0.79057114   -4.1667556    1883.5438  0.053790947  0.053178326            3 
 2919000   0.77669476   -4.1826394    1877.8891  0.053611087  0.053168373            5 
 2920000   0.77672978   -4.1976944    1880.1478  0.053657186  0.053158349            5 
 2921000   0.78212102   -4.1700138    1880.5248  0.053649573  0.053148223            4 
 2922000   0.79707495   -4.1877411    1879.7799  0.053609968  0.053138225            4 
 2923000   0.77593613   -4.1868245    1878.1463  0.053545055  0.053128158            8 
 2924000   0.78855514   -4.1871453    1879.0216  0.053551686   0.05311812            6 
 2925000   0.78223793   -4.1697138    1883.4154  0.053658558  0.053108139            3 
 2926000   0.77265148   -4.1684882    1881.7787  0.053593607  0.053098214            5 
 2927000   0.76246634    -4.167863    1879.4216  0.053508187  0.053088197            9 
 2928000   0.78177339   -4.1617979    1888.7197  0.053754546  0.053078065            5 
 2929000   0.77223009   -4.2001546    1883.0237  0.053574136  0.053067936            5 
 2930000   0.77751048   -4.1979698     1881.893  0.053523691  0.053057878            2 
 2931000   0.77076533   -4.1913465    1881.0019  0.053480096  0.053047619            2 
 2932000   0.77596241   -4.1976471    1884.1338  0.053550869  0.053037563            9 
 2933000   0.78115023   -4.2024268    1882.7489  0.053493263  0.053027359            6 
 2934000   0.79845723   -4.1662176    1885.1177  0.053542313  0.053017159            5 
 2935000   0.80018056   -4.1817921    1882.1357  0.053439402  0.053007191            6 
 2936000   0.79694547   -4.1887432    1883.0518  0.053447202  0.052997108            2 
 2937000    0.7850037    -4.172088    1881.2425  0.053377668  0.052986885            9 
 2938000    0.7935217   -4.1808361    1885.7625  0.053487704  0.052976707            5 
 2939000   0.78265188   -4.1742228    1880.6819  0.053325448  0.052966452            4 
 2940000   0.80174815   -4.1866088    1880.6236  0.053305658  0.052956256           10 
 2941000   0.78563358   -4.1813275    1883.9692  0.053382332  0.052946006            4 
 2942000   0.78370913   -4.1760345    1883.6941  0.053356393  0.052935846            3 
 2943000   0.79010656   -4.1832463    1878.7409  0.053198011  0.052925719            4 
 2944000   0.78155246   -4.1534602    1880.2261   0.05322198  0.052915493            9 
 2945000   0.78025504   -4.1813534    1881.1969  0.053231378  0.052905167            3 
 2946000   0.81217525   -4.1862164    1880.8135  0.053202465  0.052894994            4 
 2947000   0.77337276   -4.1767288    1889.2033  0.053421652  0.052884652            8 
 2948000   0.79097011   -4.2047052    1883.1427  0.053232211  0.052874178            6 
 2949000   0.77323143   -4.1890461    1881.4069  0.053165109  0.052863768            8 
 2950000   0.77435705   -4.2125221    1873.5296  0.052924565  0.052853274            3 
 2951000   0.77784258   -4.1879985    1880.2588  0.053096658  0.052842838            5 
 2952000   0.78303205   -4.1892207    1883.8452  0.053179913    0.0528323            2 
 2953000   0.76326404   -4.1842305    1888.8567  0.053303326    0.0528219            3 
 2954000   0.77358194   -4.1823575    1889.8526  0.053313378  0.052811624            3 
 2955000   0.76869452   -4.2116056    1888.1306  0.053246773  0.052801263            7 
 2956000   0.77391122    -4.172741    1890.6014  0.053298414  0.052790966            8 
 2957000   0.77234912   -4.1808704    1885.2357  0.053129177  0.052780645           10 
 2958000   0.78841117   -4.1966933    1888.5773  0.053205355  0.052770341            5 
 2959000   0.78127869   -4.1809438    1885.4774  0.053100074  0.052760096            7 
 2960000   0.78428549   -4.1724857    1889.3929  0.053192369  0.052749918            6 
 2961000   0.77564567   -4.1832661    1894.4077  0.053315539  0.052739642            4 
 2962000    0.7778642   -4.2101755    1885.7191  0.053053093  0.052729345            6 
 2963000   0.77214307   -4.2018862    1891.5128  0.053198133  0.052719056            5 
 2964000   0.77358926   -4.2051433    1884.5611  0.052984735  0.052708736           11 
 2965000   0.78795262   -4.2071948    1887.2234  0.053041692  0.052698347            3 
 2966000   0.77607067    -4.173604    1892.8939  0.053183129  0.052688006            5 
 2967000   0.76436227   -4.1807605    1887.9234  0.053025598  0.052677673            3 
 2968000   0.77806276   -4.1741355    1888.2595  0.053017168  0.052667416            3 
 2969000   0.77618864   -4.1818004    1887.1472  0.052968094  0.052657072            7 
 2970000   0.77504926   -4.1909265    1888.4822  0.052987716  0.052646676            6 
 2971000   0.77595409   -4.1958822    1892.8327  0.053091909  0.052636356            6 
 2972000   0.78393462   -4.1978359    1889.6443  0.052984641   0.05262608            4 
 2973000   0.77465704   -4.1797582    1893.4727  0.053074131  0.052615776            4 
 2974000   0.77845474   -4.1965062    1893.4754   0.05305636  0.052605564            3 
 2975000   0.77978052   -4.1945484    1896.6897  0.053128562  0.052595326            8 
 2976000   0.79131987   -4.1886934    1889.6446  0.052913435  0.052584996            8 
 2977000   0.76982268   -4.1925833    1889.7048  0.052897346  0.052574709            5 
 2978000   0.77645665   -4.1834251     1895.763  0.053049111  0.052564296            5 
 2979000    0.7686547   -4.1769042    1893.3953  0.052965068  0.052554085            9 
 2980000   0.78403847   -4.1992972    1893.6792  0.052955234   0.05254387            7 
 2981000   0.77064875   -4.1930284    1892.1461  0.052894612  0.052533626            6 
 2982000   0.77266514   -4.1928082    1893.6982  0.052920248   0.05252338            6 
 2983000   0.77690602    -4.204563    1899.5678  0.053066481  0.052513074            3 
 2984000   0.76349804   -4.1684647    1906.0394  0.053229428  0.052502838            6 
 2985000   0.76664598   -4.1777679    1897.3407  0.052968753   0.05249267            7 
 2986000   0.78792806   -4.1981011    1896.5174  0.052928036  0.052482558            4 
 2987000   0.77936763   -4.2033405    1897.7297  0.052944138   0.05247241           13 
 2988000    0.7858995   -4.1930921    1895.2933  0.052858471  0.052462213            8 
 2989000   0.76678299   -4.1790685    1904.5469  0.053098775  0.052452115            5 
 2990000   0.77753457   -4.1908652    1895.3929  0.052825889  0.052441979            7 
 2991000   0.76426158   -4.2045662    1896.5689  0.052840992  0.052431784            8 
 2992000   0.77331542   -4.2192247    1896.0579  0.052809099  0.052421574            3 
 2993000   0.75566091   -4.1673051    1902.5936  0.052973426  0.052411469            8 
 2994000   0.77995867   -4.2080168    1898.3599  0.052837895  0.052401303            8 
 2995000   0.78164203   -4.1932886    1894.9339  0.052724927  0.052391173            7 
 2996000   0.78303288   -4.2318154    1892.1522  0.052629958  0.052380828            5 
 2997000   0.78167044   -4.2290639    1894.5063  0.052677854  0.052370602            6 
 2998000   0.77002753   -4.2101634    1896.5412  0.052716845  0.052360312            4 
 2999000   0.77028088   -4.1921719    1900.5005  0.052809284  0.052350063            4 
 3000000   0.78970913   -4.1967244    1901.7758  0.052827105  0.052339875            6 
 3001000    0.7587538   -4.2017086    1907.4397   0.05296678   0.05232958            3 
 3002000    0.7670954   -4.2084476     1905.719   0.05290137  0.052319285            5 
 3003000   0.76797868   -4.1897483    1899.9482  0.052723616  0.052309155            6 
 3004000   0.75086693   -4.2191535    1901.4893  0.052748815  0.052298894            6 
 3005000   0.77749525   -4.2023764    1906.1758  0.052861226  0.052288764            5 
 3006000   0.76562713   -4.1952687    1903.2916  0.052763685  0.052278618            5 
 3007000   0.77575727   -4.1960639    1906.1849   0.05282632  0.052268472            5 
 3008000   0.77906683    -4.188963    1901.0831  0.052667418  0.052258321            5 
 3009000   0.77916178   -4.2042245    1902.8736  0.052699501  0.052248162            5 
 3010000   0.76444505   -4.2152398    1905.5328  0.052755615  0.052237952            5 
 3011000   0.75747776   -4.1882254    1898.8868  0.052554158  0.052227723            4 
 3012000   0.78949134   -4.1936449    1906.5894  0.052749817  0.052217474            4 
 3013000   0.75740412   -4.2383071    1895.6342  0.052429313  0.052207163            4 
 3014000   0.76566654   -4.2159852    1898.9201  0.052502767  0.052196794            4 
 3015000   0.76269997   -4.1720399    1913.5011  0.052888367  0.052186632            4 
 3016000   0.78449813   -4.2218172    1900.7457  0.052518393   0.05217649            8 
 3017000   0.75284752    -4.222281    1903.6495  0.052581192  0.052166209            7 
 3018000   0.79328686   -4.2203964    1901.5352  0.052505389  0.052155913            4 
 3019000   0.78209499   -4.2042452    1903.5889  0.052544687  0.052145692            7 
 3020000   0.75010966   -4.2139187     1907.003  0.052621496  0.052135347            6 
 3021000   0.77462017   -4.2184161    1901.4337  0.052450451  0.052125139            6 
 3022000   0.77193057   -4.2023755    1905.9118  0.052556578  0.052114907            4 
 3023000   0.75959858   -4.1843116    1906.3454  0.052551146  0.052104731            7 
 3024000   0.76423841    -4.214667    1901.9944  0.052413868  0.052094503            5 
 3025000   0.77176745   -4.1997289    1910.9575  0.052643457  0.052084377            5 
 3026000   0.78051402   -4.2204666    1905.5442  0.052476983  0.052074126           11 
 3027000   0.76406294   -4.1812051    1912.2622  0.052644592  0.052063888            3 
 3028000   0.76089886   -4.1928154    1906.4381  0.052466923  0.052053676            4 
 3029000   0.77691742   -4.2282155    1904.6899  0.052401505  0.052043491            4 
 3030000   0.75475375     -4.17878    1908.1889  0.052480444   0.05203323            5 
 3031000   0.75052038    -4.219151    1910.5921  0.052529202  0.052022999            9 
 3032000   0.78247925   -4.2105463    1906.5684  0.052401287  0.052012703            8 
 3033000   0.77049839   -4.1928123    1904.5038  0.052327283   0.05200238            5 
 3034000   0.75294019   -4.2026977    1907.0944  0.052381192  0.051992013            8 
 3035000   0.77195264   -4.1893478    1907.3427  0.052370751  0.051981645            8 
 3036000   0.76904938   -4.2062467    1910.0639  0.052428193  0.051971284            5 
 3037000   0.76776666   -4.2102656    1910.1685    0.0524138   0.05196079            4 
 3038000   0.78150194   -4.2016666    1907.2131  0.052315478  0.051950354            6 
 3039000   0.76841093   -4.2072734    1910.4172  0.052386125  0.051939953            3 
 3040000   0.75733103   -4.2051426    1908.3517  0.052312271  0.051929634            5 
 3041000   0.77653155   -4.2093302    1908.5263  0.052299854   0.05191933            8 
 3042000   0.76498622   -4.2202041     1904.181  0.052163626   0.05190901            4 
 3043000   0.78030182   -4.2055468    1904.7357  0.052161674  0.051898728            6 
 3044000   0.76591381   -4.2144651     1908.941  0.052259663  0.051888312            5 
 3045000    0.7683356   -4.2345815    1904.8461  0.052130435  0.051877868            7 
 3046000   0.75947463   -4.1945585    1912.5154  0.052323139  0.051867633            6 
 3047000   0.76643156   -4.2258792    1909.1629  0.052214278  0.051857328            7 
 3048000   0.74168787   -4.2087241    1918.1384  0.052442541  0.051846997            3 
 3049000   0.74512599   -4.2072034    1909.5011  0.052189272   0.05183673            5 
 3050000   0.74787719   -4.1994883    1916.1662  0.052354267  0.051826541            5 
 3051000    0.7431022   -4.2182572    1910.8254  0.052191231  0.051816254            8 
 3052000   0.75428043   -4.2220576    1912.6089  0.052222829  0.051805998            8 
 3053000   0.77011483   -4.1986794     1915.336  0.052280162  0.051795797            7 
 3054000   0.78118281   -4.1952567    1914.3896   0.05223722  0.051785651            5 
 3055000   0.75934211   -4.2180585    1915.9261  0.052262032  0.051775468            6 
 3056000    0.7796425   -4.2172447    1910.8118   0.05210547  0.051765176            9 
 3057000   0.75896305   -4.2234704    1912.0007  0.052120836  0.051754868            4 
 3058000   0.76399777   -4.2344399    1915.8733  0.052209321  0.051744618            5 
 3059000    0.7675879   -4.2261735    1911.9562  0.052085544  0.051734394            4 
 3060000   0.76355741   -4.2279172    1917.6288  0.052223006  0.051724187            3 
 3061000   0.74518063   -4.2247352    1915.4118   0.05214559  0.051713952            8 
 3062000   0.74934783   -4.2120946    1912.6163  0.052052479  0.051703788            5 
 3063000   0.77379119   -4.2206292    1914.2193  0.052079098  0.051693601            8 
 3064000   0.75598948   -4.2219423    1918.5886  0.052180936   0.05168344           13 
 3065000   0.76666268   -4.2209741    1916.7706   0.05211448  0.051673286            3 
 3066000   0.77182101   -4.2272044    1918.0597   0.05213252  0.051663131            7 
 3067000   0.75306218   -4.2270024    1918.2339  0.052120256   0.05165294            8 
 3068000    0.7611958   -4.2215719    1913.6669   0.05197922  0.051642684            3 
 3069000   0.77719933   -4.2157478    1912.0601  0.051918651  0.051632465            6 
 3070000   0.75843152   -4.2244505    1916.0957  0.052011285  0.051622226            8 
 3071000   0.75875443   -4.2317534    1916.1762  0.051996531   0.05161192            4 
 3072000   0.75089496    -4.241816    1912.2977  0.051874395  0.051601576            7 
 3073000   0.76637349   -4.2201409    1915.9147  0.051955599  0.051591253            8 
 3074000   0.74867911   -4.2292406     1917.534  0.051982596  0.051580988            4 
 3075000   0.74321182   -4.2218796     1911.572   0.05180412  0.051570694            3 
 3076000   0.77369596    -4.239434    1914.9649  0.051879197  0.051560395            4 
 3077000   0.75817053   -4.2108147    1920.4283  0.052010298  0.051550103            7 
 3078000   0.74939258   -4.2013724    1924.7981  0.052111709  0.051539801            6 
 3079000   0.75816854   -4.2243161    1918.3221  0.051919511  0.051529563            3 
 3080000   0.76629331   -4.2294291    1920.5798   0.05196374  0.051519247            7 
 3081000   0.77002505   -4.2191299    1917.7168  0.051869437  0.051508949            5 
 3082000   0.76182855   -4.2171136    1917.7042  0.051852266  0.051498693           10 
 3083000   0.76128705   -4.2181644    1914.2175  0.051741201  0.051488392            4 
 3084000   0.74902034   -4.2307987    1914.9413  0.051743982  0.051477927            4 
 3085000   0.75912869   -4.1880418    1923.3484  0.051954306  0.051467648            8 
 3086000   0.76638343   -4.2460883    1915.5359  0.051726505  0.051457335            4 
 3087000   0.76200515   -4.2347773    1914.1484  0.051672292  0.051446946            3 
 3088000   0.77203509   -4.2502496    1918.1599  0.051763814  0.051436586            5 
 3089000   0.74948337   -4.1817257    1921.1239  0.051827019  0.051426262           11 
 3090000   0.76101346   -4.2431573    1915.6753  0.051663303  0.051416019           12 
 3091000   0.74319615   -4.2461432    1918.1314  0.051712805  0.051405746            5 
 3092000   0.74035047   -4.2394811    1921.4776  0.051786265   0.05139542            7 
 3093000   0.76398481   -4.2286815    1921.7066  0.051775692  0.051385192            5 
 3094000   0.77103223   -4.2312453    1920.9754  0.051739264  0.051375003            5 
 3095000   0.75662325   -4.2293275    1925.4086  0.051841912  0.051364786            4 
 3096000   0.75542423   -4.2343808    1924.0635  0.051788961  0.051354506            6 
 3097000    0.7571639   -4.2406632    1924.5787  0.051786102  0.051344278            9 
 3098000   0.75109722   -4.2008111    1918.5519   0.05160727   0.05133403            2 
 3099000   0.76956742   -4.2139047    1930.0852  0.051900753  0.051323822            4 
 3100000   0.76066357   -4.2264206    1925.5771  0.051762825  0.051313563            6 
 3101000   0.74423588   -4.2217114    1925.6901  0.051749169  0.051303286            2 
 3102000   0.75754072   -4.2196959     1926.526  0.051754943  0.051292984            8 
 3103000   0.75769909   -4.2076275    1926.1707  0.051728722  0.051282736            6 
 3104000   0.76940805   -4.2292314    1924.0912   0.05165623  0.051272572            4 
 3105000   0.77856175   -4.2606121    1922.9452  0.051608836  0.051262155            4 
 3106000     0.733764   -4.1889153    1929.0447  0.051755868  0.051251866            5 
 3107000   0.74795686   -4.2354608    1923.7311  0.051596693  0.051241555            3 
 3108000   0.77698702   -4.2334521    1924.3474  0.051596616   0.05123133            5 
 3109000   0.77504578   -4.2414671    1919.1937  0.051441881  0.051221083            3 
 3110000   0.77370348   -4.2334505    1918.2219  0.051399301  0.051210795            5 
 3111000   0.76827836   -4.2192464    1928.9194  0.051669329  0.051200537            9 
 3112000   0.75618901   -4.2277958    1932.4963  0.051748508  0.051190362            4 
 3113000   0.75097259   -4.2116214    1929.6282  0.051655108  0.051180087            3 
 3114000   0.75089106   -4.2315875    1925.0431  0.051515818  0.051169771            5 
 3115000   0.77334722    -4.219218     1924.447  0.051483333  0.051159465           10 
 3116000   0.75044332   -4.2316586    1928.1685  0.051566337  0.051149329            6 
 3117000   0.74175371   -4.2402966    1931.6419  0.051642656  0.051139002            6 
 3118000    0.7603372   -4.2525658    1923.0727  0.051397067  0.051128798            3 
 3119000   0.74716517   -4.2363975    1928.2004  0.051517591  0.051118514            4 
 3120000   0.74283419   -4.2362534    1921.4719  0.051321366  0.051108174            6 
 3121000   0.77189828   -4.2603852    1922.5522  0.051333765  0.051097801            6 
 3122000   0.74795741    -4.250924    1926.5295  0.051423486  0.051087509           16 
 3123000   0.74592661   -4.2388073    1921.4628  0.051271822  0.051077273            5 
 3124000    0.7387642   -4.2301074    1928.7329   0.05144934  0.051067043            5 
 3125000   0.74437636   -4.2284344    1928.8886  0.051437029  0.051056874           10 
 3126000   0.76832334   -4.2190915    1924.8442  0.051312759  0.051046582            4 
 3127000   0.75601098   -4.2326876    1927.4249  0.051365125  0.051036306            4 
 3128000   0.73905969   -4.2191407    1930.1647  0.051421694  0.051026056            9 
 3129000   0.75310979   -4.2740414    1924.3874  0.051251396    0.0510158            7 
 3130000   0.74486472   -4.2359374    1929.9481   0.05138307  0.051005533            5 
 3131000   0.77120564   -4.2423991    1932.7742  0.051441878  0.050995416            6 
 3132000   0.75734473   -4.2276894    1927.7171  0.051290897  0.050985188            5 
 3133000    0.7482017   -4.2438799    1930.2761  0.051342592  0.050974919            4 
 3134000    0.7346166   -4.2166048    1931.8994  0.051369373  0.050964647            6 
 3135000   0.75062848    -4.254207    1928.8832  0.051272811  0.050954288            6 
 3136000   0.74986649   -4.2269595    1926.3238  0.051188452  0.050944013            7 
 3137000   0.76147643   -4.2334782     1932.523  0.051336813  0.050933693            4 
 3138000   0.75624884   -4.2522531    1933.6802  0.051351183  0.050923348            8 
 3139000   0.73898772   -4.2346365    1931.1474  0.051267586  0.050912988            3 
 3140000   0.76203193   -4.2246325    1932.6002  0.051289815  0.050902656            4 
 3141000   0.76211772   -4.2693254     1924.819  0.051067042  0.050892237            7 
 3142000   0.73769203   -4.2698308    1926.1095  0.051085018   0.05088182            9 
 3143000    0.7529282   -4.2521182    1932.1581  0.051229135  0.050871431            4 
 3144000   0.75587021   -4.2553054    1934.2048  0.051267092  0.050861076            8 
 3145000    0.7489821   -4.2456933    1933.6858  0.051237039  0.050850704           13 
 3146000   0.76234074   -4.2427265    1932.2152  0.051181798  0.050840403            6 
 3147000   0.73761641   -4.2327181    1935.5394  0.051253559  0.050830094            5 
 3148000   0.73937447   -4.2429227    1931.2484  0.051123686  0.050819727           11 
 3149000   0.75784229   -4.2391814    1932.1628  0.051131649  0.050809387            7 
 3150000   0.75192465   -4.2362212    1942.7878  0.051396502  0.050799176            7 
 3151000   0.75475184   -4.2181966    1934.4024  0.051158426  0.050788963            6 
 3152000   0.74996485   -4.2519346    1930.6618  0.051043302  0.050778701            5 
 3153000   0.74551809   -4.2296942    1933.0445  0.051090086  0.050768366            6 
 3154000   0.73356672   -4.2324914    1934.5692  0.051114171  0.050758094            5 
 3155000   0.75256526    -4.253546    1937.6908  0.051180422  0.050747777            3 
 3156000   0.74337442   -4.2448669    1938.6211  0.051188771  0.050737491           10 
 3157000   0.73984423   -4.2251567    1936.0132  0.051103717  0.050727169            4 
 3158000   0.73948778    -4.227352    1942.7932  0.051266446  0.050716895            4 
 3159000   0.73319313   -4.2560366    1938.1473  0.051127659    0.0507066            4 
 3160000   0.73103422   -4.2448295     1943.909  0.051263423  0.050696429            3 
 3161000   0.74955579   -4.2378418    1940.6747  0.051161939  0.050686188            8 
 3162000   0.73634784   -4.2409974    1937.9998  0.051075263  0.050676049            6 
 3163000   0.76204961   -4.2481907    1942.2305  0.051170579  0.050665886            5 
 3164000   0.73918142   -4.2425391      1941.71  0.051140697  0.050655689            3 
 3165000    0.7421115    -4.223759    1935.4701  0.050960246  0.050645471           11 
 3166000   0.74130233   -4.2355516    1941.6541  0.051106921  0.050635385           13 
 3167000   0.74368385   -4.2578678    1942.4395  0.051111449  0.050625205            9 
 3168000   0.74837201   -4.2366516    1938.4751  0.050991033  0.050614977            7 
 3169000   0.73087585   -4.2594842    1936.0479  0.050911117   0.05060467            3 
 3170000   0.73994985   -4.2447649    1940.1045  0.051001697  0.050594469            5 
 3171000   0.74259012    -4.227969    1940.5442  0.050997166   0.05058419            5 
 3172000   0.73380729   -4.2319185    1943.6207  0.051061915  0.050574069            6 
 3173000   0.72553007   -4.2476724    1941.0107  0.050977274  0.050563846            6 
 3174000   0.74774325   -4.2638329    1945.1988  0.051071171  0.050553681            7 
 3175000   0.74015792   -4.2381167    1941.9146  0.050968887  0.050543331            4 
 3176000   0.73633226   -4.2438586    1937.1736  0.050828444  0.050533244            6 
 3177000   0.74898083   -4.2304254    1945.1174   0.05102081  0.050523024            8 
 3178000   0.73816012   -4.2519233    1944.4469  0.050987174  0.050512858            7 
 3179000   0.72569029   -4.2595015    1942.2521  0.050913601  0.050502565            4 
 3180000   0.75057468   -4.2484653    1943.6615  0.050934526  0.050492387            5 
 3181000   0.75216939   -4.2407667    1942.2797  0.050882314  0.050482129            3 
 3182000   0.74084096   -4.2667379    1944.3751    0.0509212  0.050471857            5 
 3183000   0.73454041   -4.2309142    1941.2359  0.050823016  0.050461649            7 
 3184000   0.73953657    -4.265219    1939.5385  0.050762629  0.050451452            6 
 3185000   0.74486835   -4.2481506    1943.2996  0.050845096   0.05044121            7 
 3186000   0.72998063   -4.2394846     1944.019  0.050847955  0.050431045            4 
 3187000   0.74649933   -4.2641624    1945.0653  0.050859358  0.050420709            7 
 3188000   0.72427452    -4.253595    1939.4862   0.05069757  0.050410495            6 
 3189000   0.74615671   -4.2558752     1941.394  0.050731526  0.050400145           11 
 3190000   0.74435248   -4.2563835    1938.3397  0.050635833  0.050389755            5 
 3191000   0.75399364   -4.2465579    1942.5439  0.050729757  0.050379447            7 
 3192000   0.75517194   -4.2489088    1949.1137  0.050885383  0.050369235           10 
 3193000   0.75431911    -4.232726    1948.6817  0.050858173  0.050359091            6 
 3194000   0.73786397   -4.2771854    1944.4742  0.050732473  0.050348764            8 
 3195000   0.74316413   -4.2415331    1948.4181   0.05081946  0.050338434            7 
 3196000   0.74765146   -4.2453503    1943.5645  0.050677005   0.05032812            5 
 3197000   0.73511073   -4.2606961    1931.4779  0.050346102  0.050317775            5 
 3198000     0.730182   -4.2614958     1943.002  0.050630655  0.050307382            4 
 3199000   0.73956025   -4.2582021    1948.3769  0.050754843   0.05029708            8 
 3200000   0.74562468   -4.2320134    1939.9851  0.050520447  0.050286681           12 
 3201000    0.7333061   -4.2590954    1941.3469  0.050540114  0.050276358            6 
 3202000   0.74672591   -4.2127781    1948.9647  0.050722587  0.050266065            5 
 3203000   0.72693569    -4.269103    1945.7904  0.050624164  0.050255881            3 
 3204000   0.72896523   -4.2567868    1946.6188  0.050629909  0.050245532            9 
 3205000   0.73110499   -4.2339337    1947.7937  0.050644661  0.050235233            9 
 3206000   0.71450314   -4.2479113    1944.4617  0.050542256   0.05022489            4 
 3207000    0.7292962   -4.2610962    1947.1177  0.050595512  0.050214526            3 
 3208000   0.72933579   -4.2506251    1941.6916  0.050438789  0.050204178            8 
 3209000   0.72704781   -4.2427477    1946.6562  0.050551995   0.05019387            7 
 3210000   0.75944996   -4.2718815    1943.8136   0.05046245  0.050183503            4 
 3211000   0.74412468    -4.259966    1946.8479  0.050525484  0.050173049           11 
 3212000   0.74690046   -4.2419682    1944.9123  0.050459533  0.050162653            5 
 3213000   0.72110148   -4.2293497       1948.4  0.050534288  0.050152293            4 
 3214000   0.72945974   -4.2702142     1948.726  0.050527016  0.050141944            5 
 3215000   0.73111627   -4.2865005    1946.9625   0.05046559  0.050131521            9 
 3216000   0.72553995   -4.2309466    1944.9052  0.050396591  0.050120947            4 
 3217000     0.743647   -4.2541017      1944.09  0.050359807   0.05011056            3 
 3218000   0.75337349   -4.2738654    1943.6022  0.050331526  0.050100029            4 
 3219000   0.73083418   -4.2483031     1945.913  0.050375713  0.050089713           12 
 3220000   0.73252766   -4.2546239    1947.8554  0.050410337  0.050079326            4 
 3221000   0.72631565   -4.2854031     1946.965  0.050371649  0.050068771            3 
 3222000    0.7301897   -4.2407759    1948.1997  0.050387951    0.0500583            8 
 3223000   0.73270121   -4.2803752    1942.4316  0.050223176  0.050047903           11 
 3224000   0.74595109   -4.2310403    1949.8108  0.050398335  0.050037581            5 
 3225000    0.7338512   -4.2825091    1945.5437  0.050272446  0.050027208            7 
 3226000   0.73339906   -4.2851497    1952.8029  0.050444382  0.050016826            5 
 3227000   0.73211471   -4.2488104    1952.7495  0.050427372  0.050006559            6 
 3228000   0.73367646    -4.291421    1949.8638  0.050337252  0.049996241            7 
 3229000   0.73923876   -4.2571816    1952.4664  0.050388831  0.049985974            3 
 3230000    0.7330916   -4.2485351    1955.4736  0.050450815  0.049975731           16 
 3231000   0.72294193   -4.2597749    1955.2842  0.050430315  0.049965454            3 
 3232000   0.73255752   -4.2911149    1953.6312  0.050372092  0.049955244            9 
 3233000    0.7428716   -4.2669598    1948.2934  0.050218923  0.049944946            7 
 3234000   0.73207464   -4.2487293     1954.811  0.050371342  0.049934773            5 
 3235000   0.72891254   -4.2453458    1947.2188  0.050160196  0.049924518            7 
 3236000   0.74209586   -4.2624389    1950.2607  0.050223031  0.049914284            7 
 3237000   0.73430368   -4.2667356    1959.4885  0.050445075  0.049904075            5 
 3238000   0.75409954   -4.2585207    1955.2186  0.050319606  0.049893806            4 
 3239000   0.74387167   -4.2924441    1957.4455  0.050361365  0.049883663            6 
 3240000   0.71912278   -4.2664773    1952.4778  0.050218051  0.049873384            5 
 3241000   0.74594282   -4.2756392     1956.504  0.050306078  0.049863192            2 
 3242000    0.7237648   -4.2780782     1957.603  0.050318809  0.049852904           20 
 3243000   0.73110703   -4.2707036    1959.9301  0.050363093  0.049842809            7 
 3244000   0.74060899   -4.2638269    1960.2899  0.050356811  0.049832608            6 
 3245000   0.74233712   -4.2612809    1955.5756  0.050220226  0.049822412            7 
 3246000    0.7466535   -4.2849406    1953.7741  0.050158506   0.04981229            4 
 3247000   0.74038451   -4.2655496    1952.5801  0.050112415  0.049802176            7 
 3248000   0.73149775    -4.267705    1950.6077  0.050046379  0.049792035            8 
 3249000   0.71336805   -4.2690929    1959.9973   0.05027181  0.049781899            8 
 3250000   0.72347167   -4.2750952    1956.0978  0.050156353  0.049771688            7 
 3251000    0.7251759   -4.2672118    1957.7479  0.050183224  0.049761535            6 
 3252000    0.7381591   -4.2719438    1957.2372  0.050154705  0.049751331            3 
 3253000   0.71678673   -4.2495726     1961.391  0.050245695  0.049741113            7 
 3254000    0.7225469   -4.2736452    1953.0698  0.050017154  0.049730953            6 
 3255000    0.7271562   -4.2960373    1951.9134   0.04997218  0.049720748            5 
 3256000   0.73267011   -4.2810855    1959.9056  0.050161384  0.049710577            6 
 3257000   0.71325948   -4.2615314    1955.4256  0.050031357  0.049700359            9 
 3258000   0.72925155   -4.2921578    1957.3534  0.050065311  0.049690095            3 
 3259000   0.73777165   -4.2669325      1963.58  0.050209164   0.04967992            5 
 3260000    0.7385379   -4.2705132    1960.2243  0.050107984  0.049669826            4 
 3261000   0.72203393   -4.2770632    1961.8544  0.050134275  0.049659621            7 
 3262000   0.71980791   -4.2855854    1958.6948  0.050038187  0.049649365            6 
 3263000   0.73861864   -4.2682568    1962.4252  0.050118122  0.049639168            6 
 3264000   0.74618294   -4.2808858    1960.4475  0.050052275  0.049628964            4 
 3265000   0.73271429   -4.2653693    1961.5863  0.050066011  0.049618809           12 
 3266000   0.72758054   -4.2938976    1963.5691  0.050101273  0.049608651            5 
 3267000   0.74274192    -4.263954     1961.735  0.050039154  0.049598532           12 
 3268000   0.72805456   -4.2482968     1956.056   0.04987903  0.049588387            4 
 3269000   0.73447303   -4.2644414    1962.1769  0.050019804  0.049578179            3 
 3270000   0.72499306   -4.2929379    1962.3286  0.050008374  0.049568004           10 
 3271000   0.71721636   -4.2822898    1955.9347  0.049830192  0.049557788            6 
 3272000   0.72446011   -4.2593455    1967.4793  0.050108987   0.04954771            7 
 3273000   0.74030795   -4.2921145    1966.4183  0.050066663  0.049537661            7 
 3274000   0.73626811   -4.2864548    1963.3927  0.049974362   0.04952753            8 
 3275000     0.726015   -4.2854368    1968.1034  0.050078967   0.04951739            3 
 3276000   0.72403869   -4.2866904    1962.2335  0.049914364  0.049507234           10 
 3277000   0.73808959   -4.2895308    1958.5059  0.049804341  0.049497102            5 
 3278000   0.71694633   -4.2602856    1965.2589  0.049960822  0.049486899            5 
 3279000   0.73226416   -4.2848164    1964.4344  0.049924633  0.049476732            5 
 3280000   0.72224463   -4.2746814    1967.1034   0.04997722    0.0494666            6 
 3281000   0.72067744   -4.2858018    1961.9541  0.049831203  0.049456403            7 
 3282000   0.72888473   -4.2834021    1964.8305  0.049889055  0.049446241            2 
 3283000   0.72597321   -4.2695052    1964.2144  0.049858219  0.049436027            5 
 3284000   0.71848914   -4.2700005     1966.938   0.04991215  0.049425831            9 
 3285000   0.71079057   -4.2765527    1964.8373  0.049843666  0.049415639            5 
 3286000   0.71712386   -4.2795906    1962.9022  0.049779423  0.049405431           15 
 3287000    0.7419737   -4.2648947    1970.8987  0.049967009  0.049395347            3 
 3288000   0.71966229   -4.2970972    1965.0052  0.049802444  0.049385148            7 
 3289000   0.71890113    -4.295701    1965.9914  0.049812288  0.049375022            9 
 3290000   0.71208449   -4.2700796    1972.8018   0.04996965  0.049364868            4 
 3291000   0.71758609   -4.2933468    1968.2308  0.049838723   0.04935479            3 
 3292000   0.73003206   -4.2985728    1962.7421  0.049684641  0.049344569            5 
 3293000   0.71475918   -4.2951808    1960.6414  0.049616394  0.049334448            7 
 3294000   0.72246423   -4.2931663    1968.4048  0.049797734   0.04932424            5 
 3295000   0.70752654   -4.2809792    1965.7773  0.049716169  0.049314052           10 
 3296000     0.716574   -4.2854293     1968.933   0.04978087  0.049303859            5 
 3297000   0.71414426   -4.2931229     1971.232  0.049823881  0.049293704            7 
 3298000   0.73427275   -4.2889064    1972.4631   0.04983988  0.049283624           13 
 3299000   0.71805164   -4.3144684     1964.768  0.049630392  0.049273474            7 
 3300000    0.7326742   -4.2716821    1970.3759  0.049756966   0.04926326            4 
 3301000   0.73868657   -4.2857248    1969.0271  0.049707843  0.049253092            5 
 3302000   0.71457164   -4.3028966    1966.2041  0.049621546  0.049242853            4 
 3303000   0.71122482   -4.2933748    1962.7692  0.049519861  0.049232644            8 
 3304000   0.71525955   -4.2739159    1965.4793  0.049573228  0.049222328           11 
 3305000   0.71348253   -4.2727607    1972.5066  0.049735415  0.049212183            2 
 3306000   0.72729268    -4.301291    1966.1598  0.049560389  0.049202018           14 
 3307000   0.70972809   -4.2829785    1969.9677  0.049641358  0.049191851           10 
 3308000   0.72396119   -4.2903494    1969.6585  0.049618565  0.049181674            8 
 3309000   0.71929702   -4.2912431    1971.3584  0.049646378  0.049171508            2 
 3310000   0.71550418   -4.2855298    1975.1849  0.049727717  0.049161386            5 
 3311000   0.71607874   -4.2907539    1972.8759  0.049654583  0.049151256            7 
 3312000   0.72033739   -4.2724426    1968.8256  0.049537681   0.04914106            9 
 3313000    0.7190737   -4.2870863    1973.2184  0.049633224  0.049130928            3 
 3314000   0.71909776   -4.2804853    1969.2319  0.049518003  0.049120735           15 
 3315000   0.71073217    -4.307544    1969.9324  0.049520675  0.049110395            5 
 3316000   0.72832237    -4.282949    1965.4108   0.04939211  0.049100111            9 
 3317000   0.72490242   -4.3031741    1965.4395  0.049377941   0.04908976            7 
 3318000   0.71674126   -4.3071636    1969.8689  0.049474305  0.049079424            7 
 3319000      0.70757   -4.3173313    1962.9705  0.049286192  0.049069006            8 
 3320000   0.71605484   -4.2983138    1966.1248  0.049350522   0.04905859            7 
 3321000   0.71711536   -4.2875341    1968.8869   0.04940497  0.049048187            5 
 3322000   0.71800086   -4.3038101    1966.1333  0.049321024  0.049037784            6 
 3323000    0.7217384   -4.2653483    1975.5066  0.049541242  0.049027499            4 
 3324000   0.72375985   -4.2904544    1971.5852  0.049428028  0.049017184            4 
 3325000   0.72208505   -4.2967371     1965.298   0.04925559  0.049006782           12 
 3326000   0.71529731   -4.2918855    1969.3002  0.049341056  0.048996326            5 
 3327000   0.72168584   -4.3138582    1962.5038  0.049155992  0.048985862            8 
 3328000   0.71281331   -4.2741558    1967.1438  0.049257407  0.048975498            4 
 3329000   0.72026816   -4.2911536     1964.616  0.049179333  0.048965155            5 
 3330000   0.71506464   -4.2921219    1966.3711  0.049208486  0.048954728            6 
 3331000   0.71825774   -4.3016554    1961.1343  0.049062701   0.04894422            6 
 3332000   0.72032455   -4.2941711    1969.3524  0.049253511  0.048933731            6 
 3333000   0.71850459   -4.3085757     1965.546  0.049143565  0.048923302            5 
 3334000   0.72569867   -4.2801632    1969.7721  0.049234456  0.048912908            8 
 3335000   0.70781363   -4.2873923    1968.9475  0.049199088    0.0489026            6 
 3336000   0.72094004    -4.315485    1967.7616  0.049154716  0.048892226            7 
 3337000   0.71617092   -4.2637556     1974.012  0.049296075  0.048881811            8 
 3338000   0.72112733   -4.3009819    1962.4047  0.048991529  0.048871339           11 
 3339000    0.7278356   -4.3084599    1972.5327  0.049229628  0.048860908           13 
 3340000   0.69818726   -4.2863814    1970.9682  0.049175852  0.048850498            9 
 3341000   0.72740797   -4.2996516    1971.9056  0.049184517  0.048840057           10 
 3342000   0.72733696   -4.3086572    1966.6971  0.049039924  0.048829602           10 
 3343000    0.7297918   -4.2994458     1963.929  0.048956251  0.048819171            5 
 3344000   0.72058228   -4.3022876    1965.6138  0.048983599  0.048808734            6 
 3345000   0.71439479    -4.341969     1968.198  0.049033333  0.048798181            5 
 3346000   0.71943443   -4.2905081      1971.29  0.049095687  0.048787733            4 
 3347000   0.73328784    -4.303934    1977.5627  0.049237195  0.048777324           13 
 3348000   0.71209296   -4.2877308    1974.1546   0.04913766  0.048766924            6 
 3349000   0.71012528   -4.2945006      1967.88  0.048966856  0.048756571            5 
 3350000   0.71961382    -4.304027    1970.4824  0.049016975   0.04874617            3 
 3351000   0.71961605   -4.3238037    1973.5093  0.049077621  0.048735755            5 
 3352000    0.7189571   -4.3166944    1970.9973  0.049000531   0.04872528            9 
 3353000   0.72668064   -4.3033976    1972.9208  0.049033721  0.048714841           10 
 3354000   0.71096967   -4.2928565     1970.314  0.048954334  0.048704434            7 
 3355000   0.69866723   -4.3134169    1973.1745  0.049010791  0.048694008            5 
 3356000   0.70917368   -4.2878898    1978.0108  0.049116279  0.048683585            5 
 3357000   0.70603081   -4.2784755    1978.8937  0.049123565  0.048673207            8 
 3358000   0.69983606    -4.296559    1972.5768  0.048952174  0.048662837            7 
 3359000   0.72551771   -4.2854632    1972.1357  0.048926658  0.048652409            6 
 3360000   0.70087917   -4.3150222    1970.1696  0.048863334  0.048641985            6 
 3361000   0.71022586   -4.3014112    1970.8336  0.048865259  0.048631621            4 
 3362000   0.73836166   -4.3072298    1969.3016   0.04881275  0.048621227            6 
 3363000   0.72256395   -4.2991709     1975.389  0.048949079  0.048610919            4 
 3364000   0.71544106   -4.3124547    1976.5128  0.048962367  0.048600489           11 
 3365000   0.71070139   -4.3210129    1971.9851  0.048835689  0.048590123           10 
 3366000   0.69349829   -4.3048431    1974.3066  0.048878653  0.048579668            9 
 3367000   0.72486196   -4.3302917    1978.2106  0.048960762  0.048569196            9 
 3368000    0.7013857   -4.3061994    1970.4294  0.048753696   0.04855875            4 
 3369000   0.71141588   -4.2851804    1972.6546  0.048794267  0.048548434            3 
 3370000   0.71684404   -4.2932378    1973.5135  0.048801026  0.048537936            5 
 3371000   0.71385267   -4.3085142      1975.08  0.048825276  0.048527466           11 
 3372000   0.69588737   -4.3028406    1970.2739  0.048692019  0.048516984           10 
 3373000   0.70649589   -4.2788719    1973.3525  0.048753645  0.048506444            6 
 3374000   0.71079324   -4.2962599    1978.1458  0.048857582  0.048496009            7 
 3375000   0.69875108    -4.311185    1977.5126  0.048827472  0.048485565            4 
 3376000   0.69853189   -4.2968766    1968.3247  0.048586215  0.048475125           13 
 3377000   0.70976834   -4.3332696    1967.9218  0.048561885  0.048464503           12 
 3378000   0.70369119   -4.2945075    1972.1148  0.048650946  0.048453922            3 
 3379000   0.70608103   -4.3144503     1969.564  0.048573641  0.048443365            5 
 3380000   0.72059524   -4.2711835    1969.5424  0.048558738  0.048432865            3 
 3381000   0.70881626   -4.3201881    1976.1393  0.048706972  0.048422367            5 
 3382000   0.71165531   -4.3033787     1976.737  0.048707299   0.04841185            6 
 3383000   0.71176011   -4.3081246    1976.7459   0.04869312  0.048401338            5 
 3384000   0.71983361    -4.342623    1973.6055  0.048601397  0.048390845            7 
 3385000   0.71827703   -4.3087397    1979.8314  0.048740311  0.048380363            4 
 3386000   0.70733354   -4.3334076    1974.9391  0.048605511  0.048369959           10 
 3387000   0.70966279   -4.3125281     1976.979  0.048641349  0.048359445            4 
 3388000   0.70114686    -4.313298    1977.6991  0.048644703  0.048348982            6 
 3389000    0.6998776   -4.3113573    1973.5662  0.048528724  0.048338548            5 
 3390000   0.71886214    -4.320343    1975.8226  0.048569878  0.048328084            7 
 3391000   0.70693655    -4.299418    1978.6126  0.048624117  0.048317573            8 
 3392000   0.69452692   -4.2791658     1974.731  0.048514421  0.048307042            4 
 3393000   0.71772497   -4.3237784    1976.1491  0.048534953  0.048296477            5 
 3394000   0.69544864   -4.3190621    1976.3553  0.048525713  0.048285935            4 
 3395000   0.71331188   -4.3343716    1978.2042  0.048556804  0.048275419           10 
 3396000   0.71613648   -4.2829944    1975.9481  0.048487143  0.048264834            5 
 3397000   0.69170129   -4.3197439    1978.9879  0.048547441  0.048254289            6 
 3398000   0.70315799   -4.3083858    1976.7107  0.048477308  0.048243724            6 
 3399000   0.70029546   -4.3375024    1973.1828  0.048376552  0.048233159            5 
 3400000   0.69938898   -4.3052718    1979.6514  0.048520868  0.048222619            6 
 3401000   0.71133253   -4.2998137    1974.6648  0.048384416  0.048212088            8 
 3402000     0.695006   -4.3107431    1979.0509  0.048477633  0.048201546            6 
 3403000   0.70396144   -4.3183312    1971.7587  0.048284816  0.048191032            8 
 3404000   0.71022761   -4.3231496    1977.4356  0.048409606  0.048180403            6 
 3405000   0.72520627   -4.3270549    1974.3289  0.048319357  0.048169692            9 
 3406000   0.70783092   -4.3104884    1970.5146  0.048211848  0.048159077            5 
 3407000   0.70417046   -4.3221939    1970.7391  0.048203187  0.048148491            4 
 3408000   0.69827009   -4.3263871    1975.7137  0.048310683   0.04813784            3 
 3409000   0.69961052   -4.3184945    1973.5327  0.048243196  0.048127212            8 
 3410000   0.70933536   -4.3204375    1979.7847  0.048381835  0.048116585            4 
 3411000   0.71509861   -4.3298941     1978.557  0.048337658  0.048105997            3 
 3412000   0.69157762   -4.2760625    1979.8106  0.048354107  0.048095479            6 
 3413000    0.7088188   -4.3141719    1979.0346  0.048320992   0.04808496            7 
 3414000   0.70576212   -4.3350201    1979.1713  0.048310176   0.04807436           14 
 3415000   0.71015411    -4.321944    1977.3899  0.048252559  0.048063882            8 
 3416000   0.70762526   -4.3083927    1982.4086  0.048360866  0.048053375            5 
 3417000    0.7001657   -4.3138164    1985.9573  0.048433259  0.048042862           11 
 3418000    0.7056959   -4.3188808     1984.034  0.048372196  0.048032424            4 
 3419000    0.7196649   -4.2808281    1984.9331  0.048379962  0.048022098            8 
 3420000     0.690487   -4.3402568    1977.0652  0.048174103  0.048011648           10 
 3421000   0.71495099   -4.3251224    1981.4199  0.048266099  0.048001164           12 
 3422000   0.70914234   -4.2947887    1983.8769  0.048311828  0.047990722            6 
 3423000   0.70857002   -4.3184509    1981.1197  0.048230591  0.047980215            9 
 3424000   0.70758778   -4.3133492    1987.4632  0.048370891   0.04796978            4 
 3425000   0.70517507   -4.3276859    1981.7324  0.048217332  0.047959292            8 
 3426000   0.71711054   -4.3130598    1982.0326  0.048210562  0.047948791            3 
 3427000   0.70747545   -4.3189808    1982.9564  0.048218958  0.047938363            5 
 3428000   0.70111573   -4.3364034    1976.9923  0.048059907  0.047927932            5 
 3429000   0.70319268   -4.2912326    1990.1511  0.048365681  0.047917519            5 
 3430000   0.68953362   -4.3211811    1978.7018  0.048073417  0.047907109           14 
 3431000   0.69943769   -4.3352894    1982.8399  0.048159913  0.047896573            9 
 3432000   0.68321018    -4.315435     1983.871  0.048170917  0.047886005            4 
 3433000   0.69809527   -4.3076434    1985.5893  0.048198595  0.047875488            7 
 3434000   0.71272657    -4.336949     1982.053  0.048098744   0.04786497            5 
 3435000   0.69437261   -4.3172533     1983.308  0.048115187  0.047854556           11 
 3436000   0.70330992   -4.3238392    1987.7864  0.048209797  0.047844142            6 
 3437000   0.71182579   -4.3221741    1985.6972  0.048145118  0.047833646           15 
 3438000   0.70029096   -4.3005272    1980.1834  0.047997464  0.047823289            7 
 3439000   0.69385059   -4.3168599    1989.0165   0.04819755  0.047812964            7 
 3440000   0.70512615   -4.3291183    1987.1565   0.04813848  0.047802535            8 
 3441000   0.69369893   -4.3014858    1987.6437   0.04813629  0.047791999            6 
 3442000    0.7068035   -4.3225714     1991.111  0.048206251  0.047781547            6 
 3443000   0.70001344   -4.3492861    1980.4946  0.047935295  0.047771046           11 
 3444000   0.69301711   -4.3158589     1984.822  0.048026085    0.0477605            4 
 3445000   0.69449342   -4.3345058    1983.1108  0.047970749  0.047749947            5 
 3446000   0.70697468   -4.3362477    1986.1406  0.048030097  0.047739416           11 
 3447000   0.70096798   -4.3279082    1988.5631  0.048074729  0.047728981            3 
 3448000    0.6971241   -4.3099606    1988.7478   0.04806525  0.047718546            5 
 3449000    0.6935455   -4.3468364    1981.4167  0.047874182  0.047708098            4 
 3450000   0.69159857   -4.3308682    1986.5918   0.04798531  0.047697572            5 
 3451000   0.68836659   -4.3541524    1979.2727  0.047794665  0.047687077           11 
 3452000     0.701674   -4.3669055    1976.8602  0.047722581  0.047676513            7 
 3453000   0.69631794   -4.3451682    1987.2597  0.047959738  0.047665939            8 
 3454000   0.70271452   -4.3219069    1985.9921  0.047915269  0.047655407            9 
 3455000   0.71940522    -4.331395    1988.8645  0.047970683  0.047644928            3 
 3456000   0.70082982    -4.309203    1987.5835  0.047925913  0.047634415            6 
 3457000    0.7019236   -4.3279419    1982.3444  0.047785759  0.047623812            9 
 3458000   0.69825514   -4.3287694    1988.6574  0.047924075  0.047613299           10 
 3459000   0.71173595   -4.3213943    1985.8316  0.047842142  0.047602823            8 
 3460000   0.68187043    -4.316741    1986.6936  0.047849076  0.047592276           11 
 3461000   0.69834414   -4.3272539    1983.2454  0.047752224   0.04758176            4 
 3462000   0.70008093   -4.3305376    1985.5447  0.047793778  0.047571187            6 
 3463000   0.70101316   -4.3273838    1982.5994    0.0477091  0.047560583            4 
 3464000   0.69303708    -4.363056     1980.603  0.047647301   0.04754995            5 
 3465000   0.71486511   -4.3286248    1990.4651  0.047870735  0.047539361            6 
 3466000   0.69358572   -4.3358458    1993.7985  0.047937068  0.047528811            7 
 3467000   0.70149972   -4.3401801    1986.3042  0.047743105  0.047518223            9 
 3468000   0.69341692   -4.3314419    1986.8619  0.047742742  0.047507686            8 
 3469000   0.70071768   -4.3332232     1991.263  0.047834703  0.047497097            5 
 3470000   0.70113908   -4.3354501    1990.2509  0.047796611  0.047486557            9 
 3471000   0.68110125   -4.3454047     1985.467  0.047667986  0.047475983            7 
 3472000   0.69566287   -4.3053155    1993.2404  0.047840832  0.047465446            5 
 3473000   0.70718255   -4.3589263    1981.7196   0.04755062  0.047454831           15 
 3474000   0.69111575   -4.3380731    1984.2155  0.047596803  0.047444198            4 
 3475000   0.69148218   -4.3567601    1988.2345  0.047679485  0.047433605            6 
 3476000   0.71833749   -4.3354287     1989.624   0.04769908  0.047422954           11 
 3477000   0.69899247   -4.3382198     1988.684  0.047662832  0.047412319            9 
 3478000   0.69603666   -4.3250168    1986.0073  0.047584994  0.047401704            9 
 3479000   0.69554332   -4.3396253     1983.794    0.0475183  0.047391116            6 
 3480000   0.68784266   -4.3298909    1994.9931  0.047772823  0.047380612           10 
 3481000   0.68681415   -4.3422988    1987.8316  0.047587657  0.047370108            8 
 3482000   0.70036594   -4.3256393    1988.6498  0.047593573  0.047359569            7 
 3483000   0.69400307   -4.3089514    1988.1781  0.047568621  0.047349097            9 
 3484000   0.70012027   -4.3318672    1992.5537  0.047659626  0.047338607            8 
 3485000   0.69864402   -4.3279479    1988.8363  0.047557062  0.047328099            7 
 3486000   0.70184454   -4.3160393    1992.6176  0.047633811  0.047317604            6 
 3487000   0.69157898   -4.3533829    1988.8506  0.047530127  0.047307187            3 
 3488000   0.70520994   -4.3605744    1990.9116   0.04756574  0.047296622            5 
 3489000   0.68468781   -4.3260832    1988.3211  0.047490234    0.0472861            5 
 3490000    0.6925629   -4.3203475    1990.9087  0.047538412  0.047275563            9 
 3491000   0.70409772   -4.3515614    1988.6656  0.047471249    0.0472651            3 
 3492000   0.69258282   -4.3522365    1990.9398  0.047511927   0.04725454            9 
 3493000   0.69739541    -4.340493    1997.9781   0.04766624  0.047244058            8 
 3494000   0.68699875   -4.3668734    1986.1191  0.047369755  0.047233549           10 
 3495000   0.66778589   -4.3309564    1989.5654  0.047438375  0.047223076            6 
 3496000   0.70080149   -4.3411935    1991.5934  0.047473145  0.047212653           20 
 3497000   0.70332807   -4.3407932    1998.1599  0.047616051  0.047202209            9 
 3498000   0.69455712   -4.3667883    1987.2715  0.047343042  0.047191647            4 
 3499000   0.68882032   -4.3696116    1991.6532  0.047433867   0.04718111            7 
 3500000   0.69332582   -4.3510096    1992.5927  0.047442683  0.047170618            8 
 3501000    0.7047648   -4.3535397    1992.6804   0.04743122   0.04716014            5 
 3502000    0.6896315    -4.374429    1988.9931  0.047329933  0.047149673           13 
 3503000   0.69577965   -4.3644861    1991.2704  0.047370595   0.04713918            7 
 3504000   0.68830623   -4.3441089    1994.2718  0.047428458  0.047128818            9 
 3505000   0.67615285   -4.3492786    1994.2811  0.047415148   0.04711839            6 
 3506000   0.70089532   -4.3248328    2000.1211  0.047540434   0.04710797            6 
 3507000   0.68425015   -4.3357915    1999.4236  0.047510303  0.047097594            9 
 3508000   0.68583302    -4.345982    2003.8489  0.047601884  0.047087283            3 
 3509000   0.69029745   -4.3491815    1999.5528  0.047486292  0.047076903            9 
 3510000   0.68850584   -4.3427994    1999.8214   0.04747914  0.047066551            4 
 3511000   0.67903013   -4.3349348    1991.6345  0.047271303  0.047056165           14 
 3512000   0.68480408   -4.3427549    2000.6068  0.047470738  0.047045835            6 
 3513000   0.70062519   -4.3338115     1997.864  0.047392161  0.047035527            5 
 3514000   0.68906079   -4.3417342     1999.385  0.047414746  0.047025189           16 
 3515000   0.70970706   -4.3548126    2000.6095  0.047430287  0.047014811            8 
 3516000   0.68695833   -4.3260975    2000.6153  0.047416935  0.047004532            6 
 3517000   0.68767869   -4.3585881    1996.8204  0.047313534   0.04699423            3 
 3518000   0.69178468     -4.35903    2005.0946  0.047496083  0.046983867            3 
 3519000   0.69151381   -4.3511512    1996.9679  0.047290136  0.046973442            7 
 3520000   0.68048334   -4.3635328    1996.0649  0.047255324  0.046963002            7 
 3521000    0.6839817     -4.35152    1998.5018  0.047299578  0.046952634           13 
 3522000   0.69295672    -4.353749     1990.329  0.047092774  0.046942205            9 
 3523000   0.70324763   -4.3456663     2001.636  0.047346862  0.046931873            5 
 3524000   0.68710313   -4.3461152    2001.7403  0.047335895  0.046921563            8 
 3525000   0.69433824   -4.3709141    1995.6971    0.0471796  0.046911163            9 
 3526000   0.68420194   -4.3742466    1994.8516  0.047146237  0.046900778            6 
 3527000   0.69241266    -4.342707    1998.3291  0.047215034    0.0468904            5 
 3528000   0.68261947   -4.3257247    1991.3953   0.04703787  0.046880062            6 
 3529000   0.68255473   -4.3497237    2003.1699  0.047302586  0.046869793           10 
 3530000   0.68919261   -4.3446523    1999.9019  0.047212037  0.046859424            7 
 3531000   0.70000567   -4.3898833    1995.7964  0.047101775  0.046849126           24 
 3532000   0.69876021   -4.3518031    1999.2289  0.047169426  0.046838837           11 
 3533000    0.6875202    -4.336475     1996.062  0.047081377  0.046828586           16 
 3534000   0.70262776     -4.37762    1999.7607  0.047155271  0.046818206           11 
 3535000   0.68372011   -4.3443528    2005.4386  0.047275781  0.046807877            8 
 3536000    0.6738373   -4.3511153    2000.1095  0.047136818  0.046797527            7 
 3537000   0.67756793    -4.342275    1999.1394  0.047100636  0.046787191           11 
 3538000   0.67033937   -4.3416329    2001.7915  0.047149791  0.046776865            4 
 3539000   0.69097746   -4.3546818    2003.4948  0.047176575  0.046766581            7 
 3540000   0.67346471   -4.3567951    1999.9475  0.047079743   0.04675626            4 
 3541000   0.69085549   -4.3477215     1998.061  0.047022051  0.046745928            6 
 3542000    0.6831722   -4.3504296    2003.5606  0.047138167  0.046735637            7 
 3543000    0.6890912   -4.3498149    2001.4715  0.047075723  0.046725275            6 
 3544000   0.68445802   -4.3750113    2000.9787  0.047050853  0.046714926           24 
 3545000   0.67573109   -4.3699156    2009.5192  0.047238346  0.046704658            7 
 3546000    0.6971772    -4.359686    2004.0189  0.047095762  0.046694362            3 
 3547000   0.69362703   -4.3726913    1992.9029  0.046821326  0.046684054            9 
 3548000    0.6850412   -4.3594742    2001.0001   0.04699831  0.046673734            5 
 3549000   0.68193394   -4.3671959    1998.7761  0.046932848   0.04666344            9 
 3550000   0.69846557   -4.3845257     1999.166  0.046928779  0.046653209            5 
 3551000   0.66978453   -4.3576214    2009.2923  0.047153203  0.046642895           13 
 3552000   0.68157846   -4.3686438    2001.9561  0.046967815  0.046632596            5 
 3553000   0.68172301   -4.3598344    2007.6163   0.04708735  0.046622311           10 
 3554000   0.68939585   -4.3703441    2005.0515  0.047013963  0.046612077            4 
 3555000   0.67857167   -4.3866133    2004.3894  0.046985217  0.046601883            8 
 3556000   0.69283132   -4.3532619    2006.8052  0.047028619  0.046591659           10 
 3557000   0.66865975   -4.3609348    2008.1173  0.047046136  0.046581419            5 
 3558000   0.67947303   -4.3484872    2000.7553  0.046860486  0.046571197            5 
 3559000   0.67062595   -4.3658022    2003.4418  0.046910223  0.046560999            7 
 3560000   0.67927727   -4.3684489    2006.2481  0.046962736   0.04655076            6 
 3561000   0.69180019   -4.3653661    2007.5581  0.046980204  0.046540534            5 
 3562000   0.68698146   -4.3781047    2002.1042   0.04683942  0.046530364            7 
 3563000   0.66752407   -4.3585763    1999.5386   0.04676627   0.04652016           13 
 3564000    0.6766394   -4.3462054    2007.1014  0.046929981  0.046509902            8 
 3565000    0.6841743   -4.3718318    2007.2127  0.046919417  0.046499693            7 
 3566000   0.67766025   -4.3640198    2004.9932  0.046854393  0.046489485            9 
 3567000   0.67692927   -4.3697917    2005.1416  0.046844725  0.046479247           10 
 3568000    0.6825328   -4.3787879    2007.1224  0.046877858  0.046469036           12 
 3569000   0.67194208   -4.3829394    2001.4281  0.046731767  0.046458777           14 
 3570000   0.68032456   -4.3709462    2002.8906  0.046752816  0.046448501            5 
 3571000   0.68054182   -4.3880327    2001.7602  0.046713343  0.046438218           14 
 3572000   0.67956726   -4.3552539    2011.8086  0.046934692  0.046427989           10 
 3573000   0.67261489    -4.369096    2003.5377  0.046728653  0.046417795           13 
 3574000   0.68563395   -4.3750484    2005.8915   0.04677046  0.046407497            8 
 3575000   0.68176622   -4.3560027    2011.7695  0.046894395  0.046397329           10 
 3576000   0.67641075   -4.3572522      2010.24  0.046845639  0.046387158            5 
 3577000   0.69098323   -4.3658163    2006.2316  0.046739157  0.046376924            7 
 3578000   0.68875905   -4.3877865    2005.9217  0.046718876  0.046366699            7 
 3579000   0.69693444   -4.3717054    2006.7189  0.046724386  0.046356412           11 
 3580000   0.68291707   -4.3950492    2009.3356  0.046772243  0.046346157           10 
 3581000   0.68163525    -4.377986    2012.2849  0.046827815  0.046336004            4 
 3582000   0.67591987   -4.3743654    2006.2872   0.04667521  0.046325863            6 
 3583000     0.676219   -4.3739092    2009.4111  0.046734838  0.046315658            5 
 3584000   0.67842176   -4.3623327    2011.8005  0.046777356   0.04630547            5 
 3585000   0.66598137   -4.3649565    2014.7736  0.046833417  0.046295269            6 
 3586000   0.68030726   -4.3636987    2014.7751  0.046820392  0.046284999           12 
 3587000   0.68125814    -4.376875    2010.2011  0.046701076  0.046274888            6 
 3588000   0.67427616    -4.398487    2006.5488  0.046603233  0.046264673           14 
 3589000   0.68243874   -4.3610693    2014.5362  0.046775709  0.046254497           12 
 3590000   0.67346707   -4.3595878    2014.3492  0.046758339   0.04624436            9 
 3591000   0.67037371   -4.3787243    2010.4081  0.046653859  0.046234245            7 
 3592000   0.69479028    -4.367859    2009.3871  0.046617185   0.04622406            5 
 3593000   0.68945233   -4.3562736    2008.3056  0.046579126  0.046213939            3 
 3594000   0.68484758   -4.3758747    2011.0775  0.046630438  0.046203771            9 
 3595000   0.67216975   -4.3493547    2014.1292  0.046688206  0.046193648            8 
 3596000   0.67689564   -4.3928138      2011.02   0.04660317  0.046183554            8 
 3597000   0.65833636   -4.3429254     2021.021  0.046821913   0.04617346            6 
 3598000   0.67336425   -4.3522708    2011.7407  0.046593958  0.046163515            8 
 3599000   0.67910865   -4.3484667    2015.7918  0.046674813  0.046153499           10 
 3600000   0.67269257   -4.3745308    2015.3468  0.046651546  0.046143405            5 
 3601000   0.68225735   -4.3910353    2014.3067  0.046614521   0.04613342            7 
 3602000   0.66102545   -4.3914659    2013.1085   0.04657386  0.046123408           13 
 3603000   0.67701879   -4.3860353    2017.5271  0.046663131  0.046113317           16 
 3604000   0.67605082   -4.3868061     2011.578  0.046512624  0.046103293           11 
 3605000   0.68871434   -4.3804376    2019.6575   0.04668649  0.046093269            6 
 3606000   0.67927932   -4.3752432    2014.8825  0.046563194  0.046083235            9 
 3607000   0.66424621   -4.3587528    2017.4877  0.046610472  0.046073192            4 
 3608000   0.68074168    -4.371029    2024.5106   0.04675976  0.046063225           13 
 3609000   0.66885472   -4.3739395    2017.1166  0.046576074  0.046053237           10 
 3610000   0.64988195   -4.3746562    2019.9306  0.046628129  0.046043264            7 
 3611000   0.66345054   -4.3775362    2017.0495  0.046548727  0.046033216            6 
 3612000   0.67708654   -4.4014894    2017.9658  0.046556981  0.046023191            9 
 3613000   0.67860858   -4.3720633    2009.5749   0.04635056  0.046013105            5 
 3614000   0.68642906   -4.3849579    2020.0243  0.046578683  0.046002996           14 
 3615000   0.66366538    -4.385715    2012.8063  0.046399407  0.045992918            4 
 3616000   0.67441163   -4.3795869    2017.3586  0.046491487  0.045982934            5 
 3617000   0.67482246   -4.4011321     2012.116  0.046357847  0.045972872            8 
 3618000   0.66866566   -4.4030493    2018.1326  0.046483614  0.045962802            7 
 3619000   0.67656493   -4.3932629    2023.0477  0.046583949  0.045952747           10 
 3620000   0.66537798   -4.3618857    2019.9668  0.046500157   0.04594267            8 
 3621000   0.66837999    -4.384346    2020.5125  0.046499873  0.045932586            7 
 3622000   0.68798301   -4.3994066    2008.1601  0.046202838  0.045922433            6 
 3623000   0.68323217   -4.3761017    2020.9463  0.046484183  0.045912334            9 
 3624000    0.6653226   -4.3881503    2018.1942  0.046408071  0.045902336            5 
 3625000   0.67478325   -4.3761266    2014.4639  0.046309515  0.045892348           14 
 3626000   0.68068971   -4.3665135    2022.2809  0.046476395  0.045882322            7 
 3627000   0.66953587   -4.3825454    2020.2832  0.046417683  0.045872319            6 
 3628000   0.66321315   -4.3657848     2021.187  0.046425649  0.045862202            5 
 3629000   0.65540431   -4.3864369    2015.0162  0.046271153  0.045852124            5 
 3630000   0.67550559   -4.3766256    2018.1614   0.04633061  0.045842076            4 
 3631000   0.68490816   -4.3867979    2016.9654  0.046290402  0.045831998            4 
 3632000   0.67768431   -4.3956518    2013.3712   0.04619519   0.04582192            7 
 3633000   0.68025688   -4.3526517    2020.0374  0.046335384  0.045811906            8 
 3634000   0.67816958   -4.3514582     2025.101   0.04643875  0.045801926            5 
 3635000   0.67603704   -4.3891669    2020.2067  0.046313772  0.045791897            6 
 3636000   0.66721627   -4.3868355    2020.0491  0.046297422  0.045781846            6 
 3637000   0.65203208   -4.3867484     2013.715  0.046139561  0.045771825            5 
 3638000   0.67238571   -4.3972672    2016.6964  0.046195172   0.04576178           12 
 3639000   0.68316857    -4.381592    2022.6227   0.04631819   0.04575175            7 
 3640000   0.68086914   -4.4030384    2011.8519  0.046058881  0.045741633            9 
 3641000   0.65371204    -4.378609    2015.1534  0.046121794  0.045731451            8 
 3642000   0.66917603    -4.384089    2028.3407  0.046410872  0.045721391            5 
 3643000   0.66294368   -4.3867333    2018.6117  0.046175581  0.045711364            6 
 3644000   0.67073885   -4.3869556    2018.3252  0.046156357   0.04570134            8 
 3645000   0.67705119   -4.4134256     2021.076  0.046206583  0.045691338            7 
 3646000   0.66253771   -4.3736759      2021.29  0.046198801  0.045681385            6 
 3647000   0.65369271   -4.3766006    2019.8253  0.046152666  0.045671388            3 
 3648000   0.67033254   -4.3943942    2028.2435  0.046332316  0.045661382            5 
 3649000   0.67955618   -4.3824347    2024.0397  0.046223616  0.045651394            9 
 3650000   0.66956071   -4.4136816    2024.9676  0.046232136  0.045641366            8 
 3651000   0.65494005   -4.3973341     2023.037  0.046175408  0.045631382           10 
 3652000   0.67032666   -4.3877431    2023.4991  0.046173308  0.045621419            6 
 3653000   0.66859512   -4.3734456    2021.8347  0.046122701  0.045611409            6 
 3654000   0.67213487   -4.4110437    2021.1513  0.046094492  0.045601406            5 
 3655000   0.65990286   -4.4018065    2021.8897  0.046098716  0.045591448            6 
 3656000   0.66728952    -4.394821    2026.0968  0.046182001   0.04558151           30 
 3657000   0.68324923   -4.3853891    2028.9889  0.046235278  0.045571634            6 
 3658000   0.66354551   -4.3806531    2022.7157  0.046079727  0.045561729           11 
 3659000   0.66195553   -4.3614277    2026.9109  0.046162678  0.045551765           10 
 3660000   0.68703202   -4.3941654     2025.988  0.046129054  0.045541799            3 
 3661000    0.6634179   -4.4057172    2022.0894   0.04602771   0.04553181           12 
 3662000   0.65492179   -4.3811725    2027.0019  0.046126932    0.0455218            8 
 3663000   0.66116842   -4.3816292    2024.8549  0.046065495  0.045511785            5 
 3664000   0.66661372   -4.4168198    2016.2879  0.045858076  0.045501775           11 
 3665000   0.66350235   -4.4192629    2025.0367  0.046044492  0.045491741            8 
 3666000   0.65745059   -4.3827418    2023.7164  0.046001918   0.04548177            9 
 3667000   0.66146064    -4.375126    2029.4864  0.046120498  0.045471827           13 
 3668000   0.65915107   -4.3970298    2026.8671  0.046048417  0.045461908           12 
 3669000   0.67118312   -4.3853218    2023.4483  0.045958215  0.045451929            5 
 3670000   0.65555879   -4.3809318    2029.0975  0.046073967  0.045441949            7 
 3671000   0.65129924   -4.3994165    2025.9199  0.045989283  0.045432034            8 
 3672000   0.67736741   -4.3846368    2027.0774  0.046003028  0.045422113           16 
 3673000   0.66046807   -4.3786789    2029.9299   0.04605522  0.045412226            5 
 3674000   0.65481031   -4.4181621    2021.5182  0.045851891  0.045402274            8 
 3675000   0.66264515    -4.415288    2020.1552  0.045808508  0.045392298           10 
 3676000   0.66028585   -4.4114998    2029.6435  0.046011143  0.045382397           12 
 3677000   0.66184802    -4.414658    2030.2806  0.046013067  0.045372432            8 
 3678000   0.66270625   -4.3838326    2022.4423  0.045822962  0.045362483            7 
 3679000   0.66487655    -4.408858    2023.0187  0.045823565  0.045352527            8 
 3680000   0.66433654   -4.4168471    2023.0272  0.045811305   0.04534254            8 
 3681000   0.67221285   -4.4095964    2027.2087  0.045893522  0.045332584            8 
 3682000    0.6362227   -4.4063747    2024.1428  0.045811669  0.045322576            7 
 3683000   0.65464973   -4.4108887    2025.3015  0.045825448  0.045312634           10 
 3684000   0.66944878   -4.4276217    2025.2003   0.04581072  0.045302709           22 
 3685000   0.65438712   -4.3874926    2025.7067  0.045809741  0.045292714           19 
 3686000   0.65399408   -4.4036229     2029.693  0.045887435  0.045282797            8 
 3687000   0.66565548   -4.4097182    2029.7469  0.045876207  0.045272875            4 
 3688000   0.65373437   -4.4157756    2023.7742   0.04572881  0.045262907            5 
 3689000   0.66132158    -4.427753    2024.4704  0.045732141  0.045252984            9 
 3690000   0.65886094   -4.3963021     2025.962  0.045753432  0.045243032            7 
 3691000   0.65626522   -4.4034101    2032.9287  0.045898326  0.045233121            6 
 3692000   0.64817502   -4.3989646    2026.2251  0.045734586  0.045223198           12 
 3693000   0.66159916   -4.4019884    2034.8528  0.045916888  0.045213265           20 
 3694000     0.662786   -4.4330529    2025.7191  0.045698411  0.045203362           19 
 3695000    0.6575961   -4.4003819    2030.5415  0.045794802   0.04519345            8 
 3696000   0.64592876   -4.4347921     2027.048  0.045703642  0.045183439           10 
 3697000   0.65644568   -4.4123932    2025.5759  0.045658099  0.045173464            7 
 3698000     0.665524   -4.3917146    2027.5598  0.045690458  0.045163563           12 
 3699000   0.65887586   -4.4338777    2027.7708   0.04568286  0.045153636            7 
 3700000   0.66013159   -4.4240418    2028.5612  0.045688315  0.045143706            9 
 3701000    0.6798478   -4.4081272    2023.8129  0.045569055  0.045133739           11 
 3702000   0.66357418   -4.3913556    2030.4417  0.045705962  0.045123889            8 
 3703000   0.64667808   -4.4106755    2029.8915  0.045681239  0.045114051            9 
 3704000   0.66750188   -4.4184743    2031.4605  0.045704206  0.045104216            8 
 3705000   0.64498007   -4.4064836    2031.1899  0.045685782   0.04509439           15 
 3706000   0.66395318   -4.4060502    2034.2918  0.045743204  0.045084463           20 
 3707000   0.65619344   -4.4044461     2032.901  0.045699599  0.045074572            9 
 3708000   0.65052432   -4.4189063    2030.2353  0.045627365  0.045064681            5 
 3709000   0.66195825   -4.4229809    2037.5009  0.045778308   0.04505485            9 
 3710000   0.63684739   -4.3920488    2033.8279  0.045683466  0.045044984           24 
 3711000   0.66101713   -4.4384104     2032.593  0.045643426  0.045035131           10 
 3712000   0.66332365     -4.40599    2037.7326  0.045746511  0.045025327           14 
 3713000   0.66899317   -4.4029885    2031.0254  0.045583657  0.045015517            4 
 3714000   0.65299272   -4.3958406    2031.8269  0.045589368  0.045005718            6 
 3715000   0.64677209   -4.4171226    2032.2692  0.045587017  0.044995861            7 
 3716000   0.65525837   -4.4021369    2033.0725  0.045592762   0.04498607            9 
 3717000   0.66553721   -4.4268484    2031.8189  0.045552392  0.044976192           15 
 3718000   0.67085732    -4.429303    2034.4982  0.045600193  0.044966363           10 
 3719000   0.66551345   -4.4191348    2036.8899  0.045641523  0.044956553            8 
 3720000   0.64751155   -4.4073541    2036.3464  0.045617079  0.044946741           14 
 3721000   0.66481679    -4.418293    2034.4986  0.045563437  0.044936968            9 
 3722000   0.66253917   -4.3905057    2032.6541  0.045509899  0.044927192            7 
 3723000   0.66329481   -4.4287706    2035.8347  0.045568866  0.044917418            8 
 3724000   0.64264242   -4.4333543    2035.2181  0.045542832  0.044907614           11 
 3725000   0.65460468   -4.3840295    2035.4841  0.045536558  0.044897751            7 
 3726000   0.65567173   -4.4089041    2037.7413  0.045574818  0.044887918            5 
 3727000   0.64361219   -4.4160573    2039.2418  0.045596141  0.044878124           14 
 3728000   0.67060579   -4.4251453    2033.7784  0.045461786  0.044868248            6 
 3729000   0.66321555   -4.4248194    2034.9736  0.045476302  0.044858459            6 
 3730000    0.6706577   -4.4227524    2034.9837  0.045464337  0.044848665            8 
 3731000   0.67000913   -4.4196862    2031.5156   0.04537469  0.044838794           11 
 3732000   0.64548687   -4.4252113    2032.4757  0.045383971  0.044828901           11 
 3733000   0.65935233   -4.4247864    2028.4461  0.045281857   0.04481903            5 
 3734000    0.6558445   -4.4120937     2031.298  0.045333378  0.044809218           13 
 3735000   0.65150418   -4.4122961    2039.1187  0.045495731  0.044799335           11 
 3736000   0.62955137    -4.418939    2030.7474  0.045296829  0.044789461            6 
 3737000   0.65096528    -4.385357    2040.9972  0.045513273  0.044779576            9 
 3738000   0.64713188   -4.4228552    2035.0009  0.045367418  0.044769764            7 
 3739000   0.66285766   -4.4139924     2036.714  0.045393466  0.044759904            9 
 3740000   0.65544503    -4.455276    2028.5717  0.045199905   0.04475001            8 
 3741000   0.65912269   -4.4259966    2035.0438  0.045331992  0.044740015            7 
 3742000   0.63399366   -4.4142101    2040.2713  0.045436293  0.044730132            6 
 3743000   0.64169995    -4.439251    2036.4784   0.04533971  0.044720277            9 
 3744000   0.64800733   -4.4081862    2036.8203  0.045335209  0.044710391            6 
 3745000   0.64172107   -4.4264836    2035.8467  0.045301439  0.044700505           16 
 3746000   0.66140518   -4.4289532    2037.0574   0.04531628  0.044690627            9 
 3747000   0.66321454   -4.4209806    2032.4573  0.045201879  0.044680792            6 
 3748000   0.66116901   -4.4327161    2037.0762  0.045292517  0.044670917           11 
 3749000   0.65110269   -4.4254357    2038.3647  0.045309077  0.044661017            7 
 3750000   0.63880447   -4.4120114    2037.2472  0.045272161  0.044651171           17 
 3751000   0.64545458   -4.4276016    2035.2645  0.045216043  0.044641364           11 
 3752000   0.65376587   -4.4133534    2032.4084  0.045140556  0.044631472            4 
 3753000   0.65060641   -4.4118102    2038.0476  0.045253744  0.044621615            4 
 3754000   0.65995724   -4.4141929    2042.3703  0.045337646  0.044611777            6 
 3755000   0.64644113   -4.4303973    2035.4698  0.045172432  0.044601961           11 
 3756000   0.64813545   -4.3982937    2045.3709  0.045380079  0.044592194           10 
 3757000   0.65579084   -4.4233978    2040.7466   0.04526543  0.044582439            6 
 3758000   0.65407829   -4.4228066    2040.1026  0.045239104  0.044572655            8 
 3759000   0.64534247   -4.4377588    2038.8161  0.045198547   0.04456281           10 
 3760000   0.64805729   -4.4038879    2036.0929  0.045126172  0.044552995           10 
 3761000   0.66402577    -4.425904    2039.8918  0.045198348  0.044543242            7 
 3762000   0.64148025   -4.4272157    2040.0391  0.045189596  0.044533427           22 
 3763000   0.65237778   -4.4135789    2034.7647  0.045060782   0.04452356           15 
 3764000   0.65079127   -4.4244254    2037.8086  0.045116201  0.044513715            8 
 3765000   0.65536311   -4.4066547    2036.3781  0.045072556  0.044503887            4 
 3766000   0.65267853   -4.4105968    2041.5974  0.045176079  0.044494078           19 
 3767000   0.65774134   -4.4485866    2038.6698  0.045099324  0.044484176            5 
 3768000   0.64998695   -4.4020805    2042.6456  0.045175282  0.044474354           10 
 3769000   0.65526596   -4.4048656     2042.758  0.045165783   0.04446451            9 
 3770000   0.65240558   -4.4311175    2037.6782  0.045041516   0.04445467            4 
 3771000   0.64659929   -4.4321481     2034.689  0.044963517  0.044444772            3 
 3772000   0.64003296   -4.4426498    2030.5157  0.044859395  0.044434792            6 
 3773000   0.63946719   -4.4080165    2041.2287  0.045084121  0.044424906           10 
 3774000   0.64292625   -4.4205057     2035.012  0.044934905  0.044415006           10 
 3775000    0.6531997   -4.4182241    2041.1598  0.045058715  0.044405145            5 
 3776000   0.66433071   -4.4178857    2039.2746  0.045005178  0.044395197            6 
 3777000   0.65306134    -4.420312    2037.3043  0.044949789  0.044385283            6 
 3778000   0.66500744    -4.428617    2038.4096  0.044962274   0.04437539           11 
 3779000    0.6591058   -4.4244959    2043.9575  0.045072716  0.044365526           18 
 3780000   0.65083196   -4.4128397    2038.8564  0.044948333  0.044355664            7 
 3781000   0.65663992   -4.4239894    2035.3044  0.044858159  0.044345714           10 
 3782000   0.63506931   -4.4347798    2033.0614  0.044796877  0.044335718            7 
 3783000   0.64869863   -4.4515163    2039.6743  0.044930705  0.044325787            8 
 3784000    0.6402929   -4.4162388    2034.7206  0.044809739  0.044315867            6 
 3785000   0.64825444   -4.4498631    2032.9258  0.044758383   0.04430586           19 
 3786000   0.64474701   -4.4466792    2036.4035  0.044823109  0.044295854           12 
 3787000   0.64480779   -4.4284286    2035.1937  0.044784651  0.044285917            7 
 3788000   0.64203355   -4.4231962    2041.6764  0.044915444  0.044275959            7 
 3789000   0.63582159   -4.4461134    2034.9258  0.044755119   0.04426603            9 
 3790000   0.64570881   -4.4416102    2034.5182  0.044734349  0.044256106            3 
 3791000   0.64441858   -4.4237757    2032.4347   0.04467675  0.044246158            4 
 3792000   0.64430047   -4.4413465    2034.5737  0.044711974   0.04423626           22 
 3793000   0.63830943   -4.4240027    2036.8581  0.044750377  0.044226346           10 
 3794000   0.63839516   -4.4233993    2033.7797  0.044670965  0.044216341            7 
 3795000    0.6428694   -4.4312077    2038.6603  0.044766367   0.04420636            5 
 3796000   0.64515622   -4.4283087    2037.4103  0.044727132  0.044196406           11 
 3797000   0.62913339    -4.443731    2036.8959  0.044704062  0.044186381           10 
 3798000      0.65041   -4.4273804    2041.4141  0.044791428  0.044176423           16 
 3799000   0.65079407   -4.4386523    2043.5146  0.044825713  0.044166529            6 
 3800000   0.63031419   -4.4416206    2036.3698  0.044657233  0.044156573            6 
 3801000   0.63736837   -4.4245788    2033.6236  0.044585277   0.04414662            8 
 3802000   0.63397168   -4.4711352    2031.0746   0.04451768  0.044136639            6 
 3803000    0.6639438   -4.4484763    2041.7538  0.044739981  0.044126635            9 
 3804000   0.64692893   -4.4504082    2036.1581  0.044605638  0.044116649           12 
 3805000   0.66346962   -4.4330189    2041.8529  0.044718635  0.044106657            5 
 3806000   0.64495874   -4.4280849    2040.4956  0.044677167   0.04409666           12 
 3807000   0.63214998   -4.4102017    2038.2875  0.044617097  0.044086627            5 
 3808000   0.65297487   -4.4392217    2037.6644  0.044591745  0.044076689            7 
 3809000   0.65073396   -4.4365866    2036.2339  0.044548742  0.044066662            4 
 3810000   0.64667996   -4.4224762    2035.4409  0.044519704  0.044056672            7 
 3811000   0.63041069   -4.4660159    2037.9379  0.044562624  0.044046649            7 
 3812000   0.63746363   -4.4464212    2035.4043  0.044495547  0.044036518           11 
 3813000   0.64201474   -4.4281713    2038.7316  0.044556596  0.044026502            8 
 3814000   0.64847964   -4.4253464    2037.5284  0.044518624  0.044016448            8 
 3815000   0.64743868   -4.4481254    2035.7927  0.044469041  0.044006457           25 
 3816000   0.64833502    -4.448675    2031.9343  0.044373129  0.043996413           31 
 3817000   0.63896207   -4.4424695    2036.4098  0.044459213   0.04398638            6 
 3818000   0.64170682   -4.4490755    2035.1672  0.044420448  0.043976342            7 
 3819000    0.6288742   -4.4352557    2037.6735  0.044463505  0.043966259            5 
 3820000    0.6411836   -4.4555168    2033.0231  0.044350417  0.043956198            3 
 3821000   0.63814409    -4.434417    2036.7636  0.044420386  0.043946157            8 
 3822000   0.63320603    -4.445711    2040.3092  0.044486072  0.043936139           11 
 3823000   0.63287045    -4.445732    2036.4609   0.04439055  0.043926011           14 
 3824000   0.63347378   -4.4296345    2031.5186  0.044271239  0.043915929           10 
 3825000   0.63550879   -4.4530892    2034.5866  0.044326505  0.043905836            6 
 3826000   0.62447864   -4.4586895    2034.2298  0.044307148  0.043895739            7 
 3827000   0.63171513   -4.4403272    2040.7956  0.044438542  0.043885723           13 
 3828000   0.64219533   -4.4557654    2036.5632  0.044334797  0.043875623           10 
 3829000   0.62763518   -4.4486974    2037.2258  0.044337638  0.043865571            9 
 3830000   0.62311015   -4.4594527    2030.5579  0.044180982  0.043855522            5 
 3831000   0.63307826   -4.4377394    2037.4802  0.044320025  0.043845365            7 
 3832000   0.63126454   -4.4649216    2036.4557   0.04428618  0.043835281            7 
 3833000   0.63003114   -4.4633825    2036.9105  0.044284513  0.043825188           20 
 3834000   0.61616598   -4.4433287    2040.0964  0.044342211  0.043815107            7 
 3835000   0.62418174   -4.4561188    2034.7282  0.044213999  0.043805055            8 
 3836000   0.63967341   -4.4302264    2039.8022  0.044312699    0.0437951           17 
 3837000    0.6472684   -4.4424841    2040.7938  0.044322687  0.043785152           14 
 3838000    0.6421036   -4.4479081    2038.7151  0.044266004  0.043775165            7 
 3839000   0.63246181   -4.4353926    2038.7118  0.044254402  0.043765127            7 
 3840000   0.64668041   -4.4194193    2039.2743  0.044255084   0.04375511           19 
 3841000   0.64075432   -4.4506295    2034.3121  0.044135905  0.043745102           16 
 3842000   0.62949507   -4.4371723    2038.6618  0.044218763  0.043734978           15 
 3843000   0.62736402   -4.4694475      2038.97  0.044213938  0.043724924           15 
 3844000   0.63476578   -4.4393046    2043.3614  0.044297637  0.043714871            9 
 3845000   0.63990486   -4.4802302    2038.4417  0.044179491   0.04370483            8 
 3846000   0.62830956    -4.461459    2039.1094  0.044182472  0.043694772            9 
 3847000   0.63284592   -4.4378098    2044.2769  0.044282925   0.04368478            6 
 3848000   0.62332535    -4.450764    2039.1154  0.044159638  0.043674744            6 
 3849000   0.62231835   -4.4440206    2034.8115  0.044054983  0.043664697            5 
 3850000   0.63951254   -4.4784856    2041.1937  0.044181682  0.043654688            8 
 3851000   0.64120174   -4.4507451    2040.6933   0.04415938  0.043644688            9 
 3852000   0.63003426   -4.4606456    2037.1657  0.044071602  0.043634614           10 
 3853000    0.6549483   -4.4579797     2037.293  0.044062917  0.043624606           10 
 3854000   0.63061938   -4.4711168    2037.8212  0.044062905  0.043614573           11 
 3855000   0.63888955   -4.4446207    2037.5211  0.044044988  0.043604515            6 
 3856000   0.64075787   -4.4579718    2041.3081  0.044115406   0.04359446            9 
 3857000    0.6390309    -4.462445    2046.9324  0.044225487  0.043584452           20 
 3858000   0.63583179   -4.4551248    2036.9364  0.043998109  0.043574455            6 
 3859000   0.62851995   -4.4751134    2039.0221  0.044031746  0.043564474            9 
 3860000    0.6425533   -4.4571731    2041.1744  0.044066806  0.043554419            6 
 3861000   0.62882637   -4.4468578    2040.5885  0.044042745  0.043544428            5 
 3862000   0.62439853   -4.4628726    2040.1907  0.044022758  0.043534428           10 
 3863000   0.63910603   -4.4614818    2042.7699  0.044067002  0.043524456           11 
 3864000   0.62138181   -4.4543822     2039.334  0.043981496  0.043514452            8 
 3865000   0.62619466   -4.4615271    2038.2668  0.043947106  0.043504421           13 
 3866000   0.62383727   -4.4694611    2043.4923  0.044048376  0.043494406            4 
 3867000    0.6251887   -4.4619864    2038.0504  0.043919714  0.043484395            8 
 3868000   0.63689679   -4.4599924    2033.9228  0.043819434  0.043474389            6 
 3869000   0.64038581   -4.4742849    2043.0688    0.0440051  0.043464327            7 
 3870000   0.62865304   -4.4729558    2037.2502  0.043868437   0.04345431           13 
 3871000   0.63510951   -4.4584133    2039.3559  0.043902434  0.043444302           10 
 3872000   0.62270732   -4.4781247     2037.839  0.043858449  0.043434195            5 
 3873000    0.6298285   -4.4486696     2038.632  0.043864188  0.043424157           11 
 3874000   0.62028816   -4.4793364    2043.4493   0.04395649  0.043414095            7 
 3875000    0.6265269   -4.4663672    2039.5247  0.043860746  0.043404073            7 
 3876000   0.65056971   -4.4570349    2040.1823  0.043863568  0.043394049           10 
 3877000   0.65303283   -4.4630049    2041.5053  0.043880691  0.043384038            9 
 3878000   0.64375777   -4.4690364    2038.8364  0.043812025   0.04337408            8 
 3879000   0.63295748   -4.4578651    2042.3306  0.043875798  0.043364033           10 
 3880000     0.629921   -4.4628436    2045.7605  0.043938156  0.043354055            3 
 3881000   0.63082937   -4.4687379    2044.2766  0.043894972  0.043344058           10 
 3882000   0.64012033   -4.4534389    2041.6989  0.043828329  0.043334056           12 
 3883000   0.63797614   -4.4628878    2040.1028  0.043782788  0.043324001           21 
 3884000   0.64223846   -4.4634093    2039.4173  0.043756809  0.043313932           13 
 3885000   0.63173861   -4.4749001    2039.7108   0.04375184  0.043303886           21 
 3886000   0.62410571   -4.4717223    2039.8846  0.043744309  0.043293836           16 
 3887000   0.62021438   -4.4699426    2040.8214  0.043753138  0.043283765            7 
 3888000   0.62994685    -4.464072    2043.1494  0.043791783   0.04327372           15 
 3889000   0.62481705   -4.4602202    2036.2083  0.043631787   0.04326368           11 
 3890000   0.62785839   -4.4676006    2044.1918  0.043791598  0.043253649           14 
 3891000   0.62189334   -4.4741036    2037.7682  0.043642769  0.043243649            6 
 3892000   0.63849682   -4.4549924    2037.6203   0.04362839  0.043233547           12 
 3893000    0.6331046   -4.4544598    2041.5057  0.043700354   0.04322351            5 
 3894000   0.62624659   -4.4591648    2037.6355  0.043606307  0.043213421            6 
 3895000   0.63519477    -4.450526    2044.4242  0.043740355  0.043203444            6 
 3896000   0.63879454   -4.4695387    2036.2997   0.04355535  0.043193465           10 
 3897000   0.62236425   -4.4541158     2047.139  0.043775961  0.043183491            4 
 3898000   0.61155945   -4.4672186    2044.7233  0.043713085  0.043173488            4 
 3899000   0.61448403   -4.4435695     2043.002  0.043665086  0.043163486            4 
 3900000   0.63020721    -4.456596    2051.5794  0.043837166  0.043153481            9 
 3901000   0.64709666   -4.4804434    2043.8062  0.043659877  0.043143542           12 
 3902000   0.62849509   -4.4590971    2043.9494  0.043651747  0.043133595           17 
 3903000    0.6450395   -4.4610775    2046.1656  0.043687881  0.043123627           16 
 3904000   0.63227865   -4.4695871    2038.4186  0.043511327   0.04311365           39 
 3905000    0.6169641   -4.4677403     2044.292  0.043625522  0.043103664           19 
 3906000   0.62610496   -4.4545472    2042.3772  0.043573502  0.043093696           12 
 3907000   0.62541017   -4.4589497     2043.382   0.04358378  0.043083795            5 
 3908000     0.630417   -4.4523637    2046.0425  0.043629361  0.043073852            7 
 3909000   0.62570097   -4.4771978    2044.7077  0.043589743  0.043063921           16 
 3910000   0.63729912   -4.4452949    2045.6734  0.043599177  0.043053945            8 
 3911000   0.62522837   -4.4602703    2048.6853  0.043652205  0.043044002            8 
 3912000   0.62736932   -4.4775368    2046.5389  0.043595325  0.043034077           12 
 3913000   0.62030209   -4.4509161    2043.6363  0.043522369    0.0430241            5 
 3914000    0.6277334   -4.4720599    2045.9245  0.043559966  0.043014155            8 
 3915000    0.6165326   -4.4664009    2042.9284  0.043485065  0.043004242           10 
 3916000   0.61929486   -4.4871884    2040.8788  0.043430345  0.042994335           22 
 3917000   0.62976442   -4.4577794    2044.8479  0.043503699  0.042984342           12 
 3918000    0.6193013   -4.4619566    2049.9117  0.043600299  0.042974394           11 
 3919000   0.62467182   -4.4739565    2039.2545  0.043362562  0.042964373            9 
 3920000   0.63812657   -4.4718221    2051.5914  0.043613764  0.042954451           11 
 3921000   0.63271345   -4.4862192    2045.3892  0.043470824    0.0429445           11 
 3922000   0.62118677   -4.4910159    2050.4684  0.043567661  0.042934576            5 
 3923000   0.62241611   -4.5066846    2042.7793  0.043393222  0.042924559           13 
 3924000   0.61212927   -4.5052858    2046.5425  0.043462081  0.042914565            8 
 3925000   0.62551552   -4.4695243    2045.5869   0.04343072  0.042904553            5 
 3926000   0.63523241   -4.4713884    2040.0919  0.043303021  0.042894572            7 
 3927000   0.62953838   -4.4825832    2037.7268  0.043241804  0.042884619           10 
 3928000   0.62630091    -4.477249    2051.1067  0.043514653   0.04287467            8 
 3929000   0.62018083   -4.4755658    2050.0397  0.043480948  0.042864725           13 
 3930000   0.61600954   -4.4814925    2049.7405  0.043463538  0.042854784            7 
 3931000   0.62734546   -4.4674482    2045.9052  0.043371179  0.042844851            6 
 3932000   0.61725043   -4.4688936    2047.4157  0.043392161  0.042834962            6 
 3933000   0.61762692   -4.4879129    2045.9732  0.043350563  0.042825067            7 
 3934000   0.61219098   -4.4976402    2049.1198  0.043406198  0.042815116           12 
 3935000    0.6144095   -4.4775108    2043.4771  0.043275669  0.042805184            7 
 3936000   0.62067191   -4.5030948    2044.7923  0.043292519  0.042795186            9 
 3937000   0.62225628   -4.4709691    2049.6329  0.043383983  0.042785265           12 
 3938000   0.61221737   -4.4811675    2047.6863  0.043331773  0.042775288           13 
 3939000   0.62167331   -4.4801095    2044.2934  0.043248992   0.04276536           16 
 3940000   0.63166051   -4.4957379    2044.6639  0.043245853  0.042755406           12 
 3941000   0.61918436   -4.4980615    2045.2691  0.043247675  0.042745452            6 
 3942000   0.63183628   -4.4994418    2046.9937  0.043273164  0.042735512            6 
 3943000   0.61687279   -4.4661591    2055.9764  0.043452033  0.042725607            5 
 3944000   0.63296814   -4.4772281    2045.2844  0.043215104  0.042715728            5 
 3945000   0.61542816   -4.4940467    2047.1938  0.043244483  0.042705733           20 
 3946000   0.61454248   -4.4732639    2046.3935  0.043216623  0.042695837            7 
 3947000   0.62417831   -4.4870316    2047.8531  0.043236489  0.042685932           10 
 3948000   0.63145531   -4.4776827    2055.6593   0.04339031  0.042676077           12 
 3949000   0.62030634   -4.4872264    2054.1749  0.043347997  0.042666186            8 
 3950000   0.62535732   -4.5067853    2049.5417  0.043239276  0.042656344            7 
 3951000   0.63664766   -4.4912541    2045.9815  0.043153242  0.042646511            4 
 3952000   0.62665362   -4.4610132    2054.3123   0.04331799  0.042636646            8 
 3953000   0.63866975   -4.4870521    2051.1131  0.043239588  0.042626833            4 
 3954000   0.62005963     -4.48018     2046.496  0.043131344  0.042617011           11 
 3955000   0.62303164    -4.509947    2045.1676  0.043092449  0.042607115            9 
 3956000   0.62642116   -4.4742653    2051.3489  0.043211765  0.042597229           12 
 3957000   0.61652884   -4.4827218    2048.4458  0.043139705   0.04258734           10 
 3958000   0.62397527   -4.4854894    2051.2363  0.043187559  0.042577461           19 
 3959000    0.6373837   -4.4881054    2050.1121  0.043152987  0.042567618           13 
 3960000   0.62449721   -4.5000243    2048.8286  0.043115079  0.042557707           10 
 3961000    0.6145546   -4.5036189    2043.4535  0.042991111  0.042547822           11 
 3962000   0.61933338   -4.4740806    2053.7354  0.043196522  0.042537962           12 
 3963000   0.61581163   -4.4910622    2051.1663  0.043131598  0.042528107           10 
 3964000   0.62276662     -4.50786    2051.6097  0.043130038  0.042518217           16 
 3965000   0.61525329   -4.4994761    2045.8384  0.042997864  0.042508323            6 
 3966000   0.62198131   -4.4854741    2049.0096  0.043053657  0.042498397           16 
 3967000   0.62149032   -4.4935201    2049.4786  0.043052654  0.042488477            7 
 3968000   0.62358374   -4.4659873    2051.6802  0.043088043   0.04247858           13 
 3969000   0.61872095   -4.5050001    2047.2195  0.042983528  0.042468669            6 
 3970000   0.61145527   -4.4913272    2050.8114  0.043048099  0.042458736            4 
 3971000    0.6133872   -4.4965486    2050.9191  0.043039518  0.042448784           10 
 3972000     0.623897   -4.4958625    2046.8295  0.042942881  0.042438888            6 
 3973000   0.60500528   -4.4868834    2053.1832  0.043065342   0.04242898           11 
 3974000   0.61132418   -4.5122023    2047.4661  0.042934619  0.042419063           11 
 3975000   0.61515582   -4.4953889    2049.3077  0.042962425  0.042409132           19 
 3976000   0.61359345     -4.49663    2047.3441  0.042910464  0.042399203           12 
 3977000   0.62773432   -4.5017302    2051.2289  0.042981076  0.042389253           12 
 3978000   0.62417869   -4.4882797    2049.2775  0.042929392  0.042379269            6 
 3979000   0.62836654   -4.4827257    2046.4423  0.042859225  0.042369288           12 
 3980000   0.61322593    -4.490431    2049.6608  0.042915847  0.042359319            9 
 3981000   0.62188203   -4.4712112    2056.2486  0.043042966    0.0423495            9 
 3982000   0.59718408     -4.47338    2049.2856  0.042886439  0.042339655            6 
 3983000   0.61117032    -4.494923    2051.2853   0.04291751  0.042329733            9 
 3984000   0.60347494   -4.4876977    2053.8375  0.042960123  0.042319827            9 
 3985000   0.61339211   -4.5216569    2042.5413  0.042713117  0.042309886            7 
 3986000   0.62846269   -4.4975502    2050.4544  0.042867838  0.042300001           10 
 3987000   0.61142298   -4.4856429    2053.5885  0.042922593  0.042290164            8 
 3988000   0.61928972   -4.4752745    2052.8545  0.042896491  0.042280327           15 
 3989000   0.59976918   -4.5125564     2049.971    0.0428255   0.04227048           11 
 3990000   0.61228982   -4.4785808     2050.263  0.042820865  0.042260603            7 
 3991000   0.60120784   -4.4885204    2053.5283  0.042878316  0.042250736           12 
 3992000   0.61816322    -4.484563    2054.0398  0.042878252  0.042240928            7 
 3993000     0.595994   -4.4943097    2050.6236  0.042796219  0.042231044           11 
 3994000   0.60542109   -4.5024032    2057.3133  0.042925081  0.042221178           10 
 3995000    0.6105618   -4.4975287    2049.8499  0.042758655  0.042211319           12 
 3996000   0.61391325   -4.5008907    2046.9689  0.042687873   0.04220144           14 
 3997000   0.61562845   -4.4980022    2048.4778  0.042708652  0.042191546            9 
 3998000   0.61455125   -4.4997913    2051.0309  0.042751187  0.042181633            9 
 3999000   0.61131524   -4.5083478    2053.4507  0.042790922  0.042171755            5 
 4000000   0.61390564   -4.4667187    2054.0773  0.042793278  0.042161904           20 
 4001000   0.61316332   -4.5008769    2048.9659   0.04267612  0.042152102            4 
 4002000   0.61882366   -4.4910352    2057.5854  0.042844941   0.04214227           25 
 4003000   0.60385921   -4.4743701    2054.4212  0.042768365  0.042132483           12 
 4004000   0.61168457   -4.5081136    2056.1593  0.042793857  0.042122684           16 
 4005000   0.62084659   -4.5043704    2052.1705  0.042700177  0.042112821            9 
 4006000   0.59887461   -4.5106888    2049.1291  0.042626251   0.04210296            4 
 4007000   0.61043155   -4.5268383    2051.2894   0.04266054  0.042093055           10 
 4008000   0.60048935   -4.5006853    2053.1006  0.042687553  0.042083139           14 
 4009000   0.60088439   -4.5038563    2053.0998   0.04267689  0.042073257           29 
 4010000   0.60907682   -4.4877435    2048.5822  0.042572364  0.042063358            8 
 4011000   0.60158882   -4.5126836    2054.0333  0.042675004   0.04205349            9 
 4012000   0.60123566   -4.5087448    2053.0196  0.042643312  0.042043602           15 
 4013000   0.62339402   -4.5189791    2049.4173  0.042557881  0.042033735            6 
 4014000   0.61173188   -4.5067253    2054.0978  0.042644448  0.042023927           14 
 4015000   0.59957425   -4.4948411    2054.4194  0.042640503  0.042014098            7 
 4016000   0.61484836   -4.5105729    2053.5348  0.042611528  0.042004228           13 
 4017000   0.62487987   -4.5068771    2052.3184  0.042575686  0.041994372            6 
 4018000   0.61514129    -4.516834    2054.4949   0.04261023    0.0419845            7 
 4019000   0.59714471   -4.5042198    2052.5222  0.042558724  0.041974667            7 
 4020000   0.62060613   -4.5164914    2050.7805  0.042512033  0.041964797           10 
 4021000   0.62092281   -4.5073331    2054.2629  0.042573632  0.041954939           21 
 4022000   0.61828048   -4.4951422    2056.6671  0.042612861  0.041945141            6 
 4023000   0.61732484   -4.4889965    2056.5552  0.042599951  0.041935362            6 
 4024000   0.59974319   -4.4985554    2056.7625  0.042593657  0.041925586            5 
 4025000   0.61118293   -4.5139683    2047.1021  0.042383065  0.041915754            6 
 4026000   0.59739567   -4.4907448    2050.8551  0.042450222  0.041905916           22 
 4027000   0.60471531   -4.4935381    2053.6356  0.042497218  0.041896118           13 
 4028000   0.60252586     -4.49181    2055.3612  0.042522368  0.041886369           18 
 4029000   0.61584323   -4.4948069    2054.9988  0.042504319  0.041876562            9 
 4030000   0.60682077   -4.5039242    2048.5886   0.04236122  0.041866752           10 
 4031000    0.6150409   -4.5255339    2054.8402  0.042479951  0.041856901           20 
 4032000   0.59720155   -4.5048888    2053.0901  0.042433245  0.041847059           15 
 4033000   0.61807922   -4.5273173    2050.9209    0.0423779  0.041837164           23 
 4034000   0.61097511   -4.5211386    2053.2384  0.042415271  0.041827305           11 
 4035000   0.60245613    -4.511789    2054.9006  0.042439088  0.041817456           13 
 4036000   0.60300488   -4.5175224    2049.9534  0.042326424  0.041807614           10 
 4037000   0.59512967   -4.5082241    2057.4252  0.042470176   0.04179768           13 
 4038000   0.62573924   -4.5259941    2050.7665  0.042322241  0.041787808            7 
 4039000    0.6023133   -4.5126991    2053.0408  0.042358686  0.041777977            9 
 4040000    0.6150654   -4.5093527    2057.1116   0.04243217  0.041768164           12 
 4041000   0.59171692   -4.5007957     2055.861   0.04239588   0.04175836            6 
 4042000   0.60391231   -4.5349546    2052.2743  0.042311444  0.041748478           14 
 4043000   0.61196508   -4.5034958    2055.6698  0.042370966  0.041738678            7 
 4044000   0.60130304   -4.5331363    2055.5404  0.042357823  0.041728874           15 
 4045000   0.60542682   -4.5308544    2053.9332   0.04231424  0.041718987           35 
 4046000   0.60565562   -4.5217374    2054.5226  0.042315921  0.041709131            8 
 4047000   0.61081626   -4.5106333    2049.3407  0.042198762  0.041699251           12 
 4048000   0.59541744   -4.5375508    2050.1977   0.04220598  0.041689342           10 
 4049000   0.60154022   -4.5038108    2052.9591  0.042252389   0.04167942           30 
 4050000   0.59964561   -4.5164549     2049.833  0.042177634   0.04166955           12 
 4051000   0.60619697   -4.5228474    2053.4212  0.042241035  0.041659764           11 
 4052000   0.60676047   -4.5276243    2049.3519  0.042146922  0.041649919            8 
 4053000    0.5792625   -4.5040566    2052.8687   0.04220883  0.041640032            8 
 4054000   0.60004016   -4.5231194    2053.2913  0.042207106  0.041630236            9 
 4055000   0.59781103   -4.5185955    2053.3149  0.042197182  0.041620391           12 
 4056000   0.59305672   -4.5364607    2051.2182  0.042143702  0.041610513           19 
 4057000   0.60410754   -4.5208332    2053.9508  0.042189443  0.041600645            9 
 4058000    0.5987895   -4.5205905    2060.4663  0.042312846  0.041590842           16 
 4059000    0.5914172   -4.4972365    2055.8329  0.042207295  0.041581045           10 
 4060000   0.60222071   -4.5247029    2052.2098  0.042122533  0.041571223           20 
 4061000   0.60021956   -4.5536797    2048.2734  0.042031385  0.041561348           30 
 4062000   0.59381668   -4.5071776    2056.6629  0.042193149   0.04155146           15 
 4063000   0.60235553   -4.5243614    2050.1903  0.042050011  0.041541548           14 
 4064000   0.61028995   -4.5175365    2053.3487  0.042104427  0.041531634           17 
 4065000   0.59940635   -4.5305536    2052.8399  0.042083639  0.041521733           20 
 4066000   0.59349853   -4.5019031    2054.1755  0.042100663    0.0415119           17 
 4067000   0.60642465   -4.5024242    2053.4236  0.042074904  0.041502037            9 
 4068000   0.59915291   -4.5241611    2052.9033  0.042053902  0.041492162            7 
 4069000   0.60212284   -4.5373273    2052.6439  0.042038254   0.04148225            8 
 4070000   0.60053569   -4.4983628      2057.78  0.042133087  0.041472361           11 
 4071000   0.60382809   -4.5119118     2057.238  0.042111642  0.041462491           20 
 4072000   0.58735953   -4.5319955     2051.749  0.041988969  0.041452604            7 
 4073000   0.59325859   -4.5194849    2051.7423  0.041978523  0.041442725           10 
 4074000   0.60689141   -4.5097144    2051.7359  0.041968088  0.041432834           27 
 4075000   0.60182423   -4.5205507    2054.3198   0.04201063  0.041422939           17 
 4076000   0.61108376    -4.546911    2043.5727    0.0417806  0.041413015           27 
 4077000   0.61227139    -4.528634    2057.5806  0.042056672  0.041403052           14 
 4078000     0.604737    -4.525917    2056.3314  0.042020831  0.041393172            8 
 4079000   0.58891584   -4.5090404    2052.6562  0.041935446  0.041383281           13 
 4080000   0.60026033   -4.5276454    2053.3991  0.041940341  0.041373395            7 
 4081000   0.60264742   -4.5244216    2049.7354  0.041855252  0.041363531           11 
 4082000   0.58938142   -4.5140158    2054.1204  0.041934518   0.04135364            8 
 4083000   0.59312722     -4.51348    2053.8455  0.041918637  0.041343766           19 
 4084000   0.59674033   -4.5343675     2053.171  0.041894608   0.04133391            4 
 4085000   0.59331671   -4.5222487     2054.708  0.041915708  0.041324071            8 
 4086000   0.59577607    -4.522834    2047.4406  0.041757231  0.041314172           13 
 4087000   0.59835297   -4.5395782    2052.1954  0.041843964  0.041304284           11 
 4088000   0.60160543   -4.5233431    2060.3047  0.041999035  0.041294425            8 
 4089000   0.60004768   -4.5129023    2053.3793  0.041847625  0.041284587           13 
 4090000   0.59495508   -4.5003447    2056.3052  0.041897008   0.04127472           14 
 4091000   0.59985743   -4.5314705    2053.0942  0.041821359  0.041264885           11 
 4092000   0.60654574   -4.5290842    2047.7801  0.041702919  0.041254985           13 
 4093000    0.5835978   -4.5389125    2048.9037  0.041715606  0.041245085           13 
 4094000   0.59200901   -4.5182683     2052.594  0.041780532  0.041235196           10 
 4095000   0.59494149   -4.5184705    2053.4627  0.041788008  0.041225341            4 
 4096000   0.59661138   -4.5262775    2055.9186  0.041827771  0.041215452           10 
 4097000   0.59616945   -4.5138141    2053.1229  0.041760697  0.041205555            8 
 4098000   0.59210542   -4.5405533    2052.1074  0.041729856  0.041195666           11 
 4099000   0.59615364   -4.5254969    2055.5239  0.041789134  0.041185709           19 
 4100000   0.59593091   -4.5350279    2051.0415  0.041687835   0.04117584            7 
 4101000   0.59529552   -4.5314259    2058.7698  0.041834711  0.041165875            6 
 4102000   0.59736831   -4.5191467    2052.7946  0.041703125  0.041155993            6 
 4103000   0.60590164   -4.5456379    2048.1975  0.041599592  0.041146105            9 
 4104000   0.59083727   -4.5310332    2049.5752  0.041617429   0.04113621           14 
 4105000   0.57859439   -4.5413728    2053.7364  0.041691767  0.041126338           11 
 4106000   0.60148706   -4.5285572    2051.8604  0.041643539  0.041116441            9 
 4107000   0.59800553   -4.5489987    2049.3029  0.041581505  0.041106517           10 
 4108000   0.59903081   -4.5311625    2050.2285  0.041590159  0.041096578           10 
 4109000   0.60080538   -4.5324057     2047.908  0.041532976  0.041086643            8 
 4110000   0.60484982   -4.5419154    2051.3617  0.041592898  0.041076716            7 
 4111000    0.5822247   -4.5498116    2049.1433  0.041537811  0.041066753           34 
 4112000   0.58162139   -4.5550096    2048.1837  0.041508262  0.041056804            7 
 4113000    0.6026673   -4.5181513    2048.0567  0.041495597  0.041046841           12 
 4114000    0.5975686   -4.5518234    2055.8919   0.04164422  0.041036907            9 
 4115000   0.60575812   -4.5205867    2057.4071  0.041664785  0.041027039           14 
 4116000   0.58164339   -4.5397236    2052.0375  0.041545948   0.04101712           11 
 4117000   0.59958595   -4.5502879    2045.0049  0.041393509  0.041007151           24 
 4118000   0.57917499   -4.5244022    2052.1024  0.041527085  0.040997228            7 
 4119000     0.596533   -4.5473822    2058.7208  0.041650902  0.040987287            9 
 4120000    0.5970995   -4.5433105     2052.994  0.041524959   0.04097736            4 
 4121000   0.58309812   -4.5470108    2053.3028  0.041521128  0.040967439           14 
 4122000     0.581284   -4.5219811    2057.5987  0.041597904  0.040957555           19 
 4123000   0.58671174   -4.5341793    2047.7742  0.041389244  0.040947641           25 
 4124000   0.59754371   -4.5444101    2048.1272  0.041386339  0.040937676           31 
 4125000   0.60815741   -4.5331458    2053.6521  0.041487921  0.040927739            9 
 4126000   0.60290893   -4.5401133    2056.4085  0.041533537  0.040917894            8 
 4127000   0.58544307   -4.5515088    2049.9197  0.041392449  0.040907984            8 
 4128000   0.59144071   -4.5301455    2055.2881  0.041490797  0.040898083            8 
 4129000   0.59317223   -4.5494792    2054.3212  0.041461234  0.040888209            8 
 4130000   0.59218386   -4.5403228    2051.2047  0.041388311  0.040878284           34 
 4131000   0.60274566   -4.5267848    2045.2287   0.04125774  0.040868348           18 
 4132000    0.5805807   -4.5687781    2046.2471  0.041268293  0.040858344           11 
 4133000   0.60030181   -4.5604132    2045.0256   0.04123368  0.040848336            8 
 4134000   0.59048238   -4.5310376    2050.6108  0.041336293  0.040838392           22 
 4135000   0.58635781   -4.5492452    2049.5645  0.041305209  0.040828468            9 
 4136000   0.58774168   -4.5508246    2053.8591  0.041381752  0.040818528            9 
 4137000   0.59477252   -4.5342901    2052.8051  0.041350517  0.040808581           10 
 4138000   0.57689713   -4.5576444     2053.291  0.041350311  0.040798639            7 
 4139000   0.59412566   -4.5583449    2050.2031  0.041278149  0.040788732           14 
 4140000   0.58951849   -4.5373771    2046.7172  0.041198011  0.040778795           11 
 4141000   0.57603683   -4.5437056    2051.4222  0.041282746  0.040768854            6 
 4142000   0.57933499   -4.5366572    2053.1943  0.041308433  0.040758937            8 
 4143000    0.5895715   -4.5455136    2048.8029  0.041210133     0.040749           30 
 4144000   0.58438753   -4.5551165    2051.9067  0.041262603  0.040739094           10 
 4145000   0.58201294   -4.5435937    2050.3202  0.041220752  0.040729177            7 
 4146000   0.58094739   -4.5533457    2052.1984   0.04124856  0.040719264           10 
 4147000   0.58615157   -4.5295643    2050.9243  0.041213012  0.040709327           12 
 4148000   0.58655457   -4.5466604    2055.4944  0.041294889  0.040699448           10 
 4149000   0.58591234   -4.5698966    2051.4339   0.04120338  0.040689584           23 
 4150000   0.57701924    -4.537489    2055.0095   0.04126525  0.040679715            7 
 4151000   0.59648895   -4.5620447    2050.6251  0.041167291  0.040669805           13 
 4152000   0.56846824   -4.5607828    2050.2729  0.041150307   0.04065989            6 
 4153000   0.58625944   -4.5385742    2053.0732  0.041196589  0.040649967            7 
 4154000   0.58273514   -4.5473385    2052.2201  0.041169557  0.040640127            5 
 4155000   0.59585452   -4.5306742    2057.4271  0.041264082  0.040630267            5 
 4156000   0.58978599   -4.5529138    2051.8208   0.04114174  0.040620374            9 
 4157000   0.59743962   -4.5498344       2054.4  0.041183547  0.040610446            6 
 4158000   0.59522026   -4.5461262    2056.8668   0.04122308  0.040600479           18 
 4159000   0.57799494   -4.5548088    2050.0443  0.041076466  0.040590554            9 
 4160000   0.58063245    -4.544088    2052.5568  0.041116923  0.040580584            7 
 4161000   0.57875745   -4.5615161    2047.1112  0.040997982  0.040570633           12 
 4162000   0.58851957   -4.5570344     2054.948  0.041145042  0.040560673           19 
 4163000   0.57516708   -4.5434192    2052.5819  0.041087795  0.040550789           10 
 4164000   0.57936358   -4.5614223    2047.8548  0.040983325  0.040540816           19 
 4165000   0.58478016   -4.5421069    2054.7691  0.041111826  0.040530861            9 
 4166000    0.5820275   -4.5622246    2053.2546  0.041071664  0.040520948           11 
 4167000   0.58111929   -4.5544562    2051.6905  0.041030527  0.040511035           10 
 4168000   0.58755676   -4.5627583     2053.692  0.041060701  0.040501114           29 
 4169000   0.60438596   -4.5281401    2054.7527  0.041072053  0.040491197           13 
 4170000   0.58201516   -4.5634679     2045.502  0.040877338  0.040481289            9 
 4171000   0.57608484   -4.5671922     2053.672  0.041030769  0.040471377            6 
 4172000   0.57997649   -4.5411611    2056.0901  0.041069234  0.040461514           10 
 4173000   0.58238049   -4.5487221    2052.3261  0.040984225  0.040451645           26 
 4174000   0.58878823   -4.5575995     2055.878  0.041045321  0.040441729           24 
 4175000   0.57747896   -4.5862784    2052.5509   0.04096908  0.040431794           13 
 4176000   0.58014695   -4.5676646    2050.3088  0.040914527  0.040421912           11 
 4177000   0.57930538    -4.556195    2054.3267  0.040984892  0.040412021            5 
 4178000   0.57627626     -4.56859    2053.1641  0.040951893  0.040402165           11 
 4179000   0.58921712     -4.54529    2057.0991   0.04102056  0.040392293           12 
 4180000   0.58098968   -4.5691218    2055.1704  0.040972297  0.040382401           12 
 4181000   0.57077811   -4.5344006    2055.4678  0.040968425  0.040372525           17 
 4182000   0.56848537   -4.5654868    2054.9642  0.040948593  0.040362703            8 
 4183000   0.58474036   -4.5716003    2054.7279  0.040934096  0.040352847           10 
 4184000   0.57649844   -4.5763612     2054.333  0.040916448  0.040342961           14 
 4185000   0.58893648   -4.5778528    2050.9304  0.040838917  0.040333048           29 
 4186000   0.57242429   -4.5641918    2049.3574  0.040797846  0.040323166            8 
 4187000   0.58996547   -4.5885674    2052.3392  0.040847449  0.040313285           14 
 4188000   0.59190843   -4.5685253    2052.5601  0.040842091  0.040303438           48 
 4189000   0.58255352   -4.5586981    2058.2141  0.040944819  0.040293612           15 
 4190000    0.5750488   -4.5427795    2057.1746  0.040914372  0.040283858           11 
 4191000   0.58403385   -4.5568958    2053.7359  0.040836233  0.040274042            8 
 4192000   0.58377644   -4.5752425    2046.3813   0.04068029  0.040264192           16 
 4193000   0.58352839   -4.5483352    2059.4308  0.040929939  0.040254382           20 
 4194000   0.58030691     -4.57609    2055.0667  0.040833467  0.040244567            8 
 4195000   0.58108763   -4.5524516    2054.5629  0.040813725  0.040234771           26 
 4196000   0.56444615   -4.5524204    2050.8397  0.040730053  0.040224977           11 
 4197000    0.5827623   -4.5551807    2055.1624  0.040806179  0.040215096           24 
 4198000   0.58876624   -4.5772563     2055.775   0.04080862  0.040205267            9 
 4199000   0.57729945   -4.5599103    2052.0345  0.040724668  0.040195435            4 
 4200000   0.56567878   -4.5819229    2054.3771  0.040761451  0.040185615           10 
 4201000   0.57434026   -4.5525517    2052.7342  0.040719158  0.040175786           22 
 4202000   0.57944491   -4.5599501    2056.2648  0.040779486  0.040165995           16 
 4203000   0.57162606   -4.5597712     2056.472  0.040773891    0.0401562            8 
 4204000   0.59055872   -4.5568721    2060.1847  0.040837788  0.040146395           27 
 4205000   0.58342379   -4.5789928    2056.3841  0.040752757  0.040136573           16 
 4206000   0.57442473   -4.5675342    2051.7466  0.040651185  0.040126773           13 
 4207000    0.5838759    -4.568255    2055.0067  0.040706099  0.040116959           11 
 4208000   0.56860403   -4.5826663    2057.5512  0.040746817  0.040107141           18 
 4209000   0.57832272   -4.5963522    2059.8134  0.040781923  0.040097301           23 
 4210000   0.56169286   -4.5866283    2057.7204  0.040730807  0.040087404           25 
 4211000   0.58528385   -4.5629756    2054.4418  0.040656254  0.040077626           11 
 4212000   0.58339987   -4.5743515    2055.6211  0.040669933  0.040067838            9 
 4213000   0.56827275   -4.5601869    2051.5193  0.040579146  0.040058071           14 
 4214000   0.56903357   -4.5691506    2056.6089  0.040670165  0.040048283           15 
 4215000   0.56953685   -4.5915798     2056.457  0.040657513  0.040038472           20 
 4216000   0.58181916   -4.5801344     2055.589  0.040630712  0.040028648           17 
 4217000   0.56982579   -4.5742143    2053.6703  0.040583162  0.040018864           11 
 4218000    0.5757298   -4.5725927    2059.5812   0.04069032  0.040009126           12 
 4219000     0.573432   -4.5633537    2059.9595  0.040688148  0.039999405           10 
 4220000   0.58223676   -4.5744988    2056.1804  0.040603879  0.039989688           13 
 4221000   0.57475675   -4.5941801    2054.2046  0.040555252  0.039979962           19 
 4222000   0.57455623   -4.5613295    2061.0195  0.040680157  0.039970262           18 
 4223000   0.57031528   -4.5577461    2065.2571  0.040754147  0.039960585           23 
 4224000   0.58223462   -4.5835395    2057.3616  0.040588731  0.039950906           20 
 4225000   0.57147076   -4.5613778    2051.6596  0.040466659  0.039941174           10 
 4226000   0.56833526   -4.5848402    2061.0818  0.040642881  0.039931443           12 
 4227000   0.57648256   -4.5627827     2060.874   0.04062917  0.039921717           13 
 4228000   0.57133929   -4.5874648    2056.3053  0.040529511  0.039911954           16 
 4229000   0.57885871   -4.5741369    2052.8916  0.040452661  0.039902178            7 
 4230000   0.58002554   -4.5648772    2055.9264  0.040502885   0.03989243            6 
 4231000   0.57664267   -4.5787307    2060.5903  0.040585171  0.039882723           11 
 4232000   0.56403631   -4.5752875    2059.0709  0.040545663  0.039872974            9 
 4233000   0.56163768   -4.6018303    2058.4214  0.040523297  0.039863236           11 
 4234000   0.57917004   -4.5851868    2054.5878  0.040438273  0.039853458           34 
 4235000    0.5826126   -4.5817407    2056.7839  0.040471939  0.039843733           17 
 4236000    0.5718158   -4.5622895    2056.7447  0.040461613   0.03983401            7 
 4237000   0.58008759   -4.5749609    2058.0403  0.040477545  0.039824296           22 
 4238000   0.56398622   -4.5795242    2061.2482  0.040531072  0.039814602            9 
 4239000   0.56920519   -4.5844284    2055.4234  0.040407003  0.039804907           10 
 4240000   0.57668371   -4.5855889    2051.8154  0.040326561  0.039795179            9 
 4241000   0.56581303   -4.5798426     2058.785  0.040454001  0.039785476           12 
 4242000   0.56230336   -4.5657231    2059.9852  0.040468041  0.039775756           10 
 4243000   0.56504624   -4.5681471    2065.4893  0.040566606  0.039766097           12 
 4244000   0.58375852    -4.570893    2060.7653  0.040464289  0.039756443           18 
 4245000   0.57132918   -4.5860991    2054.8746  0.040339117  0.039746775            9 
 4246000   0.56959491   -4.5956653    2055.8695  0.040349142  0.039737049           28 
 4247000   0.57260864   -4.5885511    2053.5941  0.040294994  0.039727322           10 
 4248000   0.57022439    -4.612192    2059.9277  0.040409756  0.039717649           35 
 4249000   0.56182993   -4.5855268    2059.8935  0.040399575  0.039707931           13 
 4250000   0.57664948   -4.5852958    2055.3543  0.040301066  0.039698207            8 
 4251000   0.58075985    -4.574366    2059.8167  0.040379061  0.039688477            9 
 4252000    0.5721738   -4.5753659    2049.1356   0.04016023  0.039678797           17 
 4253000   0.56792304   -4.5701546    2055.4585  0.040274679  0.039669089           37 
 4254000   0.57282881   -4.5878412    2055.8215  0.040272322  0.039659401           17 
 4255000   0.55294476   -4.5860689    2058.5821  0.040316924   0.03964971           12 
 4256000   0.55470086    -4.596676    2059.6268  0.040327905  0.039640013            8 
 4257000   0.56766223   -4.5979628    2059.0197  0.040306547  0.039630323           14 
 4258000   0.57599245   -4.5928294    2058.7906  0.040292599  0.039620667           10 
 4259000   0.55416101   -4.5934308     2056.808  0.040244345  0.039610998            9 
 4260000   0.56733916   -4.5816011    2061.4789   0.04032627  0.039601293           11 
 4261000   0.56322352   -4.5735426    2059.6507  0.040281052  0.039591636           16 
 4262000   0.57473954   -4.5847425    2058.1975  0.040243186  0.039581975           30 
 4263000   0.57552116   -4.5864475     2055.961  0.040190026   0.03957229           15 
 4264000   0.57374279    -4.578281    2066.0505  0.040377785  0.039562646           21 
 4265000    0.5668687   -4.5712324    2059.8384   0.04024694  0.039552986           13 
 4266000   0.56791494   -4.5769704    2057.7647  0.040196997  0.039543335           14 
 4267000   0.57667839   -4.5927005    2054.7285  0.040128282  0.039533641           35 
 4268000   0.57016626   -4.5972809    2055.1492  0.040127094  0.039523927           12 
 4269000   0.58178849   -4.5858133    2055.7267  0.040128966  0.039514199           16 
 4270000   0.56847113   -4.5983888    2058.4792  0.040173287  0.039504523           18 
 4271000    0.5673215   -4.5644133    2059.7087   0.04018787  0.039494838           26 
 4272000   0.56819863   -4.5941752    2055.1881  0.040090279    0.0394852           14 
 4273000   0.57323581    -4.568836     2056.308  0.040102738  0.039475539            9 
 4274000   0.57752255    -4.584275    2054.3023  0.040054249   0.03946587           25 
 4275000   0.56645467    -4.586287    2058.7191  0.040130977  0.039456219           13 
 4276000   0.55279062   -4.5790524    2060.7282  0.040160746  0.039446537           14 
 4277000   0.55469911   -4.5916629    2058.6142  0.040110167  0.039436838           11 
 4278000   0.56599679   -4.5763064    2064.2363  0.040210306  0.039427207            8 
 4279000   0.56411694   -4.5881846    2057.2955  0.040065738  0.039417549           26 
 4280000   0.57260298   -4.5834459    2062.2659  0.040153152  0.039407894           12 
 4281000   0.55711133   -4.5879695    2052.5257  0.039954171  0.039398202           21 
 4282000   0.57294255   -4.5942414    2060.5517  0.040101037  0.039388482            8 
 4283000   0.56968505   -4.5995942    2060.5393  0.040091433  0.039378796           23 
 4284000   0.57173261   -4.5983934    2056.1818  0.039997311  0.039369089           15 
 4285000   0.56967615   -4.6031457    2054.6548  0.039958281  0.039359402            5 
 4286000   0.56068944   -4.6051539    2056.2688  0.039980339  0.039349679            7 
 4287000   0.57139166    -4.597307    2058.6641  0.040017575   0.03933998           20 
 4288000    0.5702954   -4.5918321    2055.9319  0.039955144  0.039330275            9 
 4289000   0.55872759   -4.6142425    2058.2017  0.039989931  0.039320589           15 
 4290000   0.56562347   -4.5995575    2055.2593  0.039923451  0.039310908            6 
 4291000    0.5708351    -4.602122    2057.8655  0.039964761  0.039301212           13 
 4292000   0.56386958   -4.6055336    2057.2069  0.039942662  0.039291499            8 
 4293000   0.57213753    -4.588373    2059.9765  0.039987121  0.039281817           17 
 4294000    0.5565781   -4.5957776    2059.6367  0.039971215  0.039272165            6 
 4295000   0.57104851   -4.5995214    2057.6356   0.03992308  0.039262545            8 
 4296000   0.56341438   -4.5999875    2057.9646  0.039920171  0.039252888           15 
 4297000   0.56545413   -4.5793806    2056.9252  0.039890722  0.039243198           16 
 4298000   0.56527142   -4.6004337    2059.1421  0.039924425  0.039233501           25 
 4299000   0.57322533   -4.6051366    2060.5654  0.039942727  0.039223808           10 
 4300000   0.55982076   -4.5701863    2063.5059  0.039990424  0.039214099            5 
 4301000   0.56668415   -4.6055974    2056.3968  0.039843386  0.039204437           10 
 4302000   0.56796646   -4.5980817    2057.1002   0.03984775  0.039194743            8 
 4303000   0.56620069    -4.598183    2060.8185  0.039910498  0.039185047            9 
 4304000   0.57143282   -4.5914423    2060.2854  0.039890904  0.039175355           20 
 4305000   0.55279309   -4.5937062    2058.4085  0.039845307  0.039165662           12 
 4306000   0.56994461   -4.6143417    2059.6614    0.0398603  0.039156027            7 
 4307000   0.56864143   -4.6018471    2054.6754  0.039754573  0.039146366           15 
 4308000   0.56641889   -4.5889595    2059.0626  0.039830211  0.039136692           12 
 4309000   0.56222711   -4.6006339    2058.8168  0.039816214  0.039127031           16 
 4310000   0.56125632   -4.6259194    2056.7468  0.039766953  0.039117359           19 
 4311000   0.54817283   -4.6159044    2055.5997  0.039735555  0.039107664           13 
 4312000   0.56065234   -4.6037087    2055.3893  0.039722274  0.039097971           11 
 4313000   0.55781572   -4.6194175    2060.0515  0.039803143  0.039088313            6 
 4314000   0.57033778   -4.6041776    2059.2682  0.039778786   0.03907864           23 
 4315000   0.54838331   -4.6143083    2057.9297  0.039743718   0.03906899           13 
 4316000   0.56710693   -4.6010966    2059.8071  0.039770758  0.039059364            9 
 4317000     0.576177   -4.5968966    2059.1738   0.03974932  0.039049733           19 
 4318000   0.57453285   -4.6145354    2058.6287  0.039729596   0.03904007            8 
 4319000   0.56492153   -4.6226405    2059.0215  0.039727976  0.039030428           18 
 4320000   0.56110363   -4.6127156    2058.4154  0.039707088  0.039020783           10 
 4321000    0.5610837   -4.6097109    2060.3233  0.039734693  0.039011122           11 
 4322000   0.56597052   -4.6088404     2060.194  0.039723006  0.039001505           14 
 4323000    0.5521733   -4.6107968    2060.1002  0.039712009  0.038991897           16 
 4324000   0.56322157   -4.6101595    2061.0877  0.039721857  0.038982261           21 
 4325000   0.56189086   -4.6062337    2057.8348  0.039649996  0.038972614            9 
 4326000    0.5633999   -4.6155635    2059.6895  0.039676558  0.038962993           14 
 4327000   0.55373511   -4.6130627    2059.6735   0.03966708  0.038953353           17 
 4328000   0.56557413   -4.6063289    2060.3721  0.039671366  0.038943707           12 
 4329000   0.56924205   -4.6150933    2057.3411  0.039603856   0.03893407           13 
 4330000   0.55848015   -4.6224773    2060.0971  0.039647751  0.038924429           11 
 4331000   0.54518499   -4.6103501    2060.0542  0.039637771  0.038914772           12 
 4332000    0.5611307   -4.6133362    2060.5158  0.039637501  0.038905108           10 
 4333000   0.55201544   -4.5986761    2054.0036  0.039503108  0.038895426           11 
 4334000   0.55982766    -4.623974    2055.6253  0.039525174  0.038885737           17 
 4335000   0.55630473   -4.6079234    2058.9959  0.039580851  0.038876055           28 
 4336000   0.55020648   -4.5999758    2060.4326  0.039599334  0.038866417           18 
 4337000   0.56217955   -4.6209831    2056.8947  0.039522226  0.038856744           17 
 4338000    0.5586661   -4.6128713    2051.9521  0.039418166  0.038847045           13 
 4339000   0.55381851   -4.6084794    2056.7007  0.039500282  0.038837379           12 
 4340000   0.56476377   -4.5976423    2055.3595  0.039465428  0.038827716           25 
 4341000    0.5511634   -4.6168325    2057.5944  0.039499239  0.038818064           10 
 4342000   0.55193034   -4.6072083    2057.7957  0.039494006  0.038808445           11 
 4343000   0.56529771   -4.6318588    2053.6565   0.03940549  0.038798756           10 
 4344000   0.57008879    -4.618258    2054.9785   0.03942178  0.038789029           32 
 4345000   0.54222819   -4.6313684    2057.3576  0.039458334  0.038779368           12 
 4346000   0.55392715   -4.6118435    2055.0795  0.039405574  0.038769682            8 
 4347000   0.55774593   -4.5913879    2058.7143   0.03946619   0.03876002           12 
 4348000   0.55597556   -4.6176075    2058.4651  0.039452336  0.038750353           15 
 4349000   0.55852833     -4.59347    2058.0286  0.039434901  0.038740685           13 
 4350000   0.55779813   -4.6186438    2057.6902  0.039419353  0.038731006           16 
 4351000   0.54563115   -4.6079364    2058.7734  0.039431039  0.038721305           13 
 4352000   0.55533461   -4.6115321    2057.6075  0.039399654  0.038711624           14 
 4353000   0.55646553   -4.6114987    2055.1303  0.039343179  0.038701926           13 
 4354000   0.55719134   -4.6220513    2055.7386  0.039345785  0.038692234           11 
 4355000   0.54938604   -4.6205757    2057.5972  0.039372315  0.038682517           14 
 4356000   0.54410692   -4.6278788    2058.2265  0.039375315  0.038672846           29 
 4357000   0.56125662   -4.6367745    2055.5476  0.039315041  0.038663194            9 
 4358000   0.55449841   -4.6181276    2055.6252  0.039307504  0.038653505           31 
 4359000   0.55254407   -4.6198794    2055.3931  0.039294049  0.038643811           19 
 4360000   0.54618462   -4.6332141    2054.5719  0.039269341  0.038634114           22 
 4361000   0.55093212   -4.6395251    2053.4245  0.039238411  0.038624432           21 
 4362000   0.54657128   -4.6190768    2052.7008   0.03921559  0.038614719           35 
 4363000   0.54368052   -4.6299852    2057.8525  0.039304999  0.038605035           15 
 4364000   0.55753691   -4.6124688    2054.8686  0.039239012  0.038595345           22 
 4365000   0.56585832   -4.6431967    2053.2148   0.03919845  0.038585693           40 
 4366000   0.54347179   -4.6151643    2055.4667  0.039232453  0.038576022           22 
 4367000   0.55026783   -4.6112172    2058.6837  0.039284858  0.038566362           15 
 4368000   0.53877871   -4.6230692      2054.43  0.039194711  0.038556676           12 
 4369000    0.5502288   -4.6326976    2055.6102  0.039208251  0.038546992            9 
 4370000   0.57154792   -4.6175622    2055.8627  0.039204094  0.038537337           15 
 4371000   0.54896047   -4.6245611    2056.8337  0.039213638  0.038527682           11 
 4372000   0.55076488   -4.6188567    2058.6424  0.039239144  0.038518038           11 
 4373000   0.54478915    -4.648485    2058.0941  0.039219721  0.038508382           20 
 4374000   0.54625208   -4.6119468    2052.3831  0.039101949  0.038498727           14 
 4375000   0.55713662   -4.6239415    2053.3713  0.039111834  0.038489026            9 
 4376000    0.5450581   -4.6173032    2057.8185  0.039187586  0.038479375            7 
 4377000   0.54233754   -4.6198478    2057.0074  0.039163191  0.038469739           14 
 4378000   0.54918995   -4.6313266     2052.475  0.039067973  0.038460087           16 
 4379000   0.54078667   -4.6503545     2057.923  0.039162727  0.038450395           10 
 4380000   0.55739686   -4.6347384    2055.9016  0.039115327  0.038440679            9 
 4381000   0.55633723   -4.6291536    2053.4958  0.039060637  0.038430971           26 
 4382000   0.54845302   -4.6500843    2051.0131  0.039004509  0.038421227           11 
 4383000    0.5496994   -4.6414187    2050.6657  0.038989005  0.038411504           18 
 4384000   0.55051007   -4.6007854    2054.4334   0.03905173  0.038401818           12 
 4385000   0.55436377   -4.6332195    2053.0638  0.039016796  0.038392173           22 
 4386000    0.5589857   -4.6333229    2049.7549  0.038945032  0.038382485           36 
 4387000   0.54547253   -4.6211673     2050.343  0.038947325   0.03837281           37 
 4388000   0.55147954    -4.629445    2056.1395  0.039048533  0.038363134           10 
 4389000   0.55206117   -4.6147587    2055.2653  0.039023037  0.038353529           10 
 4390000   0.54833195   -4.6183759    2055.5842  0.039020201   0.03834391           21 
 4391000   0.56055649   -4.6187134    2055.8192  0.039015774  0.038334324           14 
 4392000   0.55187161   -4.6244357    2055.8406  0.039007298   0.03832469           17 
 4393000   0.54738659   -4.6338708    2057.5986  0.039031766  0.038315047           26 
 4394000   0.55313486   -4.6239215    2056.7193  0.039006207  0.038305441            9 
 4395000   0.54538311   -4.6171845    2062.6638  0.039110045  0.038295846           23 
 4396000   0.54645501    -4.647487    2058.0003  0.039012745  0.038286238           17 
 4397000   0.54405225   -4.6432977    2053.7575  0.038923461  0.038276635           21 
 4398000    0.5489481   -4.6214871    2063.5702  0.039100541  0.038267091           13 
 4399000   0.54219383   -4.6299183    2059.2593  0.039009989   0.03825754            8 
 4400000   0.54142826   -4.6130809    2058.7645  0.038991752  0.038247996            9 
 4401000   0.54652336   -4.6226099    2054.7969  0.038907765  0.038238466           11 
 4402000   0.53957457   -4.6378624    2055.1193   0.03890503  0.038228895           16 
 4403000    0.5597326   -4.6455829    2057.0601  0.038932926  0.038219274           15 
 4404000   0.52968597   -4.6335101      2055.67  0.038897782  0.038209718           18 
 4405000   0.54107178   -4.6108977    2056.0247  0.038895663  0.038200154           21 
 4406000   0.56770488   -4.6217192    2057.6942   0.03891841  0.038190546           11 
 4407000   0.54617504   -4.6266604    2059.1991  0.038938036  0.038180967           14 
 4408000   0.54823879   -4.6330257    2054.4894  0.038840165  0.038171379           13 
 4409000   0.55852009   -4.6385966    2058.1145  0.038899873  0.038161801           12 
 4410000   0.54919461   -4.6410548    2054.5892  0.038824436  0.038152218           11 
 4411000   0.53433348   -4.6667119    2055.2258  0.038827662  0.038142608           13 
 4412000   0.54472075   -4.6309848    2055.1628  0.038817672  0.038132995           13 
 4413000   0.54517536    -4.638799    2058.1338  0.038864978  0.038123436           14 
 4414000   0.55631378   -4.6220317     2059.901  0.038889537  0.038113875           13 
 4415000   0.56027464   -4.6419709    2058.1962   0.03884855  0.038104305           14 
 4416000   0.53802373   -4.6514536    2054.2842   0.03876593  0.038094718           16 
 4417000   0.54429854   -4.6358878    2054.0313  0.038752383    0.0380851           18 
 4418000   0.53782992   -4.6266804    2058.1029   0.03882041  0.038075486           15 
 4419000   0.53853892   -4.6371252    2054.0234  0.038734695  0.038065881           14 
 4420000    0.5437195   -4.6423833    2058.7599  0.038815231  0.038056271           25 
 4421000   0.55314639   -4.6310049     2053.406  0.038705533  0.038046665           18 
 4422000   0.53425213   -4.6329778    2054.8602  0.038724186  0.038037078           12 
 4423000   0.55132719   -4.6447611    2057.9984  0.038774557  0.038027545           12 
 4424000   0.54936032   -4.6366067    2056.1514     0.038731  0.038017978           13 
 4425000   0.54794252   -4.6164458     2054.999  0.038700546    0.0380084           12 
 4426000    0.5525812   -4.6115207    2058.0877  0.038749957  0.037998874            9 
 4427000   0.54321659    -4.671396    2050.8847  0.038605615  0.037989294           11 
 4428000   0.54301514   -4.6406028     2055.291  0.038679821  0.037979681           18 
 4429000   0.54373576   -4.6284593     2052.329  0.038615357  0.037970094           14 
 4430000   0.53680461   -4.6461221    2055.4923  0.038666146  0.037960505           12 
 4431000   0.53984666   -4.6373684    2058.9457  0.038722368  0.037950931           13 
 4432000   0.54137191   -4.6367493    2052.9001  0.038599956  0.037941342           27 
 4433000   0.55369655   -4.6224784    2062.7566  0.038776536  0.037931762           16 
 4434000   0.54158658   -4.6330765    2053.6765  0.038597138  0.037922203           17 
 4435000   0.54161725   -4.6535664    2054.3978  0.038601988  0.037912634            7 
 4436000   0.54063531   -4.6462629    2057.9353   0.03865974  0.037903085           10 
 4437000   0.54721469   -4.6333069    2062.0095  0.038727546  0.037893521            5 
 4438000   0.55294574    -4.637498    2057.2132  0.038628759  0.037883966            9 
 4439000   0.54538915   -4.6648118    2054.5127   0.03856936  0.037874385           14 
 4440000   0.54111798   -4.6289695    2062.2291  0.038705502  0.037864854           21 
 4441000   0.54661026   -4.6389613     2053.346  0.038530098  0.037855301           23 
 4442000   0.52481394   -4.6514364     2056.965  0.038589318  0.037845753           11 
 4443000   0.55063715   -4.6385081    2055.1384  0.038546373  0.037836202           17 
 4444000   0.54572796    -4.639843    2059.5409  0.038620254  0.037826665           17 
 4445000   0.54689697   -4.6459702    2058.7793  0.038597286  0.037817112           17 
 4446000   0.54555101   -4.6392028    2057.9063  0.038572243  0.037807567           18 
 4447000   0.55121097   -4.6443012    2055.8754  0.038525511  0.037797999           41 
 4448000   0.53847381   -4.6581458     2056.091   0.03852089  0.037788401           79 
 4449000   0.54253667   -4.6500151    2058.0716   0.03854933  0.037778796           51 
 4450000   0.53576775   -4.6497783    2056.5523  0.038512215  0.037769211           21 
 4451000   0.52973755   -4.6546253    2057.2945  0.038517459   0.03775963            7 
 4452000   0.53675423   -4.6469119    2050.5684  0.038382907  0.037750057           12 
 4453000   0.53099414   -4.6583846    2050.1057  0.038365627   0.03774047           16 
 4454000   0.53612023   -4.6603877    2058.4814  0.038513722  0.037730892           24 
 4455000    0.5351365    -4.653491    2056.5211  0.038468408  0.037721315           12 
 4456000   0.53330185   -4.6596323    2056.4056  0.038457616  0.037711775           32 
 4457000   0.52983909   -4.6456734    2055.2331  0.038427064  0.037702246           26 
 4458000   0.53741557   -4.6535442    2055.2652  0.038419044  0.037692719           30 
 4459000   0.54900672   -4.6457521    2058.4025  0.038469061  0.037683188           20 
 4460000   0.53940275   -4.6661893      2055.48   0.03840583   0.03767368           11 
 4461000   0.52864372    -4.641353    2055.7866  0.038402948  0.037664141           16 
 4462000    0.5390712   -4.6326387    2053.2937  0.038347783  0.037654588           10 
 4463000   0.52896047    -4.660909    2057.1575  0.038411337  0.037645053           11 
 4464000   0.53232601   -4.6607854    2051.8742  0.038304103  0.037635529            7 
 4465000   0.53129506   -4.6575864     2059.919   0.03844567  0.037625982           18 
 4466000   0.54137735   -4.6578448     2060.637  0.038450459  0.037616487           11 
 4467000   0.54873087   -4.6560498     2055.089  0.038338352  0.037606976           14 
 4468000   0.54387195   -4.6502723    2059.6841  0.038415475   0.03759745           12 
 4469000   0.54410009   -4.6635719    2057.8919   0.03837346   0.03758791           28 
 4470000   0.53308988   -4.6728144    2051.1701  0.038239562  0.037578371           25 
 4471000   0.55329333    -4.660459    2057.8312  0.038355163  0.037568834           15 
 4472000   0.53284023   -4.6787798    2055.0496  0.038294752  0.037559309           11 
 4473000   0.54716993   -4.6498532    2056.3699  0.038310789  0.037549805           13 
 4474000   0.53134677   -4.6478282     2056.101  0.038297217  0.037540259           14 
 4475000   0.52796487   -4.6687725    2049.2696  0.038161445  0.037530703           13 
 4476000   0.54128856   -4.6657183    2053.7093  0.038235576  0.037521184           13 
 4477000   0.52858545    -4.659389    2065.4772   0.03844608  0.037511702           10 
 4478000   0.53639901   -4.6428493     2056.089  0.038262784  0.037502204           17 
 4479000   0.53088858   -4.6611594     2053.315   0.03820263  0.037492661           26 
 4480000   0.54509079   -4.6587249    2055.7886  0.038240115  0.037483145            8 
 4481000   0.54236881   -4.6587648      2056.54  0.038245555  0.037473627           18 
 4482000   0.53164974   -4.6764748    2051.4718  0.038142789  0.037464106           17 
 4483000   0.52793739   -4.6758221    2054.3182  0.038187192  0.037454574           33 
 4484000   0.53532239   -4.6525376    2057.4926  0.038237671  0.037445035           16 
 4485000   0.53964943   -4.6399869     2058.431  0.038246581  0.037435576            9 
 4486000   0.53413801   -4.6680411    2057.7172  0.038224797  0.037426106            6 
 4487000    0.5339658   -4.6530163    2060.0843  0.038260238  0.037416641           10 
 4488000   0.54212262   -4.6684531    2055.8164  0.038172467  0.037407186           36 
 4489000   0.54511659   -4.6657988    2058.0029  0.038204554   0.03739765           29 
 4490000   0.53550023    -4.655545    2060.2815  0.038238335  0.037388169           27 
 4491000   0.52025267   -4.6592506    2060.8101   0.03823963  0.037378716           21 
 4492000   0.52015857   -4.6616888    2055.2222  0.038127453  0.037369212           13 
 4493000   0.53614539     -4.65407    2058.8722  0.038186664  0.037359756           21 
 4494000   0.53372969   -4.6805325    2054.1809  0.038091175  0.037350269           36 
 4495000   0.53768212   -4.6725242    2058.5319  0.038163366  0.037340816           11 
 4496000   0.52961958   -4.6455695    2061.9335  0.038217925  0.037331388           50 
 4497000   0.53884504   -4.6522157    2060.0888  0.038175242  0.037321979           17 
 4498000   0.52206984   -4.6760466    2059.0395  0.038147316  0.037312578           19 
 4499000    0.5317691   -4.6714659    2056.6663  0.038094879   0.03730314            9 
 4500000      0.54498   -4.6873991    2057.2617  0.038097439  0.037293714           13 
 4501000   0.52843449    -4.692457    2058.3468  0.038109065  0.037284266           18 
 4502000   0.52615994   -4.6636306    2060.0261  0.038131684  0.037274819           31 
 4503000   0.52699624   -4.6796093    2055.2158  0.038034195  0.037265367           10 
 4504000   0.52515152   -4.6834756    2058.6627  0.038089525  0.037255902           13 
 4505000   0.53564108    -4.682938    2060.4248  0.038113666  0.037246463           12 
 4506000   0.52922149   -4.6590071    2063.1795  0.038156153  0.037237049           20 
 4507000   0.53000141   -4.6677225    2056.9795   0.03803305  0.037227606           21 
 4508000   0.51778642   -4.6932729    2054.3229  0.037975504  0.037218187           13 
 4509000    0.5263244   -4.6749719    2058.8862  0.038051419   0.03720875           22 
 4510000   0.52088333   -4.6704933    2058.9489   0.03804414  0.037199332           20 
 4511000   0.53223852   -4.6774796    2056.4619  0.037989763  0.037189937           13 
 4512000   0.52391283   -4.6627594    2057.6136  0.038002615  0.037180538            7 
 4513000   0.51672037   -4.6611356    2059.8958  0.038036335  0.037171107            6 
 4514000   0.51893879   -4.6809696    2058.5538  0.038003135   0.03716168           17 
 4515000    0.5261564   -4.6796535    2057.9948  0.037984399  0.037152232           38 
 4516000   0.54129907   -4.6792566    2055.3777  0.037927696    0.0371428           26 
 4517000   0.53761882   -4.6831893    2059.7008  0.037999055  0.037133331           32 
 4518000     0.531243   -4.6758654    2058.6726  0.037971679  0.037123935            8 
 4519000    0.5261947   -4.6940559    2058.7898  0.037965438  0.037114503           35 
 4520000   0.52837374   -4.6835619    2060.0508  0.037980287  0.037105041            9 
 4521000   0.52973512   -4.6755562    2058.3662  0.037940836  0.037095613           15 
 4522000   0.52537466    -4.668047    2058.2058  0.037929489  0.037086194           10 
 4523000   0.53455864   -4.6737542    2064.9632  0.038045604  0.037076801           14 
 4524000   0.52771059   -4.6698998    2059.7262  0.037940727  0.037067425           16 
 4525000   0.51092296   -4.6666398    2056.5277  0.037873439   0.03705802           24 
 4526000    0.5285154   -4.6809639    2060.4804  0.037937847  0.037048603           24 
 4527000   0.53389686   -4.6834327    2057.2854  0.037870654  0.037039195           30 
 4528000   0.54288408   -4.6819435    2057.0586  0.037858117  0.037029772           17 
 4529000   0.51542256   -4.6577003    2056.0503  0.037831205  0.037020375            8 
 4530000   0.53364236   -4.6807838    2058.2352  0.037863046  0.037010994           19 
 4531000   0.51534298   -4.6612941    2058.9783  0.037868357  0.037001586            9 
 4532000   0.52286828   -4.6790093     2055.578  0.037797477  0.036992214           14 
 4533000   0.53475642   -4.6740236    2060.5257  0.037880097  0.036982826           11 
 4534000   0.52031296   -4.6924096     2060.303  0.037867647  0.036973426           22 
 4535000   0.53034914   -4.6806338    2056.1704  0.037783358  0.036964018           24 
 4536000   0.52357937   -4.6943784    2051.8308  0.037695305  0.036954607           31 
 4537000     0.522929   -4.6818687    2054.4652  0.037735383  0.036945193           11 
 4538000   0.53154024   -4.6935792    2054.0918   0.03772021  0.036935768           23 
 4539000   0.52584998   -4.6812899    2055.2229  0.037732668   0.03692634           25 
 4540000   0.52542873   -4.6795594    2062.8907  0.037865101  0.036916937            7 
 4541000   0.52991075   -4.6829503    2057.8641  0.037764518    0.0369076           24 
 4542000   0.51857011   -4.6633645    2053.4934  0.037676013  0.036898239            9 
 4543000     0.530093   -4.6791561    2057.1297  0.037734421  0.036888878           17 
 4544000   0.52947912   -4.6694882    2061.1341  0.037799554  0.036879511           11 
 4545000   0.51802015   -4.6752381    2059.3938  0.037759328  0.036870154           14 
 4546000   0.51263562   -4.7000964    2054.9961  0.037670408  0.036860775           16 
 4547000   0.52526999   -4.6802532    2061.0559  0.037773182  0.036851418           18 
 4548000   0.52168819   -4.7067877    2059.8095  0.037742038  0.036842023           45 
 4549000   0.51977339   -4.6814987      2054.31  0.037632997  0.036832636           17 
 4550000   0.51306963   -4.6947952    2060.7733  0.037743101  0.036823243           16 
 4551000   0.53217741   -4.6876695    2056.0006  0.037647415  0.036813859           15 
 4552000   0.53997521   -4.6860623    2054.1028    0.0376044  0.036804466           10 
 4553000   0.52581401   -4.7027671    2056.7382  0.037644378  0.036795052           10 
 4554000   0.52685239   -4.6717991    2055.6047  0.037615369  0.036785674            8 
 4555000   0.52269619   -4.6988817    2052.7799  0.037555433   0.03677628           14 
 4556000   0.52411386   -4.6914688    2053.1231  0.037553466  0.036766902           17 
 4557000   0.52839546   -4.6913584    2053.5893  0.037553751  0.036757508           15 
 4558000    0.5165684   -4.6928426     2061.182  0.037684328  0.036748128           18 
 4559000   0.51899009   -4.6766522    2058.3502    0.0376243  0.036738758           12 
 4560000   0.52894694   -4.6824439    2056.5563  0.037583266  0.036729386           16 
 4561000   0.52665022   -4.7056399    2054.6793  0.037540731  0.036720047           18 
 4562000   0.52179762   -4.6711583    2058.2483  0.037597697  0.036710673           10 
 4563000   0.52028758   -4.6791692    2056.0028  0.037548447  0.036701339           10 
 4564000   0.52070177   -4.6676981     2060.516  0.037622626  0.036692013           15 
 4565000   0.53097593   -4.6752261    2061.8302  0.037638375  0.036682707           16 
 4566000   0.51847821    -4.682602    2060.0981   0.03759852  0.036673398           11 
 4567000    0.5219079   -4.6789464    2058.9963  0.037570184  0.036664096           14 
 4568000   0.51103472    -4.686106    2060.8851  0.037596415  0.036654805           19 
 4569000   0.51334075   -4.6923414    2055.2781  0.037485921   0.03664549           37 
 4570000   0.52437154   -4.7094803    2058.4849  0.037536194  0.036636158           26 
 4571000   0.51695632   -4.6592471    2060.7164  0.037568665  0.036626822           18 
 4572000   0.51888952   -4.6887649    2058.7663  0.037524903  0.036617493           15 
 4573000   0.52477912   -4.6912865    2058.2245  0.037506824  0.036608165           19 
 4574000   0.53100367   -4.6890449     2060.051  0.037531901  0.036598831           16 
 4575000   0.51452405   -4.7127824     2054.568  0.037423826  0.036589472           25 
 4576000   0.52283649   -4.6809386    2059.6219  0.037507683  0.036580111           54 
 4577000   0.51610389   -4.7070306    2056.5681  0.037443887   0.03657077           19 
 4578000   0.50293674   -4.7152159    2053.8278  0.037385828  0.036561385           49 
 4579000   0.52073263    -4.696909    2054.0765  0.037382188   0.03655201           12 
 4580000   0.50940462   -4.7153732    2057.0637  0.037428378  0.036542607           24 
 4581000   0.51766741   -4.6892523    2057.7218  0.037432181  0.036533221           33 
 4582000   0.52946087   -4.6991485    2056.6967  0.037405368  0.036523889           22 
 4583000   0.51299666   -4.7058723    2056.8459  0.037399919  0.036514589           16 
 4584000   0.52531955   -4.6723382    2052.9927  0.037321712  0.036505282           17 
 4585000   0.52566419   -4.7182336    2058.0031  0.037404637  0.036495947           22 
 4586000   0.52532539   -4.6710294    2059.9581  0.037432005  0.036486636           25 
 4587000   0.52909051   -4.7103083    2055.5294  0.037343388  0.036477341           12 
 4588000   0.51590183   -4.7135303    2058.1145  0.037382201  0.036468036           35 
 4589000   0.52868321   -4.6960621    2058.7315   0.03738526  0.036458725           19 
 4590000   0.51935764   -4.6948315    2059.4282  0.037389764  0.036449422           13 
 4591000   0.50657502   -4.7001928    2058.5107  0.037364966  0.036440129           15 
 4592000   0.52711479   -4.6855212    2060.3169  0.037389607  0.036430844           16 
 4593000   0.50539925    -4.694699    2056.3764  0.037309971  0.036421566           42 
 4594000   0.51758274   -4.6973152     2056.691  0.037307557  0.036412265           21 
 4595000   0.51640872   -4.6950674     2060.795  0.037373866  0.036402984           18 
 4596000   0.52492667   -4.6967253    2060.2464  0.037355787  0.036393742           14 
 4597000   0.51083092   -4.6960176    2059.5006  0.037334143  0.036384474            7 
 4598000   0.51746877   -4.7049268    2057.5189  0.037290105  0.036375217           12 
 4599000   0.51161978   -4.7123162    2054.2625  0.037222992  0.036365929           13 
 4600000    0.5112461   -4.6894584     2059.378  0.037307573  0.036356663           16 
 4601000   0.50807615   -4.6908983    2059.4891  0.037301476  0.036347436           22 
 4602000   0.51845906   -4.7099852    2058.5298  0.037275999  0.036338185           25 
 4603000   0.51913704   -4.7047877    2065.0843  0.037386564  0.036328923           23 
 4604000    0.5190936   -4.7215859    2055.9369  0.037212874  0.036319665           13 
 4605000   0.51321983    -4.704874    2060.8829  0.037294299  0.036310425           11 
 4606000   0.51818743   -4.7055199      2059.41  0.037259554  0.036301177           22 
 4607000   0.50982749   -4.6955228    2059.0453  0.037244868  0.036291953            9 
 4608000   0.51800967   -4.7104716    2057.8092  0.037214431   0.03628272           23 
 4609000   0.51582844   -4.6961192    2056.7921  0.037187967  0.036273493           22 
 4610000   0.51534413   -4.6915107    2064.3319  0.037316194  0.036264293            9 
 4611000   0.50436649    -4.693328    2061.5341  0.037257539   0.03625508           30 
 4612000   0.51985166   -4.7010733    2059.5336  0.037213313  0.036245866           10 
 4613000   0.51756566   -4.7016128    2059.9336  0.037212473  0.036236638           27 
 4614000   0.51388055   -4.7135094    2056.2194  0.037137325  0.036227378           18 
 4615000   0.51674067   -4.7136259    2061.3038  0.037221087  0.036218148           27 
 4616000   0.51175951    -4.694566    2056.7979  0.037131678  0.036208922           19 
 4617000   0.52861192   -4.6960741     2063.233  0.037239784  0.036199724           11 
 4618000   0.51974704   -4.7154159    2059.7576  0.037169006   0.03619052           24 
 4619000   0.50949187    -4.706294    2062.2382  0.037205711  0.036181333           17 
 4620000   0.51050826   -4.7073074    2063.7366  0.037224687  0.036172133           10 
 4621000    0.5116272   -4.7358166     2060.642  0.037160824  0.036162934           36 
 4622000   0.52848512   -4.7057384    2058.5535  0.037115129   0.03615373           26 
 4623000   0.50740299   -4.7119447    2061.1051  0.037153095  0.036144528           30 
 4624000   0.50433363   -4.7009815    2060.8546  0.037140545  0.036135336           23 
 4625000   0.52486991   -4.7123573    2054.2554   0.03701361  0.036126152           23 
 4626000   0.51017456   -4.7225267    2054.3847  0.037007938  0.036116942           83 
 4627000   0.52127116    -4.730792    2054.9405  0.037009951  0.036107714           59 
 4628000   0.50944771   -4.7090092    2059.4588  0.037083312  0.036098482           29 
 4629000   0.51578321   -4.7237921     2060.691  0.037097483  0.036089218           33 
 4630000   0.51429582   -4.7215453    2054.4158  0.036976527  0.036079948           20 
 4631000   0.51328951   -4.7142734    2056.3359  0.037003093  0.036070676           26 
 4632000   0.51042048   -4.6940121    2058.3998  0.037032236  0.036061442           17 
 4633000   0.50249495   -4.7054276     2058.165  0.037020019  0.036052223           28 
 4634000   0.51561937   -4.7376485     2054.382  0.036944001  0.036042977           30 
 4635000   0.51024426   -4.7230231    2059.4558  0.037027252   0.03603374           13 
 4636000    0.5153854   -4.7001489    2057.0407  0.036975854  0.036024497           20 
 4637000   0.50313486   -4.7273369    2055.1771  0.036934388  0.036015266           28 
 4638000   0.51216128   -4.7338738    2058.4465  0.036985168  0.036006028            7 
 4639000   0.50790494   -4.7232948    2060.7917  0.037019324  0.035996813           16 
 4640000   0.51021257   -4.7053866      2059.65  0.036990841  0.035987601           15 
 4641000   0.50524612   -4.7175628    2053.8682  0.036879052  0.035978405           47 
 4642000   0.50657797   -4.7028009    2059.0466  0.036964071  0.035969217           38 
 4643000   0.51342646   -4.7015333    2061.6072  0.037002068  0.035960016           18 
 4644000   0.50921522   -4.7103508    2060.9481  0.036982274  0.035950784            9 
 4645000   0.51041509   -4.7279129    2055.0698  0.036868852  0.035941576           11 
 4646000   0.51248378   -4.7105394    2057.5769  0.036905886  0.035932359           47 
 4647000    0.5123622   -4.7178757    2056.7521  0.036883153  0.035923156           16 
 4648000   0.50850229   -4.7110428    2055.3316  0.036849748   0.03591397           20 
 4649000   0.50740667   -4.6997658    2058.6207  0.036900779  0.035904801           20 
 4650000   0.51039484   -4.7114609    2057.6674   0.03687576  0.035895608           24 
 4651000   0.50975182   -4.7275921    2058.1627  0.036876705  0.035886414           19 
 4652000   0.50347296   -4.6995933    2058.3456  0.036872054  0.035877226           14 
 4653000   0.50654443   -4.7045928    2062.0504  0.036930483  0.035868041           12 
 4654000   0.50350049   -4.7137617      2051.76   0.03673829  0.035858872           31 
 4655000   0.50197849   -4.7233174    2056.4876   0.03681503  0.035849699           17 
 4656000   0.50729621   -4.7176853    2054.0408   0.03676333  0.035840522           14 
 4657000   0.49854382   -4.7045243    2057.8532  0.036823655  0.035831358           21 
 4658000   0.50588554   -4.7088032    2059.9763  0.036853734  0.035822175           12 
 4659000   0.49265435   -4.7197379    2056.4243  0.036782291  0.035813003           14 
 4660000   0.50241317   -4.7284618    2056.3167  0.036772473  0.035803797           13 
 4661000   0.51651571   -4.7303383    2059.7045  0.036825153    0.0357946           18 
 4662000   0.50875478   -4.6946897    2053.6467  0.036708972  0.035785419           18 
 4663000   0.49555895   -4.7172985     2060.415  0.036822057  0.035776286           33 
 4664000   0.51915013   -4.7297352    2057.4771  0.036761669  0.035767151           12 
 4665000   0.49339601   -4.7336319    2061.1669  0.036819702  0.035758008           15 
 4666000   0.51376214    -4.712035    2056.3654  0.036726057  0.035748856           14 
 4667000   0.50792742   -4.7256406    2055.6191  0.036704862  0.035739674           25 
 4668000   0.50546794   -4.7255789     2058.759  0.036753053  0.035730535           17 
 4669000   0.49883402   -4.7066994    2058.2655  0.036736374  0.035721391            7 
 4670000   0.50242412   -4.7061176    2062.4146  0.036802545  0.035712258           13 
 4671000   0.50107797   -4.7195163    2057.3207  0.036703787  0.035703136           20 
 4672000   0.50867026   -4.7217366    2054.9745  0.036654084  0.035694038            8 
 4673000   0.50020907   -4.7340718    2058.9007  0.036716255  0.035684917           35 
 4674000   0.50218655   -4.7226307    2054.1492  0.036623685  0.035675785           31 
 4675000   0.50601032   -4.7144401    2060.2586  0.036724751  0.035666646           35 
 4676000   0.50171397   -4.7229131    2058.3646  0.036683144  0.035657521           88 
 4677000   0.50800783   -4.7402941    2055.0124  0.036615573  0.035648399           54 
 4678000    0.5048184    -4.721615     2053.153  0.036574623  0.035639274           36 
 4679000   0.49622943   -4.7361382    2060.4722  0.036697161  0.035630122           27 
 4680000   0.49632468   -4.7121989     2058.928  0.036661824  0.035620991           10 
 4681000   0.49930557   -4.7321928    2057.4762  0.036628145  0.035611862           24 
 4682000   0.50746338     -4.71431    2061.0008  0.036683055   0.03560275           17 
 4683000   0.49832504   -4.7176359    2057.7176  0.036616798  0.035593638           21 
 4684000   0.49869754   -4.7430319    2057.6864  0.036608425  0.035584495           22 
 4685000    0.4953862   -4.7248749    2058.0307  0.036606737  0.035575386           35 
 4686000   0.49949983   -4.7229544    2057.6245    0.0365917  0.035566274           16 
 4687000   0.50088484   -4.7386071    2054.8981  0.036535419  0.035557179           14 
 4688000   0.51359667   -4.7251978    2058.3967  0.036589816  0.035548045           28 
 4689000   0.49815838   -4.7307723    2056.9543  0.036556378  0.035538933           35 
 4690000   0.52336808   -4.7263455    2056.0622  0.036532733  0.035529824           38 
 4691000    0.4968859   -4.7180263    2062.8037  0.036644705  0.035520735           58 
 4692000   0.51552288   -4.7264034    2057.6247  0.036544912  0.035511639           24 
 4693000   0.50277937   -4.7292892    2060.7741  0.036593048  0.035502513           38 
 4694000   0.50644588    -4.737629    2051.8573  0.036426951  0.035493391           18 
 4695000   0.50805044   -4.7356306    2058.6052  0.036538964  0.035484279           22 
 4696000   0.49261377   -4.7502509    2057.4391  0.036510489  0.035475175           81 
 4697000   0.50036292    -4.727189    2055.4558  0.036467529  0.035466063           62 
 4698000   0.49025226   -4.7205559    2059.5817  0.036532952   0.03545697           36 
 4699000    0.4997527   -4.7284301    2057.3037  0.036484779  0.035447868           57 
 4700000   0.49890053     -4.75892    2060.1165  0.036526888  0.035438786           64 
 4701000   0.49460915   -4.7339101    2058.0327  0.036482179    0.0354297           23 
 4702000   0.49814243   -4.7612289    2059.8136  0.036505984  0.035420602           16 
 4703000   0.50390678   -4.7200831    2061.8831  0.036534892  0.035411534           21 
 4704000   0.50406592   -4.7317414    2057.8235  0.036455207  0.035402491           48 
 4705000   0.49757556   -4.7282251    2061.3914  0.036510652  0.035393439           23 
 4706000   0.50068504   -4.7123654    2063.4593  0.036539511  0.035384376           57 
 4707000   0.50287401   -4.7349419    2058.1749  0.036438193  0.035375321           28 
 4708000   0.48563023   -4.7351884    2054.9663  0.036373661  0.035366255           35 
 4709000   0.50502133   -4.7375873    2055.1936  0.036369959  0.035357162           33 
 4710000   0.49864558    -4.735725    2056.5638  0.036386479  0.035348087           16 
 4711000   0.50438041   -4.7420951    2061.0816  0.036458672  0.035339032           20 
 4712000   0.50363384    -4.741526    2064.2006  0.036506095  0.035329982           27 
 4713000   0.49563852   -4.7561121    2059.0858  0.036407911  0.035320899           45 
 4714000     0.498063     -4.74623    2058.4683  0.036389271    0.0353118           22 
 4715000   0.49934817   -4.7349852    2057.4883  0.036364232   0.03530274           41 
 4716000   0.49423821   -4.7410898    2061.8477  0.036433555  0.035293687           31 
 4717000   0.49604403   -4.7547816    2057.0431  0.036340949  0.035284647           25 
 4718000   0.50301822   -4.7275569    2054.1551  0.036282237  0.035275554           43 
 4719000    0.4857708   -4.7734917       2057.4  0.036331849  0.035266483           32 
 4720000   0.49254453   -4.7352647    2063.5805  0.036433272  0.035257408           28 
 4721000   0.49784033   -4.7277634    2058.1598  0.036329871  0.035248331           68 
 4722000   0.49739383   -4.7442674    2055.3822  0.036273158  0.035239238           24 
 4723000    0.4919676   -4.7601287    2054.8939  0.036256862  0.035230135           28 
 4724000   0.49817125   -4.7616747    2056.6964  0.036280984   0.03522105           16 
 4725000   0.50090495   -4.7449133    2053.6192  0.036219033  0.035211969           14 
 4726000   0.49692635   -4.7299475    2051.6125  0.036175985  0.035202902           57 
 4727000    0.5003037   -4.7373556    2059.4363   0.03630626  0.035193825           28 
 4728000   0.49281351   -4.7468965    2054.9539  0.036219576  0.035184777           22 
 4729000   0.49851327   -4.7386492    2060.3906  0.036307721   0.03517573           22 
 4730000    0.4943404   -4.7299902    2053.0418  0.036170574  0.035166694           23 
 4731000   0.50755589   -4.7509239    2055.2588   0.03620198  0.035157652           29 
 4732000   0.50522467    -4.739451    2056.1845  0.036210631  0.035148607           26 
 4733000   0.50487401   -4.7317052    2060.7033  0.036282543  0.035139565           21 
 4734000   0.49329348   -4.7458739     2056.316  0.036197649  0.035130514           16 
 4735000   0.49238143   -4.7687522    2054.7562  0.036162552  0.035121474           17 
 4736000   0.50222868   -4.7577473    2057.2753  0.036199242  0.035112428           11 
 4737000   0.48939694   -4.7339863    2055.0715   0.03615283  0.035103365           24 
 4738000   0.47991171   -4.7378017    2058.5952  0.036207177  0.035094318           33 
 4739000   0.50169493   -4.7495358    2053.1236   0.03610332  0.035085252           26 
 4740000   0.49063255   -4.7512434    2058.2382  0.036185622  0.035076196           31 
 4741000   0.49826236   -4.7493011    2051.4862   0.03605931  0.035067142           20 
 4742000   0.49475499   -4.7627886    2055.7323  0.036126324  0.035058087           16 
 4743000   0.48775556   -4.7429606    2052.4439   0.03606093  0.035049025           20 
 4744000   0.48539551   -4.7552527    2053.9031  0.036078961  0.035039941           22 
 4745000   0.49184526   -4.7470192    2052.5355  0.036047339  0.035030878           23 
 4746000   0.49709466   -4.7641783    2055.4804  0.036091452  0.035021807           34 
 4747000   0.49152578   -4.7317478    2055.5342  0.036084794  0.035012754           48 
 4748000   0.49080123   -4.7352267     2061.293  0.036178267  0.035003717           55 
 4749000   0.48794205   -4.7320307    2057.0289  0.036095825  0.034994695           46 
 4750000   0.49074665   -4.7493238    2056.8501   0.03608509  0.034985667           94 
 4751000    0.4862798   -4.7567644    2056.9013  0.036078392  0.034976637           31 
 4752000   0.48902901   -4.7517382    2055.7852  0.036051228  0.034967617           17 
 4753000   0.48901713   -4.7628048    2060.9364  0.036133958  0.034958573           40 
 4754000   0.49477886   -4.7455236    2053.7761  0.036000844  0.034949551           22 
 4755000   0.49249281   -4.7695391    2053.7272  0.035992415  0.034940515           27 
 4756000   0.49358801   -4.7652076     2058.727  0.036072452  0.034931477           16 
 4757000   0.49476585   -4.7611909     2054.694  0.035994218  0.034922434           52 
 4758000   0.48142698   -4.7521793    2051.9862  0.035939229  0.034913369           41 
 4759000   0.48717427   -4.7462942    2058.5561   0.03604672  0.034904342           27 
 4760000   0.48723943   -4.7512848    2058.1681  0.036032355  0.034895312           65 
 4761000   0.48880149   -4.7379213    2056.0281  0.035987329  0.034886312           37 
 4762000   0.49027917   -4.7569086    2054.8766  0.035959621  0.034877304           54 
 4763000   0.48765643   -4.7512653    2052.9561  0.035918471  0.034868274           20 
 4764000   0.47960816    -4.759186      2055.76  0.035959978  0.034859271           24 
 4765000   0.49034374   -4.7609095    2059.8865  0.036024598  0.034850245           58 
 4766000    0.4856626   -4.7498364    2053.2177  0.035900435  0.034841187           41 
 4767000   0.49528606   -4.7400911    2054.9734  0.035923597  0.034832161           59 
 4768000   0.48604537   -4.7576545    2054.4337  0.035906629  0.034823141           32 
 4769000   0.49228103   -4.7525278    2053.6463  0.035885341  0.034814096           36 
 4770000   0.49722854   -4.7641181    2053.1997  0.035870017  0.034805064           21 
 4771000   0.48489899   -4.7528306    2053.0869  0.035860527  0.034796037           17 
 4772000   0.48457912   -4.7664292     2054.773  0.035882456   0.03478701           15 
 4773000   0.49592078   -4.7466948    2053.6316  0.035855011  0.034777989           18 
 4774000   0.48960343    -4.762805    2059.1075  0.035943087  0.034768984           19 
 4775000   0.49424377   -4.7605429    2057.2952   0.03590393  0.034759962           20 
 4776000   0.49529469   -4.7694005    2055.2445  0.035860631  0.034750938           16 
 4777000   0.49046882   -4.7645975    2048.5268  0.035735936  0.034741917           32 
 4778000   0.49091697   -4.7609588    2054.7174  0.035836427  0.034732883           19 
 4779000   0.48281138   -4.7682025    2054.9225  0.035832506  0.034723869           29 
 4780000   0.48831371   -4.7732555    2054.2038  0.035812479  0.034714846           19 
 4781000   0.48641565   -4.7444034    2052.0697  0.035767791  0.034705806           24 
 4782000   0.47963631   -4.7536887    2055.0989    0.0358131  0.034696803           27 
 4783000   0.49072836   -4.7574426    2057.3278  0.035844445  0.034687828           18 
 4784000   0.48196782   -4.7541764    2056.2886  0.035818851  0.034678837           46 
 4785000   0.48828893   -4.7604452    2053.4406  0.035761767  0.034669852           44 
 4786000   0.49782294   -4.7627734    2061.7135   0.03589834   0.03466089           37 
 4787000   0.48363036   -4.7632434    2056.5054  0.035800177   0.03465192           26 
 4788000   0.48224189   -4.7467491    2054.0495  0.035749956  0.034642945           21 
 4789000   0.48615347   -4.7590296    2054.7748  0.035755112  0.034633997           18 
 4790000   0.48802975   -4.7733781    2054.8671  0.035749254  0.034625037           17 
 4791000   0.48520902    -4.778659    2051.6813   0.03568638  0.034616051           21 
 4792000   0.49153203   -4.7515604    2055.6757  0.035748395  0.034607071           23 
 4793000   0.50087707   -4.7513551    2059.1638  0.035801582  0.034598123           28 
 4794000   0.49257034   -4.7503384    2051.7242  0.035664793  0.034589169           28 
 4795000   0.48971282   -4.7763056    2052.4716  0.035670344  0.034580199           58 
 4796000   0.47790139   -4.7482556    2054.0507  0.035690344  0.034571254           20 
 4797000   0.48936311   -4.7651557    2049.6722  0.035606841  0.034562293           31 
 4798000   0.48304576   -4.7606214    2050.4256  0.035612505  0.034553299           38 
 4799000   0.48334772   -4.7796692    2052.1529  0.035635079  0.034544305           31 
 4800000   0.48479722   -4.7568059    2052.7212   0.03563752  0.034535319           46 
 4801000   0.47673316    -4.775672    2051.3587  0.035606449  0.034526341           30 
 4802000   0.48003475   -4.7694243    2045.5213  0.035497732  0.034517328           34 
 4803000   0.48066176   -4.7943004    2051.3103  0.035590782  0.034508302           52 
 4804000   0.48707402   -4.7806422    2053.5329  0.035621927  0.034499273           38 
 4805000   0.48252828   -4.7690576    2054.9927  0.035639832  0.034490249           14 
 4806000   0.48867486   -4.7848026    2049.5207  0.035537535  0.034481255           88 
 4807000   0.49191202   -4.7568118    2056.8411  0.035657046  0.034472254           54 
 4808000   0.48512773   -4.7715229    2055.5138  0.035626625   0.03446329           96 
 4809000   0.48484583   -4.7681011    2052.6599  0.035569763  0.034454309           49 
 4810000   0.49477876   -4.7630773    2057.4072  0.035644615  0.034445351           47 
 4811000   0.48108595   -4.7726377    2054.4573   0.03558611  0.034436402           64 
 4812000   0.47062122   -4.7684437    2057.8516  0.035637496  0.034427454           32 
 4813000   0.47219306   -4.7820733     2055.159  0.035583472  0.034418528           37 
 4814000   0.48197625   -4.7635268    2052.1687  0.035524317  0.034409608           38 
 4815000   0.48194411   -4.7610947    2054.7348   0.03556135  0.034400704           23 
 4816000   0.47119748   -4.7693198     2055.917  0.035574422  0.034391787           17 
 4817000   0.48636586   -4.7983548    2050.9485  0.035481083  0.034382831           34 
 4818000   0.46986695   -4.7657078    2048.7381  0.035435487  0.034373842           53 
 4819000   0.47800167   -4.7911262    2051.3863  0.035473927  0.034364871           40 
 4820000   0.47759088   -4.7905919    2049.2647  0.035429888  0.034355887           50 
 4821000   0.48371066   -4.7783441    2051.8763  0.035467681  0.034346909           48 
 4822000   0.47522657    -4.766491    2052.0935  0.035464079   0.03433798           44 
 4823000   0.48265966    -4.793603    2055.5336  0.035516166  0.034329032           53 
 4824000   0.47796297   -4.7799392    2049.3208  0.035401479  0.034320067           51 
 4825000   0.48096336    -4.788051    2055.8489   0.03550689  0.034311112           65 
 4826000   0.47293329    -4.781607    2050.7428  0.035411362  0.034302169           32 
 4827000   0.48650114   -4.7961832    2051.3805  0.035415036  0.034293215           34 
 4828000   0.48597637   -4.7765258    2054.2975  0.035458049  0.034284257           91 
 4829000    0.4809721   -4.7930921    2051.2975  0.035398935   0.03427532           40 
 4830000   0.46989897   -4.7893045    2051.2164  0.035390206  0.034266387           29 
 4831000   0.47582556   -4.7832212    2049.8954  0.035360094  0.034257434           95 
 4832000   0.46866765   -4.7908971    2051.5462  0.035381246  0.034248481           69 
 4833000   0.47818728   -4.7899117    2055.1808  0.035436595  0.034239549           63 
 4834000   0.48040411   -4.7807099    2053.4748  0.035399855  0.034230621           81 
 4835000   0.47601993   -4.7887701    2055.0544  0.035419759  0.034221684           98 
 4836000   0.47555944    -4.792964    2056.3297   0.03543441  0.034212738           82 
 4837000   0.48001224   -4.7844903    2051.5168  0.035344167  0.034203806           27 
 4838000   0.47531486   -4.7745766    2056.5317  0.035423242  0.034194888           54 
 4839000   0.47645911   -4.7880858    2051.1005  0.035322389  0.034185972           97 
 4840000   0.47452651    -4.794655    2050.7367  0.035308827  0.034177051           73 
 4841000   0.47605483    -4.775447     2057.345   0.03541529  0.034168135          117 
 4842000   0.46638517   -4.7802727    2051.0407  0.035299475  0.034159241           52 
 4843000   0.47254423   -4.7764366    2054.2362  0.035347171  0.034150337           88 
 4844000   0.48230643    -4.781859    2050.4261  0.035274327  0.034141432           76 
 4845000   0.47317479   -4.7934942    2047.7124  0.035220371  0.034132511           33 
 4846000   0.47773682   -4.7908023    2052.1768  0.035289874  0.034123593           66 
 4847000    0.4767383    -4.786585    2050.5519  0.035254657  0.034114637           68 
 4848000   0.47164039   -4.7816043    2051.5274  0.035264153  0.034105708           67 
 4849000    0.4767227   -4.7956728    2050.9683  0.035247272  0.034096818           44 
 4850000   0.47037057   -4.7853044    2049.7685   0.03521939  0.034087908           29 
 4851000   0.48200556   -4.8084601    2052.7523  0.035263388  0.034079002           65 
 4852000   0.47521158   -4.7927385    2049.9348  0.035207728  0.034070108           81 
 4853000    0.4728709   -4.7759639    2052.2934  0.035240974  0.034061221           68 
 4854000   0.45980998   -4.7918371    2050.6239  0.035205052  0.034052333           87 
 4855000   0.46944978   -4.7855284    2046.8404   0.03513286  0.034043434          117 
 4856000    0.4655431    -4.787222    2051.9035  0.035212511  0.034034559           56 
 4857000   0.48654858   -4.7991477    2056.1491  0.035278105    0.0340257           47 
 4858000   0.47253738   -4.7911098    2052.5873  0.035209744  0.034016839           31 
 4859000   0.47700225   -4.7961867    2049.5939   0.03515116  0.034007957           29 
 4860000   0.46946345   -4.7938289    2055.8995   0.03525205  0.033999084           43 
 4861000   0.47667768     -4.78729    2052.1324  0.035180217  0.033990196           54 
 4862000   0.47356181   -4.7939688     2055.954  0.035238483  0.033981347           51 
 4863000   0.47126279   -4.7770739    2053.0539   0.03518154  0.033972517           35 
 4864000   0.47379064    -4.797932    2057.0915  0.035243481  0.033963701           18 
 4865000   0.48553935   -4.7809746    2055.7498  0.035213254   0.03395489           18 
 4866000    0.4752816   -4.7818747    2055.6242  0.035203867  0.033946064           14 
 4867000   0.48219188   -4.7970368    2052.3203  0.035140065  0.033937232           18 
 4868000   0.47605554   -4.7853063    2054.9795  0.035178367  0.033928406           30 
 4869000    0.4723621   -4.7963167    2050.9301  0.035101837  0.033919575           25 
 4870000   0.46798926    -4.806371    2048.5446   0.03505381  0.033910746           19 
 4871000   0.47986496    -4.799505    2052.3467  0.035111659  0.033901918           24 
 4872000   0.47054201   -4.7981075    2056.2709  0.035171574  0.033893099            9 
 4873000   0.46650967   -4.7953398    2054.4999   0.03513407  0.033884277           36 
 4874000    0.4712506   -4.8060972    2053.1464  0.035103721  0.033875455           18 
 4875000   0.47533138   -4.8133482    2047.3215  0.034996948  0.033866634           44 
 4876000   0.46493989   -4.7745999     2051.298  0.035057732  0.033857802           28 
 4877000   0.47308844   -4.7977928    2051.1288  0.035047653  0.033848943           22 
 4878000   0.47395472   -4.8067528    2054.8681  0.035104348  0.033840098           17 
 4879000   0.47109972   -4.8047296    2052.5201  0.035057049  0.033831249           18 
 4880000   0.47501137   -4.7947074    2054.8062  0.035088903  0.033822432           42 
 4881000   0.47718205   -4.7978253    2046.1985  0.034934755  0.033813615           35 
 4882000   0.46104921   -4.8035511    2050.7817  0.035005832  0.033804778           15 
 4883000   0.48288257   -4.7737181    2053.1771  0.035039543  0.033795965           16 
 4884000   0.46791521   -4.7911225    2053.6063  0.035039693  0.033787145           18 
 4885000   0.47786189   -4.7972301    2048.6329  0.034947678  0.033778331           14 
 4886000   0.46128111    -4.782915    2057.5332  0.035092325  0.033769553           19 
 4887000   0.47865636   -4.7894616    2057.9881    0.0350929  0.033760774           30 
 4888000   0.47024766   -4.7938746    2053.0999  0.035002385  0.033752002           42 
 4889000   0.47248477   -4.7932461    2048.3254  0.034913844  0.033743203           93 
 4890000   0.47205214   -4.7988583    2053.1828  0.034989483  0.033734409           87 
 4891000   0.46951496   -4.7986554     2055.946  0.035029409  0.033725603           79 
 4892000    0.4701462   -4.7881659    2050.5837  0.034930902  0.033716794           64 
 4893000   0.47182477   -4.8059501    2049.8549  0.034911351  0.033707956           58 
 4894000   0.45360563   -4.8088661    2054.1907  0.034978046  0.033699128           52 
 4895000   0.47468637   -4.8033016    2050.5587  0.034909069  0.033690321           36 
 4896000    0.4734534    -4.797068     2048.136  0.034860702  0.033681513           23 
 4897000   0.46112021   -4.8142207    2049.5235  0.034877196  0.033672726           39 
 4898000   0.47093044   -4.7938468    2052.1594   0.03491492  0.033663938           85 
 4899000   0.48057292   -4.8021554    2049.1578  0.034856736  0.033655161           43 
 4900000   0.46293557   -4.8019824    2055.3229   0.03495447  0.033646397           50 
 4901000   0.46661568   -4.8071938      2055.46   0.03494967  0.033637611           39 
 4902000   0.47935869   -4.7992189    2053.8256  0.034914755  0.033628833           20 
 4903000   0.47463324   -4.8066014    2054.4171  0.034917689  0.033620053           32 
 4904000   0.46287164   -4.8033585    2053.7062  0.034898488  0.033611308           24 
 4905000   0.47661602   -4.8010268     2054.368  0.034902617  0.033602562           44 
 4906000   0.47418978   -4.8036387    2053.1002  0.034873968  0.033593777           28 
 4907000   0.47510448   -4.8051365    2049.7686  0.034810281  0.033585005           47 
 4908000   0.46170288   -4.8127617    2052.8517  0.034855538  0.033576228           35 
 4909000   0.46850666   -4.7977838    2049.4193  0.034790169  0.033567444           21 
 4910000   0.45471277   -4.7974103    2051.2335  0.034813875  0.033558698           27 
 4911000   0.46504415   -4.8003807    2054.8771  0.034868613  0.033549933           27 
 4912000   0.47342773   -4.7804854    2056.7401   0.03489312  0.033541196           27 
 4913000   0.46336074   -4.8011559    2052.7698  0.034818675   0.03353248           45 
 4914000   0.46636917   -4.7999235    2050.6226  0.034775177  0.033523733           23 
 4915000   0.46183584   -4.8182395    2052.9691  0.034807885  0.033514965           37 
 4916000   0.46797629   -4.7994576    2050.7908  0.034763881  0.033506229           44 
 4917000   0.45825137   -4.8018636    2051.9591   0.03477661  0.033497482           25 
 4918000   0.47421742    -4.811335    2046.1583  0.034671247  0.033488746           17 
 4919000   0.47348795   -4.8077941    2052.4029  0.034769989  0.033479992           12 
 4920000   0.45893147   -4.7997168    2049.8925  0.034720402  0.033471238           24 
 4921000   0.46356363   -4.8092082    2052.0884  0.034750531  0.033462494           28 
 4922000   0.46072862   -4.8042038    2050.3676  0.034714337  0.033453748           16 
 4923000   0.45149918   -4.8174884    2050.4029  0.034707883  0.033444984           52 
 4924000   0.45266194   -4.8168918    2051.2182  0.034714632  0.033436208           26 
 4925000   0.46493897   -4.8084998    2047.2506  0.034640451  0.033427428           59 
 4926000   0.46311303   -4.8117633    2051.6859   0.03470845  0.033418654           28 
 4927000    0.4591426    -4.829259    2053.2241  0.034727422  0.033409868           49 
 4928000   0.45924491   -4.8113064    2050.6775  0.034677312  0.033401108           30 
 4929000   0.46324631   -4.8031868    2046.9458  0.034607186  0.033392337           64 
 4930000   0.45960577   -4.8197003    2049.5706  0.034644533  0.033383571           58 
 4931000   0.47477039   -4.8062736    2049.3429   0.03463366  0.033374824           52 
 4932000   0.46950524   -4.8159329    2048.9244  0.034619566   0.03336607           32 
 4933000   0.45940277   -4.7995522    2049.9834  0.034630439  0.033357326           19 
 4934000   0.47267461    -4.815118    2046.6635  0.034567348  0.033348579           54 
 4935000   0.45631463    -4.837205    2050.2166  0.034620341  0.033339843           41 
 4936000   0.46369302   -4.8196529    2050.1571  0.034612323  0.033331104           29 
 4937000   0.46650169   -4.8226298    2048.9919  0.034585645  0.033322369           42 
 4938000    0.4659817   -4.8171841    2051.4703  0.034620466   0.03331364           36 
 4939000   0.46300649   -4.8168475    2049.5841  0.034581632   0.03330493           35 
 4940000   0.46058613   -4.8132097    2053.3733  0.034638552  0.033296204           50 
 4941000   0.46420491   -4.8298665    2048.2214   0.03454465  0.033287487           32 
 4942000   0.45875129   -4.8135833    2049.8424  0.034564994  0.033278761           26 
 4943000   0.46016432   -4.8040166    2055.2749  0.034649586  0.033270066           56 
 4944000   0.45443545   -4.8055945    2049.5273    0.0345457  0.033261378           31 
 4945000   0.46085689   -4.8122916    2051.8817  0.034578391  0.033252679           37 
 4946000   0.46999383   -4.8020942     2052.239   0.03457742  0.033244033           57 
 4947000   0.46181823   -4.8209938    2050.8046  0.034546267  0.033235337           73 
 4948000   0.46436587   -4.8319189    2051.1908  0.034545789  0.033226642           54 
 4949000   0.45565843   -4.8150198    2051.7019  0.034547415  0.033217932           49 
 4950000   0.45437593   -4.8148569    2051.8043  0.034542159  0.033209253           38 
 4951000   0.46510596   -4.8114868    2054.9087  0.034587434  0.033200557           41 
 4952000   0.46313781   -4.8260739    2049.4879  0.034489228  0.033191863           42 
 4953000   0.46043927   -4.8330602    2047.4524  0.034448018   0.03318316           46 
 4954000   0.46531172   -4.8233018    2053.4676  0.034542249  0.033174457           38 
 4955000   0.45659374   -4.8334642    2045.6763  0.034404243   0.03316575           56 
 4956000   0.46162305   -4.8374922    2052.3441  0.034509417  0.033157041           63 
 4957000    0.4681256   -4.8255595    2049.1921  0.034449466  0.033148317           34 
 4958000   0.46194182   -4.8218397    2048.7147  0.034434495  0.033139608           49 
 4959000   0.45882116   -4.8235451    2050.9158   0.03446454  0.033130921           34 
 4960000    0.4613617   -4.8204937    2046.3423  0.034380752  0.033122204           43 
 4961000   0.45916475   -4.8111149    2052.7192  0.034480938  0.033113532           34 
 4962000    0.4440199   -4.8240717    2046.4184  0.034368171  0.033104831           26 
 4963000   0.45721872   -4.8365221    2052.5618    0.0344644  0.033096127           73 
 4964000   0.46048341   -4.8353789    2040.3871  0.034253074  0.033087425           43 
 4965000   0.45421848   -4.8384714    2049.5163  0.034399401  0.033078721           58 
 4966000    0.4548618   -4.8328698    2050.1636  0.034403337  0.033070012           20 
 4967000   0.45071763   -4.8491559    2049.1416  0.034379263  0.033061315           20 
 4968000   0.45499698   -4.8192956    2045.1477  0.034305349  0.033052608           19 
 4969000   0.45600729   -4.8316206     2046.399   0.03431943  0.033043929           26 
 4970000   0.45431104   -4.8353412    2048.9191  0.034354781  0.033035267           11 
 4971000   0.46359001   -4.8183488    2046.9521  0.034314895   0.03302661           30 
 4972000   0.45371244   -4.8346751     2052.581  0.034402336  0.033017951           16 
 4973000   0.46385875   -4.8255686    2052.2353  0.034389625  0.033009305           68 
 4974000   0.44884664   -4.8270324    2047.3039  0.034300092   0.03300067           38 
 4975000   0.46506558   -4.8356879    2049.0287  0.034322088  0.032992017           35 
 4976000   0.44936671   -4.8318119    2050.9381  0.034347167  0.032983381           22 
 4977000   0.46035722   -4.8322247    2050.1047  0.034326313  0.032974751           41 
 4978000   0.47653827   -4.8294525    2048.6043    0.0342943  0.032966129           38 
 4979000   0.44778165   -4.8262922    2051.0935  0.034329074  0.032957495           31 
 4980000   0.46111222   -4.8275223    2049.1892  0.034290315  0.032948876           61 
 4981000   0.45557057   -4.8467793    2054.5292  0.034372769  0.032940254           26 
 4982000   0.45242376   -4.8213947     2048.817  0.034270323  0.032931614           60 
 4983000    0.4620475    -4.843122     2051.385  0.034306392  0.032922966           46 
 4984000   0.45537382   -4.8252541    2044.3824  0.034182423  0.032914332           66 
 4985000   0.45352325   -4.8426905    2048.7972  0.034249369  0.032905689           37 
 4986000   0.45273563   -4.8463337    2052.4281  0.034303184  0.032897063           71 
 4987000   0.45438761   -4.8338091    2050.2467  0.034259854  0.032888425           86 
 4988000    0.4498179   -4.8243827    2053.3219  0.034304362  0.032879801           89 
 4989000   0.45461093   -4.8291939    2050.7609  0.034254708  0.032871176          101 
 4990000   0.45850217   -4.8380071    2049.6773  0.034229747  0.032862528           54 
 4991000   0.45331165   -4.8405394    2051.4241  0.034252055  0.032853886           51 
 4992000   0.45694033   -4.8338266    2048.7679  0.034200852  0.032845258           29 
 4993000   0.45308145   -4.8435702    2048.5112  0.034189719  0.032836626          137 
 4994000   0.45107642   -4.8488326     2052.344   0.03424683  0.032827996          150 
 4995000   0.45195435   -4.8346399     2050.352   0.03420674  0.032819382          112 
 4996000   0.44403568   -4.8403208    2047.1087  0.034145796  0.032810767          140 
 4997000   0.46011422   -4.8404305    2050.7437  0.034199582   0.03280215          140 
 4998000   0.43737652   -4.8305652    2046.3799   0.03411998  0.032793542          148 
 4999000   0.45082182   -4.8500773     2047.428  0.034130626  0.032784927          159 
 5000000   0.45493959   -4.8439349    2046.0043  0.034100071  0.032776302          158 
 5001000    0.4426137   -4.8517606    2047.4775  0.034117801  0.032767696           46 
 5002000   0.44733229   -4.8435173    2048.8299  0.034133512  0.032759085          212 
 5003000   0.44666777    -4.843541    2045.0733  0.034064116  0.032750468          167 
 5004000   0.45023839   -4.8495414    2046.8369   0.03408668  0.032741853           92 
 5005000   0.45787872   -4.8344682    2042.9971  0.034015936  0.032733248          250 
 5006000   0.46171556   -4.8356474     2049.005  0.034109152  0.032724666          178 
 5007000   0.45748475   -4.8457842     2048.798  0.034098895  0.032716087          236 
 5008000   0.44944313    -4.848244    2049.5488   0.03410458    0.0327075          134 
 5009000   0.45978612    -4.837584    2049.8956   0.03410354  0.032698916          158 
 5010000   0.45632226   -4.8447187    2049.7179  0.034093777  0.032690336          283 
 5011000   0.44831175   -4.8406279    2045.6849  0.034019905   0.03268174          328 
 5012000   0.44213541   -4.8344692    2051.0251  0.034101907  0.032673165          258 
Loop time of 12543.4 on 48 procs for 5000000 steps with 4000 atoms

Performance: 68880.880 tau/day, 398.616 timesteps/s
99.4% CPU use with 48 MPI tasks x no OpenMP threads

MPI task timing breakdown:
Section |  min time  |  avg time  |  max time  |%varavg| %total
---------------------------------------------------------------
Pair    | 858.67     | 918.87     | 988.75     | 109.0 |  7.33
Neigh   | 83.351     | 87.265     | 90.864     |  24.6 |  0.70
Comm    | 799.87     | 865.41     | 937.71     | 111.7 |  6.90
Output  | 15.105     | 15.11      | 15.198     |   0.3 |  0.12
Modify  | 10512      | 10538      | 10561      |  12.5 | 84.02
Other   |            | 118.4      |            |       |  0.94

Nlocal:        83.3333 ave          92 max          77 min
Histogram: 3 4 9 4 12 4 6 1 3 2
Nghost:        2262.94 ave        2296 max        2238 min
Histogram: 3 3 8 8 9 4 7 2 3 1
Neighs:        15274.8 ave       17265 max       13546 min
Histogram: 3 3 5 12 3 9 4 6 1 2
FullNghs:      30549.9 ave       34544 max       28172 min
Histogram: 5 7 10 4 9 3 7 1 1 1

Total # of neighbors = 1466393
Ave neighs/atom = 366.59825
Neighbor list builds = 270147
Dangerous builds = 0

#clear
#
#next RN
#
#jump SELF
Total wall time: 3:29:06
